# el_label, x, y, sXX, sYY, sZZ, sXY
1.000000000000000000e+00 4.681862258911132812e+01 -6.471731662750244141e+00 -3.804264783859252930e+00 -2.685555458068847656e+00 -1.946946144104003906e+00 -2.672757625579833984e+00
2.000000000000000000e+00 4.662100601196289062e+01 -6.495491027832031250e+00 1.222398653626441956e-01 1.041586279869079590e+00 3.491478562355041504e-01 7.806094288825988770e-01
3.000000000000000000e+00 4.642338562011718750e+01 -6.519250869750976562e+00 -1.215122938156127930e+00 -4.471844136714935303e-01 -4.986922144889831543e-01 2.381718158721923828e-02
4.000000000000000000e+00 4.622576904296875000e+01 -6.543010711669921875e+00 -1.642048716545104980e+00 2.504883110523223877e-01 -4.174681305885314941e-01 1.890749484300613403e-01
5.000000000000000000e+00 4.683123397827148438e+01 -6.528758525848388672e+00 1.116373443603515625e+01 -2.351915121078491211e+00 2.643545866012573242e+00 2.286173582077026367e+00
6.000000000000000000e+00 4.664202117919921875e+01 -6.590536117553710938e+00 3.996269702911376953e+00 4.502578079700469971e-01 1.333958268165588379e+00 1.501785874366760254e+00
7.000000000000000000e+00 4.645281219482421875e+01 -6.652313709259033203e+00 3.679949283599853516e+00 8.896773457527160645e-01 1.370887994766235352e+00 2.268945455551147461e+00
8.000000000000000000e+00 4.626359939575195312e+01 -6.714091300964355469e+00 2.533845424652099609e+00 2.989327013492584229e-01 8.498334288597106934e-01 1.482488274574279785e+00
9.000000000000000000e+00 4.685470199584960938e+01 -6.582239151000976562e+00 1.591924381256103516e+01 3.011003017425537109e+00 5.679073810577392578e+00 9.293899536132812500e+00
1.000000000000000000e+01 4.668114089965820312e+01 -6.679670810699462891e+00 9.625765800476074219e+00 1.777000904083251953e+00 3.420829772949218750e+00 5.462399959564208984e+00
1.100000000000000000e+01 4.650757598876953125e+01 -6.777102470397949219e+00 6.509672164916992188e+00 2.244467735290527344e+00 2.626241922378540039e+00 4.320405006408691406e+00
1.200000000000000000e+01 4.633401107788085938e+01 -6.874534130096435547e+00 5.497008800506591797e+00 2.099260330200195312e+00 2.278880834579467773e+00 4.069020271301269531e+00
1.300000000000000000e+01 4.688813400268554688e+01 -6.630127429962158203e+00 1.718701362609863281e+01 1.014073085784912109e+01 8.198323249816894531e+00 1.455496501922607422e+01
1.400000000000000000e+01 4.673686218261718750e+01 -6.759484291076660156e+00 1.110648441314697266e+01 6.322810173034667969e+00 5.228788375854492188e+00 9.512629508972167969e+00
1.500000000000000000e+01 4.658558654785156250e+01 -6.888841629028320312e+00 8.713350296020507812e+00 5.111344337463378906e+00 4.147408485412597656e+00 7.511913776397705078e+00
1.600000000000000000e+01 4.643431091308593750e+01 -7.018198490142822266e+00 6.825308799743652344e+00 4.599429607391357422e+00 3.427421569824218750e+00 6.422986030578613281e+00
1.700000000000000000e+01 4.693025207519531250e+01 -6.670590400695800781e+00 1.513276290893554688e+01 1.888600540161132812e+01 1.020563030242919922e+01 1.758605194091796875e+01
1.800000000000000000e+01 4.680705642700195312e+01 -6.826922893524169922e+00 1.097390174865722656e+01 1.229775428771972656e+01 6.981496810913085938e+00 1.238766384124755859e+01
1.900000000000000000e+01 4.668386077880859375e+01 -6.983255386352539062e+00 8.486371994018554688e+00 9.743484497070312500e+00 5.468956947326660156e+00 9.889952659606933594e+00
2.000000000000000000e+01 4.656066131591796875e+01 -7.139587879180908203e+00 7.156044006347656250e+00 8.318956375122070312e+00 4.642499923706054688e+00 8.632310867309570312e+00
2.100000000000000000e+01 4.697944259643554688e+01 -6.702079772949218750e+00 1.231035804748535156e+01 2.779114151000976562e+01 1.203044986724853516e+01 1.793941497802734375e+01
2.200000000000000000e+01 4.688903808593750000e+01 -6.879405498504638672e+00 9.089733123779296875e+00 1.897815513610839844e+01 8.420366287231445312e+00 1.336114025115966797e+01
2.300000000000000000e+01 4.679863357543945312e+01 -7.056730747222900391e+00 7.484015941619873047e+00 1.524919414520263672e+01 6.819962978363037109e+00 1.111344718933105469e+01
2.400000000000000000e+01 4.670822906494140625e+01 -7.234056472778320312e+00 6.016932964324951172e+00 1.300506687164306641e+01 5.706600189208984375e+00 9.586588859558105469e+00
2.500000000000000000e+01 4.703381729125976562e+01 -6.723391056060791016e+00 9.165813446044921875e+00 3.572834777832031250e+01 1.346824836730957031e+01 1.568790817260742188e+01
2.600000000000000000e+01 4.697966766357421875e+01 -6.914923667907714844e+00 7.327712059020996094e+00 2.542833328247070312e+01 9.826813697814941406e+00 1.250444507598876953e+01
2.700000000000000000e+01 4.692551422119140625e+01 -7.106456279754638672e+00 5.664135456085205078e+00 2.067920303344726562e+01 7.903001785278320312e+00 1.064124965667724609e+01
2.800000000000000000e+01 4.687136077880859375e+01 -7.297989368438720703e+00 4.859296321868896484e+00 1.806955528259277344e+01 6.878655433654785156e+00 9.497284889221191406e+00
2.900000000000000000e+01 4.709130477905273438e+01 -6.733707904815673828e+00 7.586569309234619141e+00 4.184328079223632812e+01 1.482895565032958984e+01 1.158497810363769531e+01
3.000000000000000000e+01 4.707547760009765625e+01 -6.932118415832519531e+00 5.713491439819335938e+00 3.074270248413085938e+01 1.093685817718505859e+01 9.946043014526367188e+00
3.100000000000000000e+01 4.705964660644531250e+01 -7.130528926849365234e+00 4.520555496215820312e+00 2.551045799255371094e+01 9.009304046630859375e+00 8.830907821655273438e+00
3.200000000000000000e+01 4.704381942749023438e+01 -7.328939914703369141e+00 3.652571916580200195e+00 2.215688705444335938e+01 7.742837905883789062e+00 7.947645187377929688e+00
3.300000000000000000e+01 4.714970016479492188e+01 -6.732635498046875000e+00 7.592062473297119141e+00 4.544523239135742188e+01 1.591118812561035156e+01 6.394014358520507812e+00
3.400000000000000000e+01 4.717280197143554688e+01 -6.930331707000732422e+00 5.398087501525878906e+00 3.454671859741210938e+01 1.198344230651855469e+01 6.447997093200683594e+00
3.500000000000000000e+01 4.719590377807617188e+01 -7.128027439117431641e+00 4.078362941741943359e+00 2.893030738830566406e+01 9.902601242065429688e+00 5.880958557128906250e+00
3.600000000000000000e+01 4.721900177001953125e+01 -7.325723648071289062e+00 3.223980426788330078e+00 2.538286399841308594e+01 8.582053184509277344e+00 5.415007591247558594e+00
3.700000000000000000e+01 4.720677185058593750e+01 -6.720215797424316406e+00 9.559198379516601562e+00 4.664161300659179688e+01 1.686024284362792969e+01 1.373803496360778809e+00
3.800000000000000000e+01 4.726791381835937500e+01 -6.909631729125976562e+00 6.404950141906738281e+00 3.641782379150390625e+01 1.284683227539062500e+01 2.516156435012817383e+00
3.900000000000000000e+01 4.732906341552734375e+01 -7.099047660827636719e+00 4.785305023193359375e+00 3.088028907775878906e+01 1.069967842102050781e+01 2.555927753448486328e+00
4.000000000000000000e+01 4.739020919799804688e+01 -7.288463592529296875e+00 3.808874607086181641e+00 2.732370567321777344e+01 9.339774131774902344e+00 2.468149662017822266e+00
4.100000000000000000e+01 4.726033020019531250e+01 -6.696923255920410156e+00 1.308283805847167969e+01 4.572444152832031250e+01 1.764218330383300781e+01 -2.733610868453979492e+00
4.200000000000000000e+01 4.735718154907226562e+01 -6.870810985565185547e+00 8.688479423522949219e+00 3.657715606689453125e+01 1.357969093322753906e+01 -1.015655994415283203e+00
4.300000000000000000e+01 4.745403289794921875e+01 -7.044698715209960938e+00 6.662272453308105469e+00 3.124940109252929688e+01 1.137350177764892578e+01 -5.710216760635375977e-01
4.400000000000000000e+01 4.755088424682617188e+01 -7.218586444854736328e+00 5.431349754333496094e+00 2.780370521545410156e+01 9.970516204833984375e+00 -2.774882018566131592e-01
4.500000000000000000e+01 4.730832672119140625e+01 -6.663649559020996094e+00 1.741917610168457031e+01 4.350088500976562500e+01 1.827601814270019531e+01 -5.300527095794677734e+00
4.600000000000000000e+01 4.743717956542968750e+01 -6.815354824066162109e+00 1.198833465576171875e+01 3.527587890625000000e+01 1.417926406860351562e+01 -3.614969253540039062e+00
4.700000000000000000e+01 4.756603240966796875e+01 -6.967060089111328125e+00 9.379289627075195312e+00 3.037437438964843750e+01 1.192609977722167969e+01 -2.878091812133789062e+00
4.800000000000000000e+01 4.769488525390625000e+01 -7.118765354156494141e+00 7.884995460510253906e+00 2.701933479309082031e+01 1.047129917144775391e+01 -2.460101604461669922e+00
4.900000000000000000e+01 4.734893035888671875e+01 -6.621667861938476562e+00 2.185064315795898438e+01 4.066061401367187500e+01 1.875337791442871094e+01 -6.195664405822753906e+00
5.000000000000000000e+01 4.750485229492187500e+01 -6.745385169982910156e+00 1.569158172607421875e+01 3.319783782958984375e+01 1.466682624816894531e+01 -4.877124309539794922e+00
5.100000000000000000e+01 4.766077423095703125e+01 -6.869102954864501953e+00 1.259750938415527344e+01 2.858663749694824219e+01 1.235524368286132812e+01 -4.064951419830322266e+00
5.200000000000000000e+01 4.781669235229492188e+01 -6.992820262908935547e+00 1.060624980926513672e+01 2.553868675231933594e+01 1.084348106384277344e+01 -3.581418991088867188e+00
5.300000000000000000e+01 4.738058471679687500e+01 -6.572584629058837891e+00 2.570546150207519531e+01 3.807270812988281250e+01 1.913345146179199219e+01 -5.548440456390380859e+00
5.400000000000000000e+01 4.755760574340820312e+01 -6.663579940795898438e+00 1.917840194702148438e+01 3.081760406494140625e+01 1.499880218505859375e+01 -4.742503643035888672e+00
5.500000000000000000e+01 4.773463058471679688e+01 -6.754575729370117188e+00 1.570655155181884766e+01 2.665389823913574219e+01 1.270813465118408203e+01 -4.010020732879638672e+00
5.600000000000000000e+01 4.791165161132812500e+01 -6.845570564270019531e+00 1.336448764801025391e+01 2.366341018676757812e+01 1.110836982727050781e+01 -3.542047977447509766e+00
5.700000000000000000e+01 4.740207672119140625e+01 -6.518278598785400391e+00 2.846966171264648438e+01 3.602636718750000000e+01 1.934880828857421875e+01 -3.749264955520629883e+00
5.800000000000000000e+01 4.759342575073242188e+01 -6.573069572448730469e+00 2.186038017272949219e+01 2.897355842590332031e+01 1.525018215179443359e+01 -3.371481657028198242e+00
5.900000000000000000e+01 4.778477859497070312e+01 -6.627860546112060547e+00 1.811750030517578125e+01 2.490188598632812500e+01 1.290581607818603516e+01 -2.871703386306762695e+00
6.000000000000000000e+01 4.797612762451171875e+01 -6.682651519775390625e+00 1.569711017608642578e+01 2.227642822265625000e+01 1.139206123352050781e+01 -2.597225904464721680e+00
6.100000000000000000e+01 4.741258239746093750e+01 -6.460827350616455078e+00 2.985640335083007812e+01 3.501889038085937500e+01 1.946258735656738281e+01 -1.301577091217041016e+00
6.200000000000000000e+01 4.761093902587890625e+01 -6.477317333221435547e+00 2.328857421875000000e+01 2.792747879028320312e+01 1.536481666564941406e+01 -1.147352933883666992e+00
6.300000000000000000e+01 4.780929946899414062e+01 -6.493807315826416016e+00 1.940388870239257812e+01 2.400159645080566406e+01 1.302164554595947266e+01 -1.041145563125610352e+00
6.400000000000000000e+01 4.800765609741210938e+01 -6.510297775268554688e+00 1.687157630920410156e+01 2.152222251892089844e+01 1.151813888549804688e+01 -9.466105103492736816e-01
6.500000000000000000e+01 4.741170501708984375e+01 -6.402429103851318359e+00 2.977265357971191406e+01 3.514629745483398438e+01 1.947568511962890625e+01 1.393521666526794434e+00
6.600000000000000000e+01 4.760947799682617188e+01 -6.379987716674804688e+00 2.321563720703125000e+01 2.794341278076171875e+01 1.534771537780761719e+01 1.285200595855712891e+00
6.700000000000000000e+01 4.780725097656250000e+01 -6.357545852661132812e+00 1.932407188415527344e+01 2.416139602661132812e+01 1.304563999176025391e+01 1.092460393905639648e+00
6.800000000000000000e+01 4.800502395629882812e+01 -6.335103988647460938e+00 1.671823883056640625e+01 2.153248405456542969e+01 1.147521686553955078e+01 9.443876743316650391e-01
6.900000000000000000e+01 4.739947509765625000e+01 -6.345319271087646484e+00 2.819899368286132812e+01 3.626459121704101562e+01 1.933907508850097656e+01 3.800875902175903320e+00
7.000000000000000000e+01 4.758909606933593750e+01 -6.284804344177246094e+00 2.164735221862792969e+01 2.916257667541503906e+01 1.524297809600830078e+01 3.377089977264404297e+00
7.100000000000000000e+01 4.777871704101562500e+01 -6.224289894104003906e+00 1.792030143737792969e+01 2.513470268249511719e+01 1.291650199890136719e+01 2.921248674392700195e+00
7.200000000000000000e+01 4.796833419799804688e+01 -6.163774967193603516e+00 1.546963691711425781e+01 2.253346633911132812e+01 1.140093135833740234e+01 2.590238094329833984e+00
7.300000000000000000e+01 4.737636184692382812e+01 -6.291683197021484375e+00 2.531545448303222656e+01 3.834127807617187500e+01 1.909701919555664062e+01 5.432145595550537109e+00
7.400000000000000000e+01 4.755057144165039062e+01 -6.195411205291748047e+00 1.885952568054199219e+01 3.116031646728515625e+01 1.500595283508300781e+01 4.607656478881835938e+00
7.500000000000000000e+01 4.772478103637695312e+01 -6.099138736724853516e+00 1.544760513305664062e+01 2.684890365600585938e+01 1.268895244598388672e+01 3.914185285568237305e+00
7.600000000000000000e+01 4.789899444580078125e+01 -6.002866268157958984e+00 1.328886985778808594e+01 2.403843116760253906e+01 1.119819068908691406e+01 3.468600988388061523e+00
7.700000000000000000e+01 4.734325027465820312e+01 -6.243573188781738281e+00 2.142575073242187500e+01 4.105564498901367188e+01 1.874441909790039062e+01 5.846704483032226562e+00
7.800000000000000000e+01 4.749538421630859375e+01 -6.115227699279785156e+00 1.533765029907226562e+01 3.343698501586914062e+01 1.463239097595214844e+01 4.583747863769531250e+00
7.900000000000000000e+01 4.764751815795898438e+01 -5.986881732940673828e+00 1.237073612213134766e+01 2.887046813964843750e+01 1.237236118316650391e+01 3.767009258270263672e+00
8.000000000000000000e+01 4.779965209960937500e+01 -5.858536243438720703e+00 1.043485641479492188e+01 2.570519256591796875e+01 1.084201431274414062e+01 3.260349512100219727e+00
8.100000000000000000e+01 4.730140304565429688e+01 -6.202830314636230469e+00 1.699360084533691406e+01 4.379853820800781250e+01 1.823764038085937500e+01 4.735508441925048828e+00
8.200000000000000000e+01 4.742564010620117188e+01 -6.047322750091552734e+00 1.172899818420410156e+01 3.545653152465820312e+01 1.415565872192382812e+01 3.099507570266723633e+00
8.300000000000000000e+01 4.754987716674804688e+01 -5.891815185546875000e+00 9.201592445373535156e+00 3.049698257446289062e+01 1.190957260131835938e+01 2.431960821151733398e+00
8.400000000000000000e+01 4.767411422729492188e+01 -5.736307621002197266e+00 7.624984741210937500e+00 2.723764610290527344e+01 1.045878887176513672e+01 1.990621447563171387e+00
8.500000000000000000e+01 4.725242614746093750e+01 -6.171013832092285156e+00 1.277348899841308594e+01 4.584497833251953125e+01 1.758554077148437500e+01 1.959382295608520508e+00
8.600000000000000000e+01 4.734400939941406250e+01 -5.994294643402099609e+00 8.604313850402832031e+00 3.658596420288085938e+01 1.355708408355712891e+01 3.333040475845336914e-01
8.700000000000000000e+01 4.743559646606445312e+01 -5.817575931549072266e+00 6.564885139465332031e+00 3.119138336181640625e+01 1.132688045501708984e+01 -1.224144175648689270e-02
8.800000000000000000e+01 4.752717971801757812e+01 -5.640857219696044922e+00 5.359671592712402344e+00 2.782542991638183594e+01 9.955530166625976562e+00 -1.674775928258895874e-01
8.900000000000000000e+01 4.719819259643554688e+01 -6.149340629577636719e+00 9.549988746643066406e+00 4.650686645507812500e+01 1.681705665588378906e+01 -2.309417247772216797e+00
9.000000000000000000e+01 4.725362014770507812e+01 -5.958173274993896484e+00 6.454669475555419922e+00 3.618946456909179688e+01 1.279324054718017578e+01 -3.262344837188720703e+00
9.100000000000000000e+01 4.730904769897460938e+01 -5.767005920410156250e+00 4.930499553680419922e+00 3.064944267272949219e+01 1.067398262023925781e+01 -3.205962419509887695e+00
9.200000000000000000e+01 4.736447906494140625e+01 -5.575838565826416016e+00 3.868102312088012695e+00 2.695544624328613281e+01 9.247064590454101562e+00 -3.009819030761718750e+00
9.300000000000000000e+01 4.714077758789062500e+01 -6.138640880584716797e+00 7.842825412750244141e+00 4.499798965454101562e+01 1.585224437713623047e+01 -7.395205974578857422e+00
9.400000000000000000e+01 4.715792846679687500e+01 -5.940340042114257812e+00 5.715002536773681641e+00 3.404987335205078125e+01 1.192946243286132812e+01 -7.154676437377929688e+00
9.500000000000000000e+01 4.717507934570312500e+01 -5.742039680480957031e+00 4.364451408386230469e+00 2.849389457702636719e+01 9.857503890991210938e+00 -6.499382495880126953e+00
9.600000000000000000e+01 4.719223022460937500e+01 -5.543738842010498047e+00 3.471840381622314453e+00 2.497061920166015625e+01 8.532737731933593750e+00 -5.988445758819580078e+00
9.700000000000000000e+01 4.708237838745117188e+01 -6.139323234558105469e+00 8.069024085998535156e+00 4.104007720947265625e+01 1.473273086547851562e+01 -1.244741153717041016e+01
9.800000000000000000e+01 4.706059265136718750e+01 -5.941477775573730469e+00 6.302384853363037109e+00 3.004603958129882812e+01 1.090452766418457031e+01 -1.056745338439941406e+01
9.900000000000000000e+01 4.703881072998046875e+01 -5.743632793426513672e+00 4.917575836181640625e+00 2.486360359191894531e+01 8.934353828430175781e+00 -9.291313171386718750e+00
1.000000000000000000e+02 4.701702880859375000e+01 -5.545786857604980469e+00 4.074168205261230469e+00 2.172228622436523438e+01 7.738936424255371094e+00 -8.334154129028320312e+00
1.010000000000000000e+02 4.702522659301757812e+01 -6.151362419128417969e+00 1.000039768218994141e+01 3.468892288208007812e+01 1.340679645538330078e+01 -1.630895233154296875e+01
1.020000000000000000e+02 4.696534347534179688e+01 -5.961543560028076172e+00 7.914581775665283203e+00 2.457652473449707031e+01 9.747331619262695312e+00 -1.292047500610351562e+01
1.030000000000000000e+02 4.690546035766601562e+01 -5.771724224090576172e+00 6.333143234252929688e+00 1.996290969848632812e+01 7.888815879821777344e+00 -1.093244838714599609e+01
1.040000000000000000e+02 4.684557723999023438e+01 -5.581904411315917969e+00 5.282348632812500000e+00 1.730943679809570312e+01 6.777535438537597656e+00 -9.654494285583496094e+00
1.050000000000000000e+02 4.697151184082031250e+01 -6.174297809600830078e+00 1.321074008941650391e+01 2.658967208862304688e+01 1.194012355804443359e+01 -1.823402214050292969e+01
1.060000000000000000e+02 4.687582015991210938e+01 -5.999768257141113281e+00 9.748936653137207031e+00 1.810840225219726562e+01 8.357201576232910156e+00 -1.350282096862792969e+01
1.070000000000000000e+02 4.678012847900390625e+01 -5.825238704681396484e+00 8.093914031982421875e+00 1.450942611694335938e+01 6.781002044677734375e+00 -1.122011470794677734e+01
1.080000000000000000e+02 4.668443679809570312e+01 -5.650709152221679688e+00 6.643609046936035156e+00 1.234666824340820312e+01 5.697082996368408203e+00 -9.686809539794921875e+00
1.090000000000000000e+02 4.692329406738281250e+01 -6.207250595092773438e+00 1.591590023040771484e+01 1.770154953002929688e+01 1.008523464202880859e+01 -1.753439140319824219e+01
1.100000000000000000e+02 4.679545593261718750e+01 -6.054689884185791016e+00 1.159175205230712891e+01 1.153243160247802734e+01 6.937254905700683594e+00 -1.224382114410400391e+01
1.110000000000000000e+02 4.666761779785156250e+01 -5.902129173278808594e+00 8.919354438781738281e+00 9.070632934570312500e+00 5.396996498107910156e+00 -9.845011711120605469e+00
1.120000000000000000e+02 4.653977584838867188e+01 -5.749567985534667969e+00 7.698408603668212891e+00 8.011171340942382812e+00 4.712873935699462891e+00 -8.533236503601074219e+00
1.130000000000000000e+02 4.688241195678710938e+01 -6.248960494995117188e+00 1.779949378967285156e+01 9.259621620178222656e+00 8.117734909057617188e+00 -1.414002323150634766e+01
1.140000000000000000e+02 4.672731781005859375e+01 -6.124207019805908203e+00 1.145878410339355469e+01 5.655146598815917969e+00 5.134179115295410156e+00 -9.246166229248046875e+00
1.150000000000000000e+02 4.657222366333007812e+01 -5.999452590942382812e+00 9.011734008789062500e+00 4.753057479858398438e+00 4.129437446594238281e+00 -7.264945507049560547e+00
1.160000000000000000e+02 4.641713333129882812e+01 -5.874698638916015625e+00 7.054228305816650391e+00 4.131583690643310547e+00 3.355743646621704102e+00 -6.143711566925048828e+00
1.170000000000000000e+02 4.685042953491210938e+01 -6.297832012176513672e+00 1.611597442626953125e+01 2.394953727722167969e+00 5.553278446197509766e+00 -8.746700286865234375e+00
1.180000000000000000e+02 4.667401885986328125e+01 -6.205658435821533203e+00 9.739769935607910156e+00 1.458376884460449219e+00 3.359444141387939453e+00 -5.114175319671630859e+00
1.190000000000000000e+02 4.649760437011718750e+01 -6.113484859466552734e+00 6.560220718383789062e+00 1.990821003913879395e+00 2.565312385559082031e+00 -4.028060436248779297e+00
1.200000000000000000e+02 4.632118988037109375e+01 -6.021311759948730469e+00 5.644196033477783203e+00 1.720064640045166016e+00 2.209278345108032227e+00 -3.853826999664306641e+00
1.210000000000000000e+02 4.682857513427734375e+01 -6.351993560791015625e+00 1.089541339874267578e+01 -2.494567394256591797e+00 2.520253658294677734e+00 -1.778655767440795898e+00
1.220000000000000000e+02 4.663759613037109375e+01 -6.295928478240966797e+00 3.820035457611083984e+00 3.706318736076354980e-01 1.257200241088867188e+00 -1.307239174842834473e+00
1.230000000000000000e+02 4.644661331176757812e+01 -6.239862442016601562e+00 3.678557395935058594e+00 7.132633924484252930e-01 1.317546248435974121e+00 -2.062844514846801758e+00
1.240000000000000000e+02 4.625563049316406250e+01 -6.183796882629394531e+00 2.463899135589599609e+00 2.141239196062088013e-01 8.034069538116455078e-01 -1.371866941452026367e+00
1.250000000000000000e+02 4.681768417358398438e+01 -6.409373760223388672e+00 -4.412752628326416016e+00 -2.485349655151367188e+00 -2.069430589675903320e+00 2.667036533355712891e+00
1.260000000000000000e+02 4.661944580078125000e+01 -6.391561508178710938e+00 -9.565439820289611816e-02 9.601505994796752930e-01 2.593488693237304688e-01 -7.564756274223327637e-01
1.270000000000000000e+02 4.642119979858398438e+01 -6.373749256134033203e+00 -1.362095952033996582e+00 -4.341110885143280029e-01 -5.388621091842651367e-01 -2.374272048473358154e-02
1.280000000000000000e+02 4.622295761108398438e+01 -6.355937004089355469e+00 -1.684476733207702637e+00 2.439152151346206665e-01 -4.321684539318084717e-01 -1.946942210197448730e-01
1.290000000000000000e+02 2.196186065673828125e+01 -6.700578212738037109e+00 -5.521598458290100098e-01 8.688624948263168335e-03 -1.630413681268692017e-01 4.943450447171926498e-03
1.300000000000000000e+02 2.033289909362792969e+01 -7.179516792297363281e+00 -3.653921186923980713e-01 3.210623934864997864e-02 -9.998576343059539795e-02 -1.208952963352203369e-01
1.310000000000000000e+02 2.261169624328613281e+01 -7.556783676147460938e+00 -7.546769976615905762e-01 2.446982823312282562e-02 -2.190621495246887207e-01 -1.550295650959014893e-01
1.320000000000000000e+02 2.185197448730468750e+01 -7.432458400726318359e+00 -6.168674230575561523e-01 2.995310351252555847e-02 -1.760742962360382080e-01 -1.453004330396652222e-01
1.330000000000000000e+02 2.270871162414550781e+01 -6.822772979736328125e+00 -7.508302330970764160e-01 -3.838925389572978020e-03 -2.264007478952407837e-01 1.068264525383710861e-02
1.340000000000000000e+02 2.121509361267089844e+01 -6.576943874359130859e+00 -3.918985426425933838e-01 8.824728429317474365e-03 -1.149221435189247131e-01 -1.149184256792068481e-02
1.350000000000000000e+02 2.046852302551269531e+01 -6.451897144317626953e+00 -2.491319477558135986e-01 1.404040586203336716e-02 -7.052746415138244629e-02 -2.724931575357913971e-02
1.360000000000000000e+02 2.109233665466308594e+01 -7.306693553924560547e+00 -4.753861725330352783e-01 3.371516242623329163e-02 -1.325013041496276855e-01 -1.300766021013259888e-01
1.370000000000000000e+02 2.421343040466308594e+01 -6.977969646453857422e+00 -1.084728121757507324e+00 3.264965256676077843e-03 -3.244389593601226807e-01 8.306868374347686768e-03
1.380000000000000000e+02 2.414235687255859375e+01 -7.714632511138916016e+00 -1.035243034362792969e+00 1.735145598649978638e-02 -3.053674697875976562e-01 -1.364894062280654907e-01
1.390000000000000000e+02 2.337517356872558594e+01 -7.650850772857666016e+00 -8.898864984512329102e-01 1.570343598723411560e-02 -2.622549235820770264e-01 -1.432716995477676392e-01
1.400000000000000000e+02 2.490980529785156250e+01 -7.777047634124755859e+00 -1.173005580902099609e+00 1.318799797445535660e-02 -3.479452729225158691e-01 -1.431702375411987305e-01
1.410000000000000000e+02 2.496787261962890625e+01 -7.039327144622802734e+00 -1.249263644218444824e+00 2.055461052805185318e-03 -3.741624355316162109e-01 1.540865097194910049e-02
1.420000000000000000e+02 2.567740631103515625e+01 -7.838097095489501953e+00 -1.289278388023376465e+00 -5.078844726085662842e-03 -3.883071839809417725e-01 -1.488810330629348755e-01
1.430000000000000000e+02 2.572246742248535156e+01 -7.099318504333496094e+00 -1.442193746566772461e+00 -9.171293117105960846e-03 -4.354095160961151123e-01 9.563731029629707336e-03
1.440000000000000000e+02 2.345925331115722656e+01 -6.915245532989501953e+00 -9.355171322822570801e-01 -2.968194894492626190e-03 -2.815456092357635498e-01 6.115362513810396194e-03
1.450000000000000000e+02 2.796761512756347656e+01 -7.914083957672119141e+00 -1.643528103828430176e+00 -4.047092981636524200e-03 -4.942725598812103271e-01 -1.494963616132736206e-01
1.460000000000000000e+02 2.720497512817382812e+01 -7.896495819091796875e+00 -1.536284685134887695e+00 -5.977548658847808838e-03 -4.626786410808563232e-01 -1.374550908803939819e-01
1.470000000000000000e+02 2.644245719909667969e+01 -7.877746582031250000e+00 -1.408868432044982910e+00 -1.099540013819932938e-02 -4.259591698646545410e-01 -1.378990262746810913e-01
1.480000000000000000e+02 2.873032188415527344e+01 -7.930514812469482422e+00 -1.733605742454528809e+00 -1.819509267807006836e-02 -5.255402326583862305e-01 -1.552530080080032349e-01
1.490000000000000000e+02 2.798519706726074219e+01 -7.174292564392089844e+00 -1.836531758308410645e+00 -1.965012867003679276e-03 -5.515490174293518066e-01 -2.587664499878883362e-02
1.500000000000000000e+02 2.723094940185546875e+01 -7.156898498535156250e+00 -1.708256959915161133e+00 8.294535800814628601e-04 -5.122282505035400391e-01 -2.350404486060142517e-02
1.510000000000000000e+02 2.873951339721679688e+01 -7.190530300140380859e+00 -1.985186338424682617e+00 -8.202524855732917786e-03 -5.980166792869567871e-01 -3.758246824145317078e-02
1.520000000000000000e+02 2.647681999206542969e+01 -7.138342857360839844e+00 -1.598602414131164551e+00 -1.222786214202642441e-02 -4.832490682601928711e-01 -1.180625986307859421e-02
1.530000000000000000e+02 2.949276733398437500e+01 -7.195246696472167969e+00 -2.103969573974609375e+00 -1.259512640535831451e-02 -6.349694132804870605e-01 -5.889452993869781494e-02
1.540000000000000000e+02 2.948995018005371094e+01 -7.935307502746582031e+00 -1.826242208480834961e+00 -1.720271073281764984e-02 -5.530334711074829102e-01 -1.501329094171524048e-01
1.550000000000000000e+02 3.024649810791015625e+01 -7.928795814514160156e+00 -1.922128558158874512e+00 -1.273882295936346054e-02 -5.804601907730102539e-01 -1.525451391935348511e-01
1.560000000000000000e+02 3.099722290039062500e+01 -7.181584835052490234e+00 -2.287322521209716797e+00 -4.491589032113552094e-03 -6.875442862510681152e-01 -7.555334270000457764e-02
1.570000000000000000e+02 3.175983238220214844e+01 -7.913609027862548828e+00 -2.065552473068237305e+00 -1.555725187063217163e-02 -6.243329048156738281e-01 -1.630219072103500366e-01
1.580000000000000000e+02 3.174956512451171875e+01 -7.173673152923583984e+00 -2.396485567092895508e+00 -5.952600389719009399e-03 -7.207314372062683105e-01 -8.427546173334121704e-02
1.590000000000000000e+02 3.024495315551757812e+01 -7.188776493072509766e+00 -2.188519716262817383e+00 -1.229667221195995808e-03 -6.569248437881469727e-01 -7.139068841934204102e-02
1.600000000000000000e+02 3.100312805175781250e+01 -7.921562194824218750e+00 -1.999302625656127930e+00 -7.436972111463546753e-03 -6.020218729972839355e-01 -1.612003147602081299e-01
1.610000000000000000e+02 3.325168609619140625e+01 -7.142140388488769531e+00 -2.560647249221801758e+00 -2.231260295957326889e-03 -7.688635587692260742e-01 -1.046121791005134583e-01
1.620000000000000000e+02 3.401905441284179688e+01 -7.863194465637207031e+00 -2.242683649063110352e+00 -3.718968713656067848e-03 -6.739208102226257324e-01 -1.582335978746414185e-01
1.630000000000000000e+02 3.251437759399414062e+01 -7.900443077087402344e+00 -2.130274295806884766e+00 -1.166757103055715561e-02 -6.425825953483581543e-01 -1.586887389421463013e-01
1.640000000000000000e+02 3.477159881591796875e+01 -7.845397949218750000e+00 -2.280966758728027344e+00 -8.035900071263313293e-03 -6.867007613182067871e-01 -1.544212400913238525e-01
1.650000000000000000e+02 3.475299453735351562e+01 -7.105631351470947266e+00 -2.718117237091064453e+00 -3.759812330827116966e-03 -8.165631294250488281e-01 -1.106991693377494812e-01
1.660000000000000000e+02 3.400221252441406250e+01 -7.123385429382324219e+00 -2.638644218444824219e+00 -5.581952631473541260e-03 -7.932679057121276855e-01 -1.069135814905166626e-01
1.670000000000000000e+02 3.250104904174804688e+01 -7.160549640655517578e+00 -2.488268136978149414e+00 -1.022139936685562134e-02 -7.495468258857727051e-01 -9.711694717407226562e-02
1.680000000000000000e+02 3.326676940917968750e+01 -7.881991863250732422e+00 -2.193501234054565430e+00 -9.867400862276554108e-03 -6.610106229782104492e-01 -1.575554907321929932e-01
1.690000000000000000e+02 3.550323104858398438e+01 -7.085636138916015625e+00 -2.788907766342163086e+00 -7.924948818981647491e-03 -8.390498161315917969e-01 -1.158778294920921326e-01
1.700000000000000000e+02 3.627172470092773438e+01 -7.801253795623779297e+00 -2.338913679122924805e+00 -1.477654674090445042e-03 -7.021173834800720215e-01 -1.369155347347259521e-01
1.710000000000000000e+02 3.552280426025390625e+01 -7.825378894805908203e+00 -2.312094688415527344e+00 -2.217928646132349968e-03 -6.942937970161437988e-01 -1.457961499691009521e-01
1.720000000000000000e+02 3.700176620483398438e+01 -7.040159225463867188e+00 -2.907209634780883789e+00 -4.554114304482936859e-03 -8.735291361808776855e-01 -1.160191968083381653e-01
1.730000000000000000e+02 3.775260925292968750e+01 -7.021411418914794922e+00 -2.954855680465698242e+00 2.423760306555777788e-04 -8.863839507102966309e-01 -1.133060306310653687e-01
1.740000000000000000e+02 3.777272796630859375e+01 -7.761138439178466797e+00 -2.337910413742065430e+00 7.589891552925109863e-03 -6.990961432456970215e-01 -1.114047542214393616e-01
1.750000000000000000e+02 3.702170562744140625e+01 -7.779891967773437500e+00 -2.346353292465209961e+00 6.454041693359613419e-03 -7.019697427749633789e-01 -1.273346394300460815e-01
1.760000000000000000e+02 3.625196838378906250e+01 -7.061516284942626953e+00 -2.849979162216186523e+00 -1.007099752314388752e-03 -8.552958965301513672e-01 -1.178488880395889282e-01
1.770000000000000000e+02 3.925203704833984375e+01 -6.983466625213623047e+00 -3.035832166671752930e+00 1.473191543482244015e-03 -9.103077054023742676e-01 -1.034682020545005798e-01
1.780000000000000000e+02 3.850259399414062500e+01 -7.002532482147216797e+00 -2.998536348342895508e+00 -2.382524777203798294e-03 -9.002756476402282715e-01 -1.086036935448646545e-01
1.790000000000000000e+02 3.852244567871093750e+01 -7.742266178131103516e+00 -2.309566497802734375e+00 1.529259793460369110e-02 -6.882821321487426758e-01 -9.144115447998046875e-02
1.800000000000000000e+02 4.076818847656250000e+01 -7.683057308197021484e+00 -2.048410892486572266e+00 5.634823814034461975e-02 -5.976188182830810547e-01 2.811125293374061584e-02
1.810000000000000000e+02 4.001962661743164062e+01 -7.703031063079833984e+00 -2.169983148574829102e+00 3.038855455815792084e-02 -6.418784260749816895e-01 -2.282834984362125397e-02
1.820000000000000000e+02 4.075049972534179688e+01 -6.943266868591308594e+00 -3.056359529495239258e+00 1.419299934059381485e-02 -9.126499891281127930e-01 -8.024939894676208496e-02
1.830000000000000000e+02 3.927116775512695312e+01 -7.723219394683837891e+00 -2.256278753280639648e+00 1.867007650434970856e-02 -6.712825894355773926e-01 -6.304431706666946411e-02
1.840000000000000000e+02 4.000121688842773438e+01 -6.963259696960449219e+00 -3.058966875076293945e+00 -1.745320158079266548e-03 -9.182136654853820801e-01 -9.766124933958053589e-02
1.850000000000000000e+02 4.207763671875000000e+01 -6.926933288574218750e+00 -3.007069349288940430e+00 -1.465400680899620056e-02 -9.065170288085937500e-01 -6.093328818678855896e-02
1.860000000000000000e+02 4.149866485595703125e+01 -7.672702789306640625e+00 -1.843353271484375000e+00 5.000167712569236755e-02 -5.380054712295532227e-01 8.912822604179382324e-02
1.870000000000000000e+02 4.323835754394531250e+01 -6.861169815063476562e+00 -2.986101150512695312e+00 4.708725214004516602e-02 -8.817041516304016113e-01 -5.906523391604423523e-02
1.880000000000000000e+02 4.389895248413085938e+01 -6.642158508300781250e+00 -3.289137125015258789e+00 1.542521547526121140e-02 -9.821135997772216797e-01 -9.674102813005447388e-02
1.890000000000000000e+02 4.384356307983398438e+01 -7.838257789611816406e+00 1.898265630006790161e-01 4.165319800376892090e-01 1.819075644016265869e-01 1.083376169204711914e+00
1.900000000000000000e+02 4.395953369140625000e+01 -7.597340583801269531e+00 -2.492365539073944092e-01 8.535105735063552856e-02 -4.916565120220184326e-02 7.661990523338317871e-01
1.910000000000000000e+02 4.404890823364257812e+01 -7.024125099182128906e+00 -1.646532893180847168e+00 1.420789863914251328e-02 -4.896974861621856689e-01 4.045529663562774658e-02
1.920000000000000000e+02 4.401409149169921875e+01 -7.185791492462158203e+00 -1.315967798233032227e+00 2.656613476574420929e-02 -3.868204951286315918e-01 2.515118420124053955e-01
1.930000000000000000e+02 4.401643753051757812e+01 -6.856740951538085938e+00 -2.126029491424560547e+00 1.661207377910614014e-01 -5.879726409912109375e-01 1.156726256012916565e-01
1.940000000000000000e+02 4.144435501098632812e+01 -6.933671951293945312e+00 -3.032547473907470703e+00 4.803447518497705460e-03 -9.083231687545776367e-01 -5.807820335030555725e-02
1.950000000000000000e+02 4.220590591430664062e+01 -7.664426803588867188e+00 -1.505877971649169922e+00 8.959258347749710083e-02 -4.248856306076049805e-01 2.239899039268493652e-01
1.960000000000000000e+02 4.399072647094726562e+01 -7.383376121520996094e+00 -9.170154333114624023e-01 2.356412634253501892e-02 -2.680354118347167969e-01 5.131673216819763184e-01
1.970000000000000000e+02 4.366753768920898438e+01 -6.921939373016357422e+00 -2.516982078552246094e+00 -4.455367848277091980e-02 -7.684606909751892090e-01 3.266005963087081909e-02
1.980000000000000000e+02 4.390531539916992188e+01 -7.012887001037597656e+00 -1.783377528190612793e+00 1.644594967365264893e-01 -4.856754243373870850e-01 1.603352874517440796e-01
1.990000000000000000e+02 4.371865463256835938e+01 -7.348632335662841797e+00 -1.101280689239501953e+00 2.785837277770042419e-02 -3.220266997814178467e-01 4.822962582111358643e-01
2.000000000000000000e+02 4.268569946289062500e+01 -6.902777671813964844e+00 -2.994777202606201172e+00 -1.251007430255413055e-02 -9.021862149238586426e-01 -7.988464087247848511e-02
2.010000000000000000e+02 4.288793182373046875e+01 -7.638733863830566406e+00 -1.102893710136413574e+00 1.345429867506027222e-01 -2.905052304267883301e-01 4.006973206996917725e-01
2.020000000000000000e+02 4.340375518798828125e+01 -7.501883029937744141e+00 -8.716431260108947754e-01 1.833324581384658813e-01 -2.064931988716125488e-01 4.426652193069458008e-01
2.030000000000000000e+02 4.422066116333007812e+01 -6.607183933258056641e+00 -3.290064811706542969e+00 -1.829867437481880188e-02 -9.925090074539184570e-01 -6.234534084796905518e-02
2.040000000000000000e+02 4.582809448242187500e+01 -7.843214988708496094e+00 3.983416557312011719e+00 4.498522758483886719e+00 2.544581890106201172e+00 5.250967979431152344e+00
2.050000000000000000e+02 4.807241439819335938e+01 -5.853859424591064453e+00 1.120475387573242188e+01 2.207950210571289062e+01 9.985277175903320312e+00 3.155308723449707031e+00
2.060000000000000000e+02 4.795475387573242188e+01 -5.706466197967529297e+00 8.925201416015625000e+00 2.346375656127929688e+01 9.716687202453613281e+00 2.901429891586303711e+00
2.070000000000000000e+02 4.520311355590820312e+01 -6.308300018310546875e+00 -2.739421129226684570e+00 5.540667567402124405e-03 -8.201641440391540527e-01 -7.395005226135253906e-02
2.080000000000000000e+02 4.700479888916015625e+01 -5.068058967590332031e+00 2.749295949935913086e+00 1.772517776489257812e+01 6.142342090606689453e+00 -6.533543586730957031e+00
2.090000000000000000e+02 4.702054977416992188e+01 -7.805359363555908203e+00 2.503214120864868164e+00 1.787144660949707031e+01 6.112398624420166016e+00 6.458503246307373047e+00
2.100000000000000000e+02 4.423146057128906250e+01 -7.881839275360107422e+00 8.801641464233398438e-01 1.002358317375183105e+00 5.647567510604858398e-01 1.618501901626586914e+00
2.110000000000000000e+02 4.425017166137695312e+01 -7.698680400848388672e+00 3.206487894058227539e-01 7.861520648002624512e-01 3.320402503013610840e-01 1.339278101921081543e+00
2.120000000000000000e+02 4.604090118408203125e+01 -6.780595779418945312e+00 1.692300319671630859e+00 4.350854754447937012e-01 6.382157206535339355e-01 1.494125485420227051e+00
2.130000000000000000e+02 4.546171188354492188e+01 -7.846786022186279297e+00 3.310045480728149414e+00 2.909369230270385742e+00 1.865824460983276367e+00 3.962648630142211914e+00
2.140000000000000000e+02 4.680854034423828125e+01 -7.505461692810058594e+00 4.060040950775146484e+00 1.583958435058593750e+01 5.969887733459472656e+00 8.505852699279785156e+00
2.150000000000000000e+02 4.641476440429687500e+01 -7.325840950012207031e+00 5.841153621673583984e+00 7.351198196411132812e+00 3.957705497741699219e+00 7.443965911865234375e+00
2.160000000000000000e+02 4.701167678833007812e+01 -5.322607994079589844e+00 3.469562530517578125e+00 1.958038902282714844e+01 6.914985179901123047e+00 -7.342726230621337891e+00
2.170000000000000000e+02 4.785039138793945312e+01 -5.252337455749511719e+00 4.252223491668701172e+00 2.250159263610839844e+01 8.026144981384277344e+00 4.521149098873138428e-01
2.180000000000000000e+02 4.822685241699218750e+01 -5.956818580627441406e+00 1.207305431365966797e+01 2.042296600341796875e+01 9.748805999755859375e+00 2.599025249481201172e+00
2.190000000000000000e+02 4.785527420043945312e+01 -7.264593601226806641e+00 6.958003997802734375e+00 2.449001121520996094e+01 9.434404373168945312e+00 -2.275379180908203125e+00
2.200000000000000000e+02 4.419185256958007812e+01 -5.089784145355224609e+00 1.019597053527832031e+00 6.195562481880187988e-01 4.917460083961486816e-01 -1.378411173820495605e+00
2.210000000000000000e+02 4.419523620605468750e+01 -5.306456089019775391e+00 5.455130338668823242e-01 3.947717547416687012e-01 2.820854485034942627e-01 -1.119130611419677734e+00
2.220000000000000000e+02 4.459720611572265625e+01 -5.373240470886230469e+00 1.158726572990417480e+00 4.913778007030487061e-01 4.950312972068786621e-01 -1.329551935195922852e+00
2.230000000000000000e+02 4.659976196289062500e+01 -5.086077213287353516e+00 3.967265844345092773e+00 1.214646816253662109e+01 4.834120273590087891e+00 -7.688461780548095703e+00
2.240000000000000000e+02 4.437557983398437500e+01 -6.335303306579589844e+00 -3.054213047027587891e+00 6.329201906919479370e-02 -8.972762823104858398e-01 -7.266242802143096924e-02
2.250000000000000000e+02 4.421526718139648438e+01 -5.733906745910644531e+00 -7.007597088813781738e-01 2.217397391796112061e-01 -1.437059789896011353e-01 -4.990605711936950684e-01
2.260000000000000000e+02 4.438475036621093750e+01 -5.534528732299804688e+00 2.561713457107543945e-01 3.308867216110229492e-01 1.761174201965332031e-01 -8.568512797355651855e-01
2.270000000000000000e+02 4.604693222045898438e+01 -6.123501777648925781e+00 1.765618443489074707e+00 4.397416114807128906e-01 6.616080403327941895e-01 -1.352306246757507324e+00
2.280000000000000000e+02 4.602130889892578125e+01 -6.338928699493408203e+00 -1.985243082046508789e+00 -1.084304302930831909e-01 -6.281020641326904297e-01 -9.515341371297836304e-02
2.290000000000000000e+02 4.762386322021484375e+01 -5.466276645660400391e+00 4.539473056793212891e+00 2.524833488464355469e+01 8.936342239379882812e+00 -2.244345098733901978e-01
2.300000000000000000e+02 4.729765319824218750e+01 -5.181270599365234375e+00 2.591360330581665039e+00 2.149638366699218750e+01 7.226323604583740234e+00 -4.509328842163085938e+00
2.310000000000000000e+02 4.680778121948242188e+01 -5.350107192993164062e+00 4.517302989959716797e+00 1.578886985778808594e+01 6.091852188110351562e+00 -8.596433639526367188e+00
2.320000000000000000e+02 4.641760635375976562e+01 -5.374126434326171875e+00 5.542386054992675781e+00 8.765410423278808594e+00 4.292339324951171875e+00 -7.750823020935058594e+00
2.330000000000000000e+02 4.602083969116210938e+01 -6.564799308776855469e+00 -2.041169166564941406e+00 -9.758684039115905762e-02 -6.416267752647399902e-01 8.951990306377410889e-02
2.340000000000000000e+02 4.611666870117187500e+01 -6.988103866577148438e+00 4.184421062469482422e+00 1.398634910583496094e+00 1.674916863441467285e+00 3.256818771362304688e+00
2.350000000000000000e+02 4.660887908935546875e+01 -7.421942710876464844e+00 5.334976673126220703e+00 1.159938716888427734e+01 5.080309391021728516e+00 8.688695907592773438e+00
2.360000000000000000e+02 4.722581100463867188e+01 -7.545461654663085938e+00 2.608628749847412109e+00 2.263117218017578125e+01 7.571940422058105469e+00 5.147975921630859375e+00
2.370000000000000000e+02 4.797837066650390625e+01 -7.096474647521972656e+00 9.570662498474121094e+00 2.336949348449707031e+01 9.882046699523925781e+00 -3.238447666168212891e+00
2.380000000000000000e+02 4.828255462646484375e+01 -6.801076412200927734e+00 1.289806270599365234e+01 1.955758094787597656e+01 9.736693382263183594e+00 -2.271402597427368164e+00
2.390000000000000000e+02 4.525836563110351562e+01 -7.812744140625000000e+00 2.670131683349609375e+00 2.092399120330810547e+00 1.428759217262268066e+00 3.139954328536987305e+00
2.400000000000000000e+02 4.467132949829101562e+01 -7.053266048431396484e+00 -9.357856512069702148e-01 1.578825712203979492e-01 -2.333709150552749634e-01 3.588086068630218506e-01
2.410000000000000000e+02 4.507145309448242188e+01 -6.852067470550537109e+00 -1.236535191535949707e+00 8.553457260131835938e-02 -3.453001677989959717e-01 2.825239002704620361e-01
2.420000000000000000e+02 4.462697601318359375e+01 -6.604576587677001953e+00 -3.173738002777099609e+00 -2.529704570770263672e-02 -9.597105383872985840e-01 -5.668140947818756104e-02
2.430000000000000000e+02 4.444311523437500000e+01 -6.828847408294677734e+00 -2.219827175140380859e+00 4.439824819564819336e-02 -6.526287198066711426e-01 2.306815423071384430e-02
2.440000000000000000e+02 4.774348068237304688e+01 -7.682073116302490234e+00 3.513766050338745117e+00 2.272619247436523438e+01 7.871987342834472656e+00 1.985944509506225586e-01
2.450000000000000000e+02 4.645684814453125000e+01 -7.834741115570068359e+00 3.792004585266113281e+00 1.034361934661865234e+01 4.240687370300292969e+00 7.259512901306152344e+00
2.460000000000000000e+02 4.523987579345703125e+01 -6.576951503753662109e+00 -2.943714618682861328e+00 -5.204744264483451843e-02 -8.987286686897277832e-01 -5.807648226618766785e-02
2.470000000000000000e+02 4.560625457763671875e+01 -6.565581321716308594e+00 -2.721709489822387695e+00 6.795191764831542969e-02 -7.961273193359375000e-01 4.774718359112739563e-02
2.480000000000000000e+02 4.814711761474609375e+01 -7.121106624603271484e+00 9.515899658203125000e+00 2.148590278625488281e+01 9.300540924072265625e+00 -3.060690402984619141e+00
2.490000000000000000e+02 4.815870666503906250e+01 -6.726855278015136719e+00 1.406115245819091797e+01 2.041469764709472656e+01 1.034275531768798828e+01 -2.312542676925659180e+00
2.500000000000000000e+02 4.754294204711914062e+01 -5.093350887298583984e+00 2.625599384307861328e+00 2.187416839599609375e+01 7.349930763244628906e+00 -2.279713392257690430e+00
2.510000000000000000e+02 4.798281097412109375e+01 -5.386369705200195312e+00 5.776589870452880859e+00 2.234311294555664062e+01 8.435911178588867188e+00 1.599656939506530762e+00
2.520000000000000000e+02 4.560291290283203125e+01 -5.095976829528808594e+00 3.797405242919921875e+00 3.079580068588256836e+00 2.063095569610595703e+00 -4.262607574462890625e+00
2.530000000000000000e+02 4.635774230957031250e+01 -5.597717761993408203e+00 6.354380607604980469e+00 6.407686233520507812e+00 3.828619956970214844e+00 -7.228259563446044922e+00
2.540000000000000000e+02 4.662213134765625000e+01 -5.395907402038574219e+00 5.443891048431396484e+00 1.193790531158447266e+01 5.214539051055908203e+00 -8.692216873168945312e+00
2.550000000000000000e+02 4.499894714355468750e+01 -5.072583675384521484e+00 2.597681283950805664e+00 1.469156861305236816e+00 1.220051407814025879e+00 -2.600479125976562500e+00
2.560000000000000000e+02 4.722153091430664062e+01 -5.343559265136718750e+00 2.919217109680175781e+00 2.270792579650878906e+01 7.688142776489257812e+00 -5.371354579925537109e+00
2.570000000000000000e+02 4.679602432250976562e+01 -5.076997280120849609e+00 3.404481410980224609e+00 1.490026664733886719e+01 5.491424083709716797e+00 -7.540637016296386719e+00
2.580000000000000000e+02 4.719874954223632812e+01 -5.041867733001708984e+00 2.323120355606079102e+00 1.979440498352050781e+01 6.635257720947265625e+00 -5.298295021057128906e+00
2.590000000000000000e+02 4.742239379882812500e+01 -5.402039051055908203e+00 3.286260843276977539e+00 2.485004425048828125e+01 8.440891265869140625e+00 -2.809717416763305664e+00
2.600000000000000000e+02 4.836170959472656250e+01 -5.808572769165039062e+00 1.025964927673339844e+01 1.956138229370117188e+01 8.946309089660644531e+00 2.801189422607421875e+00
2.610000000000000000e+02 4.561227416992187500e+01 -6.327820777893066406e+00 -2.392046213150024414e+00 -6.067202240228652954e-02 -7.358155250549316406e-01 -1.160066425800323486e-01
2.620000000000000000e+02 4.759231567382812500e+01 -7.748219013214111328e+00 2.443411350250244141e+00 2.227560424804687500e+01 7.415704727172851562e+00 2.008789062500000000e+00
2.630000000000000000e+02 4.767415618896484375e+01 -5.302155971527099609e+00 3.929570913314819336e+00 2.359864044189453125e+01 8.258462905883789062e+00 -5.451924204826354980e-01
2.640000000000000000e+02 4.833163452148437500e+01 -7.200701236724853516e+00 8.911967277526855469e+00 1.979243087768554688e+01 8.611319541931152344e+00 -2.990842580795288086e+00
2.650000000000000000e+02 4.788399887084960938e+01 -7.571134567260742188e+00 4.547743320465087891e+00 2.258085823059082031e+01 8.138580322265625000e+00 -9.400637745857238770e-01
2.660000000000000000e+02 4.841481399536132812e+01 -7.065662860870361328e+00 1.001347923278808594e+01 1.889941406250000000e+01 8.673868179321289062e+00 -2.709292173385620117e+00
2.670000000000000000e+02 4.825284194946289062e+01 -5.669454097747802734e+00 8.932927131652832031e+00 2.034443283081054688e+01 8.783207893371582031e+00 2.736777544021606445e+00
2.680000000000000000e+02 4.780846023559570312e+01 -5.567622661590576172e+00 6.529840469360351562e+00 2.457699394226074219e+01 9.332050323486328125e+00 1.697045207023620605e+00
2.690000000000000000e+02 4.822122192382812500e+01 -6.326202869415283203e+00 1.481438636779785156e+01 1.969349861145019531e+01 1.035236549377441406e+01 8.635299801826477051e-01
2.700000000000000000e+02 4.770104217529296875e+01 -7.389903068542480469e+00 4.710536003112792969e+00 2.508397865295410156e+01 8.938354492187500000e+00 -4.952628910541534424e-01
2.710000000000000000e+02 4.803499221801757812e+01 -7.440526962280273438e+00 6.106664657592773438e+00 2.210586929321289062e+01 8.463760375976562500e+00 -2.073938608169555664e+00
2.720000000000000000e+02 4.845370101928710938e+01 -6.133860588073730469e+00 1.245657444000244141e+01 1.815844345092773438e+01 9.184505462646484375e+00 1.520909190177917480e+00
2.730000000000000000e+02 4.821854782104492188e+01 -6.527860164642333984e+00 1.486917972564697266e+01 1.968796539306640625e+01 1.036714363098144531e+01 -8.465539216995239258e-01
2.740000000000000000e+02 4.759621810913085938e+01 -7.546927928924560547e+00 3.551080703735351562e+00 2.399176979064941406e+01 8.262855529785156250e+00 1.091976165771484375e+00
2.750000000000000000e+02 4.846949005126953125e+01 -6.721618175506591797e+00 1.264737796783447266e+01 1.825222778320312500e+01 9.269882202148437500e+00 -1.635074377059936523e+00
2.760000000000000000e+02 4.748182678222656250e+01 -5.249427318572998047e+00 2.895983695983886719e+00 2.348984909057617188e+01 7.915750026702880859e+00 -2.561220169067382812e+00
2.770000000000000000e+02 4.819375991821289062e+01 -7.313010215759277344e+00 7.682846069335937500e+00 2.101928710937500000e+01 8.610640525817871094e+00 -2.798679351806640625e+00
2.780000000000000000e+02 4.664570617675781250e+01 -7.854580879211425781e+00 3.390362262725830078e+00 1.255761146545410156e+01 4.784392356872558594e+00 7.448538780212402344e+00
2.790000000000000000e+02 4.603407287597656250e+01 -7.813197612762451172e+00 4.249520301818847656e+00 5.969906330108642578e+00 3.065828084945678711e+00 5.993334293365478516e+00
2.800000000000000000e+02 4.481761169433593750e+01 -7.810332298278808594e+00 1.728534698486328125e+00 1.188244223594665527e+00 8.750336766242980957e-01 2.176578760147094727e+00
2.810000000000000000e+02 4.500972747802734375e+01 -7.473973751068115234e+00 1.432965636253356934e+00 8.128979206085205078e-01 6.737590432167053223e-01 1.808013558387756348e+00
2.820000000000000000e+02 4.701963043212890625e+01 -7.550720691680908203e+00 3.064787864685058594e+00 1.964741325378417969e+01 6.813660144805908203e+00 7.231449127197265625e+00
2.830000000000000000e+02 4.551634979248046875e+01 -7.635374546051025391e+00 3.160968065261840820e+00 2.185193061828613281e+00 1.603848338127136230e+00 3.537419080734252930e+00
2.840000000000000000e+02 4.541476821899414062e+01 -6.553897380828857422e+00 -2.891058206558227539e+00 4.339125379920005798e-02 -8.543001413345336914e-01 -8.009765297174453735e-02
2.850000000000000000e+02 4.504552841186523438e+01 -6.606045246124267578e+00 -3.029493570327758789e+00 -1.198700536042451859e-02 -9.124441742897033691e-01 -2.366114780306816101e-02
2.860000000000000000e+02 4.530150222778320312e+01 -6.897878170013427734e+00 -5.011309981346130371e-01 1.710267066955566406e-01 -9.903129190206527710e-02 5.456421971321105957e-01
2.870000000000000000e+02 4.423056793212890625e+01 -6.823027133941650391e+00 -2.391945123672485352e+00 -8.925548940896987915e-02 -7.443601489067077637e-01 8.734898269176483154e-02
2.880000000000000000e+02 4.424150466918945312e+01 -7.039577960968017578e+00 -1.424271702766418457e+00 2.884340099990367889e-02 -4.186285138130187988e-01 1.042192354798316956e-01
2.890000000000000000e+02 4.540816879272460938e+01 -6.321002960205078125e+00 -2.590050935745239258e+00 5.626725405454635620e-02 -7.601351141929626465e-01 -1.216997802257537842e-01
2.900000000000000000e+02 4.612334060668945312e+01 -5.920902729034423828e+00 4.457664012908935547e+00 1.388084530830383301e+00 1.753724575042724609e+00 -3.203229427337646484e+00
2.910000000000000000e+02 4.582218933105468750e+01 -6.096679210662841797e+00 8.288779854774475098e-01 1.974491924047470093e-01 3.078981637954711914e-01 -9.845665097236633301e-01
2.920000000000000000e+02 4.620169448852539062e+01 -5.070138454437255859e+00 4.742736339569091797e+00 7.310955047607421875e+00 3.616107463836669922e+00 -6.828030586242675781e+00
2.930000000000000000e+02 4.480645751953125000e+01 -5.102777957916259766e+00 2.158836603164672852e+00 1.121825933456420898e+00 9.841987490653991699e-01 -2.207174777984619141e+00
2.940000000000000000e+02 4.580664062500000000e+01 -5.076088428497314453e+00 4.301666736602783203e+00 4.290662288665771484e+00 2.577698707580566406e+00 -5.141961574554443359e+00
2.950000000000000000e+02 4.567011642456054688e+01 -5.349475383758544922e+00 3.834868907928466797e+00 2.444221735000610352e+00 1.883727192878723145e+00 -3.804322004318237305e+00
2.960000000000000000e+02 4.439542007446289062e+01 -5.097717285156250000e+00 1.265834689140319824e+00 7.169643044471740723e-01 5.948396921157836914e-01 -1.619408249855041504e+00
2.970000000000000000e+02 4.439624786376953125e+01 -5.328231334686279297e+00 8.411730527877807617e-01 5.044094324111938477e-01 4.036747515201568604e-01 -1.219778180122375488e+00
2.980000000000000000e+02 4.502589416503906250e+01 -5.249171257019042969e+00 2.335118293762207031e+00 1.342089176177978516e+00 1.103162288665771484e+00 -2.433165788650512695e+00
2.990000000000000000e+02 4.539245986938476562e+01 -5.095259666442871094e+00 3.296721458435058594e+00 2.462775230407714844e+00 1.727849006652832031e+00 -3.631296157836914062e+00
3.000000000000000000e+02 4.585181808471679688e+01 -5.307372570037841797e+00 4.472694396972656250e+00 3.595562219619750977e+00 2.420476913452148438e+00 -4.803431034088134766e+00
3.010000000000000000e+02 4.640362167358398438e+01 -5.083214759826660156e+00 4.503099918365478516e+00 9.952899932861328125e+00 4.336800098419189453e+00 -7.426396846771240234e+00
3.020000000000000000e+02 4.427097702026367188e+01 -7.491981506347656250e+00 -3.716365247964859009e-02 4.109356105327606201e-01 1.121315881609916687e-01 8.701599240303039551e-01
3.030000000000000000e+02 4.425495910644531250e+01 -7.259668350219726562e+00 -8.319903016090393066e-01 1.848827004432678223e-01 -1.941322833299636841e-01 4.606266617774963379e-01
3.040000000000000000e+02 4.424044799804687500e+01 -5.966795444488525391e+00 -1.831964969635009766e+00 1.403436660766601562e-01 -5.074864029884338379e-01 -2.150421738624572754e-01
3.050000000000000000e+02 4.420425033569335938e+01 -6.362213611602783203e+00 -3.212932348251342773e+00 -1.040407568216323853e-01 -9.950919151306152344e-01 -8.076211065053939819e-02
3.060000000000000000e+02 4.419853591918945312e+01 -5.519688129425048828e+00 4.428770765662193298e-02 2.681183516979217529e-01 9.372181445360183716e-02 -7.738822102546691895e-01
3.070000000000000000e+02 4.571352005004882812e+01 -6.994284152984619141e+00 1.872504711151123047e+00 7.335936427116394043e-01 7.818294763565063477e-01 1.747961878776550293e+00
3.080000000000000000e+02 4.581093978881835938e+01 -6.572181701660156250e+00 -2.375614404678344727e+00 4.109706357121467590e-02 -7.003551721572875977e-01 1.436161994934082031e-01
3.090000000000000000e+02 4.625319671630859375e+01 -7.819603919982910156e+00 4.121567249298095703e+00 7.852533817291259766e+00 3.592230319976806641e+00 6.724494934082031250e+00
3.100000000000000000e+02 4.583848190307617188e+01 -7.487743854522705078e+00 3.891183853149414062e+00 3.008424997329711914e+00 2.069882631301879883e+00 4.257050037384033203e+00
3.110000000000000000e+02 4.503931045532226562e+01 -7.793904304504394531e+00 2.208075523376464844e+00 1.572649240493774414e+00 1.134217381477355957e+00 2.636806011199951172e+00
3.120000000000000000e+02 4.519695281982421875e+01 -6.023332595825195312e+00 -5.151233077049255371e-01 1.328512132167816162e-01 -1.146816238760948181e-01 -5.528709888458251953e-01
3.130000000000000000e+02 4.540697097778320312e+01 -6.078976631164550781e+00 -4.433197379112243652e-01 5.599729716777801514e-02 -1.161967366933822632e-01 -5.137467980384826660e-01
3.140000000000000000e+02 4.422273635864257812e+01 -6.178009986877441406e+00 -2.489907264709472656e+00 -3.129965066909790039e-02 -7.563620805740356445e-01 5.491921212524175644e-03
3.150000000000000000e+02 4.478736495971679688e+01 -6.295466423034667969e+00 -2.909650564193725586e+00 1.030933484435081482e-02 -8.698024153709411621e-01 -5.685520917177200317e-02
3.160000000000000000e+02 4.460427856445312500e+01 -5.114235877990722656e+00 1.740357518196105957e+00 9.705453515052795410e-01 8.132708668708801270e-01 -1.972068905830383301e+00
3.170000000000000000e+02 4.526093292236328125e+01 -5.807818889617919922e+00 8.767088651657104492e-01 2.504656016826629639e-01 3.381523489952087402e-01 -1.182598590850830078e+00
3.180000000000000000e+02 4.456824493408203125e+01 -6.298111915588378906e+00 -2.978509187698364258e+00 -2.911819703876972198e-02 -9.022881984710693359e-01 -5.943077430129051208e-02
3.190000000000000000e+02 4.479557037353515625e+01 -5.477267742156982422e+00 1.288304328918457031e+00 5.867524743080139160e-01 5.625170469284057617e-01 -1.425006270408630371e+00
3.200000000000000000e+02 4.624737548828125000e+01 -7.178166389465332031e+00 5.726528644561767578e+00 4.076137065887451172e+00 2.940799713134765625e+00 5.687871932983398438e+00
3.210000000000000000e+02 4.603733444213867188e+01 -5.608705520629882812e+00 5.161223888397216797e+00 3.014860391616821289e+00 2.452825307846069336e+00 -4.752461910247802734e+00
3.220000000000000000e+02 4.459600830078125000e+01 -7.819028377532958984e+00 1.330333590507507324e+00 1.035963892936706543e+00 7.098892331123352051e-01 1.890690922737121582e+00
3.230000000000000000e+02 4.564976882934570312e+01 -7.315431118011474609e+00 2.970876216888427734e+00 1.625414729118347168e+00 1.378887295722961426e+00 2.949485540390014648e+00
3.240000000000000000e+02 4.526346206665039062e+01 -7.412287712097167969e+00 2.106574296951293945e+00 1.136450052261352539e+00 9.729073643684387207e-01 2.195486783981323242e+00
3.250000000000000000e+02 4.446440505981445312e+01 -7.052527427673339844e+00 -1.256774306297302246e+00 7.529173046350479126e-02 -3.544447720050811768e-01 3.058577775955200195e-01
3.260000000000000000e+02 4.499730682373046875e+01 -6.298527240753173828e+00 -2.832525730133056641e+00 5.807580426335334778e-03 -8.480154275894165039e-01 -6.576266884803771973e-02
3.270000000000000000e+02 4.474268341064453125e+01 -5.977302074432373047e+00 -1.067129850387573242e+00 5.929257348179817200e-02 -3.023511767387390137e-01 -4.180810451507568359e-01
3.280000000000000000e+02 4.506174087524414062e+01 -5.389602184295654297e+00 2.070676565170288086e+00 8.864387869834899902e-01 8.871346116065979004e-01 -2.082769155502319336e+00
3.290000000000000000e+02 4.442805099487304688e+01 -5.729261398315429688e+00 -4.746479988098144531e-01 1.500045061111450195e-01 -9.739305078983306885e-02 -5.589770078659057617e-01
3.300000000000000000e+02 4.603241348266601562e+01 -5.289725303649902344e+00 4.876869201660156250e+00 4.764188289642333984e+00 2.892317295074462891e+00 -5.698995590209960938e+00
3.310000000000000000e+02 4.593955993652343750e+01 -5.788067817687988281e+00 3.922947883605957031e+00 1.550436854362487793e+00 1.642015457153320312e+00 -3.141197443008422852e+00
3.320000000000000000e+02 4.504783630371093750e+01 -7.088798522949218750e+00 1.057695522904396057e-01 3.608564436435699463e-01 1.399877965450286865e-01 8.857170343399047852e-01
3.330000000000000000e+02 4.579088592529296875e+01 -5.882075786590576172e+00 2.610261917114257812e+00 7.381326556205749512e-01 1.004518389701843262e+00 -2.017531394958496094e+00
3.340000000000000000e+02 4.576836776733398438e+01 -5.683587551116943359e+00 3.651644468307495117e+00 1.566668391227722168e+00 1.565493822097778320e+00 -3.086032390594482422e+00
3.350000000000000000e+02 4.449931716918945312e+01 -5.983306407928466797e+00 -1.448302030563354492e+00 7.773952186107635498e-02 -4.111687541007995605e-01 -2.988223135471343994e-01
3.360000000000000000e+02 4.516971588134765625e+01 -5.272880554199218750e+00 2.599783420562744141e+00 1.269917964935302734e+00 1.160910367965698242e+00 -2.644522666931152344e+00
3.370000000000000000e+02 4.519083786010742188e+01 -5.072251796722412109e+00 2.908992528915405273e+00 1.803330898284912109e+00 1.413697004318237305e+00 -3.029813528060913086e+00
3.380000000000000000e+02 4.533177947998046875e+01 -5.528683185577392578e+00 2.496153354644775391e+00 9.230339527130126953e-01 1.025756120681762695e+00 -2.209119319915771484e+00
3.390000000000000000e+02 4.600364303588867188e+01 -5.067550659179687500e+00 4.516846179962158203e+00 5.496018409729003906e+00 3.003859281539916992e+00 -5.813190937042236328e+00
3.400000000000000000e+02 4.620793914794921875e+01 -5.295855045318603516e+00 5.215380668640136719e+00 6.283349514007568359e+00 3.449619054794311523e+00 -6.559447765350341797e+00
3.410000000000000000e+02 4.736901092529296875e+01 -5.041927337646484375e+00 2.340512752532958984e+00 2.081822967529296875e+01 6.947622776031494141e+00 -3.706798553466796875e+00
3.420000000000000000e+02 4.771519088745117188e+01 -5.154062747955322266e+00 3.170248985290527344e+00 2.212828254699707031e+01 7.589559555053710938e+00 -9.372337460517883301e-01
3.430000000000000000e+02 4.812961196899414062e+01 -5.525482654571533203e+00 7.519162178039550781e+00 2.161671066284179688e+01 8.740761756896972656e+00 2.525342226028442383e+00
3.440000000000000000e+02 4.842721176147460938e+01 -5.959294319152832031e+00 1.179562950134277344e+01 1.868957328796386719e+01 9.145561218261718750e+00 2.312200069427490234e+00
3.450000000000000000e+02 4.847276306152343750e+01 -6.322146415710449219e+00 1.315623474121093750e+01 1.783964538574218750e+01 9.298764228820800781e+00 5.734386444091796875e-01
3.460000000000000000e+02 4.847010040283203125e+01 -6.524357795715332031e+00 1.314907741546630859e+01 1.790451812744140625e+01 9.316079139709472656e+00 -6.210549473762512207e-01
3.470000000000000000e+02 4.806572723388671875e+01 -6.910895824432373047e+00 1.225637245178222656e+01 2.193862724304199219e+01 1.025849914550781250e+01 -3.307988405227661133e+00
3.480000000000000000e+02 4.845909881591796875e+01 -6.901430130004882812e+00 1.120825290679931641e+01 1.855659484863281250e+01 8.929454803466796875e+00 -2.324581861495971680e+00
3.490000000000000000e+02 4.741349411010742188e+01 -7.517333507537841797e+00 2.932843208312988281e+00 2.441407775878906250e+01 8.204076766967773438e+00 2.803924322128295898e+00
3.500000000000000000e+02 4.741764068603515625e+01 -7.775531291961669922e+00 2.174809455871582031e+00 2.133759689331054688e+01 7.053721904754638672e+00 3.365921258926391602e+00
3.510000000000000000e+02 4.722821807861328125e+01 -7.797194004058837891e+00 2.139575958251953125e+00 2.028274154663085938e+01 6.726695060729980469e+00 4.973005771636962891e+00
3.520000000000000000e+02 4.671292495727539062e+01 -7.691452980041503906e+00 3.751060485839843750e+00 1.411328220367431641e+01 5.359302997589111328e+00 7.856752872467041016e+00
3.530000000000000000e+02 4.682323455810546875e+01 -7.835855960845947266e+00 2.943501234054565430e+00 1.539765167236328125e+01 5.502346038818359375e+00 7.307307720184326172e+00
3.540000000000000000e+02 4.651488113403320312e+01 -7.622112751007080078e+00 4.652890205383300781e+00 1.064456844329833984e+01 4.589237689971923828e+00 7.936508655548095703e+00
3.550000000000000000e+02 4.629893875122070312e+01 -7.561856269836425781e+00 4.978894233703613281e+00 7.350310802459716797e+00 3.698761463165283203e+00 6.975728034973144531e+00
3.560000000000000000e+02 4.606098175048828125e+01 -7.547154903411865234e+00 4.697998523712158203e+00 4.895169734954833984e+00 2.877950429916381836e+00 5.801946640014648438e+00
3.570000000000000000e+02 4.571366882324218750e+01 -7.678648948669433594e+00 3.730552911758422852e+00 3.316723108291625977e+00 2.114182710647583008e+00 4.376817703247070312e+00
3.580000000000000000e+02 4.442476272583007812e+01 -6.606362819671630859e+00 -3.231282711029052734e+00 2.070497162640094757e-02 -9.631733298301696777e-01 -5.860088393092155457e-02
3.590000000000000000e+02 4.464781951904296875e+01 -6.830054759979248047e+00 -2.068969726562500000e+00 3.055901080369949341e-02 -6.115231513977050781e-01 1.017994731664657593e-01
3.600000000000000000e+02 4.485418701171875000e+01 -6.833984851837158203e+00 -1.764639258384704590e+00 5.715521425008773804e-02 -5.122451782226562500e-01 1.618698090314865112e-01
3.610000000000000000e+02 4.483180236816406250e+01 -6.604207992553710938e+00 -3.110071182250976562e+00 3.479151427745819092e-02 -9.225838780403137207e-01 -5.142400413751602173e-02
3.620000000000000000e+02 4.536571121215820312e+01 -6.707682609558105469e+00 -1.925580859184265137e+00 7.926961779594421387e-02 -5.538933873176574707e-01 2.499530017375946045e-01
3.630000000000000000e+02 4.579582977294921875e+01 -6.791862487792968750e+00 5.274024605751037598e-01 3.257012665271759033e-01 2.559311091899871826e-01 9.172943234443664551e-01
3.640000000000000000e+02 4.449335861206054688e+01 -7.281681060791015625e+00 -2.623256444931030273e-01 2.783987224102020264e-01 4.821919836103916168e-03 6.471266150474548340e-01
3.650000000000000000e+02 4.453041839599609375e+01 -7.531279087066650391e+00 4.486153721809387207e-01 5.559280514717102051e-01 3.013630211353302002e-01 1.218992352485656738e+00
3.660000000000000000e+02 4.440277862548828125e+01 -7.854976654052734375e+00 9.564291238784790039e-01 6.673472523689270020e-01 4.871329069137573242e-01 1.637051820755004883e+00
3.670000000000000000e+02 4.471260070800781250e+01 -7.276807785034179688e+00 1.441645026206970215e-01 3.256566822528839111e-01 1.409463435411453247e-01 9.004939794540405273e-01
3.680000000000000000e+02 4.476696777343750000e+01 -7.519295692443847656e+00 9.715836644172668457e-01 7.917223572731018066e-01 5.289918184280395508e-01 1.536227703094482422e+00
3.690000000000000000e+02 4.564827346801757812e+01 -7.862661361694335938e+00 3.382183790206909180e+00 3.642021179199218750e+00 2.107261419296264648e+00 4.437347412109375000e+00
3.700000000000000000e+02 4.581632232666015625e+01 -6.330181121826171875e+00 -2.184810638427734375e+00 6.851448118686676025e-02 -6.348888874053955078e-01 -1.208928748965263367e-01
3.710000000000000000e+02 4.497572326660156250e+01 -5.986223220825195312e+00 -6.975052952766418457e-01 9.639134258031845093e-02 -1.803341805934906006e-01 -4.882338345050811768e-01
3.720000000000000000e+02 4.557300186157226562e+01 -6.753137588500976562e+00 -8.742112517356872559e-01 1.971347033977508545e-01 -2.031229585409164429e-01 4.431516230106353760e-01
3.730000000000000000e+02 4.623813629150390625e+01 -5.747097492218017578e+00 6.168632984161376953e+00 3.642930746078491211e+00 2.943469047546386719e+00 -5.561066150665283203e+00
3.740000000000000000e+02 4.614410781860351562e+01 -5.459653377532958984e+00 5.339115619659423828e+00 4.882230281829833984e+00 3.066403627395629883e+00 -5.909316062927246094e+00
3.750000000000000000e+02 4.587575912475585938e+01 -7.143166542053222656e+00 3.557104349136352539e+00 1.582174658775329590e+00 1.541783690452575684e+00 3.007982254028320312e+00
3.760000000000000000e+02 4.602116775512695312e+01 -7.329272270202636719e+00 4.696751594543457031e+00 3.292190313339233398e+00 2.396682739257812500e+00 4.776204586029052734e+00
3.770000000000000000e+02 4.831133270263671875e+01 -6.931682586669921875e+00 1.144701862335205078e+01 1.948789596557617188e+01 9.280474662780761719e+00 -2.621895313262939453e+00
3.780000000000000000e+02 4.818761825561523438e+01 -6.943550586700439453e+00 1.190787220001220703e+01 2.107203102111816406e+01 9.893971443176269531e+00 -3.097628593444824219e+00
3.790000000000000000e+02 4.819601058959960938e+01 -6.139587879180908203e+00 1.387537193298339844e+01 2.023803901672363281e+01 1.023402309417724609e+01 2.194545984268188477e+00
3.800000000000000000e+02 4.829725265502929688e+01 -7.078702926635742188e+00 1.002304267883300781e+01 1.984913444519042969e+01 8.961653709411621094e+00 -2.930720567703247070e+00
3.810000000000000000e+02 4.561003875732421875e+01 -6.098472118377685547e+00 -1.111855059862136841e-01 1.911990195512771606e-01 2.400405332446098328e-02 -6.781208515167236328e-01
3.820000000000000000e+02 4.560202026367187500e+01 -5.888120174407958984e+00 1.541101813316345215e+00 4.153160154819488525e-01 5.869253277778625488e-01 -1.391740798950195312e+00
3.830000000000000000e+02 4.513122940063476562e+01 -5.599713802337646484e+00 1.502889156341552734e+00 5.300431251525878906e-01 6.098796725273132324e-01 -1.515542387962341309e+00
3.840000000000000000e+02 4.493242645263671875e+01 -5.689563274383544922e+00 6.280621886253356934e-01 3.555061221122741699e-01 2.950704991817474365e-01 -1.139972805976867676e+00
3.850000000000000000e+02 4.540290451049804688e+01 -5.714205265045166016e+00 1.903701066970825195e+00 6.740102171897888184e-01 7.733134031295776367e-01 -1.740023970603942871e+00
3.860000000000000000e+02 4.583145523071289062e+01 -5.500680923461914062e+00 4.237793445587158203e+00 2.561381101608276367e+00 2.039752483367919922e+00 -4.014488220214843750e+00
3.870000000000000000e+02 4.534506988525390625e+01 -5.327331542968750000e+00 2.989222526550292969e+00 1.591612696647644043e+00 1.374250531196594238e+00 -2.892054319381713867e+00
3.880000000000000000e+02 4.552709960937500000e+01 -7.122328281402587891e+00 1.976251959800720215e+00 8.433330655097961426e-01 8.458755016326904297e-01 1.847249031066894531e+00
3.890000000000000000e+02 4.552205276489257812e+01 -6.934906482696533203e+00 2.542969882488250732e-01 2.795518040657043457e-01 1.601546406745910645e-01 8.190418481826782227e-01
3.900000000000000000e+02 4.455120086669921875e+01 -5.601934432983398438e+00 1.635464727878570557e-01 2.803336381912231445e-01 1.331640332937240601e-01 -8.529350161552429199e-01
3.910000000000000000e+02 4.473547744750976562e+01 -5.693904399871826172e+00 7.955662906169891357e-02 2.104258388280868530e-01 8.699474483728408813e-02 -8.000098466873168945e-01
3.920000000000000000e+02 4.527661514282226562e+01 -7.148945331573486328e+00 1.026444792747497559e+00 4.945096373558044434e-01 4.562863111495971680e-01 1.335800528526306152e+00
3.930000000000000000e+02 4.550686264038085938e+01 -5.455640316009521484e+00 3.239788770675659180e+00 1.691352486610412598e+00 1.479342341423034668e+00 -3.037220001220703125e+00
3.940000000000000000e+02 4.489958953857421875e+01 -5.323897361755371094e+00 1.944635987281799316e+00 8.055262565612792969e-01 8.250486850738525391e-01 -1.936555743217468262e+00
3.950000000000000000e+02 4.486318969726562500e+01 -7.045214653015136719e+00 -7.074675559997558594e-01 1.060191094875335693e-01 -1.804345399141311646e-01 4.751466810703277588e-01
3.960000000000000000e+02 4.492385101318359375e+01 -7.236232280731201172e+00 5.329819321632385254e-01 4.346072375774383545e-01 2.902767360210418701e-01 1.041170358657836914e+00
3.970000000000000000e+02 4.534066009521484375e+01 -7.593183517456054688e+00 2.274177551269531250e+00 1.812803983688354492e+00 1.226094484329223633e+00 2.809568405151367188e+00
3.980000000000000000e+02 4.546962356567382812e+01 -7.461394786834716797e+00 2.653896331787109375e+00 1.605004072189331055e+00 1.277670145034790039e+00 2.762210845947265625e+00
3.990000000000000000e+02 4.542520141601562500e+01 -5.881635189056396484e+00 9.373969435691833496e-01 4.330595433712005615e-01 4.111369550228118896e-01 -1.133675098419189453e+00
4.000000000000000000e+02 4.557899475097656250e+01 -5.676214694976806641e+00 3.015667200088500977e+00 1.183657169342041016e+00 1.259797215461730957e+00 -2.518936395645141602e+00
4.010000000000000000e+02 4.400799560546875000e+01 -6.272171974182128906e+00 -2.921889781951904297e+00 -1.859504729509353638e-02 -8.821454048156738281e-01 3.267920389771461487e-02
4.020000000000000000e+02 4.327156066894531250e+01 -5.176261425018310547e+00 -1.813243776559829712e-01 2.541741728782653809e-01 2.185493707656860352e-02 -6.082667112350463867e-01
4.030000000000000000e+02 4.350923919677734375e+01 -5.476434230804443359e+00 -5.931618213653564453e-01 1.947057545185089111e-01 -1.195368170738220215e-01 -4.449925422668457031e-01
4.040000000000000000e+02 4.209546661376953125e+01 -5.415633678436279297e+00 -1.403586030006408691e+00 4.953257739543914795e-02 -4.062160253524780273e-01 -1.801300197839736938e-01
4.050000000000000000e+02 4.387535858154296875e+01 -5.328812599182128906e+00 2.003886699676513672e-01 2.777386009693145752e-01 1.434381902217864990e-01 -8.246889114379882812e-01
4.060000000000000000e+02 4.317190170288085938e+01 -5.776607990264892578e+00 -1.716818809509277344e+00 7.194422185420989990e-02 -4.934623837471008301e-01 -2.096652090549468994e-01
4.070000000000000000e+02 4.381427001953125000e+01 -5.105829715728759766e+00 5.804001688957214355e-01 4.464793801307678223e-01 3.080638647079467773e-01 -1.015331864356994629e+00
4.080000000000000000e+02 4.141745376586914062e+01 -5.416322708129882812e+00 -1.641862273216247559e+00 1.783607713878154755e-02 -4.872078597545623779e-01 -9.700375795364379883e-02
4.090000000000000000e+02 4.222405242919921875e+01 -6.153120994567871094e+00 -2.854121208190917969e+00 -4.117528907954692841e-03 -8.574715852737426758e-01 -1.958120986819267273e-02
4.100000000000000000e+02 4.147186660766601562e+01 -6.155351638793945312e+00 -2.807292699813842773e+00 -3.512229071930050850e-03 -8.432414531707763672e-01 -2.698879316449165344e-02
4.110000000000000000e+02 4.391748046875000000e+01 -5.784733772277832031e+00 -1.291436195373535156e+00 -1.577734574675559998e-02 -3.921640813350677490e-01 -3.141385614871978760e-01
4.120000000000000000e+02 4.387979888916015625e+01 -5.555189132690429688e+00 -5.582627058029174805e-01 8.369758725166320801e-02 -1.423695385456085205e-01 -5.642864108085632324e-01
4.130000000000000000e+02 4.366486740112304688e+01 -6.003760814666748047e+00 -2.174397706985473633e+00 9.507174044847488403e-02 -6.237977743148803711e-01 -1.609465330839157104e-01
4.140000000000000000e+02 4.404296112060546875e+01 -6.129080295562744141e+00 -2.448063135147094727e+00 7.428639382123947144e-02 -7.121330499649047852e-01 1.788777112960815430e-02
4.150000000000000000e+02 4.298603057861328125e+01 -6.222015380859375000e+00 -2.959908962249755859e+00 -3.744015842676162720e-02 -8.992047309875488281e-01 2.594585530459880829e-02
4.160000000000000000e+02 4.272530364990234375e+01 -5.320196151733398438e+00 -9.428664445877075195e-01 5.287969857454299927e-02 -2.669960260391235352e-01 -3.240133523941040039e-01
4.170000000000000000e+02 4.366832733154296875e+01 -6.314145088195800781e+00 -3.122375011444091797e+00 6.719212979078292847e-02 -9.165548682212829590e-01 -3.712869063019752502e-02
4.180000000000000000e+02 4.401554870605468750e+01 -5.969964981079101562e+00 -1.989178657531738281e+00 -8.193250000476837158e-02 -6.213333606719970703e-01 -1.829997748136520386e-01
4.190000000000000000e+02 4.391419601440429688e+01 -6.098067283630371094e+00 -2.444205760955810547e+00 -2.067691087722778320e-01 -7.952924370765686035e-01 -9.942901879549026489e-02
4.200000000000000000e+02 3.846181488037109375e+01 -5.483074665069580078e+00 -1.887930989265441895e+00 1.517181750386953354e-02 -5.618277192115783691e-01 5.131475999951362610e-02
4.210000000000000000e+02 3.848166656494140625e+01 -6.222808361053466797e+00 -2.536509275436401367e+00 2.634719945490360260e-03 -7.601623535156250000e-01 -1.280385255813598633e-02
4.220000000000000000e+02 3.923187255859375000e+01 -6.203719139099121094e+00 -2.622898101806640625e+00 1.825172454118728638e-03 -7.863218188285827637e-01 -1.807897165417671204e-02
4.230000000000000000e+02 3.998181152343750000e+01 -6.183495998382568359e+00 -2.697351455688476562e+00 5.693021230399608612e-03 -8.074975609779357910e-01 -2.674725465476512909e-02
4.240000000000000000e+02 4.073185729980468750e+01 -6.163486957550048828e+00 -2.759478569030761719e+00 -2.087305299937725067e-03 -8.284697532653808594e-01 -3.160705044865608215e-02
4.250000000000000000e+02 4.071416854858398438e+01 -5.423696517944335938e+00 -1.751659154891967773e+00 2.857452072203159332e-02 -5.169253945350646973e-01 -4.312490671873092651e-02
4.260000000000000000e+02 3.921274185180664062e+01 -5.463966846466064453e+00 -1.882249116897583008e+00 2.040275372564792633e-02 -5.585539340972900391e-01 2.743520773947238922e-02
4.270000000000000000e+02 3.996340179443359375e+01 -5.443724155426025391e+00 -1.842178463935852051e+00 2.363175339996814728e-02 -5.455639958381652832e-01 6.667991401627659798e-04
4.280000000000000000e+02 3.698171997070312500e+01 -6.262598514556884766e+00 -2.328990697860717773e+00 2.676899079233407974e-03 -6.978940963745117188e-01 -4.508451558649539948e-03
4.290000000000000000e+02 3.621255493164062500e+01 -5.544963359832763672e+00 -1.774118065834045410e+00 1.469689887017011642e-02 -5.278263688087463379e-01 1.001176685094833374e-01
4.300000000000000000e+02 3.548279571533203125e+01 -6.306656837463378906e+00 -2.096606016159057617e+00 4.269181750714778900e-03 -6.277010440826416016e-01 6.756624672561883926e-03
4.310000000000000000e+02 3.771127700805664062e+01 -5.501970291137695312e+00 -1.865896344184875488e+00 1.480376720428466797e-02 -5.553277730941772461e-01 7.103253901004791260e-02
4.320000000000000000e+02 3.773139953613281250e+01 -6.241697311401367188e+00 -2.437713623046875000e+00 1.031785039231181145e-03 -7.310045361518859863e-01 -8.586584590375423431e-03
4.330000000000000000e+02 3.546322250366210938e+01 -5.566914081573486328e+00 -1.709936141967773438e+00 1.465019024908542633e-02 -5.085858106613159180e-01 1.112628653645515442e-01
4.340000000000000000e+02 3.696178054809570312e+01 -5.522866249084472656e+00 -1.827813863754272461e+00 1.302341930568218231e-02 -5.444371104240417480e-01 8.713557571172714233e-02
4.350000000000000000e+02 3.623231124877929688e+01 -6.284700870513916016e+00 -2.215879201889038086e+00 2.160230884328484535e-03 -6.641156673431396484e-01 4.471551801543682814e-04
4.360000000000000000e+02 3.323463058471679688e+01 -6.359344959259033203e+00 -1.733487010002136230e+00 2.336237346753478050e-03 -5.193452239036560059e-01 2.565938606858253479e-02
4.370000000000000000e+02 3.321954727172851562e+01 -5.619493961334228516e+00 -1.461140632629394531e+00 1.305860932916402817e-02 -4.344246089458465576e-01 1.407227516174316406e-01
4.380000000000000000e+02 3.248681640625000000e+01 -6.379900932312011719e+00 -1.602190494537353516e+00 5.756844300776720047e-03 -4.789300858974456787e-01 3.252807259559631348e-02
4.390000000000000000e+02 3.398349380493164062e+01 -6.341384410858154297e+00 -1.857770323753356934e+00 2.896317746490240097e-03 -5.564621686935424805e-01 2.147461473941802979e-02
4.400000000000000000e+02 3.471478271484375000e+01 -5.586100101470947266e+00 -1.634752988815307617e+00 1.460534427314996719e-02 -4.860443174839019775e-01 1.194193735718727112e-01
4.410000000000000000e+02 3.473338699340820312e+01 -6.325866699218750000e+00 -1.977292537689208984e+00 4.318479448556900024e-03 -5.918922424316406250e-01 1.490860804915428162e-02
4.420000000000000000e+02 3.247348785400390625e+01 -5.640007495880126953e+00 -1.375717759132385254e+00 1.505807973444461823e-02 -4.081979095935821533e-01 1.472590267658233643e-01
4.430000000000000000e+02 3.396664810180664062e+01 -5.601575374603271484e+00 -1.549228549003601074e+00 1.211581099778413773e-02 -4.611338078975677490e-01 1.294713765382766724e-01
4.440000000000000000e+02 3.099083137512207031e+01 -6.399948596954345703e+00 -1.364995360374450684e+00 1.861415454186499119e-03 -4.089401662349700928e-01 5.007099732756614685e-02
4.450000000000000000e+02 3.024179267883300781e+01 -5.667771339416503906e+00 -1.083647966384887695e+00 8.788115344941616058e-03 -3.224579691886901855e-01 1.674865782260894775e-01
4.460000000000000000e+02 2.949573898315429688e+01 -6.414954185485839844e+00 -1.108767151832580566e+00 5.587493069469928741e-03 -3.309539258480072021e-01 6.009450927376747131e-02
4.470000000000000000e+02 3.172830200195312500e+01 -5.652883052825927734e+00 -1.280537962913513184e+00 1.396681088954210281e-02 -3.799713253974914551e-01 1.510528624057769775e-01
4.480000000000000000e+02 3.173856925964355469e+01 -6.392818927764892578e+00 -1.479832768440246582e+00 5.687677767127752304e-03 -4.422435164451599121e-01 4.304998740553855896e-02
4.490000000000000000e+02 2.949855422973632812e+01 -5.674893379211425781e+00 -9.916359186172485352e-01 1.059332396835088730e-02 -2.943127751350402832e-01 1.706953495740890503e-01
4.500000000000000000e+02 3.098492622375488281e+01 -5.659971237182617188e+00 -1.180555343627929688e+00 9.294116869568824768e-03 -3.513783812522888184e-01 1.582739055156707764e-01
4.510000000000000000e+02 3.024333572387695312e+01 -6.407790660858154297e+00 -1.241176724433898926e+00 2.008740790188312531e-03 -3.717503845691680908e-01 5.318500846624374390e-02
4.520000000000000000e+02 2.800358009338378906e+01 -6.392907142639160156e+00 -8.915007710456848145e-01 -1.947620534338057041e-03 -2.680345177650451660e-01 7.665416598320007324e-02
4.530000000000000000e+02 2.728431129455566406e+01 -5.636834621429443359e+00 -7.019785046577453613e-01 -4.057538229972124100e-03 -2.118108123540878296e-01 1.789812743663787842e-01
4.540000000000000000e+02 2.651304817199707031e+01 -6.358762741088867188e+00 -6.595598459243774414e-01 3.857970295939594507e-04 -1.977522075176239014e-01 7.787492126226425171e-02
4.550000000000000000e+02 2.875823974609375000e+01 -5.669638156890869141e+00 -8.946456313133239746e-01 7.431090343743562698e-03 -2.661643624305725098e-01 1.702946573495864868e-01
4.560000000000000000e+02 2.874904632568359375e+01 -6.409622669219970703e+00 -9.930152893066406250e-01 3.887847065925598145e-03 -2.967382371425628662e-01 7.099553942680358887e-02
4.570000000000000000e+02 2.654741096496582031e+01 -5.619358539581298828e+00 -6.167644262313842773e-01 -4.299468826502561569e-03 -1.863191574811935425e-01 1.762004345655441284e-01
4.580000000000000000e+02 2.802116203308105469e+01 -5.653115749359130859e+00 -7.944927215576171875e-01 -6.044220062904059887e-04 -2.385291457176208496e-01 1.738717108964920044e-01
4.590000000000000000e+02 2.725833702087402344e+01 -6.376431941986083984e+00 -7.792645692825317383e-01 -2.527084667235612869e-03 -2.345374822616577148e-01 7.595250010490417480e-02
4.600000000000000000e+02 2.428754043579101562e+01 -6.197861671447753906e+00 -3.857659995555877686e-01 -1.079727988690137863e-02 -1.189689859747886658e-01 7.779028266668319702e-02
4.610000000000000000e+02 2.435861396789550781e+01 -5.461198806762695312e+00 -3.652035593986511230e-01 -2.511805295944213867e-02 -1.170964911580085754e-01 1.616186797618865967e-01
4.620000000000000000e+02 2.354777717590332031e+01 -6.138960838317871094e+00 -2.935717701911926270e-01 -9.096565656363964081e-03 -9.080050140619277954e-02 7.034531235694885254e-02
4.630000000000000000e+02 2.502826499938964844e+01 -6.258197307586669922e+00 -4.763118028640747070e-01 -9.491713717579841614e-03 -1.457410603761672974e-01 8.471234887838363647e-02
4.640000000000000000e+02 2.581491851806640625e+01 -5.581003189086914062e+00 -5.298491120338439941e-01 -9.163380600512027740e-03 -1.617037355899810791e-01 1.690509468317031860e-01
4.650000000000000000e+02 2.576985549926757812e+01 -6.319781780242919922e+00 -5.596355199813842773e-01 -3.252840135246515274e-03 -1.688665002584457397e-01 8.378756791353225708e-02
4.660000000000000000e+02 2.363185691833496094e+01 -5.403356075286865234e+00 -2.958502173423767090e-01 -2.719580382108688354e-02 -9.691380709409713745e-02 1.496419012546539307e-01
4.670000000000000000e+02 2.508633232116699219e+01 -5.520476818084716797e+00 -4.422861933708190918e-01 -1.928465254604816437e-02 -1.384712606668472290e-01 1.655729711055755615e-01
4.680000000000000000e+02 2.146717453002929688e+01 -5.077126979827880859e+00 -1.164856627583503723e-01 -4.143810272216796875e-02 -4.737712815403938293e-02 1.017227843403816223e-01
4.690000000000000000e+02 2.134441947937011719e+01 -5.806876659393310547e+00 -9.976068139076232910e-02 -1.343182846903800964e-02 -3.395775333046913147e-02 4.532774165272712708e-02
4.700000000000000000e+02 2.061148262023925781e+01 -5.684748649597167969e+00 -4.808639734983444214e-02 -1.250135898590087891e-02 -1.817632652819156647e-02 3.236641734838485718e-02
4.710000000000000000e+02 2.207760429382324219e+01 -5.928263664245605469e+00 -1.583276689052581787e-01 -1.625255867838859558e-02 -5.237406864762306213e-02 5.754533037543296814e-02
4.720000000000000000e+02 2.290797805786132812e+01 -5.314875125885009766e+00 -2.295689135789871216e-01 -3.149846196174621582e-02 -7.832021266222000122e-02 1.336149722337722778e-01
4.730000000000000000e+02 2.281096076965332031e+01 -6.048885822296142578e+00 -2.182149291038513184e-01 -1.193717308342456818e-02 -6.904562562704086304e-02 6.575336307287216187e-02
4.740000000000000000e+02 2.074710655212402344e+01 -4.957129478454589844e+00 -7.911036163568496704e-02 -3.793946653604507446e-02 -3.511494770646095276e-02 7.971515506505966187e-02
4.750000000000000000e+02 2.218749046325683594e+01 -5.196383476257324219e+00 -1.668697446584701538e-01 -3.871119767427444458e-02 -6.167428195476531982e-02 1.197886168956756592e-01
4.760000000000000000e+02 1.905580329895019531e+01 -4.613489627838134766e+00 -9.158165194094181061e-03 -3.062697872519493103e-02 -1.193554326891899109e-02 1.523837726563215256e-02
4.770000000000000000e+02 1.978026580810546875e+01 -5.523462295532226562e+00 -1.386185921728610992e-02 -1.206973660737276077e-02 -7.779478561133146286e-03 1.316103059798479080e-02
4.780000000000000000e+02 1.992511749267578125e+01 -4.797539234161376953e+00 -3.871282935142517090e-02 -4.325949028134346008e-02 -2.459169551730155945e-02 5.228938534855842590e-02
4.790000000000000000e+02 1.847771644592285156e+01 -4.667171001434326172e+00 1.340608432656154037e-04 7.176459766924381256e-03 2.193156164139509201e-03 -4.524836316704750061e-03
4.800000000000000000e+02 1.890536689758300781e+01 -5.338151454925537109e+00 5.277352174744009972e-04 -1.480762846767902374e-03 -2.859082887880504131e-04 2.505714539438486099e-03
4.810000000000000000e+02 1.882146453857421875e+01 -6.111851215362548828e+00 -1.542696077376604080e-02 -1.571664353832602501e-03 -5.099587608128786087e-03 -1.446448732167482376e-02
4.820000000000000000e+02 1.800308799743652344e+01 -6.754832744598388672e+00 -1.460479013621807098e-02 -6.391250342130661011e-02 -2.355518937110900879e-02 -2.228208445012569427e-02
4.830000000000000000e+02 1.831862449645996094e+01 -6.817986488342285156e+00 -5.406738072633743286e-02 -3.561815619468688965e-02 -2.690566144883632660e-02 -4.362915083765983582e-02
4.840000000000000000e+02 1.959215354919433594e+01 -7.028707504272460938e+00 -2.570910453796386719e-01 9.172858670353889465e-03 -7.437545806169509888e-02 -1.150155439972877502e-01
4.850000000000000000e+02 1.890554809570312500e+01 -6.889476776123046875e+00 -1.512273699045181274e-01 -3.197128325700759888e-02 -5.495959520339965820e-02 -8.880219608545303345e-02
4.860000000000000000e+02 1.965883255004882812e+01 -6.285129547119140625e+00 -1.078559532761573792e-01 -4.996141069568693638e-04 -3.250667080283164978e-02 -3.010374680161476135e-02
4.870000000000000000e+02 1.828899765014648438e+01 -6.266255378723144531e+00 -1.575868949294090271e-02 -4.599425476044416428e-03 -6.107434630393981934e-03 -1.091480907052755356e-02
4.880000000000000000e+02 1.796524238586425781e+01 -6.500696659088134766e+00 -8.946954272687435150e-03 -1.721243001520633698e-02 -7.847815752029418945e-03 -8.482196717523038387e-04
4.890000000000000000e+02 1.805062866210937500e+01 -7.327128887176513672e+00 -3.921687230467796326e-02 -1.354108303785324097e-01 -5.238831043243408203e-02 -1.304214894771575928e-01
4.900000000000000000e+02 1.869972801208496094e+01 -7.443528175354003906e+00 -2.051017284393310547e-01 -3.488726913928985596e-02 -7.199669629335403442e-02 -1.579969823360443115e-01
4.910000000000000000e+02 1.717905807495117188e+01 -9.371591567993164062e+00 -2.351431399583816528e-01 -3.112001419067382812e-01 -1.639029830694198608e-01 -2.954975068569183350e-01
4.920000000000000000e+02 2.248508453369140625e+01 -9.107645034790039062e+00 -7.539329528808593750e-01 4.811175912618637085e-02 -2.117463648319244385e-01 -3.613091409206390381e-01
4.930000000000000000e+02 2.795302391052246094e+01 -8.644764900207519531e+00 -1.445931792259216309e+00 -9.933089837431907654e-03 -4.367594420909881592e-01 -2.381762415170669556e-01
4.940000000000000000e+02 2.408516311645507812e+01 -8.456733703613281250e+00 -9.748402833938598633e-01 2.875427342951297760e-02 -2.838258147239685059e-01 -2.615470588207244873e-01
4.950000000000000000e+02 1.502806282043457031e+01 -1.273939037322998047e+01 -5.412405133247375488e-01 -8.441971540451049805e-01 -4.156313240528106689e-01 -6.562032699584960938e-01
4.960000000000000000e+02 1.243824005126953125e+01 -1.606100082397460938e+01 -8.030949831008911133e-01 -8.451755642890930176e-01 -4.944811761379241943e-01 -8.082497119903564453e-01
4.970000000000000000e+02 1.437089633941650391e+01 -1.581887912750244141e+01 -6.742890477180480957e-01 -6.669569015502929688e-01 -4.023737907409667969e-01 -6.367725133895874023e-01
4.980000000000000000e+02 1.483501338958740234e+01 -2.452399826049804688e+01 6.804886460304260254e-02 -3.612691760063171387e-01 -8.796609193086624146e-02 -3.359605073928833008e-01
4.990000000000000000e+02 1.889100265502929688e+01 -2.963376235961914062e+01 3.119295835494995117e-01 1.004171893000602722e-01 1.237040311098098755e-01 -1.719288825988769531e-01
5.000000000000000000e+02 1.780270195007324219e+01 -4.058573913574218750e+01 3.782781064510345459e-01 1.758772581815719604e-01 1.662466078996658325e-01 -3.112683631479740143e-02
5.010000000000000000e+02 2.272063636779785156e+01 -4.085333633422851562e+01 4.322191476821899414e-01 7.331879734992980957e-01 3.496221303939819336e-01 -2.710973378270864487e-03
5.020000000000000000e+02 1.903249931335449219e+01 -3.685433197021484375e+01 3.979026675224304199e-01 2.544135451316833496e-01 1.956948637962341309e-01 -7.136698812246322632e-02
5.030000000000000000e+02 2.060402870178222656e+01 -3.341917800903320312e+01 4.004497230052947998e-01 3.737376630306243896e-01 2.322562187910079956e-01 -7.765183597803115845e-02
5.040000000000000000e+02 2.397967529296875000e+01 -1.319400119781494141e+01 -5.904311537742614746e-01 9.822914004325866699e-02 -1.476606130599975586e-01 -5.099747776985168457e-01
5.050000000000000000e+02 2.323611259460449219e+01 -1.417793273925781250e+01 -5.199109315872192383e-01 1.062933206558227539e-01 -1.240852847695350647e-01 -5.081390142440795898e-01
5.060000000000000000e+02 1.334845161437988281e+01 -1.497438716888427734e+01 -7.490245103836059570e-01 -8.632376790046691895e-01 -4.836786687374114990e-01 -7.830953598022460938e-01
5.070000000000000000e+02 1.147352123260498047e+01 -1.719228935241699219e+01 -9.747491478919982910e-01 -8.115696310997009277e-01 -5.358956456184387207e-01 -7.892148494720458984e-01
5.080000000000000000e+02 1.026976966857910156e+01 -1.807880592346191406e+01 -1.207028388977050781e+00 -6.521913409233093262e-01 -5.577659606933593750e-01 -6.555305123329162598e-01
5.090000000000000000e+02 8.977158546447753906e+00 -1.838261222839355469e+01 -8.787754774093627930e-01 -2.210724949836730957e-01 -3.299543857574462891e-01 -3.494180738925933838e-01
5.100000000000000000e+02 7.190410137176513672e+00 -1.738850593566894531e+01 -1.716730147600173950e-01 5.697862431406974792e-02 -3.440831601619720459e-02 -2.863536216318607330e-02
5.110000000000000000e+02 6.353509902954101562e+00 -1.641845893859863281e+01 -1.749501097947359085e-03 1.299562398344278336e-02 3.373836865648627281e-03 -1.061866711825132370e-02
5.120000000000000000e+02 7.057859420776367188e+00 -1.512401485443115234e+01 1.174363307654857635e-02 5.026381462812423706e-02 1.860223338007926941e-02 -1.579602621495723724e-02
5.130000000000000000e+02 8.910215377807617188e+00 -1.145447158813476562e+01 -2.260757843032479286e-03 -1.750919851474463940e-03 -1.203503343276679516e-03 1.804898958653211594e-03
5.140000000000000000e+02 9.678028106689453125e+00 -1.031098461151123047e+01 1.402245252393186092e-03 1.021891250275075436e-03 7.272409275174140930e-04 -1.558066229335963726e-03
5.150000000000000000e+02 1.213309383392333984e+01 -7.045884132385253906e+00 -7.521460065618157387e-04 -4.178402887191623449e-04 -3.509958914946764708e-04 3.899894072674214840e-04
5.160000000000000000e+02 1.175247859954833984e+01 -2.754977464675903320e+00 -3.171402786392718554e-04 1.911626750370487571e-04 -3.779328471864573658e-05 3.701223467942327261e-04
5.170000000000000000e+02 1.227432155609130859e+01 -4.624021053314208984e+00 4.307710332795977592e-04 1.381208276143297553e-04 1.706675539026036859e-04 -4.240903072059154510e-04
5.180000000000000000e+02 1.105274677276611328e+01 -1.923894882202148438e+00 -1.565279526403173804e-04 6.695203774143010378e-05 -2.687277628865558654e-05 3.053929540328681469e-04
5.190000000000000000e+02 4.271204948425292969e+00 -1.928267836570739746e+00 -3.572430796339176595e-05 6.985361687839031219e-05 1.023879394779214635e-05 -2.214256819570437074e-04
5.200000000000000000e+02 1.564847588539123535e+00 -1.475447463989257812e+01 3.025687299668788910e-03 8.484003134071826935e-03 3.452907083556056023e-03 1.270880457013845444e-02
5.210000000000000000e+02 4.427841663360595703e+00 -1.867513656616210938e+01 -1.590278148651123047e-01 -4.802810028195381165e-02 -6.211677193641662598e-02 -8.372744917869567871e-02
5.220000000000000000e+02 6.638784408569335938e-01 -2.479745483398437500e+01 -4.302878864109516144e-03 -2.998041212558746338e-01 -9.123209863901138306e-02 -5.906722694635391235e-02
5.230000000000000000e+02 7.769708633422851562e-01 -3.188603401184082031e+01 4.711732733994722366e-03 -8.862318992614746094e-01 -2.644560337066650391e-01 -4.958164319396018982e-02
5.240000000000000000e+02 2.841611623764038086e+00 -3.790414810180664062e+01 3.561728820204734802e-02 -9.622274041175842285e-01 -2.779830396175384521e-01 -3.802588582038879395e-02
5.250000000000000000e+02 8.109880089759826660e-01 -3.728416824340820312e+01 4.317602608352899551e-03 -1.101925969123840332e+00 -3.292825222015380859e-01 -6.453229580074548721e-04
5.260000000000000000e+02 8.873803138732910156e+00 -3.805883026123046875e+01 1.758288145065307617e-01 -5.102061629295349121e-01 -1.003132089972496033e-01 -1.324206739664077759e-01
5.270000000000000000e+02 7.896569728851318359e+00 -3.298680877685546875e+01 1.376311331987380981e-01 -5.329903364181518555e-01 -1.186077594757080078e-01 -2.660507857799530029e-01
5.280000000000000000e+02 1.229087257385253906e+01 -2.129879760742187500e+01 -1.605331152677536011e-01 -5.865689516067504883e-01 -2.241306155920028687e-01 -4.281789958477020264e-01
5.290000000000000000e+02 1.079558753967285156e+01 -2.217828941345214844e+01 -8.413556963205337524e-02 -5.731402635574340820e-01 -1.971827447414398193e-01 -4.533808827400207520e-01
5.300000000000000000e+02 6.398891210556030273e-01 -2.336821365356445312e+01 -3.578178584575653076e-03 -1.813730448484420776e-01 -5.548536777496337891e-02 -5.044692754745483398e-02
5.310000000000000000e+02 1.255060672760009766e+01 -1.999308228492736816e+00 -4.664072912419214845e-05 6.402938743121922016e-05 5.216597401158651337e-06 8.973700460046529770e-05
5.320000000000000000e+02 2.757859802246093750e+01 -4.094727325439453125e+01 3.969641327857971191e-01 1.431856036186218262e+00 5.486460328102111816e-01 2.660394087433815002e-02
5.330000000000000000e+02 2.798798370361328125e+01 -3.456727600097656250e+01 3.890759646892547607e-01 1.388744592666625977e+00 5.333461761474609375e-01 1.256806403398513794e-01
5.340000000000000000e+02 2.698810768127441406e+01 -2.495293045043945312e+01 3.317308425903320312e-01 7.900084853172302246e-01 3.365217745304107666e-01 7.534553110599517822e-02
5.350000000000000000e+02 3.128386306762695312e+01 -1.475263118743896484e+01 -1.144195646047592163e-01 3.431940972805023193e-01 6.863236427307128906e-02 -7.169912010431289673e-02
5.360000000000000000e+02 3.100744247436523438e+01 -8.647971153259277344e+00 -1.719286203384399414e+00 -1.251803338527679443e-02 -5.195412635803222656e-01 -2.171139419078826904e-01
5.370000000000000000e+02 2.948251914978027344e+01 -9.382903099060058594e+00 -1.375819683074951172e+00 -3.735822625458240509e-03 -4.138666391372680664e-01 -2.835921943187713623e-01
5.380000000000000000e+02 4.231156921386718750e+01 -4.075188064575195312e+01 -2.322804331779479980e-01 4.474483489990234375e+00 1.272660851478576660e+00 9.635932743549346924e-02
5.390000000000000000e+02 3.736877822875976562e+01 -4.085326766967773438e+01 3.921362385153770447e-02 3.363491058349609375e+00 1.020811438560485840e+00 8.840199559926986694e-02
5.400000000000000000e+02 3.640533065795898438e+01 -3.405706024169921875e+01 1.319490671157836914e-01 3.053840160369873047e+00 9.557368159294128418e-01 4.023335576057434082e-01
5.410000000000000000e+02 3.828820037841796875e+01 -2.167997360229492188e+01 3.682253956794738770e-01 2.795860290527343750e+00 9.492257237434387207e-01 1.191350340843200684e+00
5.420000000000000000e+02 3.868060302734375000e+01 -1.339023303985595703e+01 4.887125790119171143e-01 1.168206453323364258e+00 4.970757365226745605e-01 1.102236151695251465e+00
5.430000000000000000e+02 3.928249740600585938e+01 -8.425621986389160156e+00 -1.579047083854675293e+00 7.013463973999023438e-02 -4.526737332344055176e-01 4.993457719683647156e-02
5.440000000000000000e+02 3.780074310302734375e+01 -9.167392730712890625e+00 -1.283567190170288086e+00 9.171619266271591187e-02 -3.575552999973297119e-01 4.402917250990867615e-02
5.450000000000000000e+02 3.628944778442382812e+01 -8.525292396545410156e+00 -1.859752058982849121e+00 1.880132034420967102e-02 -5.522851943969726562e-01 -1.206030994653701782e-01
5.460000000000000000e+02 4.192412948608398438e+01 -2.257610511779785156e+01 5.431100353598594666e-02 4.245946884155273438e+00 1.290077447891235352e+00 1.398536086082458496e+00
5.470000000000000000e+02 4.222335052490234375e+01 -1.366117668151855469e+01 8.027610778808593750e-01 3.177337408065795898e+00 1.194029569625854492e+00 2.363439083099365234e+00
5.480000000000000000e+02 4.298410034179687500e+01 -8.273619651794433594e+00 4.569594934582710266e-02 4.055489301681518555e-01 1.353734582662582397e-01 9.358498454093933105e-01
5.490000000000000000e+02 4.225641250610351562e+01 -8.310393333435058594e+00 -5.462796688079833984e-01 2.690327763557434082e-01 -8.317406475543975830e-02 5.958287119865417480e-01
5.500000000000000000e+02 5.224300003051757812e+01 -4.081838607788085938e+01 -6.497302055358886719e-01 6.414940357208251953e+00 1.729562997817993164e+00 4.188909009099006653e-02
5.510000000000000000e+02 4.823963165283203125e+01 -3.061231422424316406e+01 -5.654119253158569336e-01 6.048729896545410156e+00 1.644995450973510742e+00 5.509499907493591309e-01
5.520000000000000000e+02 4.672357940673828125e+01 -2.237757492065429688e+01 -4.841350317001342773e-01 6.342490673065185547e+00 1.757506608963012695e+00 1.250920176506042480e+00
5.530000000000000000e+02 4.839354324340820312e+01 -7.499186038970947266e+00 6.588744163513183594e+00 1.954862403869628906e+01 7.841210365295410156e+00 -2.554764270782470703e+00
5.540000000000000000e+02 6.199625015258789062e+01 -4.056234359741210938e+01 -5.616753697395324707e-01 7.505869865417480469e+00 2.083258390426635742e+00 -5.855487659573554993e-02
5.550000000000000000e+02 5.712628936767578125e+01 -4.079221343994140625e+01 -6.781659126281738281e-01 7.081522941589355469e+00 1.921007037162780762e+00 -1.603455282747745514e-02
5.560000000000000000e+02 5.755617523193359375e+01 -3.023536682128906250e+01 -7.100340127944946289e-01 7.504858970642089844e+00 2.038447380065917969e+00 -1.646867841482162476e-01
5.570000000000000000e+02 5.629322433471679688e+01 -2.369299507141113281e+01 -6.636389493942260742e-01 8.014146804809570312e+00 2.205152511596679688e+00 -2.572238147258758545e-01
5.580000000000000000e+02 6.105997848510742188e+01 -1.599273395538330078e+01 3.994717895984649658e-01 8.269609451293945312e+00 2.600724458694458008e+00 -9.634575843811035156e-01
5.590000000000000000e+02 5.903189468383789062e+01 -1.313271713256835938e+01 1.047996044158935547e+00 8.543570518493652344e+00 2.877469778060913086e+00 -1.010119438171386719e+00
5.600000000000000000e+02 5.223325729370117188e+01 -4.612217426300048828e+00 4.297603130340576172e+00 1.067649936676025391e+01 4.492230892181396484e+00 1.204112648963928223e+00
5.610000000000000000e+02 6.069231033325195312e+01 3.818234682083129883e+00 3.563510179519653320e-01 8.314129829406738281e+00 2.601144075393676758e+00 1.046280145645141602e+00
5.620000000000000000e+02 5.964741516113281250e+01 1.041226768493652344e+01 -4.041030406951904297e-01 8.081992149353027344e+00 2.303366661071777344e+00 7.074345946311950684e-01
5.630000000000000000e+02 5.902207565307617188e+01 1.508528518676757812e+01 -5.637257099151611328e-01 7.713549137115478516e+00 2.144947052001953125e+00 4.639431238174438477e-01
5.640000000000000000e+02 5.522323989868164062e+01 3.218844604492187500e+01 -4.018245339393615723e-01 6.442880153656005859e+00 1.812316656112670898e+00 2.147653698921203613e-02
5.650000000000000000e+02 5.724074935913085938e+01 4.051465225219726562e+01 -3.186338543891906738e-01 6.579256057739257812e+00 1.878186583518981934e+00 1.175884343683719635e-02
5.660000000000000000e+02 5.234841537475585938e+01 4.064560699462890625e+01 -3.183962702751159668e-01 5.869903564453125000e+00 1.665452241897583008e+00 -1.410079933702945709e-02
5.670000000000000000e+02 5.112781524658203125e+01 3.308180236816406250e+01 -3.780910670757293701e-01 5.773653507232666016e+00 1.618668675422668457e+00 -8.384414762258529663e-02
5.680000000000000000e+02 5.149623489379882812e+01 2.286256790161132812e+01 -5.636755824089050293e-01 6.255058288574218750e+00 1.707414865493774414e+00 -1.826629638671875000e-01
5.690000000000000000e+02 4.598472213745117188e+01 1.652219390869140625e+01 -4.643410146236419678e-01 5.536889076232910156e+00 1.521764397621154785e+00 -7.270903587341308594e-01
5.700000000000000000e+02 4.961024093627929688e+01 1.306909179687500000e+01 -6.346016526222229004e-01 6.730357646942138672e+00 1.828726768493652344e+00 -5.749759674072265625e-01
5.710000000000000000e+02 4.782591629028320312e+01 -4.283668994903564453e-01 -5.858159810304641724e-02 1.024195384979248047e+01 3.055011749267578125e+00 -2.142312049865722656e+00
5.720000000000000000e+02 4.799660110473632812e+01 -5.040438652038574219e+00 3.712385416030883789e+00 2.084866905212402344e+01 7.368316650390625000e+00 4.933870136737823486e-01
5.730000000000000000e+02 6.029598999023437500e+01 -1.125041365623474121e+00 1.350284099578857422e+00 8.222754478454589844e+00 2.871911525726318359e+00 9.324197173118591309e-01
5.740000000000000000e+02 6.042063140869140625e+01 -3.678300857543945312e+01 -6.224467754364013672e-01 7.460472583770751953e+00 2.051407575607299805e+00 -1.457732021808624268e-01
5.750000000000000000e+02 6.165488815307617188e+01 -2.867378425598144531e+01 -5.699368715286254883e-01 7.784553050994873047e+00 2.164384841918945312e+00 -4.547569751739501953e-01
5.760000000000000000e+02 6.439480590820312500e+01 -2.624303817749023438e+01 -3.899062573909759521e-01 7.892669677734375000e+00 2.250828981399536133e+00 -6.578317284584045410e-01
5.770000000000000000e+02 6.675929260253906250e+01 -1.682351112365722656e+01 2.518529891967773438e-01 7.718406677246093750e+00 2.391077995300292969e+00 -8.459304571151733398e-01
5.780000000000000000e+02 6.641046905517578125e+01 -9.535442352294921875e+00 8.991042375564575195e-01 7.488787174224853516e+00 2.516367435455322266e+00 -3.614723980426788330e-01
5.790000000000000000e+02 6.679775238037109375e+01 -2.851800918579101562e+00 8.320702910423278809e-01 7.479869365692138672e+00 2.493582010269165039e+00 4.711570441722869873e-01
5.800000000000000000e+02 6.567620086669921875e+01 1.617173194885253906e+00 5.578052401542663574e-01 7.745067596435546875e+00 2.490861892700195312e+00 8.810943365097045898e-01
5.810000000000000000e+02 6.291833114624023438e+01 1.000033760070800781e+01 -2.333867996931076050e-01 8.019052505493164062e+00 2.335699558258056641e+00 8.820121288299560547e-01
5.820000000000000000e+02 6.446154022216796875e+01 1.843767547607421875e+01 -3.841959536075592041e-01 7.789068698883056641e+00 2.221461772918701172e+00 5.986989736557006836e-01
5.830000000000000000e+02 6.577448272705078125e+01 2.719018745422363281e+01 -2.959749102592468262e-01 7.702757358551025391e+00 2.222034692764282227e+00 3.381404876708984375e-01
5.840000000000000000e+02 6.160170745849609375e+01 3.225015640258789062e+01 -3.330149352550506592e-01 7.212146759033203125e+00 2.063739538192749023e+00 1.579185277223587036e-01
5.850000000000000000e+02 6.213685607910156250e+01 4.047428512573242188e+01 -2.695085406303405762e-01 7.190804004669189453e+00 2.076388597488403320e+00 2.684334479272365570e-02
5.860000000000000000e+02 6.695815277099609375e+01 -4.061112594604492188e+01 -3.933342099189758301e-01 7.769524574279785156e+00 2.212857246398925781e+00 -7.976856082677841187e-02
5.870000000000000000e+02 7.211566925048828125e+01 -3.238248825073242188e+01 -1.891623288393020630e-01 7.893575191497802734e+00 2.311323881149291992e+00 -3.880836963653564453e-01
5.880000000000000000e+02 7.189558410644531250e+01 -2.316884613037109375e+01 -6.736230105161666870e-02 7.597277641296386719e+00 2.258974552154541016e+00 -6.573179364204406738e-01
5.890000000000000000e+02 7.226490020751953125e+01 -1.478715133666992188e+01 1.884922385215759277e-01 7.175335884094238281e+00 2.209148406982421875e+00 -5.584824681282043457e-01
5.900000000000000000e+02 7.326145172119140625e+01 -1.102496051788330078e+01 2.428340315818786621e-01 6.922795772552490234e+00 2.149688959121704102e+00 -3.156026601791381836e-01
5.910000000000000000e+02 7.146778869628906250e+01 -5.440194129943847656e+00 4.513804614543914795e-01 7.040832042694091797e+00 2.247663736343383789e+00 1.092804223299026489e-01
5.920000000000000000e+02 7.272694396972656250e+01 4.610161304473876953e+00 1.056656613945960999e-01 7.318498134613037109e+00 2.227249145507812500e+00 6.721654534339904785e-01
5.930000000000000000e+02 7.292713928222656250e+01 1.137839698791503906e+01 -5.802967399358749390e-02 7.718822002410888672e+00 2.298237562179565430e+00 6.789838075637817383e-01
5.940000000000000000e+02 7.389956665039062500e+01 1.868992424011230469e+01 -8.276188373565673828e-02 8.112594604492187500e+00 2.408949851989746094e+00 4.769350886344909668e-01
5.950000000000000000e+02 7.145835113525390625e+01 2.662955856323242188e+01 -1.477917730808258057e-01 8.204520225524902344e+00 2.417018651962280273e+00 3.424238264560699463e-01
5.960000000000000000e+02 7.041649627685546875e+01 3.166827774047851562e+01 -1.465427726507186890e-01 8.184716224670410156e+00 2.411452054977416992e+00 2.287797182798385620e-01
5.970000000000000000e+02 7.317741394042968750e+01 3.565388870239257812e+01 -7.787851989269256592e-02 8.527277946472167969e+00 2.534819841384887695e+00 1.068416982889175415e-01
5.980000000000000000e+02 7.191577148437500000e+01 3.768349456787109375e+01 -9.310957789421081543e-02 8.379446983337402344e+00 2.485901117324829102e+00 9.258764982223510742e-02
5.990000000000000000e+02 7.795220947265625000e+01 -4.164204788208007812e+01 9.683983400464057922e-03 8.476452827453613281e+00 2.545840978622436523e+00 2.736277179792523384e-03
6.000000000000000000e+02 7.768061828613281250e+01 -3.700583648681640625e+01 -1.988597959280014038e-02 8.351031303405761719e+00 2.499343633651733398e+00 -6.984421610832214355e-02
6.010000000000000000e+02 7.806471252441406250e+01 -3.042651557922363281e+01 -1.507871039211750031e-02 8.031260490417480469e+00 2.404854774475097656e+00 -1.580159664154052734e-01
6.020000000000000000e+02 7.800871276855468750e+01 -2.357592391967773438e+01 -6.582036148756742477e-03 7.418177604675292969e+00 2.223478555679321289e+00 -2.309208363294601440e-01
6.030000000000000000e+02 7.810430145263671875e+01 -1.655820846557617188e+01 1.082277577370405197e-02 6.681942939758300781e+00 2.007829666137695312e+00 -2.115904390811920166e-01
6.040000000000000000e+02 7.809539794921875000e+01 -9.606637001037597656e+00 2.879532612860202789e-02 6.181873321533203125e+00 1.863200664520263672e+00 -8.015473932027816772e-02
6.050000000000000000e+02 7.806254577636718750e+01 -2.636446714401245117e+00 2.912522852420806885e-02 6.230233192443847656e+00 1.877807497978210449e+00 1.113235503435134888e-01
6.060000000000000000e+02 7.805235290527343750e+01 4.348123073577880859e+00 1.068783923983573914e-02 6.808111667633056641e+00 2.045639753341674805e+00 2.407815754413604736e-01
6.070000000000000000e+02 7.802230072021484375e+01 1.130010700225830078e+01 -4.796450491994619370e-03 7.601523399353027344e+00 2.279018163681030273e+00 2.566329836845397949e-01
6.080000000000000000e+02 7.795787048339843750e+01 1.973326301574707031e+01 -1.038817409425973892e-02 8.427182197570800781e+00 2.525038242340087891e+00 1.876630932092666626e-01
6.090000000000000000e+02 7.661746215820312500e+01 2.269552040100097656e+01 -3.470708429813385010e-02 8.514490127563476562e+00 2.543934822082519531e+00 2.454217821359634399e-01
6.100000000000000000e+02 7.925431823730468750e+01 3.191652870178222656e+01 1.577872433699667454e-03 9.284652709960937500e+00 2.785869121551513672e+00 3.010559454560279846e-02
6.110000000000000000e+02 7.901974487304687500e+01 3.739359664916992188e+01 -1.273119915276765823e-02 9.346814155578613281e+00 2.800224781036376953e+00 -1.565301604568958282e-02
6.120000000000000000e+02 4.251045608520507812e+01 4.054330444335937500e+01 -1.659163832664489746e-01 4.200465679168701172e+00 1.210364699363708496e+00 -5.261022225022315979e-02
6.130000000000000000e+02 4.705005645751953125e+01 3.354706192016601562e+01 -3.052531182765960693e-01 5.048225879669189453e+00 1.422891855239868164e+00 -1.678520739078521729e-01
6.140000000000000000e+02 4.696799468994140625e+01 2.331767463684082031e+01 -4.468902349472045898e-01 5.392761707305908203e+00 1.483761429786682129e+00 -4.169427156448364258e-01
6.150000000000000000e+02 4.227206039428710938e+01 1.780105018615722656e+01 -2.750627696514129639e-01 4.467134475708007812e+00 1.257621526718139648e+00 -7.712330818176269531e-01
6.160000000000000000e+02 4.218376159667968750e+01 6.667007446289062500e+00 2.558701336383819580e-01 4.305842399597167969e+00 1.368513822555541992e+00 -1.669164657592773438e+00
6.170000000000000000e+02 4.085279846191406250e+01 -6.265424191951751709e-02 1.100816607475280762e+00 1.917916297912597656e+00 9.056198596954345703e-01 -1.665142416954040527e+00
6.180000000000000000e+02 4.197748184204101562e+01 -4.797412395477294922e+00 -4.125900566577911377e-01 1.979735046625137329e-01 -6.438495963811874390e-02 -4.775331020355224609e-01
6.190000000000000000e+02 4.315035629272460938e+01 -4.777373313903808594e+00 2.542763352394104004e-01 3.539730906486511230e-01 1.824748218059539795e-01 -9.515929818153381348e-01
6.200000000000000000e+02 4.457670974731445312e+01 -4.860393524169921875e+00 2.141974449157714844e+00 1.196848034858703613e+00 1.001646757125854492e+00 -2.307678461074829102e+00
6.210000000000000000e+02 3.741765975952148438e+01 4.055005645751953125e+01 -3.064636141061782837e-02 3.329193353652954102e+00 9.895640611648559570e-01 -6.348325312137603760e-02
6.220000000000000000e+02 3.882194137573242188e+01 3.201184844970703125e+01 -1.050079539418220520e-01 3.515488147735595703e+00 1.023144006729125977e+00 -2.916294634342193604e-01
6.230000000000000000e+02 3.710617446899414062e+01 2.237285423278808594e+01 -1.010494157671928406e-01 3.191806554794311523e+00 9.272271394729614258e-01 -5.985537767410278320e-01
6.240000000000000000e+02 3.824142837524414062e+01 1.597652626037597656e+01 -4.189077392220497131e-02 3.328088760375976562e+00 9.858593940734863281e-01 -8.256422281265258789e-01
6.250000000000000000e+02 3.419774246215820312e+01 8.583492279052734375e+00 3.282975554466247559e-01 1.639524340629577637e+00 5.903465747833251953e-01 -5.617386698722839355e-01
6.260000000000000000e+02 3.613776397705078125e+01 -7.631398439407348633e-01 2.513963878154754639e-01 4.492887258529663086e-01 2.102055400609970093e-01 -1.857276856899261475e-01
6.270000000000000000e+02 3.401623535156250000e+01 -4.896218776702880859e+00 -1.270438313484191895e+00 2.643326483666896820e-02 -3.732015192508697510e-01 2.007844746112823486e-01
6.280000000000000000e+02 3.476158905029296875e+01 -4.880662441253662109e+00 -1.316697001457214355e+00 2.729952521622180939e-02 -3.868192434310913086e-01 1.851621270179748535e-01
6.290000000000000000e+02 3.700216293334960938e+01 -4.838561058044433594e+00 -1.384446620941162109e+00 3.461769595742225647e-02 -4.049486815929412842e-01 1.191566661000251770e-01
6.300000000000000000e+02 3.240810394287109375e+01 4.082648086547851562e+01 1.202911585569381714e-01 2.382968664169311523e+00 7.509779930114746094e-01 -4.162253066897392273e-02
6.310000000000000000e+02 2.755923652648925781e+01 3.774739074707031250e+01 2.270698398351669312e-01 1.565761566162109375e+00 5.378494262695312500e-01 -9.700649231672286987e-02
6.320000000000000000e+02 2.736799621582031250e+01 3.139845275878906250e+01 1.885005831718444824e-01 1.453377127647399902e+00 4.925633370876312256e-01 -2.172879576683044434e-01
6.330000000000000000e+02 2.989028739929199219e+01 9.072543144226074219e+00 1.490926891565322876e-01 8.996356129646301270e-01 3.146184980869293213e-01 -1.441063880920410156e-01
6.340000000000000000e+02 2.595238304138183594e+01 3.887546300888061523e+00 -2.499281242489814758e-02 -1.834083814173936844e-03 -8.048068732023239136e-03 4.086540639400482178e-01
6.350000000000000000e+02 2.738352584838867188e+01 -4.924362659454345703e+00 -6.386477351188659668e-01 -4.499933682382106781e-03 -1.929443031549453735e-01 2.564744651317596436e-01
6.360000000000000000e+02 3.030928039550781250e+01 -4.957146167755126953e+00 -9.450463652610778809e-01 1.597252301871776581e-02 -2.787221670150756836e-01 2.481836229562759399e-01
6.370000000000000000e+02 2.899426651000976562e+01 -4.276868343353271484e+00 -6.994049549102783203e-01 1.061351783573627472e-02 -2.066374272108078003e-01 3.181316852569580078e-01
6.380000000000000000e+02 3.327135086059570312e+01 -4.912704944610595703e+00 -1.217266798019409180e+00 2.471897937357425690e-02 -3.577643632888793945e-01 2.134197205305099487e-01
6.390000000000000000e+02 1.772400856018066406e+01 4.072536087036132812e+01 3.037345707416534424e-01 2.898411750793457031e-01 1.780727207660675049e-01 1.323992293328046799e-02
6.400000000000000000e+02 2.267264366149902344e+01 4.091776275634765625e+01 3.037147223949432373e-01 8.795483708381652832e-01 3.549789190292358398e-01 -1.606482639908790588e-02
6.410000000000000000e+02 2.401390838623046875e+01 3.140356826782226562e+01 2.537547647953033447e-01 9.050697088241577148e-01 3.476473391056060791e-01 -1.425852775573730469e-01
6.420000000000000000e+02 2.420732116699218750e+01 2.329599952697753906e+01 7.606295496225357056e-02 6.836928129196166992e-01 2.279267311096191406e-01 -2.287827581167221069e-01
6.430000000000000000e+02 2.026164054870605469e+01 1.633682060241699219e+01 -3.586386144161224365e-01 -3.446295261383056641e-01 -2.109804451465606689e-01 1.354571282863616943e-01
6.440000000000000000e+02 2.176710700988769531e+01 1.092052364349365234e+01 -3.152403533458709717e-01 -4.576405584812164307e-01 -2.318642735481262207e-01 3.059864938259124756e-01
6.450000000000000000e+02 1.982697105407714844e+01 4.845852375030517578e+00 -1.020891368389129639e-01 -9.562571048736572266e-01 -3.175038695335388184e-01 3.065356016159057617e-01
6.460000000000000000e+02 2.164278030395507812e+01 -4.316448211669921875e+00 -1.268844604492187500e-01 -7.524057477712631226e-02 -6.063751131296157837e-02 1.577987968921661377e-01
6.470000000000000000e+02 2.469878959655761719e+01 -4.019129276275634766e+00 -3.312405943870544434e-01 -5.406974628567695618e-02 -1.155931055545806885e-01 2.948678135871887207e-01
6.480000000000000000e+02 2.377953147888183594e+01 -4.663192749023437500e+00 -2.867182791233062744e-01 -4.805335775017738342e-02 -1.004314869642257690e-01 2.177152037620544434e-01
6.490000000000000000e+02 1.849372482299804688e+01 3.051042747497558594e+01 2.856334745883941650e-01 1.730950474739074707e-01 1.376185566186904907e-01 2.212698198854923248e-02
6.500000000000000000e+02 1.297064399719238281e+01 1.740327072143554688e+01 -1.222266435623168945e+00 -9.017260074615478516e-01 -6.371977329254150391e-01 9.391736984252929688e-01
6.510000000000000000e+02 1.498317146301269531e+01 1.540828990936279297e+01 -9.735983610153198242e-01 -1.434351921081542969e+00 -7.223851084709167480e-01 1.070562005043029785e+00
6.520000000000000000e+02 1.784599876403808594e+01 1.572812175750732422e+01 -5.401826500892639160e-01 -8.616048097610473633e-01 -4.205362498760223389e-01 4.421868324279785156e-01
6.530000000000000000e+02 1.580889415740966797e+01 1.426417064666748047e+01 -7.486726641654968262e-01 -1.660757899284362793e+00 -7.228291630744934082e-01 1.006435275077819824e+00
6.540000000000000000e+02 1.820425987243652344e+01 9.067059516906738281e+00 -2.239538729190826416e-01 -1.700380206108093262e+00 -5.773002505302429199e-01 5.024288296699523926e-01
6.550000000000000000e+02 1.862417984008789062e+01 6.246127128601074219e+00 -8.170840889215469360e-02 -1.388423800468444824e+00 -4.410396516323089600e-01 2.856042981147766113e-01
6.560000000000000000e+02 1.881354522705078125e+01 2.135465621948242188e+00 -1.161447912454605103e-02 -7.870568037033081055e-01 -2.396013736724853516e-01 8.088517934083938599e-02
6.570000000000000000e+02 1.879861640930175781e+01 -5.114766359329223633e-01 -3.676265478134155273e-03 -3.647485375404357910e-01 -1.105274409055709839e-01 5.365240946412086487e-02
6.580000000000000000e+02 1.965883064270019531e+01 -2.993587017059326172e+00 -3.112408891320228577e-02 -1.286477893590927124e-01 -4.793156310915946960e-02 1.008236780762672424e-01
6.590000000000000000e+02 1.273107147216796875e+01 4.082877731323242188e+01 2.459753155708312988e-01 -1.172920763492584229e-01 3.860497102141380310e-02 2.988206781446933746e-02
6.600000000000000000e+02 8.084593772888183594e+00 4.110195159912109375e+01 1.230721324682235718e-01 -4.621131718158721924e-01 -1.017123088240623474e-01 3.877828270196914673e-02
6.610000000000000000e+02 8.138408660888671875e+00 3.237710571289062500e+01 1.263261586427688599e-01 -4.260808825492858887e-01 -8.992642164230346680e-02 2.509057521820068359e-01
6.620000000000000000e+02 6.000871658325195312e+00 2.439865493774414062e+01 -6.760778278112411499e-02 -3.009414076805114746e-01 -1.105647534132003784e-01 3.421495258808135986e-01
6.630000000000000000e+02 1.042282676696777344e+01 1.884803581237792969e+01 -1.087133765220642090e+00 -3.456653952598571777e-01 -4.298397302627563477e-01 4.684091806411743164e-01
6.640000000000000000e+02 1.177908515930175781e+01 1.821685218811035156e+01 -1.251264929771423340e+00 -6.005451679229736328e-01 -5.555430054664611816e-01 7.730789780616760254e-01
6.650000000000000000e+02 1.997917056083679199e+00 4.165267562866210938e+01 -2.049267664551734924e-02 -9.280499815940856934e-01 -2.845627963542938232e-01 -5.832883063703775406e-03
6.660000000000000000e+02 4.373298645019531250e+00 3.789173507690429688e+01 6.063301861286163330e-02 -7.209383249282836914e-01 -1.980915814638137817e-01 1.125318631529808044e-01
6.670000000000000000e+02 2.145610809326171875e+00 3.595952606201171875e+01 3.275117278099060059e-02 -8.139550089836120605e-01 -2.343611419200897217e-01 5.149954184889793396e-02
6.680000000000000000e+02 2.113540649414062500e+00 2.893957138061523438e+01 5.857802461832761765e-03 -4.927846789360046387e-01 -1.460780650377273560e-01 1.488616019487380981e-01
6.690000000000000000e+02 1.982856512069702148e+00 2.314973640441894531e+01 -2.243303693830966949e-02 -1.453940868377685547e-01 -5.034813657402992249e-02 1.115002930164337158e-01
6.700000000000000000e+02 4.270182609558105469e+00 1.577911853790283203e+01 -5.200973246246576309e-03 -2.553419955074787140e-02 -9.220551699399948120e-03 -4.046692512929439545e-03
6.710000000000000000e+02 4.781957864761352539e-01 6.423486232757568359e+00 1.853954454418271780e-04 -1.155681748059578240e-04 2.094818046316504478e-05 1.754841105139348656e-05
6.720000000000000000e+02 6.064490318298339844e+00 1.862254619598388672e+00 -1.532398746348917484e-04 -4.466385871637612581e-04 -1.799635356292128563e-04 -8.042897388804703951e-05
6.730000000000000000e+02 8.117624282836914062e+00 2.592722177505493164e+00 -1.675626699579879642e-04 -6.038673454895615578e-04 -2.314290031790733337e-04 -3.937802975997328758e-04
6.740000000000000000e+02 9.636876106262207031e+00 1.866848707199096680e+00 1.882927172118797898e-04 3.485873166937381029e-04 1.610640028957277536e-04 3.536508302204310894e-04
6.750000000000000000e+02 1.392693233489990234e+01 1.749397277832031250e+00 4.247220349498093128e-04 -8.992402581498026848e-05 1.004394071060232818e-04 5.749560659751296043e-05
6.760000000000000000e+02 1.446022510528564453e+01 6.256278991699218750e+00 -1.721984590403735638e-03 -3.321259282529354095e-04 -6.162331555970013142e-04 -3.718017542269080877e-04
6.770000000000000000e+02 1.184883308410644531e+01 9.559979438781738281e+00 -1.579185714945197105e-03 -1.809896901249885559e-03 -1.016724738292396069e-03 -1.478245714679360390e-03
6.780000000000000000e+02 1.133297252655029297e+01 1.233762168884277344e+01 3.528801957145333290e-03 2.421902958303689957e-03 1.785211497917771339e-03 2.792814979329705238e-03
6.790000000000000000e+02 1.217976379394531250e+01 1.123326587677001953e+01 -3.375806380063295364e-03 -1.783981220796704292e-03 -1.547936350107192993e-03 -2.021462423726916313e-03
6.800000000000000000e+02 9.419511795043945312e+00 1.446314239501953125e+01 4.936102777719497681e-03 4.582523833960294724e-03 2.855587983503937721e-03 2.249040408059954643e-03
6.810000000000000000e+02 7.871024131774902344e+00 1.688891410827636719e+01 1.116642635315656662e-02 8.018450438976287842e-02 2.740527875721454620e-02 1.342849456705152988e-03
6.820000000000000000e+02 1.804869294166564941e+00 2.174001312255859375e+01 -2.809363417327404022e-02 -7.715641707181930542e-02 -3.157501295208930969e-02 7.695826143026351929e-02
6.830000000000000000e+02 1.139116525650024414e+00 3.860074520111083984e+00 -1.812578993849456310e-04 -1.262856821995228529e-04 -9.226307884091511369e-05 1.759535080054774880e-04
6.840000000000000000e+02 1.326060199737548828e+01 2.477974891662597656e+00 1.069476056727580726e-04 2.682924096006900072e-04 1.125720009440556169e-04 -8.835699554765596986e-05
6.850000000000000000e+02 4.828042602539062500e+01 -7.686579704284667969e+00 5.098957538604736328e+00 1.985335159301757812e+01 7.485692977905273438e+00 -1.867168068885803223e+00
6.860000000000000000e+02 2.252983283996582031e+01 -8.320380210876464844e+00 -7.635437250137329102e-01 4.335651919245719910e-02 -2.160561680793762207e-01 -2.655773758888244629e-01
6.870000000000000000e+02 6.074167633056640625e+01 -1.210618877410888672e+01 1.185707926750183105e+00 8.196399688720703125e+00 2.814632415771484375e+00 -8.746698498725891113e-01
6.880000000000000000e+02 6.833023834228515625e+01 -1.026315784454345703e+01 6.616882085800170898e-01 7.357698440551757812e+00 2.405815839767456055e+00 -3.963022828102111816e-01
6.890000000000000000e+02 7.335504913330078125e+01 -1.231636714935302734e+01 2.109850496053695679e-01 6.958867073059082031e+00 2.150955677032470703e+00 -3.874039351940155029e-01
6.900000000000000000e+02 7.937097167968750000e+01 -1.248700809478759766e+01 4.453843459486961365e-03 6.106351852416992188e+00 1.833241820335388184e+00 -5.210670828819274902e-02
6.910000000000000000e+02 7.935481262207031250e+01 -5.523755550384521484e+00 6.842189468443393707e-03 5.861901760101318359e+00 1.760623097419738770e+00 1.316389255225658417e-02
6.920000000000000000e+02 7.282635498046875000e+01 -6.864333152770996094e+00 3.226293027400970459e-01 6.894480228424072266e+00 2.165132999420166016e+00 -2.188042737543582916e-02
6.930000000000000000e+02 6.712966156005859375e+01 -4.571280956268310547e+00 8.871081471443176270e-01 7.407019138336181641e+00 2.488238096237182617e+00 2.489492148160934448e-01
6.940000000000000000e+02 2.497850799560546875e+01 -2.416316795349121094e+01 2.468318790197372437e-01 5.446543693542480469e-01 2.374458760023117065e-01 -6.333527714014053345e-02
6.950000000000000000e+02 2.988619041442871094e+01 -1.437495326995849609e+01 -2.541698813438415527e-01 2.441561967134475708e-01 -3.004105063155293465e-03 -2.218457311391830444e-01
6.960000000000000000e+02 3.858451080322265625e+01 -1.422800636291503906e+01 5.469142198562622070e-01 1.402478933334350586e+00 5.848179459571838379e-01 1.181501388549804688e+00
6.970000000000000000e+02 4.087793731689453125e+01 -1.666120529174804688e+01 5.578992962837219238e-01 3.109694957733154297e+00 1.100278258323669434e+00 1.864524483680725098e+00
6.980000000000000000e+02 4.598807907104492188e+01 -1.851980781555175781e+01 -3.210276961326599121e-01 6.485586166381835938e+00 1.849367499351501465e+00 1.829583644866943359e+00
6.990000000000000000e+02 6.711530303955078125e+01 -1.882703781127929688e+01 8.583821356296539307e-02 7.744823932647705078e+00 2.349198579788208008e+00 -8.519484400749206543e-01
7.000000000000000000e+02 7.297866058349609375e+01 -1.894720077514648438e+01 3.921358287334442139e-02 7.333769798278808594e+00 2.211894989013671875e+00 -6.237883567810058594e-01
7.010000000000000000e+02 7.933808898925781250e+01 -2.225006294250488281e+01 -6.500427261926233768e-04 7.229585647583007812e+00 2.168680667877197266e+00 -8.568164706230163574e-02
7.020000000000000000e+02 5.335212707519531250e+00 -1.566166877746582031e+01 -2.068090951070189476e-03 -3.398780524730682373e-02 -1.081676874309778214e-02 -1.071596331894397736e-02
7.030000000000000000e+02 1.758348464965820312e+00 -1.746063995361328125e+01 -1.163094490766525269e-02 -1.125918701291084290e-03 -3.827058942988514900e-03 6.304650101810693741e-03
7.040000000000000000e+02 5.549870729446411133e-01 -1.068314743041992188e+01 1.062172697857022285e-03 1.944517251104116440e-03 9.020069846883416176e-04 8.732533897273242474e-04
7.050000000000000000e+02 2.411028861999511719e+01 -3.414975357055664062e+01 4.149541854858398438e-01 7.903152704238891602e-01 3.615808486938476562e-01 1.480482146143913269e-02
7.060000000000000000e+02 1.675932121276855469e+01 -2.859125900268554688e+01 2.623980641365051270e-01 -1.050359010696411133e-01 4.720864444971084595e-02 -2.458812892436981201e-01
7.070000000000000000e+02 2.929410934448242188e+01 -2.570494651794433594e+01 3.740214705467224121e-01 1.159400701522827148e+00 4.600266516208648682e-01 2.316187620162963867e-01
7.080000000000000000e+02 3.413150787353515625e+01 -2.477597236633300781e+01 3.962879776954650879e-01 1.903428673744201660e+00 6.899150013923645020e-01 6.434808373451232910e-01
7.090000000000000000e+02 4.267479705810546875e+01 -2.783657836914062500e+01 -1.514207571744918823e-01 4.515736579895019531e+00 1.309294700622558594e+00 9.231349825859069824e-01
7.100000000000000000e+02 4.575824737548828125e+01 -2.403379631042480469e+01 -3.983021676540374756e-01 5.800190448760986328e+00 1.620566487312316895e+00 1.179158329963684082e+00
7.110000000000000000e+02 5.811132049560546875e+01 -2.377195167541503906e+01 -5.931166410446166992e-01 8.065546035766601562e+00 2.241728782653808594e+00 -4.242412447929382324e-01
7.120000000000000000e+02 6.538691711425781250e+01 -2.487393760681152344e+01 -3.011203408241271973e-01 7.887680053710937500e+00 2.275967836380004883e+00 -7.270573377609252930e-01
7.130000000000000000e+02 7.283611297607421875e+01 -2.481835746765136719e+01 -8.428597450256347656e-02 7.639850616455078125e+00 2.266669511795043945e+00 -5.858505368232727051e-01
7.140000000000000000e+02 7.934531402587890625e+01 -2.643684959411621094e+01 -2.482685260474681854e-03 7.719239711761474609e+00 2.315027236938476562e+00 -7.487610727548599243e-02
7.150000000000000000e+02 7.413396239280700684e-01 -3.045966148376464844e+01 -4.594239580910652876e-04 -7.897362709045410156e-01 -2.370587140321731567e-01 -5.363268405199050903e-02
7.160000000000000000e+02 8.560326576232910156e+00 -3.542347717285156250e+01 1.768378317356109619e-01 -4.987792968750000000e-01 -9.658243507146835327e-02 -2.042247951030731201e-01
7.170000000000000000e+02 3.171216201782226562e+01 -3.154228973388671875e+01 3.483796715736389160e-01 1.944548130035400391e+00 6.878783702850341797e-01 3.209513127803802490e-01
7.180000000000000000e+02 3.519693756103515625e+01 -3.090637969970703125e+01 2.317468076944351196e-01 2.719169855117797852e+00 8.852750062942504883e-01 5.289859175682067871e-01
7.190000000000000000e+02 4.379043579101562500e+01 -3.213056182861328125e+01 -3.015547096729278564e-01 4.928195476531982422e+00 1.387992143630981445e+00 5.641844272613525391e-01
7.200000000000000000e+02 5.154357528686523438e+01 -3.415522384643554688e+01 -6.628867983818054199e-01 6.501725196838378906e+00 1.751651525497436523e+00 1.786332130432128906e-01
7.210000000000000000e+02 5.864710235595703125e+01 -3.334802627563476562e+01 -6.801177859306335449e-01 7.417253017425537109e+00 2.021140575408935547e+00 -1.707058250904083252e-01
7.220000000000000000e+02 6.299951553344726562e+01 -3.078352165222167969e+01 -5.307362675666809082e-01 7.755010604858398438e+00 2.167282342910766602e+00 -4.251604080200195312e-01
7.230000000000000000e+02 7.366733551025390625e+01 -3.238722610473632812e+01 -1.252545267343521118e-01 7.957611083984375000e+00 2.349706888198852539e+00 -3.431569039821624756e-01
7.240000000000000000e+02 7.930679321289062500e+01 -3.333599853515625000e+01 -5.733471829444169998e-03 8.321659088134765625e+00 2.494777679443359375e+00 -4.496659338474273682e-02
7.250000000000000000e+02 7.935236358642578125e+01 2.846490621566772461e+00 2.983883721753954887e-03 6.470251560211181641e+00 1.941970705986022949e+00 8.256626874208450317e-02
7.260000000000000000e+02 6.621260070800781250e+01 5.367953300476074219e+00 1.814921349287033081e-01 7.821830749511718750e+00 2.400996923446655273e+00 9.648292064666748047e-01
7.270000000000000000e+02 4.789833831787109375e+01 2.058149576187133789e-01 -1.363306045532226562e-01 9.810520172119140625e+00 2.902256965637207031e+00 -1.996895074844360352e+00
7.280000000000000000e+02 6.111950683593750000e+01 2.191458702087402344e+00 6.320849061012268066e-01 8.242261886596679688e+00 2.662304162979125977e+00 1.050684213638305664e+00
7.290000000000000000e+02 7.934726715087890625e+01 8.416116714477539062e+00 -5.994072853354737163e-05 7.197114467620849609e+00 2.159116268157958984e+00 9.701932966709136963e-02
7.300000000000000000e+02 7.293670654296875000e+01 1.009318637847900391e+01 -3.293717652559280396e-02 7.637949943542480469e+00 2.281503915786743164e+00 6.942372322082519531e-01
7.310000000000000000e+02 6.590111541748046875e+01 1.056712913513183594e+01 -1.641872078180313110e-01 7.902082920074462891e+00 2.321368694305419922e+00 8.979712724685668945e-01
7.320000000000000000e+02 4.625730133056640625e+01 1.004427242279052734e+01 -4.064998328685760498e-01 6.087355136871337891e+00 1.704256534576416016e+00 -1.142652153968811035e+00
7.330000000000000000e+02 6.038748931884765625e+01 8.847814559936523438e+00 -2.708505094051361084e-01 8.168010711669921875e+00 2.369148015975952148e+00 8.315343260765075684e-01
7.340000000000000000e+02 4.081135559082031250e+01 9.319061636924743652e-01 1.040485858917236328e+00 2.284096956253051758e+00 9.973748326301574707e-01 -1.750622153282165527e+00
7.350000000000000000e+02 3.700354003906250000e+01 -3.901393711566925049e-02 5.111886262893676758e-01 7.016139626502990723e-01 3.638407886028289795e-01 -4.589506387710571289e-01
7.360000000000000000e+02 2.948436927795410156e+01 -1.524280905723571777e-01 -1.251011043787002563e-01 1.045147702097892761e-01 -6.175899412482976913e-03 4.009759724140167236e-01
7.370000000000000000e+02 1.979001808166503906e+01 3.479555845260620117e+00 -6.446564942598342896e-02 -8.381172418594360352e-01 -2.707748711109161377e-01 2.668467164039611816e-01
7.380000000000000000e+02 1.881138229370117188e+01 3.494545936584472656e+00 -2.719041518867015839e-02 -1.037377119064331055e+00 -3.193702399730682373e-01 1.305400431156158447e-01
7.390000000000000000e+02 7.931813812255859375e+01 1.678695869445800781e+01 -2.993500558659434319e-03 8.248941421508789062e+00 2.473784208297729492e+00 8.230412006378173828e-02
7.400000000000000000e+02 7.234121704101562500e+01 1.706726074218750000e+01 -1.146470680832862854e-01 7.994023799896240234e+00 2.363812923431396484e+00 5.841187834739685059e-01
7.410000000000000000e+02 6.782448577880859375e+01 2.029887390136718750e+01 -2.585675418376922607e-01 7.909245491027832031e+00 2.295203447341918945e+00 5.719321966171264648e-01
7.420000000000000000e+02 4.484506988525390625e+01 1.757869148254394531e+01 -4.045467376708984375e-01 5.139156818389892578e+00 1.420382976531982422e+00 -7.308923006057739258e-01
7.430000000000000000e+02 5.615214157104492188e+01 1.498167037963867188e+01 -6.491634845733642578e-01 7.528665542602539062e+00 2.063850641250610352e+00 2.218832075595855713e-01
7.440000000000000000e+02 4.153248214721679688e+01 7.647822380065917969e+00 2.240981012582778931e-01 4.074693679809570312e+00 1.289637565612792969e+00 -1.523187041282653809e+00
7.450000000000000000e+02 3.297855758666992188e+01 1.218101024627685547e+01 1.497524380683898926e-01 1.776494264602661133e+00 5.778740048408508301e-01 -5.382778048515319824e-01
7.460000000000000000e+02 2.894070625305175781e+01 9.397313117980957031e+00 7.909269630908966064e-02 7.320720553398132324e-01 2.433494180440902710e-01 -6.525587290525436401e-02
7.470000000000000000e+02 2.050587844848632812e+01 1.194433975219726562e+01 -3.783518373966217041e-01 -6.835520267486572266e-01 -3.185711503028869629e-01 3.565172553062438965e-01
7.480000000000000000e+02 7.932267761230468750e+01 2.377773857116699219e+01 -4.311668686568737030e-03 8.875114440917968750e+00 2.661241054534912109e+00 5.524356290698051453e-02
7.490000000000000000e+02 7.270546722412109375e+01 2.399792861938476562e+01 -1.149057224392890930e-01 8.257014274597167969e+00 2.442632436752319336e+00 3.829768598079681396e-01
7.500000000000000000e+02 6.271524047851562500e+01 2.092504882812500000e+01 -4.448002576828002930e-01 7.632190704345703125e+00 2.156217098236083984e+00 4.566262960433959961e-01
7.510000000000000000e+02 4.937793731689453125e+01 2.359280776977539062e+01 -5.029388666152954102e-01 5.784688949584960938e+00 1.584525108337402344e+00 -2.873587310314178467e-01
7.520000000000000000e+02 4.355252075195312500e+01 1.639117622375488281e+01 -3.236770331859588623e-01 4.861388683319091797e+00 1.361313462257385254e+00 -8.322980403900146484e-01
7.530000000000000000e+02 3.461016464233398438e+01 1.817194175720214844e+01 -8.042313158512115479e-03 2.505702257156372070e+00 7.492980360984802246e-01 -6.346685290336608887e-01
7.540000000000000000e+02 2.926596260070800781e+01 1.672271156311035156e+01 -2.529261447489261627e-02 1.301067590713500977e+00 3.827325105667114258e-01 -3.681497573852539062e-01
7.550000000000000000e+02 2.096940803527832031e+01 1.767107009887695312e+01 -2.489376962184906006e-01 -1.395732462406158447e-01 -1.165532842278480530e-01 2.993783168494701385e-02
7.560000000000000000e+02 2.729835033416748047e+00 2.097456741333007812e+01 -4.966424405574798584e-02 -8.063299953937530518e-02 -3.908917307853698730e-02 8.323335647583007812e-02
7.570000000000000000e+02 7.941836547851562500e+01 2.921093559265136719e+01 2.232824452221393585e-03 9.186654090881347656e+00 2.756666183471679688e+00 2.693289704620838165e-02
7.580000000000000000e+02 7.299118804931640625e+01 3.284703445434570312e+01 -7.253739237785339355e-02 8.477953910827636719e+00 2.521625041961669922e+00 1.583825349807739258e-01
7.590000000000000000e+02 6.521617889404296875e+01 3.277340698242187500e+01 -2.612016499042510986e-01 7.613167285919189453e+00 2.205589771270751953e+00 2.010236978530883789e-01
7.600000000000000000e+02 5.834391784667968750e+01 3.015829467773437500e+01 -4.026818275451660156e-01 6.884362220764160156e+00 1.944504141807556152e+00 1.257077157497406006e-01
7.610000000000000000e+02 4.626379394531250000e+01 2.632378578186035156e+01 -3.838517367839813232e-01 5.119729995727539062e+00 1.420763492584228516e+00 -3.496161997318267822e-01
7.620000000000000000e+02 3.609855651855468750e+01 2.617768669128417969e+01 -5.879192054271697998e-02 3.030900001525878906e+00 8.916323781013488770e-01 -4.718649983406066895e-01
7.630000000000000000e+02 2.898201560974121094e+01 2.289266395568847656e+01 4.804297909140586853e-02 1.523347735404968262e+00 4.714172184467315674e-01 -3.934531509876251221e-01
7.640000000000000000e+02 2.149787902832031250e+01 2.557307815551757812e+01 1.652944982051849365e-01 3.506111800670623779e-01 1.547717005014419556e-01 -1.159077137708663940e-01
7.650000000000000000e+02 1.695840263366699219e+01 2.372960281372070312e+01 4.912029579281806946e-02 -3.398276865482330322e-01 -8.721221983432769775e-02 1.392010599374771118e-01
7.660000000000000000e+02 7.781570434570312500e+00 2.303049850463867188e+01 -1.518292427062988281e-01 -3.061245977878570557e-01 -1.373861432075500488e-01 4.088675081729888916e-01
7.670000000000000000e+02 4.332085800170898438e+01 3.392786026000976562e+01 -2.174771428108215332e-01 4.453303337097167969e+00 1.270747900009155273e+00 -2.294304668903350830e-01
7.680000000000000000e+02 2.750860977172851562e+01 3.452716064453125000e+01 2.130973935127258301e-01 1.524648308753967285e+00 5.213236808776855469e-01 -1.577186733484268188e-01
7.690000000000000000e+02 2.098421669006347656e+01 3.107544708251953125e+01 2.777696251869201660e-01 4.902013838291168213e-01 2.303912937641143799e-01 -5.255044996738433838e-02
7.700000000000000000e+02 1.220476818084716797e+01 3.180966949462890625e+01 2.171898186206817627e-01 -2.969536781311035156e-01 -2.392916381359100342e-02 2.204773873090744019e-01
7.710000000000000000e+02 2.266910552978515625e+00 3.178591728210449219e+01 1.586154848337173462e-02 -6.380262374877929688e-01 -1.866494119167327881e-01 1.344242393970489502e-01
7.720000000000000000e+02 1.555385589599609375e+00 9.079958915710449219e+00 -2.249256940558552742e-04 8.799445349723100662e-04 1.965056580957025290e-04 -9.900141740217804909e-04
7.730000000000000000e+02 1.928893470764160156e+01 -7.741229057312011719e+00 -3.024311661720275879e-01 -2.349861897528171539e-02 -9.777893871068954468e-02 -1.938899457454681396e-01
7.740000000000000000e+02 1.422218704223632812e+01 -1.387835311889648438e+01 -6.800316572189331055e-01 -8.987640738487243652e-01 -4.736387133598327637e-01 -7.518005371093750000e-01
7.750000000000000000e+02 7.521286487579345703e+00 -1.384941577911376953e+01 -4.274617880582809448e-03 8.418105542659759521e-03 1.243046368472278118e-03 4.696601070463657379e-03
7.760000000000000000e+02 1.131717777252197266e+01 -8.119075775146484375e+00 8.609637152403593063e-04 3.122946945950388908e-04 3.519775054883211851e-04 -7.362566539086401463e-04
7.770000000000000000e+02 1.020356750488281250e+01 -3.344582319259643555e+00 1.814419229049235582e-04 -1.040093848132528365e-04 2.322976251889485866e-05 -5.824814434163272381e-04
7.780000000000000000e+02 1.321232986450195312e+01 -1.960032820701599121e+00 -1.699628046480938792e-05 -5.116981628816574812e-05 -2.044983011728618294e-05 -1.037834590533748269e-04
7.790000000000000000e+02 1.491181659698486328e+01 -2.293327569961547852e+00 -4.920136416330933571e-05 -6.216364272404462099e-05 -3.340950206620618701e-05 8.643855107948184013e-05
7.800000000000000000e+02 1.430677223205566406e+01 -2.139780044555664062e+00 4.430828630574978888e-05 1.154736964963376522e-04 4.793459447682835162e-05 -1.359012967441231012e-04
7.810000000000000000e+02 1.375353336334228516e+01 -1.994899868965148926e+00 -1.547530519019346684e-05 -1.305477053392678499e-04 -4.380690006655640900e-05 1.337020366918295622e-04
7.820000000000000000e+02 1.180254840850830078e+01 -1.973991036415100098e+00 1.322202588198706508e-04 -1.474482414778321981e-04 -4.568393705994822085e-06 -1.163563501904718578e-04
7.830000000000000000e+02 1.031382560729980469e+01 -1.878260970115661621e+00 6.469394429586827755e-05 -9.390372724737972021e-06 1.659107147133909166e-05 -2.795959298964589834e-04
7.840000000000000000e+02 9.575551986694335938e+00 -1.853261709213256836e+00 -9.265698463423177600e-05 -6.852294609416276217e-05 -4.835397703573107719e-05 3.903557662852108479e-04
7.850000000000000000e+02 8.827004432678222656e+00 -1.848806023597717285e+00 -2.059219332295469940e-05 1.086106203729286790e-04 2.640552702359855175e-05 -2.620539162307977676e-04
7.860000000000000000e+02 7.316599369049072266e+00 -1.859767556190490723e+00 -3.531656693667173386e-05 1.356087159365415573e-04 3.008764360856730491e-05 -2.359910868108272552e-04
7.870000000000000000e+02 5.792974472045898438e+00 -1.877963781356811523e+00 -1.602169140824116766e-05 1.109862496377900243e-04 2.848936674126889557e-05 -2.361651568207889795e-04
7.880000000000000000e+02 3.508282184600830078e+00 -1.973717927932739258e+00 -6.541213224409148097e-05 -4.701525540440343320e-06 -2.103409678966272622e-05 9.875334944808855653e-05
7.890000000000000000e+02 5.031692981719970703e+00 -1.897132158279418945e+00 -1.403968053637072444e-04 -4.040783824166283011e-05 -5.424139089882373810e-05 1.695371029200032353e-04
7.900000000000000000e+02 4.408489227294921875e+00 -2.765752553939819336e+00 -9.073028923012316227e-05 2.231894541182555258e-05 -2.052340278169140220e-05 1.775376294972375035e-04
7.910000000000000000e+02 2.742428779602050781e+00 -2.029028892517089844e+00 -4.492313382797874510e-05 -6.781230013075401075e-07 -1.368037646898301318e-05 -1.907157566165551543e-04
7.920000000000000000e+02 1.970322132110595703e+00 -2.074962139129638672e+00 -3.065119017264805734e-05 6.292399575613671914e-06 -7.307637588382931426e-06 6.694076000712811947e-05
7.930000000000000000e+02 1.191753149032592773e+00 -2.134184837341308594e+00 -8.687197987455874681e-05 -5.272233465802855790e-05 -4.187829472357407212e-05 -2.022396802203729749e-04
7.940000000000000000e+02 2.036197900772094727e+00 -4.163189697265625000e+01 -1.909211277961730957e-02 -1.085283875465393066e+00 -3.313128054141998291e-01 5.408897064626216888e-03
7.950000000000000000e+02 6.217958927154541016e+00 -3.808118057250976562e+01 1.129846200346946716e-01 -6.638961434364318848e-01 -1.652734577655792236e-01 -1.202057451009750366e-01
7.960000000000000000e+02 1.023267030715942383e+00 -3.865182876586914062e+01 -2.568747382611036301e-03 -1.104027390480041504e+00 -3.319788277149200439e-01 -1.588831539265811443e-03
7.970000000000000000e+02 6.642144918441772461e-01 -3.475738143920898438e+01 1.041716337203979492e-02 -1.034211277961730957e+00 -3.071382343769073486e-01 -3.222680836915969849e-02
7.980000000000000000e+02 8.138529658317565918e-01 -3.335841369628906250e+01 3.010170767083764076e-03 -9.688422083854675293e-01 -2.897496223449707031e-01 -4.272533580660820007e-02
7.990000000000000000e+02 7.081019878387451172e-01 -2.904484367370605469e+01 5.972314625978469849e-03 -6.795211434364318848e-01 -2.020646631717681885e-01 -5.873988568782806396e-02
8.000000000000000000e+02 6.852420568466186523e-01 -2.763488960266113281e+01 -2.931427443400025368e-03 -5.559191107749938965e-01 -1.676551699638366699e-01 -6.209133937954902649e-02
8.010000000000000000e+02 6.736916303634643555e-01 -2.622016716003417969e+01 2.184486482292413712e-03 -4.269048869609832764e-01 -1.274161189794540405e-01 -6.108113378286361694e-02
8.020000000000000000e+02 6.063124537467956543e-01 -2.193836975097656250e+01 -4.910466261208057404e-03 -7.663059234619140625e-02 -2.446231618523597717e-02 -4.092943295836448669e-02
8.030000000000000000e+02 1.721223473548889160e+00 -2.037880325317382812e+01 -2.768478356301784515e-02 -6.308904290199279785e-02 -2.723214775323867798e-02 -7.318180799484252930e-02
8.040000000000000000e+02 5.394919514656066895e-01 -1.626452255249023438e+01 2.242254326120018959e-03 4.221644625067710876e-02 1.333761028945446014e-02 7.691602222621440887e-03
8.050000000000000000e+02 5.202468037605285645e-01 -1.487319850921630859e+01 -4.250931669957935810e-04 2.492947503924369812e-02 7.351314648985862732e-03 4.899183753877878189e-03
8.060000000000000000e+02 5.255658626556396484e-01 -1.348264217376708984e+01 1.444764668121933937e-03 1.303997542709112167e-02 4.345422144979238510e-03 3.646123688668012619e-03
8.070000000000000000e+02 4.363729953765869141e+00 -1.490414142608642578e+01 8.560700342059135437e-03 -2.363640256226062775e-02 -4.522711038589477539e-03 -1.878733630292117596e-03
8.080000000000000000e+02 5.537362694740295410e-01 -9.283041000366210938e+00 -6.602115463465452194e-04 4.288645286578685045e-04 -6.940411549294367433e-05 3.638344642240554094e-04
8.090000000000000000e+02 5.435361266136169434e-01 -7.888876914978027344e+00 7.935264147818088531e-04 -2.817183849401772022e-04 1.535424089524894953e-04 1.495018368586897850e-04
8.100000000000000000e+02 5.346460938453674316e-01 -6.496034622192382812e+00 -5.238048033788800240e-04 -2.524975861888378859e-04 -2.328907285118475556e-04 -1.129267038777470589e-04
8.110000000000000000e+02 7.169384765625000000e+01 -4.087173461914062500e+01 -1.792570352554321289e-01 8.007186889648437500e+00 2.348379135131835938e+00 -6.581299006938934326e-02
8.120000000000000000e+02 3.245770263671875000e+01 -4.093784332275390625e+01 2.653538882732391357e-01 2.313149929046630859e+00 7.735511660575866699e-01 5.433290824294090271e-02
8.130000000000000000e+02 1.282863712310791016e+01 -4.065959167480468750e+01 2.843756973743438721e-01 -2.169228643178939819e-01 2.023584768176078796e-02 -4.607742279767990112e-02
8.140000000000000000e+02 7.553038024902343750e+01 4.045771026611328125e+01 -4.688033368438482285e-03 8.974245071411132812e+00 2.690867185592651367e+00 7.610917836427688599e-02
8.150000000000000000e+02 7.798458099365234375e+01 4.172986602783203125e+01 5.983295291662216187e-02 9.250596046447753906e+00 2.793128728866577148e+00 -1.674437336623668671e-02
8.160000000000000000e+02 7.861132049560546875e+01 3.874256896972656250e+01 -1.097153034061193466e-02 9.311778068542480469e+00 2.790241956710815430e+00 -3.005062416195869446e-02
8.170000000000000000e+02 7.659363555908203125e+01 3.785528182983398438e+01 -5.668887495994567871e-02 9.074412345886230469e+00 2.705317020416259766e+00 6.056481599807739258e-02
8.180000000000000000e+02 7.920171356201171875e+01 3.469874572753906250e+01 1.619438640773296356e-03 9.350961685180664062e+00 2.805774211883544922e+00 1.814133673906326294e-02
8.190000000000000000e+02 7.590017700195312500e+01 3.439626693725585938e+01 -3.547224029898643494e-02 8.833642005920410156e+00 2.639451026916503906e+00 1.040637418627738953e-01
8.200000000000000000e+02 7.921537017822265625e+01 3.331056213378906250e+01 -8.202753029763698578e-03 9.322784423828125000e+00 2.794374704360961914e+00 2.246046438813209534e-02
8.210000000000000000e+02 7.933133697509765625e+01 3.054847526550292969e+01 -3.978993627242743969e-04 9.236978530883789062e+00 2.770974159240722656e+00 2.868621796369552612e-02
8.220000000000000000e+02 7.830181121826171875e+01 2.795880699157714844e+01 -1.326991897076368332e-02 8.976909637451171875e+00 2.689091920852661133e+00 9.037134796380996704e-02
8.230000000000000000e+02 7.937907409667968750e+01 2.653814125061035156e+01 2.863064873963594437e-03 9.044883728027343750e+00 2.714323997497558594e+00 4.244421795010566711e-02
8.240000000000000000e+02 7.652148437500000000e+01 2.557464218139648438e+01 -2.692785486578941345e-02 8.662014007568359375e+00 2.590525865554809570e+00 1.947726309299468994e-01
8.250000000000000000e+02 7.933665466308593750e+01 2.516645050048828125e+01 -4.903998225927352905e-03 8.965316772460937500e+00 2.688123703002929688e+00 4.570071399211883545e-02
8.260000000000000000e+02 7.932015991210937500e+01 2.098268127441406250e+01 -3.141536377370357513e-03 8.655908584594726562e+00 2.595829963684082031e+00 6.645104289054870605e-02
8.270000000000000000e+02 7.931873321533203125e+01 1.958471107482910156e+01 -2.641386119648814201e-03 8.530080795288085938e+00 2.558231830596923828e+00 7.250065356492996216e-02
8.280000000000000000e+02 7.931740570068359375e+01 1.818593215942382812e+01 -1.787025947123765945e-03 8.394271850585937500e+00 2.517745494842529297e+00 7.709423452615737915e-02
8.290000000000000000e+02 7.932709503173828125e+01 1.399437999725341797e+01 -2.266836352646350861e-03 7.928508281707763672e+00 2.377872467041015625e+00 9.059287607669830322e-02
8.300000000000000000e+02 7.933304595947265625e+01 1.259797763824462891e+01 -5.681937909685075283e-04 7.754742145538330078e+00 2.326252222061157227e+00 9.361777454614639282e-02
8.310000000000000000e+02 7.933912658691406250e+01 1.120279121398925781e+01 -1.276503084227442741e-03 7.573615550994873047e+00 2.271701812744140625e+00 9.585475921630859375e-02
8.320000000000000000e+02 7.934903717041015625e+01 7.023938655853271484e+00 1.385591342113912106e-03 7.007446765899658203e+00 2.102649688720703125e+00 9.570481628179550171e-02
8.330000000000000000e+02 7.935044097900390625e+01 5.631379604339599609e+00 1.310382853262126446e-03 6.820857048034667969e+00 2.046650171279907227e+00 9.302677959203720093e-02
8.340000000000000000e+02 7.935153961181640625e+01 4.239464759826660156e+00 2.811008598655462265e-03 6.640526294708251953e+00 1.993001103401184082e+00 8.866109699010848999e-02
8.350000000000000000e+02 7.935356903076171875e+01 6.030759215354919434e-02 5.004690494388341904e-03 6.174551010131835938e+00 1.853866696357727051e+00 6.495077908039093018e-02
8.360000000000000000e+02 7.935323333740234375e+01 -1.335931420326232910e+00 5.354417487978935242e-03 6.057060718536376953e+00 1.818724513053894043e+00 5.382782220840454102e-02
8.370000000000000000e+02 7.806311798095703125e+01 -4.035587787628173828e+00 3.098940476775169373e-02 6.172729492187500000e+00 1.861115694046020508e+00 7.335478067398071289e-02
8.380000000000000000e+02 7.935358428955078125e+01 -4.128190517425537109e+00 6.142836529761552811e-03 5.898838520050048828e+00 1.771494388580322266e+00 2.724916301667690277e-02
8.390000000000000000e+02 7.936038970947265625e+01 -8.308462142944335938e+00 6.602803710848093033e-03 5.875466823577880859e+00 1.764620900154113770e+00 -1.499104965478181839e-02
8.400000000000000000e+02 7.810834503173828125e+01 -1.099688053131103516e+01 2.582517080008983612e-02 6.243087768554687500e+00 1.880673766136169434e+00 -1.144564896821975708e-01
8.410000000000000000e+02 7.936765289306640625e+01 -1.109355449676513672e+01 5.751225631684064865e-03 6.003284454345703125e+00 1.802710652351379395e+00 -4.091728478670120239e-02
8.420000000000000000e+02 7.936991119384765625e+01 -1.527243137359619141e+01 2.933494979515671730e-03 6.376492977142333984e+00 1.913828015327453613e+00 -7.019477337598800659e-02
8.430000000000000000e+02 7.808486938476562500e+01 -1.795294380187988281e+01 7.782520726323127747e-03 6.823929786682128906e+00 2.049513578414916992e+00 -2.245315760374069214e-01
8.440000000000000000e+02 7.935935211181640625e+01 -1.806053733825683594e+01 1.591915148310363293e-03 6.703785419464111328e+00 2.011613130569458008e+00 -8.154834806919097900e-02
8.450000000000000000e+02 7.933462524414062500e+01 -2.364865303039550781e+01 -1.236235955730080605e-03 7.399919033050537109e+00 2.219604730606079102e+00 -8.357737958431243896e-02
8.460000000000000000e+02 7.800968170166015625e+01 -2.498436355590820312e+01 -9.057817049324512482e-03 7.558214187622070312e+00 2.264746904373168945e+00 -2.204422801733016968e-01
8.470000000000000000e+02 7.933683013916015625e+01 -2.504534721374511719e+01 -2.153519773855805397e-03 7.563553810119628906e+00 2.268420219421386719e+00 -7.988157123327255249e-02
8.480000000000000000e+02 7.936119079589843750e+01 -2.920056152343750000e+01 -2.188891870900988579e-03 8.000867843627929688e+00 2.399603605270385742e+00 -6.276201456785202026e-02
8.490000000000000000e+02 7.799664306640625000e+01 -3.176236915588378906e+01 -1.294455211609601974e-02 8.118327140808105469e+00 2.431614875793457031e+00 -1.436877846717834473e-01
8.500000000000000000e+02 7.933340454101562500e+01 -3.195879364013671875e+01 1.330282975686714053e-04 8.229310035705566406e+00 2.468832969665527344e+00 -5.159178376197814941e-02
8.510000000000000000e+02 7.924472045898437500e+01 -3.607751464843750000e+01 3.311539301648736000e-03 8.441088676452636719e+00 2.533320188522338867e+00 -2.846746332943439484e-02
8.520000000000000000e+02 7.918104553222656250e+01 -3.742738723754882812e+01 -1.762012206017971039e-02 8.469805717468261719e+00 2.535655736923217773e+00 -1.090190932154655457e-02
8.530000000000000000e+02 7.900141143798828125e+01 -3.875123214721679688e+01 7.313511800020933151e-03 8.482539176940917969e+00 2.546956062316894531e+00 -8.900097571313381195e-03
8.540000000000000000e+02 7.863539886474609375e+01 -4.009356689453125000e+01 -1.805265434086322784e-02 8.480425834655761719e+00 2.538712024688720703e+00 4.588514566421508789e-03
8.550000000000000000e+02 1.228969955444335938e+01 3.773311614990234375e+01 2.326516807079315186e-01 -1.678975522518157959e-01 1.942623965442180634e-02 9.340453147888183594e-02
8.560000000000000000e+02 2.753206634521484375e+01 4.093511962890625000e+01 2.316581606864929199e-01 1.583013415336608887e+00 5.444014668464660645e-01 -2.894655242562294006e-02
8.570000000000000000e+02 6.707599639892578125e+01 4.045902252197265625e+01 -1.769433319568634033e-01 7.818244934082031250e+00 2.292390346527099609e+00 4.447599500417709351e-02
8.580000000000000000e+02 1.123104333877563477e+00 1.948630928993225098e+00 1.457977214158745483e-05 1.565783022670075297e-04 5.134742241352796555e-05 3.765040673897601664e-05
8.590000000000000000e+02 3.183454513549804688e+00 2.750128269195556641e+00 2.933877112809568644e-04 2.393436734564602375e-04 1.598194212419912219e-04 -3.274260234320536256e-05
8.600000000000000000e+02 5.308340549468994141e+00 2.610727548599243164e+00 -1.147104339906945825e-04 -4.310897784307599068e-04 -1.637400564504787326e-04 -1.505336058471584693e-05
8.610000000000000000e+02 1.467954635620117188e+00 6.350051403045654297e+00 -3.306814178358763456e-04 1.856161361502017826e-05 -9.363594290334731340e-05 -1.328179641859605908e-04
8.620000000000000000e+02 5.169863104820251465e-01 9.215568542480468750e+00 7.826923683751374483e-05 6.449420470744371414e-04 2.169633808080106974e-04 -1.579971722094342113e-04
8.630000000000000000e+02 5.830597281455993652e-01 1.202271175384521484e+01 1.258634729310870171e-04 5.906939506530761719e-03 1.809840905480086803e-03 -1.719965715892612934e-03
8.640000000000000000e+02 1.764357209205627441e+00 1.183124542236328125e+01 1.515629817731678486e-03 1.987697323784232140e-03 1.050998107530176640e-03 -4.398177843540906906e-03
8.650000000000000000e+02 6.348939538002014160e-01 1.766553688049316406e+01 -2.833845326676964760e-03 4.354751855134963989e-02 1.221410185098648071e-02 -2.432518871501088142e-03
8.660000000000000000e+02 7.732708930969238281e+00 1.845485496520996094e+01 -2.273543775081634521e-01 6.056924164295196533e-02 -5.003554001450538635e-02 3.555037826299667358e-02
8.670000000000000000e+02 6.066331267356872559e-01 2.192563629150390625e+01 -5.915516521781682968e-03 -2.843085303902626038e-02 -1.030391082167625427e-02 2.802822180092334747e-02
8.680000000000000000e+02 6.511028409004211426e-01 2.334009742736816406e+01 -4.690992180258035660e-03 -1.048957183957099915e-01 -3.287601098418235779e-02 3.964472934603691101e-02
8.690000000000000000e+02 6.645624637603759766e-01 2.477520370483398438e+01 -3.797715529799461365e-03 -1.999348253011703491e-01 -6.111976131796836853e-02 4.863683879375457764e-02
8.700000000000000000e+02 7.009626030921936035e-01 2.903074836730957031e+01 -1.515232608653604984e-03 -5.325226187705993652e-01 -1.602113544940948486e-01 5.323049798607826233e-02
8.710000000000000000e+02 7.261320352554321289e-01 3.044438552856445312e+01 2.657216275110840797e-03 -6.369854211807250977e-01 -1.902984529733657837e-01 5.190654844045639038e-02
8.720000000000000000e+02 2.187693595886230469e+00 3.035073852539062500e+01 9.409923106431961060e-03 -5.675047039985656738e-01 -1.674284338951110840e-01 1.423901766538619995e-01
8.730000000000000000e+02 7.489616274833679199e-01 3.186251068115234375e+01 3.155974671244621277e-03 -7.311763167381286621e-01 -2.184060961008071899e-01 4.634968563914299011e-02
8.740000000000000000e+02 7.143842577934265137e-01 3.605882263183593750e+01 -2.933628391474485397e-03 -9.195742607116699219e-01 -2.767523527145385742e-01 2.138117514550685883e-02
8.750000000000000000e+02 3.170677185058593750e+00 3.733218002319335938e+01 4.107448458671569824e-02 -8.018645048141479492e-01 -2.282370030879974365e-01 5.655216053128242493e-02
8.760000000000000000e+02 8.768864870071411133e-01 3.876863098144531250e+01 -8.478421717882156372e-03 -9.482015371322631836e-01 -2.870039939880371094e-01 1.079021370969712734e-03
8.770000000000000000e+02 1.250962138175964355e+00 4.011620330810546875e+01 1.973719149827957153e-02 -9.363177418708801270e-01 -2.749741673469543457e-01 -1.360239461064338684e-02
8.780000000000000000e+02 1.037586688995361328e+01 1.856092214584350586e+00 -3.532183472998440266e-04 -2.118561387760564685e-04 -1.695223472779616714e-04 -3.849183558486402035e-04
8.790000000000000000e+02 8.916814804077148438e+00 1.864538908004760742e+00 -2.499706752132624388e-04 -3.940300666727125645e-04 -1.932002196554094553e-04 -3.971978439949452877e-04
8.800000000000000000e+02 8.201911926269531250e+00 1.861490964889526367e+00 9.386450255988165736e-05 4.713473608717322350e-04 1.695635583018884063e-04 3.211906296201050282e-04
8.810000000000000000e+02 7.488952159881591797e+00 1.859423756599426270e+00 -1.809627865441143513e-04 -4.653185606002807617e-04 -1.938844070537015796e-04 -2.663107588887214661e-04
8.820000000000000000e+02 5.350400447845458984e+00 1.869863033294677734e+00 5.970121492282487452e-05 4.474867018871009350e-04 1.521563681308180094e-04 4.807492223335430026e-05
8.830000000000000000e+02 4.635483741760253906e+00 1.882722377777099609e+00 -1.689457276370376348e-04 -3.730889002326875925e-04 -1.626103912713006139e-04 7.175475184340029955e-05
8.840000000000000000e+02 3.921656847000122070e+00 1.897178411483764648e+00 1.221017300849780440e-04 3.469707735348492861e-04 1.407217496307566762e-04 -2.182897515012882650e-05
8.850000000000000000e+02 3.212042093276977539e+00 1.906199574470520020e+00 -2.497694804333150387e-04 -2.548260672483593225e-04 -1.513786555733531713e-04 9.914300608215853572e-05
8.860000000000000000e+02 2.512790203094482422e+00 1.904123902320861816e+00 1.749098446452990174e-04 2.240486792288720608e-04 1.196875527966767550e-04 7.889390690252184868e-05
8.870000000000000000e+02 1.819268465042114258e+00 1.901594758033752441e+00 -1.210863410960882902e-04 -2.307547547388821840e-04 -1.055523316608741879e-04 8.504703146172687411e-06
8.880000000000000000e+02 1.263570308685302734e+01 1.765575528144836426e+00 2.110065106535330415e-04 1.127214345615357161e-04 9.711838356452062726e-05 -2.923383362940512598e-05
8.890000000000000000e+02 1.331688976287841797e+01 1.741002917289733887e+00 -3.068354271817952394e-04 -1.863340439740568399e-04 -1.479508500779047608e-04 -2.122619771398603916e-04
8.900000000000000000e+02 1.513097572326660156e+01 1.858833909034729004e+00 2.061675186268985271e-04 3.547051164787262678e-04 1.682617876213043928e-04 2.657519944477826357e-04
8.910000000000000000e+02 1.341281700134277344e+01 3.119080066680908203e+00 -6.689019501209259033e-04 6.260054069571197033e-04 -1.286895349039696157e-05 2.716926101129502058e-04
8.920000000000000000e+02 1.476382446289062500e+01 3.609735012054443359e+00 -7.355606066994369030e-04 3.029007757504587062e-06 -2.197594876633957028e-04 -1.006310994853265584e-04
8.930000000000000000e+02 1.406876182556152344e+01 7.559157848358154297e+00 2.177791669964790344e-03 2.408252039458602667e-04 7.255850359797477722e-04 7.750687072984874249e-04
8.940000000000000000e+02 1.353081512451171875e+01 8.821376800537109375e+00 -2.612327923998236656e-03 -8.772075525484979153e-04 -1.046860590577125549e-03 -1.070662168785929680e-03
8.950000000000000000e+02 1.289725112915039062e+01 1.004948520660400391e+01 2.930393675342202187e-03 9.259535581804811954e-04 1.156904152594506741e-03 1.714802812784910202e-03
8.960000000000000000e+02 1.031083488464355469e+01 1.166878318786621094e+01 -1.569983665831387043e-03 -1.330774859525263309e-03 -8.702275226823985577e-04 -1.759626669809222221e-03
8.970000000000000000e+02 9.408917427062988281e+00 1.272039985656738281e+01 9.969603270292282104e-04 4.059289116412401199e-03 1.516874879598617554e-03 2.351027214899659157e-03
8.980000000000000000e+02 8.454657554626464844e+00 1.557690048217773438e+01 -3.794598393142223358e-03 3.096436522901058197e-02 8.150930516421794891e-03 -8.047462441027164459e-03
8.990000000000000000e+02 1.595042037963867188e+01 1.619751548767089844e+01 -7.208234667778015137e-01 -1.126801013946533203e+00 -5.542873740196228027e-01 6.758242845535278320e-01
9.000000000000000000e+02 1.651900482177734375e+01 1.303910923004150391e+01 -5.132207870483398438e-01 -1.654147863388061523e+00 -6.502106189727783203e-01 8.613606691360473633e-01
9.010000000000000000e+02 1.778249740600585938e+01 1.045710086822509766e+01 -3.365054726600646973e-01 -1.740603208541870117e+00 -6.231326460838317871e-01 6.497216224670410156e-01
9.020000000000000000e+02 1.844640922546386719e+01 7.645460128784179688e+00 -1.144177392125129700e-01 -1.527182817459106445e+00 -4.924801588058471680e-01 3.685773909091949463e-01
9.030000000000000000e+02 1.875126838684082031e+01 4.865851402282714844e+00 -5.561024323105812073e-02 -1.248629570007324219e+00 -3.912719488143920898e-01 2.057579010725021362e-01
9.040000000000000000e+02 1.923854827880859375e+01 -3.775750398635864258e+00 -1.747885346412658691e-02 -7.904414087533950806e-02 -2.895689755678176880e-02 5.194092169404029846e-02
9.050000000000000000e+02 2.011357116699218750e+01 -4.013129234313964844e+00 -5.288983508944511414e-02 -7.674674689769744873e-02 -3.889097273349761963e-02 9.212528169155120850e-02
9.060000000000000000e+02 2.091989707946777344e+01 -4.184570789337158203e+00 -8.539330214262008667e-02 -7.936989516019821167e-02 -4.942895844578742981e-02 1.255412697792053223e-01
9.070000000000000000e+02 2.306843757629394531e+01 -4.566689491271972656e+00 -2.278430163860321045e-01 -5.751804634928703308e-02 -8.560831844806671143e-02 2.017734348773956299e-01
9.080000000000000000e+02 2.449488449096679688e+01 -4.734344959259033203e+00 -3.498276770114898682e-01 -3.885672241449356079e-02 -1.166053190827369690e-01 2.312221676111221313e-01
9.090000000000000000e+02 2.521379661560058594e+01 -4.799335956573486328e+00 -4.184398353099822998e-01 -2.876745723187923431e-02 -1.341621875762939453e-01 2.418244034051895142e-01
9.100000000000000000e+02 2.593351364135742188e+01 -4.859171390533447266e+00 -4.895985722541809082e-01 -1.984853111207485199e-02 -1.528341323137283325e-01 2.486887425184249878e-01
9.110000000000000000e+02 2.811217689514160156e+01 -4.943045139312744141e+00 -7.150383591651916504e-01 1.909392769448459148e-03 -2.139386832714080811e-01 2.572596073150634766e-01
9.120000000000000000e+02 2.884126472473144531e+01 -4.957980155944824219e+00 -7.929762005805969238e-01 7.476190570741891861e-03 -2.356500029563903809e-01 2.552383840084075928e-01
9.130000000000000000e+02 3.190915489196777344e+01 -4.256781578063964844e+00 -9.112356305122375488e-01 3.220755234360694885e-02 -2.637084424495697021e-01 2.870235145092010498e-01
9.140000000000000000e+02 3.104754829406738281e+01 -4.950015544891357422e+00 -1.017670392990112305e+00 1.861276291310787201e-02 -2.997173070907592773e-01 2.421540468931198120e-01
9.150000000000000000e+02 3.178651428222656250e+01 -4.941725730895996094e+00 -1.089268565177917480e+00 2.100554481148719788e-02 -3.204788863658905029e-01 2.338281124830245972e-01
9.160000000000000000e+02 3.338486480712890625e+01 -4.229310989379882812e+00 -9.852852821350097656e-01 3.989424929022789001e-02 -2.836173176765441895e-01 2.555101215839385986e-01
9.170000000000000000e+02 3.561805343627929688e+01 -4.199470520019531250e+00 -1.029243588447570801e+00 5.394266545772552490e-02 -2.925902903079986572e-01 1.786921620368957520e-01
9.180000000000000000e+02 3.625516891479492188e+01 -4.851066589355468750e+00 -1.376929759979248047e+00 3.104850091040134430e-02 -4.037643671035766602e-01 1.454755663871765137e-01
9.190000000000000000e+02 3.849394607543945312e+01 -4.820641517639160156e+00 -1.335474371910095215e+00 4.486713558435440063e-02 -3.871821463108062744e-01 4.776769131422042847e-02
9.200000000000000000e+02 3.774803543090820312e+01 -4.828229904174804688e+00 -1.373070716857910156e+00 3.714187070727348328e-02 -4.007786512374877930e-01 8.698710799217224121e-02
9.210000000000000000e+02 4.070896530151367188e+01 -4.806761264801025391e+00 -9.841027855873107910e-01 8.476847410202026367e-02 -2.698003053665161133e-01 -1.509206295013427734e-01
9.220000000000000000e+02 4.256854629516601562e+01 -4.791065216064453125e+00 -1.679757237434387207e-01 2.470445185899734497e-01 2.372063882648944855e-02 -7.024698853492736816e-01
9.230000000000000000e+02 4.449315261840820312e+01 -4.656541347503662109e+00 2.169664859771728516e+00 1.445354342460632324e+00 1.084505796432495117e+00 -2.416002035140991211e+00
9.240000000000000000e+02 4.498169708251953125e+01 -4.794552326202392578e+00 2.761957883834838867e+00 2.049559593200683594e+00 1.443455219268798828e+00 -3.128231525421142578e+00
9.250000000000000000e+02 4.679640579223632812e+01 -4.764446258544921875e+00 2.660233736038208008e+00 1.417264652252197266e+01 5.049864292144775391e+00 -6.610552787780761719e+00
9.260000000000000000e+02 4.722106170654296875e+01 -4.569884777069091797e+00 1.707758784294128418e+00 1.706955718994140625e+01 5.633194446563720703e+00 -4.568260669708251953e+00
9.270000000000000000e+02 4.829993057250976562e+01 -4.829320907592773438e+00 3.818135261535644531e+00 1.887309455871582031e+01 6.807369232177734375e+00 1.014092922210693359e+00
9.280000000000000000e+02 4.811473464965820312e+01 -7.841199874877929688e+00 3.961648225784301758e+00 2.021752548217773438e+01 7.253752231597900391e+00 -1.044849395751953125e+00
9.290000000000000000e+02 4.440476989746093750e+01 -8.187483787536621094e+00 1.590320467948913574e+00 1.304680466651916504e+00 8.685002923011779785e-01 2.206561565399169922e+00
9.300000000000000000e+02 4.151702880859375000e+01 -8.342369079589843750e+00 -9.122227430343627930e-01 1.835260987281799316e-01 -2.186089903116226196e-01 3.902505636215209961e-01
9.310000000000000000e+02 4.002837753295898438e+01 -8.399150848388671875e+00 -1.422750353813171387e+00 9.862286597490310669e-02 -3.972382545471191406e-01 1.310463696718215942e-01
9.320000000000000000e+02 3.778812408447265625e+01 -8.476352691650390625e+00 -1.774902462959289551e+00 3.899832069873809814e-02 -5.207712054252624512e-01 -5.563621595501899719e-02
9.330000000000000000e+02 3.478713226318359375e+01 -8.569539070129394531e+00 -1.876996159553527832e+00 6.951105780899524689e-03 -5.610135197639465332e-01 -1.624662876129150391e-01
9.340000000000000000e+02 3.703907394409179688e+01 -8.501242637634277344e+00 -1.828696250915527344e+00 2.607811428606510162e-02 -5.407854318618774414e-01 -9.031829982995986938e-02
9.350000000000000000e+02 3.853597259521484375e+01 -8.451114654541015625e+00 -1.694596171379089355e+00 5.087690800428390503e-02 -4.931157827377319336e-01 -8.930848911404609680e-03
9.360000000000000000e+02 3.553907394409179688e+01 -8.548430442810058594e+00 -1.876847863197326660e+00 8.872486650943756104e-03 -5.603926181793212891e-01 -1.438004970550537109e-01
9.370000000000000000e+02 3.403363418579101562e+01 -8.588898658752441406e+00 -1.865938067436218262e+00 -1.313078333623707294e-03 -5.601753592491149902e-01 -1.776832342147827148e-01
9.380000000000000000e+02 3.252462387084960938e+01 -8.625250816345214844e+00 -1.809086680412292480e+00 -8.878396824002265930e-03 -5.453895330429077148e-01 -2.018155753612518311e-01
9.390000000000000000e+02 2.948581123352050781e+01 -8.662364006042480469e+00 -1.593429327011108398e+00 -1.524436660110950470e-02 -4.826021194458007812e-01 -2.299037724733352661e-01
9.400000000000000000e+02 3.024710464477539062e+01 -8.656065940856933594e+00 -1.659043788909912109e+00 -1.199510972946882248e-02 -5.013116598129272461e-01 -2.227669507265090942e-01
9.410000000000000000e+02 2.718440437316894531e+01 -8.628106117248535156e+00 -1.360002398490905762e+00 -4.287543706595897675e-03 -4.092869758605957031e-01 -2.412946522235870361e-01
9.420000000000000000e+02 2.641381263732910156e+01 -8.607962608337402344e+00 -1.269494533538818359e+00 3.335094879730604589e-05 -3.808383643627166748e-01 -2.494466304779052734e-01
9.430000000000000000e+02 2.330784034729003906e+01 -8.396661758422851562e+00 -8.685584068298339844e-01 3.632185608148574829e-02 -2.496709674596786499e-01 -2.670859694480895996e-01
9.440000000000000000e+02 2.088431549072265625e+01 -8.198246955871582031e+00 -5.433722734451293945e-01 3.611018136143684387e-02 -1.521786302328109741e-01 -2.616700232028961182e-01
9.450000000000000000e+02 2.002267837524414062e+01 -8.043672561645507812e+00 -4.251788556575775146e-01 1.230677124112844467e-02 -1.238616257905960083e-01 -2.382769584655761719e-01
9.460000000000000000e+02 1.819937896728515625e+01 -7.212062358856201172e+00 -5.748428031802177429e-02 -1.040936708450317383e-01 -4.847338423132896423e-02 -8.738212287425994873e-02
9.470000000000000000e+02 4.686240386962890625e+01 -8.084835052490234375e+00 2.301530838012695312e+00 1.506157016754150391e+01 5.208930492401123047e+00 6.481203556060791016e+00
9.480000000000000000e+02 4.769976425170898438e+01 -8.018869400024414062e+00 2.036701440811157227e+00 2.033496665954589844e+01 6.711500167846679688e+00 1.673332214355468750e+00
9.490000000000000000e+02 4.834753417968750000e+01 -5.282424926757812500e+00 6.040812492370605469e+00 1.948752975463867188e+01 7.658502578735351562e+00 2.058103084564208984e+00
9.500000000000000000e+02 4.790530776977539062e+01 -7.942086696624755859e+00 2.782786369323730469e+00 2.051269721984863281e+01 6.988645076751708984e+00 2.292834669351577759e-01
9.510000000000000000e+02 4.860591125488281250e+01 -7.146214485168457031e+00 9.280648231506347656e+00 1.791222190856933594e+01 8.157860755920410156e+00 -2.519828796386718750e+00
9.520000000000000000e+02 4.858771514892578125e+01 -5.655700683593750000e+00 9.048275947570800781e+00 1.814514350891113281e+01 8.158025741577148438e+00 2.589983701705932617e+00
9.530000000000000000e+02 4.794048690795898438e+01 -4.679346561431884766e+00 2.473648548126220703e+00 1.926837158203125000e+01 6.522606372833251953e+00 -7.324299812316894531e-01
9.540000000000000000e+02 4.760798263549804688e+01 -4.851674079895019531e+00 2.238158226013183594e+00 2.006313133239746094e+01 6.690386772155761719e+00 -2.218602657318115234e+00
9.550000000000000000e+02 4.847033691406250000e+01 -5.473722934722900391e+00 7.672240257263183594e+00 1.887819671630859375e+01 7.965131282806396484e+00 2.538524627685546875e+00
9.560000000000000000e+02 4.749177169799804688e+01 -8.064110755920410156e+00 1.710592031478881836e+00 1.958256912231445312e+01 6.387948513031005859e+00 3.058667898178100586e+00
9.570000000000000000e+02 4.811063003540039062e+01 -4.786391735076904297e+00 3.103636503219604492e+00 1.957659530639648438e+01 6.804069995880126953e+00 1.692602783441543579e-01
9.580000000000000000e+02 4.879203033447265625e+01 -6.749179363250732422e+00 1.106315898895263672e+01 1.639104461669921875e+01 8.236261367797851562e+00 -1.363186359405517578e+00
9.590000000000000000e+02 4.909913635253906250e+01 -6.275147914886474609e+00 1.033859252929687500e+01 1.522503089904785156e+01 7.669086933135986328e+00 4.361130297183990479e-01
9.600000000000000000e+02 4.877799224853515625e+01 -6.302507400512695312e+00 1.149270820617675781e+01 1.631703567504882812e+01 8.342923164367675781e+00 4.518133103847503662e-01
9.610000000000000000e+02 4.869521713256835938e+01 -5.848665714263916016e+00 1.019512844085693359e+01 1.721097564697265625e+01 8.221831321716308594e+00 2.112837553024291992e+00
9.620000000000000000e+02 4.849785614013671875e+01 -7.321745395660400391e+00 8.132887840270996094e+00 1.885083007812500000e+01 8.095115661621093750e+00 -2.799030065536499023e+00
9.630000000000000000e+02 4.630122375488281250e+01 -4.498449325561523438e+00 3.182992935180664062e+00 9.593963623046875000e+00 3.833086967468261719e+00 -6.384483814239501953e+00
9.640000000000000000e+02 4.646405792236328125e+01 -8.103071212768554688e+00 3.191182374954223633e+00 1.065018558502197266e+01 4.152410507202148438e+00 6.841767787933349609e+00
9.650000000000000000e+02 4.605194473266601562e+01 -8.155976295471191406e+00 3.343740463256835938e+00 7.261410713195800781e+00 3.181545495986938477e+00 6.009272575378417969e+00
9.660000000000000000e+02 4.462554931640625000e+01 -8.152150154113769531e+00 1.806588411331176758e+00 1.484413027763366699e+00 9.873004555702209473e-01 2.452113389968872070e+00
9.670000000000000000e+02 4.626331710815429688e+01 -8.145339012145996094e+00 3.323316574096679688e+00 8.827851295471191406e+00 3.645350217819213867e+00 6.483587265014648438e+00
9.680000000000000000e+02 4.414928436279296875e+01 -8.212469100952148438e+00 1.191301107406616211e+00 9.432044029235839844e-01 6.403516530990600586e-01 1.848037362098693848e+00
9.690000000000000000e+02 4.509581756591796875e+01 -8.589571952819824219e+00 2.572842359542846680e+00 3.371762037277221680e+00 1.783381342887878418e+00 3.927558183670043945e+00
9.700000000000000000e+02 4.482266235351562500e+01 -8.171421051025390625e+00 2.222776889801025391e+00 2.011338233947753906e+00 1.270234584808349609e+00 2.958023548126220703e+00
9.710000000000000000e+02 4.503242874145507812e+01 -8.183243751525878906e+00 2.514030456542968750e+00 2.453544139862060547e+00 1.490272402763366699e+00 3.350632429122924805e+00
9.720000000000000000e+02 4.367819213867187500e+01 -8.237803459167480469e+00 6.265648007392883301e-01 7.926416397094726562e-01 4.257619380950927734e-01 1.468423724174499512e+00
9.730000000000000000e+02 4.666230010986328125e+01 -8.089000701904296875e+00 2.874282598495483398e+00 1.272513389587402344e+01 4.679824829101562500e+00 6.955778121948242188e+00
9.740000000000000000e+02 4.706769180297851562e+01 -8.084076881408691406e+00 1.868554234504699707e+00 1.682166099548339844e+01 5.607064247131347656e+00 5.567667007446289062e+00
9.750000000000000000e+02 4.564299011230468750e+01 -8.109477996826171875e+00 3.430670261383056641e+00 4.292788028717041016e+00 2.317037343978881836e+00 4.828068256378173828e+00
9.760000000000000000e+02 4.650439834594726562e+01 -4.430217266082763672e+00 2.628348588943481445e+00 1.127935409545898438e+01 4.172310829162597656e+00 -6.243173122406005859e+00
9.770000000000000000e+02 4.528884887695312500e+01 -4.504080772399902344e+00 3.175860643386840820e+00 3.586909770965576172e+00 2.028831243515014648e+00 -4.214946746826171875e+00
9.780000000000000000e+02 4.307244491577148438e+01 -4.321610450744628906e+00 9.035875797271728516e-01 6.140914559364318848e-01 4.553036987781524658e-01 -1.329346299171447754e+00
9.790000000000000000e+02 4.414512634277343750e+01 -4.760144710540771484e+00 1.579453349113464355e+00 9.335172176361083984e-01 7.538911700248718262e-01 -1.811149477958679199e+00
9.800000000000000000e+02 4.470130538940429688e+01 -4.586198806762695312e+00 2.475725412368774414e+00 1.860473752021789551e+00 1.300859689712524414e+00 -2.829191446304321289e+00
9.810000000000000000e+02 4.540147018432617188e+01 -4.839551448822021484e+00 3.579713344573974609e+00 3.193712472915649414e+00 2.032027721405029297e+00 -4.143482685089111328e+00
9.820000000000000000e+02 4.617196273803710938e+01 -4.817800045013427734e+00 3.907251358032226562e+00 7.996369361877441406e+00 3.571086168289184570e+00 -6.522405147552490234e+00
9.830000000000000000e+02 4.578546905517578125e+01 -4.852102756500244141e+00 3.937527179718017578e+00 4.830731391906738281e+00 2.630477428436279297e+00 -5.264547824859619141e+00
9.840000000000000000e+02 1.452378082275390625e+01 1.739055156707763672e+00 7.128354809537995607e-06 -1.534447801532223821e-04 -4.389492823975160718e-05 -2.778803172986954451e-05
9.850000000000000000e+02 1.463615131378173828e+01 2.563418626785278320e+00 2.317207399755716324e-04 -3.667080891318619251e-04 -4.049620110890828073e-05 -1.352502586087211967e-04
9.860000000000000000e+02 1.188834285736083984e+01 1.799757480621337891e+00 -4.152355249971151352e-04 -4.167994484305381775e-05 -1.370746467728167772e-04 -1.902173244161531329e-04
9.870000000000000000e+02 4.371915435791015625e+01 -4.745726585388183594e+00 9.887816905975341797e-01 7.596903443336486816e-01 5.245416164398193359e-01 -1.405376195907592773e+00
9.880000000000000000e+02 4.137558746337890625e+01 -4.801493644714355469e+00 -7.026594877243041992e-01 1.124610304832458496e-01 -1.770595312118530273e-01 -2.818769812583923340e-01
9.890000000000000000e+02 4.356174850463867188e+01 -4.268203735351562500e+00 1.351391792297363281e+00 1.045857071876525879e+00 7.191746830940246582e-01 -1.782762289047241211e+00
9.900000000000000000e+02 4.197250366210937500e+01 -4.334016799926757812e+00 8.170967549085617065e-02 3.668031692504882812e-01 1.345538496971130371e-01 -7.034084200859069824e-01
9.910000000000000000e+02 4.253728866577148438e+01 -4.335931301116943359e+00 4.484696686267852783e-01 4.550630450248718262e-01 2.710598111152648926e-01 -9.560683965682983398e-01
9.920000000000000000e+02 1.446836948394775391e+01 -3.372377157211303711e+00 9.328115993412211537e-05 4.138440708629786968e-04 1.521375670563429594e-04 -1.302230666624382138e-04
9.930000000000000000e+02 1.385401344299316406e+01 -2.959670066833496094e+00 -7.490420102840289474e-05 -1.918455818668007851e-04 -8.002493268577381968e-05 1.132562374550616369e-05
9.940000000000000000e+02 1.867591476440429688e+01 -8.308658599853515625e+00 -2.992345094680786133e-01 -6.236642971634864807e-02 -1.084802895784378052e-01 -2.305688261985778809e-01
9.950000000000000000e+02 1.864212799072265625e+01 -9.581386566162109375e+00 -4.268834590911865234e-01 -1.295708268880844116e-01 -1.669362783432006836e-01 -3.904264867305755615e-01
9.960000000000000000e+02 3.905453920364379883e+00 3.541854381561279297e+00 2.960806305054575205e-04 3.722936089616268873e-04 2.005122660193592310e-04 -1.334216813120292500e-05
9.970000000000000000e+02 9.550245285034179688e+00 2.612747430801391602e+00 -3.059433947782963514e-04 -4.994890769012272358e-04 -2.416297502350062132e-04 -5.091590574011206627e-04
9.980000000000000000e+02 7.413564682006835938e+00 2.585872173309326172e+00 1.113042526412755251e-04 6.396462558768689632e-04 2.252851554658263922e-04 2.961245190817862749e-04
9.990000000000000000e+02 6.776827335357666016e+00 1.859407305717468262e+00 5.210939343669451773e-05 4.959081998094916344e-04 1.644052827032282948e-04 1.886399404611438513e-04
1.000000000000000000e+03 6.712317943572998047e+00 2.584435224533081055e+00 -1.025244055199436843e-04 -5.468453746289014816e-04 -1.948109420482069254e-04 -1.887824473669752479e-04
1.001000000000000000e+03 8.025962829589843750e+00 3.346832275390625000e+00 1.807733642635867000e-04 8.419848163612186909e-04 3.068274527322500944e-04 3.956639848183840513e-04
1.002000000000000000e+03 5.892692565917968750e+00 4.052697658538818359e+00 4.119351797271519899e-04 4.783386539202183485e-04 2.670821559149771929e-04 6.108271190896630287e-05
1.003000000000000000e+03 1.506512284278869629e+00 7.717216014862060547e+00 7.070725550875067711e-04 1.851503184298053384e-04 2.676668809726834297e-04 -2.478867827448993921e-04
1.004000000000000000e+03 3.870063722133636475e-01 3.799374103546142578e+00 2.576715778559446335e-04 -5.146231615071883425e-06 7.575760537292808294e-05 1.537136704428121448e-04
1.005000000000000000e+03 2.382405042648315430e+00 3.699656963348388672e+00 5.058909300714731216e-04 9.436635446036234498e-05 1.800771715352311730e-04 1.295609308726852760e-05
1.006000000000000000e+03 1.292872905731201172e+00 2.756753444671630859e+00 -4.039170562464278191e-06 -1.941053633345291018e-04 -5.944336226093582809e-05 8.511319902027025819e-05
1.007000000000000000e+03 1.113186454772949219e+01 1.830683827400207520e+00 3.053959517274051905e-04 1.412023848388344049e-04 1.339794980594888330e-04 2.321170031791552901e-04
1.008000000000000000e+03 8.727091789245605469e+00 3.365578651428222656e+00 -2.024045679718255997e-04 -7.622711127623915672e-04 -2.894026983994990587e-04 -4.920171340927481651e-04
1.009000000000000000e+03 2.665627288818359375e+01 -4.900794982910156250e+00 -5.633043050765991211e-01 -1.165311504155397415e-02 -1.724872291088104248e-01 2.535395324230194092e-01
1.010000000000000000e+03 2.581637191772460938e+01 -2.732648134231567383e+00 -3.191393613815307617e-01 -5.658393725752830505e-02 -1.127169877290725708e-01 4.009041488170623779e-01
1.011000000000000000e+03 2.329631042480468750e+01 -3.815592050552368164e+00 -2.234575599431991577e-01 -8.315400034189224243e-02 -9.198346734046936035e-02 2.636956572532653809e-01
1.012000000000000000e+03 2.612530136108398438e+01 -4.163071632385253906e+00 -4.524106979370117188e-01 -2.740147896111011505e-02 -1.439436525106430054e-01 3.130391240119934082e-01
1.013000000000000000e+03 2.399522781372070312e+01 -3.926845788955688477e+00 -2.745803892612457275e-01 -6.888371706008911133e-02 -1.030392274260520935e-01 2.809072434902191162e-01
1.014000000000000000e+03 2.421979522705078125e+01 -3.199527502059936523e+00 -2.576165497303009033e-01 -8.751850575208663940e-02 -1.035405173897743225e-01 3.364206254482269287e-01
1.015000000000000000e+03 2.235758590698242188e+01 -4.444627285003662109e+00 -1.751194149255752563e-01 -6.612131744623184204e-02 -7.237222045660018921e-02 1.819913387298583984e-01
1.016000000000000000e+03 1.908956527709960938e+01 -2.616964101791381836e+00 -1.153410691767930984e-02 -1.460345387458801270e-01 -4.727059230208396912e-02 6.261943280696868896e-02
1.017000000000000000e+03 2.259307670593261719e+01 -3.683200597763061523e+00 -1.740586906671524048e-01 -9.862852841615676880e-02 -8.180616796016693115e-02 2.417822778224945068e-01
1.018000000000000000e+03 2.957313537597656250e+01 -4.962502479553222656e+00 -8.696398735046386719e-01 1.234683394432067871e-02 -2.571879029273986816e-01 2.524625062942504883e-01
1.019000000000000000e+03 2.683953285217285156e+01 -4.211595535278320312e+00 -5.140836834907531738e-01 -1.630871742963790894e-02 -1.591177135705947876e-01 3.173238039016723633e-01
1.020000000000000000e+03 2.857219314575195312e+01 -2.925997018814086914e+00 -4.715125560760498047e-01 1.037679612636566162e-02 -1.383407264947891235e-01 4.024120867252349854e-01
1.021000000000000000e+03 2.755580902099609375e+01 -4.244097232818603516e+00 -5.766917467117309570e-01 -6.203399505466222763e-03 -1.748685538768768311e-01 3.198174238204956055e-01
1.022000000000000000e+03 3.252753067016601562e+01 -4.929186820983886719e+00 -1.154919028282165527e+00 2.325748465955257416e-02 -3.394984602928161621e-01 2.243480682373046875e-01
1.023000000000000000e+03 3.056814956665039062e+01 -3.590258836746215820e+00 -6.776811480522155762e-01 3.346490487456321716e-02 -1.932648718357086182e-01 3.478286564350128174e-01
1.024000000000000000e+03 3.220955276489257812e+01 -2.150310516357421875e+00 -3.884175121784210205e-01 1.044382154941558838e-01 -8.519379049539566040e-02 3.180251419544219971e-01
1.025000000000000000e+03 2.971614646911621094e+01 -4.279526233673095703e+00 -7.576669454574584961e-01 1.731462404131889343e-02 -2.221056967973709106e-01 3.136702775955200195e-01
1.026000000000000000e+03 1.347016429901123047e+01 -4.833368778228759766e+00 -4.269015043973922729e-04 -8.871929458109661937e-05 -1.546862476971000433e-04 1.800031459424644709e-04
1.027000000000000000e+03 1.287510204315185547e+01 -5.951975822448730469e+00 6.091495743021368980e-04 9.688435966381803155e-05 2.118101692758500576e-04 -3.014885878656059504e-04
1.028000000000000000e+03 8.131563186645507812e+00 -2.575306653976440430e+00 -2.084395237034186721e-05 1.916121109388768673e-04 5.123044684296473861e-05 -2.997450064867734909e-04
1.029000000000000000e+03 3.264502334594726562e+01 -4.243721961975097656e+00 -9.531067013740539551e-01 3.658140450716018677e-02 -2.749575972557067871e-01 2.727718949317932129e-01
1.030000000000000000e+03 3.550782012939453125e+01 -4.865556716918945312e+00 -1.353636741638183594e+00 3.022194467484951019e-02 -3.970244526863098145e-01 1.663583964109420776e-01
1.031000000000000000e+03 3.433462142944335938e+01 -2.834573268890380859e+00 -5.156041979789733887e-01 1.127616316080093384e-01 -1.208527758717536926e-01 2.177204191684722900e-01
1.032000000000000000e+03 3.487282180786132812e+01 -4.205738544464111328e+00 -1.025792956352233887e+00 4.914052039384841919e-02 -2.929957509040832520e-01 2.086918801069259644e-01
1.033000000000000000e+03 4.151228713989257812e+01 -9.611133575439453125e+00 2.465883642435073853e-01 6.632601022720336914e-01 2.729545533657073975e-01 1.068287253379821777e+00
1.034000000000000000e+03 4.355484771728515625e+01 -8.770640373229980469e+00 1.082270503044128418e+00 1.190354704856872559e+00 6.817875504493713379e-01 1.865718364715576172e+00
1.035000000000000000e+03 4.077350997924804688e+01 -8.371338844299316406e+00 -1.208796977996826172e+00 1.328030526638031006e-01 -3.227981626987457275e-01 2.273292094469070435e-01
1.036000000000000000e+03 4.223514938354492188e+01 -8.911926269531250000e+00 1.565726697444915771e-01 5.451360344886779785e-01 2.105126082897186279e-01 1.022193908691406250e+00
1.037000000000000000e+03 4.530084991455078125e+01 -8.453206062316894531e+00 2.796240806579589844e+00 3.882817268371582031e+00 2.003717422485351562e+00 4.178827285766601562e+00
1.038000000000000000e+03 4.150874710083007812e+01 -8.967172622680664062e+00 -2.576155364513397217e-01 3.944937288761138916e-01 4.106346145272254944e-02 7.123908400535583496e-01
1.039000000000000000e+03 4.077215957641601562e+01 -9.014149665832519531e+00 -5.676119923591613770e-01 2.786439657211303711e-01 -8.669039607048034668e-02 5.022290349006652832e-01
1.040000000000000000e+03 4.077938842773437500e+01 -9.667760848999023438e+00 -7.779741287231445312e-02 4.957222938537597656e-01 1.253774613142013550e-01 7.889966964721679688e-01
1.041000000000000000e+03 4.003199768066406250e+01 -9.056474685668945312e+00 -8.237494826316833496e-01 2.097482830286026001e-01 -1.842003613710403442e-01 3.356593847274780273e-01
1.042000000000000000e+03 3.854669570922851562e+01 -9.132802963256835938e+00 -1.167472720146179199e+00 1.204539313912391663e-01 -3.141056597232818604e-01 1.184825003147125244e-01
1.043000000000000000e+03 3.647530364990234375e+01 -3.538911104202270508e+00 -6.790567636489868164e-01 1.068971082568168640e-01 -1.716479063034057617e-01 1.003029271960258484e-01
1.044000000000000000e+03 3.636318969726562500e+01 -4.198188304901123047e+00 -1.019495606422424316e+00 6.055790930986404419e-02 -2.876813113689422607e-01 1.410770267248153687e-01
1.045000000000000000e+03 3.923831939697265625e+01 -4.815717697143554688e+00 -1.270632147789001465e+00 5.230399593710899353e-02 -3.654984533786773682e-01 -2.503469586372375488e-03
1.046000000000000000e+03 3.705282592773437500e+01 -9.199241638183593750e+00 -1.370247364044189453e+00 7.169480621814727783e-02 -3.895657658576965332e-01 -1.874754764139652252e-02
1.047000000000000000e+03 3.781765365600585938e+01 -9.862939834594726562e+00 -8.503337502479553223e-01 1.771323382854461670e-01 -2.019604146480560303e-01 1.713328659534454346e-01
1.048000000000000000e+03 3.555239105224609375e+01 -9.255606651306152344e+00 -1.478011727333068848e+00 4.036888480186462402e-02 -4.312928617000579834e-01 -1.096017435193061829e-01
1.049000000000000000e+03 3.997806167602539062e+01 -4.811897277832031250e+00 -1.155663490295410156e+00 6.375101208686828613e-02 -3.275737464427947998e-01 -6.765953451395034790e-02
1.050000000000000000e+03 3.710695266723632812e+01 -4.202877044677734375e+00 -9.925530552864074707e-01 6.719280034303665161e-02 -2.776080667972564697e-01 9.748382121324539185e-02
1.051000000000000000e+03 3.858635330200195312e+01 -4.229414939880371094e+00 -8.752236366271972656e-01 9.134781360626220703e-02 -2.351627498865127563e-01 -2.129647694528102875e-02
1.052000000000000000e+03 4.003899765014648438e+01 -4.274322986602783203e+00 -6.296924948692321777e-01 1.359819918870925903e-01 -1.481131613254547119e-01 -2.019050121307373047e-01
1.053000000000000000e+03 4.137992095947265625e+01 -4.319942951202392578e+00 -1.879868060350418091e-01 2.568028867244720459e-01 2.064482495188713074e-02 -5.080701708793640137e-01
1.054000000000000000e+03 4.073561477661132812e+01 -4.298222064971923828e+00 -4.218860566616058350e-01 1.823958754539489746e-01 -7.184705138206481934e-02 -3.326561450958251953e-01
1.055000000000000000e+03 3.327956390380859375e+01 -8.607487678527832031e+00 -1.842015027999877930e+00 -2.355786738917231560e-03 -5.533112287521362305e-01 -1.901152729988098145e-01
1.056000000000000000e+03 3.630360794067382812e+01 -9.228613853454589844e+00 -1.434702634811401367e+00 5.248232558369636536e-02 -4.146660864353179932e-01 -6.738795340061187744e-02
1.057000000000000000e+03 3.176714134216308594e+01 -8.638791084289550781e+00 -1.767548799514770508e+00 -7.393798325210809708e-03 -5.324828028678894043e-01 -2.106148302555084229e-01
1.058000000000000000e+03 3.328984451293945312e+01 -9.319849014282226562e+00 -1.521511197090148926e+00 1.113786362111568451e-02 -4.531120061874389648e-01 -1.981309801340103149e-01
1.059000000000000000e+03 3.479963684082031250e+01 -9.279328346252441406e+00 -1.506958484649658203e+00 2.713410370051860809e-02 -4.439472854137420654e-01 -1.435491591691970825e-01
1.060000000000000000e+03 3.404552459716796875e+01 -9.300423622131347656e+00 -1.520449638366699219e+00 2.124889381229877472e-02 -4.497602283954620361e-01 -1.725137084722518921e-01
1.061000000000000000e+03 8.827169418334960938e+00 2.603041887283325195e+00 2.126375184161588550e-04 6.235899636521935463e-04 2.508682373445481062e-04 4.305612819734960794e-04
1.062000000000000000e+03 1.361861515045166016e+01 3.925569772720336914e+00 1.108603086322546005e-03 -1.914788008434697986e-04 2.751373103819787502e-04 4.265487950760871172e-04
1.063000000000000000e+03 1.257954311370849609e+01 2.541932821273803711e+00 -6.102687329985201359e-04 6.439477874664589763e-05 -1.637621753616258502e-04 -9.188584226649254560e-05
1.064000000000000000e+03 1.105813312530517578e+01 2.603657484054565430e+00 -5.040270043537020683e-04 -2.364992687944322824e-04 -2.221578906755894423e-04 -4.944655811414122581e-04
1.065000000000000000e+03 2.872092819213867188e+01 -8.658615112304687500e+00 -1.522362828254699707e+00 -1.023029163479804993e-02 -4.597779214382171631e-01 -2.341605126857757568e-01
1.066000000000000000e+03 3.024786758422851562e+01 -9.375896453857421875e+00 -1.421891808509826660e+00 -5.286231171339750290e-03 -4.281533956527709961e-01 -2.706617116928100586e-01
1.067000000000000000e+03 3.101126670837402344e+01 -9.365495681762695312e+00 -1.459744453430175781e+00 -2.798294299282133579e-04 -4.380072653293609619e-01 -2.550730705261230469e-01
1.068000000000000000e+03 3.177260780334472656e+01 -9.353075981140136719e+00 -1.490823864936828613e+00 1.134775695390999317e-03 -4.469067156314849854e-01 -2.385707050561904907e-01
1.069000000000000000e+03 8.073457717895507812e+00 -1.853433609008789062e+00 -1.029505219776183367e-04 -9.502655302640050650e-05 -5.939312177360989153e-05 3.339281538501381874e-04
1.070000000000000000e+03 1.256231403350830078e+01 -3.686256885528564453e+00 -3.839244018308818340e-04 1.655512169236317277e-04 -6.551195838255807757e-05 3.142063796985894442e-04
1.071000000000000000e+03 7.392088890075683594e+00 -2.589554071426391602e+00 -9.975647844839841127e-05 -8.856422209646552801e-05 -5.649621016345918179e-05 3.551363479346036911e-04
1.072000000000000000e+03 1.175849819183349609e+01 -5.584427356719970703e+00 -3.970478137489408255e-04 -5.254088318906724453e-04 -2.767370024230331182e-04 4.524955875240266323e-04
1.073000000000000000e+03 7.449224948883056641e+00 -4.752853870391845703e+00 -3.362915012985467911e-04 1.096165273338556290e-03 2.279621257912367582e-04 -1.748956274241209030e-04
1.074000000000000000e+03 6.555491447448730469e+00 -1.866937756538391113e+00 -1.354702835669741035e-04 -7.254420052049681544e-05 -6.240434595383703709e-05 2.574273967184126377e-04
1.075000000000000000e+03 6.640126705169677734e+00 -2.602906703948974609e+00 1.532771784695796669e-05 1.466327084926888347e-04 4.858812826569192111e-05 -2.946169988717883825e-04
1.076000000000000000e+03 5.145997524261474609e+00 -2.681811332702636719e+00 7.484748493880033493e-06 1.037293477565981448e-04 3.336423105793073773e-05 -2.900646650232374668e-04
1.077000000000000000e+03 1.655945777893066406e+00 -7.938304901123046875e+00 -7.739466673228889704e-05 2.684260834939777851e-04 5.730942211812362075e-05 1.414568487234646454e-05
1.078000000000000000e+03 3.900842905044555664e+00 -3.726967573165893555e+00 -5.850870002177543938e-05 1.097562198992818594e-04 1.537425669084768742e-05 1.836586889112368226e-04
1.079000000000000000e+03 1.620167136192321777e+00 -6.610908985137939453e+00 3.733063640538603067e-04 -2.139974094461649656e-04 4.779268419952131808e-05 2.901098632719367743e-04
1.080000000000000000e+03 4.974138140678405762e-01 -3.605969190597534180e+00 -1.439494662918150425e-04 -1.537431380711495876e-04 -8.930778130888938904e-05 -1.391605765093117952e-04
1.081000000000000000e+03 4.010237455368041992e-01 -2.191577672958374023e+00 4.310839722165837884e-05 -7.049029954941943288e-05 -8.214570698328316212e-06 5.137130210641771555e-05
1.082000000000000000e+03 5.541241765022277832e-01 -5.063791751861572266e+00 3.163228393532335758e-04 -2.829241275321692228e-04 1.001961481961188838e-05 7.496520265704020858e-05
1.083000000000000000e+03 2.563890457153320312e+01 -8.570081710815429688e+00 -1.175032615661621094e+00 9.656353853642940521e-03 -3.496128916740417480e-01 -2.533194124698638916e-01
1.084000000000000000e+03 2.717175865173339844e+01 -9.360458374023437500e+00 -1.204290866851806641e+00 3.851658198982477188e-03 -3.601317703723907471e-01 -3.197316527366638184e-01
1.085000000000000000e+03 2.871468544006347656e+01 -9.382838249206542969e+00 -1.323711514472961426e+00 -5.115828011184930801e-03 -3.986482024192810059e-01 -2.966680526733398438e-01
1.086000000000000000e+03 2.639447784423828125e+01 -9.339238166809082031e+00 -1.137274384498596191e+00 1.247253082692623138e-02 -3.374405503273010254e-01 -3.282936513423919678e-01
1.087000000000000000e+03 2.173991394042968750e+01 -8.239650726318359375e+00 -6.596214771270751953e-01 4.499504715204238892e-02 -1.843879371881484985e-01 -2.690828442573547363e-01
1.088000000000000000e+03 2.326401329040527344e+01 -9.160802841186523438e+00 -8.372638225555419922e-01 4.714158922433853149e-02 -2.370366752147674561e-01 -3.582178056240081787e-01
1.089000000000000000e+03 2.045359420776367188e+01 -1.018116188049316406e+01 -6.092381477355957031e-01 4.592553246766328812e-03 -1.813936829566955566e-01 -4.500363469123840332e-01
1.090000000000000000e+03 2.084115791320800781e+01 -9.141352653503417969e+00 -5.844830274581909180e-01 2.522015385329723358e-02 -1.677788645029067993e-01 -3.662068545818328857e-01
1.091000000000000000e+03 2.486163520812988281e+01 -8.514900207519531250e+00 -1.076829075813293457e+00 1.802332699298858643e-02 -3.176417052745819092e-01 -2.593748569488525391e-01
1.092000000000000000e+03 2.482713890075683594e+01 -9.263714790344238281e+00 -9.919793605804443359e-01 3.124227188527584076e-02 -2.882211208343505859e-01 -3.477552831172943115e-01
1.093000000000000000e+03 2.404472732543945312e+01 -9.213993072509765625e+00 -9.149853587150573730e-01 3.939057141542434692e-02 -2.626784443855285645e-01 -3.565175831317901611e-01
1.094000000000000000e+03 2.188050079345703125e+01 -3.536503314971923828e+00 -1.300129592418670654e-01 -1.126917004585266113e-01 -7.281139492988586426e-02 2.147707343101501465e-01
1.095000000000000000e+03 2.115162658691406250e+01 -3.377653837203979492e+00 -8.739800006151199341e-02 -1.282554566860198975e-01 -6.469603627920150757e-02 1.818279474973678589e-01
1.096000000000000000e+03 1.232451915740966797e+01 -1.971120834350585938e+01 -4.291316866874694824e-01 -6.165442466735839844e-01 -3.137027919292449951e-01 -4.212274849414825439e-01
1.097000000000000000e+03 3.628242969512939453e+00 -1.968492317199707031e+01 -9.910393506288528442e-02 -9.546469897031784058e-02 -5.837059020996093750e-02 -1.195405349135398865e-01
1.098000000000000000e+03 1.267244815826416016e+01 1.933469009399414062e+01 -7.070552110671997070e-01 -7.408555746078491211e-01 -4.343732297420501709e-01 5.563579797744750977e-01
1.099000000000000000e+03 8.860437393188476562e+00 2.037209320068359375e+01 -4.981667697429656982e-01 -2.308277338743209839e-01 -2.186983525753021240e-01 4.516623020172119141e-01
1.100000000000000000e+03 1.976029205322265625e+01 7.741199493408203125e+00 -1.966218352317810059e-01 -1.105918645858764648e+00 -3.907621502876281738e-01 4.161999225616455078e-01
1.101000000000000000e+03 1.966836929321289062e+01 9.376770019531250000e+00 -3.105788528919219971e-01 -1.066705703735351562e+00 -4.131853580474853516e-01 4.484004080295562744e-01
1.102000000000000000e+03 1.389160728454589844e+01 1.839686965942382812e+01 -7.616910338401794434e-01 -8.558828830718994141e-01 -4.852721691131591797e-01 6.288084983825683594e-01
1.103000000000000000e+03 1.402910232543945312e+01 1.645505714416503906e+01 -1.080607771873474121e+00 -1.127607464790344238e+00 -6.624645590782165527e-01 1.036385655403137207e+00
1.104000000000000000e+03 1.718315696716308594e+01 1.177426528930664062e+01 -4.095440804958343506e-01 -1.671824336051940918e+00 -6.244105100631713867e-01 7.629228830337524414e-01
1.105000000000000000e+03 1.679538154602050781e+01 1.497675991058349609e+01 -6.810356974601745605e-01 -1.171555757522583008e+00 -5.557774305343627930e-01 6.683866381645202637e-01
1.106000000000000000e+03 1.972815704345703125e+01 2.156372547149658203e+00 -3.026471473276615143e-02 -6.886580586433410645e-01 -2.156768441200256348e-01 2.254172712564468384e-01
1.107000000000000000e+03 6.324806809425354004e-01 1.623695755004882812e+01 3.812398936133831739e-04 3.496642783284187317e-02 1.060430053621530533e-02 -5.730528850108385086e-03
1.108000000000000000e+03 1.981575584411621094e+01 6.255990982055664062e+00 -1.380163580179214478e-01 -1.054088115692138672e+00 -3.576313257217407227e-01 3.491529524326324463e-01
1.109000000000000000e+03 1.837545776367187500e+01 1.241672039031982422e+01 -4.333303272724151611e-01 -1.221264839172363281e+00 -4.963785409927368164e-01 5.601820349693298340e-01
1.110000000000000000e+03 1.498436641693115234e+01 1.734943389892578125e+01 -7.796950936317443848e-01 -1.008702993392944336e+00 -5.365194082260131836e-01 6.812968850135803223e-01
1.111000000000000000e+03 1.879483604431152344e+01 7.967334389686584473e-01 -4.995344788767397404e-04 -5.527060031890869141e-01 -1.659616678953170776e-01 6.138911470770835876e-02
1.112000000000000000e+03 1.967629432678222656e+01 8.913100361824035645e-01 -1.537228375673294067e-02 -5.356059670448303223e-01 -1.652934700250625610e-01 1.862930357456207275e-01
1.113000000000000000e+03 1.758095550537109375e+01 1.371725940704345703e+01 -5.612317919731140137e-01 -1.230289936065673828e+00 -5.374565124511718750e-01 6.667786836624145508e-01
1.114000000000000000e+03 2.265960693359375000e+01 -1.193194031715393066e+00 -1.114780232310295105e-01 -2.223596721887588501e-01 -1.001513078808784485e-01 3.677159547805786133e-01
1.115000000000000000e+03 1.883977699279785156e+01 -1.750656843185424805e+00 -1.106956857256591320e-03 -2.091224342584609985e-01 -6.306882202625274658e-02 4.679849371314048767e-02
1.116000000000000000e+03 2.878806829452514648e+00 -1.698823165893554688e+01 -1.605900935828685760e-02 -2.621989138424396515e-02 -1.268367003649473190e-02 3.513128729537129402e-03
1.117000000000000000e+03 5.779733657836914062e-01 -1.766827392578125000e+01 -5.152228288352489471e-03 5.486518517136573792e-02 1.491388678550720215e-02 2.807918936014175415e-03
1.118000000000000000e+03 1.272636985778808594e+01 -1.823281478881835938e+01 -7.128645777702331543e-01 -6.046088933944702148e-01 -3.952420353889465332e-01 -5.169391632080078125e-01
1.119000000000000000e+03 1.026085281372070312e+01 -2.600879907608032227e+00 -1.169768947875127196e-04 -7.628980529261752963e-05 -5.798001075163483620e-05 5.527763278223574162e-04
1.120000000000000000e+03 1.647462272644042969e+01 -1.043474769592285156e+01 -2.998383641242980957e-01 -5.052434206008911133e-01 -2.415245324373245239e-01 -4.013314843177795410e-01
1.121000000000000000e+03 1.730148696899414062e+01 -1.123036289215087891e+01 -4.778456687927246094e-01 -3.290014863014221191e-01 -2.420541495084762573e-01 -4.817484915256500244e-01
1.122000000000000000e+03 1.576850700378417969e+01 -1.157810974121093750e+01 -4.016239643096923828e-01 -6.961997151374816895e-01 -3.293471038341522217e-01 -5.248014330863952637e-01
1.123000000000000000e+03 2.169648361206054688e+01 -9.077642440795898438e+00 -6.744063496589660645e-01 4.780482873320579529e-02 -1.879804581403732300e-01 -3.569040298461914062e-01
1.124000000000000000e+03 1.354641342163085938e+01 -1.699020957946777344e+01 -7.450134158134460449e-01 -6.428803801536560059e-01 -4.163681268692016602e-01 -6.309726834297180176e-01
1.125000000000000000e+03 1.662597846984863281e+01 -1.230243873596191406e+01 -5.464369058609008789e-01 -4.512022137641906738e-01 -2.992917299270629883e-01 -5.444260835647583008e-01
1.126000000000000000e+03 1.364758872985839844e+01 -3.798142910003662109e+00 2.372744202148169279e-04 -4.218832764308899641e-04 -5.538265759241767228e-05 -2.550066164985764772e-05
1.127000000000000000e+03 1.591868019104003906e+01 -1.345617580413818359e+01 -6.203464865684509277e-01 -5.504944324493408203e-01 -3.512522578239440918e-01 -5.862953662872314453e-01
1.128000000000000000e+03 1.516692924499511719e+01 -1.464039039611816406e+01 -6.558162569999694824e-01 -6.197932362556457520e-01 -3.826828598976135254e-01 -6.099570393562316895e-01
1.129000000000000000e+03 1.048428535461425781e+01 -9.199831008911132812e+00 -1.232056412845849991e-03 -1.062466297298669815e-03 -6.883568130433559418e-04 7.635056972503662109e-04
1.130000000000000000e+03 1.333764171600341797e+01 -2.557519674301147461e+00 6.888266216265037656e-05 2.585519978310912848e-04 9.823039727052673697e-05 -6.962027691770344973e-05
1.131000000000000000e+03 9.471741676330566406e+00 -8.664816856384277344e+00 5.660143797285854816e-04 1.229697954840958118e-03 5.387137061916291714e-04 -9.052249370142817497e-04
1.132000000000000000e+03 1.106929874420166016e+01 -6.581684589385986328e+00 5.152672529220581055e-04 5.118089029565453529e-04 3.081228351220488548e-04 -5.628868821077048779e-04
1.133000000000000000e+03 1.028670787811279297e+01 -7.605171203613281250e+00 -4.266847972758114338e-04 -1.019731862470507622e-03 -4.339250153861939907e-04 6.940173334442079067e-04
1.134000000000000000e+03 1.687845826148986816e+00 -1.067571449279785156e+01 8.875693893060088158e-04 1.096188090741634369e-03 5.951272323727607727e-04 2.357968827709555626e-03
1.135000000000000000e+03 8.174540519714355469e+00 -1.262509155273437500e+01 2.811634680256247520e-03 5.281603429466485977e-03 2.427971456199884415e-03 -2.769822254776954651e-03
1.136000000000000000e+03 1.051010322570800781e+01 -3.951946258544921875e+00 -1.607463782420381904e-04 8.750708657316863537e-04 2.142973389709368348e-04 -3.090495010837912560e-04
1.137000000000000000e+03 7.762277984619140625e+01 3.304262924194335938e+01 -1.380116119980812073e-02 9.070479393005371094e+00 2.717003345489501953e+00 7.834964245557785034e-02
1.138000000000000000e+03 7.917164611816406250e+01 3.606292343139648438e+01 -1.310443878173828125e-02 9.363787651062011719e+00 2.805205106735229492e+00 5.556829273700714111e-03
1.139000000000000000e+03 7.935596466064453125e+01 -2.782081794738769531e+01 -3.198357531800866127e-03 7.865448951721191406e+00 2.358675241470336914e+00 -6.863572448492050171e-02
1.140000000000000000e+03 7.730439758300781250e+01 -3.804786300659179688e+01 -4.003103822469711304e-02 8.352502822875976562e+00 2.493741512298583984e+00 -4.961937665939331055e-02
1.141000000000000000e+03 7.927844238281250000e+01 -3.471249008178710938e+01 -8.051813580095767975e-03 8.389570236206054688e+00 2.514455556869506836e+00 -3.089331090450286865e-02
1.142000000000000000e+03 7.934492492675781250e+01 -2.085269546508789062e+01 3.953059785999357700e-04 7.054591655731201172e+00 2.116496086120605469e+00 -8.611419796943664551e-02
1.143000000000000000e+03 7.806491088867187500e+01 -2.774252700805664062e+01 -1.270726509392261505e-02 7.813603401184082031e+00 2.340268850326538086e+00 -1.913910955190658569e-01
1.144000000000000000e+03 7.803073883056640625e+01 -2.637696075439453125e+01 -9.580308571457862854e-03 7.689453601837158203e+00 2.303961992263793945e+00 -2.070997208356857300e-01
1.145000000000000000e+03 7.935394287109375000e+01 -3.058073997497558594e+01 -4.219621419906616211e-03 8.122019767761230469e+00 2.435339927673339844e+00 -5.547746270895004272e-02
1.146000000000000000e+03 7.783242797851562500e+01 -3.445282745361328125e+01 -2.928431890904903412e-02 8.266108512878417969e+00 2.471047163009643555e+00 -1.138306334614753723e-01
1.147000000000000000e+03 7.791540527343750000e+01 -3.310410690307617188e+01 -1.914626918733119965e-02 8.189169883728027344e+00 2.451007127761840820e+00 -1.286782324314117432e-01
1.148000000000000000e+03 7.346721649169921875e+01 -3.785603332519531250e+01 -1.448762863874435425e-01 8.050647735595703125e+00 2.371731519699096680e+00 -1.662938296794891357e-01
1.149000000000000000e+03 7.639951324462890625e+01 -3.904350280761718750e+01 -3.279617056250572205e-02 8.353154182434082031e+00 2.496107339859008789e+00 -7.658813148736953735e-02
1.150000000000000000e+03 7.798406982421875000e+01 1.410058307647705078e+01 -8.183895610272884369e-03 7.906199932098388672e+00 2.369404792785644531e+00 2.410525232553482056e-01
1.151000000000000000e+03 7.932176971435546875e+01 1.539015197753906250e+01 -1.229910878464579582e-03 8.093523979187011719e+00 2.427688121795654297e+00 8.666121959686279297e-02
1.152000000000000000e+03 7.796264648437500000e+01 2.113903045654296875e+01 -1.266232412308454514e-02 8.536462783813476562e+00 2.557140350341796875e+00 1.754533499479293823e-01
1.153000000000000000e+03 7.932072448730468750e+01 2.238148117065429688e+01 -1.681668101809918880e-03 8.770878791809082031e+00 2.630759239196777344e+00 6.119095534086227417e-02
1.154000000000000000e+03 7.772700500488281250e+01 3.159945106506347656e+01 -8.513763546943664551e-03 9.038760185241699219e+00 2.709073781967163086e+00 8.237390220165252686e-02
1.155000000000000000e+03 7.943328094482421875e+01 2.788255310058593750e+01 -9.282134473323822021e-03 9.122267723083496094e+00 2.733895778656005859e+00 3.576030954718589783e-02
1.156000000000000000e+03 7.796834564208984375e+01 2.536186408996582031e+01 -1.326387189328670502e-02 8.815166473388671875e+00 2.640570878982543945e+00 1.279440373182296753e-01
1.157000000000000000e+03 7.795338439941406250e+01 2.395778656005859375e+01 -1.471269875764846802e-02 8.726913452148437500e+00 2.613660335540771484e+00 1.409078091382980347e-01
1.158000000000000000e+03 7.795345306396484375e+01 1.832225990295410156e+01 -1.301127113401889801e-02 8.310434341430664062e+00 2.489226818084716797e+00 2.036338448524475098e-01
1.159000000000000000e+03 7.796605682373046875e+01 1.550296020507812500e+01 -1.093809120357036591e-02 8.048153877258300781e+00 2.411164522171020508e+00 2.308360636234283447e-01
1.160000000000000000e+03 7.795494079589843750e+01 1.690955924987792969e+01 -1.102237869054079056e-02 8.182711601257324219e+00 2.451506853103637695e+00 2.182285040616989136e-01
1.161000000000000000e+03 7.800385284423828125e+01 1.269797134399414062e+01 -8.163115009665489197e-03 7.757182598114013672e+00 2.324705839157104492e+00 2.497462630271911621e-01
1.162000000000000000e+03 7.671786499023437500e+01 1.136804103851318359e+01 -1.405055075883865356e-02 7.630097866058349609e+00 2.284814119338989258e+00 3.916929960250854492e-01
1.163000000000000000e+03 7.804438781738281250e+01 8.516491889953613281e+00 7.835415308363735676e-04 7.280215263366699219e+00 2.184299707412719727e+00 2.614010572433471680e-01
1.164000000000000000e+03 7.934413909912109375e+01 9.808713912963867188e+00 2.925859298557043076e-04 7.386831760406494141e+00 2.216137170791625977e+00 9.700362384319305420e-02
1.165000000000000000e+03 7.937194061279296875e+01 -1.387987899780273438e+01 4.517802037298679352e-03 6.232097625732421875e+00 1.870984673500061035e+00 -6.208423897624015808e-02
1.166000000000000000e+03 7.935725402832031250e+01 -6.917042255401611328e+00 6.236308719962835312e-03 5.854033470153808594e+00 1.758080959320068359e+00 -9.649529820308089256e-04
1.167000000000000000e+03 7.935230255126953125e+01 -1.945618057250976562e+01 1.232751645147800446e-03 6.878058433532714844e+00 2.063787221908569336e+00 -8.450840413570404053e-02
1.168000000000000000e+03 7.806161499023437500e+01 1.692960411310195923e-01 2.320444397628307343e-02 6.411544322967529297e+00 1.930424690246582031e+00 1.776685416698455811e-01
1.169000000000000000e+03 7.935321044921875000e+01 1.453622937202453613e+00 4.198634997010231018e-03 6.313536167144775391e+00 1.895320415496826172e+00 7.486344873905181885e-02
1.170000000000000000e+03 7.674715423583984375e+01 7.211472034454345703e+00 8.550165221095085144e-03 7.219668865203857422e+00 2.168465614318847656e+00 3.975363373756408691e-01
1.171000000000000000e+03 7.826574707031250000e+01 2.904129219055175781e+01 -1.476697623729705811e-02 9.028841972351074219e+00 2.704222440719604492e+00 7.549150288105010986e-02
1.172000000000000000e+03 7.839872741699218750e+01 4.019844818115234375e+01 -1.797977089881896973e-02 9.277738571166992188e+00 2.777927637100219727e+00 -4.344778507947921753e-02
1.173000000000000000e+03 7.488766479492187500e+01 3.835568618774414062e+01 -7.301881909370422363e-02 8.802274703979492188e+00 2.618776798248291016e+00 6.902134418487548828e-02
1.174000000000000000e+03 7.512987518310546875e+01 3.677139663696289062e+01 -6.405097991228103638e-02 8.754616737365722656e+00 2.607169628143310547e+00 8.392148464918136597e-02
1.175000000000000000e+03 7.803630065917968750e+01 9.906750679016113281e+00 -2.874979516491293907e-03 7.441814899444580078e+00 2.231682062149047852e+00 2.603014409542083740e-01
1.176000000000000000e+03 7.676920318603515625e+01 2.499415129423141479e-01 5.590212345123291016e-02 6.613384246826171875e+00 2.000785827636718750e+00 2.742260098457336426e-01
1.177000000000000000e+03 7.805515289306640625e+01 2.956129550933837891e+00 1.509243622422218323e-02 6.663189888000488281e+00 2.003484725952148438e+00 2.249729037284851074e-01
1.178000000000000000e+03 7.806243896484375000e+01 -1.232686519622802734e+00 2.643574588000774384e-02 6.310487747192382812e+00 1.901077151298522949e+00 1.460346579551696777e-01
1.179000000000000000e+03 7.935320281982421875e+01 -2.732626438140869141e+00 6.568618584424257278e-03 5.964307308197021484e+00 1.791262745857238770e+00 4.090075567364692688e-02
1.180000000000000000e+03 7.808306121826171875e+01 -8.217285156250000000e+00 2.986462786793708801e-02 6.143808364868164062e+00 1.852101922035217285e+00 -4.320624098181724548e-02
1.181000000000000000e+03 7.806588745117187500e+01 -5.435516834259033203e+00 3.069778345525264740e-02 6.139325141906738281e+00 1.851006865501403809e+00 3.442573174834251404e-02
1.182000000000000000e+03 7.936396026611328125e+01 -9.700859069824218750e+00 5.652898456901311874e-03 5.925642490386962891e+00 1.779388546943664551e+00 -2.833874709904193878e-02
1.183000000000000000e+03 7.811798095703125000e+01 -1.516635894775390625e+01 1.561125088483095169e-02 6.548675537109375000e+00 1.969286084175109863e+00 -1.938810199499130249e-01
1.184000000000000000e+03 7.811994934082031250e+01 -1.238854026794433594e+01 2.310054376721382141e-02 6.326206207275390625e+00 1.904791951179504395e+00 -1.452893763780593872e-01
1.185000000000000000e+03 7.936561584472656250e+01 -1.666617774963378906e+01 2.988717751577496529e-03 6.535125732421875000e+00 1.961434364318847656e+00 -7.670322060585021973e-02
1.186000000000000000e+03 7.806387329101562500e+01 -1.935213470458984375e+01 3.230291418731212616e-03 6.971860408782958984e+00 2.092527151107788086e+00 -2.332205176353454590e-01
1.187000000000000000e+03 7.587418079376220703e+00 1.997034454345703125e+01 -4.455705881118774414e-01 -4.164154827594757080e-02 -1.461636424064636230e-01 2.399010062217712402e-01
1.188000000000000000e+03 8.979067802429199219e+00 1.882472610473632812e+01 -5.969642996788024902e-01 -9.622354805469512939e-02 -2.079563587903976440e-01 1.886808127164840698e-01
1.189000000000000000e+03 1.349965095520019531e+00 -4.005717468261718750e+01 1.759224757552146912e-02 -1.092613577842712402e+00 -3.225064277648925781e-01 1.355044357478618622e-02
1.190000000000000000e+03 7.243477106094360352e-01 3.743061065673828125e+01 1.722759753465652466e-02 -9.438787102699279785e-01 -2.779953479766845703e-01 4.306667950004339218e-03
1.191000000000000000e+03 7.430704832077026367e-01 3.467088317871093750e+01 9.604562073945999146e-03 -8.731672763824462891e-01 -2.590688169002532959e-01 2.674341946840286255e-02
1.192000000000000000e+03 7.584463953971862793e-01 3.327370834350585938e+01 3.975987900048494339e-03 -8.113601803779602051e-01 -2.422152608633041382e-01 3.970226272940635681e-02
1.193000000000000000e+03 6.823604106903076172e-01 2.761972999572753906e+01 2.047447720542550087e-03 -4.225806891918182373e-01 -1.261599808931350708e-01 5.353834852576255798e-02
1.194000000000000000e+03 6.709056496620178223e-01 2.620333480834960938e+01 -1.541504985652863979e-03 -3.096926808357238770e-01 -9.337025880813598633e-02 5.421849712729454041e-02
1.195000000000000000e+03 5.987973213195800781e-01 -3.600786972045898438e+01 5.361023359000682831e-03 -1.093699812889099121e+00 -3.265016376972198486e-01 -9.999096393585205078e-03
1.196000000000000000e+03 2.433548688888549805e+00 -3.327062606811523438e+01 2.744355984032154083e-02 -8.401889204978942871e-01 -2.438236176967620850e-01 -1.179702952504158020e-01
1.197000000000000000e+03 3.351904630661010742e+00 2.604163932800292969e+01 -1.162392273545265198e-02 -3.287415802478790283e-01 -1.021096482872962952e-01 2.212116271257400513e-01
1.198000000000000000e+03 3.288121223449707031e+00 2.461848831176757812e+01 -2.232781425118446350e-02 -2.587887048721313477e-01 -8.433496206998825073e-02 2.074960321187973022e-01
1.199000000000000000e+03 2.282236099243164062e+00 3.460754394531250000e+01 2.340427041053771973e-02 -7.641059160232543945e-01 -2.222104817628860474e-01 9.321887791156768799e-02
1.200000000000000000e+03 2.326583147048950195e+00 3.321479415893554688e+01 2.471086755394935608e-02 -7.018280029296875000e-01 -2.031351327896118164e-01 1.128317937254905701e-01
1.201000000000000000e+03 2.353813648223876953e+00 3.823620223999023438e+01 3.347528353333473206e-02 -8.489585518836975098e-01 -2.446449697017669678e-01 2.113349922001361847e-02
1.202000000000000000e+03 3.256709337234497070e+00 3.923383331298828125e+01 2.570777572691440582e-02 -8.565364480018615723e-01 -2.492486089468002319e-01 4.409492015838623047e-02
1.203000000000000000e+03 2.222368717193603516e+00 -3.038497352600097656e+01 2.140531130135059357e-02 -7.078309059143066406e-01 -2.059276849031448364e-01 -1.539300084114074707e-01
1.204000000000000000e+03 2.050523519515991211e+00 -2.758988761901855469e+01 9.292152710258960724e-03 -5.318122506141662598e-01 -1.567560285329818726e-01 -1.705970019102096558e-01
1.205000000000000000e+03 2.350723505020141602e+00 -3.659580230712890625e+01 2.582001499831676483e-02 -9.691932797431945801e-01 -2.830119729042053223e-01 -6.277860701084136963e-02
1.206000000000000000e+03 5.341896533966064453e+00 -1.762291526794433594e+01 -1.206856369972229004e-01 -4.186795651912689209e-02 -4.876608029007911682e-02 -8.676694706082344055e-03
1.207000000000000000e+03 6.026169061660766602e-01 2.052526855468750000e+01 -6.404884159564971924e-03 2.364542149007320404e-02 5.172161385416984558e-03 1.291071157902479172e-02
1.208000000000000000e+03 6.341826319694519043e-01 1.910230636596679688e+01 -2.116913208737969398e-03 4.232237488031387329e-02 1.206163875758647919e-02 2.943428931757807732e-03
1.209000000000000000e+03 6.302158832550048828e-01 1.482406044006347656e+01 8.509059989592060447e-05 2.272961847484111786e-02 6.844412535429000854e-03 -5.113906692713499069e-03
1.210000000000000000e+03 6.149948835372924805e-01 1.342362499237060547e+01 1.378158223815262318e-03 1.255028229206800461e-02 4.178531933575868607e-03 -3.714192658662796021e-03
1.211000000000000000e+03 4.971454143524169922e-01 7.817275047302246094e+00 -7.049077248666435480e-05 1.144434572779573500e-04 1.318580689257942140e-05 -1.947684795595705509e-04
1.212000000000000000e+03 5.926064252853393555e-01 -1.908810997009277344e+01 -4.425263963639736176e-03 4.666924476623535156e-02 1.267319452017545700e-02 -8.370690979063510895e-03
1.213000000000000000e+03 1.686734676361083984e+00 -9.294815063476562500e+00 1.124235335737466812e-03 -1.348057230643462390e-05 3.332264313939958811e-04 9.336788207292556763e-04
1.214000000000000000e+03 5.000967025756835938e+00 -4.030929946899414062e+01 4.800111800432205200e-02 -8.214596509933471680e-01 -2.320375591516494751e-01 -7.010231912136077881e-02
1.215000000000000000e+03 3.486263751983642578e+00 -3.911668777465820312e+01 3.254342451691627502e-02 -9.831034541130065918e-01 -2.851680219173431396e-01 -5.919273942708969116e-02
1.216000000000000000e+03 4.789753913879394531e+00 -3.618514633178710938e+01 7.277067750692367554e-02 -7.749354839324951172e-01 -2.106494307518005371e-01 -1.397757828235626221e-01
1.217000000000000000e+03 1.652413606643676758e+00 -3.538843154907226562e+01 2.018067054450511932e-02 -9.665847420692443848e-01 -2.839212119579315186e-01 -5.267743021249771118e-02
1.218000000000000000e+03 2.335926294326782227e+00 -3.181457138061523438e+01 1.415214221924543381e-02 -7.791640162467956543e-01 -2.295035570859909058e-01 -1.378059238195419312e-01
1.219000000000000000e+03 3.408844709396362305e+00 -2.754092788696289062e+01 1.254756283015012741e-02 -5.158113241195678711e-01 -1.509791165590286255e-01 -2.531701922416687012e-01
1.220000000000000000e+03 1.992704629898071289e+00 -2.473273086547851562e+01 -7.335600908845663071e-03 -3.276422619819641113e-01 -1.004933565855026245e-01 -1.608878970146179199e-01
1.221000000000000000e+03 2.016701936721801758e+00 -2.618120574951171875e+01 -5.204089451581239700e-03 -4.297715425491333008e-01 -1.304926872253417969e-01 -1.729635596275329590e-01
1.222000000000000000e+03 5.866129398345947266e-01 -2.051298332214355469e+01 -8.756928145885467529e-03 4.111755173653364182e-03 -1.393551821820437908e-03 -2.490913867950439453e-02
1.223000000000000000e+03 2.943605422973632812e+00 -2.158588218688964844e+01 -5.527266860008239746e-02 -1.602013111114501953e-01 -6.464219093322753906e-02 -1.643380224704742432e-01
1.224000000000000000e+03 1.616177797317504883e+00 -1.607701492309570312e+01 1.676300773397088051e-03 8.531120605766773224e-03 3.062226576730608940e-03 1.428275462239980698e-02
1.225000000000000000e+03 1.653734564781188965e+00 -1.206699180603027344e+01 2.639018930494785309e-03 2.393018221482634544e-03 1.509611145593225956e-03 4.441404249519109726e-03
1.226000000000000000e+03 5.441299080848693848e-01 -1.208556652069091797e+01 -2.077267563436180353e-04 5.631218198686838150e-03 1.627047429792582989e-03 1.947992714121937752e-03
1.227000000000000000e+03 8.704083442687988281e+00 -9.783989906311035156e+00 -4.390888789203017950e-04 -1.682377071119844913e-03 -6.364398286677896976e-04 1.099229091778397560e-03
1.228000000000000000e+03 5.285568714141845703e+00 -3.443443536758422852e+00 -8.145925676217302680e-05 2.835169470927212387e-05 -1.593226988916285336e-05 2.906939189415425062e-04
1.229000000000000000e+03 3.667517662048339844e+00 -2.891096353530883789e+00 -7.634476787643507123e-06 1.698570667940657586e-05 2.805368922054185532e-06 -2.746452228166162968e-04
1.230000000000000000e+03 2.899530172348022461e+00 -3.089275836944580078e+00 -1.723580498946830630e-05 4.127520514884963632e-05 7.211819593067048118e-06 1.007984537864103913e-04
1.231000000000000000e+03 1.358424544334411621e+00 -3.379734754562377930e+00 -6.379338174156146124e-06 1.362983457511290908e-04 3.897570059052668512e-05 1.348750520264729857e-04
1.232000000000000000e+03 4.407640099525451660e-01 5.053818702697753906e+00 -2.034577773883938789e-04 -2.276495506521314383e-04 -1.293321984121575952e-04 -6.501645839307457209e-05
1.233000000000000000e+03 3.168143510818481445e+00 3.659477233886718750e+00 -2.470549661666154861e-04 -2.500350237824022770e-04 -1.491269940743222833e-04 1.517320633865892887e-04
1.234000000000000000e+03 1.642866730690002441e+00 1.045007419586181641e+01 1.711450633592903614e-03 1.313003944233059883e-03 9.073363617062568665e-04 -1.637488487176597118e-03
1.235000000000000000e+03 5.465803146362304688e-01 1.061801433563232422e+01 4.976429627276957035e-04 2.323684748262166977e-03 8.463982958346605301e-04 -1.041498733684420586e-03
1.236000000000000000e+03 1.879805803298950195e+00 1.321103191375732422e+01 3.730503376573324203e-03 2.908844267949461937e-03 1.991804456338286400e-03 -7.419390603899955750e-03
1.237000000000000000e+03 1.915562033653259277e+00 1.460358619689941406e+01 2.615448087453842163e-03 3.664541291072964668e-03 1.883996883407235146e-03 -1.102324854582548141e-02
1.238000000000000000e+03 1.890457868576049805e+00 1.602900123596191406e+01 -7.405261276289820671e-04 4.332164768129587173e-03 1.077491557225584984e-03 -1.136662904173135757e-02
1.239000000000000000e+03 1.983238101005554199e+00 2.467676353454589844e+01 -1.623707450926303864e-02 -2.344252169132232666e-01 -7.519868761301040649e-02 1.386558115482330322e-01
1.240000000000000000e+03 9.359901428222656250e+00 1.100258255004882812e+01 -8.155964314937591553e-05 3.055952023714780807e-03 8.923177374526858330e-04 1.293565728701651096e-03
1.241000000000000000e+03 1.247814369201660156e+01 8.458011627197265625e+00 1.596256392076611519e-03 1.362296985462307930e-03 8.875660132616758347e-04 1.330600120127201080e-03
1.242000000000000000e+03 1.468704032897949219e+01 4.926053047180175781e+00 1.260529737919569016e-03 -2.883809975173790008e-05 3.695074992720037699e-04 1.525103725725784898e-04
1.243000000000000000e+03 1.182687473297119141e+01 2.580942153930664062e+00 5.832315655425190926e-04 7.633988570887595415e-05 1.978714426513761282e-04 2.871726464945822954e-04
1.244000000000000000e+03 1.039147567749023438e+01 1.339669895172119141e+01 -4.105302505195140839e-03 -1.321808900684118271e-03 -1.628133468329906464e-03 -3.436475060880184174e-03
1.245000000000000000e+03 8.480735778808593750e+00 1.031454753875732422e+01 6.576122250407934189e-04 3.006368351634591818e-04 2.874747151508927345e-04 9.425629978068172932e-04
1.246000000000000000e+03 8.449697494506835938e+00 1.383052349090576172e+01 -3.259093500673770905e-03 9.009154513478279114e-03 1.725018257275223732e-03 -2.741030650213360786e-03
1.247000000000000000e+03 1.178505039215087891e+01 3.370265007019042969e+00 -7.773112738505005836e-04 -2.091388014378026128e-04 -2.959350240416824818e-04 -6.994261639192700386e-04
1.248000000000000000e+03 7.316002368927001953e+00 -1.212130641937255859e+01 -5.456791259348392487e-04 -3.492540781735442579e-05 -1.741813466651365161e-04 4.317859129514545202e-04
1.249000000000000000e+03 7.995838165283203125e+00 -1.094454097747802734e+01 2.897017402574419975e-04 3.919580485671758652e-03 1.262784702703356743e-03 -1.966393552720546722e-03
1.250000000000000000e+03 4.581145858764648438e+01 -8.427865982055664062e+00 2.970288276672363281e+00 6.219946861267089844e+00 2.757070541381835938e+00 5.384746074676513672e+00
1.251000000000000000e+03 4.467470169067382812e+01 -8.460278511047363281e+00 2.212037563323974609e+00 2.186653852462768555e+00 1.319607496261596680e+00 3.080895423889160156e+00
1.252000000000000000e+03 4.584148788452148438e+01 -8.122405052185058594e+00 3.493903398513793945e+00 5.591375350952148438e+00 2.725583553314208984e+00 5.481518268585205078e+00
1.253000000000000000e+03 4.670626831054687500e+01 -8.367619514465332031e+00 2.105743646621704102e+00 1.281251811981201172e+01 4.475478649139404297e+00 6.179585456848144531e+00
1.254000000000000000e+03 4.597795104980468750e+01 -4.838019371032714844e+00 4.100870609283447266e+00 6.187520027160644531e+00 3.086517095565795898e+00 -5.960142135620117188e+00
1.255000000000000000e+03 4.519878387451171875e+01 -4.797852516174316406e+00 3.184295892715454102e+00 2.606606483459472656e+00 1.737270712852478027e+00 -3.623347043991088867e+00
1.256000000000000000e+03 4.559359741210937500e+01 -4.855828762054443359e+00 3.814700603485107422e+00 3.945737838745117188e+00 2.328131437301635742e+00 -4.749244689941406250e+00
1.257000000000000000e+03 4.727890777587890625e+01 -8.080744743347167969e+00 1.634364366531372070e+00 1.828721427917480469e+01 5.976473331451416016e+00 4.435678482055664062e+00
1.258000000000000000e+03 4.741144180297851562e+01 -4.545305728912353516e+00 1.585202455520629883e+00 1.790212631225585938e+01 5.846198558807373047e+00 -3.638036489486694336e+00
1.259000000000000000e+03 4.600898742675781250e+01 -4.302506923675537109e+00 3.145336389541625977e+00 7.773650646209716797e+00 3.275696039199829102e+00 -5.901419639587402344e+00
1.260000000000000000e+03 4.906293487548828125e+01 -6.031898498535156250e+00 9.993022918701171875e+00 1.545129776000976562e+01 7.633296489715576172e+00 1.217218995094299316e+00
1.261000000000000000e+03 4.759366607666015625e+01 -4.212020874023437500e+00 1.253173470497131348e+00 1.672069931030273438e+01 5.392161846160888672e+00 -2.903326988220214844e+00
1.262000000000000000e+03 4.906171417236328125e+01 -5.217164516448974609e+00 6.546332359313964844e+00 1.607172966003417969e+01 6.785418987274169922e+00 2.200576066970825195e+00
1.263000000000000000e+03 4.884757995605468750e+01 -5.448344707489013672e+00 7.731611728668212891e+00 1.699315261840820312e+01 7.417428970336914062e+00 2.314776420593261719e+00
1.264000000000000000e+03 4.861860275268554688e+01 -7.872143268585205078e+00 4.938270092010498047e+00 1.811417388916015625e+01 6.915733337402343750e+00 -1.948558568954467773e+00
1.265000000000000000e+03 4.835555267333984375e+01 -8.212679862976074219e+00 3.062526702880859375e+00 1.838887786865234375e+01 6.435421466827392578e+00 -8.288410902023315430e-01
1.266000000000000000e+03 4.917284774780273438e+01 -5.806990146636962891e+00 9.075378417968750000e+00 1.531123161315917969e+01 7.315983295440673828e+00 1.685818552970886230e+00
1.267000000000000000e+03 4.886470413208007812e+01 -5.046261787414550781e+00 5.641604423522949219e+00 1.692464256286621094e+01 6.769874095916748047e+00 2.055859327316284180e+00
1.268000000000000000e+03 4.716881942749023438e+01 -4.359324932098388672e+00 1.495846390724182129e+00 1.567936992645263672e+01 5.152565002441406250e+00 -4.592245578765869141e+00
1.269000000000000000e+03 4.293054962158203125e+01 -8.844716072082519531e+00 5.866419672966003418e-01 8.293379545211791992e-01 4.247939884662628174e-01 1.434491991996765137e+00
1.270000000000000000e+03 4.405947113037109375e+01 -9.211357116699218750e+00 1.686659693717956543e+00 2.257126331329345703e+00 1.183135747909545898e+00 2.826579809188842773e+00
1.271000000000000000e+03 4.199464416503906250e+01 -3.378666639328002930e+00 9.442223906517028809e-01 8.227694630622863770e-01 5.300975441932678223e-01 -1.297215700149536133e+00
1.272000000000000000e+03 4.251215744018554688e+01 -3.855896472930908203e+00 9.313640594482421875e-01 7.174735665321350098e-01 4.946512877941131592e-01 -1.295440793037414551e+00
1.273000000000000000e+03 4.198088455200195312e+01 -3.856189966201782227e+00 5.707823038101196289e-01 5.845403075218200684e-01 3.465967774391174316e-01 -1.007329106330871582e+00
1.274000000000000000e+03 4.142001342773437500e+01 -3.820121765136718750e+00 2.693935930728912354e-01 4.536259770393371582e-01 2.169058769941329956e-01 -7.377358675003051758e-01
1.275000000000000000e+03 2.100309944152832031e+01 -1.607905983924865723e+00 -5.708389729261398315e-02 -2.480625361204147339e-01 -9.154392778873443604e-02 2.434766739606857300e-01
1.276000000000000000e+03 2.065794181823730469e+01 -2.355968236923217773e+00 -5.229799076914787292e-02 -2.018831074237823486e-01 -7.625433057546615601e-02 1.955647170543670654e-01
1.277000000000000000e+03 3.931946563720703125e+01 -4.250347614288330078e+00 -7.695403695106506348e-01 1.150181964039802551e-01 -1.963566541671752930e-01 -1.006059423089027405e-01
1.278000000000000000e+03 2.491087341308593750e+01 -3.311461687088012695e+00 -3.054351508617401123e-01 -6.845663487911224365e-02 -1.121675372123718262e-01 3.491468429565429688e-01
1.279000000000000000e+03 1.792780113220214844e+01 -8.703530311584472656e+00 -2.463495135307312012e-01 -1.594429761171340942e-01 -1.217377483844757080e-01 -2.416595369577407837e-01
1.280000000000000000e+03 3.044308280944824219e+01 -4.275138378143310547e+00 -8.128128647804260254e-01 2.295144833624362946e-02 -2.369584292173385620e-01 3.074678778648376465e-01
1.281000000000000000e+03 2.772375297546386719e+01 -3.571868896484375000e+00 -5.092529058456420898e-01 -6.345747038722038269e-03 -1.546796113252639771e-01 3.692725300788879395e-01
1.282000000000000000e+03 3.892395973205566406e+00 2.707332372665405273e+00 -1.941848022397607565e-04 -3.086894284933805466e-04 -1.508622663095593452e-04 1.140037275035865605e-04
1.283000000000000000e+03 4.601533412933349609e+00 2.653084039688110352e+00 1.596342772245407104e-04 4.293673846404999495e-04 1.767005014698952436e-04 1.514955692982766777e-05
1.284000000000000000e+03 6.012302875518798828e+00 2.590036630630493164e+00 1.094695981009863317e-04 5.415050545707345009e-04 1.952924067154526711e-04 1.383737835567444563e-04
1.285000000000000000e+03 5.283141136169433594e+00 3.343805551528930664e+00 2.106664906023070216e-04 5.043997080065310001e-04 2.145198668586090207e-04 9.106734069064259529e-05
1.286000000000000000e+03 5.962613105773925781e+00 3.320795297622680664e+00 -7.802752952557057142e-05 -5.106194876134395599e-04 -1.765941124176606536e-04 -8.932937635108828545e-05
1.287000000000000000e+03 1.029494953155517578e+01 2.614377498626708984e+00 3.546046791598200798e-04 4.255669482517987490e-04 2.340514911338686943e-04 4.376533324830234051e-04
1.288000000000000000e+03 7.332317352294921875e+00 3.330582857131958008e+00 -3.426655166549608111e-05 -7.069846615195274353e-04 -2.223753544967621565e-04 -2.544405288062989712e-04
1.289000000000000000e+03 6.643266201019287109e+00 3.321908235549926758e+00 1.654292427701875567e-04 6.669135764241218567e-04 2.497028326615691185e-04 1.777861471055075526e-04
1.290000000000000000e+03 4.602942466735839844e+00 3.425742387771606445e+00 -1.198225727421231568e-04 -3.849084023386240005e-04 -1.514192845206707716e-04 4.065013490617275238e-05
1.291000000000000000e+03 1.865932583808898926e+00 2.677453041076660156e+00 1.381490292260423303e-04 1.910773717099800706e-04 9.876792319118976593e-05 1.844595244619995356e-04
1.292000000000000000e+03 1.019968509674072266e+01 3.392225265502929688e+00 -3.664754040073603392e-04 -6.149824475869536400e-04 -2.944373409263789654e-04 -6.288699223659932613e-04
1.293000000000000000e+03 2.353297996520996094e+01 -3.073495626449584961e+00 -2.107373178005218506e-01 -1.084970682859420776e-01 -9.577031433582305908e-02 3.189061880111694336e-01
1.294000000000000000e+03 2.541068649291992188e+01 -4.098078727722167969e+00 -3.903305530548095703e-01 -4.048827663064002991e-02 -1.292456537485122681e-01 3.051694035530090332e-01
1.295000000000000000e+03 2.631655120849609375e+01 -3.482998847961425781e+00 -4.085589051246643066e-01 -3.356265276670455933e-02 -1.326364725828170776e-01 3.646098673343658447e-01
1.296000000000000000e+03 2.283963012695312500e+01 -2.928163290023803711e+00 -1.677891612052917480e-01 -1.295995265245437622e-01 -8.921660482883453369e-02 2.969863116741180420e-01
1.297000000000000000e+03 2.213505172729492188e+01 -2.768239021301269531e+00 -1.260206252336502075e-01 -1.517818868160247803e-01 -8.334075659513473511e-02 2.690967619419097900e-01
1.298000000000000000e+03 9.562052726745605469e+00 -2.568169593811035156e+00 2.517809843993745744e-05 1.527645072201266885e-04 5.338278060662560165e-05 -4.131107125431299210e-04
1.299000000000000000e+03 2.141280746459960938e+01 -2.588726520538330078e+00 -8.921280503273010254e-02 -1.727105081081390381e-01 -7.857699692249298096e-02 2.356315702199935913e-01
1.300000000000000000e+03 2.827437973022460938e+01 -4.265101432800292969e+00 -6.389592885971069336e-01 2.649718662723898888e-03 -1.908928602933883667e-01 3.196723461151123047e-01
1.301000000000000000e+03 2.913813400268554688e+01 -3.600041151046752930e+00 -6.008937358856201172e-01 1.557730324566364288e-02 -1.755949407815933228e-01 3.642950654029846191e-01
1.302000000000000000e+03 2.926652717590332031e+01 -2.927434682846069336e+00 -5.000869035720825195e-01 2.429103292524814606e-02 -1.427387595176696777e-01 3.963775336742401123e-01
1.303000000000000000e+03 3.117504882812500000e+01 -4.267095088958740234e+00 -8.652030825614929199e-01 2.792744897305965424e-02 -2.511826753616333008e-01 2.982283234596252441e-01
1.304000000000000000e+03 3.202288055419921875e+01 -3.566301584243774414e+00 -7.337585687637329102e-01 4.871877282857894897e-02 -2.055119425058364868e-01 3.174885213375091553e-01
1.305000000000000000e+03 1.161758041381835938e+01 -3.548625707626342773e+00 3.449268988333642483e-04 -1.258073734788922593e-05 9.970385144697502255e-05 -5.098454421386122704e-04
1.306000000000000000e+03 1.098284530639648438e+01 -2.659739017486572266e+00 1.842221390688791871e-04 -4.812082261196337640e-05 4.083039675606414676e-05 -4.288097843527793884e-04
1.307000000000000000e+03 1.129041290283203125e+01 -4.338570117950439453e+00 -2.273725694976747036e-04 -5.385188851505517960e-04 -2.297674509463831782e-04 5.887069273740053177e-04
1.308000000000000000e+03 1.259177684783935547e+01 -2.797118663787841797e+00 2.068838221020996571e-04 -3.593642031773924828e-04 -4.574411650537513196e-05 -1.015423003991600126e-05
1.309000000000000000e+03 4.151960372924804688e+01 -1.026853561401367188e+01 5.602036118507385254e-01 1.006312847137451172e+00 4.699549376964569092e-01 1.390612721443176270e+00
1.310000000000000000e+03 3.349125289916992188e+01 -3.538754701614379883e+00 -7.585981488227844238e-01 6.360809504985809326e-02 -2.084970176219940186e-01 2.710468769073486328e-01
1.311000000000000000e+03 3.412809753417968750e+01 -4.216115474700927734e+00 -1.011106729507446289e+00 4.426911473274230957e-02 -2.900512814521789551e-01 2.345713227987289429e-01
1.312000000000000000e+03 3.498138427734375000e+01 -3.525153636932373047e+00 -7.441976666450500488e-01 8.195200562477111816e-02 -1.986737102270126343e-01 2.013402134180068970e-01
1.313000000000000000e+03 4.004280853271484375e+01 -9.721102714538574219e+00 -3.309439420700073242e-01 3.705075383186340332e-01 1.186907384544610977e-02 5.774682164192199707e-01
1.314000000000000000e+03 4.223501205444335938e+01 -9.548880577087402344e+00 6.046515107154846191e-01 9.577206373214721680e-01 4.687116444110870361e-01 1.440430521965026855e+00
1.315000000000000000e+03 3.929014587402343750e+01 -9.095825195312500000e+00 -1.017132520675659180e+00 1.573287397623062134e-01 -2.579411268234252930e-01 2.162849605083465576e-01
1.316000000000000000e+03 3.858465194702148438e+01 -1.051128673553466797e+01 -3.336448967456817627e-01 3.636499941349029541e-01 9.001529775559902191e-03 4.557678997516632080e-01
1.317000000000000000e+03 3.856319427490234375e+01 -9.819266319274902344e+00 -7.131578922271728516e-01 2.236538827419281006e-01 -1.468511968851089478e-01 2.804373502731323242e-01
1.318000000000000000e+03 3.784730911254882812e+01 -4.213427543640136719e+00 -9.462344050407409668e-01 7.963597029447555542e-02 -2.599795460700988770e-01 4.391646757721900940e-02
1.319000000000000000e+03 3.583652114868164062e+01 -2.850211858749389648e+00 -4.294839799404144287e-01 1.506852209568023682e-01 -8.363962918519973755e-02 1.016877517104148865e-01
1.320000000000000000e+03 3.708922195434570312e+01 -1.061249256134033203e+01 -6.041879653930664062e-01 2.355560660362243652e-01 -1.105895712971687317e-01 2.051353603601455688e-01
1.321000000000000000e+03 3.706942367553710938e+01 -9.902299880981445312e+00 -9.613590836524963379e-01 1.391309052705764771e-01 -2.466684430837631226e-01 8.482995629310607910e-02
1.322000000000000000e+03 3.631989288330078125e+01 -9.937602996826171875e+00 -1.047450900077819824e+00 1.108283326029777527e-01 -2.809867560863494873e-01 1.028820779174566269e-02
1.323000000000000000e+03 3.721900939941406250e+01 -3.559228181838989258e+00 -6.235740184783935547e-01 1.236837878823280334e-01 -1.499670594930648804e-01 3.380483388900756836e-02
1.324000000000000000e+03 4.012517929077148438e+01 -3.709877729415893555e+00 -1.342802047729492188e-01 2.696764469146728516e-01 4.061887413263320923e-02 -3.962990343570709229e-01
1.325000000000000000e+03 3.869057464599609375e+01 -3.624654531478881836e+00 -4.465205073356628418e-01 1.750484406948089600e-01 -8.144162595272064209e-02 -1.359744220972061157e-01
1.326000000000000000e+03 3.405698394775390625e+01 -1.001818084716796875e+01 -1.200210332870483398e+00 5.175735801458358765e-02 -3.445358872413635254e-01 -1.458227783441543579e-01
1.327000000000000000e+03 3.253219985961914062e+01 -9.337731361389160156e+00 -1.510695099830627441e+00 8.161904290318489075e-03 -4.507599472999572754e-01 -2.192706167697906494e-01
1.328000000000000000e+03 3.329981994628906250e+01 -1.003769779205322266e+01 -1.222987055778503418e+00 4.253421351313591003e-02 -3.541358411312103271e-01 -1.837419122457504272e-01
1.329000000000000000e+03 3.254056549072265625e+01 -1.005654335021972656e+01 -1.232964158058166504e+00 3.042113780975341797e-02 -3.607628941535949707e-01 -2.186170369386672974e-01
1.330000000000000000e+03 3.481256866455078125e+01 -9.995954513549804688e+00 -1.164597272872924805e+00 6.870410591363906860e-02 -3.287679553031921387e-01 -1.017657667398452759e-01
1.331000000000000000e+03 1.358708477020263672e+01 5.012715339660644531e+00 -1.157675753347575665e-03 -3.626236866693943739e-04 -4.560898232739418745e-04 -6.969976238906383514e-04
1.332000000000000000e+03 9.448084831237792969e+00 3.382029056549072266e+00 3.250494773965328932e-04 7.862930069677531719e-04 3.334027423989027739e-04 5.164230242371559143e-04
1.333000000000000000e+03 1.263949680328369141e+01 4.120538234710693359e+00 -1.081473776139318943e-03 -2.180344890803098679e-04 -3.898524737451225519e-04 -9.191229473799467087e-04
1.334000000000000000e+03 1.260043621063232422e+01 3.309468507766723633e+00 1.080242916941642761e-03 -2.285869559273123741e-04 2.554967941250652075e-04 3.695266786962747574e-04
1.335000000000000000e+03 3.025276184082031250e+01 -1.010433292388916016e+01 -1.198347330093383789e+00 1.429994963109493256e-02 -3.552142083644866943e-01 -2.983975708484649658e-01
1.336000000000000000e+03 3.101846313476562500e+01 -1.009036445617675781e+01 -1.219268441200256348e+00 1.673237048089504242e-02 -3.607608377933502197e-01 -2.748425006866455078e-01
1.337000000000000000e+03 2.794445610046386719e+01 -9.374816894531250000e+00 -1.266399621963500977e+00 1.114884507842361927e-04 -3.798864483833312988e-01 -3.068178892135620117e-01
1.338000000000000000e+03 2.948512268066406250e+01 -1.011614131927490234e+01 -1.170215964317321777e+00 9.497420862317085266e-03 -3.482155799865722656e-01 -3.206883668899536133e-01
1.339000000000000000e+03 9.333683013916015625e+00 4.182810306549072266e+00 -2.281061315443366766e-04 -9.209038689732551575e-04 -3.447030030656605959e-04 -5.170204094611108303e-04
1.340000000000000000e+03 2.000417327880859375e+01 -9.552501678466796875e+00 -5.412962436676025391e-01 -1.089532766491174698e-02 -1.656574755907058716e-01 -3.973838388919830322e-01
1.341000000000000000e+03 1.938240623474121094e+01 -8.903651237487792969e+00 -4.281786978244781494e-01 -4.224855825304985046e-02 -1.411281824111938477e-01 -3.217108845710754395e-01
1.342000000000000000e+03 6.725810050964355469e+00 -3.335392236709594727e+00 -6.077305442886427045e-05 -9.658898488851264119e-05 -4.720861034002155066e-05 4.230836057104170322e-04
1.343000000000000000e+03 2.736701965332031250e+00 -6.704553127288818359e+00 1.664386509219184518e-04 2.392763417446985841e-04 1.217144963447935879e-04 -4.032116848975419998e-04
1.344000000000000000e+03 7.524684429168701172e+00 -4.071357250213623047e+00 8.224306657211855054e-05 -4.075596807524561882e-04 -9.759498061612248421e-05 6.537300650961697102e-04
1.345000000000000000e+03 8.855556488037109375e+00 -2.556113481521606445e+00 -4.875560625805519521e-05 -1.501681399531662464e-04 -5.967712422716431320e-05 4.827723605558276176e-04
1.346000000000000000e+03 5.438747406005859375e+00 -4.175776004791259766e+00 9.867295739240944386e-05 1.410798286087810993e-04 7.192583143478259444e-05 -3.666354459710419178e-04
1.347000000000000000e+03 5.889004707336425781e+00 -2.630295038223266602e+00 -1.156834841822274029e-04 -3.089793244726024568e-05 -4.397442535264417529e-05 2.878764644265174866e-04
1.348000000000000000e+03 5.995462417602539062e+00 -3.370048999786376953e+00 2.183023207180667669e-05 1.923508098116144538e-04 6.425431638490408659e-05 -3.459803992882370949e-04
1.349000000000000000e+03 4.145637035369873047e+00 -4.526498317718505859e+00 2.832400241459254175e-05 6.603806832572445273e-05 2.830862104019615799e-05 -3.756088262889534235e-04
1.350000000000000000e+03 2.113180160522460938e+00 -3.190719366073608398e+00 3.901255240634782240e-06 -2.734712325036525726e-05 -7.033760539343347773e-06 -2.180350711569190025e-04
1.351000000000000000e+03 1.648676991462707520e+00 -5.279009819030761719e+00 -2.053883654298260808e-04 1.030292696668766439e-04 -3.070773163926787674e-05 -3.243276150897145271e-04
1.352000000000000000e+03 2.716666603088378906e+01 -1.010649490356445312e+01 -1.056867480278015137e+00 1.906986162066459656e-02 -3.113392889499664307e-01 -3.724544048309326172e-01
1.353000000000000000e+03 2.794376945495605469e+01 -1.011893558502197266e+01 -1.098445296287536621e+00 1.241661421954631805e-02 -3.258085846900939941e-01 -3.586086630821228027e-01
1.354000000000000000e+03 2.638372802734375000e+01 -1.008732795715332031e+01 -1.010856509208679199e+00 2.552021108567714691e-02 -2.956008911132812500e-01 -3.902872502803802490e-01
1.355000000000000000e+03 2.322622489929199219e+01 -9.941366195678710938e+00 -7.977079153060913086e-01 5.388064682483673096e-02 -2.231481820344924927e-01 -4.316504299640655518e-01
1.356000000000000000e+03 2.400977325439453125e+01 -9.984925270080566406e+00 -8.551138639450073242e-01 5.128902941942214966e-02 -2.411474436521530151e-01 -4.238499402999877930e-01
1.357000000000000000e+03 2.561166954040527344e+01 -9.306867599487304688e+00 -1.065675139427185059e+00 2.040768973529338837e-02 -3.135802149772644043e-01 -3.405942916870117188e-01
1.358000000000000000e+03 2.480066490173339844e+01 -1.002574920654296875e+01 -9.090217351913452148e-01 4.353801906108856201e-02 -2.596451044082641602e-01 -4.166079163551330566e-01
1.359000000000000000e+03 1.850947189331054688e+01 -1.365928745269775391e+01 -6.127310991287231445e-01 -1.546501368284225464e-01 -2.302143722772598267e-01 -5.328580141067504883e-01
1.360000000000000000e+03 2.102131652832031250e+01 -9.874161720275878906e+00 -6.390374898910522461e-01 2.858467027544975281e-02 -1.831358522176742554e-01 -4.341618418693542480e-01
1.361000000000000000e+03 2.039572525024414062e+01 -3.196595430374145508e+00 -4.951222613453865051e-02 -1.336633414030075073e-01 -5.495266988873481750e-02 1.344668269157409668e-01
1.362000000000000000e+03 2.171448898315429688e+01 -9.855555534362792969e+00 -6.803980469703674316e-01 4.298702254891395569e-02 -1.912233084440231323e-01 -4.332703649997711182e-01
1.363000000000000000e+03 2.165699386596679688e+01 -1.062865638732910156e+01 -6.864109039306640625e-01 4.423179849982261658e-02 -1.926537305116653442e-01 -4.829368293285369873e-01
1.364000000000000000e+03 2.068114471435546875e+01 2.127886056900024414e+00 -5.451931059360504150e-02 -5.773324370384216309e-01 -1.895555257797241211e-01 3.235501050949096680e-01
1.365000000000000000e+03 2.096525001525878906e+01 4.738901615142822266e+00 -1.181356385350227356e-01 -7.153848409652709961e-01 -2.500561475753784180e-01 3.802110850811004639e-01
1.366000000000000000e+03 1.796712112426757812e+01 -1.031141376495361328e+01 -4.460621476173400879e-01 -2.129291296005249023e-01 -1.976973861455917358e-01 -4.301962256431579590e-01
1.367000000000000000e+03 1.087847137451171875e+01 9.045062065124511719e+00 5.094259395264089108e-04 2.413318259641528130e-03 8.768232655711472034e-04 1.037902664393186569e-03
1.368000000000000000e+03 1.112646579742431641e+01 1.062662696838378906e+01 1.632396480999886990e-03 2.683211816474795341e-03 1.294682500883936882e-03 1.714921090751886368e-03
1.369000000000000000e+03 1.337055110931396484e+01 6.171256065368652344e+00 1.394157065078616142e-03 5.607983912341296673e-04 5.864866543561220169e-04 8.713928982615470886e-04
1.370000000000000000e+03 6.043978214263916016e+00 -1.450689029693603516e+01 9.812358766794204712e-03 -6.649033166468143463e-03 9.489976218901574612e-04 -2.111236378550529480e-02
1.371000000000000000e+03 6.667421817779541016e+00 -1.332469177246093750e+01 -1.161750755272805691e-03 1.703584194183349609e-02 4.762227181345224380e-03 -9.561735205352306366e-03
1.372000000000000000e+03 1.919490623474121094e+01 1.099868679046630859e+01 -3.759612739086151123e-01 -1.113087773323059082e+00 -4.467147290706634521e-01 4.646794199943542480e-01
1.373000000000000000e+03 2.108871078491210938e+01 7.670300483703613281e+00 -2.273926734924316406e-01 -7.489809393882751465e-01 -2.929120659828186035e-01 4.079177379608154297e-01
1.374000000000000000e+03 1.086872673034667969e+01 -3.359205961227416992e+00 -1.454096200177446008e-04 -2.530124620534479618e-04 -1.195266304421238601e-04 7.388132507912814617e-04
1.375000000000000000e+03 9.542717933654785156e+00 -3.317562818527221680e+00 8.636983693577349186e-05 -5.201037856750190258e-04 -1.301201846217736602e-04 7.214794750325381756e-04
1.376000000000000000e+03 8.581849098205566406e+00 -2.038763427734375000e+01 -4.494737684726715088e-01 -3.833902776241302490e-01 -2.498592138290405273e-01 -5.641110539436340332e-01
1.377000000000000000e+03 7.870244979858398438e+00 -1.885084724426269531e+01 -4.900597035884857178e-01 -8.323877304792404175e-02 -1.719895452260971069e-01 -2.678931653499603271e-01
1.378000000000000000e+03 1.009447097778320312e+01 4.187340259552001953e+00 3.458986466284841299e-04 1.006057835184037685e-03 4.055869358126074076e-04 6.132928538136184216e-04
1.379000000000000000e+03 6.893780231475830078e-01 3.052726030349731445e+00 -7.009621640463592485e-06 -7.272270886460319161e-05 -2.391969792370218784e-05 -2.324586821487173438e-04
1.380000000000000000e+03 1.005577754974365234e+01 -6.073450565338134766e+00 -8.758239346207119524e-06 -1.050983206368982792e-03 -3.179224440827965736e-04 5.762430955655872822e-04
1.381000000000000000e+03 1.603992080688476562e+01 -1.884186553955078125e+01 -3.868018090724945068e-01 -3.469423949718475342e-01 -2.201232612133026123e-01 -3.946306109428405762e-01
1.382000000000000000e+03 1.620495605468750000e+01 -1.538741207122802734e+01 -6.186907887458801270e-01 -4.195964932441711426e-01 -3.114861845970153809e-01 -5.384630560874938965e-01
1.383000000000000000e+03 9.585596084594726562e+00 -1.992136192321777344e+01 -3.904245197772979736e-01 -6.178608536720275879e-01 -3.024856150150299072e-01 -6.050840020179748535e-01
1.384000000000000000e+03 1.967479705810546875e+01 -2.920834422111511230e-01 -1.017324998974800110e-02 -3.910368382930755615e-01 -1.203630268573760986e-01 1.644295454025268555e-01
1.385000000000000000e+03 1.999362373352050781e+01 -1.082810974121093750e+01 -6.016615033149719238e-01 -2.381921187043190002e-02 -1.876442134380340576e-01 -4.844111204147338867e-01
1.386000000000000000e+03 3.675912857055664062e+00 2.175135231018066406e+01 -8.699240535497665405e-02 -1.139031127095222473e-01 -6.026865541934967041e-02 1.442326307296752930e-01
1.387000000000000000e+03 7.509052276611328125e+01 -3.747081756591796875e+01 -8.226691186428070068e-02 8.185659408569335938e+00 2.431017637252807617e+00 -1.592425107955932617e-01
1.388000000000000000e+03 7.472962188720703125e+01 -3.506176757812500000e+01 -1.067106947302818298e-01 8.069955825805664062e+00 2.388973474502563477e+00 -2.299379408359527588e-01
1.389000000000000000e+03 7.545883941650390625e+01 -2.200257682800292969e+01 -1.436635851860046387e-02 7.373160362243652344e+00 2.207638263702392578e+00 -4.659866988658905029e-01
1.390000000000000000e+03 7.808708190917968750e+01 -2.908671569824218750e+01 -1.349726133048534393e-02 7.927073955535888672e+00 2.374073028564453125e+00 -1.728491932153701782e-01
1.391000000000000000e+03 7.531227874755859375e+01 1.420506286621093750e+01 -4.189731553196907043e-02 7.877246379852294922e+00 2.350604772567749023e+00 4.777607321739196777e-01
1.392000000000000000e+03 7.660924530029296875e+01 1.558833789825439453e+01 -2.428765036165714264e-02 8.010579109191894531e+00 2.395887613296508789e+00 3.525527417659759521e-01
1.393000000000000000e+03 7.763587188720703125e+01 3.573764801025390625e+01 -3.080216236412525177e-02 9.144654273986816406e+00 2.734155416488647461e+00 3.778100013732910156e-02
1.394000000000000000e+03 7.600884246826171875e+01 3.278950881958007812e+01 -2.794636785984039307e-02 8.821204185485839844e+00 2.637977361679077148e+00 1.128409653902053833e-01
1.395000000000000000e+03 7.802178192138671875e+01 -2.216263008117675781e+01 -3.694540122523903847e-03 7.271261215209960938e+00 2.180269956588745117e+00 -2.365660667419433594e-01
1.396000000000000000e+03 7.669683074951171875e+01 -2.351586341857910156e+01 -1.671652495861053467e-02 7.447334766387939453e+00 2.229185342788696289e+00 -3.552640974521636963e-01
1.397000000000000000e+03 7.679670715332031250e+01 -3.026233100891113281e+01 -3.444582223892211914e-02 7.963516712188720703e+00 2.378721237182617188e+00 -2.447973787784576416e-01
1.398000000000000000e+03 7.683429718017578125e+01 -2.900572013854980469e+01 -3.599410504102706909e-02 7.877952098846435547e+00 2.352587461471557617e+00 -2.710859477519989014e-01
1.399000000000000000e+03 7.535240936279296875e+01 -2.640111923217773438e+01 -4.978637397289276123e-02 7.689188003540039062e+00 2.291820526123046875e+00 -4.146521389484405518e-01
1.400000000000000000e+03 7.676641845703125000e+01 -2.771638870239257812e+01 -2.593810297548770905e-02 7.779896259307861328e+00 2.326187610626220703e+00 -2.953183054924011230e-01
1.401000000000000000e+03 7.668343353271484375e+01 -2.495000648498535156e+01 -2.242207340896129608e-02 7.569594860076904297e+00 2.264151811599731445e+00 -3.404929041862487793e-01
1.402000000000000000e+03 7.665572357177734375e+01 -3.152912902832031250e+01 -3.849015012383460999e-02 8.029515266418457031e+00 2.397307634353637695e+00 -2.256977409124374390e-01
1.403000000000000000e+03 7.640434265136718750e+01 -3.418278503417968750e+01 -5.651409178972244263e-02 8.137760162353515625e+00 2.424373626708984375e+00 -1.855132877826690674e-01
1.404000000000000000e+03 7.387474060058593750e+01 -3.070295715332031250e+01 -1.142121851444244385e-01 7.885357379913330078e+00 2.331343650817871094e+00 -3.904133439064025879e-01
1.405000000000000000e+03 7.488114166259765625e+01 -4.024773788452148438e+01 -6.522117555141448975e-02 8.204842567443847656e+00 2.441886425018310547e+00 -8.579508960247039795e-02
1.406000000000000000e+03 7.796272277832031250e+01 2.254925346374511719e+01 -1.348532829433679581e-02 8.638333320617675781e+00 2.587454319000244141e+00 1.580134928226470947e-01
1.407000000000000000e+03 7.659714508056640625e+01 1.987530708312988281e+01 -3.232859075069427490e-02 8.342982292175292969e+00 2.493196249008178711e+00 2.857162356376647949e-01
1.408000000000000000e+03 7.532582092285156250e+01 2.280435180664062500e+01 -4.937059059739112854e-02 8.413685798645019531e+00 2.509294748306274414e+00 3.056104183197021484e-01
1.409000000000000000e+03 7.660735321044921875e+01 2.128537368774414062e+01 -2.419713512063026428e-02 8.429771423339843750e+00 2.521672248840332031e+00 2.614147365093231201e-01
1.410000000000000000e+03 7.668515014648437500e+01 1.276706218719482422e+01 -1.858267746865749359e-02 7.762608051300048828e+00 2.323207616806030273e+00 3.825875222682952881e-01
1.411000000000000000e+03 7.545650482177734375e+01 8.658312797546386719e+00 -8.232392719946801662e-04 7.428406715393066406e+00 2.228275060653686523e+00 5.192986726760864258e-01
1.412000000000000000e+03 7.664615631103515625e+01 1.417447566986083984e+01 -2.420212328433990479e-02 7.891234874725341797e+00 2.360109806060791016e+00 3.685007691383361816e-01
1.413000000000000000e+03 7.655921173095703125e+01 2.410883522033691406e+01 -3.754878789186477661e-02 8.601516723632812500e+00 2.569190263748168945e+00 2.185554057359695435e-01
1.414000000000000000e+03 7.808054351806640625e+01 2.673803520202636719e+01 -5.667530465871095657e-03 8.902835845947265625e+00 2.669150590896606445e+00 1.042779684066772461e-01
1.415000000000000000e+03 7.804232788085937500e+01 -2.075487327575683594e+01 4.044841334689408541e-04 7.121747970581054688e+00 2.136645793914794922e+00 -2.367665618658065796e-01
1.416000000000000000e+03 7.672444152832031250e+01 -2.207970046997070312e+01 -7.559546735137701035e-03 7.320263862609863281e+00 2.193811178207397461e+00 -3.620521128177642822e-01
1.417000000000000000e+03 7.795007324218750000e+01 3.023021888732910156e+01 4.312246106564998627e-03 9.034246444702148438e+00 2.711567640304565430e+00 8.133330941200256348e-02
1.418000000000000000e+03 7.725315093994140625e+01 2.844391822814941406e+01 -2.801387198269367218e-02 8.855881690979003906e+00 2.648360490798950195e+00 1.316285729408264160e-01
1.419000000000000000e+03 7.564546203613281250e+01 -1.635806083679199219e+01 4.996038600802421570e-02 6.938695430755615234e+00 2.096596717834472656e+00 -4.133212268352508545e-01
1.420000000000000000e+03 7.558389282226562500e+01 -9.525284767150878906e+00 1.285739243030548096e-01 6.590633392333984375e+00 2.015762329101562500e+00 -1.563661247491836548e-01
1.421000000000000000e+03 7.689611816406250000e+01 -1.369330310821533203e+01 4.680232331156730652e-02 6.602189540863037109e+00 1.994697570800781250e+00 -2.609297037124633789e-01
1.422000000000000000e+03 7.548754882812500000e+01 -2.534181594848632812e+00 1.305684447288513184e-01 6.645306587219238281e+00 2.032762527465820312e+00 2.267736792564392090e-01
1.423000000000000000e+03 7.680735015869140625e+01 -8.156932830810546875e+00 7.514726370573043823e-02 6.372811794281005859e+00 1.934387803077697754e+00 -6.464496254920959473e-02
1.424000000000000000e+03 7.804984283447265625e+01 5.736655235290527344e+00 7.457244675606489182e-03 6.960387229919433594e+00 2.090353250503540039e+00 2.520110607147216797e-01
1.425000000000000000e+03 7.547216033935546875e+01 2.926194071769714355e-01 1.025587171316146851e-01 6.786887168884277344e+00 2.066833734512329102e+00 3.593895435333251953e-01
1.426000000000000000e+03 7.735984039306640625e+01 3.681224822998046875e+01 -4.658590629696846008e-02 9.136127471923828125e+00 2.726862430572509766e+00 3.136258199810981750e-02
1.427000000000000000e+03 7.804785919189453125e+01 7.126909255981445312e+00 3.471059957519173622e-03 7.118952751159667969e+00 2.136727094650268555e+00 2.587535083293914795e-01
1.428000000000000000e+03 7.674507904052734375e+01 5.822817325592041016e+00 1.679268665611743927e-02 7.085433959960937500e+00 2.130667924880981445e+00 3.881536424160003662e-01
1.429000000000000000e+03 7.677557373046875000e+01 -2.567976236343383789e+00 7.149311900138854980e-02 6.454141616821289062e+00 1.957690477371215820e+00 1.723819077014923096e-01
1.430000000000000000e+03 7.683442687988281250e+01 -9.543222427368164062e+00 6.987456977367401123e-02 6.401526451110839844e+00 1.941420316696166992e+00 -1.211970597505569458e-01
1.431000000000000000e+03 7.686215972900390625e+01 -1.645598602294921875e+01 2.815874852240085602e-02 6.815825462341308594e+00 2.053195238113403320e+00 -3.221152424812316895e-01
1.432000000000000000e+03 7.625224304199218750e+01 3.583467102050781250e+01 -5.577599257230758667e-02 8.906286239624023438e+00 2.655153036117553711e+00 9.388642758131027222e-02
1.433000000000000000e+03 7.659039306640625000e+01 1.844692993164062500e+01 -3.107660077512264252e-02 8.237077713012695312e+00 2.461800336837768555e+00 3.129442632198333740e-01
1.434000000000000000e+03 7.673888397216796875e+01 9.979037284851074219e+00 -7.168151438236236572e-03 7.494250297546386719e+00 2.246124744415283203e+00 3.987774550914764404e-01
1.435000000000000000e+03 7.812410736083984375e+01 -1.377822017669677734e+01 1.869562827050685883e-02 6.429113864898681641e+00 1.934342741966247559e+00 -1.715463399887084961e-01
1.436000000000000000e+03 7.688615417480468750e+01 -1.507075309753417969e+01 3.655478358268737793e-02 6.703322410583496094e+00 2.021963119506835938e+00 -2.944461107254028320e-01
1.437000000000000000e+03 7.807287597656250000e+01 -6.829849243164062500e+00 3.144850581884384155e-02 6.129524230957031250e+00 1.848291873931884766e+00 -4.742454271763563156e-03
1.438000000000000000e+03 7.805847167968750000e+01 1.562917113304138184e+00 1.876192539930343628e-02 6.530185699462890625e+00 1.964684367179870605e+00 2.034814506769180298e-01
1.439000000000000000e+03 7.677508544921875000e+01 -1.157572269439697266e+00 6.506465375423431396e-02 6.524765014648437500e+00 1.976948857307434082e+00 2.269626408815383911e-01
1.440000000000000000e+03 7.759605407714843750e+01 3.445510101318359375e+01 -2.131973579525947571e-02 9.116087913513183594e+00 2.728430509567260742e+00 6.096273660659790039e-02
1.441000000000000000e+03 7.675909423828125000e+01 1.647155880928039551e+00 4.648302868008613586e-02 6.716437816619873047e+00 2.028876304626464844e+00 3.151077330112457275e-01
1.442000000000000000e+03 7.674611663818359375e+01 4.434490680694580078e+00 2.657311409711837769e-02 6.955012321472167969e+00 2.094475746154785156e+00 3.714881837368011475e-01
1.443000000000000000e+03 7.677446746826171875e+01 -3.971555233001708984e+00 7.567998766899108887e-02 6.404263019561767578e+00 1.943982958793640137e+00 1.151635870337486267e-01
1.444000000000000000e+03 7.677657318115234375e+01 -5.376121044158935547e+00 7.720948755741119385e-02 6.373854637145996094e+00 1.935319304466247559e+00 5.455861985683441162e-02
1.445000000000000000e+03 7.686377716064453125e+01 -1.093014526367187500e+01 6.451410800218582153e-02 6.449709892272949219e+00 1.954267144203186035e+00 -1.738184541463851929e-01
1.446000000000000000e+03 7.568041229248046875e+01 -1.227182006835937500e+01 1.006966158747673035e-01 6.683302879333496094e+00 2.035199880599975586e+00 -2.836880087852478027e-01
1.447000000000000000e+03 7.675698089599609375e+01 -2.065775680541992188e+01 -3.486653731670230627e-04 7.191485404968261719e+00 2.157341003417968750e+00 -3.625872135162353516e-01
1.448000000000000000e+03 7.682765960693359375e+01 -1.784908485412597656e+01 1.731342077255249023e-02 6.937862396240234375e+00 2.086552619934082031e+00 -3.429159820079803467e-01
1.449000000000000000e+03 7.558997344970703125e+01 -1.774754714965820312e+01 3.407022729516029358e-02 7.043664932250976562e+00 2.123320579528808594e+00 -4.407431185245513916e-01
1.450000000000000000e+03 7.489254474639892578e+00 1.313609123229980469e+01 -2.969363937154412270e-03 7.214140146970748901e-03 1.273432862944900990e-03 8.338868618011474609e-03
1.451000000000000000e+03 1.150079154968261719e+01 8.065631866455078125e+00 -5.511810304597020149e-04 -1.797492965124547482e-03 -7.046021637506783009e-04 -1.075685839168727398e-03
1.452000000000000000e+03 1.299309349060058594e+01 7.326543807983398438e+00 -1.471939962357282639e-03 -1.115473103709518909e-03 -7.762239547446370125e-04 -1.101298374123871326e-03
1.453000000000000000e+03 1.861399650573730469e+01 1.446276664733886719e+01 -5.083497166633605957e-01 -8.560855984687805176e-01 -4.093305766582489014e-01 4.298961460590362549e-01
1.454000000000000000e+03 3.562187194824218750e+00 3.609132766723632812e+01 5.558274313807487488e-02 -7.307177186012268066e-01 -2.025405019521713257e-01 1.106451526284217834e-01
1.455000000000000000e+03 2.054347753524780273e+00 2.753972434997558594e+01 1.202612649649381638e-03 -4.097915589809417725e-01 -1.225766837596893311e-01 1.500978320837020874e-01
1.456000000000000000e+03 3.667011737823486328e+00 3.022174835205078125e+01 2.263898402452468872e-02 -5.188660621643066406e-01 -1.488681286573410034e-01 2.116216272115707397e-01
1.457000000000000000e+03 2.008769750595092773e+00 2.612543487548828125e+01 -6.128036766313016415e-04 -3.244068920612335205e-01 -9.750591218471527100e-02 1.464949548244476318e-01
1.458000000000000000e+03 3.449717044830322266e+00 2.743753051757812500e+01 7.036417257040739059e-03 -4.028767049312591553e-01 -1.187520846724510193e-01 2.293753325939178467e-01
1.459000000000000000e+03 6.755013465881347656e+00 3.011427116394042969e+01 8.591982722282409668e-02 -4.556510150432586670e-01 -1.109193563461303711e-01 2.974877655506134033e-01
1.460000000000000000e+03 3.797874927520751953e+00 3.166984367370605469e+01 3.606088086962699890e-02 -5.626561641693115234e-01 -1.579785794019699097e-01 1.950150877237319946e-01
1.461000000000000000e+03 3.560738086700439453e+00 2.881852722167968750e+01 1.787739060819149017e-02 -4.648510217666625977e-01 -1.340920925140380859e-01 2.206728309392929077e-01
1.462000000000000000e+03 6.069637775421142578e+00 3.840314865112304688e+01 9.816159307956695557e-02 -5.625700950622558594e-01 -1.393225491046905518e-01 1.045721322298049927e-01
1.463000000000000000e+03 3.978427171707153320e+00 3.468314361572265625e+01 6.841677427291870117e-02 -6.463963985443115234e-01 -1.733938902616500854e-01 1.479643583297729492e-01
1.464000000000000000e+03 4.048884391784667969e+00 3.317696762084960938e+01 5.006925761699676514e-02 -6.042702794075012207e-01 -1.662603169679641724e-01 1.812484264373779297e-01
1.465000000000000000e+03 3.501601934432983398e+00 -3.562018585205078125e+01 6.501505523920059204e-02 -8.546826839447021484e-01 -2.369002848863601685e-01 -1.163825914263725281e-01
1.466000000000000000e+03 4.010447502136230469e+00 -3.445940780639648438e+01 6.401339918375015259e-02 -7.576544880867004395e-01 -2.080923169851303101e-01 -1.662001460790634155e-01
1.467000000000000000e+03 3.692950487136840820e+00 -3.024953460693359375e+01 3.708988055586814880e-02 -6.364743113517761230e-01 -1.798153370618820190e-01 -2.328023910522460938e-01
1.468000000000000000e+03 2.120018720626831055e+00 -2.897900390625000000e+01 9.454011917114257812e-03 -6.226332187652587891e-01 -1.839537620544433594e-01 -1.648952960968017578e-01
1.469000000000000000e+03 4.812546253204345703e+00 -2.748138427734375000e+01 3.624222800135612488e-02 -5.068014860153198242e-01 -1.411677747964859009e-01 -3.187921643257141113e-01
1.470000000000000000e+03 3.305833578109741211e+00 2.313550949096679688e+01 -5.980747565627098083e-02 -1.766066700220108032e-01 -7.092424482107162476e-02 1.806070357561111450e-01
1.471000000000000000e+03 1.584728717803955078e+00 -1.343109035491943359e+01 2.735842252150177956e-03 4.091643728315830231e-03 2.048245631158351898e-03 7.807005196809768677e-03
1.472000000000000000e+03 1.784531474113464355e+00 2.044886016845703125e+01 -2.164862863719463348e-02 -2.895889617502689362e-02 -1.518225762993097305e-02 3.605695441365242004e-02
1.473000000000000000e+03 1.919125318527221680e+00 1.899566459655761719e+01 -1.670145057141780853e-02 -1.307023037225008011e-02 -8.931504562497138977e-03 1.587196253240108490e-02
1.474000000000000000e+03 5.574302196502685547e+00 1.827452850341796875e+01 -9.604891389608383179e-02 -3.450864180922508240e-02 -3.916726633906364441e-02 2.879913523793220520e-02
1.475000000000000000e+03 1.786454558372497559e+00 -1.892925453186035156e+01 -3.423931822180747986e-02 -1.711287163197994232e-02 -1.540565770119428635e-02 -2.529772743582725525e-02
1.476000000000000000e+03 3.582448005676269531e+00 -1.788946151733398438e+01 -6.919798254966735840e-02 -4.359830543398857117e-02 -3.383888676762580872e-02 -9.172210469841957092e-03
1.477000000000000000e+03 5.441255569458007812e+00 1.343049144744873047e+01 4.990575369447469711e-03 -1.249980553984642029e-02 -2.252768957987427711e-03 4.908350296318531036e-03
1.478000000000000000e+03 1.795076370239257812e+00 -2.179711532592773438e+01 -2.246963419020175934e-02 -1.341003924608230591e-01 -4.697100818157196045e-02 -1.060136109590530396e-01
1.479000000000000000e+03 6.851562500000000000e+00 -1.987870788574218750e+01 -3.166258335113525391e-01 -1.293715089559555054e-01 -1.337991952896118164e-01 -3.088743686676025391e-01
1.480000000000000000e+03 3.890523433685302734e+00 5.245857715606689453e+00 8.527182508260011673e-04 -6.313355697784572840e-06 2.539214619901031256e-04 2.255277286167256534e-05
1.481000000000000000e+03 2.535717248916625977e+00 7.616569995880126953e+00 -4.154095076955854893e-04 2.592090459074825048e-04 -4.686014290200546384e-05 -3.801760030910372734e-04
1.482000000000000000e+03 4.525730133056640625e+00 1.459195995330810547e+01 1.068889349699020386e-02 -1.797338761389255524e-02 -2.185348188504576683e-03 -1.473272801376879215e-03
1.483000000000000000e+03 1.884886026382446289e+00 1.748299789428710938e+01 -9.154897183179855347e-03 2.211370272561907768e-03 -2.083058003336191177e-03 -4.222628194838762283e-03
1.484000000000000000e+03 3.520683288574218750e+00 1.997528648376464844e+01 -6.771490722894668579e-02 -5.951103940606117249e-02 -3.816778212785720825e-02 6.712945550680160522e-02
1.485000000000000000e+03 2.592338562011718750e+00 8.921957969665527344e+00 1.979611348360776901e-03 4.787704529007896781e-05 6.082464824430644512e-04 -1.085258554667234421e-03
1.486000000000000000e+03 4.791477680206298828e+00 -4.324901103973388672e+00 -4.581511893775314093e-05 1.540314842713996768e-04 3.246490814490243793e-05 3.214574244339019060e-04
1.487000000000000000e+03 2.775840520858764648e+00 -4.545216560363769531e+00 -1.831680128816515207e-04 3.307164006400853395e-04 4.426451778272166848e-05 -2.599844592623412609e-04
1.488000000000000000e+03 1.947370886802673340e+00 -4.167356967926025391e+00 1.509361609350889921e-04 -3.888173378072679043e-04 -7.136435306165367365e-05 -2.951224087155424058e-05
1.489000000000000000e+03 2.705924034118652344e+00 -1.582588481903076172e+01 1.528842491097748280e-03 -1.408792193979024887e-02 -3.767723916098475456e-03 1.258956175297498703e-02
1.490000000000000000e+03 7.620607376098632812e+00 -9.248911857604980469e+00 5.540957863559015095e-05 2.380352932959794998e-03 7.307287305593490601e-04 -1.144399400800466537e-03
1.491000000000000000e+03 3.523219108581542969e+00 -2.887508773803710938e+01 3.079022653400897980e-02 -5.794396400451660156e-01 -1.645948290824890137e-01 -2.443964481353759766e-01
1.492000000000000000e+03 4.420542240142822266e+00 -3.770273208618164062e+01 6.441313773393630981e-02 -8.562210798263549805e-01 -2.375423908233642578e-01 -1.276756376028060913e-01
1.493000000000000000e+03 2.827496767044067383e+00 -7.960716247558593750e+00 7.520213257521390915e-04 -4.312024393584579229e-04 9.624566882848739624e-05 5.775261088274419308e-04
1.494000000000000000e+03 2.731614828109741211e+00 -3.461732864379882812e+01 3.470195084810256958e-02 -8.932137489318847656e-01 -2.575535476207733154e-01 -1.110743135213851929e-01
1.495000000000000000e+03 5.473336219787597656e+00 -3.483677673339843750e+01 1.034474223852157593e-01 -6.840254068374633789e-01 -1.741733998060226440e-01 -1.877809464931488037e-01
1.496000000000000000e+03 4.068911552429199219e+00 -3.313528060913085938e+01 5.095822364091873169e-02 -7.329875230789184570e-01 -2.046087831258773804e-01 -1.899760961532592773e-01
1.497000000000000000e+03 2.766986131668090820e+00 -2.025650596618652344e+01 -6.673499941825866699e-02 -9.478679299354553223e-02 -4.845653846859931946e-02 -1.047600880265235901e-01
1.498000000000000000e+03 1.911255359649658203e+00 -2.325882720947265625e+01 -1.851521618664264679e-02 -2.274970114231109619e-01 -7.380367070436477661e-02 -1.436208933591842651e-01
1.499000000000000000e+03 3.343424320220947266e+00 -2.616710662841796875e+01 3.877063747495412827e-03 -4.404156506061553955e-01 -1.309615671634674072e-01 -2.587648332118988037e-01
1.500000000000000000e+03 6.227800369262695312e+00 -2.522694396972656250e+01 -6.889484357088804245e-03 -4.374958872795104980e-01 -1.333156079053878784e-01 -3.927139341831207275e-01
1.501000000000000000e+03 2.629678249359130859e+00 -1.462380409240722656e+01 6.631385069340467453e-03 -9.812616743147373199e-03 -9.543694905005395412e-04 1.183306146413087845e-02
1.502000000000000000e+03 2.643387556076049805e+00 -1.344585132598876953e+01 5.889116786420345306e-03 -3.300590673461556435e-03 7.765578338876366615e-04 7.637335453182458878e-03
1.503000000000000000e+03 5.945050239562988281e+00 -9.942090034484863281e+00 7.261909195221960545e-04 1.532612834125757217e-03 6.776411319151520729e-04 -9.037416311912238598e-04
1.504000000000000000e+03 2.730666399002075195e+00 1.022918605804443359e+01 5.413791514001786709e-04 1.236584066646173596e-04 1.995112688746303320e-04 -1.956112915650010109e-03
1.505000000000000000e+03 3.277265548706054688e+00 1.441044044494628906e+01 7.290091365575790405e-03 -1.187780126929283142e-02 -1.376312924548983574e-03 -7.154877297580242157e-03
1.506000000000000000e+03 6.856729030609130859e+00 1.668061065673828125e+01 -1.473029423505067825e-02 -1.135380100458860397e-02 -7.825228385627269745e-03 8.787343278527259827e-03
1.507000000000000000e+03 5.626836776733398438e+00 1.674585151672363281e+01 -2.546796947717666626e-02 -3.095772303640842438e-02 -1.692770794034004211e-02 8.841768838465213776e-03
1.508000000000000000e+03 4.344236373901367188e+00 1.704971313476562500e+01 -2.532463148236274719e-02 -3.814725950360298157e-02 -1.904156617820262909e-02 5.824355874210596085e-03
1.509000000000000000e+03 5.356373310089111328e+00 1.539895725250244141e+01 5.349848070181906223e-04 -2.932426519691944122e-02 -8.636783808469772339e-03 5.016043316572904587e-03
1.510000000000000000e+03 7.466229915618896484e+00 1.511842250823974609e+01 9.707860299386084080e-04 1.513940747827291489e-02 4.833057988435029984e-03 2.086609974503517151e-02
1.511000000000000000e+03 4.148423671722412109e+00 -9.291952133178710938e+00 1.947718206793069839e-03 -1.800942700356245041e-03 4.403265120345167816e-05 2.692526322789490223e-04
1.512000000000000000e+03 9.269491195678710938e+00 -7.050022602081298828e+00 1.205090229632332921e-04 1.154894009232521057e-03 3.826209285762161016e-04 -5.060483235865831375e-04
1.513000000000000000e+03 8.380554199218750000e+00 -8.080758094787597656e+00 2.234991261502727866e-04 -1.352709718048572540e-03 -3.387632023077458143e-04 4.872888384852558374e-04
1.514000000000000000e+03 1.200392532348632812e+01 7.067269325256347656e+00 7.926459657028317451e-04 1.576196867972612381e-03 7.106528501026332378e-04 1.115702092647552490e-03
1.515000000000000000e+03 1.608741760253906250e+01 1.831040191650390625e+01 -4.898683726787567139e-01 -8.024505376815795898e-01 -3.876956701278686523e-01 4.054276049137115479e-01
1.516000000000000000e+03 2.057997512817382812e+01 9.440699815750122070e-01 -3.541100397706031799e-02 -4.797084331512451172e-01 -1.545358300209045410e-01 2.880935370922088623e-01
1.517000000000000000e+03 2.330076217651367188e+01 4.007090091705322266e+00 -9.427335858345031738e-02 -3.239887654781341553e-01 -1.254786401987075806e-01 4.453912079334259033e-01
1.518000000000000000e+03 1.949766921997070312e+01 1.322723770141601562e+01 -4.470139145851135254e-01 -8.314349055290222168e-01 -3.835346400737762451e-01 4.000580608844757080e-01
1.519000000000000000e+03 1.688627433776855469e+01 -1.416802597045898438e+01 -6.227275729179382324e-01 -3.536360859870910645e-01 -2.929090857505798340e-01 -5.439390540122985840e-01
1.520000000000000000e+03 1.753913879394531250e+01 -1.301056480407714844e+01 -6.084254384040832520e-01 -2.746605277061462402e-01 -2.649257779121398926e-01 -5.395011901855468750e-01
1.521000000000000000e+03 1.549483871459960938e+01 -1.663077735900878906e+01 -6.109783053398132324e-01 -4.505397677421569824e-01 -3.184554278850555420e-01 -5.236746072769165039e-01
1.522000000000000000e+03 2.119746780395507812e+01 9.314846038818359375e+00 -2.903912365436553955e-01 -6.672843694686889648e-01 -2.873026728630065918e-01 3.830774724483489990e-01
1.523000000000000000e+03 2.159733772277832031e+01 1.323859882354736328e+01 -3.415586650371551514e-01 -3.040435612201690674e-01 -1.936806589365005493e-01 2.127532213926315308e-01
1.524000000000000000e+03 1.083941841125488281e+01 -1.959800148010253906e+01 -3.930393159389495850e-01 -6.941120028495788574e-01 -3.261453807353973389e-01 -4.712550044059753418e-01
1.525000000000000000e+03 1.378399562835693359e+01 -2.012053871154785156e+01 -3.192693591117858887e-01 -5.036586523056030273e-01 -2.468784004449844360e-01 -4.113940298557281494e-01
1.526000000000000000e+03 1.986808967590332031e+01 -2.259114027023315430e+00 -2.075136639177799225e-02 -2.084754556417465210e-01 -6.876804679632186890e-02 1.359473019838333130e-01
1.527000000000000000e+03 1.901286888122558594e+01 1.642192268371582031e+01 -4.226326942443847656e-01 -5.593642592430114746e-01 -2.945990860462188721e-01 2.512645721435546875e-01
1.528000000000000000e+03 1.258931159973144531e+01 2.146792602539062500e+01 -2.165357917547225952e-01 -6.479593515396118164e-01 -2.593485414981842041e-01 4.440758526325225830e-01
1.529000000000000000e+03 1.134768390655517578e+01 2.020787620544433594e+01 -5.066295266151428223e-01 -5.994542241096496582e-01 -3.318251371383666992e-01 5.233753919601440430e-01
1.530000000000000000e+03 5.340612411499023438e+00 -9.094911575317382812e+00 9.961667237803339958e-04 9.362211567349731922e-04 5.797163466922938824e-04 -1.644478295929729939e-03
1.531000000000000000e+03 5.304724216461181641e+00 -1.101889705657958984e+01 3.835403360426425934e-03 -3.578986739739775658e-03 7.692496001254767179e-05 -3.783733118325471878e-03
1.532000000000000000e+03 4.874014854431152344e+00 4.044561386108398438e+01 4.397272691130638123e-02 -7.021756768226623535e-01 -1.974608898162841797e-01 6.268595159053802490e-02
1.533000000000000000e+03 4.546977615356445312e+01 -8.397811889648437500e+00 3.083227157592773438e+00 4.423243045806884766e+00 2.251941204071044922e+00 4.721572399139404297e+00
1.534000000000000000e+03 4.636357879638671875e+01 -8.456985473632812500e+00 2.569082498550415039e+00 9.863449096679687500e+00 3.729759454727172852e+00 6.215106010437011719e+00
1.535000000000000000e+03 4.511087799072265625e+01 -4.299282073974609375e+00 2.958738565444946289e+00 3.434135437011718750e+00 1.917862176895141602e+00 -4.004061698913574219e+00
1.536000000000000000e+03 4.612746429443359375e+01 -3.657469987869262695e+00 2.096653223037719727e+00 8.738888740539550781e+00 3.250662565231323242e+00 -5.256169319152832031e+00
1.537000000000000000e+03 4.904135894775390625e+01 -7.157413482666015625e+00 8.794886589050292969e+00 1.587487697601318359e+01 7.400928974151611328e+00 -2.049098968505859375e+00
1.538000000000000000e+03 4.785363769531250000e+01 -8.395008087158203125e+00 1.565093517303466797e+00 1.831058502197265625e+01 5.962703704833984375e+00 1.482509732246398926e+00
1.539000000000000000e+03 4.865232467651367188e+01 -8.179718017578125000e+00 3.797104835510253906e+00 1.756507110595703125e+01 6.408652782440185547e+00 -1.425747394561767578e+00
1.540000000000000000e+03 4.872642135620117188e+01 -6.963440895080566406e+00 1.028418350219726562e+01 1.702047538757324219e+01 8.191397666931152344e+00 -2.065929889678955078e+00
1.541000000000000000e+03 4.930491256713867188e+01 -5.981916904449462891e+00 9.155081748962402344e+00 1.463216209411621094e+01 7.136173248291015625e+00 1.122446298599243164e+00
1.542000000000000000e+03 4.806015014648437500e+01 -4.456002235412597656e+00 2.190505027770996094e+00 1.800818061828613281e+01 6.059605598449707031e+00 -6.166739463806152344e-01
1.543000000000000000e+03 4.783256149291992188e+01 -4.210473537445068359e+00 1.376600146293640137e+00 1.728920173645019531e+01 5.599740505218505859e+00 -1.920415043830871582e+00
1.544000000000000000e+03 4.857069015502929688e+01 -4.729273796081542969e+00 3.980011940002441406e+00 1.779069709777832031e+01 6.531212806701660156e+00 1.332860469818115234e+00
1.545000000000000000e+03 4.544697952270507812e+01 -8.114926338195800781e+00 2.998083829879760742e+00 3.576204299926757812e+00 1.972286462783813477e+00 4.239389896392822266e+00
1.546000000000000000e+03 4.392848968505859375e+01 -4.104530811309814453e+00 1.860459446907043457e+00 1.517090678215026855e+00 1.013265013694763184e+00 -2.329743146896362305e+00
1.547000000000000000e+03 4.416819381713867188e+01 -4.398861408233642578e+00 1.910033583641052246e+00 1.436583280563354492e+00 1.003985047340393066e+00 -2.283053398132324219e+00
1.548000000000000000e+03 4.300512695312500000e+01 -3.848418474197387695e+00 1.251417040824890137e+00 9.933263659477233887e-01 6.734230518341064453e-01 -1.644994258880615234e+00
1.549000000000000000e+03 4.151549911499023438e+01 -3.307537794113159180e+00 6.827913522720336914e-01 7.277855873107910156e-01 4.231730699539184570e-01 -1.038796305656433105e+00
1.550000000000000000e+03 4.374054718017578125e+01 -3.686732053756713867e+00 1.852241039276123047e+00 1.820491671562194824e+00 1.101819872856140137e+00 -2.484760522842407227e+00
1.551000000000000000e+03 4.249457931518554688e+01 -3.348077297210693359e+00 1.191514372825622559e+00 1.039157152175903320e+00 6.692014336585998535e-01 -1.585917353630065918e+00
1.552000000000000000e+03 4.080392837524414062e+01 -3.759454011917114258e+00 6.083095818758010864e-02 3.292369246482849121e-01 1.170203611254692078e-01 -5.619797706604003906e-01
1.553000000000000000e+03 4.299561309814453125e+01 -3.366266012191772461e+00 1.480227589607238770e+00 1.449732184410095215e+00 8.789879083633422852e-01 -1.978516817092895508e+00
1.554000000000000000e+03 2.082063674926757812e+01 3.395805120468139648e+00 -8.047057688236236572e-02 -6.537266969680786133e-01 -2.202591896057128906e-01 3.580344915390014648e-01
1.555000000000000000e+03 2.561186790466308594e+01 -3.407999038696289062e+00 -3.572589457035064697e-01 -4.977529123425483704e-02 -1.221102699637413025e-01 3.589098453521728516e-01
1.556000000000000000e+03 2.445422935485839844e+01 -2.474918365478515625e+00 -2.341853231191635132e-01 -1.039351373910903931e-01 -1.014361381530761719e-01 3.835924267768859863e-01
1.557000000000000000e+03 1.978010177612304688e+01 -1.366034626960754395e+00 -2.073637768626213074e-02 -2.856281399726867676e-01 -9.190935641527175903e-02 1.578460037708282471e-01
1.558000000000000000e+03 2.701963424682617188e+01 -3.536822319030761719e+00 -4.598902463912963867e-01 -1.884053647518157959e-02 -1.436192393302917480e-01 3.686297237873077393e-01
1.559000000000000000e+03 2.513067436218261719e+01 -2.613447904586791992e+00 -2.769334316253662109e-01 -7.867937535047531128e-02 -1.066838428378105164e-01 3.946595489978790283e-01
1.560000000000000000e+03 2.843011856079101562e+01 -3.591873884201049805e+00 -5.563836693763732910e-01 5.235967226326465607e-03 -1.653443127870559692e-01 3.685069680213928223e-01
1.561000000000000000e+03 2.719055747985839844e+01 -2.877054214477539062e+00 -4.015931487083435059e-01 -1.925923675298690796e-02 -1.262557208538055420e-01 4.064579308032989502e-01
1.562000000000000000e+03 8.612890243530273438e+00 4.164435386657714844e+00 3.289016894996166229e-04 1.037437352351844311e-03 4.099016950931400061e-04 4.835174186155200005e-04
1.563000000000000000e+03 4.292228317260742188e+01 -9.471309661865234375e+00 9.970724582672119141e-01 1.315512061119079590e+00 6.937753558158874512e-01 1.880974411964416504e+00
1.564000000000000000e+03 2.787959480285644531e+01 -2.910629034042358398e+00 -4.381788372993469238e-01 -3.726084949448704720e-03 -1.325714737176895142e-01 4.063532352447509766e-01
1.565000000000000000e+03 2.984940719604492188e+01 -3.598406791687011719e+00 -6.412675380706787109e-01 2.524053864181041718e-02 -1.848080903291702271e-01 3.582154512405395508e-01
1.566000000000000000e+03 8.903877258300781250e+00 -3.267760753631591797e+00 -7.633898349013179541e-05 2.302718494320288301e-04 4.617985905497334898e-05 -3.747616137843579054e-04
1.567000000000000000e+03 7.919795989990234375e+00 4.131164073944091797e+00 2.287139795953407884e-05 -9.479700238443911076e-04 -2.775295870378613472e-04 -3.464209148660302162e-04
1.568000000000000000e+03 7.112253665924072266e+00 4.852082729339599609e+00 3.136627201456576586e-04 -9.944139746949076653e-04 -2.042253618128597736e-04 9.784145368030294776e-05
1.569000000000000000e+03 3.619055986404418945e+00 6.317625045776367188e+00 -2.719697658903896809e-04 -1.173723212559707463e-04 -1.168026210507377982e-04 -9.276397031499072909e-05
1.570000000000000000e+03 2.407096385955810547e+00 4.886521816253662109e+00 -3.892577078659087420e-04 -1.001816708594560623e-04 -1.468318077968433499e-04 4.682040525949560106e-05
1.571000000000000000e+03 1.380565047264099121e+00 4.990332126617431641e+00 3.496151184663176537e-04 5.603037425316870213e-05 1.216936434502713382e-04 1.621621595404576510e-05
1.572000000000000000e+03 1.694719910621643066e+00 3.396903276443481445e+00 -1.265427126782014966e-04 -8.752530993660911918e-05 -6.422040314646437764e-05 -9.057303395820781589e-05
1.573000000000000000e+03 3.129411125183105469e+01 -3.579171895980834961e+00 -7.080476284027099609e-01 4.117961600422859192e-02 -2.000603973865509033e-01 3.350405097007751465e-01
1.574000000000000000e+03 3.067803764343261719e+01 -2.901509284973144531e+00 -5.413748025894165039e-01 4.923343658447265625e-02 -1.476424187421798706e-01 3.719555735588073730e-01
1.575000000000000000e+03 2.536194801330566406e+01 -1.931422352790832520e+00 -2.442769855260848999e-01 -8.492805063724517822e-02 -9.876150637865066528e-02 4.291737973690032959e-01
1.576000000000000000e+03 2.309546279907226562e+01 -2.165372848510742188e+00 -1.561647504568099976e-01 -1.588913649320602417e-01 -9.451683610677719116e-02 3.475605249404907227e-01
1.577000000000000000e+03 2.812597846984863281e+01 -1.622778296470642090e+00 -2.952856421470642090e-01 1.216428074985742569e-02 -8.493641018867492676e-02 4.450437128543853760e-01
1.578000000000000000e+03 3.275376129150390625e+01 -3.551788091659545898e+00 -7.490617036819458008e-01 5.557553470134735107e-02 -2.080458551645278931e-01 2.969793081283569336e-01
1.579000000000000000e+03 3.005960655212402344e+01 -2.236325263977050781e+00 -4.083072841167449951e-01 5.374808982014656067e-02 -1.063677594065666199e-01 4.000703096389770508e-01
1.580000000000000000e+03 7.473152637481689453e+00 -3.336000919342041016e+00 7.492623990401625633e-05 1.911380531964823604e-04 7.981929229572415352e-05 -3.766299050766974688e-04
1.581000000000000000e+03 1.074587821960449219e+01 -5.161754131317138672e+00 2.039451792370527983e-04 6.964519852772355080e-04 2.701191406231373549e-04 -4.352899559307843447e-04
1.582000000000000000e+03 3.423516845703125000e+01 -3.529567241668701172e+00 -7.561557292938232422e-01 7.194811105728149414e-02 -2.052622884511947632e-01 2.390090823173522949e-01
1.583000000000000000e+03 3.285156250000000000e+01 -2.849541187286376953e+00 -5.530176758766174316e-01 8.395636826753616333e-02 -1.407184004783630371e-01 2.981276512145996094e-01
1.584000000000000000e+03 3.572837448120117188e+01 -3.527813196182250977e+00 -7.190176844596862793e-01 9.348882734775543213e-02 -1.876586675643920898e-01 1.545778959989547729e-01
1.585000000000000000e+03 3.212409973144531250e+01 -2.865971803665161133e+00 -5.561392903327941895e-01 7.178661972284317017e-02 -1.453058123588562012e-01 3.281050920486450195e-01
1.586000000000000000e+03 4.080173873901367188e+01 -1.100672149658203125e+01 5.311908125877380371e-01 1.050022602081298828e+00 4.743640124797821045e-01 1.319590687751770020e+00
1.587000000000000000e+03 4.005854034423828125e+01 -1.039345169067382812e+01 4.672712832689285278e-02 5.810601711273193359e-01 1.883361935615539551e-01 8.207604885101318359e-01
1.588000000000000000e+03 3.293794250488281250e+01 -2.132338047027587891e+00 -3.632088601589202881e-01 1.223386451601982117e-01 -7.226106524467468262e-02 2.793813049793243408e-01
1.589000000000000000e+03 3.932418060302734375e+01 -1.045387077331542969e+01 -1.591306179761886597e-01 4.559105038642883301e-01 8.903396874666213989e-02 6.214107871055603027e-01
1.590000000000000000e+03 3.930437088012695312e+01 -9.771656990051269531e+00 -5.430942177772521973e-01 2.873899936676025391e-01 -7.671126723289489746e-02 4.102326333522796631e-01
1.591000000000000000e+03 3.941654205322265625e+01 -3.665863037109375000e+00 -3.142448663711547852e-01 2.116096317768096924e-01 -3.079057484865188599e-02 -2.509276270866394043e-01
1.592000000000000000e+03 3.783823013305664062e+01 -1.056442546844482422e+01 -4.820219278335571289e-01 2.910137772560119629e-01 -5.730244517326354980e-02 3.210102021694183350e-01
1.593000000000000000e+03 3.795608139038085938e+01 -3.588447570800781250e+00 -5.473206639289855957e-01 1.438947170972824097e-01 -1.210277825593948364e-01 -4.166187718510627747e-02
1.594000000000000000e+03 3.518210983276367188e+01 -2.142118692398071289e+00 -2.380785793066024780e-01 1.963432878255844116e-01 -1.252058707177639008e-02 1.031464114785194397e-01
1.595000000000000000e+03 3.556735610961914062e+01 -9.969090461730957031e+00 -1.114479780197143555e+00 8.521038293838500977e-02 -3.087808191776275635e-01 -4.940990731120109558e-02
1.596000000000000000e+03 3.711285781860351562e+01 -1.133380126953125000e+01 -3.005182743072509766e-01 3.550937473773956299e-01 1.637263782322406769e-02 3.396266996860504150e-01
1.597000000000000000e+03 1.098158836364746094e+01 3.389256000518798828e+00 5.363088566809892654e-04 5.054239882156252861e-04 3.125198709312826395e-04 6.091516115702688694e-04
1.598000000000000000e+03 1.165968513488769531e+01 5.023482322692871094e+00 -4.851142293773591518e-04 -1.106337876990437508e-03 -4.774356493726372719e-04 -1.201369799673557281e-03
1.599000000000000000e+03 3.806983566284179688e+01 -2.953648090362548828e+00 -1.888929158449172974e-01 2.402435690164566040e-01 1.540519576519727707e-02 -1.657368838787078857e-01
1.600000000000000000e+03 3.658795166015625000e+01 -2.873266220092773438e+00 -3.670729994773864746e-01 1.760161370038986206e-01 -5.731706321239471436e-02 2.575850673019886017e-02
1.601000000000000000e+03 3.330895233154296875e+01 -1.076467037200927734e+01 -9.480785727500915527e-01 8.210933953523635864e-02 -2.597907781600952148e-01 -1.533438861370086670e-01
1.602000000000000000e+03 3.406707763671875000e+01 -1.074487781524658203e+01 -9.087136983871459961e-01 1.025061979889869690e-01 -2.418622523546218872e-01 -9.976582229137420654e-02
1.603000000000000000e+03 3.633908081054687500e+01 -1.065491867065429688e+01 -7.052126526832580566e-01 1.894775331020355225e-01 -1.547205299139022827e-01 1.108896508812904358e-01
1.604000000000000000e+03 2.949762153625488281e+01 -1.087020874023437500e+01 -9.772552847862243652e-01 3.577241674065589905e-02 -2.824448645114898682e-01 -3.385166227817535400e-01
1.605000000000000000e+03 3.026561737060546875e+01 -1.084819221496582031e+01 -9.885106682777404785e-01 3.779105469584465027e-02 -2.852158844470977783e-01 -3.094495832920074463e-01
1.606000000000000000e+03 3.178040695190429688e+01 -1.007455730438232422e+01 -1.229900956153869629e+00 2.496971748769283295e-02 -3.614793717861175537e-01 -2.478969097137451172e-01
1.607000000000000000e+03 3.179092025756835938e+01 -1.080768871307373047e+01 -9.900350570678710938e-01 5.563171952962875366e-02 -2.803210020065307617e-01 -2.407787293195724487e-01
1.608000000000000000e+03 1.080478000640869141e+01 4.987339496612548828e+00 1.883120712591335177e-04 1.413863734342157841e-03 4.806527285836637020e-04 8.592779631726443768e-04
1.609000000000000000e+03 2.717128372192382812e+01 -1.087544059753417969e+01 -9.156472682952880859e-01 3.633798286318778992e-02 -2.637927830219268799e-01 -4.110614359378814697e-01
1.610000000000000000e+03 9.832360267639160156e+00 -4.605432033538818359e+00 2.517124521546065807e-04 -1.010683597996830940e-03 -2.276913583045825362e-04 3.082289767917245626e-04
1.611000000000000000e+03 4.588765621185302734e+00 -3.562251091003417969e+00 3.367676981724798679e-05 6.507615034934133291e-05 2.962587677757255733e-05 -3.371624043211340904e-04
1.612000000000000000e+03 6.211298942565917969e+00 -4.816743373870849609e+00 5.170726581127382815e-05 3.089187084697186947e-04 1.081877926480956376e-04 -2.190324303228408098e-04
1.613000000000000000e+03 6.841051101684570312e+00 -4.701014995574951172e+00 2.366743428865447640e-04 -3.284486592747271061e-04 -2.753229819063562900e-05 3.591531713027507067e-04
1.614000000000000000e+03 8.217898368835449219e+00 -3.336399555206298828e+00 -8.985678141470998526e-05 -7.625070429639890790e-05 -4.983224425814114511e-05 4.113674513064324856e-04
1.615000000000000000e+03 4.075788021087646484e+00 -7.906925678253173828e+00 7.142209215089678764e-04 4.982014070264995098e-04 3.637266927398741245e-04 -4.182103730272501707e-04
1.616000000000000000e+03 3.218508243560791016e+00 -3.956436634063720703e+00 1.826741754484828562e-05 -1.415761507814750075e-04 -3.699261651490814984e-05 -2.793273888528347015e-04
1.617000000000000000e+03 3.620926380157470703e+00 -5.583409786224365234e+00 1.393211132381111383e-04 9.308222070103511214e-05 6.972099799895659089e-05 -3.177482285536825657e-04
1.618000000000000000e+03 2.676605939865112305e+00 -5.549377441406250000e+00 1.177853337139822543e-04 -7.361736788880079985e-05 1.325038920185761526e-05 3.068225341849029064e-04
1.619000000000000000e+03 3.103135299682617188e+01 -1.082729816436767578e+01 -9.926213026046752930e-01 4.745384305715560913e-02 -2.835502326488494873e-01 -2.768295407295227051e-01
1.620000000000000000e+03 2.871618461608886719e+01 -1.012228298187255859e+01 -1.137124061584472656e+00 1.176066603511571884e-02 -3.376090228557586670e-01 -3.392131030559539795e-01
1.621000000000000000e+03 2.318217468261718750e+01 -1.074457931518554688e+01 -7.566044926643371582e-01 6.290102005004882812e-02 -2.081110328435897827e-01 -4.807033836841583252e-01
1.622000000000000000e+03 2.397853088378906250e+01 -1.077268505096435547e+01 -7.919985055923461914e-01 6.185242906212806702e-02 -2.190438210964202881e-01 -4.740928113460540771e-01
1.623000000000000000e+03 4.022673797607421875e+01 -3.130001783370971680e+00 2.600789964199066162e-01 4.499213099479675293e-01 2.130000889301300049e-01 -6.174497604370117188e-01
1.624000000000000000e+03 2.559404182434082031e+01 -1.006063747406005859e+01 -9.614747762680053711e-01 3.550581261515617371e-02 -2.777906954288482666e-01 -4.023784697055816650e-01
1.625000000000000000e+03 2.872807121276855469e+01 -1.088511943817138672e+01 -9.579879641532897949e-01 3.098369948565959930e-02 -2.781012654304504395e-01 -3.664404451847076416e-01
1.626000000000000000e+03 1.174602317810058594e+01 4.176085472106933594e+00 7.709537167102098465e-04 6.265880074352025986e-04 4.192625056020915508e-04 9.103426127694547176e-04
1.627000000000000000e+03 2.795289611816406250e+01 -1.088643836975097656e+01 -9.389783740043640137e-01 3.321735560894012451e-02 -2.717283070087432861e-01 -3.873558044433593750e-01
1.628000000000000000e+03 1.815451431274414062e+01 -1.196277046203613281e+01 -5.763059258460998535e-01 -2.022060006856918335e-01 -2.335535883903503418e-01 -5.214973092079162598e-01
1.629000000000000000e+03 2.478108215332031250e+01 -1.079975032806396484e+01 -8.270428180694580078e-01 5.796132609248161316e-02 -2.307244539260864258e-01 -4.603035748004913330e-01
1.630000000000000000e+03 2.245718002319335938e+01 -9.894917488098144531e+00 -7.423396110534667969e-01 5.387121438980102539e-02 -2.065405100584030151e-01 -4.319079816341400146e-01
1.631000000000000000e+03 2.098312187194824219e+01 -1.051125431060791016e+01 -6.479673385620117188e-01 2.280792035162448883e-02 -1.875478327274322510e-01 -4.769023954868316650e-01
1.632000000000000000e+03 4.363325881958007812e+01 -9.981934547424316406e+00 1.462017059326171875e+00 2.505130529403686523e+00 1.190144300460815430e+00 2.783901929855346680e+00
1.633000000000000000e+03 1.873879051208496094e+01 -1.105087852478027344e+01 -5.451917052268981934e-01 -1.367427110671997070e-01 -2.045803219079971313e-01 -4.863231182098388672e-01
1.634000000000000000e+03 1.932431793212890625e+01 -1.026349258422851562e+01 -5.298262834548950195e-01 -6.887258589267730713e-02 -1.796096712350845337e-01 -4.415982663631439209e-01
1.635000000000000000e+03 1.016093254089355469e+01 1.001322460174560547e+01 -2.756611793301999569e-04 -1.503385254181921482e-03 -5.337139009498059750e-04 -6.068832008168101311e-04
1.636000000000000000e+03 1.000080013275146484e+01 8.494397163391113281e+00 4.334312689024955034e-04 -1.372586004436016083e-03 -2.817464119289070368e-04 -1.109689619624987245e-04
1.637000000000000000e+03 2.961012125015258789e+00 1.156079196929931641e+01 5.274324677884578705e-03 -1.435059122741222382e-03 1.151779666543006897e-03 -3.235597629100084305e-03
1.638000000000000000e+03 6.672602653503417969e+00 1.830939674377441406e+01 -1.439828425645828247e-01 -1.872010156512260437e-02 -4.881088435649871826e-02 3.345131501555442810e-02
1.639000000000000000e+03 3.105896711349487305e+00 1.728262519836425781e+01 -1.747185178101062775e-02 -2.216179855167865753e-02 -1.189009565860033035e-02 -1.500041456893086433e-03
1.640000000000000000e+03 9.993167877197265625e+00 5.002084255218505859e+00 -7.639944669790565968e-05 -1.192394993267953396e-03 -3.806383465416729450e-04 -5.279761971905827522e-04
1.641000000000000000e+03 4.131660461425781250e+00 1.113537025451660156e+01 2.464359160512685776e-03 -3.538509830832481384e-03 -3.222451778128743172e-04 -1.009353785775601864e-03
1.642000000000000000e+03 7.611535072326660156e+00 -2.506208419799804688e+01 1.049467641860246658e-02 -4.651069045066833496e-01 -1.363836675882339478e-01 -4.333676099777221680e-01
1.643000000000000000e+03 7.829198837280273438e+00 -2.302383995056152344e+01 -1.239198446273803711e-01 -4.146441221237182617e-01 -1.615691930055618286e-01 -4.705800116062164307e-01
1.644000000000000000e+03 2.859194517135620117e+00 -1.904478836059570312e+01 -6.285389512777328491e-02 -4.495988413691520691e-02 -3.234413266181945801e-02 -5.848031491041183472e-02
1.645000000000000000e+03 6.110826969146728516e+00 -1.859270286560058594e+01 -2.936638593673706055e-01 -3.590396046638488770e-02 -9.887035191059112549e-02 -1.181095466017723083e-01
1.646000000000000000e+03 9.165722846984863281e+00 -3.951169252395629883e+00 -3.092635888606309891e-04 7.632944616489112377e-04 1.362092589261010289e-04 3.456469858065247536e-04
1.647000000000000000e+03 7.674222469329833984e+00 -2.115654373168945312e+01 -2.927100360393524170e-01 -2.914641201496124268e-01 -1.752522438764572144e-01 -4.519513547420501709e-01
1.648000000000000000e+03 2.241742897033691406e+01 7.485368728637695312e+00 -2.108478993177413940e-01 -4.446420967578887939e-01 -1.966470032930374146e-01 3.921707272529602051e-01
1.649000000000000000e+03 2.105050849914550781e+01 6.160400867462158203e+00 -1.622760742902755737e-01 -7.527708411216735840e-01 -2.745140790939331055e-01 3.989914059638977051e-01
1.650000000000000000e+03 2.053441810607910156e+01 -1.247592195868492126e-01 -3.134426102042198181e-02 -3.880326449871063232e-01 -1.258130669593811035e-01 2.553884983062744141e-01
1.651000000000000000e+03 9.272800445556640625e+00 9.366859436035156250e+00 -2.139697171514853835e-04 2.029586583375930786e-03 5.446850555017590523e-04 4.259235865902155638e-04
1.652000000000000000e+03 1.257766914367675781e+01 5.046703338623046875e+00 9.848161134868860245e-04 6.435126415453851223e-04 4.884985974058508873e-04 9.937204886227846146e-04
1.653000000000000000e+03 8.201451301574707031e+00 -5.027315616607666016e+00 2.704243815969675779e-04 -9.548166417516767979e-04 -2.053176722256466746e-04 4.191833431832492352e-04
1.654000000000000000e+03 8.468743324279785156e+00 1.203346729278564453e+01 -4.026956594316288829e-05 2.102000871673226357e-03 6.185193778946995735e-04 -8.916265505831688643e-05
1.655000000000000000e+03 5.825246334075927734e+00 1.146267223358154297e+01 2.876933896914124489e-03 -5.346220917999744415e-03 -7.407860248349606991e-04 3.097730921581387520e-03
1.656000000000000000e+03 1.377740097045898438e+01 2.048078918457031250e+01 -3.316450715065002441e-01 -7.191246747970581055e-01 -3.152309060096740723e-01 4.137417078018188477e-01
1.657000000000000000e+03 7.537893676757812500e+01 1.279676532745361328e+01 -3.507044911384582520e-02 7.771124839782714844e+00 2.320816278457641602e+00 4.920347929000854492e-01
1.658000000000000000e+03 7.548719787597656250e+01 -1.120900630950927734e+00 1.178652867674827576e-01 6.707378387451171875e+00 2.047573089599609375e+00 2.959529459476470947e-01
1.659000000000000000e+03 7.568282318115234375e+01 -1.498731994628906250e+01 6.792669743299484253e-02 6.840236186981201172e+00 2.072448730468750000e+00 -3.777643740177154541e-01
1.660000000000000000e+03 7.452919006347656250e+01 -1.359294033050537109e+01 1.284851282835006714e-01 6.888884067535400391e+00 2.105210781097412109e+00 -3.965682685375213623e-01
1.661000000000000000e+03 7.569571685791015625e+01 -1.362983798980712891e+01 8.253677934408187866e-02 6.754838466644287109e+00 2.051212549209594727e+00 -3.341707587242126465e-01
1.662000000000000000e+03 7.688775634765625000e+01 -1.231438541412353516e+01 5.514829233288764954e-02 6.516843318939208984e+00 1.971597552299499512e+00 -2.204480171203613281e-01
1.663000000000000000e+03 7.678743743896484375e+01 -6.772713661193847656e+00 7.645867019891738892e-02 6.363678932189941406e+00 1.932041287422180176e+00 -5.679352674633264542e-03
1.664000000000000000e+03 7.553020477294921875e+01 -8.140158653259277344e+00 1.361878961324691772e-01 6.570074558258056641e+00 2.011878728866577148e+00 -8.317268639802932739e-02
1.665000000000000000e+03 7.548130035400390625e+01 -3.940507173538208008e+00 1.384356468915939331e-01 6.600770473480224609e+00 2.021761894226074219e+00 1.508693993091583252e-01
1.666000000000000000e+03 7.417927551269531250e+01 3.406266021728515625e+01 -4.503640159964561462e-02 8.625316619873046875e+00 2.574084281921386719e+00 1.184580847620964050e-01
1.667000000000000000e+03 7.613970947265625000e+01 3.120512962341308594e+01 -1.594240404665470123e-02 8.820366859436035156e+00 2.641327381134033203e+00 1.256154179573059082e-01
1.668000000000000000e+03 7.446113586425781250e+01 -1.625686264038085938e+01 8.036943525075912476e-02 7.047370433807373047e+00 2.138322114944458008e+00 -4.893455803394317627e-01
1.669000000000000000e+03 7.541281127929687500e+01 -2.346232414245605469e+01 -2.699164859950542450e-02 7.483881950378417969e+00 2.237066984176635742e+00 -4.577155113220214844e-01
1.670000000000000000e+03 7.544929504394531250e+01 1.699688434600830078e+00 8.361181616783142090e-02 6.879631042480468750e+00 2.088972806930541992e+00 4.115254580974578857e-01
1.671000000000000000e+03 7.675096893310546875e+01 3.042884588241577148e+00 3.568711504340171814e-02 6.831879615783691406e+00 2.060270071029663086e+00 3.469659090042114258e-01
1.672000000000000000e+03 7.547917938232421875e+01 -5.350481986999511719e+00 1.416145712137222290e-01 6.575186729431152344e+00 2.015040397644042969e+00 7.302602380514144897e-02
1.673000000000000000e+03 7.674714660644531250e+01 8.595683097839355469e+00 8.897198131307959557e-05 7.356509208679199219e+00 2.206979513168334961e+00 4.006616771221160889e-01
1.674000000000000000e+03 7.544565582275390625e+01 7.282004356384277344e+00 1.452925987541675568e-02 7.312288284301757812e+00 2.198045253753662109e+00 5.166531205177307129e-01
1.675000000000000000e+03 7.524467468261718750e+01 1.563821315765380859e+01 -4.930640384554862976e-02 7.982216358184814453e+00 2.379873037338256836e+00 4.560021162033081055e-01
1.676000000000000000e+03 7.553324890136718750e+01 -1.915048027038574219e+01 1.582462899386882782e-02 7.153538703918457031e+00 2.150809049606323242e+00 -4.589298963546752930e-01
1.677000000000000000e+03 7.679147338867187500e+01 -1.925004577636718750e+01 9.356154128909111023e-03 7.063406467437744141e+00 2.121828794479370117e+00 -3.557887673377990723e-01
1.678000000000000000e+03 7.549266052246093750e+01 -2.056477165222167969e+01 1.773756230250000954e-03 7.262526035308837891e+00 2.179289817810058594e+00 -4.663569927215576172e-01
1.679000000000000000e+03 7.543317413330078125e+01 3.103374242782592773e+00 6.554035842418670654e-02 6.979809284210205078e+00 2.113605022430419922e+00 4.536367952823638916e-01
1.680000000000000000e+03 7.409398651123046875e+01 3.138891458511352539e+00 1.005434468388557434e-01 7.114488601684570312e+00 2.164509534835815430e+00 5.466213226318359375e-01
1.681000000000000000e+03 7.543302917480468750e+01 5.892748355865478516e+00 3.065739758312702179e-02 7.197455883026123047e+00 2.168433904647827148e+00 5.047886371612548828e-01
1.682000000000000000e+03 7.559203338623046875e+01 -3.005238151550292969e+01 -7.099588960409164429e-02 7.914121627807617188e+00 2.352937698364257812e+00 -3.209605216979980469e-01
1.683000000000000000e+03 7.417919921875000000e+01 -2.340449333190917969e+01 -4.520599916577339172e-02 7.525160789489746094e+00 2.243986368179321289e+00 -5.382916331291198730e-01
1.684000000000000000e+03 7.545531463623046875e+01 1.002712345123291016e+01 -1.400370988994836807e-02 7.543418407440185547e+00 2.258824348449707031e+00 5.146006941795349121e-01
1.685000000000000000e+03 7.417117309570312500e+01 8.717173576354980469e+00 -2.420616336166858673e-03 7.495768547058105469e+00 2.248004436492919922e+00 6.191622614860534668e-01
1.686000000000000000e+03 7.658847808837890625e+01 1.701302146911621094e+01 -2.886288054287433624e-02 8.125558853149414062e+00 2.429008722305297852e+00 3.354256749153137207e-01
1.687000000000000000e+03 7.520813751220703125e+01 1.709989166259765625e+01 -4.767299070954322815e-02 8.076335906982421875e+00 2.408598899841308594e+00 4.312963187694549561e-01
1.688000000000000000e+03 7.522898101806640625e+01 2.000893402099609375e+01 -6.067806109786033630e-02 8.264067649841308594e+00 2.461016893386840820e+00 3.729274272918701172e-01
1.689000000000000000e+03 7.377751159667968750e+01 1.719645881652832031e+01 -8.061562478542327881e-02 8.038524627685546875e+00 2.387372732162475586e+00 5.130435228347778320e-01
1.690000000000000000e+03 7.522356414794921875e+01 2.144524955749511719e+01 -5.325872451066970825e-02 8.349445343017578125e+00 2.488855838775634766e+00 3.363724946975708008e-01
1.691000000000000000e+03 7.399657440185546875e+01 -2.647093772888183594e+01 -8.211384713649749756e-02 7.700277805328369141e+00 2.285449266433715820e+00 -4.966820776462554932e-01
1.692000000000000000e+03 7.670305633544921875e+01 -2.636106109619140625e+01 -2.612002380192279816e-02 7.681218147277832031e+00 2.296529531478881836e+00 -3.180894851684570312e-01
1.693000000000000000e+03 7.536474609375000000e+01 -2.493356704711914062e+01 -4.273170977830886841e-02 7.589549541473388672e+00 2.264045238494873047e+00 -4.412741363048553467e-01
1.694000000000000000e+03 7.369419097900390625e+01 2.793804550170898438e+01 -8.223464339971542358e-02 8.466517448425292969e+00 2.515284776687622070e+00 2.526816725730895996e-01
1.695000000000000000e+03 7.667709350585937500e+01 2.715109825134277344e+01 -2.687502838671207428e-02 8.743435859680175781e+00 2.614968299865722656e+00 1.704647839069366455e-01
1.696000000000000000e+03 7.517353820800781250e+01 2.743231773376464844e+01 -5.223065614700317383e-02 8.604109764099121094e+00 2.565563917160034180e+00 2.149178534746170044e-01
1.697000000000000000e+03 7.650350952148437500e+01 2.964058113098144531e+01 -2.324398048222064972e-02 8.820081710815429688e+00 2.639051437377929688e+00 1.381746530532836914e-01
1.698000000000000000e+03 7.488916015625000000e+01 2.906032180786132812e+01 -5.533051490783691406e-02 8.613350868225097656e+00 2.567406177520751953e+00 1.952330917119979858e-01
1.699000000000000000e+03 7.511502075195312500e+01 -3.256148529052734375e+01 -7.485264539718627930e-02 8.005776405334472656e+00 2.379277229309082031e+00 -2.743100523948669434e-01
1.700000000000000000e+03 7.373487854003906250e+01 -3.615012359619140625e+01 -1.388963162899017334e-01 8.055610656738281250e+00 2.375014305114746094e+00 -2.158169001340866089e-01
1.701000000000000000e+03 7.563934326171875000e+01 -2.901357650756835938e+01 -5.301753431558609009e-02 7.841418743133544922e+00 2.336520433425903320e+00 -3.483678102493286133e-01
1.702000000000000000e+03 7.620588684082031250e+01 -3.553428649902343750e+01 -7.632073760032653809e-02 8.205905914306640625e+00 2.438875675201416016e+00 -1.663678437471389771e-01
1.703000000000000000e+03 7.652325439453125000e+01 -3.284004974365234375e+01 -3.867643326520919800e-02 8.094374656677246094e+00 2.416709423065185547e+00 -2.090240269899368286e-01
1.704000000000000000e+03 7.528861999511718750e+01 -3.121230316162109375e+01 -6.635198742151260376e-02 7.965497493743896484e+00 2.369743585586547852e+00 -3.024512827396392822e-01
1.705000000000000000e+03 3.119990110397338867e+00 1.586528491973876953e+01 -2.147655934095382690e-03 -1.719900406897068024e-02 -5.803997628390789032e-03 -9.718174114823341370e-03
1.706000000000000000e+03 3.672411918640136719e+00 -1.604668045043945312e+01 -7.890620268881320953e-03 -3.854401037096977234e-02 -1.393038965761661530e-02 4.781950265169143677e-03
1.707000000000000000e+03 3.520969867706298828e+00 -1.399936008453369141e+01 8.912074379622936249e-03 -1.875265315175056458e-02 -2.952173585072159767e-03 5.512165836989879608e-03
1.708000000000000000e+03 5.472684860229492188e+00 1.966091346740722656e+01 -1.695579141378402710e-01 -4.810937121510505676e-02 -6.530018150806427002e-02 9.344454854726791382e-02
1.709000000000000000e+03 3.182210683822631836e+00 1.873759651184082031e+01 -4.104702174663543701e-02 -3.995698317885398865e-02 -2.430120110511779785e-02 2.871229313313961029e-02
1.710000000000000000e+03 5.269762992858886719e+00 2.099778747558593750e+01 -1.674522757530212402e-01 -9.342212229967117310e-02 -7.826232165098190308e-02 1.762200295925140381e-01
1.711000000000000000e+03 4.510998249053955078e+00 -1.680122756958007812e+01 -1.886688545346260071e-02 -3.983708843588829041e-02 -1.761119253933429718e-02 -2.770441584289073944e-03
1.712000000000000000e+03 4.401525974273681641e+00 1.840773200988769531e+01 -7.086499035358428955e-02 -4.271459951996803284e-02 -3.407387807965278625e-02 3.038024157285690308e-02
1.713000000000000000e+03 4.613462448120117188e+00 2.455989837646484375e+01 -5.272939801216125488e-02 -2.679719924926757812e-01 -9.621042013168334961e-02 2.658738493919372559e-01
1.714000000000000000e+03 5.180650711059570312e+00 3.009641075134277344e+01 4.894568026065826416e-02 -4.853043556213378906e-01 -1.309075951576232910e-01 2.606676220893859863e-01
1.715000000000000000e+03 7.087056636810302734e+00 -2.356564521789550781e+01 -9.168564528226852417e-02 -3.910772800445556641e-01 -1.448288857936859131e-01 -4.304557442665100098e-01
1.716000000000000000e+03 3.250755071640014648e+00 1.294686031341552734e+01 4.627896472811698914e-03 -6.510692648589611053e-03 -5.648388760164380074e-04 -5.189490038901567459e-03
1.717000000000000000e+03 5.130049228668212891e+00 -1.383281898498535156e+01 9.057425893843173981e-03 -1.546813361346721649e-02 -1.923212199471890926e-03 -6.246033590286970139e-03
1.718000000000000000e+03 2.878741025924682617e+00 -9.298457145690917969e+00 1.194536103866994381e-03 2.365002437727525830e-04 4.293109232094138861e-04 6.861865404061973095e-04
1.719000000000000000e+03 2.863786220550537109e+00 -1.067901515960693359e+01 2.970819361507892609e-03 -1.792695606127381325e-03 3.534370916895568371e-04 1.763830194249749184e-03
1.720000000000000000e+03 5.165788650512695312e+00 -1.957081222534179688e+01 -1.893300563097000122e-01 -9.519717842340469360e-02 -8.535817265510559082e-02 -1.811905503273010254e-01
1.721000000000000000e+03 3.171587705612182617e+00 -2.310389518737792969e+01 -4.143199697136878967e-02 -2.560974657535552979e-01 -8.925884217023849487e-02 -2.142906188964843750e-01
1.722000000000000000e+03 4.853299140930175781e+00 -2.123372268676757812e+01 -1.419612467288970947e-01 -1.933857202529907227e-01 -1.006040871143341064e-01 -2.595020234584808350e-01
1.723000000000000000e+03 5.672132492065429688e+00 2.300523376464843750e+01 -1.299822032451629639e-01 -2.217180877923965454e-01 -1.055100858211517334e-01 3.061466217041015625e-01
1.724000000000000000e+03 4.893698215484619141e+00 2.729538917541503906e+01 1.650670543313026428e-02 -3.986787199974060059e-01 -1.146516054868698120e-01 2.897416651248931885e-01
1.725000000000000000e+03 3.345868349075317383e+00 -2.466826629638671875e+01 -2.741783671081066132e-02 -3.450656831264495850e-01 -1.117450594902038574e-01 -2.537358105182647705e-01
1.726000000000000000e+03 5.109411239624023438e+00 -2.234303092956542969e+01 -1.219754591584205627e-01 -2.475936263799667358e-01 -1.108707264065742493e-01 -3.102897405624389648e-01
1.727000000000000000e+03 3.961798667907714844e+00 -2.145920181274414062e+01 -8.677980303764343262e-02 -1.853111982345581055e-01 -8.162730187177658081e-02 -2.041982263326644897e-01
1.728000000000000000e+03 4.769587039947509766e+00 -2.484171295166015625e+01 -2.143152430653572083e-02 -3.893669247627258301e-01 -1.232395321130752563e-01 -3.249996006488800049e-01
1.729000000000000000e+03 3.927303791046142578e+00 -3.168591690063476562e+01 5.303711071610450745e-02 -6.880933642387390137e-01 -1.905168741941452026e-01 -2.127724289894104004e-01
1.730000000000000000e+03 4.951237201690673828e+00 -2.874440574645996094e+01 4.572295397520065308e-02 -5.452109575271606445e-01 -1.498464047908782959e-01 -3.057918250560760498e-01
1.731000000000000000e+03 4.732819080352783203e+00 9.601030349731445312e+00 1.307683298364281654e-03 -1.875421730801463127e-03 -1.703215384623035789e-04 1.073838648153468966e-04
1.732000000000000000e+03 5.658188819885253906e+00 3.277165985107421875e+01 7.427031546831130981e-02 -5.209321379661560059e-01 -1.339985579252243042e-01 2.196729630231857300e-01
1.733000000000000000e+03 6.303720951080322266e+00 3.659789657592773438e+01 9.882304817438125610e-02 -5.501566529273986816e-01 -1.354000717401504517e-01 1.477809995412826538e-01
1.734000000000000000e+03 6.370013713836669922e+00 -1.158570384979248047e+01 -4.868548712693154812e-04 5.860771518200635910e-03 1.612174906767904758e-03 -3.731331788003444672e-03
1.735000000000000000e+03 2.817131757736206055e+00 -1.210831069946289062e+01 4.913590382784605026e-03 -2.778548281639814377e-03 6.405126769095659256e-04 4.913565237075090408e-03
1.736000000000000000e+03 4.098129272460937500e+00 -1.070457553863525391e+01 3.572126850485801697e-03 -1.512635149993002415e-03 6.178474868647754192e-04 6.762476405128836632e-04
1.737000000000000000e+03 6.116014957427978516e+00 9.771523475646972656e+00 1.807911554351449013e-03 -2.296965336427092552e-03 -1.467161055188626051e-04 1.464342931285500526e-03
1.738000000000000000e+03 3.898370981216430664e+00 -6.657124519348144531e+00 8.145268657244741917e-05 1.208284811582416296e-04 6.068434959161095321e-05 4.329614166636019945e-04
1.739000000000000000e+03 7.158018112182617188e+00 -3.092143249511718750e+01 1.092831715941429138e-01 -5.353091359138488770e-01 -1.278077960014343262e-01 -3.069775104522705078e-01
1.740000000000000000e+03 5.088144779205322266e+00 -3.002616882324218750e+01 6.579389423131942749e-02 -5.858060121536254883e-01 -1.560036242008209229e-01 -2.827854454517364502e-01
1.741000000000000000e+03 5.562127590179443359e+00 -3.147005653381347656e+01 7.764125615358352661e-02 -6.008946895599365234e-01 -1.569760292768478394e-01 -2.689674794673919678e-01
1.742000000000000000e+03 5.089457988739013672e+00 2.866976737976074219e+01 3.430265560746192932e-02 -4.447135031223297119e-01 -1.231232583522796631e-01 2.830179929733276367e-01
1.743000000000000000e+03 7.001897811889648438e+00 3.407930755615234375e+01 1.169188842177391052e-01 -4.805031716823577881e-01 -1.090752854943275452e-01 2.109834700822830200e-01
1.744000000000000000e+03 5.549442291259765625e+00 3.526865386962890625e+01 9.627575427293777466e-02 -5.667580366134643555e-01 -1.411446779966354370e-01 1.667848527431488037e-01
1.745000000000000000e+03 5.219059467315673828e+00 3.148365020751953125e+01 5.555222183465957642e-02 -5.228989124298095703e-01 -1.402039974927902222e-01 2.401746958494186401e-01
1.746000000000000000e+03 3.616027593612670898e+00 8.761101722717285156e+00 7.594011549372226000e-05 -2.290379779879003763e-04 -4.592935874825343490e-05 -4.558257351163774729e-04
1.747000000000000000e+03 3.479151725769042969e+00 -4.688363075256347656e+00 7.358490256592631340e-05 -2.576981387392152101e-06 2.130237589881289750e-05 2.441957185510545969e-04
1.748000000000000000e+03 6.506280422210693359e+00 6.153564453125000000e+00 4.456871247384697199e-04 5.424906848929822445e-04 2.964533341582864523e-04 3.658513596747070551e-04
1.749000000000000000e+03 6.394076824188232422e+00 -3.605239486694335938e+01 1.083727106451988220e-01 -6.559459567070007324e-01 -1.642719656229019165e-01 -1.776932179927825928e-01
1.750000000000000000e+03 7.442065715789794922e+00 -7.301468372344970703e+00 -2.213446714449673891e-04 1.263296464458107948e-03 3.125855582766234875e-04 2.816398337017744780e-04
1.751000000000000000e+03 1.475924777984619141e+01 -1.784766197204589844e+01 -5.794191360473632812e-01 -4.837013483047485352e-01 -3.189361393451690674e-01 -4.606683552265167236e-01
1.752000000000000000e+03 1.732259941101074219e+01 -1.608656311035156250e+01 -5.603796243667602539e-01 -2.623916864395141602e-01 -2.468314021825790405e-01 -4.907046854496002197e-01
1.753000000000000000e+03 6.508389472961425781e+00 1.976744651794433594e+01 -2.371604293584823608e-01 -2.493746578693389893e-02 -7.862936705350875854e-02 1.082304418087005615e-01
1.754000000000000000e+03 4.467967033386230469e+00 1.962089920043945312e+01 -1.040594875812530518e-01 -5.591022223234176636e-02 -4.799091070890426636e-02 7.355830818414688110e-02
1.755000000000000000e+03 1.103277111053466797e+01 -2.104680824279785156e+01 -2.425473034381866455e-01 -5.865774750709533691e-01 -2.487374395132064819e-01 -4.813010990619659424e-01
1.756000000000000000e+03 2.274893569946289062e+01 1.233328437805175781e+01 -2.935284972190856934e-01 -1.458985209465026855e-01 -1.318280994892120361e-01 1.816691607236862183e-01
1.757000000000000000e+03 6.999046802520751953e+00 -1.044494152069091797e+01 7.181488326750695705e-04 -1.324413809925317764e-03 -1.818795135477557778e-04 -4.835608415305614471e-04
1.758000000000000000e+03 8.353131294250488281e+00 2.172564125061035156e+01 -2.581934928894042969e-01 -2.916623950004577637e-01 -1.649567633867263794e-01 4.202924668788909912e-01
1.759000000000000000e+03 2.235681152343750000e+01 5.981129646301269531e+00 -1.541242599487304688e-01 -4.759340882301330566e-01 -1.890175044536590576e-01 4.170182347297668457e-01
1.760000000000000000e+03 3.929037809371948242e+00 -1.205575084686279297e+01 6.537626963108778000e-03 -8.285394869744777679e-03 -5.243303603492677212e-04 3.067660727538168430e-04
1.761000000000000000e+03 1.671558761596679688e+01 -1.741034698486328125e+01 -5.071082115173339844e-01 -2.995560169219970703e-01 -2.419992685317993164e-01 -4.397363364696502686e-01
1.762000000000000000e+03 2.040446472167968750e+01 -1.208583545684814453e+01 -6.320093870162963867e-01 -4.664917010813951492e-03 -1.910022944211959839e-01 -5.305693149566650391e-01
1.763000000000000000e+03 1.954274368286132812e+01 -1.164667892456054688e+01 -6.064655184745788574e-01 -5.961794406175613403e-02 -1.998250484466552734e-01 -5.154561400413513184e-01
1.764000000000000000e+03 1.733898544311523438e+01 1.931942367553710938e+01 -2.940151095390319824e-01 -5.515362620353698730e-01 -2.536654174327850342e-01 2.178007513284683228e-01
1.765000000000000000e+03 1.705301475524902344e+01 1.703171730041503906e+01 -5.590020418167114258e-01 -8.280056715011596680e-01 -4.161023199558258057e-01 4.190629124641418457e-01
1.766000000000000000e+03 2.217477798461914062e+01 4.519165992736816406e+00 -1.140067800879478455e-01 -4.910372793674468994e-01 -1.815132200717926025e-01 4.253912270069122314e-01
1.767000000000000000e+03 1.498336982727050781e+01 1.947521209716796875e+01 -4.428498744964599609e-01 -7.720038294792175293e-01 -3.644561171531677246e-01 4.040555357933044434e-01
1.768000000000000000e+03 1.405459308624267578e+01 -1.893659591674804688e+01 -4.570924043655395508e-01 -5.143728852272033691e-01 -2.914395928382873535e-01 -4.251296818256378174e-01
1.769000000000000000e+03 1.507632446289062500e+01 -1.993350982666015625e+01 -3.245461285114288330e-01 -4.037519395351409912e-01 -2.184894233942031860e-01 -3.846011757850646973e-01
1.770000000000000000e+03 2.261309623718261719e+01 8.913295745849609375e+00 -2.316355258226394653e-01 -3.465950787067413330e-01 -1.734691858291625977e-01 3.343456983566284180e-01
1.771000000000000000e+03 2.509523582458496094e+01 8.865299224853515625e+00 -1.204441264271736145e-01 1.064698398113250732e-01 -4.192284774035215378e-03 2.184590697288513184e-01
1.772000000000000000e+03 4.671493530273437500e+01 -8.926362037658691406e+00 1.416256427764892578e+00 1.193714714050292969e+01 4.006021022796630859e+00 5.261406898498535156e+00
1.773000000000000000e+03 4.567591094970703125e+01 -8.643979072570800781e+00 2.794110536575317383e+00 5.841735363006591797e+00 2.590753793716430664e+00 5.144147872924804688e+00
1.774000000000000000e+03 4.669227218627929688e+01 -4.288084983825683594e+00 2.120934009552001953e+00 1.260859107971191406e+01 4.418857574462890625e+00 -5.792760372161865234e+00
1.775000000000000000e+03 4.680584716796875000e+01 -4.031789779663085938e+00 1.665327191352844238e+00 1.294452667236328125e+01 4.382956027984619141e+00 -5.213939666748046875e+00
1.776000000000000000e+03 4.690416717529296875e+01 -8.368516921997070312e+00 1.741044998168945312e+00 1.439718055725097656e+01 4.841467380523681641e+00 5.678714752197265625e+00
1.777000000000000000e+03 4.714429855346679688e+01 -8.655147552490234375e+00 1.170458912849426270e+00 1.509635829925537109e+01 4.880044937133789062e+00 4.487733840942382812e+00
1.778000000000000000e+03 4.639278411865234375e+01 -4.140852451324462891e+00 2.308558464050292969e+00 1.027247524261474609e+01 3.774310111999511719e+00 -5.725037097930908203e+00
1.779000000000000000e+03 4.717215728759765625e+01 -8.922520637512207031e+00 9.076103568077087402e-01 1.437087059020996094e+01 4.583544254302978516e+00 4.222620487213134766e+00
1.780000000000000000e+03 4.762588500976562500e+01 -4.531383514404296875e+00 1.670937299728393555e+00 1.843490600585937500e+01 6.031753063201904297e+00 -2.552761077880859375e+00
1.781000000000000000e+03 4.759921264648437500e+01 -8.422827720642089844e+00 1.242031455039978027e+00 1.781361389160156250e+01 5.716693401336669922e+00 2.678304433822631836e+00
1.782000000000000000e+03 4.846821975708007812e+01 -4.387523174285888672e+00 2.627495765686035156e+00 1.722426605224609375e+01 5.955528736114501953e+00 3.789642751216888428e-01
1.783000000000000000e+03 4.933396911621093750e+01 -7.016143798828125000e+00 8.740249633789062500e+00 1.471894359588623047e+01 7.037758350372314453e+00 -1.508633494377136230e+00
1.784000000000000000e+03 4.895552062988281250e+01 -7.951300144195556641e+00 5.049151420593261719e+00 1.656359672546386719e+01 6.483824253082275391e+00 -2.039919614791870117e+00
1.785000000000000000e+03 4.884463500976562500e+01 -7.296405792236328125e+00 8.324956893920898438e+00 1.698969268798828125e+01 7.594394683837890625e+00 -2.458874464035034180e+00
1.786000000000000000e+03 4.944316864013671875e+01 -5.603106975555419922e+00 7.908308029174804688e+00 1.461125946044921875e+01 6.755870342254638672e+00 1.774725437164306641e+00
1.787000000000000000e+03 4.421825027465820312e+01 -3.908288717269897461e+00 2.211907148361206055e+00 2.210076570510864258e+00 1.326595187187194824e+00 -2.904793024063110352e+00
1.788000000000000000e+03 4.458648300170898438e+01 -4.169776916503906250e+00 2.450240373611450195e+00 2.456400871276855469e+00 1.471992373466491699e+00 -3.218189001083374023e+00
1.789000000000000000e+03 4.342348480224609375e+01 -3.827714920043945312e+00 1.556379437446594238e+00 1.310995936393737793e+00 8.602126240730285645e-01 -2.023322343826293945e+00
1.790000000000000000e+03 4.354127120971679688e+01 -9.358516693115234375e+00 1.332671165466308594e+00 1.760977625846862793e+00 9.280946254730224609e-01 2.347092628479003906e+00
1.791000000000000000e+03 4.491648101806640625e+01 -4.078516006469726562e+00 2.714032173156738281e+00 3.294908523559570312e+00 1.802682161331176758e+00 -3.837443828582763672e+00
1.792000000000000000e+03 4.629423904418945312e+01 -3.870088100433349609e+00 2.124280214309692383e+00 9.700432777404785156e+00 3.547413825988769531e+00 -5.509805202484130859e+00
1.793000000000000000e+03 4.545938873291015625e+01 -8.657714843750000000e+00 2.716145992279052734e+00 5.098547458648681641e+00 2.344408035278320312e+00 4.808878898620605469e+00
1.794000000000000000e+03 4.186735916137695312e+01 -2.916574716567993164e+00 1.077340960502624512e+00 1.040649771690368652e+00 6.353971958160400391e-01 -1.447534322738647461e+00
1.795000000000000000e+03 4.155659103393554688e+01 -2.453319787979125977e+00 1.073363065719604492e+00 1.190162658691406250e+00 6.790577173233032227e-01 -1.471271395683288574e+00
1.796000000000000000e+03 4.092750549316406250e+01 -3.182923078536987305e+00 4.983063340187072754e-01 5.677369236946105957e-01 3.198129832744598389e-01 -8.518829941749572754e-01
1.797000000000000000e+03 4.296525573730468750e+01 -1.014552879333496094e+01 1.179710388183593750e+00 1.935868501663208008e+00 9.346736669540405273e-01 2.293181657791137695e+00
1.798000000000000000e+03 2.377966499328613281e+01 -2.326500415802001953e+00 -1.954578161239624023e-01 -1.299596279859542847e-01 -9.762523323297500610e-02 3.685188293457031250e-01
1.799000000000000000e+03 2.336004066467285156e+01 -1.375782370567321777e+00 -1.439931243658065796e-01 -1.826209425926208496e-01 -9.798421710729598999e-02 3.935856521129608154e-01
1.800000000000000000e+03 4.304225158691406250e+01 -2.871303081512451172e+00 1.593961119651794434e+00 1.885596871376037598e+00 1.043867349624633789e+00 -2.274127006530761719e+00
1.801000000000000000e+03 2.195266342163085938e+01 -1.033594369888305664e+00 -8.436907827854156494e-02 -2.615548968315124512e-01 -1.037771925330162048e-01 3.338421881198883057e-01
1.802000000000000000e+03 2.169712257385253906e+01 -1.825056433677673340e+00 -8.573099225759506226e-02 -2.173818498849868774e-01 -9.093385189771652222e-02 2.850120961666107178e-01
1.803000000000000000e+03 2.470593643188476562e+01 -1.755096912384033203e+00 -2.106104642152786255e-01 -1.136283427476882935e-01 -9.727164357900619507e-02 4.226157367229461670e-01
1.804000000000000000e+03 2.650454521179199219e+01 -2.820140838623046875e+00 -3.620963096618652344e-01 -3.614270687103271484e-02 -1.194717064499855042e-01 4.057676792144775391e-01
1.805000000000000000e+03 2.643413543701171875e+01 -9.038851261138916016e-01 -2.083635032176971436e-01 -5.065913498401641846e-02 -7.770679146051406860e-02 4.655041098594665527e-01
1.806000000000000000e+03 2.396525764465332031e+01 2.776940762996673584e-01 -1.138784214854240417e-01 -2.025463581085205078e-01 -9.492743760347366333e-02 4.600818753242492676e-01
1.807000000000000000e+03 2.602277183532714844e+01 -2.079399585723876953e+00 -2.809949815273284912e-01 -5.807757377624511719e-02 -1.017217710614204407e-01 4.336260557174682617e-01
1.808000000000000000e+03 3.294869422912597656e+00 4.637953281402587891e+00 2.754191518761217594e-04 3.506248467601835728e-04 1.878132025012746453e-04 -7.195252692326903343e-05
1.809000000000000000e+03 4.685551166534423828e+00 4.191846847534179688e+00 3.401421417947858572e-04 3.724861308000981808e-04 2.137884875992313027e-04 -1.855353002611082047e-05
1.810000000000000000e+03 6.933357238769531250e+00 5.569681644439697266e+00 -4.576111223286716267e-06 1.091830898076295853e-03 3.261764359194785357e-04 -3.019661817234009504e-04
1.811000000000000000e+03 3.879969406127929688e+01 -3.009374141693115234e+00 -6.645751744508743286e-02 2.921353876590728760e-01 6.770335882902145386e-02 -2.848314642906188965e-01
1.812000000000000000e+03 6.556560516357421875e+00 4.068358421325683594e+00 5.099060672364430502e-06 -6.219815695658326149e-04 -1.850647531682625413e-04 1.835655893955845386e-05
1.813000000000000000e+03 5.088979244232177734e+00 4.667761325836181641e+00 7.279670680873095989e-04 6.560645488207228482e-06 2.203583280788734555e-04 1.666132884565740824e-04
1.814000000000000000e+03 2.996640777587890625e+01 -2.917795181274414062e+00 -5.236617922782897949e-01 3.655054792761802673e-02 -1.461333632469177246e-01 3.856073915958404541e-01
1.815000000000000000e+03 5.272264957427978516e+00 4.033250808715820312e+00 -9.817873797146603465e-05 -3.901572490576654673e-04 -1.465007953811436892e-04 -1.186463705380447209e-04
1.816000000000000000e+03 2.801649284362792969e+01 -2.260770797729492188e+00 -3.667840361595153809e-01 1.681643421761691570e-03 -1.095307171344757080e-01 4.301177561283111572e-01
1.817000000000000000e+03 2.869292831420898438e+01 -2.267529010772705078e+00 -3.860952258110046387e-01 1.968418620526790619e-02 -1.099233105778694153e-01 4.241331815719604492e-01
1.818000000000000000e+03 8.476421356201171875e+00 5.018547534942626953e+00 -1.102978931157849729e-04 -1.074091182090342045e-03 -3.553167334757745266e-04 -4.057596088387072086e-04
1.819000000000000000e+03 7.236489772796630859e+00 4.093141555786132812e+00 1.297801791224628687e-04 9.240672807209193707e-04 3.161542408633977175e-04 1.894846645882353187e-04
1.820000000000000000e+03 9.237399101257324219e+00 7.866791725158691406e+00 -7.212304626591503620e-04 9.563291678205132484e-04 7.052961154840886593e-05 -8.336369501193985343e-05
1.821000000000000000e+03 3.139962005615234375e+01 -2.883821964263916016e+00 -5.536496043205261230e-01 6.070803478360176086e-02 -1.478824615478515625e-01 3.514292538166046143e-01
1.822000000000000000e+03 2.878496170043945312e+01 -1.613461494445800781e+00 -3.038062453269958496e-01 3.198074549436569214e-02 -8.154764771461486816e-02 4.330421686172485352e-01
1.823000000000000000e+03 3.358858871459960938e+01 -2.838777780532836914e+00 -5.378970503807067871e-01 9.724616259336471558e-02 -1.321952641010284424e-01 2.620112001895904541e-01
1.824000000000000000e+03 3.148589706420898438e+01 -2.177079439163208008e+00 -4.017469882965087891e-01 8.798509091138839722e-02 -9.412856400012969971e-02 3.524042367935180664e-01
1.825000000000000000e+03 4.152035522460937500e+01 -1.162787246704101562e+01 8.473908305168151855e-01 1.718572497367858887e+00 7.697889804840087891e-01 1.843250513076782227e+00
1.826000000000000000e+03 4.079047393798828125e+01 -1.033096599578857422e+01 2.903198599815368652e-01 7.525757551193237305e-01 3.128686845302581787e-01 1.068641781806945801e+00
1.827000000000000000e+03 3.508437347412109375e+01 -2.837515354156494141e+00 -4.784394800662994385e-01 1.299596577882766724e-01 -1.045439466834068298e-01 1.638137102127075195e-01
1.828000000000000000e+03 4.223777770996093750e+01 -1.088530349731445312e+01 9.779131412506103516e-01 1.782411336898803711e+00 8.280973434448242188e-01 2.039101600646972656e+00
1.829000000000000000e+03 4.224534988403320312e+01 -1.020807266235351562e+01 8.664766550064086914e-01 1.373708009719848633e+00 6.720554232597351074e-01 1.780721902847290039e+00
1.830000000000000000e+03 4.007727432250976562e+01 -1.107624340057373047e+01 3.264801204204559326e-01 8.221822381019592285e-01 3.445987105369567871e-01 1.048722505569458008e+00
1.831000000000000000e+03 3.786305999755859375e+01 -1.127393054962158203e+01 -1.769380718469619751e-01 4.364361166954040527e-01 7.784941792488098145e-02 4.740982055664062500e-01
1.832000000000000000e+03 3.934831619262695312e+01 -1.114433670043945312e+01 1.405169665813446045e-01 6.586624383926391602e-01 2.397538274526596069e-01 8.280993103981018066e-01
1.833000000000000000e+03 8.351000785827636719e+00 -4.155554771423339844e+00 2.422582183498889208e-04 1.685789175098761916e-04 1.232511422131210566e-04 -5.914188222959637642e-04
1.834000000000000000e+03 3.733346939086914062e+01 -2.907526016235351562e+00 -2.870862483978271484e-01 2.055095881223678589e-01 -2.447299472987651825e-02 -6.208504363894462585e-02
1.835000000000000000e+03 3.669793319702148438e+01 -2.199065446853637695e+00 -8.599835634231567383e-02 2.687767148017883301e-01 5.483350902795791626e-02 -7.166492193937301636e-02
1.836000000000000000e+03 3.744712448120117188e+01 -2.244746208190917969e+00 7.155859842896461487e-03 3.169334828853607178e-01 9.722679853439331055e-02 -1.837735623121261597e-01
1.837000000000000000e+03 3.367618560791015625e+01 -2.125620841979980469e+00 -3.340915739536285400e-01 1.440191119909286499e-01 -5.702174082398414612e-02 2.315969914197921753e-01
1.838000000000000000e+03 3.558383941650390625e+01 -1.069169139862060547e+01 -7.872127294540405273e-01 1.531537771224975586e-01 -1.902176886796951294e-01 2.820960991084575653e-02
1.839000000000000000e+03 3.861095046997070312e+01 -1.121002578735351562e+01 -3.108663484454154968e-02 5.357429981231689453e-01 1.513969004154205322e-01 6.402722001075744629e-01
1.840000000000000000e+03 3.482499694824218750e+01 -1.072185611724853516e+01 -8.535775542259216309e-01 1.225655302405357361e-01 -2.193036079406738281e-01 -3.944716975092887878e-02
1.841000000000000000e+03 3.864229202270507812e+01 -1.191724872589111328e+01 2.117730677127838135e-01 7.313529849052429199e-01 2.829378247261047363e-01 8.164219260215759277e-01
1.842000000000000000e+03 5.740353584289550781e+00 -7.035715103149414062e+00 2.410607849014922976e-04 6.864726310595870018e-04 2.782600349746644497e-04 -6.969739479245617986e-05
1.843000000000000000e+03 6.322386741638183594e+00 -5.607702732086181641e+00 6.545321230078116059e-05 3.928611477022059262e-06 2.081454658764414489e-05 3.336450026836246252e-04
1.844000000000000000e+03 3.254928588867187500e+01 -1.078605461120605469e+01 -9.743536114692687988e-01 6.954264640808105469e-02 -2.714432775974273682e-01 -1.987022161483764648e-01
1.845000000000000000e+03 3.407438278198242188e+01 -1.148422622680664062e+01 -6.417710781097412109e-01 1.611197441816329956e-01 -1.441953927278518677e-01 -3.755688667297363281e-02
1.846000000000000000e+03 3.483566284179687500e+01 -1.145885848999023438e+01 -5.786268115043640137e-01 1.961298286914825439e-01 -1.147490888833999634e-01 3.273627161979675293e-02
1.847000000000000000e+03 2.952555656433105469e+01 -1.165510082244873047e+01 -7.897636890411376953e-01 6.617307662963867188e-02 -2.170771956443786621e-01 -3.421231210231781006e-01
1.848000000000000000e+03 3.594207000732421875e+01 -2.165659427642822266e+00 -1.687313169240951538e-01 2.271255254745483398e-01 1.751826517283916473e-02 2.095021121203899384e-02
1.849000000000000000e+03 3.952052688598632812e+01 -3.070089340209960938e+00 8.379663527011871338e-02 3.571625947952270508e-01 1.322877705097198486e-01 -4.356704950332641602e-01
1.850000000000000000e+03 6.793384075164794922e+00 -4.042557239532470703e+00 -6.656767800450325012e-05 4.288557101972401142e-04 1.086864067474380136e-04 -3.838385455310344696e-04
1.851000000000000000e+03 6.102956295013427734e+00 -4.090659618377685547e+00 -1.439624247723259032e-05 -6.768788443878293037e-05 -2.462523843860253692e-05 3.546430962160229683e-04
1.852000000000000000e+03 5.587570667266845703e+00 -4.871668815612792969e+00 -1.372684346279129386e-04 1.229951740242540836e-04 -4.281976089259842411e-06 3.320560790598392487e-04
1.853000000000000000e+03 2.638220214843750000e+01 -1.085576248168945312e+01 -8.893454074859619141e-01 4.395535588264465332e-02 -2.536170184612274170e-01 -4.279047548770904541e-01
1.854000000000000000e+03 3.105396652221679688e+01 -1.158508872985839844e+01 -7.824801802635192871e-01 8.326882123947143555e-02 -2.097634077072143555e-01 -2.604418694972991943e-01
1.855000000000000000e+03 3.180551719665527344e+01 -1.156087112426757812e+01 -7.616522908210754395e-01 9.988689422607421875e-02 -1.985296308994293213e-01 -2.182530313730239868e-01
1.856000000000000000e+03 3.108848190307617188e+01 -1.237890052795410156e+01 -5.877149105072021484e-01 1.436631083488464355e-01 -1.332155466079711914e-01 -2.307452559471130371e-01
1.857000000000000000e+03 3.818555068969726562e+01 -2.305613994598388672e+00 1.189517080783843994e-01 3.749463856220245361e-01 1.481694281101226807e-01 -3.155669867992401123e-01
1.858000000000000000e+03 2.313521766662597656e+01 -1.156678199768066406e+01 -7.077125310897827148e-01 7.077200710773468018e-02 -1.910821646451950073e-01 -5.129863619804382324e-01
1.859000000000000000e+03 2.558452415466308594e+01 -1.082918167114257812e+01 -8.595404028892517090e-01 5.060139670968055725e-02 -2.426816970109939575e-01 -4.477791488170623779e-01
1.860000000000000000e+03 2.797292900085449219e+01 -1.169164085388183594e+01 -7.837237119674682617e-01 5.802847445011138916e-02 -2.177085727453231812e-01 -4.026691317558288574e-01
1.861000000000000000e+03 2.875452995300292969e+01 -1.168355274200439453e+01 -7.885254621505737305e-01 6.016267091035842896e-02 -2.185088396072387695e-01 -3.715672194957733154e-01
1.862000000000000000e+03 4.032436752319335938e+01 -2.544135093688964844e+00 5.989472270011901855e-01 6.587822437286376953e-01 3.773188292980194092e-01 -8.491538763046264648e-01
1.863000000000000000e+03 3.962643051147460938e+01 -2.469021558761596680e+00 4.097412824630737305e-01 5.518111586570739746e-01 2.884657382965087891e-01 -6.366751790046691895e-01
1.864000000000000000e+03 1.090035057067871094e+01 4.185148239135742188e+00 -3.912731481250375509e-04 -8.184344624169170856e-04 -3.629122802522033453e-04 -8.530745981261134148e-04
1.865000000000000000e+03 2.071922492980957031e+01 -1.122031784057617188e+01 -6.450013518333435059e-01 1.211152970790863037e-02 -1.898669451475143433e-01 -5.062132477760314941e-01
1.866000000000000000e+03 1.146723365783691406e+01 5.907662868499755859e+00 3.880759468302130699e-04 1.526734442450106144e-03 5.744431400671601295e-04 1.068049343302845955e-03
1.867000000000000000e+03 2.476791191101074219e+01 -1.158079624176025391e+01 -7.456303238868713379e-01 7.170268148183822632e-02 -2.021782845258712769e-01 -4.891226291656494141e-01
1.868000000000000000e+03 2.557817268371582031e+01 -1.160810279846191406e+01 -7.597438097000122070e-01 6.877015531063079834e-02 -2.072920948266983032e-01 -4.701139330863952637e-01
1.869000000000000000e+03 2.240177726745605469e+01 -1.070058155059814453e+01 -7.178710699081420898e-01 5.620529875159263611e-02 -1.984997391700744629e-01 -4.862415492534637451e-01
1.870000000000000000e+03 2.476105117797851562e+01 -1.236180496215820312e+01 -6.665802597999572754e-01 8.865277469158172607e-02 -1.733782440423965454e-01 -4.968872368335723877e-01
1.871000000000000000e+03 1.906279754638671875e+01 -1.259736251831054688e+01 -6.131414771080017090e-01 -1.051546111702919006e-01 -2.154888212680816650e-01 -5.313342213630676270e-01
1.872000000000000000e+03 2.150218963623046875e+01 -1.143398761749267578e+01 -6.667510867118835449e-01 3.935306891798973083e-02 -1.882193982601165771e-01 -5.168556571006774902e-01
1.873000000000000000e+03 2.059299659729003906e+01 -1.051605105400085449e+00 -3.745849058032035828e-02 -3.003818392753601074e-01 -1.013521030545234680e-01 2.313850224018096924e-01
1.874000000000000000e+03 2.311072731018066406e+01 1.026470565795898438e+01 -2.385048717260360718e-01 -1.914426982402801514e-01 -1.289842724800109863e-01 2.507997453212738037e-01
1.875000000000000000e+03 7.599040985107421875e+00 1.130788707733154297e+01 -1.281682983972132206e-03 2.511261729523539543e-03 3.688736178446561098e-04 2.797744469717144966e-03
1.876000000000000000e+03 6.593297481536865234e+00 1.234085559844970703e+01 4.678795579820871353e-03 -1.160638290457427502e-03 1.055447151884436607e-03 6.480438634753227234e-03
1.877000000000000000e+03 8.446265220642089844e+00 8.638909339904785156e+00 6.664402899332344532e-04 -1.171603289549238980e-04 1.647839817451313138e-04 1.019284129142761230e-03
1.878000000000000000e+03 9.217965126037597656e+00 5.036694049835205078e+00 4.477068141568452120e-04 1.178849604912102222e-03 4.879668995272368193e-04 4.450128180906176567e-04
1.879000000000000000e+03 1.062422943115234375e+01 7.641150951385498047e+00 -1.493527815910056233e-04 2.222214592620730400e-03 6.218585185706615448e-04 5.686829099431633949e-04
1.880000000000000000e+03 5.776374816894531250e+00 -1.274224281311035156e+01 6.011123768985271454e-03 -4.258694592863321304e-03 5.257286829873919487e-04 -1.035952474921941757e-02
1.881000000000000000e+03 1.236808586120605469e+01 6.053681373596191406e+00 -7.948428974486887455e-04 -1.154124154709279537e-03 -5.846900749020278454e-04 -1.135475933551788330e-03
1.882000000000000000e+03 2.145374679565429688e+01 1.546479797363281250e+01 -3.205080330371856689e-01 -1.626712828874588013e-01 -1.449538022279739380e-01 9.933827072381973267e-02
1.883000000000000000e+03 2.053906440734863281e+01 1.425967884063720703e+01 -4.007137715816497803e-01 -4.805905520915985107e-01 -2.643913030624389648e-01 2.417109310626983643e-01
1.884000000000000000e+03 6.891059875488281250e+00 8.935285568237304688e+00 1.131790922954678535e-03 5.000832970836199820e-05 3.545397485140711069e-04 1.276126946322619915e-03
1.885000000000000000e+03 2.525487661361694336e+00 6.258156299591064453e+00 8.306142408400774002e-04 1.377994340145960450e-04 2.905240980908274651e-04 -2.578763233032077551e-04
1.886000000000000000e+03 9.107403755187988281e+00 -5.494795799255371094e+00 -1.720630098134279251e-04 1.153132412582635880e-03 2.943208382930606604e-04 -2.945148153230547905e-04
1.887000000000000000e+03 6.437164306640625000e+00 1.437592697143554688e+01 9.308367036283016205e-03 -6.897611077874898911e-03 7.232266943901777267e-04 1.294755749404430389e-02
1.888000000000000000e+03 2.127028083801269531e+01 -9.163497686386108398e-01 -5.845775827765464783e-02 -3.009790182113647461e-01 -1.078310310840606689e-01 2.973440587520599365e-01
1.889000000000000000e+03 2.147604942321777344e+01 9.166361689567565918e-01 -5.583347007632255554e-02 -4.134134650230407715e-01 -1.407740861177444458e-01 3.607333898544311523e-01
1.890000000000000000e+03 5.208096981048583984e+00 1.052386569976806641e+01 4.439957905560731888e-03 -2.251109573990106583e-03 6.566544761881232262e-04 1.499116842751391232e-05
1.891000000000000000e+03 7.543783569335937500e+01 -2.780607986450195312e+01 -5.159138888120651245e-02 7.774531364440917969e+00 2.316881895065307617e+00 -3.785585761070251465e-01
1.892000000000000000e+03 7.456607055664062500e+01 -2.945138168334960938e+01 -8.698666095733642578e-02 7.853585243225097656e+00 2.329979658126831055e+00 -3.980045616626739502e-01
1.893000000000000000e+03 7.376549530029296875e+01 2.164819526672363281e+01 -9.196071326732635498e-02 8.243227958679199219e+00 2.445380210876464844e+00 4.109694361686706543e-01
1.894000000000000000e+03 7.512520599365234375e+01 2.410009002685546875e+01 -6.853810697793960571e-02 8.457868576049804688e+00 2.516798973083496094e+00 2.917664945125579834e-01
1.895000000000000000e+03 7.407752990722656250e+01 -2.490611648559570312e+01 -5.902866274118423462e-02 7.612913131713867188e+00 2.266165494918823242e+00 -5.213720202445983887e-01
1.896000000000000000e+03 7.523275756835937500e+01 1.856240463256835938e+01 -5.765226483345031738e-02 8.168429374694824219e+00 2.433233261108398438e+00 4.061481952667236328e-01
1.897000000000000000e+03 7.424019622802734375e+01 -2.193325042724609375e+01 -1.878442801535129547e-02 7.430407524108886719e+00 2.223486900329589844e+00 -5.522078871726989746e-01
1.898000000000000000e+03 7.542991638183593750e+01 1.140403270721435547e+01 -2.554087154567241669e-02 7.659067630767822266e+00 2.290058135986328125e+00 5.063245892524719238e-01
1.899000000000000000e+03 7.398291015625000000e+01 1.418113613128662109e+01 -6.528077274560928345e-02 7.869213581085205078e+00 2.341179847717285156e+00 5.647420883178710938e-01
1.900000000000000000e+03 7.414133453369140625e+01 7.351730823516845703e+00 2.023294940590858459e-02 7.400024890899658203e+00 2.226077318191528320e+00 6.184041500091552734e-01
1.901000000000000000e+03 7.419966888427734375e+01 -1.124221324920654297e+00 1.849955469369888306e-01 6.865190982818603516e+00 2.115056037902832031e+00 3.560601472854614258e-01
1.902000000000000000e+03 7.412702178955078125e+01 1.716838359832763672e+00 1.314355581998825073e-01 7.022530078887939453e+00 2.146189689636230469e+00 4.975818395614624023e-01
1.903000000000000000e+03 7.451567077636718750e+01 -1.491558647155761719e+01 1.026143506169319153e-01 6.962752342224121094e+00 2.119610071182250977e+00 -4.465500712394714355e-01
1.904000000000000000e+03 7.338098907470703125e+01 -1.484855747222900391e+01 1.455557793378829956e-01 7.071265220642089844e+00 2.165046215057373047e+00 -5.057388544082641602e-01
1.905000000000000000e+03 7.320326995849609375e+01 2.599196624755859375e+01 -1.072935685515403748e-01 8.356579780578613281e+00 2.474786043167114258e+00 3.211287260055541992e-01
1.906000000000000000e+03 7.492355346679687500e+01 2.566829872131347656e+01 -5.876239389181137085e-02 8.514334678649902344e+00 2.536671638488769531e+00 2.655337154865264893e-01
1.907000000000000000e+03 7.424349975585937500e+01 -8.178242683410644531e+00 2.145681828260421753e-01 6.741886138916015625e+00 2.086936235427856445e+00 -1.025406941771507263e-01
1.908000000000000000e+03 7.549341583251953125e+01 -6.753960132598876953e+00 1.418359130620956421e-01 6.564567565917968750e+00 2.011920928955078125e+00 -6.670742295682430267e-03
1.909000000000000000e+03 7.542773437500000000e+01 4.500332832336425781e+00 4.698291420936584473e-02 7.087212085723876953e+00 2.140258550643920898e+00 4.842796623706817627e-01
1.910000000000000000e+03 7.434159088134765625e+01 -9.566124916076660156e+00 1.986596733331680298e-01 6.755144119262695312e+00 2.086141109466552734e+00 -1.901851445436477661e-01
1.911000000000000000e+03 7.418791961669921875e+01 1.005982875823974609e+01 -2.289305068552494049e-02 7.592393875122070312e+00 2.270850181579589844e+00 6.130335927009582520e-01
1.912000000000000000e+03 7.563955688476562500e+01 -1.090482425689697266e+01 1.151566952466964722e-01 6.627810001373291016e+00 2.022889852523803711e+00 -2.239306569099426270e-01
1.913000000000000000e+03 7.450165557861328125e+01 -1.226883602142333984e+01 1.515390425920486450e-01 6.829470157623291016e+00 2.094302892684936523e+00 -3.380326628684997559e-01
1.914000000000000000e+03 7.417538452148437500e+01 -3.938162088394165039e+00 2.182305902242660522e-01 6.771830558776855469e+00 2.097018241882324219e+00 1.847237497568130493e-01
1.915000000000000000e+03 7.416317749023437500e+01 -5.359470367431640625e+00 2.252044081687927246e-01 6.747869014739990234e+00 2.091922044754028320e+00 8.655830472707748413e-02
1.916000000000000000e+03 7.437133789062500000e+01 -1.763733100891113281e+01 5.284454300999641418e-02 7.145525455474853516e+00 2.159510850906372070e+00 -5.240403413772583008e-01
1.917000000000000000e+03 7.427552032470703125e+01 -1.905133247375488281e+01 2.668357640504837036e-02 7.241531848907470703e+00 2.180464506149291992e+00 -5.447965264320373535e-01
1.918000000000000000e+03 7.387601470947265625e+01 1.563521671295166016e+01 -7.435878366231918335e-02 7.950428962707519531e+00 2.362821102142333984e+00 5.451595783233642578e-01
1.919000000000000000e+03 7.419342041015625000e+01 -2.534027576446533203e+00 2.023747861385345459e-01 6.810463905334472656e+00 2.103851556777954102e+00 2.725450098514556885e-01
1.920000000000000000e+03 7.410935211181640625e+01 5.959454059600830078e+00 4.731320589780807495e-02 7.302285194396972656e+00 2.204879522323608398e+00 6.074380278587341309e-01
1.921000000000000000e+03 7.408917999267578125e+01 4.553934574127197266e+00 7.352256029844284058e-02 7.205758571624755859e+00 2.183784246444702148e+00 5.823569893836975098e-01
1.922000000000000000e+03 7.386769866943359375e+01 2.008030509948730469e+01 -9.302029013633728027e-02 8.186880111694335938e+00 2.428158044815063477e+00 4.418939948081970215e-01
1.923000000000000000e+03 7.408636474609375000e+01 1.278084659576416016e+01 -5.451456829905509949e-02 7.781087875366210938e+00 2.317971944808959961e+00 5.858999490737915039e-01
1.924000000000000000e+03 7.416282653808593750e+01 1.140832042694091797e+01 -3.989919275045394897e-02 7.687416076660156250e+00 2.294255018234252930e+00 5.999746918678283691e-01
1.925000000000000000e+03 7.246341705322265625e+01 -3.455183410644531250e+01 -1.726356148719787598e-01 7.963851928710937500e+00 2.337364912033081055e+00 -2.993079125881195068e-01
1.926000000000000000e+03 7.506945800781250000e+01 -3.388931274414062500e+01 -7.636301964521408081e-02 8.066714286804199219e+00 2.397105455398559570e+00 -2.518185973167419434e-01
1.927000000000000000e+03 7.440137481689453125e+01 3.080588531494140625e+01 -4.937125369906425476e-02 8.607685089111328125e+00 2.567494153976440430e+00 1.764855235815048218e-01
1.928000000000000000e+03 1.033753967285156250e+01 6.437325477600097656e+00 -2.847247815225273371e-04 1.528126071207225323e-03 3.730203607119619846e-04 2.207630859629716724e-05
1.929000000000000000e+03 4.651211261749267578e+00 -2.624354553222656250e+01 -2.956116106361150742e-03 -4.429360628128051758e-01 -1.337676495313644409e-01 -3.215401768684387207e-01
1.930000000000000000e+03 6.462485313415527344e+00 -8.941367149353027344e+00 5.880401004105806351e-04 -1.001684693619608879e-03 -1.240933779627084732e-04 4.574048798531293869e-04
1.931000000000000000e+03 4.529280185699462891e+00 2.327691268920898438e+01 -7.291549444198608398e-02 -2.190837413072586060e-01 -8.759976923465728760e-02 2.483686208724975586e-01
1.932000000000000000e+03 1.149237251281738281e+01 2.255431556701660156e+01 -1.452369987964630127e-01 -5.739920139312744141e-01 -2.157686948776245117e-01 4.605050384998321533e-01
1.933000000000000000e+03 1.183875370025634766e+01 2.517433738708496094e+01 5.674807727336883545e-02 -4.916829168796539307e-01 -1.304804533720016479e-01 3.812807500362396240e-01
1.934000000000000000e+03 5.817508220672607422e+00 -2.071935844421386719e+01 -2.113181054592132568e-01 -1.820504367351531982e-01 -1.180105581879615784e-01 -2.855909466743469238e-01
1.935000000000000000e+03 6.116477489471435547e+00 -2.364100837707519531e+01 -6.059624999761581421e-02 -3.774844110012054443e-01 -1.314242035150527954e-01 -3.970125615596771240e-01
1.936000000000000000e+03 6.101392745971679688e+00 -2.215881538391113281e+01 -1.741376668214797974e-01 -2.674181461334228516e-01 -1.324667483568191528e-01 -3.680907189846038818e-01
1.937000000000000000e+03 4.628433227539062500e+00 1.235887432098388672e+01 8.203295059502124786e-03 -6.193482317030429840e-03 6.029437063261866570e-04 -6.679227808490395546e-04
1.938000000000000000e+03 4.307287216186523438e+00 -2.042092895507812500e+01 -1.381653100252151489e-01 -1.308531612157821655e-01 -8.070553839206695557e-02 -1.790934056043624878e-01
1.939000000000000000e+03 6.020710468292236328e+00 2.579217147827148438e+01 -2.045931108295917511e-02 -3.530117869377136230e-01 -1.120413318276405334e-01 3.358408510684967041e-01
1.940000000000000000e+03 4.713671684265136719e+00 2.593340682983398438e+01 -1.716797798871994019e-02 -3.382703661918640137e-01 -1.066315025091171265e-01 2.941951155662536621e-01
1.941000000000000000e+03 8.356406211853027344e+00 -6.434769630432128906e+00 4.329436924308538437e-04 -1.185267348773777485e-03 -2.256970910821110010e-04 2.457584778312593699e-04
1.942000000000000000e+03 5.924049377441406250e+00 -2.677253341674804688e+01 2.933378145098686218e-02 -4.802965521812438965e-01 -1.352888345718383789e-01 -3.674732446670532227e-01
1.943000000000000000e+03 6.532039642333984375e+00 3.165989494323730469e+01 8.929380029439926147e-02 -4.778192639350891113e-01 -1.165576428174972534e-01 2.547708749771118164e-01
1.944000000000000000e+03 4.256361484527587891e+00 2.064719390869140625e+01 -1.142487302422523499e-01 -8.457485586404800415e-02 -5.964707583189010620e-02 1.195416674017906189e-01
1.945000000000000000e+03 4.810761928558349609e+00 2.217465400695800781e+01 -1.490966677665710449e-01 -1.505898684263229370e-01 -8.990596234798431396e-02 2.300417125225067139e-01
1.946000000000000000e+03 5.862814426422119141e+00 -3.324308395385742188e+01 1.006292849779129028e-01 -6.236221790313720703e-01 -1.568978577852249146e-01 -2.354570180177688599e-01
1.947000000000000000e+03 1.184097099304199219e+01 -3.054570007324218750e+01 2.125243097543716431e-01 -3.832742571830749512e-01 -5.122498422861099243e-02 -3.032372891902923584e-01
1.948000000000000000e+03 7.298956394195556641e+00 2.125286865234375000e+01 -3.030821084976196289e-01 -1.767999678850173950e-01 -1.439646184444427490e-01 3.762993514537811279e-01
1.949000000000000000e+03 6.764022350311279297e+00 2.844086456298828125e+01 5.975022912025451660e-02 -4.269693195819854736e-01 -1.101657301187515259e-01 3.284718096256256104e-01
1.950000000000000000e+03 3.781069755554199219e+00 9.945028305053710938e+00 3.839398501440882683e-03 -1.195851364172995090e-03 7.930641295388340950e-04 -1.726110465824604034e-03
1.951000000000000000e+03 4.619485378265380859e+00 8.650062561035156250e+00 2.811065874993801117e-03 -9.438411798328161240e-04 5.601674201898276806e-04 -9.004141320474445820e-04
1.952000000000000000e+03 3.583244562149047852e+00 7.562510967254638672e+00 1.617343979887664318e-03 -3.100637695752084255e-05 4.759012954309582710e-04 -6.871674559079110622e-04
1.953000000000000000e+03 5.264669418334960938e+00 -7.943794727325439453e+00 7.418147288262844086e-04 -8.716764859855175018e-04 -3.895854388247244060e-05 6.028078496456146240e-04
1.954000000000000000e+03 4.957072257995605469e+00 -6.247448444366455078e+00 4.270320059731602669e-04 -3.479692968539893627e-04 2.371881782892160118e-05 -2.565150498412549496e-04
1.955000000000000000e+03 4.435276031494140625e+00 -5.367908477783203125e+00 9.461170702707022429e-05 1.994576741708442569e-04 8.822081872494891286e-05 3.363594878464937210e-04
1.956000000000000000e+03 1.376071071624755859e+01 2.256889343261718750e+01 -8.950288593769073486e-02 -5.939998626708984375e-01 -2.050508260726928711e-01 3.567423224449157715e-01
1.957000000000000000e+03 9.048994064331054688e+00 2.342039680480957031e+01 -1.072514578700065613e-01 -3.890257775783538818e-01 -1.488831788301467896e-01 4.339417219161987305e-01
1.958000000000000000e+03 1.959537696838378906e+01 1.525983238220214844e+01 -4.350290596485137939e-01 -5.960621833801269531e-01 -3.093273639678955078e-01 2.727061212062835693e-01
1.959000000000000000e+03 6.376292228698730469e+00 -7.877493381500244141e+00 7.469846750609576702e-04 2.352469309698790312e-04 2.946694730781018734e-04 -1.079064444638788700e-03
1.960000000000000000e+03 1.850696754455566406e+01 -1.668035316467285156e+01 -4.872716665267944336e-01 -1.374099254608154297e-01 -1.874044835567474365e-01 -4.578056037425994873e-01
1.961000000000000000e+03 1.836676979064941406e+01 1.785442733764648438e+01 -3.713202178478240967e-01 -5.451402068138122559e-01 -2.749381363391876221e-01 2.094573676586151123e-01
1.962000000000000000e+03 1.621858215332031250e+01 2.073382186889648438e+01 -1.844867318868637085e-01 -5.911991596221923828e-01 -2.327057719230651855e-01 2.335976213216781616e-01
1.963000000000000000e+03 1.953033447265625000e+01 -1.424019336700439453e+01 -5.879788994789123535e-01 -6.351154297590255737e-02 -1.954471319913864136e-01 -5.246608853340148926e-01
1.964000000000000000e+03 1.791079521179199219e+01 -1.483039760589599609e+01 -5.942977070808410645e-01 -2.097765803337097168e-01 -2.412222772836685181e-01 -5.196671485900878906e-01
1.965000000000000000e+03 1.803961181640625000e+01 -1.806372642517089844e+01 -4.029825627803802490e-01 -1.840870678424835205e-01 -1.761208921670913696e-01 -4.095402657985687256e-01
1.966000000000000000e+03 2.363784408569335938e+01 5.979804039001464844e+00 -1.248704642057418823e-01 -2.586810588836669922e-01 -1.150654554367065430e-01 4.040803909301757812e-01
1.967000000000000000e+03 2.186943054199218750e+01 3.213858366012573242e+00 -8.795260637998580933e-02 -4.976610541343688965e-01 -1.756840944290161133e-01 4.131709039211273193e-01
1.968000000000000000e+03 2.404329299926757812e+01 4.835371017456054688e+00 -9.944378584623336792e-02 -2.254377454519271851e-01 -9.746445715427398682e-02 4.304537475109100342e-01
1.969000000000000000e+03 2.164325523376464844e+01 2.021169900894165039e+00 -6.962085515260696411e-02 -4.653972983360290527e-01 -1.605054438114166260e-01 3.912411928176879883e-01
1.970000000000000000e+03 2.289843368530273438e+01 2.891986846923828125e+00 -8.958874642848968506e-02 -3.668732047080993652e-01 -1.369385868310928345e-01 4.517134726047515869e-01
1.971000000000000000e+03 1.894196128845214844e+01 -1.539767932891845703e+01 -5.460196137428283691e-01 -1.078627333045005798e-01 -1.961646974086761475e-01 -4.984171986579895020e-01
1.972000000000000000e+03 1.569475460052490234e+01 -2.165088844299316406e+01 -1.250109970569610596e-01 -3.337402641773223877e-01 -1.376253813505172729e-01 -3.480588197708129883e-01
1.973000000000000000e+03 1.745433425903320312e+01 -1.955434036254882812e+01 -2.980020940303802490e-01 -2.273278832435607910e-01 -1.575989872217178345e-01 -3.695479631423950195e-01
1.974000000000000000e+03 1.970394515991210938e+01 1.882701110839843750e+01 -2.396286576986312866e-01 -2.639396190643310547e-01 -1.510704904794692993e-01 6.414297968149185181e-02
1.975000000000000000e+03 7.191419219970703125e+01 4.067259979248046875e+01 -7.899512350559234619e-02 8.400146484375000000e+00 2.496345281600952148e+00 3.845119848847389221e-02
1.976000000000000000e+03 2.374791717529296875e+01 7.346753120422363281e+00 -1.701041013002395630e-01 -1.965267807245254517e-01 -1.099892631173133850e-01 3.468531668186187744e-01
1.977000000000000000e+03 2.425992202758789062e+01 9.683825492858886719e+00 -1.784598976373672485e-01 2.119840588420629501e-03 -5.290201678872108459e-02 2.230285257101058960e-01
1.978000000000000000e+03 4.647753906250000000e+01 -8.873023986816406250e+00 1.779634237289428711e+00 1.080779457092285156e+01 3.776228666305541992e+00 5.611556053161621094e+00
1.979000000000000000e+03 4.653236007690429688e+01 -8.600273132324218750e+00 1.946102857589721680e+00 1.122528457641601562e+01 3.951416254043579102e+00 5.918506622314453125e+00
1.980000000000000000e+03 4.570531463623046875e+01 -4.255185127258300781e+00 3.111939430236816406e+00 5.995310306549072266e+00 2.732174873352050781e+00 -5.232472896575927734e+00
1.981000000000000000e+03 4.548582839965820312e+01 -4.291862010955810547e+00 3.141697883605957031e+00 5.002456188201904297e+00 2.443246126174926758e+00 -4.863674640655517578e+00
1.982000000000000000e+03 4.611216354370117188e+01 -9.099372863769531250e+00 1.933192968368530273e+00 8.551816940307617188e+00 3.145503044128417969e+00 5.332477092742919922e+00
1.983000000000000000e+03 4.694178009033203125e+01 -8.923380851745605469e+00 1.114117741584777832e+00 1.319259166717529297e+01 4.292012691497802734e+00 4.800232887268066406e+00
1.984000000000000000e+03 4.958270645141601562e+01 -7.327167987823486328e+00 7.454034805297851562e+00 1.423648071289062500e+01 6.507154941558837891e+00 -1.780901670455932617e+00
1.985000000000000000e+03 5.009399795532226562e+01 -6.513913154602050781e+00 8.003554344177246094e+00 1.281231594085693359e+01 6.244760990142822266e+00 -2.132738530635833740e-01
1.986000000000000000e+03 4.762321090698242188e+01 -3.937729358673095703e+00 1.055662751197814941e+00 1.590534687042236328e+01 5.088303089141845703e+00 -2.806822061538696289e+00
1.987000000000000000e+03 4.954364395141601562e+01 -5.854711532592773438e+00 8.516258239746093750e+00 1.409675312042236328e+01 6.783903598785400391e+00 1.219326376914978027e+00
1.988000000000000000e+03 4.924379730224609375e+01 -4.982777595520019531e+00 5.779620647430419922e+00 1.561491394042968750e+01 6.418360233306884766e+00 2.070353507995605469e+00
1.989000000000000000e+03 4.827032089233398438e+01 -8.638321876525878906e+00 1.831695199012756348e+00 1.734299087524414062e+01 5.752405643463134766e+00 2.080124318599700928e-01
1.990000000000000000e+03 4.880594635009765625e+01 -8.528760910034179688e+00 2.846379280090332031e+00 1.647296905517578125e+01 5.795804500579833984e+00 -1.032812714576721191e+00
1.991000000000000000e+03 4.905928802490234375e+01 -4.775940418243408203e+00 4.831370353698730469e+00 1.617422294616699219e+01 6.301677703857421875e+00 1.861520290374755859e+00
1.992000000000000000e+03 4.507612609863281250e+01 -3.778129816055297852e+00 2.616587877273559570e+00 4.374418735504150391e+00 2.097301959991455078e+00 -4.252207756042480469e+00
1.993000000000000000e+03 4.533521270751953125e+01 -4.029522895812988281e+00 2.872643470764160156e+00 4.873882293701171875e+00 2.323957681655883789e+00 -4.641181468963623047e+00
1.994000000000000000e+03 4.406102752685546875e+01 -3.522278547286987305e+00 2.074946165084838867e+00 2.409579515457153320e+00 1.345357775688171387e+00 -2.944958925247192383e+00
1.995000000000000000e+03 4.419464874267578125e+01 -9.739142417907714844e+00 1.722994685173034668e+00 3.138053417205810547e+00 1.458314418792724609e+00 3.304586648941040039e+00
1.996000000000000000e+03 4.253986740112304688e+01 -2.241365432739257812e+00 1.456473708152770996e+00 1.887933969497680664e+00 1.003322243690490723e+00 -2.116322755813598633e+00
1.997000000000000000e+03 2.404179191589355469e+01 -1.566674351692199707e+00 -1.758417040109634399e-01 -1.466572880744934082e-01 -9.674970060586929321e-02 4.107007980346679688e-01
1.998000000000000000e+03 2.484070587158203125e+01 1.960064768791198730e+00 -7.914774864912033081e-02 -1.448261886835098267e-01 -6.719218194484710693e-02 4.733491539955139160e-01
1.999000000000000000e+03 4.356357574462890625e+01 -2.985713005065917969e+00 1.824154257774353027e+00 2.333967447280883789e+00 1.247436523437500000e+00 -2.679103136062622070e+00
2.000000000000000000e+03 4.313293075561523438e+01 -2.352504014968872070e+00 1.652294039726257324e+00 2.357084751129150391e+00 1.202813625335693359e+00 -2.526303291320800781e+00
2.001000000000000000e+03 4.098363876342773438e+01 -2.613461971282958984e+00 8.117271661758422852e-01 7.957192063331604004e-01 4.822339117527008057e-01 -1.083731412887573242e+00
2.002000000000000000e+03 2.364406204223632812e+01 -5.587111711502075195e-01 -1.283711940050125122e-01 -1.990730315446853638e-01 -9.823326766490936279e-02 4.308328628540039062e-01
2.003000000000000000e+03 2.668391036987304688e+01 -2.178125143051147461e+00 -3.129698336124420166e-01 -3.609623759984970093e-02 -1.047198250889778137e-01 4.337860941886901855e-01
2.004000000000000000e+03 2.498863410949707031e+01 -1.044801950454711914e+00 -1.848216503858566284e-01 -1.154067069292068481e-01 -9.006850421428680420e-02 4.516050517559051514e-01
2.005000000000000000e+03 2.734529113769531250e+01 -2.233213663101196289e+00 -3.416621088981628418e-01 -1.621652580797672272e-02 -1.073635891079902649e-01 4.343154132366180420e-01
2.006000000000000000e+03 2.684533309936523438e+01 -1.562365770339965820e+00 -2.656193971633911133e-01 -3.113085217773914337e-02 -8.902507275342941284e-02 4.537955522537231445e-01
2.007000000000000000e+03 5.764315605163574219e+00 4.779237747192382812e+00 -3.184269589837640524e-04 -2.559792192187160254e-04 -1.723218592815101147e-04 2.566814655438065529e-04
2.008000000000000000e+03 4.803173065185546875e+00 5.453334331512451172e+00 -3.443756431806832552e-04 -1.437514292774721980e-04 -1.464381202822551131e-04 4.509712380240671337e-05
2.009000000000000000e+03 2.433509826660156250e+01 -8.005278706550598145e-01 -1.563239097595214844e-01 -1.538818180561065674e-01 -9.306172281503677368e-02 4.455892741680145264e-01
2.010000000000000000e+03 8.296882629394531250e+00 5.948000907897949219e+00 4.649971961043775082e-04 1.364095485769212246e-03 5.487278103828430176e-04 3.884256002493202686e-04
2.011000000000000000e+03 2.561377525329589844e+01 -1.274817228317260742e+00 -2.147145569324493408e-01 -8.343696594238281250e-02 -8.944545686244964600e-02 4.540821015834808350e-01
2.012000000000000000e+03 9.959719657897949219e+00 5.831043243408203125e+00 9.627177496440708637e-05 1.538623706437647343e-03 4.904686356894671917e-04 7.587861036881804466e-04
2.013000000000000000e+03 2.622904968261718750e+01 -1.461092352867126465e+00 -2.401266247034072876e-01 -5.621791630983352661e-02 -8.890336006879806519e-02 4.538029432296752930e-01
2.014000000000000000e+03 2.937115287780761719e+01 -2.258111476898193359e+00 -4.000892639160156250e-01 3.569132834672927856e-02 -1.093193814158439636e-01 4.136990606784820557e-01
2.015000000000000000e+03 7.779533386230468750e+00 4.946264743804931641e+00 1.212441857205703855e-04 1.270084176212549210e-03 4.173985216766595840e-04 3.295945352874696255e-04
2.016000000000000000e+03 3.076623916625976562e+01 -2.207419157028198242e+00 -4.091081917285919189e-01 7.073622196912765503e-02 -1.015115901827812195e-01 3.780968785285949707e-01
2.017000000000000000e+03 2.944560432434082031e+01 -1.586211085319519043e+00 -3.039605915546417236e-01 5.159656330943107605e-02 -7.570920884609222412e-02 4.199052751064300537e-01
2.018000000000000000e+03 6.444984912872314453e+00 4.801017284393310547e+00 3.708213334903120995e-04 7.277303375303745270e-04 3.295655187685042620e-04 -2.077311510220170021e-04
2.019000000000000000e+03 2.883516120910644531e+01 -9.610377550125122070e-01 -2.246760725975036621e-01 4.963063076138496399e-02 -5.251362919807434082e-02 4.359723925590515137e-01
2.020000000000000000e+03 3.012137031555175781e+01 -1.551258325576782227e+00 -2.974135875701904297e-01 7.448645681142807007e-02 -6.687813997268676758e-02 4.007747173309326172e-01
2.021000000000000000e+03 3.227587509155273438e+01 -1.409808874130249023e+00 -2.249751389026641846e-01 1.461046487092971802e-01 -2.366114594042301178e-02 2.934692203998565674e-01
2.022000000000000000e+03 3.156108474731445312e+01 -7.028483152389526367e-01 -1.251797080039978027e-01 1.670592725276947021e-01 1.256387121975421906e-02 3.098937571048736572e-01
2.023000000000000000e+03 3.154524230957031250e+01 -1.452568292617797852e+00 -2.599746882915496826e-01 1.239766106009483337e-01 -4.079942405223846436e-02 3.337707519531250000e-01
2.024000000000000000e+03 3.937376022338867188e+01 -1.184876632690429688e+01 3.570611178874969482e-01 8.820863962173461914e-01 3.717442452907562256e-01 1.016399979591369629e+00
2.025000000000000000e+03 3.442521286010742188e+01 -2.128881216049194336e+00 -2.909307777881622314e-01 1.688043326139450073e-01 -3.663793578743934631e-02 1.731045842170715332e-01
2.026000000000000000e+03 3.301263046264648438e+01 -1.391337990760803223e+00 -1.921507120132446289e-01 1.742634773254394531e-01 -5.366167519241571426e-03 2.435256242752075195e-01
2.027000000000000000e+03 4.152227020263671875e+01 -1.093974494934082031e+01 7.547301054000854492e-01 1.362448930740356445e+00 6.351537108421325684e-01 1.644913673400878906e+00
2.028000000000000000e+03 3.636224746704101562e+01 -1.138390922546386719e+01 -4.074613153934478760e-01 2.934535443782806396e-01 -3.420232981443405151e-02 2.238411754369735718e-01
2.029000000000000000e+03 3.789507293701171875e+01 -1.199205875396728516e+01 6.718079000711441040e-02 6.119331717491149902e-01 2.037341743707656860e-01 6.363435387611389160e-01
2.030000000000000000e+03 3.604302978515625000e+01 -1.471238493919372559e+00 5.461831390857696533e-02 3.283392488956451416e-01 1.148872748017311096e-01 -7.703694701194763184e-02
2.031000000000000000e+03 3.450959396362304688e+01 -1.411250352859497070e+00 -9.105793386697769165e-02 2.399502843618392944e-01 4.466770589351654053e-02 1.086198017001152039e-01
2.032000000000000000e+03 3.527595138549804688e+01 -1.438437938690185547e+00 -2.291528135538101196e-02 2.808319330215454102e-01 7.737499475479125977e-02 2.476995438337326050e-02
2.033000000000000000e+03 4.152354431152343750e+01 -1.233036899566650391e+01 8.780157566070556641e-01 2.071192979812622070e+00 8.847626447677612305e-01 1.994634151458740234e+00
2.034000000000000000e+03 4.009630584716796875e+01 -1.177619838714599609e+01 5.168136358261108398e-01 1.092421174049377441e+00 4.827704429626464844e-01 1.251191258430480957e+00
2.035000000000000000e+03 4.081263732910156250e+01 -1.169972705841064453e+01 6.840256452560424805e-01 1.362379670143127441e+00 6.139215826988220215e-01 1.525618195533752441e+00
2.036000000000000000e+03 3.560190582275390625e+01 -1.142483329772949219e+01 -5.009830594062805176e-01 2.410670816898345947e-01 -7.797478884458541870e-02 1.228321939706802368e-01
2.037000000000000000e+03 3.680278778076171875e+01 -1.511551976203918457e+00 1.521282047033309937e-01 3.816275000572204590e-01 1.601267158985137939e-01 -1.915684789419174194e-01
2.038000000000000000e+03 5.538617610931396484e+00 -5.560521602630615234e+00 4.809848542208783329e-05 8.669026428833603859e-04 2.745003439486026764e-04 -2.272507990710437298e-04
2.039000000000000000e+03 7.058678627014160156e+00 -5.273741722106933594e+00 1.286772021558135748e-04 -2.242383925477042794e-04 -2.866835893655661494e-05 -3.489158989395946264e-04
2.040000000000000000e+03 3.719018936157226562e+01 -1.285820960998535156e+01 1.634129881858825684e-01 6.843801140785217285e-01 2.543379068374633789e-01 6.218021512031555176e-01
2.041000000000000000e+03 3.331710815429687500e+01 -1.150407028198242188e+01 -7.013210654258728027e-01 1.433566361665725708e-01 -1.673893332481384277e-01 -1.028524413704872131e-01
2.042000000000000000e+03 3.714228057861328125e+01 -1.207493019104003906e+01 -5.480064079165458679e-02 5.037976503372192383e-01 1.346991062164306641e-01 4.727857112884521484e-01
2.043000000000000000e+03 3.255900955200195312e+01 -1.153069782257080078e+01 -7.405172586441040039e-01 1.191605404019355774e-01 -1.864070147275924683e-01 -1.681736558675765991e-01
2.044000000000000000e+03 3.332355880737304688e+01 -1.225763034820556641e+01 -4.724699556827545166e-01 2.172948271036148071e-01 -7.655253261327743530e-02 -4.576604440808296204e-02
2.045000000000000000e+03 3.407597732543945312e+01 -1.224720096588134766e+01 -4.184535145759582520e-01 2.368018776178359985e-01 -5.449549108743667603e-02 3.272286057472229004e-02
2.046000000000000000e+03 3.638933563232421875e+01 -1.213187885284423828e+01 -1.528442054986953735e-01 4.165953099727630615e-01 7.912532985210418701e-02 3.436435461044311523e-01
2.047000000000000000e+03 3.029211235046386719e+01 -1.161580753326416016e+01 -7.928479313850402832e-01 7.765838503837585449e-02 -2.145568579435348511e-01 -3.024943470954895020e-01
2.048000000000000000e+03 3.033852005004882812e+01 -1.240940570831298828e+01 -5.990772843360900879e-01 1.204700618982315063e-01 -1.435821652412414551e-01 -2.852484285831451416e-01
2.049000000000000000e+03 3.891025924682617188e+01 -2.383705377578735352e+00 2.519110739231109619e-01 4.407473206520080566e-01 2.077975273132324219e-01 -4.615040719509124756e-01
2.050000000000000000e+03 3.182925796508789062e+01 -1.235547351837158203e+01 -5.601256489753723145e-01 1.485392302274703979e-01 -1.234759241342544556e-01 -1.762812733650207520e-01
2.051000000000000000e+03 2.718240737915039062e+01 -1.167819595336914062e+01 -7.788664102554321289e-01 6.094646826386451721e-02 -2.153759747743606567e-01 -4.265582859516143799e-01
2.052000000000000000e+03 2.638363647460937500e+01 -1.164637756347656250e+01 -7.705342769622802734e-01 6.386552751064300537e-02 -2.120006233453750610e-01 -4.528639316558837891e-01
2.053000000000000000e+03 2.718581962585449219e+01 -1.252619361877441406e+01 -6.412746906280517578e-01 8.794671297073364258e-02 -1.659983992576599121e-01 -4.330536425113677979e-01
2.054000000000000000e+03 3.755783081054687500e+01 -1.564684748649597168e+00 2.657552063465118408e-01 4.619365632534027100e-01 2.183075249195098877e-01 -3.222741782665252686e-01
2.055000000000000000e+03 2.957937240600585938e+01 -1.248088359832763672e+01 -6.129972934722900391e-01 1.048347949981689453e-01 -1.524487435817718506e-01 -3.183541297912597656e-01
2.056000000000000000e+03 2.800216102600097656e+01 -1.255533409118652344e+01 -6.355239748954772949e-01 9.503234922885894775e-02 -1.621474921703338623e-01 -3.988367617130279541e-01
2.057000000000000000e+03 2.880397987365722656e+01 -1.253501701354980469e+01 -6.256374716758728027e-01 1.015762463212013245e-01 -1.572183817625045776e-01 -3.595585823059082031e-01
2.058000000000000000e+03 2.395392799377441406e+01 -1.157333087921142578e+01 -7.276373505592346191e-01 7.425829768180847168e-02 -1.960137188434600830e-01 -5.006523728370666504e-01
2.059000000000000000e+03 3.973248291015625000e+01 -1.874260187149047852e+00 6.428858637809753418e-01 7.656493782997131348e-01 4.225605726242065430e-01 -8.403476476669311523e-01
2.060000000000000000e+03 3.902911376953125000e+01 -1.743891239166259766e+00 4.948915541172027588e-01 6.366416215896606445e-01 3.394599556922912598e-01 -6.478514671325683594e-01
2.061000000000000000e+03 1.988240051269531250e+01 -1.581055736541748047e+01 -5.071476101875305176e-01 -4.119138792157173157e-02 -1.645016968250274658e-01 -4.830023050308227539e-01
2.062000000000000000e+03 2.556459617614746094e+01 -1.239022541046142578e+01 -6.645585894584655762e-01 8.660806715488433838e-02 -1.733851581811904907e-01 -4.802624881267547607e-01
2.063000000000000000e+03 2.006111526489257812e+01 -1.312929439544677734e+01 -6.124873757362365723e-01 -2.873590029776096344e-02 -1.923669874668121338e-01 -5.353647470474243164e-01
2.064000000000000000e+03 2.310715103149414062e+01 -1.240694332122802734e+01 -6.540374159812927246e-01 7.962818443775177002e-02 -1.723227649927139282e-01 -5.238312482833862305e-01
2.065000000000000000e+03 2.231365013122558594e+01 -1.153076934814453125e+01 -6.903545260429382324e-01 6.005558371543884277e-02 -1.890896856784820557e-01 -5.166500210762023926e-01
2.066000000000000000e+03 2.222546386718750000e+01 -1.240505313873291016e+01 -6.479222178459167480e-01 6.355401128530502319e-02 -1.753104627132415771e-01 -5.326641201972961426e-01
2.067000000000000000e+03 1.068571567535400391e+01 5.759990215301513672e+00 2.444540441501885653e-04 -1.705568516626954079e-03 -4.383343621157109737e-04 -1.039962633512914181e-03
2.068000000000000000e+03 1.111760807037353516e+01 6.778781890869140625e+00 1.617473571968730539e-05 -1.786371925845742226e-03 -5.310591659508645535e-04 -7.694967789575457573e-04
2.069000000000000000e+03 4.221158218383789062e+01 -1.157746696472167969e+01 1.009834408760070801e+00 2.197525501251220703e+00 9.622079730033874512e-01 2.218725204467773438e+00
2.070000000000000000e+03 4.294666290283203125e+01 -1.086029338836669922e+01 1.186195135116577148e+00 2.431355237960815430e+00 1.085265159606933594e+00 2.507124900817871094e+00
2.071000000000000000e+03 7.667269229888916016e+00 9.611128807067871094e+00 -1.206024753628298640e-04 7.988997967913746834e-04 2.034891949733719230e-04 8.006433490663766861e-04
2.072000000000000000e+03 8.048176765441894531e+00 6.965927600860595703e+00 1.170492541859857738e-04 -1.233993680216372013e-03 -3.350833139847964048e-04 4.107498098164796829e-04
2.073000000000000000e+03 6.817497730255126953e+00 1.054806804656982422e+01 2.227545250207185745e-03 3.041684685740619898e-04 7.595141069032251835e-04 3.029505489394068718e-03
2.074000000000000000e+03 2.135632133483886719e+01 -7.524446398019790649e-02 -5.681658163666725159e-02 -3.482339978218078613e-01 -1.215151771903038025e-01 3.266060650348663330e-01
2.075000000000000000e+03 2.389181327819824219e+01 8.605392456054687500e+00 -1.640902310609817505e-01 -1.336123496294021606e-01 -8.931077271699905396e-02 2.946692407131195068e-01
2.076000000000000000e+03 2.198194122314453125e+01 1.901762771606445312e+01 -1.490941047668457031e-01 1.058896332979202271e-01 -1.296133920550346375e-02 -6.954653561115264893e-02
2.077000000000000000e+03 2.260409927368164062e+01 -1.611847114562988281e+01 -3.723145127296447754e-01 1.091105937957763672e-01 -7.896117866039276123e-02 -4.575685858726501465e-01
2.078000000000000000e+03 6.323664665222167969e+00 2.109997177124023438e+01 -2.715672850608825684e-01 -1.015408635139465332e-01 -1.119324415922164917e-01 2.588671147823333740e-01
2.079000000000000000e+03 9.851578712463378906e+00 7.167518138885498047e+00 7.744734757579863071e-04 -1.736868987791240215e-03 -2.887186419684439898e-04 3.407672920729964972e-04
2.080000000000000000e+03 7.161662292480468750e+01 -2.461132431030273438e+01 -1.025526449084281921e-01 7.668332099914550781e+00 2.269733905792236328e+00 -6.439520120620727539e-01
2.081000000000000000e+03 7.030084228515625000e+01 -3.228595733642578125e+01 -2.404973208904266357e-01 7.859488010406494141e+00 2.285697221755981445e+00 -4.221976697444915771e-01
2.082000000000000000e+03 7.385223388671875000e+01 -3.394337844848632812e+01 -1.164560467004776001e-01 7.998874187469482422e+00 2.364725351333618164e+00 -2.802674174308776855e-01
2.083000000000000000e+03 7.301229858398437500e+01 -2.332362937927246094e+01 -5.423308163881301880e-02 7.560459613800048828e+00 2.251868009567260742e+00 -6.027797460556030273e-01
2.084000000000000000e+03 1.020826911926269531e+01 3.257696533203125000e+01 1.767834872007369995e-01 -3.613662421703338623e-01 -5.537483096122741699e-02 2.338506132364273071e-01
2.085000000000000000e+03 7.096726989746093750e+01 2.456886291503906250e+01 -1.673543602228164673e-01 8.128392219543457031e+00 2.388311386108398438e+00 4.092073440551757812e-01
2.086000000000000000e+03 7.080201721191406250e+01 1.814187812805175781e+01 -1.596696674823760986e-01 7.977384567260742188e+00 2.345314502716064453e+00 6.048135757446289062e-01
2.087000000000000000e+03 7.249871826171875000e+01 1.553213882446289062e+01 -1.037168875336647034e-01 7.929248809814453125e+00 2.347659587860107422e+00 6.137898564338684082e-01
2.088000000000000000e+03 7.175982666015625000e+01 1.130134487152099609e+01 -7.536382973194122314e-02 7.742546558380126953e+00 2.300154924392700195e+00 7.334868907928466797e-01
2.089000000000000000e+03 7.287989044189453125e+01 8.796690940856933594e+00 -6.612960249185562134e-03 7.564197063446044922e+00 2.267275333404541016e+00 7.041490077972412109e-01
2.090000000000000000e+03 7.404487609863281250e+01 -2.812354469299316406e+01 -8.855195343494415283e-02 7.784940719604492188e+00 2.308916568756103516e+00 -4.514401257038116455e-01
2.091000000000000000e+03 7.331637573242187500e+01 -1.613973808288574219e+01 1.119012907147407532e-01 7.147568225860595703e+00 2.177840948104858398e+00 -5.519981980323791504e-01
2.092000000000000000e+03 7.310631561279296875e+01 -9.687380790710449219e+00 2.827040851116180420e-01 6.902188301086425781e+00 2.155467748641967773e+00 -2.284485548734664917e-01
2.093000000000000000e+03 7.189640045166015625e+01 -9.934146881103515625e+00 3.584950566291809082e-01 7.032761573791503906e+00 2.217376947402954102e+00 -2.785097360610961914e-01
2.094000000000000000e+03 7.134897613525390625e+01 4.700758934020996094e+00 1.303783357143402100e-01 7.430001735687255859e+00 2.268114089965820312e+00 7.512317299842834473e-01
2.095000000000000000e+03 7.279226684570312500e+01 1.687347292900085449e+00 1.846854388713836670e-01 7.153454780578613281e+00 2.201442003250122070e+00 5.713942050933837891e-01
2.096000000000000000e+03 7.318228912353515625e+01 -1.749115753173828125e+01 7.988837361335754395e-02 7.232970237731933594e+00 2.193857669830322266e+00 -5.925120115280151367e-01
2.097000000000000000e+03 7.339270782470703125e+01 -1.358260917663574219e+01 1.771114766597747803e-01 7.008286952972412109e+00 2.155619621276855469e+00 -4.510761797428131104e-01
2.098000000000000000e+03 7.443706512451171875e+01 -1.093114280700683594e+01 1.784922182559967041e-01 6.784568786621093750e+00 2.088918447494506836e+00 -2.701837718486785889e-01
2.099000000000000000e+03 7.292956542968750000e+01 -8.299179077148437500e+00 3.049689233303070068e-01 6.896006584167480469e+00 2.160292625427246094e+00 -1.271214336156845093e-01
2.100000000000000000e+03 7.284738922119140625e+01 -3.953851938247680664e+00 3.105752766132354736e-01 6.923467159271240234e+00 2.170212745666503906e+00 2.140963077545166016e-01
2.101000000000000000e+03 7.281942749023437500e+01 -5.398818492889404297e+00 3.315556049346923828e-01 6.902382373809814453e+00 2.170181274414062500e+00 1.002458781003952026e-01
2.102000000000000000e+03 7.424355316162109375e+01 -2.048173522949218750e+01 3.163005923852324486e-03 7.332737922668457031e+00 2.200770378112792969e+00 -5.537734627723693848e-01
2.103000000000000000e+03 7.143196105957031250e+01 6.161774635314941406e+00 7.703439891338348389e-02 7.493770599365234375e+00 2.271241426467895508e+00 7.701709270477294922e-01
2.104000000000000000e+03 7.292066955566406250e+01 -1.165492296218872070e+00 2.621953785419464111e-01 6.999650955200195312e+00 2.178554058074951172e+00 4.053361117839813232e-01
2.105000000000000000e+03 7.167348480224609375e+01 -1.212023973464965820e+00 3.540408909320831299e-01 7.117465972900390625e+00 2.241451978683471680e+00 4.525735378265380859e-01
2.106000000000000000e+03 7.168844604492187500e+01 1.019112491607666016e+01 -5.025135353207588196e-02 7.692094802856445312e+00 2.292552947998046875e+00 7.601776123046875000e-01
2.107000000000000000e+03 7.198814392089843750e+01 2.875798225402832031e+01 -1.237527802586555481e-01 8.315135002136230469e+00 2.457414865493774414e+00 2.744273543357849121e-01
2.108000000000000000e+03 7.265361022949218750e+01 -2.644701194763183594e+01 -1.051613986492156982e-01 7.713394641876220703e+00 2.282469987869262695e+00 -5.589457154273986816e-01
2.109000000000000000e+03 7.282546997070312500e+01 1.943011093139648438e+01 -1.124318316578865051e-01 8.102876663208007812e+00 2.397133350372314453e+00 5.071069002151489258e-01
2.110000000000000000e+03 6.372809410095214844e+00 2.701311492919921875e+01 2.307481318712234497e-02 -3.982635438442230225e-01 -1.125566214323043823e-01 3.457329869270324707e-01
2.111000000000000000e+03 1.025794315338134766e+01 2.124087524414062500e+01 -3.377331197261810303e-01 -4.628717601299285889e-01 -2.401814609766006470e-01 5.125900506973266602e-01
2.112000000000000000e+03 8.622523307800292969e+00 -2.405670356750488281e+01 -2.339083515107631683e-02 -4.896782338619232178e-01 -1.539207249879837036e-01 -4.699048101902008057e-01
2.113000000000000000e+03 6.722927093505859375e+00 -6.430097103118896484e+00 2.989614731632173061e-04 -2.981083234772086143e-04 2.559509653110580985e-07 -2.636139397509396076e-04
2.114000000000000000e+03 7.583029747009277344e+00 8.001905441284179688e+00 5.640329327434301376e-04 7.488283445127308369e-04 3.938583831768482924e-04 1.759203441906720400e-04
2.115000000000000000e+03 5.686473846435546875e+00 6.445065498352050781e+00 8.063908899202942848e-05 -8.172629168257117271e-04 -2.209871454397216439e-04 3.283802361693233252e-04
2.116000000000000000e+03 6.694218635559082031e+00 7.523054599761962891e+00 5.756580503657460213e-04 -7.288534543476998806e-04 -4.595860809786245227e-05 9.982236661016941071e-04
2.117000000000000000e+03 2.561082839965820312e+01 7.831033229827880859e+00 -7.704801857471466064e-02 1.290110945701599121e-01 1.558892149478197098e-02 2.394307106733322144e-01
2.118000000000000000e+03 9.187674522399902344e+00 -2.165681076049804688e+01 -1.489792168140411377e-01 -5.459285378456115723e-01 -2.084723263978958130e-01 -5.168964266777038574e-01
2.119000000000000000e+03 2.131153488159179688e+01 -1.232655525207519531e+01 -6.451607942581176758e-01 3.412011265754699707e-02 -1.833122074604034424e-01 -5.339419841766357422e-01
2.120000000000000000e+03 2.219288063049316406e+01 -1.333268260955810547e+01 -5.963033437728881836e-01 7.174328714609146118e-02 -1.573680043220520020e-01 -5.326550006866455078e-01
2.121000000000000000e+03 1.199589538574218750e+01 -2.273005104064941406e+01 -7.524122297763824463e-02 -5.344807505607604980e-01 -1.829165816307067871e-01 -4.241448640823364258e-01
2.122000000000000000e+03 1.387545585632324219e+01 -2.171252632141113281e+01 -1.424770653247833252e-01 -4.795527458190917969e-01 -1.866089403629302979e-01 -3.695513010025024414e-01
2.123000000000000000e+03 6.774822998046875000e+01 2.974937629699707031e+01 -2.257101833820343018e-01 7.877939224243164062e+00 2.295668601989746094e+00 2.866832613945007324e-01
2.124000000000000000e+03 1.886077690124511719e+01 -2.024244499206542969e+01 -1.730040907859802246e-01 -8.537258207798004150e-02 -7.751300185918807983e-02 -3.342649638652801514e-01
2.125000000000000000e+03 1.490294361114501953e+01 2.170983886718750000e+01 -1.311733275651931763e-01 -5.990604162216186523e-01 -2.190701216459274292e-01 2.962131500244140625e-01
2.126000000000000000e+03 1.280435657501220703e+01 2.381313896179199219e+01 -2.733763307332992554e-03 -5.477887392044067383e-01 -1.651567518711090088e-01 3.784324824810028076e-01
2.127000000000000000e+03 2.375852394104003906e+01 1.367671394348144531e+01 -2.303681522607803345e-01 1.424958407878875732e-01 -2.636169083416461945e-02 5.270655825734138489e-02
2.128000000000000000e+03 2.450129127502441406e+01 1.735228347778320312e+01 -1.364088505506515503e-01 4.741529524326324463e-01 1.013232320547103882e-01 -1.566259562969207764e-01
2.129000000000000000e+03 2.035181617736816406e+01 -1.490100097656250000e+01 -5.410901308059692383e-01 -1.358263846486806870e-02 -1.664018183946609497e-01 -5.116425156593322754e-01
2.130000000000000000e+03 2.471751594543457031e+01 4.076885223388671875e+00 -6.624212861061096191e-02 -1.421193331480026245e-01 -6.250844150781631470e-02 4.385033845901489258e-01
2.131000000000000000e+03 8.686411857604980469e+00 -2.993041229248046875e+01 1.390561461448669434e-01 -4.978961348533630371e-01 -1.076519936323165894e-01 -3.417316079139709473e-01
2.132000000000000000e+03 6.204819679260253906e+00 -2.934421539306640625e+01 7.263082265853881836e-02 -5.368136763572692871e-01 -1.392548531293869019e-01 -3.274873197078704834e-01
2.133000000000000000e+03 1.515141963958740234e+01 2.318445014953613281e+01 8.386817760765552521e-03 -5.040060281753540039e-01 -1.486857682466506958e-01 2.390810400247573853e-01
2.134000000000000000e+03 1.757020378112792969e+01 -2.122770500183105469e+01 -1.400068849325180054e-01 -1.875522136688232422e-01 -9.826772660017013550e-02 -3.232841193675994873e-01
2.135000000000000000e+03 2.259475135803222656e+01 1.454745006561279297e+01 -2.849727869033813477e-01 -2.607864700257778168e-02 -9.331543743610382080e-02 7.610491663217544556e-02
2.136000000000000000e+03 6.681499958038330078e+00 2.227350807189941406e+01 -1.738314628601074219e-01 -2.265656888484954834e-01 -1.201191470026969910e-01 3.392256498336791992e-01
2.137000000000000000e+03 7.310018157958984375e+01 -2.189422988891601562e+01 -3.276004642248153687e-02 7.488973617553710938e+00 2.236864089965820312e+00 -6.140472292900085449e-01
2.138000000000000000e+03 7.193309783935546875e+01 1.843622398376464844e+01 -1.338775157928466797e-01 8.023343086242675781e+00 2.366839647293090820e+00 5.654026269912719727e-01
2.139000000000000000e+03 7.417396545410156250e+01 2.950735092163085938e-01 1.599120050668716431e-01 6.937345504760742188e+00 2.129177331924438477e+00 4.320736229419708252e-01
2.140000000000000000e+03 7.283312225341796875e+01 7.439542293548583984e+00 2.536833472549915314e-02 7.484219551086425781e+00 2.252876281738281250e+00 7.055031657218933105e-01
2.141000000000000000e+03 7.417958068847656250e+01 -6.779546737670898438e+00 2.229261994361877441e-01 6.740458011627197266e+00 2.089015245437622070e+00 -9.881518781185150146e-03
2.142000000000000000e+03 7.286074161529541016e+00 -2.810220146179199219e+01 7.639777660369873047e-02 -5.034416317939758301e-01 -1.281131505966186523e-01 -3.723841011524200439e-01
2.143000000000000000e+03 1.140379428863525391e+01 -2.401737022399902344e+01 3.016231767833232880e-02 -5.138884782791137695e-01 -1.451178491115570068e-01 -4.234376251697540283e-01
2.144000000000000000e+03 4.560025024414062500e+01 -3.739901065826416016e+00 2.553206205368041992e+00 6.358509063720703125e+00 2.673514604568481445e+00 -4.983816623687744141e+00
2.145000000000000000e+03 4.651417160034179688e+01 -3.763338327407836914e+00 1.815993785858154297e+00 1.075122547149658203e+01 3.770165681838989258e+00 -5.326910972595214844e+00
2.146000000000000000e+03 4.678495025634765625e+01 -3.693568944931030273e+00 1.374541282653808594e+00 1.212592506408691406e+01 4.050139904022216797e+00 -4.864444732666015625e+00
2.147000000000000000e+03 4.532366180419921875e+01 -9.662406921386718750e+00 1.808850288391113281e+00 5.827771186828613281e+00 2.290986537933349609e+00 4.439583301544189453e+00
2.148000000000000000e+03 4.834048843383789062e+01 -4.066682338714599609e+00 1.851885437965393066e+00 1.660153770446777344e+01 5.536026954650878906e+00 -3.599616885185241699e-01
2.149000000000000000e+03 4.759444808959960938e+01 -8.766907691955566406e+00 8.882710337638854980e-01 1.642620658874511719e+01 5.194343566894531250e+00 2.843920946121215820e+00
2.150000000000000000e+03 4.722555160522460938e+01 -3.944449663162231445e+00 1.182630300521850586e+00 1.455152034759521484e+01 4.720245361328125000e+00 -4.078750610351562500e+00
2.151000000000000000e+03 4.805109024047851562e+01 -8.748216629028320312e+00 1.222965002059936523e+00 1.702468299865722656e+01 5.474294185638427734e+00 1.252663016319274902e+00
2.152000000000000000e+03 4.502096176147460938e+01 -9.230364799499511719e+00 2.183641433715820312e+00 4.335685253143310547e+00 1.955798029899597168e+00 4.149983882904052734e+00
2.153000000000000000e+03 4.997872161865234375e+01 -7.239574432373046875e+00 7.335888862609863281e+00 1.327737617492675781e+01 6.183979511260986328e+00 -1.408542752265930176e+00
2.154000000000000000e+03 4.853178787231445312e+01 -8.588089942932128906e+00 2.321383953094482422e+00 1.697996139526367188e+01 5.790403366088867188e+00 -4.478501677513122559e-01
2.155000000000000000e+03 4.807813262939453125e+01 -4.181395053863525391e+00 1.674033045768737793e+00 1.721380043029785156e+01 5.666349887847900391e+00 -9.350173473358154297e-01
2.156000000000000000e+03 4.976322937011718750e+01 -5.112369060516357422e+00 6.227697849273681641e+00 1.405261230468750000e+01 6.084093093872070312e+00 1.877082705497741699e+00
2.157000000000000000e+03 4.987651062011718750e+01 -7.937681198120117188e+00 5.392860412597656250e+00 1.380817794799804688e+01 5.760311603546142578e+00 -1.867818832397460938e+00
2.158000000000000000e+03 4.977864456176757812e+01 -5.476261138916015625e+00 7.201960086822509766e+00 1.379692840576171875e+01 6.299666881561279297e+00 1.665336489677429199e+00
2.159000000000000000e+03 4.895306396484375000e+01 -8.198141098022460938e+00 4.237454414367675781e+00 1.650034332275390625e+01 6.221339702606201172e+00 -1.779088139533996582e+00
2.160000000000000000e+03 4.977353286743164062e+01 -7.650979042053222656e+00 6.307809829711914062e+00 1.396585464477539062e+01 6.082098960876464844e+00 -1.862259149551391602e+00
2.161000000000000000e+03 4.834861755371093750e+01 -8.952401161193847656e+00 1.311520576477050781e+00 1.616652107238769531e+01 5.243412494659423828e+00 5.078383684158325195e-01
2.162000000000000000e+03 4.468060302734375000e+01 -3.944390535354614258e+00 2.527871608734130859e+00 3.052342176437377930e+00 1.674064159393310547e+00 -3.519659519195556641e+00
2.163000000000000000e+03 4.477703094482421875e+01 -3.673498153686523438e+00 2.461195707321166992e+00 3.812034606933593750e+00 1.881969094276428223e+00 -3.839372634887695312e+00
2.164000000000000000e+03 4.586934661865234375e+01 -3.415757179260253906e+00 2.067865371704101562e+00 7.665647506713867188e+00 2.920053958892822266e+00 -4.977031707763671875e+00
2.165000000000000000e+03 4.344798660278320312e+01 -3.432570219039916992e+00 1.736750960350036621e+00 1.773843884468078613e+00 1.053178429603576660e+00 -2.363367080688476562e+00
2.166000000000000000e+03 4.403279495239257812e+01 -3.078870296478271484e+00 2.017859220504760742e+00 2.864234924316406250e+00 1.464628219604492188e+00 -3.120395898818969727e+00
2.167000000000000000e+03 4.196286392211914062e+01 -2.004465341567993164e+00 1.315605163574218750e+00 1.597862482070922852e+00 8.740402460098266602e-01 -1.836915731430053711e+00
2.168000000000000000e+03 4.246244812011718750e+01 -2.806017160415649414e+00 1.350470423698425293e+00 1.472444415092468262e+00 8.468744754791259766e-01 -1.867973446846008301e+00
2.169000000000000000e+03 4.348351287841796875e+01 -1.161548519134521484e+01 1.140136480331420898e+00 3.459373474121093750e+00 1.379853010177612305e+00 2.941567420959472656e+00
2.170000000000000000e+03 4.142947387695312500e+01 -1.603801250457763672e+00 1.153679132461547852e+00 1.509453415870666504e+00 7.989397644996643066e-01 -1.618979811668395996e+00
2.171000000000000000e+03 4.366841125488281250e+01 -2.474929332733154297e+00 1.793948769569396973e+00 2.959146499633789062e+00 1.425928592681884766e+00 -2.937072992324829102e+00
2.172000000000000000e+03 4.272146987915039062e+01 -1.675496816635131836e+00 1.477638602256774902e+00 2.447749853134155273e+00 1.177616477012634277e+00 -2.383001565933227539e+00
2.173000000000000000e+03 2.508167457580566406e+01 6.995483636856079102e-01 -1.126753762364387512e-01 -1.255799382925033569e-01 -7.147659361362457275e-02 4.797604680061340332e-01
2.174000000000000000e+03 2.467615127563476562e+01 -3.905530273914337158e-02 -1.347494870424270630e-01 -1.487055718898773193e-01 -8.503651618957519531e-02 4.688139855861663818e-01
2.175000000000000000e+03 2.532261466979980469e+01 -3.553047180175781250e-01 -1.589079946279525757e-01 -1.053982526063919067e-01 -7.929187268018722534e-02 4.719133079051971436e-01
2.176000000000000000e+03 9.142606735229492188e+00 5.985359191894531250e+00 -1.822304911911487579e-04 -1.211502240039408207e-03 -4.181198019068688154e-04 -2.377399941906332970e-04
2.177000000000000000e+03 2.747445487976074219e+01 -1.603852272033691406e+00 -2.826036214828491211e-01 -1.211119163781404495e-02 -8.841443806886672974e-02 4.494497776031494141e-01
2.178000000000000000e+03 2.591158485412597656e+01 -6.537035107612609863e-01 -1.845582574605941772e-01 -7.272415608167648315e-02 -7.718472182750701904e-02 4.683249592781066895e-01
2.179000000000000000e+03 2.807390213012695312e+01 2.334715798497200012e-03 -1.355828195810317993e-01 3.448124602437019348e-02 -3.033046983182430267e-02 4.454464912414550781e-01
2.180000000000000000e+03 2.756114006042480469e+01 -9.692174196243286133e-01 -2.227551788091659546e-01 -3.972155507653951645e-03 -6.801819801330566406e-02 4.582446813583374023e-01
2.181000000000000000e+03 3.082353019714355469e+01 -1.506212592124938965e+00 -2.847129106521606445e-01 1.014118194580078125e-01 -5.499032512307167053e-02 3.734945058822631836e-01
2.182000000000000000e+03 2.948437309265136719e+01 -8.972628712654113770e-01 -2.154716998338699341e-01 7.178752124309539795e-02 -4.310525208711624146e-02 4.150649607181549072e-01
2.183000000000000000e+03 2.880598068237304688e+01 -3.157277107238769531e-01 -1.564724147319793701e-01 6.424190849065780640e-02 -2.766915038228034973e-02 4.309522807598114014e-01
2.184000000000000000e+03 4.042432403564453125e+01 -1.354439258575439453e+00 9.484507441520690918e-01 1.192741513252258301e+00 6.423577070236206055e-01 -1.260147929191589355e+00
2.185000000000000000e+03 4.043833541870117188e+01 -1.940607309341430664e+00 8.659632802009582520e-01 9.643415808677673340e-01 5.490914583206176758e-01 -1.125144362449645996e+00
2.186000000000000000e+03 3.116261482238769531e+01 7.882928848266601562e-01 4.973626509308815002e-02 2.555560171604156494e-01 9.158767759799957275e-02 2.575940489768981934e-01
2.187000000000000000e+03 7.596863269805908203e+00 -5.821478843688964844e+00 -1.614493376109749079e-04 1.024786382913589478e-03 2.590011281426995993e-04 1.960940135177224874e-04
2.188000000000000000e+03 3.867480087280273438e+01 -1.263702678680419922e+01 3.784815073013305664e-01 9.361760020256042480e-01 3.943972587585449219e-01 9.706630706787109375e-01
2.189000000000000000e+03 3.375507354736328125e+01 -1.393804073333740234e+00 -1.462808251380920410e-01 2.076773345470428467e-01 1.841895096004009247e-02 1.815687566995620728e-01
2.190000000000000000e+03 3.307825851440429688e+01 -6.157125830650329590e-01 -3.281903639435768127e-02 2.459271401166915894e-01 6.393243372440338135e-02 1.884759068489074707e-01
2.191000000000000000e+03 3.939450454711914062e+01 -1.258022689819335938e+01 5.071479678153991699e-01 1.132199883460998535e+00 4.918043315410614014e-01 1.181158781051635742e+00
2.192000000000000000e+03 3.794441604614257812e+01 -1.270692539215087891e+01 2.689731419086456299e-01 8.022678494453430176e-01 3.213723003864288330e-01 7.864452600479125977e-01
2.193000000000000000e+03 4.286838912963867188e+01 -1.157039451599121094e+01 1.091809272766113281e+00 2.810166597366333008e+00 1.170592784881591797e+00 2.580316781997680664e+00
2.194000000000000000e+03 3.536452865600585938e+01 -7.267510890960693359e-01 1.565263718366622925e-01 3.834915161132812500e-01 1.620053648948669434e-01 -6.990688294172286987e-02
2.195000000000000000e+03 3.459136199951171875e+01 -6.811743974685668945e-01 8.157464861869812012e-02 3.291845619678497314e-01 1.232277601957321167e-01 3.213126584887504578e-02
2.196000000000000000e+03 3.698112869262695312e+01 7.355803251266479492e-01 6.045230031013488770e-01 8.723762035369873047e-01 4.430697560310363770e-01 -5.677163600921630859e-01
2.197000000000000000e+03 4.011460113525390625e+01 -1.250283336639404297e+01 6.326419115066528320e-01 1.369946002960205078e+00 6.007763743400573730e-01 1.417368769645690918e+00
2.198000000000000000e+03 3.562140274047851562e+01 -1.216603565216064453e+01 -2.494393140077590942e-01 3.488644361495971680e-01 2.982753515243530273e-02 2.246347665786743164e-01
2.199000000000000000e+03 3.484463500976562500e+01 -1.220925331115722656e+01 -3.407622873783111572e-01 2.857449650764465332e-01 -1.650519296526908875e-02 1.214461326599121094e-01
2.200000000000000000e+03 3.330369949340820312e+01 -1.303073978424072266e+01 -2.760978937149047852e-01 3.006567656993865967e-01 7.367655169218778610e-03 1.801118254661560059e-02
2.201000000000000000e+03 3.406002807617187500e+01 -1.306716537475585938e+01 -2.019317746162414551e-01 3.439756929874420166e-01 4.261317849159240723e-02 1.083764433860778809e-01
2.202000000000000000e+03 3.641323089599609375e+01 -1.292133903503417969e+01 5.740833282470703125e-02 5.817764401435852051e-01 1.917554289102554321e-01 4.747832417488098145e-01
2.203000000000000000e+03 3.257614517211914062e+01 -1.229113388061523438e+01 -5.189756751060485840e-01 1.873527467250823975e-01 -9.948688745498657227e-02 -1.201746985316276550e-01
2.204000000000000000e+03 3.690146636962890625e+01 -8.016126751899719238e-01 3.453497588634490967e-01 5.198463201522827148e-01 2.595588266849517822e-01 -3.166390657424926758e-01
2.205000000000000000e+03 3.041269874572753906e+01 -1.321035575866699219e+01 -4.498440325260162354e-01 1.736934781074523926e-01 -8.284516632556915283e-02 -2.463616281747817993e-01
2.206000000000000000e+03 3.110488700866699219e+01 -1.323661041259765625e+01 -3.838450014591217041e-01 2.154774814844131470e-01 -5.051025748252868652e-02 -1.813406944274902344e-01
2.207000000000000000e+03 3.262535095214843750e+01 -1.304020595550537109e+01 -3.395687937736511230e-01 2.541605234146118164e-01 -2.562247961759567261e-02 -6.211999803781509399e-02
2.208000000000000000e+03 4.085788726806640625e+01 -1.314451313018798828e+01 7.835863232612609863e-01 2.003592729568481445e+00 8.361537456512451172e-01 1.819421052932739258e+00
2.209000000000000000e+03 2.968780708312988281e+01 -1.336896419525146484e+01 -4.519709646701812744e-01 1.520109772682189941e-01 -8.998800069093704224e-02 -2.883447110652923584e-01
2.210000000000000000e+03 3.830511093139648438e+01 -1.633600473403930664e+00 3.796924054622650146e-01 5.448508858680725098e-01 2.773630023002624512e-01 -4.784126579761505127e-01
2.211000000000000000e+03 2.714789772033691406e+01 -1.344207954406738281e+01 -5.078333020210266113e-01 1.216333582997322083e-01 -1.158599779009819031e-01 -4.136121571063995361e-01
2.212000000000000000e+03 2.889268112182617188e+01 -1.345096683502197266e+01 -4.548725485801696777e-01 1.573645323514938354e-01 -8.925241231918334961e-02 -3.302451074123382568e-01
2.213000000000000000e+03 2.394762992858886719e+01 -1.237840652465820312e+01 -6.606753468513488770e-01 8.589565753936767578e-02 -1.724339127540588379e-01 -5.153411626815795898e-01
2.214000000000000000e+03 2.637058067321777344e+01 -1.245594978332519531e+01 -6.534578204154968262e-01 8.762942999601364136e-02 -1.697485297918319702e-01 -4.555925130844116211e-01
2.215000000000000000e+03 3.765584182739257812e+01 -8.659597039222717285e-01 4.443209767341613770e-01 6.267200112342834473e-01 3.213122785091400146e-01 -4.609192311763763428e-01
2.216000000000000000e+03 2.291307067871093750e+01 -3.365324139595031738e-01 -1.044809147715568542e-01 -2.487356364727020264e-01 -1.059649661183357239e-01 4.093464016914367676e-01
2.217000000000000000e+03 4.009542465209960938e+01 -8.977972865104675293e-01 9.491308927536010742e-01 1.251206994056701660e+00 6.601013541221618652e-01 -1.233351469039916992e+00
2.218000000000000000e+03 3.918928527832031250e+01 -1.072860479354858398e+00 7.227462530136108398e-01 8.896427154541015625e-01 4.837166666984558105e-01 -8.581674098968505859e-01
2.219000000000000000e+03 2.476610183715820312e+01 -1.313532352447509766e+01 -5.879722833633422852e-01 1.054836586117744446e-01 -1.447465866804122925e-01 -4.995982646942138672e-01
2.220000000000000000e+03 2.630800247192382812e+01 -1.327224636077880859e+01 -5.522366762161254883e-01 1.098697632551193237e-01 -1.327100843191146851e-01 -4.502258300781250000e-01
2.221000000000000000e+03 2.114434432983398438e+01 -1.336128044128417969e+01 -6.002220511436462402e-01 2.831174619495868683e-02 -1.715730875730514526e-01 -5.376834273338317871e-01
2.222000000000000000e+03 2.125745964050292969e+01 -1.444313430786132812e+01 -5.493623614311218262e-01 3.492386266589164734e-02 -1.543315500020980835e-01 -5.203688144683837891e-01
2.223000000000000000e+03 2.318310737609863281e+01 5.697495937347412109e-01 -9.352634847164154053e-02 -2.667985856533050537e-01 -1.080974787473678589e-01 4.396341741085052490e-01
2.224000000000000000e+03 2.234790802001953125e+01 7.908076643943786621e-01 -7.796549797058105469e-02 -3.370145261287689209e-01 -1.244940087199211121e-01 4.103586971759796143e-01
2.225000000000000000e+03 7.280191040039062500e+01 1.270468807220458984e+01 -7.615042477846145630e-02 7.791165828704833984e+00 2.314504623413085938e+00 6.589401960372924805e-01
2.226000000000000000e+03 4.676380634307861328e+00 6.458279609680175781e+00 1.230175141245126724e-03 2.246821532025933266e-04 4.364571650512516499e-04 -3.401034919079393148e-04
2.227000000000000000e+03 2.484857559204101562e+01 7.096454620361328125e+00 -1.045460328459739685e-01 -2.754698321223258972e-02 -3.962790593504905701e-02 3.268812894821166992e-01
2.228000000000000000e+03 1.978366470336914062e+01 -1.708181571960449219e+01 -4.086907207965850830e-01 -4.242331162095069885e-02 -1.353342086076736450e-01 -4.363712966442108154e-01
2.229000000000000000e+03 2.096666908264160156e+01 -1.690684890747070312e+01 -3.785931169986724854e-01 3.389440849423408508e-02 -1.034096106886863708e-01 -4.415370523929595947e-01
2.230000000000000000e+03 7.272276306152343750e+01 3.149214982986450195e+00 1.437255591154098511e-01 7.233330249786376953e+00 2.213116884231567383e+00 6.273325085639953613e-01
2.231000000000000000e+03 2.259274482727050781e+01 1.816196799278259277e+00 -7.595780491828918457e-02 -3.606858849525451660e-01 -1.309931129217147827e-01 4.343565702438354492e-01
2.232000000000000000e+03 7.298673248291015625e+01 -2.044550132751464844e+01 5.831323098391294479e-03 7.412952423095703125e+00 2.225635051727294922e+00 -6.313541531562805176e-01
2.233000000000000000e+03 6.349692821502685547e+00 5.505157470703125000e+00 1.551098976051434875e-04 -7.204187568277120590e-04 -1.695926475804299116e-04 5.872939364053308964e-04
2.234000000000000000e+03 7.016815948486328125e+01 -5.439730167388916016e+00 5.571904182434082031e-01 7.153334140777587891e+00 2.313157320022583008e+00 1.181060299277305603e-01
2.235000000000000000e+03 7.288803100585937500e+01 -2.552852153778076172e+00 2.874275445938110352e-01 6.954907417297363281e+00 2.172700405120849609e+00 3.134646415710449219e-01
2.236000000000000000e+03 1.950167465209960938e+01 -1.860654830932617188e+01 -3.007940351963043213e-01 -4.786157980561256409e-02 -1.045966893434524536e-01 -3.833491504192352295e-01
2.237000000000000000e+03 2.104076194763183594e+01 -1.922018623352050781e+01 -1.964560747146606445e-01 4.651948064565658569e-02 -4.498097673058509827e-02 -3.539011478424072266e-01
2.238000000000000000e+03 7.443992137908935547e+00 2.449017524719238281e+01 -5.941548570990562439e-02 -3.462708294391632080e-01 -1.217058897018432617e-01 3.857530951499938965e-01
2.239000000000000000e+03 7.277410888671875000e+01 6.040271759033203125e+00 6.243104860186576843e-02 7.402428150177001953e+00 2.239457845687866211e+00 6.967036724090576172e-01
2.240000000000000000e+03 6.947480010986328125e+01 2.003265857696533203e+00 3.227665126323699951e-01 7.438477993011474609e+00 2.328373432159423828e+00 7.384042143821716309e-01
2.241000000000000000e+03 7.412873840332031250e+01 2.326753044128417969e+01 -8.307533711194992065e-02 8.344152450561523438e+00 2.478322982788085938e+00 3.541972637176513672e-01
2.242000000000000000e+03 7.223504638671875000e+01 -1.241658401489257812e+01 2.711952030658721924e-01 7.072958469390869141e+00 2.203246116638183594e+00 -4.374459087848663330e-01
2.243000000000000000e+03 7.220484924316406250e+01 -1.599551296234130859e+01 1.501319259405136108e-01 7.234355449676513672e+00 2.215346336364746094e+00 -6.031786799430847168e-01
2.244000000000000000e+03 7.204129028320312500e+01 -1.724925804138183594e+01 1.086286827921867371e-01 7.312736988067626953e+00 2.226409673690795898e+00 -6.452299356460571289e-01
2.245000000000000000e+03 7.227175140380859375e+01 -1.360012245178222656e+01 2.346117198467254639e-01 7.118281364440917969e+00 2.205868005752563477e+00 -5.020405650138854980e-01
2.246000000000000000e+03 7.155926513671875000e+01 -8.548117637634277344e+00 4.177726507186889648e-01 7.037354469299316406e+00 2.236538171768188477e+00 -1.663940995931625366e-01
2.247000000000000000e+03 7.155385589599609375e+01 -2.560125827789306641e+00 3.829735517501831055e-01 7.082846641540527344e+00 2.239746093750000000e+00 3.500088453292846680e-01
2.248000000000000000e+03 2.425886726379394531e+01 3.399464130401611328e+00 -7.104561477899551392e-02 -1.957470774650573730e-01 -8.003780990839004517e-02 4.564660787582397461e-01
2.249000000000000000e+03 2.637464332580566406e+01 4.654999256134033203e+00 -2.579161711037158966e-02 7.447745651006698608e-02 1.460575126111507416e-02 3.635940551757812500e-01
2.250000000000000000e+03 7.264424133300781250e+01 1.408364009857177734e+01 -9.090159088373184204e-02 7.860035896301269531e+00 2.330740213394165039e+00 6.417998075485229492e-01
2.251000000000000000e+03 7.150718688964843750e+01 1.252394104003906250e+01 -9.570133686065673828e-02 7.796834468841552734e+00 2.310339927673339844e+00 7.253872752189636230e-01
2.252000000000000000e+03 7.108757019042968750e+01 1.923666191101074219e+01 -1.612092703580856323e-01 8.019150733947753906e+00 2.357382535934448242e+00 5.668892264366149902e-01
2.253000000000000000e+03 8.398901939392089844e+00 3.034617996215820312e+01 1.286841779947280884e-01 -4.145570397377014160e-01 -8.576186001300811768e-02 2.934470772743225098e-01
2.254000000000000000e+03 1.138930511474609375e+01 3.010165977478027344e+01 1.779337078332901001e-01 -3.672529160976409912e-01 -5.679575726389884949e-02 2.769696712493896484e-01
2.255000000000000000e+03 7.231453704833984375e+01 -3.029652023315429688e+01 -1.524263769388198853e-01 7.849878311157226562e+00 2.309235572814941406e+00 -4.552946984767913818e-01
2.256000000000000000e+03 6.887922668457031250e+01 -2.953193855285644531e+01 -2.744055688381195068e-01 7.828750133514404297e+00 2.266303300857543945e+00 -5.432972311973571777e-01
2.257000000000000000e+03 7.169741821289062500e+01 -1.859848785400390625e+01 6.156164035201072693e-02 7.407307147979736328e+00 2.240660667419433594e+00 -6.827996969223022461e-01
2.258000000000000000e+03 6.966165924072265625e+01 2.717342376708984375e+01 -1.893334090709686279e-01 8.061227798461914062e+00 2.361568212509155273e+00 3.487358093261718750e-01
2.259000000000000000e+03 7.174301910400390625e+01 2.043408012390136719e+01 -1.514118760824203491e-01 8.078199386596679688e+00 2.378036260604858398e+00 5.137816667556762695e-01
2.260000000000000000e+03 2.500529098510742188e+01 5.299283504486083984e+00 -7.352086156606674194e-02 -6.440448015928268433e-02 -4.137760028243064880e-02 3.940851688385009766e-01
2.261000000000000000e+03 2.556645393371582031e+01 5.948572635650634766e+00 -5.438165366649627686e-02 4.042800888419151306e-02 -4.186093807220458984e-03 3.396313488483428955e-01
2.262000000000000000e+03 2.477125740051269531e+01 1.504824256896972656e+01 -1.706615388393402100e-01 4.067823886871337891e-01 7.083626091480255127e-02 -8.081670850515365601e-02
2.263000000000000000e+03 7.097936248779296875e+01 -2.803615188598632812e+01 -1.775310188531875610e-01 7.790971279144287109e+00 2.284032106399536133e+00 -5.673378705978393555e-01
2.264000000000000000e+03 7.144424438476562500e+01 1.571873307228088379e+00 2.523890733718872070e-01 7.266623973846435547e+00 2.255703926086425781e+00 6.326940059661865234e-01
2.265000000000000000e+03 7.289045715332031250e+01 2.462485432624816895e-01 2.306774258613586426e-01 7.068883419036865234e+00 2.189868211746215820e+00 4.963777661323547363e-01
2.266000000000000000e+03 9.485084533691406250e+00 2.233092117309570312e+01 -2.226831316947937012e-01 -3.933390974998474121e-01 -1.848066598176956177e-01 4.632263779640197754e-01
2.267000000000000000e+03 1.032785701751708984e+01 2.892699050903320312e+01 1.498859077692031860e-01 -4.067350029945373535e-01 -7.705473154783248901e-02 3.195221424102783203e-01
2.268000000000000000e+03 1.870453262329101562e+01 2.030440139770507812e+01 -1.552591621875762939e-01 -3.256504535675048828e-01 -1.442728936672210693e-01 8.077060431241989136e-02
2.269000000000000000e+03 1.777662277221679688e+01 2.192129325866699219e+01 -4.425490647554397583e-02 -3.421706259250640869e-01 -1.159276589751243591e-01 1.132054030895233154e-01
2.270000000000000000e+03 1.770080757141113281e+01 -2.658251571655273438e+01 2.144164890050888062e-01 -8.394777029752731323e-02 3.914061561226844788e-02 -2.469595372676849365e-01
2.271000000000000000e+03 9.683036804199218750e+00 -2.468165969848632812e+01 3.102039918303489685e-02 -5.038173794746398926e-01 -1.418391019105911255e-01 -4.425286650657653809e-01
2.272000000000000000e+03 7.258897781372070312e+00 2.605351448059082031e+01 6.722050020471215248e-04 -3.791585862636566162e-01 -1.135459095239639282e-01 3.730282187461853027e-01
2.273000000000000000e+03 8.928883552551269531e+00 2.477974700927734375e+01 -4.898196831345558167e-02 -4.008671641349792480e-01 -1.349547505378723145e-01 4.336109757423400879e-01
2.274000000000000000e+03 7.126596069335937500e+01 1.389727020263671875e+01 -1.196239739656448364e-01 7.855278015136718750e+00 2.320696353912353516e+00 7.055203914642333984e-01
2.275000000000000000e+03 7.188880157470703125e+01 -2.076663780212402344e+01 -5.511400755494832993e-03 7.491035461425781250e+00 2.245657205581665039e+00 -6.808353662490844727e-01
2.276000000000000000e+03 7.223075866699218750e+01 2.208357620239257812e+01 -1.312668621540069580e-01 8.158493041992187500e+00 2.408167839050292969e+00 4.514676928520202637e-01
2.277000000000000000e+03 2.175447463989257812e+01 -1.788306999206542969e+01 -2.760926783084869385e-01 8.517289906740188599e-02 -5.727593600749969482e-02 -3.969009816646575928e-01
2.278000000000000000e+03 1.023788261413574219e+01 -2.332928276062011719e+01 -5.703388527035713196e-02 -5.236576795578002930e-01 -1.742074638605117798e-01 -4.723317325115203857e-01
2.279000000000000000e+03 8.319021224975585938e+00 3.597576141357421875e+01 1.556220352649688721e-01 -4.106133878231048584e-01 -7.649740576744079590e-02 1.674287766218185425e-01
2.280000000000000000e+03 6.996167755126953125e+01 -2.581751441955566406e+01 -1.721368730068206787e-01 7.757604598999023438e+00 2.275640487670898438e+00 -6.620097160339355469e-01
2.281000000000000000e+03 7.253810119628906250e+01 -2.828229522705078125e+01 -1.352260410785675049e-01 7.787538051605224609e+00 2.295693635940551758e+00 -5.078014731407165527e-01
2.282000000000000000e+03 2.042833518981933594e+01 -2.095790100097656250e+01 -8.604211360216140747e-02 2.187347412109375000e-02 -1.925059221684932709e-02 -2.980181574821472168e-01
2.283000000000000000e+03 7.247547912597656250e+01 3.093124580383300781e+01 -9.014362096786499023e-02 8.410163879394531250e+00 2.496006011962890625e+00 2.063463032245635986e-01
2.284000000000000000e+03 2.436902809143066406e+01 -1.498679447174072266e+01 -4.128152430057525635e-01 1.433356404304504395e-01 -8.084388822317123413e-02 -4.651337563991546631e-01
2.285000000000000000e+03 2.354626655578613281e+01 1.590286350250244141e+01 -2.106434702873229980e-01 2.393958717584609985e-01 8.625719696283340454e-03 -4.458087682723999023e-02
2.286000000000000000e+03 9.965283393859863281e+00 -3.201067733764648438e+01 1.807729899883270264e-01 -4.415518939495086670e-01 -7.823367416858673096e-02 -2.891218662261962891e-01
2.287000000000000000e+03 8.626544952392578125e+00 -2.687173080444335938e+01 7.497279345989227295e-02 -4.923397898674011230e-01 -1.252100914716720581e-01 -4.077064990997314453e-01
2.288000000000000000e+03 4.415740203857421875e+01 -2.616559267044067383e+00 1.893473148345947266e+00 3.592260599136352539e+00 1.645720124244689941e+00 -3.349150657653808594e+00
2.289000000000000000e+03 4.642742538452148438e+01 -9.256148338317871094e+00 1.418139815330505371e+00 1.024878978729248047e+01 3.500078916549682617e+00 5.135486125946044922e+00
2.290000000000000000e+03 4.707619857788085938e+01 -3.607499122619628906e+00 1.077836155891418457e+00 1.313145637512207031e+01 4.262787818908691406e+00 -4.240726947784423828e+00
2.291000000000000000e+03 4.710000991821289062e+01 -9.383616447448730469e+00 7.238784432411193848e-01 1.304279899597167969e+01 4.130003452301025391e+00 4.101170063018798828e+00
2.292000000000000000e+03 4.733868789672851562e+01 -9.521260261535644531e+00 5.039261579513549805e-01 1.340507507324218750e+01 4.172700405120849609e+00 3.472841501235961914e+00
2.293000000000000000e+03 4.745608520507812500e+01 -3.784746885299682617e+00 9.948897957801818848e-01 1.484524726867675781e+01 4.752040863037109375e+00 -3.331161499023437500e+00
2.294000000000000000e+03 4.440046310424804688e+01 -3.462384700775146484e+00 2.228497028350830078e+00 3.083755016326904297e+00 1.593675613403320312e+00 -3.377746582031250000e+00
2.295000000000000000e+03 4.491343688964843750e+01 -1.000480175018310547e+01 1.658629894256591797e+00 4.972404956817626953e+00 1.989310503005981445e+00 4.035114288330078125e+00
2.296000000000000000e+03 4.788574218750000000e+01 -8.999912261962890625e+00 8.744775056838989258e-01 1.614012527465820312e+01 5.104381084442138672e+00 1.976376295089721680e+00
2.297000000000000000e+03 4.697864151000976562e+01 -3.234452247619628906e+00 9.107320904731750488e-01 1.200356674194335938e+01 3.874289512634277344e+00 -4.111078739166259766e+00
2.298000000000000000e+03 4.793146133422851562e+01 -9.884582519531250000e+00 2.760691046714782715e-01 1.382275390625000000e+01 4.229646682739257812e+00 2.187505245208740234e+00
2.299000000000000000e+03 4.959193801879882812e+01 -7.826453208923339844e+00 5.901780605316162109e+00 1.455099582672119141e+01 6.135832786560058594e+00 -2.036823749542236328e+00
2.300000000000000000e+03 5.000596618652343750e+01 -6.102281570434570312e+00 7.906206130981445312e+00 1.298095893859863281e+01 6.266149520874023438e+00 5.508638024330139160e-01
2.301000000000000000e+03 5.050943374633789062e+01 -5.627871036529541016e+00 6.593017101287841797e+00 1.232152938842773438e+01 5.674364089965820312e+00 1.099353075027465820e+00
2.302000000000000000e+03 5.011246109008789062e+01 -7.594120502471923828e+00 6.352493286132812500e+00 1.324273777008056641e+01 5.878569126129150391e+00 -1.721751689910888672e+00
2.303000000000000000e+03 5.012026977539062500e+01 -5.034248352050781250e+00 5.888895988464355469e+00 1.327733421325683594e+01 5.749868869781494141e+00 1.753741741180419922e+00
2.304000000000000000e+03 4.788610839843750000e+01 -3.752130031585693359e+00 9.489013552665710449e-01 1.558205413818359375e+01 4.959286689758300781e+00 -2.045441627502441406e+00
2.305000000000000000e+03 4.966843414306640625e+01 -8.306913375854492188e+00 4.405344486236572266e+00 1.450122833251953125e+01 5.671971797943115234e+00 -1.903574824333190918e+00
2.306000000000000000e+03 4.927399063110351562e+01 -8.035785675048828125e+00 4.970048904418945312e+00 1.544829654693603516e+01 6.125503540039062500e+00 -1.988181471824645996e+00
2.307000000000000000e+03 4.906319046020507812e+01 -3.910919427871704102e+00 2.478306531906127930e+00 1.528837490081787109e+01 5.330004692077636719e+00 8.467173576354980469e-01
2.308000000000000000e+03 4.935391998291015625e+01 -4.549622058868408203e+00 4.323238372802734375e+00 1.516100597381591797e+01 5.845273494720458984e+00 1.766102433204650879e+00
2.309000000000000000e+03 4.868226242065429688e+01 -8.968369483947753906e+00 1.710016250610351562e+00 1.586392784118652344e+01 5.272183418273925781e+00 -1.952885538339614868e-01
2.310000000000000000e+03 4.930995178222656250e+01 -8.747008323669433594e+00 3.010813713073730469e+00 1.510606861114501953e+01 5.435064315795898438e+00 -1.391990184783935547e+00
2.311000000000000000e+03 4.388148117065429688e+01 -1.051661872863769531e+01 1.416877508163452148e+00 3.331506967544555664e+00 1.424515366554260254e+00 3.129318475723266602e+00
2.312000000000000000e+03 4.440785980224609375e+01 -1.026213741302490234e+01 1.549175024032592773e+00 3.940946102142333984e+00 1.647036314010620117e+00 3.545296669006347656e+00
2.313000000000000000e+03 4.560559082031250000e+01 -9.251625061035156250e+00 2.096911191940307617e+00 6.485502719879150391e+00 2.574724197387695312e+00 4.903097629547119141e+00
2.314000000000000000e+03 4.157058715820312500e+01 -7.321938276290893555e-01 1.223904490470886230e+00 2.029481649398803711e+00 9.760158658027648926e-01 -1.891821503639221191e+00
2.315000000000000000e+03 4.229377365112304688e+01 -1.081136226654052734e+00 1.337638378143310547e+00 2.438219308853149414e+00 1.132757306098937988e+00 -2.225422620773315430e+00
2.316000000000000000e+03 2.695780372619628906e+01 -9.672220349311828613e-01 -2.170994132757186890e-01 -2.579184994101524353e-02 -7.286737859249114990e-02 4.619520902633666992e-01
2.317000000000000000e+03 2.629130172729492188e+01 -9.828814119100570679e-02 -1.525489240884780884e-01 -5.291984230279922485e-02 -6.164063140749931335e-02 4.751345515251159668e-01
2.318000000000000000e+03 2.572562026977539062e+01 2.867819666862487793e-01 -1.302450597286224365e-01 -8.294319361448287964e-02 -6.395647674798965454e-02 4.766425192356109619e-01
2.319000000000000000e+03 4.099165344238281250e+01 -1.061871886253356934e+00 1.092640995979309082e+00 1.555345535278320312e+00 7.943959832191467285e-01 -1.549596905708312988e+00
2.320000000000000000e+03 2.819891738891601562e+01 -1.006215929985046387e+00 -2.284605205059051514e-01 2.309847436845302582e-02 -6.160861253738403320e-02 4.491189122200012207e-01
2.321000000000000000e+03 2.677467536926269531e+01 -4.774938225746154785e-01 -1.803108304738998413e-01 -3.078500367701053619e-02 -6.332875043153762817e-02 4.677518308162689209e-01
2.322000000000000000e+03 3.015847587585449219e+01 -1.524217575788497925e-01 -1.063614711165428162e-01 1.361355036497116089e-01 8.932209573686122894e-03 3.706292510032653809e-01
2.323000000000000000e+03 2.723101806640625000e+01 -4.954287409782409668e-02 -1.517089456319808960e-01 -7.535506971180438995e-03 -4.777333512902259827e-02 4.636628925800323486e-01
2.324000000000000000e+03 3.083562850952148438e+01 -8.036436438560485840e-01 -1.672005504369735718e-01 1.375855356454849243e-01 -8.884506300091743469e-03 3.532094061374664307e-01
2.325000000000000000e+03 3.068792343139648438e+01 1.442499876022338867e+00 8.071746677160263062e-02 2.772663235664367676e-01 1.073951423168182373e-01 2.607918083667755127e-01
2.326000000000000000e+03 3.014701080322265625e+01 -8.588711619377136230e-01 -2.005314528942108154e-01 1.009091734886169434e-01 -2.988668158650398254e-02 3.917031288146972656e-01
2.327000000000000000e+03 3.231650924682617188e+01 -6.301329731941223145e-01 -8.569668978452682495e-02 2.014161348342895508e-01 3.471583500504493713e-02 2.548507750034332275e-01
2.328000000000000000e+03 3.232309341430664062e+01 2.076561003923416138e-01 5.226122960448265076e-02 2.780219614505767822e-01 9.908495843410491943e-02 2.018243223428726196e-01
2.329000000000000000e+03 3.314945983886718750e+01 2.015247792005538940e-01 1.076218038797378540e-01 3.337081372737884521e-01 1.323989778757095337e-01 1.187756210565567017e-01
2.330000000000000000e+03 3.940265274047851562e+01 -1.336194705963134766e+01 5.869041681289672852e-01 1.379597544670104980e+00 5.899505019187927246e-01 1.310530304908752441e+00
2.331000000000000000e+03 3.626859283447265625e+01 -1.367082786560058594e+01 1.740130633115768433e-01 7.044541239738464355e-01 2.635401487350463867e-01 5.420608520507812500e-01
2.332000000000000000e+03 3.383097076416015625e+01 -6.379982233047485352e-01 2.086317352950572968e-02 2.849392294883728027e-01 9.174071997404098511e-02 1.151212602853775024e-01
2.333000000000000000e+03 4.014008712768554688e+01 -1.326328659057617188e+01 6.828930377960205078e-01 1.684098958969116211e+00 7.100976109504699707e-01 1.552915334701538086e+00
2.334000000000000000e+03 3.563609695434570312e+01 -1.289753437042236328e+01 -6.578408181667327881e-02 4.537271559238433838e-01 1.163829192519187927e-01 3.188211917877197266e-01
2.335000000000000000e+03 3.739757537841796875e+01 -1.356991481781005859e+01 3.231452703475952148e-01 8.638426065444946289e-01 3.560963571071624756e-01 7.725281715393066406e-01
2.336000000000000000e+03 3.467761230468750000e+01 5.658785253763198853e-02 2.270047515630722046e-01 4.381017386913299561e-01 1.995319426059722900e-01 -5.973507463932037354e-02
2.337000000000000000e+03 3.544479370117187500e+01 -1.445798575878143311e-02 3.064223527908325195e-01 4.943121075630187988e-01 2.402203381061553955e-01 -1.664339601993560791e-01
2.338000000000000000e+03 3.486575317382812500e+01 -1.296301078796386719e+01 -1.427111774682998657e-01 3.895836770534515381e-01 7.406175136566162109e-02 2.157801687717437744e-01
2.339000000000000000e+03 3.580576324462890625e+01 -1.418197250366210938e+01 2.048207521438598633e-01 7.128428816795349121e-01 2.752991020679473877e-01 5.142037868499755859e-01
2.340000000000000000e+03 3.801010513305664062e+01 -1.337839412689208984e+01 3.808711767196655273e-01 9.847201704978942871e-01 4.096774160861968994e-01 9.003524184226989746e-01
2.341000000000000000e+03 3.388596725463867188e+01 -1.492506313323974609e+01 1.334959566593170166e-01 5.954467058181762695e-01 2.186827957630157471e-01 2.643586397171020508e-01
2.342000000000000000e+03 3.341529083251953125e+01 -1.429022407531738281e+01 -2.138750441372394562e-02 4.590333998203277588e-01 1.312937736511230469e-01 1.335129439830780029e-01
2.343000000000000000e+03 4.282901382446289062e+01 -1.225811958312988281e+01 1.005186200141906738e+00 3.113126754760742188e+00 1.235493898391723633e+00 2.609058141708374023e+00
2.344000000000000000e+03 3.773814773559570312e+01 -1.490557640790939331e-01 5.996543765068054199e-01 8.044449687004089355e-01 4.212298095226287842e-01 -5.955675840377807617e-01
2.345000000000000000e+03 2.900686836242675781e+01 -1.444379997253417969e+01 -2.901818454265594482e-01 2.195785045623779297e-01 -2.118099853396415710e-02 -2.770469188690185547e-01
2.346000000000000000e+03 3.187045669555664062e+01 -1.324803733825683594e+01 -3.441402912139892578e-01 2.298111319541931152e-01 -3.429874777793884277e-02 -1.223661601543426514e-01
2.347000000000000000e+03 3.292710494995117188e+01 -1.366757392883300781e+01 -1.698469817638397217e-01 3.384969234466552734e-01 5.059498548507690430e-02 2.388055622577667236e-02
2.348000000000000000e+03 2.803628921508789062e+01 -1.350407028198242188e+01 -4.712350666522979736e-01 1.412760615348815918e-01 -9.898770600557327271e-02 -3.783218264579772949e-01
2.349000000000000000e+03 3.621389389038085938e+01 -4.363301396369934082e-02 3.922715783119201660e-01 5.835921168327331543e-01 2.927591204643249512e-01 -2.923356294631958008e-01
2.350000000000000000e+03 4.054063415527343750e+01 -5.254577398300170898e-01 1.034333229064941406e+00 1.597154974937438965e+00 7.894464731216430664e-01 -1.469823479652404785e+00
2.351000000000000000e+03 2.691636657714843750e+01 -1.428355693817138672e+01 -4.226477146148681641e-01 1.586447209119796753e-01 -7.920090109109878540e-02 -4.026865959167480469e-01
2.352000000000000000e+03 4.082697677612304688e+01 -1.241374301910400391e+01 7.536016702651977539e-01 1.689294219017028809e+00 7.328687906265258789e-01 1.686440110206604004e+00
2.353000000000000000e+03 4.020256805419921875e+01 -1.405151557922363281e+01 7.173722982406616211e-01 1.982036352157592773e+00 8.098226189613342285e-01 1.676469206809997559e+00
2.354000000000000000e+03 2.215009498596191406e+01 -1.621039509773254395e-01 -7.760158181190490723e-02 -3.042352497577667236e-01 -1.145510450005531311e-01 3.755079805850982666e-01
2.355000000000000000e+03 2.552971267700195312e+01 -1.316120529174804688e+01 -5.774854421615600586e-01 1.097785755991935730e-01 -1.403120607137680054e-01 -4.731155335903167725e-01
2.356000000000000000e+03 2.313008308410644531e+01 -1.327369499206542969e+01 -5.933701992034912109e-01 8.993978053331375122e-02 -1.510291248559951782e-01 -5.232107639312744141e-01
2.357000000000000000e+03 2.228408622741699219e+01 -1.428877925872802734e+01 -5.305469632148742676e-01 8.222366124391555786e-02 -1.344970017671585083e-01 -5.187780261039733887e-01
2.358000000000000000e+03 3.843417739868164062e+01 -9.154246449470520020e-01 6.026704311370849609e-01 7.794536352157592773e-01 4.146372377872467041e-01 -6.745131611824035645e-01
2.359000000000000000e+03 2.614270591735839844e+01 -1.408851814270019531e+01 -4.642014801502227783e-01 1.316241472959518433e-01 -9.977319836616516113e-02 -4.429150521755218506e-01
2.360000000000000000e+03 3.954499435424804688e+01 -4.918617308139801025e-01 8.874351978302001953e-01 1.187189102172851562e+00 6.223872900009155273e-01 -1.105565071105957031e+00
2.361000000000000000e+03 3.841609954833984375e+01 -1.925688534975051880e-01 7.215965986251831055e-01 9.628323316574096680e-01 5.053286552429199219e-01 -8.015133738517761230e-01
2.362000000000000000e+03 2.409352111816406250e+01 -1.405111694335937500e+01 -5.173440575599670410e-01 1.119361072778701782e-01 -1.216223910450935364e-01 -4.975979626178741455e-01
2.363000000000000000e+03 2.481392288208007812e+01 -1.389109611511230469e+01 -5.133993029594421387e-01 1.239860355854034424e-01 -1.168239861726760864e-01 -4.841299057006835938e-01
2.364000000000000000e+03 7.551397323608398438e+00 5.790683269500732422e+00 4.125578852836042643e-04 -1.147812930867075920e-03 -2.205765049438923597e-04 4.866935705649666488e-05
2.365000000000000000e+03 9.006123542785644531e+00 7.008447170257568359e+00 5.547742475755512714e-04 1.876976224593818188e-03 7.295251125469803810e-04 7.844985520932823420e-05
2.366000000000000000e+03 2.156110191345214844e+01 -1.544969844818115234e+01 -4.618780314922332764e-01 6.015469133853912354e-02 -1.205170005559921265e-01 -4.900114834308624268e-01
2.367000000000000000e+03 2.071974754333496094e+01 -1.578721809387207031e+01 -4.774073958396911621e-01 1.264868490397930145e-02 -1.394276171922683716e-01 -4.825131893157958984e-01
2.368000000000000000e+03 4.154438018798828125e+01 -1.304008865356445312e+01 8.436195850372314453e-01 2.407320022583007812e+00 9.752818346023559570e-01 2.075772523880004883e+00
2.369000000000000000e+03 4.219441604614257812e+01 -1.227378368377685547e+01 9.503474831581115723e-01 2.564582347869873047e+00 1.054479002952575684e+00 2.303404331207275391e+00
2.370000000000000000e+03 2.771076965332031250e+01 4.223369359970092773e-01 -1.102095320820808411e-01 2.968445606529712677e-02 -2.415752410888671875e-02 4.493965804576873779e-01
2.371000000000000000e+03 2.548355674743652344e+01 4.564337253570556641e+00 -6.069567427039146423e-02 -4.194845259189605713e-02 -3.079323843121528625e-02 4.018913805484771729e-01
2.372000000000000000e+03 7.060694122314453125e+01 -5.135552585124969482e-02 3.538031280040740967e-01 7.257759571075439453e+00 2.283468723297119141e+00 5.727507472038269043e-01
2.373000000000000000e+03 2.183940315246582031e+01 -1.635180854797363281e+01 -3.819628059864044189e-01 8.525538444519042969e-02 -8.901222795248031616e-02 -4.554730355739593506e-01
2.374000000000000000e+03 7.008783721923828125e+01 -3.983862161636352539e+00 5.619284510612487793e-01 7.185125827789306641e+00 2.324116230010986328e+00 2.710208892822265625e-01
2.375000000000000000e+03 6.123721122741699219e+00 8.281055450439453125e+00 1.295682624913752079e-03 -1.200605416670441628e-03 2.852314901247154921e-05 7.525108521804213524e-04
2.376000000000000000e+03 7.140473937988281250e+01 -7.007096290588378906e+00 4.461846351623535156e-01 7.044962882995605469e+00 2.247344255447387695e+00 -3.770041838288307190e-02
2.377000000000000000e+03 6.994815063476562500e+01 4.862551689147949219e+00 1.519971340894699097e-01 7.537957191467285156e+00 2.306986331939697266e+00 8.224247694015502930e-01
2.378000000000000000e+03 2.351065635681152344e+01 1.512930393218994141e+00 -8.791746944189071655e-02 -2.668639719486236572e-01 -1.064344346523284912e-01 4.634658098220825195e-01
2.379000000000000000e+03 2.704491043090820312e+01 1.093572807312011719e+01 -4.739073291420936584e-02 5.628427863121032715e-01 1.546356230974197388e-01 -1.401664316654205322e-02
2.380000000000000000e+03 2.506509971618652344e+01 1.074163818359375000e+01 -1.596762537956237793e-01 1.815053373575210571e-01 6.548726931214332581e-03 1.286829411983489990e-01
2.381000000000000000e+03 2.392488098144531250e+01 2.478149890899658203e+00 -8.193200826644897461e-02 -2.327953428030014038e-01 -9.441820532083511353e-02 4.683825671672821045e-01
2.382000000000000000e+03 2.645022583007812500e+01 3.203017711639404297e+00 -2.159913629293441772e-02 2.098073810338973999e-02 -1.855193404480814934e-04 4.150763452053070068e-01
2.383000000000000000e+03 7.149176788330078125e+01 -3.966875791549682617e+00 4.190115630626678467e-01 7.056908130645751953e+00 2.242775917053222656e+00 2.432338744401931763e-01
2.384000000000000000e+03 7.011714172363281250e+01 -2.483323812484741211e+00 5.021724104881286621e-01 7.220335006713867188e+00 2.316752195358276367e+00 4.023678600788116455e-01
2.385000000000000000e+03 7.099497222900390625e+01 -1.690803909301757812e+01 1.384183317422866821e-01 7.384479522705078125e+00 2.256869316101074219e+00 -6.855168938636779785e-01
2.386000000000000000e+03 7.052711486816406250e+01 -1.798090362548828125e+01 1.066802367568016052e-01 7.459208011627197266e+00 2.269766569137573242e+00 -7.272185087203979492e-01
2.387000000000000000e+03 6.974389648437500000e+01 -2.230605697631835938e+01 -7.533700019121170044e-02 7.673116683959960938e+00 2.279334068298339844e+00 -7.497093081474304199e-01
2.388000000000000000e+03 6.945883941650390625e+01 -2.757159423828125000e+01 -2.207974642515182495e-01 7.797209262847900391e+00 2.272923469543457031e+00 -6.095882058143615723e-01
2.389000000000000000e+03 7.130442810058593750e+01 3.130511522293090820e+00 1.999126374721527100e-01 7.351794719696044922e+00 2.265512228012084961e+00 7.043444514274597168e-01
2.390000000000000000e+03 2.469400596618652344e+01 6.107022285461425781e+00 -1.001473441720008850e-01 -8.035106211900711060e-02 -5.414952337741851807e-02 3.768128454685211182e-01
2.391000000000000000e+03 6.995432281494140625e+01 1.970658302307128906e+01 -1.952418833971023560e-01 7.985869407653808594e+00 2.337188243865966797e+00 5.718696117401123047e-01
2.392000000000000000e+03 7.107366180419921875e+01 1.535149574279785156e+01 -1.394207030534744263e-01 7.907251834869384766e+00 2.330349445343017578e+00 6.781223416328430176e-01
2.393000000000000000e+03 7.022116851806640625e+01 1.216454982757568359e+01 -1.164185851812362671e-01 7.807157516479492188e+00 2.307221651077270508e+00 7.841213941574096680e-01
2.394000000000000000e+03 7.154143524169921875e+01 8.942169189453125000e+00 -2.052274160087108612e-02 7.639991760253906250e+00 2.285840749740600586e+00 7.784615755081176758e-01
2.395000000000000000e+03 1.045084095001220703e+01 2.473620033264160156e+01 -9.861523285508155823e-03 -4.814963638782501221e-01 -1.474073678255081177e-01 4.321569800376892090e-01
2.396000000000000000e+03 2.393222045898437500e+01 1.154399967193603516e+01 -2.365245819091796875e-01 3.370091319084167480e-02 -6.084710359573364258e-02 1.536849588155746460e-01
2.397000000000000000e+03 7.106324005126953125e+01 -1.148718547821044922e+01 3.856963515281677246e-01 7.143177032470703125e+00 2.258661985397338867e+00 -4.031011462211608887e-01
2.398000000000000000e+03 6.985966491699218750e+01 1.361735248565673828e+01 -1.509318947792053223e-01 7.855801105499267578e+00 2.311460733413696289e+00 7.604464888572692871e-01
2.399000000000000000e+03 7.209053802490234375e+01 -2.190072631835937500e+01 -3.596351668238639832e-02 7.528466701507568359e+00 2.247750997543334961e+00 -6.623232364654541016e-01
2.400000000000000000e+03 7.004792785644531250e+01 6.392718791961669922e+00 8.323795348405838013e-02 7.595970630645751953e+00 2.303762674331665039e+00 8.404045701026916504e-01
2.401000000000000000e+03 1.726740646362304688e+01 3.297105026245117188e+01 3.041149079799652100e-01 1.384929716587066650e-01 1.327823698520660400e-01 6.947663426399230957e-02
2.402000000000000000e+03 9.992821693420410156e+00 3.053838729858398438e+01 1.463026702404022217e-01 -3.909627497196197510e-01 -7.339801639318466187e-02 2.885041534900665283e-01
2.403000000000000000e+03 7.091484832763671875e+01 1.681593704223632812e+01 -1.570408344268798828e-01 7.946866512298583984e+00 2.336947679519653320e+00 6.399237513542175293e-01
2.404000000000000000e+03 6.960771179199218750e+01 1.515711307525634766e+01 -1.794370710849761963e-01 7.891940116882324219e+00 2.313750743865966797e+00 7.219373583793640137e-01
2.405000000000000000e+03 7.121610260009765625e+01 -2.163447380065917969e+01 -3.244501724839210510e-02 7.571125984191894531e+00 2.261604309082031250e+00 -7.105342149734497070e-01
2.406000000000000000e+03 7.061122131347656250e+01 -3.003915405273437500e+01 -2.153280526399612427e-01 7.826737880706787109e+00 2.283422946929931641e+00 -5.003794431686401367e-01
2.407000000000000000e+03 7.105428314208984375e+01 -1.985835266113281250e+01 2.355553768575191498e-02 7.499516010284423828e+00 2.256921529769897461e+00 -7.166444063186645508e-01
2.408000000000000000e+03 7.046678161621093750e+01 2.092125320434570312e+01 -1.816777735948562622e-01 8.035246849060058594e+00 2.356070756912231445e+00 5.260952115058898926e-01
2.409000000000000000e+03 6.923777770996093750e+01 2.074285697937011719e+01 -2.142035812139511108e-01 7.970988273620605469e+00 2.327035427093505859e+00 5.532025098800659180e-01
2.410000000000000000e+03 7.017771911621093750e+01 -1.626211166381835938e+01 2.007867097854614258e-01 7.414634227752685547e+00 2.284626245498657227e+00 -7.026359438896179199e-01
2.411000000000000000e+03 1.108183097839355469e+01 -2.723917579650878906e+01 1.401134878396987915e-01 -4.498769640922546387e-01 -9.292904287576675415e-02 -3.827574849128723145e-01
2.412000000000000000e+03 2.086396598815917969e+01 1.992546272277832031e+01 -1.261911690235137939e-01 -1.241842936724424362e-02 -4.158287867903709412e-02 -5.033763870596885681e-02
2.413000000000000000e+03 1.073787784576416016e+01 -2.519009780883789062e+01 6.614456325769424438e-02 -4.882005751132965088e-01 -1.266168057918548584e-01 -4.236339330673217773e-01
2.414000000000000000e+03 1.347992515563964844e+01 -2.341247367858886719e+01 6.284715607762336731e-03 -4.606397747993469238e-01 -1.363065242767333984e-01 -3.815424442291259766e-01
2.415000000000000000e+03 2.577252578735351562e+01 -1.737982940673828125e+01 -1.292643994092941284e-01 2.720118165016174316e-01 4.282422736287117004e-02 -3.115826845169067383e-01
2.416000000000000000e+03 8.437773704528808594e+00 -2.216673088073730469e+01 -1.602563560009002686e-01 -4.730595052242279053e-01 -1.899947524070739746e-01 -5.239263176918029785e-01
2.417000000000000000e+03 7.130657196044921875e+01 -2.623130035400390625e+01 -1.408444195985794067e-01 7.732570648193359375e+00 2.277517795562744141e+00 -6.094918251037597656e-01
2.418000000000000000e+03 7.040631103515625000e+01 -2.423834037780761719e+01 -1.212935149669647217e-01 7.698503017425537109e+00 2.273162841796875000e+00 -6.907700896263122559e-01
2.419000000000000000e+03 6.947422027587890625e+01 1.835579872131347656e+01 -2.037507742643356323e-01 7.948727130889892578e+00 2.323492765426635742e+00 6.227276921272277832e-01
2.420000000000000000e+03 7.212821197509765625e+01 -1.120397472381591797e+01 3.131103813648223877e-01 7.045325279235839844e+00 2.207530736923217773e+00 -3.587541580200195312e-01
2.421000000000000000e+03 7.072903442382812500e+01 -1.039383316040039062e+01 4.195856750011444092e-01 7.142785549163818359e+00 2.268711328506469727e+00 -3.387475609779357910e-01
2.422000000000000000e+03 6.962768554687500000e+01 1.017357921600341797e+01 -7.908978313207626343e-02 7.761419296264648438e+00 2.304698705673217773e+00 8.375505208969116211e-01
2.423000000000000000e+03 1.618724060058593750e+01 2.554006576538085938e+01 1.555105596780776978e-01 -2.872413098812103271e-01 -3.951922804117202759e-02 1.675529628992080688e-01
2.424000000000000000e+03 2.573994445800781250e+01 1.650531196594238281e+01 -1.122255027294158936e-01 6.388864517211914062e-01 1.579982787370681763e-01 -1.778485029935836792e-01
2.425000000000000000e+03 1.825868415832519531e+01 -2.331072807312011719e+01 3.021185286343097687e-02 -1.014226078987121582e-01 -2.136322483420372009e-02 -2.769638597965240479e-01
2.426000000000000000e+03 8.840293884277343750e+00 2.647861862182617188e+01 5.315731465816497803e-02 -4.237582087516784668e-01 -1.111802682280540466e-01 3.863514661788940430e-01
2.427000000000000000e+03 1.158354091644287109e+01 2.762793540954589844e+01 1.440523713827133179e-01 -4.086815416812896729e-01 -7.938874512910842896e-02 3.302079141139984131e-01
2.428000000000000000e+03 2.259947586059570312e+01 -1.978009796142578125e+01 -9.000913053750991821e-02 1.740292906761169434e-01 2.520604617893695831e-02 -3.090558946132659912e-01
2.429000000000000000e+03 2.303277969360351562e+01 -1.842636489868164062e+01 -1.726894974708557129e-01 1.668601036071777344e-01 -1.748816110193729401e-03 -3.501312732696533203e-01
2.430000000000000000e+03 7.074184894561767578e+00 -2.228817176818847656e+01 -1.648391336202621460e-01 -3.267487287521362305e-01 -1.474763602018356323e-01 -4.291843175888061523e-01
2.431000000000000000e+03 9.217186927795410156e+00 -2.283091735839843750e+01 -9.172277897596359253e-02 -5.135936737060546875e-01 -1.815949380397796631e-01 -4.716981947422027588e-01
2.432000000000000000e+03 6.705858612060546875e+01 2.352309036254882812e+01 -2.936722934246063232e-01 7.850569725036621094e+00 2.267069101333618164e+00 4.611258506774902344e-01
2.433000000000000000e+03 7.062342071533203125e+01 2.257717514038085938e+01 -1.823913455009460449e-01 8.066429138183593750e+00 2.365211248397827148e+00 4.791582822799682617e-01
2.434000000000000000e+03 4.632709884643554688e+01 -9.705629348754882812e+00 1.164557456970214844e+00 9.539932250976562500e+00 3.211346864700317383e+00 4.747641563415527344e+00
2.435000000000000000e+03 4.842933273315429688e+01 -3.569985866546630859e+00 1.222285151481628418e+00 1.528722953796386719e+01 4.952854156494140625e+00 -7.077088952064514160e-01
2.436000000000000000e+03 5.044148254394531250e+01 -5.903543472290039062e+00 7.189116001129150391e+00 1.234641456604003906e+01 5.860659122467041016e+00 7.537706494331359863e-01
2.437000000000000000e+03 4.953285217285156250e+01 -8.524575233459472656e+00 3.811159610748291016e+00 1.473856639862060547e+01 5.564917564392089844e+00 -1.731374263763427734e+00
2.438000000000000000e+03 4.795250320434570312e+01 -3.317016363143920898e+00 7.319659590721130371e-01 1.452256488800048828e+01 4.576359272003173828e+00 -1.997176051139831543e+00
2.439000000000000000e+03 4.964944458007812500e+01 -6.100059509277343750e+00 8.726917266845703125e+00 1.368914413452148438e+01 6.724818229675292969e+00 7.108777761459350586e-01
2.440000000000000000e+03 4.899985885620117188e+01 -8.876898765563964844e+00 2.328902482986450195e+00 1.551042652130126953e+01 5.351798534393310547e+00 -8.364002108573913574e-01
2.441000000000000000e+03 4.968198776245117188e+01 -4.372784137725830078e+00 4.078511238098144531e+00 1.434601593017578125e+01 5.527358055114746094e+00 1.705818057060241699e+00
2.442000000000000000e+03 5.028313827514648438e+01 -6.194470882415771484e+00 7.539749622344970703e+00 1.249945068359375000e+01 6.011760234832763672e+00 3.925730288028717041e-01
2.443000000000000000e+03 4.955038833618164062e+01 -4.017919063568115234e+00 3.207806587219238281e+00 1.447023582458496094e+01 5.303412914276123047e+00 1.401941180229187012e+00
2.444000000000000000e+03 4.866286468505859375e+01 -3.286315441131591797e+00 1.152071356773376465e+00 1.471917629241943359e+01 4.761374473571777344e+00 -4.326725006103515625e-01
2.445000000000000000e+03 4.938296127319335938e+01 -3.648395776748657227e+00 2.327683687210083008e+00 1.442212295532226562e+01 5.024941921234130859e+00 9.234770536422729492e-01
2.446000000000000000e+03 4.888119888305664062e+01 -3.577395439147949219e+00 1.665465354919433594e+00 1.508746147155761719e+01 5.025877952575683594e+00 1.859271824359893799e-01
2.447000000000000000e+03 4.992314910888671875e+01 -8.702418327331542969e+00 3.577652931213378906e+00 1.392559623718261719e+01 5.250974655151367188e+00 -1.692982673645019531e+00
2.448000000000000000e+03 4.594522857666015625e+01 -9.520917892456054688e+00 1.634132266044616699e+00 7.994909763336181641e+00 2.888712644577026367e+00 4.960855960845947266e+00
2.449000000000000000e+03 4.528887939453125000e+01 -3.432628631591796875e+00 2.346161603927612305e+00 5.496965408325195312e+00 2.352938175201416016e+00 -4.501516819000244141e+00
2.450000000000000000e+03 4.495232772827148438e+01 -3.107810735702514648e+00 2.184381723403930664e+00 4.854043960571289062e+00 2.111527681350708008e+00 -4.092081069946289062e+00
2.451000000000000000e+03 4.616164779663085938e+01 -3.111898899078369141e+00 1.553992509841918945e+00 8.927015304565429688e+00 3.144302129745483398e+00 -4.729743003845214844e+00
2.452000000000000000e+03 4.465261459350585938e+01 -9.502345085144042969e+00 1.959670543670654297e+00 3.703818798065185547e+00 1.699046850204467773e+00 3.740029335021972656e+00
2.453000000000000000e+03 4.408878326416015625e+01 -1.166427612304687500e+01 1.099136471748352051e+00 4.434329032897949219e+00 1.660039663314819336e+00 3.300641775131225586e+00
2.454000000000000000e+03 4.410039901733398438e+01 -1.102811431884765625e+01 1.313357949256896973e+00 4.162339210510253906e+00 1.642709136009216309e+00 3.356606006622314453e+00
2.455000000000000000e+03 4.380638504028320312e+01 -1.957184195518493652e+00 1.641733407974243164e+00 3.561187744140625000e+00 1.560876369476318359e+00 -3.075448751449584961e+00
2.456000000000000000e+03 4.326279830932617188e+01 -1.801219820976257324e+00 1.567446827888488770e+00 2.900002241134643555e+00 1.340234756469726562e+00 -2.717864036560058594e+00
2.457000000000000000e+03 4.222397613525390625e+01 -1.536995172500610352e+00 1.369784593582153320e+00 2.109123945236206055e+00 1.043672561645507812e+00 -2.113659381866455078e+00
2.458000000000000000e+03 4.127108001708984375e+01 1.052520036697387695e+00 1.040804266929626465e+00 2.655006170272827148e+00 1.108743071556091309e+00 -1.912496924400329590e+00
2.459000000000000000e+03 4.143178939819335938e+01 -1.215627938508987427e-01 1.163316369056701660e+00 2.214035749435424805e+00 1.013205647468566895e+00 -1.903856635093688965e+00
2.460000000000000000e+03 2.826619529724121094e+01 8.316688537597656250e-01 -6.827721744775772095e-02 6.791777163743972778e-02 -1.078337299986742437e-04 4.266187548637390137e-01
2.461000000000000000e+03 2.822677612304687500e+01 -4.499447643756866455e-01 -1.777439266443252563e-01 3.156458586454391479e-02 -4.385380074381828308e-02 4.459140300750732422e-01
2.462000000000000000e+03 2.725286102294921875e+01 8.872306346893310547e-01 -8.765966445207595825e-02 1.151883509010076523e-02 -2.284224890172481537e-02 4.530890285968780518e-01
2.463000000000000000e+03 2.888135719299316406e+01 1.258844137191772461e+00 -1.634657755494117737e-02 1.285360902547836304e-01 3.365685418248176575e-02 3.874719440937042236e-01
2.464000000000000000e+03 2.786082649230957031e+01 2.256994009017944336e+00 5.620328709483146667e-03 1.019360646605491638e-01 3.226691856980323792e-02 3.931342065334320068e-01
2.465000000000000000e+03 3.149112319946289062e+01 8.297088742256164551e-02 -1.768336258828639984e-02 2.171460390090942383e-01 5.983880534768104553e-02 2.750007510185241699e-01
2.466000000000000000e+03 3.078171539306640625e+01 -1.376297622919082642e-01 -8.125082403421401978e-02 1.661651283502578735e-01 2.547429129481315613e-02 3.354050517082214355e-01
2.467000000000000000e+03 3.940166091918945312e+01 -1.423332118988037109e+01 6.344588994979858398e-01 1.692439556121826172e+00 6.980695128440856934e-01 1.428862214088439941e+00
2.468000000000000000e+03 3.563681793212890625e+01 -1.357562541961669922e+01 7.280853390693664551e-02 5.438295602798461914e-01 1.849914342164993286e-01 3.975224196910858154e-01
2.469000000000000000e+03 3.788294982910156250e+01 -1.400157070159912109e+01 4.454860687255859375e-01 1.110872030258178711e+00 4.669074416160583496e-01 9.544481039047241211e-01
2.470000000000000000e+03 3.684626388549804688e+01 -1.414168453216552734e+01 3.244791924953460693e-01 8.950492143630981445e-01 3.658585250377655029e-01 7.372018694877624512e-01
2.471000000000000000e+03 4.343107604980468750e+01 -1.228023624420166016e+01 1.003571271896362305e+00 3.807095527648925781e+00 1.443199992179870605e+00 2.921925544738769531e+00
2.472000000000000000e+03 3.495131683349609375e+01 -1.369770431518554688e+01 1.932035945355892181e-02 5.058164000511169434e-01 1.575410366058349609e-01 3.085820674896240234e-01
2.473000000000000000e+03 3.688284683227539062e+01 -1.553518104553222656e+01 4.702754318714141846e-01 1.204792618751525879e+00 5.025204420089721680e-01 8.895038962364196777e-01
2.474000000000000000e+03 3.623648071289062500e+01 6.676710247993469238e-01 4.930146932601928711e-01 7.151788473129272461e-01 3.624580800533294678e-01 -3.778133392333984375e-01
2.475000000000000000e+03 3.445309829711914062e+01 -1.457917690277099609e+01 1.412868946790695190e-01 6.231325268745422363e-01 2.293258309364318848e-01 3.252807259559631348e-01
2.476000000000000000e+03 3.514147186279296875e+01 -1.443336582183837891e+01 1.724148988723754883e-01 6.492458581924438477e-01 2.464982271194458008e-01 4.239171147346496582e-01
2.477000000000000000e+03 4.042414093017578125e+01 2.878357172012329102e-01 1.040398955345153809e+00 1.811687469482421875e+00 8.556259274482727051e-01 -1.524409413337707520e+00
2.478000000000000000e+03 3.551388931274414062e+01 6.841431856155395508e-01 4.157792925834655762e-01 6.094782352447509766e-01 3.075772523880004883e-01 -2.527073025703430176e-01
2.479000000000000000e+03 3.391691207885742188e+01 1.484262943267822266e-01 1.617162078619003296e-01 3.808173537254333496e-01 1.627600640058517456e-01 3.754897788166999817e-02
2.480000000000000000e+03 3.808699035644531250e+01 4.084771871566772461e-01 7.279546260833740234e-01 1.058642983436584473e+00 5.359792709350585938e-01 -7.999015450477600098e-01
2.481000000000000000e+03 3.558856201171875000e+01 2.065946340560913086e+00 5.429005026817321777e-01 8.737391829490661621e-01 4.249919056892395020e-01 -4.315988421440124512e-01
2.482000000000000000e+03 4.219656753540039062e+01 -1.297190189361572266e+01 8.877958059310913086e-01 2.877295732498168945e+00 1.129527449607849121e+00 2.347886562347412109e+00
2.483000000000000000e+03 3.193681907653808594e+01 -1.565542316436767578e+01 5.752063915133476257e-02 4.877072572708129883e-01 1.635683774948120117e-01 6.032105535268783569e-02
2.484000000000000000e+03 3.478904342651367188e+01 7.809664607048034668e-01 3.551028072834014893e-01 5.466583967208862305e-01 2.705283463001251221e-01 -1.565870940685272217e-01
2.485000000000000000e+03 2.819378471374511719e+01 -1.446427440643310547e+01 -3.451471328735351562e-01 1.916894763708114624e-01 -4.603729769587516785e-02 -3.293408751487731934e-01
2.486000000000000000e+03 3.033945083618164062e+01 -1.546614742279052734e+01 -7.746828347444534302e-02 3.583049774169921875e-01 8.425100892782211304e-02 -1.143319234251976013e-01
2.487000000000000000e+03 4.092316818237304688e+01 -1.388672065734863281e+01 7.582359910011291504e-01 2.317788362503051758e+00 9.228072762489318848e-01 1.891212821006774902e+00
2.488000000000000000e+03 2.746618843078613281e+01 -1.484018802642822266e+01 -3.263616263866424561e-01 1.886443048715591431e-01 -4.131519421935081482e-02 -3.539624214172363281e-01
2.489000000000000000e+03 2.866516113281250000e+01 -1.527127075195312500e+01 -1.911952644586563110e-01 2.508766353130340576e-01 1.790441200137138367e-02 -2.559091448783874512e-01
2.490000000000000000e+03 2.340646743774414062e+01 -1.512689304351806641e+01 -4.274627566337585449e-01 1.218627989292144775e-01 -9.167999029159545898e-02 -4.808343946933746338e-01
2.491000000000000000e+03 3.769488906860351562e+01 1.015249967575073242e+00 7.102010250091552734e-01 1.095036506652832031e+00 5.415712594985961914e-01 -7.609296441078186035e-01
2.492000000000000000e+03 2.544977378845214844e+01 -1.390316581726074219e+01 -4.911949038505554199e-01 1.342679411172866821e-01 -1.070780903100967407e-01 -4.656322896480560303e-01
2.493000000000000000e+03 4.002278518676757812e+01 -6.951577961444854736e-02 9.597714543342590332e-01 1.566866874694824219e+00 7.579914927482604980e-01 -1.336864709854125977e+00
2.494000000000000000e+03 2.837856292724609375e+01 1.805784463882446289e+00 -3.702793736010789871e-03 1.150141656398773193e-01 3.339340910315513611e-02 3.905875086784362793e-01
2.495000000000000000e+03 2.246306419372558594e+01 -1.523249149322509766e+01 -4.539638757705688477e-01 9.708898514509201050e-02 -1.070624664425849915e-01 -4.841233193874359131e-01
2.496000000000000000e+03 2.585828971862792969e+01 -1.498530960083007812e+01 -3.626120686531066895e-01 1.712745279073715210e-01 -5.740126222372055054e-02 -4.190596938133239746e-01
2.497000000000000000e+03 2.672870445251464844e+01 -1.508248996734619141e+01 -3.147269487380981445e-01 2.001868635416030884e-01 -3.436202555894851685e-02 -3.768161237239837646e-01
2.498000000000000000e+03 2.674521636962890625e+01 4.045028090476989746e-01 -1.224131137132644653e-01 -2.267889305949211121e-02 -4.352760314941406250e-02 4.676063358783721924e-01
2.499000000000000000e+03 3.905688095092773438e+01 9.643089026212692261e-02 8.284227252006530762e-01 1.233926773071289062e+00 6.187048554420471191e-01 -1.027413845062255859e+00
2.500000000000000000e+03 3.959878540039062500e+01 4.753232896327972412e-01 9.345259070396423340e-01 1.550542831420898438e+00 7.455205917358398438e-01 -1.282319426536560059e+00
2.501000000000000000e+03 6.865311431884765625e+01 -2.226523637771606445e+00 6.230376958847045898e-01 7.345399379730224609e+00 2.390531063079833984e+00 4.684654176235198975e-01
2.502000000000000000e+03 7.000697326660156250e+01 -6.915805339813232422e+00 5.758955478668212891e-01 7.161398410797119141e+00 2.321188211441040039e+00 -3.226283937692642212e-02
2.503000000000000000e+03 6.871792602539062500e+01 4.728837013244628906e+00 1.880892366170883179e-01 7.615571022033691406e+00 2.341098070144653320e+00 8.697293996810913086e-01
2.504000000000000000e+03 2.929310607910156250e+01 5.975224971771240234e-01 -5.705995485186576843e-02 1.253370195627212524e-01 2.048312127590179443e-02 3.908225297927856445e-01
2.505000000000000000e+03 2.556934928894042969e+01 1.382590889930725098e+00 -8.486968278884887695e-02 -8.807051926851272583e-02 -5.188206210732460022e-02 4.732882380485534668e-01
2.506000000000000000e+03 2.556449127197265625e+01 2.648953437805175781e+00 -5.393968522548675537e-02 -7.917386293411254883e-02 -3.993406519293785095e-02 4.534397423267364502e-01
2.507000000000000000e+03 3.269601058959960938e+01 -1.492162322998046875e+01 1.628572307527065277e-02 4.735990762710571289e-01 1.469654440879821777e-01 9.723350405693054199e-02
2.508000000000000000e+03 6.949230957031250000e+01 -1.726873588562011719e+01 1.669270396232604980e-01 7.516855239868164062e+00 2.305134773254394531e+00 -7.624894976615905762e-01
2.509000000000000000e+03 7.018708801269531250e+01 -1.423806476593017578e+01 3.031126856803894043e-01 7.329153060913085938e+00 2.289679765701293945e+00 -6.168188452720642090e-01
2.510000000000000000e+03 6.842460632324218750e+01 1.326112079620361328e+01 -1.840862184762954712e-01 7.864117622375488281e+00 2.304009437561035156e+00 8.014981746673583984e-01
2.511000000000000000e+03 6.890274047851562500e+01 1.164080429077148438e+01 -1.316781640052795410e-01 7.824371814727783203e+00 2.307808160781860352e+00 8.314241766929626465e-01
2.512000000000000000e+03 2.338300323486328125e+01 -1.723279571533203125e+01 -2.632214128971099854e-01 1.610191911458969116e-01 -3.066066652536392212e-02 -4.014945924282073975e-01
2.513000000000000000e+03 2.571523475646972656e+01 -1.608916091918945312e+01 -2.600310742855072021e-01 2.171531766653060913e-01 -1.286336593329906464e-02 -3.787014782428741455e-01
2.514000000000000000e+03 2.574492454528808594e+01 6.864457607269287109e+00 -2.616631425917148590e-02 1.193513348698616028e-01 2.795550599694252014e-02 2.734142839908599854e-01
2.515000000000000000e+03 2.725602149963378906e+01 9.030724525451660156e+00 -8.232760243117809296e-03 4.507808387279510498e-01 1.327644139528274536e-01 8.168613165616989136e-02
2.516000000000000000e+03 2.492456436157226562e+01 1.281882381439208984e+01 -1.813716143369674683e-01 2.880706787109375000e-01 3.200972452759742737e-02 2.156425639986991882e-02
2.517000000000000000e+03 7.081188201904296875e+01 -2.283768844604492188e+01 -7.693450152873992920e-02 7.638319015502929688e+00 2.268415212631225586e+00 -7.094696760177612305e-01
2.518000000000000000e+03 6.921528625488281250e+01 -2.368818092346191406e+01 -1.359312236309051514e-01 7.736450195312500000e+00 2.280155658721923828e+00 -7.372508049011230469e-01
2.519000000000000000e+03 2.231185340881347656e+01 1.677393722534179688e+01 -2.357361167669296265e-01 5.371287465095520020e-02 -5.460697039961814880e-02 -9.647519327700138092e-03
2.520000000000000000e+03 2.322456741333007812e+01 1.816495132446289062e+01 -1.494015604257583618e-01 3.126817047595977783e-01 4.898404330015182495e-02 -1.098456457257270813e-01
2.521000000000000000e+03 7.048883819580078125e+01 -1.156794071197509766e+00 4.384610354900360107e-01 7.229333400726318359e+00 2.300338268280029297e+00 5.016518235206604004e-01
2.522000000000000000e+03 7.109928894042968750e+01 -1.585793781280517578e+01 1.919974833726882935e-01 7.321806430816650391e+00 2.254141092300415039e+00 -6.461643576622009277e-01
2.523000000000000000e+03 6.993455505371093750e+01 -1.913719940185546875e+01 5.878925696015357971e-02 7.550840377807617188e+00 2.282888889312744141e+00 -7.648763060569763184e-01
2.524000000000000000e+03 7.154386901855468750e+01 7.552497386932373047e+00 3.215609863400459290e-02 7.562950134277343750e+00 2.278531789779663086e+00 7.834991216659545898e-01
2.525000000000000000e+03 7.027523803710937500e+01 8.881832122802734375e+00 -2.400599792599678040e-02 7.693114757537841797e+00 2.300732612609863281e+00 8.331365585327148438e-01
2.526000000000000000e+03 7.074671936035156250e+01 1.086895465850830078e+01 -7.770830392837524414e-02 7.750020980834960938e+00 2.301693916320800781e+00 7.894840836524963379e-01
2.527000000000000000e+03 6.792621612548828125e+01 1.848062324523925781e+01 -2.547796368598937988e-01 7.908458709716796875e+00 2.296103715896606445e+00 6.321793794631958008e-01
2.528000000000000000e+03 6.811422729492187500e+01 1.494920063018798828e+01 -2.276584059000015259e-01 7.889327526092529297e+00 2.298500776290893555e+00 7.512052059173583984e-01
2.529000000000000000e+03 6.945614624023437500e+01 1.673553657531738281e+01 -2.034594714641571045e-01 7.921769142150878906e+00 2.315492868423461914e+00 6.771415472030639648e-01
2.530000000000000000e+03 7.029139709472656250e+01 -9.161878585815429688e+00 5.175074934959411621e-01 7.161197185516357422e+00 2.303611516952514648e+00 -2.391738891601562500e-01
2.531000000000000000e+03 7.113194274902343750e+01 -1.364419460296630859e+01 2.917933464050292969e-01 7.224928855895996094e+00 2.255016565322875977e+00 -5.488315224647521973e-01
2.532000000000000000e+03 6.799028778076171875e+01 -2.686598587036132812e+01 -2.627412080764770508e-01 7.821212768554687500e+00 2.267541408538818359e+00 -6.528564691543579102e-01
2.533000000000000000e+03 6.928198242187500000e+01 -9.942537307739257812e+00 5.882444977760314941e-01 7.271187782287597656e+00 2.357829809188842773e+00 -3.394112586975097656e-01
2.534000000000000000e+03 7.110588073730468750e+01 -1.254228687286376953e+01 3.392782211303710938e-01 7.188345909118652344e+00 2.258287191390991211e+00 -4.955828189849853516e-01
2.535000000000000000e+03 2.417725944519042969e+01 -2.014030647277832031e+01 7.328095845878124237e-03 2.964465022087097168e-01 9.113237261772155762e-02 -2.420908659696578979e-01
2.536000000000000000e+03 1.968964195251464844e+01 2.278015899658203125e+01 2.751509100198745728e-02 -3.504467010498046875e-02 -2.258874010294675827e-03 -2.153437584638595581e-02
2.537000000000000000e+03 1.905542755126953125e+01 2.479096984863281250e+01 1.342798769474029541e-01 -1.129161100834608078e-02 3.689647838473320007e-02 4.007036332041025162e-03
2.538000000000000000e+03 1.278422546386718750e+01 2.907855796813964844e+01 2.103067189455032349e-01 -3.369729816913604736e-01 -3.799987584352493286e-02 2.651334106922149658e-01
2.539000000000000000e+03 9.871946334838867188e+00 -2.604146003723144531e+01 8.780848979949951172e-02 -4.890184700489044189e-01 -1.203629970550537109e-01 -4.270195364952087402e-01
2.540000000000000000e+03 2.611778450012207031e+01 9.822654724121093750e+00 -7.808255404233932495e-02 3.168449699878692627e-01 7.162872701883316040e-02 1.129769086837768555e-01
2.541000000000000000e+03 1.440137004852294922e+01 2.486413192749023438e+01 1.044501736760139465e-01 -4.338667392730712891e-01 -9.882497042417526245e-02 2.623088955879211426e-01
2.542000000000000000e+03 1.318867397308349609e+01 2.639723396301269531e+01 1.512261033058166504e-01 -4.168320298194885254e-01 -7.968178391456604004e-02 2.994867861270904541e-01
2.543000000000000000e+03 6.719229125976562500e+01 -2.868003463745117188e+01 -3.257230520248413086e-01 7.835453987121582031e+00 2.252919197082519531e+00 -5.818868875503540039e-01
2.544000000000000000e+03 6.901876831054687500e+01 2.246317672729492188e+01 -2.328283339738845825e-01 7.972664833068847656e+00 2.321950912475585938e+00 4.952354133129119873e-01
2.545000000000000000e+03 6.864777374267578125e+01 -2.520514106750488281e+01 -1.949318200349807739e-01 7.782862186431884766e+00 2.276379108428955078e+00 -7.032506465911865234e-01
2.546000000000000000e+03 7.032127380371093750e+01 -3.485454177856445312e+01 -2.632789313793182373e-01 7.887024879455566406e+00 2.287123680114746094e+00 -3.123039901256561279e-01
2.547000000000000000e+03 1.060634613037109375e+01 2.621760177612304688e+01 8.874019980430603027e-02 -4.428190886974334717e-01 -1.062236651778221130e-01 3.822818100452423096e-01
2.548000000000000000e+03 1.379747390747070312e+01 -2.600401115417480469e+01 1.408619433641433716e-01 -3.831290304660797119e-01 -7.268012315034866333e-02 -3.548874855041503906e-01
2.549000000000000000e+03 1.617483711242675781e+01 -2.558393478393554688e+01 1.563196033239364624e-01 -2.098406404256820679e-01 -1.605630666017532349e-02 -2.957177162170410156e-01
2.550000000000000000e+03 6.993203735351562500e+01 3.289847612380981445e+00 2.470759898424148560e-01 7.459046840667724609e+00 2.311836957931518555e+00 7.747551202774047852e-01
2.551000000000000000e+03 6.843237304687500000e+01 -1.137720644474029541e-01 5.282452702522277832e-01 7.443266391754150391e+00 2.391453504562377930e+00 6.724312305450439453e-01
2.552000000000000000e+03 6.993814849853515625e+01 2.935334587097167969e+01 -1.742991209030151367e-01 8.098842620849609375e+00 2.377362966537475586e+00 2.938723862171173096e-01
2.553000000000000000e+03 6.776363372802734375e+01 2.742025184631347656e+01 -2.488484978675842285e-01 7.871086597442626953e+00 2.286671400070190430e+00 3.540332019329071045e-01
2.554000000000000000e+03 6.638854217529296875e+01 2.516172027587890625e+01 -2.924930751323699951e-01 7.784106731414794922e+00 2.247483968734741211e+00 3.944548070430755615e-01
2.555000000000000000e+03 6.878347778320312500e+01 -1.003405690193176270e+00 5.508557558059692383e-01 7.371124267578125000e+00 2.376594066619873047e+00 5.702513456344604492e-01
2.556000000000000000e+03 5.069854354858398438e+01 -7.182108879089355469e+00 6.498545169830322266e+00 1.207027626037597656e+01 5.570646286010742188e+00 -9.779540300369262695e-01
2.557000000000000000e+03 4.647812652587890625e+01 -2.532881021499633789e+00 9.867119193077087402e-01 9.633881568908691406e+00 3.186178207397460938e+00 -4.160190105438232422e+00
2.558000000000000000e+03 4.729215240478515625e+01 -3.156773090362548828e+00 6.863595843315124512e-01 1.296271800994873047e+01 4.094723224639892578e+00 -3.511169672012329102e+00
2.559000000000000000e+03 4.703118515014648438e+01 -1.005101203918457031e+01 4.340962767601013184e-01 1.166191291809082031e+01 3.628802776336669922e+00 3.751852035522460938e+00
2.560000000000000000e+03 4.975799179077148438e+01 -4.736079692840576172e+00 5.056572914123535156e+00 1.417549228668212891e+01 5.769619464874267578e+00 1.871479153633117676e+00
2.561000000000000000e+03 4.762257766723632812e+01 -9.678013801574707031e+00 3.515036702156066895e-01 1.367612361907958984e+01 4.208288192749023438e+00 2.820242881774902344e+00
2.562000000000000000e+03 4.840241622924804688e+01 -3.021763563156127930e+00 7.291417121887207031e-01 1.413454055786132812e+01 4.459104537963867188e+00 -1.181214809417724609e+00
2.563000000000000000e+03 4.685330200195312500e+01 -2.513290643692016602e+00 6.989802718162536621e-01 1.076546669006347656e+01 3.439334154129028320e+00 -3.813726663589477539e+00
2.564000000000000000e+03 4.775035476684570312e+01 -1.017555046081542969e+01 1.972862780094146729e-01 1.295200061798095703e+01 3.944785833358764648e+00 2.539530754089355469e+00
2.565000000000000000e+03 4.725901031494140625e+01 -2.797231197357177734e+00 5.617962479591369629e-01 1.217491054534912109e+01 3.821012020111083984e+00 -3.389766216278076172e+00
2.566000000000000000e+03 4.464843368530273438e+01 -1.179995250701904297e+01 9.512836933135986328e-01 5.381967544555664062e+00 1.899975419044494629e+00 3.491202592849731445e+00
2.567000000000000000e+03 5.063417053222656250e+01 -7.915695667266845703e+00 5.380931854248046875e+00 1.245452785491943359e+01 5.350637912750244141e+00 -1.616900563240051270e+00
2.568000000000000000e+03 5.036856842041015625e+01 -7.222345829010009766e+00 6.858263492584228516e+00 1.253930473327636719e+01 5.819270610809326172e+00 -1.165111303329467773e+00
2.569000000000000000e+03 4.808872604370117188e+01 -9.568643569946289062e+00 5.058658719062805176e-01 1.466261291503906250e+01 4.550543785095214844e+00 1.690788388252258301e+00
2.570000000000000000e+03 5.022982025146484375e+01 -7.964521884918212891e+00 5.358043670654296875e+00 1.320361995697021484e+01 5.568499088287353516e+00 -1.758341550827026367e+00
2.571000000000000000e+03 4.670578384399414062e+01 -9.885144233703613281e+00 7.389617562294006348e-01 1.085837841033935547e+01 3.479201793670654297e+00 4.288262844085693359e+00
2.572000000000000000e+03 5.033061599731445312e+01 -8.369036674499511719e+00 4.468118667602539062e+00 1.310996341705322266e+01 5.273424625396728516e+00 -1.753769755363464355e+00
2.573000000000000000e+03 4.918545150756835938e+01 -3.255600929260253906e+00 1.530954837799072266e+00 1.428157329559326172e+01 4.743758678436279297e+00 3.237018287181854248e-01
2.574000000000000000e+03 4.991240692138671875e+01 -3.799838066101074219e+00 3.044558525085449219e+00 1.369283676147460938e+01 5.021218776702880859e+00 1.410010457038879395e+00
2.575000000000000000e+03 4.858768844604492188e+01 -9.536065101623535156e+00 9.519506692886352539e-01 1.486644744873046875e+01 4.745519638061523438e+00 5.427263975143432617e-01
2.576000000000000000e+03 4.482581710815429688e+01 -2.402806282043457031e+00 1.771508216857910156e+00 5.082073211669921875e+00 2.056074380874633789e+00 -3.876871347427368164e+00
2.577000000000000000e+03 4.954781723022460938e+01 -9.122467041015625000e+00 2.537652969360351562e+00 1.435583400726318359e+01 5.068046092987060547e+00 -1.214880108833312988e+00
2.578000000000000000e+03 4.458919143676757812e+01 -2.812463045120239258e+00 1.984699726104736328e+00 4.206977367401123047e+00 1.857503056526184082e+00 -3.706450700759887695e+00
2.579000000000000000e+03 4.556127548217773438e+01 -3.093607664108276367e+00 1.990587949752807617e+00 6.711665153503417969e+00 2.610675811767578125e+00 -4.627277374267578125e+00
2.580000000000000000e+03 4.282794189453125000e+01 -1.071611046791076660e+00 1.394517660140991211e+00 2.949783086776733398e+00 1.303290247917175293e+00 -2.537439346313476562e+00
2.581000000000000000e+03 4.184785461425781250e+01 -1.238048434257507324e+00 1.286659836769104004e+00 1.944741129875183105e+00 9.694202542304992676e-01 -1.953511238098144531e+00
2.582000000000000000e+03 3.000663185119628906e+01 1.012548446655273438e+00 1.247897464781999588e-02 1.965174973011016846e-01 6.269893795251846313e-02 3.326570093631744385e-01
2.583000000000000000e+03 3.241984176635742188e+01 1.055258512496948242e+00 1.519811302423477173e-01 3.615452945232391357e-01 1.540579199790954590e-01 1.330407410860061646e-01
2.584000000000000000e+03 2.738512039184570312e+01 3.514226675033569336e+00 1.170426886528730392e-02 1.224464699625968933e-01 4.024522379040718079e-02 3.683651387691497803e-01
2.585000000000000000e+03 3.048122596740722656e+01 4.064632952213287354e-01 -3.366276249289512634e-02 1.775999814271926880e-01 4.318116605281829834e-02 3.322797715663909912e-01
2.586000000000000000e+03 2.891109848022460938e+01 2.395470142364501953e+00 4.928098991513252258e-02 2.024751007556915283e-01 7.552682608366012573e-02 3.308729231357574463e-01
2.587000000000000000e+03 3.823200988769531250e+01 -1.509852981567382812e+01 5.462361574172973633e-01 1.502267241477966309e+00 6.145510077476501465e-01 1.157843947410583496e+00
2.588000000000000000e+03 4.216651153564453125e+01 -5.645827054977416992e-01 1.291417598724365234e+00 2.590316295623779297e+00 1.164520144462585449e+00 -2.237895011901855469e+00
2.589000000000000000e+03 4.137985610961914062e+01 4.888401627540588379e-01 1.106955885887145996e+00 2.519717454910278320e+00 1.088001966476440430e+00 -1.942216157913208008e+00
2.590000000000000000e+03 3.621239852905273438e+01 -1.488752746582031250e+01 3.426048457622528076e-01 9.457212686538696289e-01 3.864978253841400146e-01 6.769954562187194824e-01
2.591000000000000000e+03 3.749766159057617188e+01 -1.682103919982910156e+01 5.543104410171508789e-01 1.707358717918395996e+00 6.785007119178771973e-01 1.114032745361328125e+00
2.592000000000000000e+03 3.106879425048828125e+01 -1.651848602294921875e+01 9.631462395191192627e-02 5.045984983444213867e-01 1.802739351987838745e-01 2.966562099754810333e-02
2.593000000000000000e+03 3.536184692382812500e+01 -1.529661941528320312e+01 3.195368945598602295e-01 8.864851593971252441e-01 3.618066310882568359e-01 5.628100037574768066e-01
2.594000000000000000e+03 3.682927703857421875e+01 1.445076823234558105e+00 6.375250220298767090e-01 1.038555264472961426e+00 5.028240680694580078e-01 -6.226551532745361328e-01
2.595000000000000000e+03 3.556706237792968750e+01 1.367370367050170898e+00 4.867122173309326172e-01 7.318719625473022461e-01 3.655752539634704590e-01 -3.361244201660156250e-01
2.596000000000000000e+03 4.339704513549804688e+01 -1.295301532745361328e+01 8.413837552070617676e-01 4.046627044677734375e+00 1.466403245925903320e+00 2.834938287734985352e+00
2.597000000000000000e+03 3.337324905395507812e+01 -1.559697151184082031e+01 1.599603891372680664e-01 6.258597970008850098e-01 2.357460558414459229e-01 2.465226948261260986e-01
2.598000000000000000e+03 3.830950546264648438e+01 1.466912269592285156e+00 8.005236983299255371e-01 1.429231166839599609e+00 6.689264774322509766e-01 -9.897853732109069824e-01
2.599000000000000000e+03 3.493944168090820312e+01 1.428215384483337402e+00 4.233482480049133301e-01 6.564186215400695801e-01 3.239300549030303955e-01 -2.420844286680221558e-01
2.600000000000000000e+03 4.159286117553710938e+01 -1.374842071533203125e+01 7.914191484451293945e-01 2.717123985290527344e+00 1.052562952041625977e+00 2.133718252182006836e+00
2.601000000000000000e+03 2.512445640563964844e+01 -1.457789325714111328e+01 -4.262273609638214111e-01 1.445227563381195068e-01 -8.451137691736221313e-02 -4.565562009811401367e-01
2.602000000000000000e+03 2.350784873962402344e+01 -1.613892555236816406e+01 -3.459446430206298828e-01 1.414547711610794067e-01 -6.134696304798126221e-02 -4.392702877521514893e-01
2.603000000000000000e+03 3.003764152526855469e+01 -1.754570007324218750e+01 1.294031888246536255e-01 5.268905758857727051e-01 1.968881338834762573e-01 -1.583467237651348114e-03
2.604000000000000000e+03 2.780808448791503906e+01 -1.578531265258789062e+01 -1.797669529914855957e-01 2.645710110664367676e-01 2.544122189283370972e-02 -2.822138369083404541e-01
2.605000000000000000e+03 3.130123329162597656e+01 1.763429403305053711e+00 1.404075026512145996e-01 3.453940153121948242e-01 1.457404643297195435e-01 1.999484449625015259e-01
2.606000000000000000e+03 3.325419616699218750e+01 1.089700102806091309e+00 2.356581985950469971e-01 4.540030062198638916e-01 2.068983614444732666e-01 2.731417678296566010e-02
2.607000000000000000e+03 2.440153694152832031e+01 -1.869702911376953125e+01 -9.281973540782928467e-02 2.639083266258239746e-01 5.132657662034034729e-02 -3.016955852508544922e-01
2.608000000000000000e+03 4.007200622558593750e+01 7.742639183998107910e-01 9.761024713516235352e-01 1.861958026885986328e+00 8.514181375503540039e-01 -1.466426849365234375e+00
2.609000000000000000e+03 2.833017539978027344e+01 3.447719573974609375e+00 5.600798875093460083e-02 2.136685699224472046e-01 8.090297132730484009e-02 3.144369721412658691e-01
2.610000000000000000e+03 4.086696243286132812e+01 4.510380625724792480e-01 1.095381379127502441e+00 2.166975975036621094e+00 9.787071943283081055e-01 -1.746917247772216797e+00
2.611000000000000000e+03 4.200948715209960938e+01 2.480514580383896828e-03 1.214106678962707520e+00 2.734144926071166992e+00 1.184475541114807129e+00 -2.210419416427612305e+00
2.612000000000000000e+03 3.423205947875976562e+01 -1.610591506958007812e+01 2.842462658882141113e-01 8.244664072990417480e-01 3.326137959957122803e-01 4.221580624580383301e-01
2.613000000000000000e+03 3.620708847045898438e+01 1.356089472770690918e+00 5.666834712028503418e-01 8.542245030403137207e-01 4.262723922729492188e-01 -4.618553817272186279e-01
2.614000000000000000e+03 3.896590042114257812e+01 -1.565728950500488281e+01 6.159512400627136230e-01 1.933399319648742676e+00 7.648051381111145020e-01 1.401450395584106445e+00
2.615000000000000000e+03 4.056524276733398438e+01 -1.571840190887451172e+01 6.315340995788574219e-01 2.699592828750610352e+00 9.993380904197692871e-01 1.821624040603637695e+00
2.616000000000000000e+03 2.953664970397949219e+01 1.782353401184082031e+00 4.744165390729904175e-02 2.113229185342788696e-01 7.762937247753143311e-02 3.232861459255218506e-01
2.617000000000000000e+03 3.171132469177246094e+01 1.259619712829589844e+00 1.142898723483085632e-01 3.264661431312561035e-01 1.322267949581146240e-01 1.861958056688308716e-01
2.618000000000000000e+03 2.731038665771484375e+01 1.856291413307189941e+00 -3.367641568183898926e-02 4.348767548799514771e-02 2.943377476185560226e-03 4.283153712749481201e-01
2.619000000000000000e+03 2.619579696655273438e+01 8.691622018814086914e-01 -1.016348227858543396e-01 -5.058589577674865723e-02 -4.566621780395507812e-02 4.734770655632019043e-01
2.620000000000000000e+03 3.868823242187500000e+01 7.953899502754211426e-01 8.088991641998291016e-01 1.350750327110290527e+00 6.478948593139648438e-01 -1.005217194557189941e+00
2.621000000000000000e+03 3.274597930908203125e+01 -1.645399856567382812e+01 1.997053027153015137e-01 6.784262061119079590e-01 2.634394466876983643e-01 2.198252528905868530e-01
2.622000000000000000e+03 2.513363075256347656e+01 3.386488676071166992e+00 -5.719145014882087708e-02 -1.036983951926231384e-01 -4.826695472002029419e-02 4.464493989944458008e-01
2.623000000000000000e+03 2.616783523559570312e+01 1.978682756423950195e+00 -5.761564522981643677e-02 -3.758388012647628784e-02 -2.855985797941684723e-02 4.572134315967559814e-01
2.624000000000000000e+03 2.434974670410156250e+01 1.124841570854187012e+00 -9.846888482570648193e-02 -1.874899119138717651e-01 -8.578763902187347412e-02 4.755481779575347900e-01
2.625000000000000000e+03 3.957672882080078125e+01 -1.508392238616943359e+01 6.461560130119323730e-01 1.996344566345214844e+00 7.927501797676086426e-01 1.541168332099914551e+00
2.626000000000000000e+03 2.673110008239746094e+01 1.396054148674011230e+00 -6.697575747966766357e-02 -5.152866244316101074e-03 -2.163858711719512939e-02 4.553124010562896729e-01
2.627000000000000000e+03 3.494075393676757812e+01 2.030022382736206055e+00 4.753078818321228027e-01 7.837981581687927246e-01 3.777318000793457031e-01 -3.137280344963073730e-01
2.628000000000000000e+03 6.852801513671875000e+01 -1.647239303588867188e+01 2.375549376010894775e-01 7.565137386322021484e+00 2.340807676315307617e+00 -7.763665318489074707e-01
2.629000000000000000e+03 3.528424072265625000e+01 -1.639648628234863281e+01 3.915557265281677246e-01 1.064480900764465332e+00 4.368110001087188721e-01 6.317443847656250000e-01
2.630000000000000000e+03 3.451034164428710938e+01 -1.526879692077636719e+01 2.325252741575241089e-01 7.463945150375366211e-01 2.936759293079376221e-01 3.973101973533630371e-01
2.631000000000000000e+03 2.653323745727539062e+01 5.672978401184082031e+00 4.851374775171279907e-03 1.456549614667892456e-01 4.515190050005912781e-02 2.958554029464721680e-01
2.632000000000000000e+03 6.797554779052734375e+01 -3.470398902893066406e+00 7.336159944534301758e-01 7.361088752746582031e+00 2.428411483764648438e+00 3.627963662147521973e-01
2.633000000000000000e+03 6.746902465820312500e+01 1.099516868591308594e+01 -1.434360146522521973e-01 7.853161811828613281e+00 2.312917709350585938e+00 8.755506277084350586e-01
2.634000000000000000e+03 6.934989929199218750e+01 8.242145538330078125e+00 -1.879835501313209534e-03 7.711017608642578125e+00 2.312741279602050781e+00 8.731873035430908203e-01
2.635000000000000000e+03 6.930151367187500000e+01 3.988906145095825195e-01 4.429241120815277100e-01 7.400619029998779297e+00 2.353063106536865234e+00 6.693235635757446289e-01
2.636000000000000000e+03 6.961083984375000000e+01 -1.105758285522460938e+01 5.079517364501953125e-01 7.273461818695068359e+00 2.334424018859863281e+00 -4.250715672969818115e-01
2.637000000000000000e+03 7.015242767333984375e+01 -1.214643859863281250e+01 4.207132756710052490e-01 7.256636142730712891e+00 2.303204774856567383e+00 -4.946290254592895508e-01
2.638000000000000000e+03 2.295001602172851562e+01 2.047192192077636719e+01 -4.393737018108367920e-02 3.660105466842651367e-01 9.662195295095443726e-02 -1.536402702331542969e-01
2.639000000000000000e+03 6.804705047607421875e+01 -2.298807907104492188e+01 -1.367969959974288940e-01 7.772997856140136719e+00 2.290860414505004883e+00 -7.750830054283142090e-01
2.640000000000000000e+03 6.885169219970703125e+01 -1.840127182006835938e+01 1.057713776826858521e-01 7.603560924530029297e+00 2.312799692153930664e+00 -7.970167994499206543e-01
2.641000000000000000e+03 7.031456756591796875e+01 -2.103200721740722656e+01 -2.450034767389297485e-02 7.605422973632812500e+00 2.274276733398437500e+00 -7.479231953620910645e-01
2.642000000000000000e+03 2.687162971496582031e+01 7.873599529266357422e+00 -1.516805775463581085e-02 3.170917034149169922e-01 9.057708829641342163e-02 1.733291000127792358e-01
2.643000000000000000e+03 2.845452308654785156e+01 8.494345664978027344e+00 8.103989809751510620e-02 5.993362069129943848e-01 2.041128426790237427e-01 1.818423718214035034e-02
2.644000000000000000e+03 2.675229072570800781e+01 6.739492893218994141e+00 2.061311854049563408e-03 2.145764380693435669e-01 6.499132513999938965e-02 2.447939962148666382e-01
2.645000000000000000e+03 6.623846435546875000e+01 1.841363334655761719e+01 -3.165822029113769531e-01 7.857817649841308594e+00 2.262370586395263672e+00 6.280639767646789551e-01
2.646000000000000000e+03 6.794776153564453125e+01 1.667408943176269531e+01 -2.487209737300872803e-01 7.899899482727050781e+00 2.295353651046752930e+00 6.941378712654113770e-01
2.647000000000000000e+03 6.945470428466796875e+01 -8.238297462463378906e+00 6.101108193397521973e-01 7.214943885803222656e+00 2.347516298294067383e+00 -1.616012901067733765e-01
2.648000000000000000e+03 2.220041084289550781e+01 -2.129770469665527344e+01 4.464440047740936279e-03 1.700879335403442383e-01 5.236571282148361206e-02 -2.597674429416656494e-01
2.649000000000000000e+03 2.580910110473632812e+01 -1.878755569458007812e+01 -2.022148855030536652e-02 3.422147929668426514e-01 9.659799188375473022e-02 -2.274726778268814087e-01
2.650000000000000000e+03 2.604960250854492188e+01 1.416450595855712891e+01 -1.165301427245140076e-01 5.915377736091613770e-01 1.425022929906845093e-01 -1.143899038434028625e-01
2.651000000000000000e+03 2.602707672119140625e+01 1.189743041992187500e+01 -1.226923465728759766e-01 4.293268024921417236e-01 9.199033677577972412e-02 4.106387961655855179e-03
2.652000000000000000e+03 7.024554443359375000e+01 1.106572628021240234e+00 3.345068991184234619e-01 7.338798046112060547e+00 2.301991462707519531e+00 6.631271839141845703e-01
2.653000000000000000e+03 6.874810791015625000e+01 3.531088829040527344e+00 2.666383683681488037e-01 7.565498352050781250e+00 2.349640846252441406e+00 8.278877735137939453e-01
2.654000000000000000e+03 6.738768768310546875e+01 -2.441772270202636719e+01 -2.126164734363555908e-01 7.820453166961669922e+00 2.282351016998291016e+00 -7.432724833488464355e-01
2.655000000000000000e+03 6.662004089355468750e+01 -2.593855857849121094e+01 -2.875554561614990234e-01 7.849052429199218750e+00 2.268449068069458008e+00 -6.920580863952636719e-01
2.656000000000000000e+03 1.015292835235595703e+01 -2.863614845275878906e+01 1.512578427791595459e-01 -4.648407399654388428e-01 -9.407486766576766968e-02 -3.642449676990509033e-01
2.657000000000000000e+03 2.955908393859863281e+01 8.102940559387207031e+00 1.604791432619094849e-01 7.384467124938964844e-01 2.696777582168579102e-01 -5.657091364264488220e-02
2.658000000000000000e+03 2.167971801757812500e+01 2.125983238220214844e+01 -3.281009569764137268e-02 2.063641101121902466e-01 5.206620693206787109e-02 -1.164671555161476135e-01
2.659000000000000000e+03 1.253374195098876953e+01 -2.724176025390625000e+01 1.593959033489227295e-01 -4.099108278751373291e-01 -7.515448331832885742e-02 -3.562767505645751953e-01
2.660000000000000000e+03 1.262576866149902344e+01 -2.487201309204101562e+01 7.221207767724990845e-02 -4.593821763992309570e-01 -1.161510348320007324e-01 -3.908342719078063965e-01
2.661000000000000000e+03 6.447946166992187500e+01 -2.917406082153320312e+01 -4.531525373458862305e-01 7.833591461181640625e+00 2.214131593704223633e+00 -5.292023420333862305e-01
2.662000000000000000e+03 6.823611450195312500e+01 -3.175102806091308594e+01 -3.143398165702819824e-01 7.832131862640380859e+00 2.255337476730346680e+00 -4.525506198406219482e-01
2.663000000000000000e+03 6.870561218261718750e+01 7.055935859680175781e+00 5.574662983417510986e-02 7.702236175537109375e+00 2.327394723892211914e+00 8.949608206748962402e-01
2.664000000000000000e+03 7.035180664062500000e+01 7.693483829498291016e+00 2.440833859145641327e-02 7.634511947631835938e+00 2.297676086425781250e+00 8.321746587753295898e-01
2.665000000000000000e+03 1.618877792358398438e+01 2.727489089965820312e+01 2.121697813272476196e-01 -1.868793070316314697e-01 7.587143220007419586e-03 1.560377776622772217e-01
2.666000000000000000e+03 6.900887298583984375e+01 -5.425925731658935547e+00 6.733378171920776367e-01 7.247037410736083984e+00 2.376112461090087891e+00 1.252580285072326660e-01
2.667000000000000000e+03 5.063480377197265625e+01 -6.304366588592529297e+00 7.092786788940429688e+00 1.197476959228515625e+01 5.720267295837402344e+00 1.598585695028305054e-01
2.668000000000000000e+03 5.071068191528320312e+01 -6.707551002502441406e+00 6.902406215667724609e+00 1.193333625793457031e+01 5.650722980499267578e+00 -4.468829929828643799e-01
2.669000000000000000e+03 5.047400283813476562e+01 -4.560594081878662109e+00 4.760337829589843750e+00 1.281325149536132812e+01 5.272077083587646484e+00 1.716996669769287109e+00
2.670000000000000000e+03 5.006055831909179688e+01 -4.205080986022949219e+00 3.879776477813720703e+00 1.356858730316162109e+01 5.234509468078613281e+00 1.665671586990356445e+00
2.671000000000000000e+03 4.735903930664062500e+01 -3.489592313766479492e+00 8.107257485389709473e-01 1.384379482269287109e+01 4.396356105804443359e+00 -3.500975370407104492e+00
2.672000000000000000e+03 4.727899169921875000e+01 -1.024410533905029297e+01 2.629188597202301025e-01 1.195435237884521484e+01 3.665181398391723633e+00 3.252866744995117188e+00
2.673000000000000000e+03 4.757392883300781250e+01 -2.786837816238403320e+00 4.571050703525543213e-01 1.278964424133300781e+01 3.974024772644042969e+00 -2.833088397979736328e+00
2.674000000000000000e+03 4.720599746704101562e+01 -2.445088624954223633e+00 4.952274262905120850e-01 1.155277061462402344e+01 3.614399194717407227e+00 -3.288918495178222656e+00
2.675000000000000000e+03 5.049499893188476562e+01 -5.314923763275146484e+00 6.173236370086669922e+00 1.245482730865478516e+01 5.588418960571289062e+00 1.364421725273132324e+00
2.676000000000000000e+03 5.048048782348632812e+01 -4.960729122161865234e+00 5.582270622253417969e+00 1.265536117553710938e+01 5.471289634704589844e+00 1.607985615730285645e+00
2.677000000000000000e+03 4.494717407226562500e+01 -1.129823207855224609e+01 1.032722711563110352e+00 5.799813747406005859e+00 2.049761056900024414e+00 3.722663402557373047e+00
2.678000000000000000e+03 4.994981765747070312e+01 -8.384826660156250000e+00 4.431184768676757812e+00 1.385101127624511719e+01 5.484658718109130859e+00 -1.861557722091674805e+00
2.679000000000000000e+03 4.521519851684570312e+01 -2.757027626037597656e+00 1.877036809921264648e+00 5.909376144409179688e+00 2.335923910140991211e+00 -4.251075267791748047e+00
2.680000000000000000e+03 4.971365356445312500e+01 -3.412490606307983398e+00 2.228165864944458008e+00 1.378040504455566406e+01 4.802571296691894531e+00 9.936243295669555664e-01
2.681000000000000000e+03 4.765089797973632812e+01 -3.408753156661987305e+00 7.334794998168945312e-01 1.431136131286621094e+01 4.513452529907226562e+00 -2.692802667617797852e+00
2.682000000000000000e+03 4.754031372070312500e+01 -1.045243453979492188e+01 1.374388188123703003e-01 1.214099979400634766e+01 3.683531522750854492e+00 2.863748788833618164e+00
2.683000000000000000e+03 4.887673568725585938e+01 -9.376004219055175781e+00 1.351781010627746582e+00 1.498278617858886719e+01 4.900370121002197266e+00 -5.713326483964920044e-02
2.684000000000000000e+03 4.920971298217773438e+01 -9.254493713378906250e+00 1.889351725578308105e+00 1.476734066009521484e+01 4.997007369995117188e+00 -6.841853857040405273e-01
2.685000000000000000e+03 4.434568405151367188e+01 -2.131508350372314453e+00 1.699056982994079590e+00 4.346985816955566406e+00 1.813812851905822754e+00 -3.499670028686523438e+00
2.686000000000000000e+03 4.992060470581054688e+01 -9.055715560913085938e+00 2.965744495391845703e+00 1.385840415954589844e+01 5.047244548797607422e+00 -1.467687249183654785e+00
2.687000000000000000e+03 4.400244522094726562e+01 -1.233453750610351562e+01 9.090335369110107422e-01 4.579297542572021484e+00 1.646499276161193848e+00 3.141204357147216797e+00
2.688000000000000000e+03 4.463277053833007812e+01 -1.081788444519042969e+01 1.334015250205993652e+00 4.875186920166015625e+00 1.862760663032531738e+00 3.717099666595458984e+00
2.689000000000000000e+03 4.340349960327148438e+01 -1.197841525077819824e+00 1.446810960769653320e+00 3.490490198135375977e+00 1.481190323829650879e+00 -2.843356132507324219e+00
2.690000000000000000e+03 4.187029647827148438e+01 5.995596647262573242e-01 1.107361197471618652e+00 2.861735105514526367e+00 1.190728902816772461e+00 -2.156198740005493164e+00
2.691000000000000000e+03 3.250288391113281250e+01 1.820885658264160156e+00 2.298498451709747314e-01 4.441401660442352295e-01 2.021970152854919434e-01 6.498340517282485962e-02
2.692000000000000000e+03 2.846029472351074219e+01 4.302205085754394531e+00 9.059026837348937988e-02 2.738121747970581055e-01 1.093207374215126038e-01 2.641693055629730225e-01
2.693000000000000000e+03 3.550151824951171875e+01 -1.956618499755859375e+01 4.716246426105499268e-01 1.653556823730468750e+00 6.375544071197509766e-01 7.973605990409851074e-01
2.694000000000000000e+03 3.771243667602539062e+01 -1.591243362426757812e+01 5.378062725067138672e-01 1.534015774726867676e+00 6.215466260910034180e-01 1.098724603652954102e+00
2.695000000000000000e+03 3.746779632568359375e+01 -1.468537521362304688e+01 4.650618135929107666e-01 1.139512896537780762e+00 4.813724160194396973e-01 9.414493441581726074e-01
2.696000000000000000e+03 4.395310211181640625e+01 -1.299398899078369141e+01 7.499310374259948730e-01 4.703502655029296875e+00 1.636030197143554688e+00 3.001670360565185547e+00
2.697000000000000000e+03 3.437056732177734375e+01 1.707596302032470703e+00 3.908528983592987061e-01 6.368566751480102539e-01 3.083128631114959717e-01 -1.766248792409896851e-01
2.698000000000000000e+03 3.029166221618652344e+01 2.207966089248657227e+00 1.099397242069244385e-01 3.007068037986755371e-01 1.231939569115638733e-01 2.533362209796905518e-01
2.699000000000000000e+03 4.283269119262695312e+01 -1.431068992614746094e+01 6.717517971992492676e-01 3.899445533752441406e+00 1.371359229087829590e+00 2.509672880172729492e+00
2.700000000000000000e+03 4.281278991699218750e+01 -1.294459247589111328e+01 8.928887844085693359e-01 3.431380271911621094e+00 1.297280788421630859e+00 2.617862462997436523e+00
2.701000000000000000e+03 3.636221313476562500e+01 2.605897903442382812e+00 6.250929236412048340e-01 1.161516308784484863e+00 5.359827876091003418e-01 -6.282702088356018066e-01
2.702000000000000000e+03 4.070915222167968750e+01 1.335821986198425293e+00 1.018507122993469238e+00 2.387567758560180664e+00 1.021822452545166016e+00 -1.738752484321594238e+00
2.703000000000000000e+03 3.669462203979492188e+01 2.080603599548339844e+00 6.491401791572570801e-01 1.160562396049499512e+00 5.429107546806335449e-01 -6.554796099662780762e-01
2.704000000000000000e+03 3.565239334106445312e+01 2.844865083694458008e+00 5.816570520401000977e-01 1.058287978172302246e+00 4.919835031032562256e-01 -5.236777067184448242e-01
2.705000000000000000e+03 3.197393798828125000e+01 -1.744483184814453125e+01 2.269704937934875488e-01 6.992746591567993164e-01 2.778735458850860596e-01 1.827941536903381348e-01
2.706000000000000000e+03 4.105096817016601562e+01 -1.463678264617919922e+01 7.114191651344299316e-01 2.644380092620849609e+00 1.006739735603332520e+00 1.956073999404907227e+00
2.707000000000000000e+03 4.168341064453125000e+01 -1.444376850128173828e+01 7.147434949874877930e-01 3.028339862823486328e+00 1.122925043106079102e+00 2.152386665344238281e+00
2.708000000000000000e+03 4.047659301757812500e+01 1.679081439971923828e+00 9.708118438720703125e-01 2.328185319900512695e+00 9.896991252899169922e-01 -1.678910851478576660e+00
2.709000000000000000e+03 4.273902130126953125e+01 -4.405160248279571533e-01 1.295583963394165039e+00 3.188169002532958984e+00 1.345125913619995117e+00 -2.523146629333496094e+00
2.710000000000000000e+03 4.400672531127929688e+01 -2.043503373861312866e-01 1.110310673713684082e+00 4.741486549377441406e+00 1.755539178848266602e+00 -3.011502981185913086e+00
2.711000000000000000e+03 3.926551437377929688e+01 1.154686927795410156e+00 9.034067392349243164e-01 1.660038471221923828e+00 7.690335512161254883e-01 -1.244490146636962891e+00
2.712000000000000000e+03 2.701977729797363281e+01 -1.726149559020996094e+01 -7.479001581668853760e-02 3.265528082847595215e-01 7.552883774042129517e-02 -2.512749135494232178e-01
2.713000000000000000e+03 2.457363319396972656e+01 -1.609832572937011719e+01 -3.050439953804016113e-01 1.756973266601562500e-01 -3.880399465560913086e-02 -4.195682406425476074e-01
2.714000000000000000e+03 3.404464340209960938e+01 9.929066300392150879e-01 2.958754301071166992e-01 5.083026885986328125e-01 2.412534356117248535e-01 -6.490612030029296875e-02
2.715000000000000000e+03 4.107658767700195312e+01 1.566892266273498535e+00 9.649019837379455566e-01 2.662516593933105469e+00 1.088225603103637695e+00 -1.829235911369323730e+00
2.716000000000000000e+03 3.618086242675781250e+01 2.007972717285156250e+00 5.882425904273986816e-01 9.842934012413024902e-01 4.717608094215393066e-01 -5.245941281318664551e-01
2.717000000000000000e+03 3.740752792358398438e+01 1.658237695693969727e+00 7.098156809806823730e-01 1.173844099044799805e+00 5.650979280471801758e-01 -7.779576182365417480e-01
2.718000000000000000e+03 3.972963714599609375e+01 -1.594071578979492188e+01 6.298655271530151367e-01 2.341617107391357422e+00 8.914447426795959473e-01 1.609431982040405273e+00
2.719000000000000000e+03 3.989068603515625000e+01 -1.698024559020996094e+01 5.769523382186889648e-01 2.640958070755004883e+00 9.653730988502502441e-01 1.632930040359497070e+00
2.720000000000000000e+03 4.034891510009765625e+01 -1.485974121093750000e+01 6.807221174240112305e-01 2.290141582489013672e+00 8.912590742111206055e-01 1.749818921089172363e+00
2.721000000000000000e+03 3.372188949584960938e+01 -1.711872673034667969e+01 3.258261680603027344e-01 9.045997858047485352e-01 3.691278100013732910e-01 4.179903566837310791e-01
2.722000000000000000e+03 2.780811500549316406e+01 1.339017271995544434e+00 -4.497443139553070068e-02 6.068795546889305115e-02 4.714057780802249908e-03 4.259472489356994629e-01
2.723000000000000000e+03 3.837948989868164062e+01 -1.642989730834960938e+01 5.914070606231689453e-01 1.915585756301879883e+00 7.520978450775146484e-01 1.304352045059204102e+00
2.724000000000000000e+03 6.870715332031250000e+01 -9.256111145019531250e+00 6.794722080230712891e-01 7.298335552215576172e+00 2.393342256546020508e+00 -2.870101034641265869e-01
2.725000000000000000e+03 2.675290489196777344e+01 1.801428222656250000e+01 -4.864313825964927673e-02 9.249800443649291992e-01 2.629010677337646484e-01 -2.763864398002624512e-01
2.726000000000000000e+03 3.482743072509765625e+01 -1.764941024780273438e+01 4.327550828456878662e-01 1.192549943923950195e+00 4.875915050506591797e-01 6.375409960746765137e-01
2.727000000000000000e+03 6.820519256591796875e+01 -1.961237525939941406e+01 3.485008329153060913e-02 7.688787460327148438e+00 2.317091226577758789e+00 -8.225665092468261719e-01
2.728000000000000000e+03 6.929711151123046875e+01 -1.327980995178222656e+01 4.183901250362396240e-01 7.375725746154785156e+00 2.338234663009643555e+00 -6.004837751388549805e-01
2.729000000000000000e+03 2.802597999572753906e+01 1.007862377166748047e+01 2.156190015375614166e-02 6.506870388984680176e-01 2.016746848821640015e-01 -3.717493265867233276e-02
2.730000000000000000e+03 7.113966369628906250e+01 -1.474690532684326172e+01 2.340874224901199341e-01 7.277696609497070312e+00 2.253535270690917969e+00 -6.089772582054138184e-01
2.731000000000000000e+03 6.780151367187500000e+01 -1.762563133239746094e+01 1.713314503431320190e-01 7.659322738647460938e+00 2.349196195602416992e+00 -8.249418735504150391e-01
2.732000000000000000e+03 2.740990066528320312e+01 4.455337047576904297e+00 3.463929146528244019e-02 1.777056604623794556e-01 6.370348483324050903e-02 3.203720450401306152e-01
2.733000000000000000e+03 2.753459548950195312e+01 2.775898218154907227e+00 5.608993582427501678e-03 9.645611047744750977e-02 3.061953186988830566e-02 3.880912661552429199e-01
2.734000000000000000e+03 2.807328605651855469e+01 1.190532207489013672e+01 -5.249613896012306213e-03 7.989501357078552246e-01 2.381101548671722412e-01 -1.430617719888687134e-01
2.735000000000000000e+03 6.873725128173828125e+01 -6.594723701477050781e+00 7.161240577697753906e-01 7.268379688262939453e+00 2.395351171493530273e+00 -4.038515035063028336e-04
2.736000000000000000e+03 6.883898162841796875e+01 -4.320060253143310547e+00 6.738339066505432129e-01 7.281013011932373047e+00 2.386454105377197266e+00 2.647930979728698730e-01
2.737000000000000000e+03 6.834008026123046875e+01 9.375991821289062500e+00 -6.175376102328300476e-02 7.793898105621337891e+00 2.319643259048461914e+00 8.933057785034179688e-01
2.738000000000000000e+03 6.694190216064453125e+01 1.287415790557861328e+01 -2.243490219116210938e-01 7.886049270629882812e+00 2.298510074615478516e+00 8.254358172416687012e-01
2.739000000000000000e+03 2.931607246398925781e+01 -1.623775863647460938e+01 -6.213241443037986755e-02 3.636739850044250488e-01 9.046246856451034546e-02 -1.580000519752502441e-01
2.740000000000000000e+03 1.360099506378173828e+01 -2.892342376708984375e+01 2.270783931016921997e-01 -3.351793289184570312e-01 -3.243027999997138977e-02 -3.112450242042541504e-01
2.741000000000000000e+03 2.242811584472656250e+01 -2.441576576232910156e+01 1.714834123849868774e-01 2.531505823135375977e-01 1.273901909589767456e-01 -1.575644910335540771e-01
2.742000000000000000e+03 2.681919479370117188e+01 -1.606190490722656250e+01 -2.106256335973739624e-01 2.420993596315383911e-01 9.442120790481567383e-03 -3.293386697769165039e-01
2.743000000000000000e+03 6.780400085449218750e+01 -7.685223221778869629e-01 6.232782602310180664e-01 7.470645904541015625e+00 2.428177356719970703e+00 6.311795115470886230e-01
2.744000000000000000e+03 6.972583770751953125e+01 -5.623760819435119629e-01 4.613330066204071045e-01 7.319122314453125000e+00 2.334136486053466797e+00 5.736987590789794922e-01
2.745000000000000000e+03 2.554343795776367188e+01 1.898965644836425781e+01 -5.865947157144546509e-02 7.375847101211547852e-01 2.036775648593902588e-01 -2.493442744016647339e-01
2.746000000000000000e+03 6.845463562011718750e+01 2.404516220092773438e+01 -2.425055950880050659e-01 7.942893028259277344e+00 2.310116291046142578e+00 4.445977807044982910e-01
2.747000000000000000e+03 6.633451080322265625e+01 1.656931877136230469e+01 -3.052450716495513916e-01 7.873578071594238281e+00 2.270499944686889648e+00 6.969760060310363770e-01
2.748000000000000000e+03 6.656475067138671875e+01 1.472142124176025391e+01 -2.758785486221313477e-01 7.883621215820312500e+00 2.282322883605957031e+00 7.614125013351440430e-01
2.749000000000000000e+03 6.619534301757812500e+01 -2.350931930541992188e+01 -2.133380025625228882e-01 7.862172126770019531e+00 2.294650316238403320e+00 -7.776105403900146484e-01
2.750000000000000000e+03 6.429710388183593750e+01 -2.380519485473632812e+01 -2.976268231868743896e-01 7.934896945953369141e+00 2.291181087493896484e+00 -7.543458342552185059e-01
2.751000000000000000e+03 2.418307113647460938e+01 2.578326988220214844e+01 1.505621075630187988e-01 7.801346182823181152e-01 2.792090177536010742e-01 -2.184529453516006470e-01
2.752000000000000000e+03 2.184155845642089844e+01 2.318661308288574219e+01 6.274395436048507690e-02 2.967198491096496582e-01 1.078391447663307190e-01 -1.348419040441513062e-01
2.753000000000000000e+03 1.789824295043945312e+01 2.647419738769531250e+01 1.977770179510116577e-01 -4.213908687233924866e-02 4.669138044118881226e-02 5.681502819061279297e-02
2.754000000000000000e+03 6.936463928222656250e+01 -1.535687637329101562e+01 2.871905863285064697e-01 7.451412200927734375e+00 2.321580886840820312e+00 -7.083523869514465332e-01
2.755000000000000000e+03 2.241509437561035156e+01 -1.695073318481445312e+01 -3.201031088829040527e-01 1.096780747175216675e-01 -6.312751024961471558e-02 -4.287824332714080811e-01
2.756000000000000000e+03 5.010584640502929688e+01 -4.636528015136718750e+00 4.929043292999267578e+00 1.345530033111572266e+01 5.515303134918212891e+00 1.816535115242004395e+00
2.757000000000000000e+03 4.943214035034179688e+01 -9.644565582275390625e+00 1.506162405014038086e+00 1.402160453796386719e+01 4.658329963684082031e+00 -5.470077991485595703e-01
2.758000000000000000e+03 5.078390502929687500e+01 -5.974246025085449219e+00 6.734011173248291016e+00 1.184561347961425781e+01 5.573887348175048828e+00 5.770166516304016113e-01
2.759000000000000000e+03 5.048104858398437500e+01 -4.114256381988525391e+00 3.874827623367309570e+00 1.285794544219970703e+01 5.019831657409667969e+00 1.651501655578613281e+00
2.760000000000000000e+03 4.618794250488281250e+01 -1.017933273315429688e+01 9.658353328704833984e-01 8.864884376525878906e+00 2.949215888977050781e+00 4.397973537445068359e+00
2.761000000000000000e+03 4.703474426269531250e+01 -1.076795101165771484e+01 2.142149955034255981e-01 1.071861457824707031e+01 3.279848814010620117e+00 3.407967329025268555e+00
2.762000000000000000e+03 4.699366378784179688e+01 -1.036775493621826172e+01 3.437241315841674805e-01 1.116181850433349609e+01 3.451662778854370117e+00 3.615179777145385742e+00
2.763000000000000000e+03 4.573545837402343750e+01 -9.993930816650390625e+00 1.405406951904296875e+00 7.383730888366699219e+00 2.636741399765014648e+00 4.578077793121337891e+00
2.764000000000000000e+03 4.537626647949218750e+01 -1.096546363830566406e+01 9.907819628715515137e-01 6.660622596740722656e+00 2.295421361923217773e+00 3.971868515014648438e+00
2.765000000000000000e+03 5.087072372436523438e+01 -6.861665725708007812e+00 6.589522838592529297e+00 1.173410701751708984e+01 5.497088909149169922e+00 -5.783011317253112793e-01
2.766000000000000000e+03 4.875959014892578125e+01 -9.887729644775390625e+00 7.110656499862670898e-01 1.412026023864746094e+01 4.449397563934326172e+00 5.185398459434509277e-01
2.767000000000000000e+03 4.746421813964843750e+01 -9.969040870666503906e+00 2.804625034332275391e-01 1.282031059265136719e+01 3.930232048034667969e+00 3.056389093399047852e+00
2.768000000000000000e+03 4.827011489868164062e+01 -1.013652515411376953e+01 2.736182510852813721e-01 1.365367221832275391e+01 4.178186893463134766e+00 1.547736167907714844e+00
2.769000000000000000e+03 4.512412261962890625e+01 -1.053026771545410156e+01 1.346980214118957520e+00 5.869303226470947266e+00 2.164885044097900391e+00 4.104301929473876953e+00
2.770000000000000000e+03 4.560409164428710938e+01 -1.053353595733642578e+01 1.134959220886230469e+00 7.038705825805664062e+00 2.452099561691284180e+00 4.223171710968017578e+00
2.771000000000000000e+03 4.780275344848632812e+01 -1.068284797668457031e+01 4.232914000749588013e-02 1.221763134002685547e+01 3.677988052368164062e+00 2.375508546829223633e+00
2.772000000000000000e+03 4.553342056274414062e+01 -1.748451113700866699e+00 1.177964806556701660e+00 7.035469055175781250e+00 2.464030027389526367e+00 -3.893313169479370117e+00
2.773000000000000000e+03 4.585719299316406250e+01 -2.758893966674804688e+00 1.529378414154052734e+00 7.859476566314697266e+00 2.816656589508056641e+00 -4.503995895385742188e+00
2.774000000000000000e+03 4.653719711303710938e+01 -2.163746118545532227e+00 7.626007795333862305e-01 9.507368087768554688e+00 3.080990552902221680e+00 -3.824987888336181641e+00
2.775000000000000000e+03 4.516299819946289062e+01 -2.040399074554443359e+00 1.473368883132934570e+00 6.010518550872802734e+00 2.245166301727294922e+00 -3.921138286590576172e+00
2.776000000000000000e+03 4.660646438598632812e+01 -1.030213356018066406e+01 6.253626346588134766e-01 1.000943851470947266e+01 3.190440177917480469e+00 4.087032794952392578e+00
2.777000000000000000e+03 4.448354721069335938e+01 -1.599581718444824219e+00 1.482371449470520020e+00 4.923695087432861328e+00 1.921819925308227539e+00 -3.508448362350463867e+00
2.778000000000000000e+03 4.395487213134765625e+01 -1.426421403884887695e+00 1.498975634574890137e+00 4.103928565979003906e+00 1.680871248245239258e+00 -3.184324741363525391e+00
2.779000000000000000e+03 4.413191223144531250e+01 -9.255334138870239258e-01 1.304963946342468262e+00 4.637832164764404297e+00 1.782838940620422363e+00 -3.212924003601074219e+00
2.780000000000000000e+03 4.325712966918945312e+01 -1.822252720594406128e-01 1.221868753433227539e+00 3.799483776092529297e+00 1.506405830383300781e+00 -2.726915597915649414e+00
2.781000000000000000e+03 4.657907485961914062e+01 -1.075220680236816406e+01 4.585459232330322266e-01 9.648179054260253906e+00 3.032017469406127930e+00 3.824298858642578125e+00
2.782000000000000000e+03 2.869038772583007812e+01 5.232089042663574219e+00 1.140553131699562073e-01 3.796718418598175049e-01 1.481181532144546509e-01 1.923201531171798706e-01
2.783000000000000000e+03 4.276043701171875000e+01 8.957347273826599121e-01 1.011291980743408203e+00 3.717464208602905273e+00 1.418626904487609863e+00 -2.437727928161621094e+00
2.784000000000000000e+03 2.685056686401367188e+01 2.461944580078125000e+00 -2.101949416100978851e-02 3.367304429411888123e-02 3.796065226197242737e-03 4.238328337669372559e-01
2.785000000000000000e+03 3.642393875122070312e+01 -1.669663810729980469e+01 4.908933937549591064e-01 1.370746850967407227e+00 5.584920644760131836e-01 8.739292621612548828e-01
2.786000000000000000e+03 4.103289794921875000e+01 2.446460247039794922e+00 8.616423010826110840e-01 2.965935945510864258e+00 1.148273468017578125e+00 -1.850973486900329590e+00
2.787000000000000000e+03 4.392235183715820312e+01 -1.366288280487060547e+01 6.256918311119079590e-01 4.825146675109863281e+00 1.635251522064208984e+00 2.875231027603149414e+00
2.788000000000000000e+03 3.261940002441406250e+01 2.513319015502929688e+00 3.200480341911315918e-01 5.665537118911743164e-01 2.659805417060852051e-01 -1.959877088665962219e-02
2.789000000000000000e+03 2.761997604370117188e+01 5.472622871398925781e+00 5.521303787827491760e-02 2.536915242671966553e-01 9.267136454582214355e-02 2.545205354690551758e-01
2.790000000000000000e+03 3.726879119873046875e+01 2.290229558944702148e+00 7.169547677040100098e-01 1.325988650321960449e+00 6.128830313682556152e-01 -8.082036972045898438e-01
2.791000000000000000e+03 3.977462387084960938e+01 1.332960247993469238e+00 9.368086457252502441e-01 1.940821409225463867e+00 8.632889986038208008e-01 -1.420652627944946289e+00
2.792000000000000000e+03 3.890263366699218750e+01 1.921165227890014648e+00 8.514768481254577637e-01 1.741396665573120117e+00 7.778620719909667969e-01 -1.191681504249572754e+00
2.793000000000000000e+03 3.779342651367187500e+01 3.450379610061645508e+00 7.175906300544738770e-01 1.747107505798339844e+00 7.394094467163085938e-01 -1.010302066802978516e+00
2.794000000000000000e+03 3.988163757324218750e+01 1.827011227607727051e+00 9.264602661132812500e-01 2.109101533889770508e+00 9.106685519218444824e-01 -1.502463817596435547e+00
2.795000000000000000e+03 3.814250564575195312e+01 -1.876258087158203125e+01 5.125357508659362793e-01 2.303753137588500977e+00 8.448867201805114746e-01 1.262528538703918457e+00
2.796000000000000000e+03 4.032537460327148438e+01 2.055755853652954102e+00 9.105211496353149414e-01 2.386983633041381836e+00 9.892514348030090332e-01 -1.630722403526306152e+00
2.797000000000000000e+03 3.698748779296875000e+01 3.028048038482666016e+00 6.734315156936645508e-01 1.396484851837158203e+00 6.209748983383178711e-01 -7.891705632209777832e-01
2.798000000000000000e+03 2.820170402526855469e+01 2.747905254364013672e+00 2.802190184593200684e-02 1.587880402803421021e-01 5.604298040270805359e-02 3.591225147247314453e-01
2.799000000000000000e+03 4.172735595703125000e+01 -1.620111274719238281e+01 5.326708555221557617e-01 3.526780366897583008e+00 1.217835307121276855e+00 2.080735921859741211e+00
2.800000000000000000e+03 4.227095031738281250e+01 -1.433263683319091797e+01 6.976700425148010254e-01 3.433720350265502930e+00 1.239417076110839844e+00 2.356914997100830078e+00
2.801000000000000000e+03 2.811115264892578125e+01 7.509618759155273438e+00 6.727026402950286865e-02 4.836348593235015869e-01 1.652715355157852173e-01 1.028973162174224854e-01
2.802000000000000000e+03 2.972727584838867188e+01 1.002036285400390625e+01 1.084754541516304016e-01 9.457026124000549316e-01 3.162534236907958984e-01 -1.764354705810546875e-01
2.803000000000000000e+03 6.737544250488281250e+01 -1.767391800880432129e+00 7.466119527816772461e-01 7.465877056121826172e+00 2.463746786117553711e+00 5.575176477432250977e-01
2.804000000000000000e+03 2.454139518737792969e+01 -1.736481857299804688e+01 -1.953303962945938110e-01 2.192274630069732666e-01 7.169116288423538208e-03 -3.528991341590881348e-01
2.805000000000000000e+03 6.846759033203125000e+01 -1.142620277404785156e+01 5.911358594894409180e-01 7.381004810333251953e+00 2.391642332077026367e+00 -4.937956929206848145e-01
2.806000000000000000e+03 3.885583114624023438e+01 -1.734470748901367188e+01 5.657719373703002930e-01 2.258308649063110352e+00 8.472241759300231934e-01 1.411888241767883301e+00
2.807000000000000000e+03 3.477787399291992188e+01 2.763739824295043945e+00 5.056534409523010254e-01 8.921802043914794922e-01 4.193500876426696777e-01 -3.521788418292999268e-01
2.808000000000000000e+03 6.805661010742187500e+01 6.678320765495300293e-01 4.958851933479309082e-01 7.493820190429687500e+00 2.396911621093750000e+00 7.220231890678405762e-01
2.809000000000000000e+03 6.713633728027343750e+01 6.716195940971374512e-01 5.505155324935913086e-01 7.575211524963378906e+00 2.437718152999877930e+00 7.610684037208557129e-01
2.810000000000000000e+03 3.077070999145507812e+01 -2.003555870056152344e+01 3.212180435657501221e-01 8.728690147399902344e-01 3.582261204719543457e-01 2.160273641347885132e-01
2.811000000000000000e+03 6.755679321289062500e+01 -2.087895011901855469e+01 -4.523609206080436707e-02 7.760519981384277344e+00 2.314585208892822266e+00 -8.262992501258850098e-01
2.812000000000000000e+03 6.928572082519531250e+01 -2.035335922241210938e+01 -1.660264213569462299e-03 7.637188434600830078e+00 2.290658473968505859e+00 -7.846681475639343262e-01
2.813000000000000000e+03 6.866025543212890625e+01 -2.163919830322265625e+01 -6.737942993640899658e-02 7.715700626373291016e+00 2.294496297836303711e+00 -7.914254069328308105e-01
2.814000000000000000e+03 3.302222442626953125e+01 -1.826662826538085938e+01 3.545860052108764648e-01 9.818749427795410156e-01 4.009383022785186768e-01 3.889755606651306152e-01
2.815000000000000000e+03 3.187639808654785156e+01 1.872329235076904297e+00 2.008009850978851318e-01 4.135504364967346191e-01 1.843054294586181641e-01 1.186558604240417480e-01
2.816000000000000000e+03 3.392065429687500000e+01 2.437204599380493164e+00 4.067094027996063232e-01 6.920967698097229004e-01 3.296418488025665283e-01 -1.739800274372100830e-01
2.817000000000000000e+03 6.832408142089843750e+01 -7.753489494323730469e+00 7.450001239776611328e-01 7.305186748504638672e+00 2.415055990219116211e+00 -1.196599230170249939e-01
2.818000000000000000e+03 2.387068367004394531e+01 -2.170438194274902344e+01 9.226826578378677368e-02 3.350258767604827881e-01 1.281882524490356445e-01 -1.967505067586898804e-01
2.819000000000000000e+03 6.755086517333984375e+01 -1.565505504608154297e+01 3.290441334247589111e-01 7.611052513122558594e+00 2.382029056549072266e+00 -7.870250344276428223e-01
2.820000000000000000e+03 2.784531784057617188e+01 1.718661308288574219e+01 -2.988257631659507751e-02 1.080948591232299805e+00 3.153197765350341797e-01 -3.216576874256134033e-01
2.821000000000000000e+03 6.827447509765625000e+01 -1.259798526763916016e+01 5.264605879783630371e-01 7.431245803833007812e+00 2.387311935424804688e+00 -5.917201638221740723e-01
2.822000000000000000e+03 6.804985046386718750e+01 -5.153707981109619141e+00 8.027352690696716309e-01 7.341304779052734375e+00 2.443212032318115234e+00 1.766277700662612915e-01
2.823000000000000000e+03 6.753049468994140625e+01 -6.244494915008544922e+00 8.636381030082702637e-01 7.368896007537841797e+00 2.469760179519653320e+00 4.588596150279045105e-02
2.824000000000000000e+03 6.843199157714843750e+01 2.418904304504394531e+00 3.430415093898773193e-01 7.550986289978027344e+00 2.368208408355712891e+00 8.100010156631469727e-01
2.825000000000000000e+03 6.879631805419921875e+01 1.131352305412292480e+00 4.211913347244262695e-01 7.453886032104492188e+00 2.362523078918457031e+00 7.161902785301208496e-01
2.826000000000000000e+03 3.419657897949218750e+01 -1.899397277832031250e+01 4.442705810070037842e-01 1.277379035949707031e+00 5.164948701858520508e-01 6.015117764472961426e-01
2.827000000000000000e+03 2.872308158874511719e+01 -1.835786437988281250e+01 1.144271418452262878e-01 5.095337033271789551e-01 1.871882677078247070e-01 -6.802433729171752930e-02
2.828000000000000000e+03 2.706184196472167969e+01 1.567342662811279297e+01 -7.838727533817291260e-02 8.782378435134887695e-01 2.399551719427108765e-01 -2.289094924926757812e-01
2.829000000000000000e+03 2.822284698486328125e+01 -1.691499519348144531e+01 -5.075082182884216309e-02 3.509146273136138916e-01 9.004914015531539917e-02 -1.971267759799957275e-01
2.830000000000000000e+03 6.541185760498046875e+01 1.252717685699462891e+01 -2.651232182979583740e-01 7.904496192932128906e+00 2.291811943054199219e+00 8.308185338973999023e-01
2.831000000000000000e+03 2.785892105102539062e+01 6.492344856262207031e+00 5.488933995366096497e-02 3.639271855354309082e-01 1.256449520587921143e-01 1.835061758756637573e-01
2.832000000000000000e+03 2.928733062744140625e+01 7.143128871917724609e+00 1.353691816329956055e-01 6.068904995918273926e-01 2.226779013872146606e-01 2.887755073606967926e-02
2.833000000000000000e+03 6.741134643554687500e+01 8.091052055358886719e+00 -1.442021597176790237e-02 7.814062595367431641e+00 2.339892625808715820e+00 9.314876794815063477e-01
2.834000000000000000e+03 3.244071197509765625e+01 4.455800056457519531e+00 3.549305200576782227e-01 7.655792236328125000e-01 3.361529409885406494e-01 -1.360249370336532593e-01
2.835000000000000000e+03 6.328986358642578125e+01 1.416930675506591797e+01 -3.932661116123199463e-01 7.878313541412353516e+00 2.245514154434204102e+00 7.243855595588684082e-01
2.836000000000000000e+03 6.461224365234375000e+01 1.644615745544433594e+01 -3.685697615146636963e-01 7.838696479797363281e+00 2.241037845611572266e+00 6.731306314468383789e-01
2.837000000000000000e+03 2.894991493225097656e+01 1.093240737915039062e+01 5.658568814396858215e-02 8.777216076850891113e-01 2.802921831607818604e-01 -1.555899232625961304e-01
2.838000000000000000e+03 1.701578712463378906e+01 2.917341804504394531e+01 2.504903078079223633e-01 -5.483639985322952271e-02 5.869616940617561340e-02 1.103779077529907227e-01
2.839000000000000000e+03 1.439969158172607422e+01 2.799707794189453125e+01 2.084569334983825684e-01 -2.858917117118835449e-01 -2.323043160140514374e-02 2.178076207637786865e-01
2.840000000000000000e+03 2.127382278442382812e+01 2.825325584411621094e+01 2.328644990921020508e-01 4.169241786003112793e-01 1.949366033077239990e-01 -8.526077866554260254e-02
2.841000000000000000e+03 1.884981918334960938e+01 2.833453750610351562e+01 2.437309175729751587e-01 1.244183778762817383e-01 1.104447841644287109e-01 8.503767661750316620e-03
2.842000000000000000e+03 5.118329620361328125e+01 -5.965436935424804688e+00 6.283535957336425781e+00 1.138225364685058594e+01 5.299736976623535156e+00 5.035502314567565918e-01
2.843000000000000000e+03 4.911694717407226562e+01 -9.794529914855957031e+00 1.087849855422973633e+00 1.407146549224853516e+01 4.547794342041015625e+00 -6.705014407634735107e-02
2.844000000000000000e+03 4.772363662719726562e+01 -2.527204275131225586e+00 3.688243031501770020e-01 1.258985424041748047e+01 3.887603759765625000e+00 -2.562858819961547852e+00
2.845000000000000000e+03 4.712524032592773438e+01 -2.133454322814941406e+00 4.199577569961547852e-01 1.092856025695800781e+01 3.404555559158325195e+00 -3.279767751693725586e+00
2.846000000000000000e+03 4.610153961181640625e+01 -2.399076700210571289e+00 1.150954127311706543e+00 8.588278770446777344e+00 2.921769857406616211e+00 -4.224146366119384766e+00
2.847000000000000000e+03 5.047901916503906250e+01 -7.550619602203369141e+00 6.219009399414062500e+00 1.256333351135253906e+01 5.634702682495117188e+00 -1.477891325950622559e+00
2.848000000000000000e+03 5.102486801147460938e+01 -7.794524192810058594e+00 5.403956890106201172e+00 1.186034297943115234e+01 5.179289817810058594e+00 -1.393469095230102539e+00
2.849000000000000000e+03 5.082995605468750000e+01 -7.469118118286132812e+00 6.007162094116210938e+00 1.196531581878662109e+01 5.391743183135986328e+00 -1.224588394165039062e+00
2.850000000000000000e+03 5.085566711425781250e+01 -4.902671813964843750e+00 5.274292469024658203e+00 1.208115482330322266e+01 5.206634044647216797e+00 1.463302254676818848e+00
2.851000000000000000e+03 4.806022644042968750e+01 -1.095633697509765625e+01 -2.556103467941284180e-02 1.209352302551269531e+01 3.620388746261596680e+00 2.064585447311401367e+00
2.852000000000000000e+03 4.902325439453125000e+01 -2.546082496643066406e+00 7.798217535018920898e-01 1.340608787536621094e+01 4.255773067474365234e+00 -4.051570892333984375e-01
2.853000000000000000e+03 4.954240036010742188e+01 -2.978414535522460938e+00 1.514450311660766602e+00 1.358418846130371094e+01 4.529591560363769531e+00 4.753707051277160645e-01
2.854000000000000000e+03 4.495560073852539062e+01 -1.606590151786804199e+00 1.378105044364929199e+00 5.722144126892089844e+00 2.130074739456176758e+00 -3.731331348419189453e+00
2.855000000000000000e+03 5.038782882690429688e+01 -8.780743598937988281e+00 3.641451597213745117e+00 1.302325248718261719e+01 4.999411106109619141e+00 -1.652448296546936035e+00
2.856000000000000000e+03 4.454070663452148438e+01 -1.242475414276123047e+01 7.670208215713500977e-01 5.343313694000244141e+00 1.833100318908691406e+00 3.271576404571533203e+00
2.857000000000000000e+03 4.458643341064453125e+01 -1.085228323936462402e+00 1.237654685974121094e+00 5.342926979064941406e+00 1.974174499511718750e+00 -3.393601179122924805e+00
2.858000000000000000e+03 4.365377426147460938e+01 -6.410494446754455566e-01 1.286450505256652832e+00 4.053089618682861328e+00 1.601862072944641113e+00 -2.932420969009399414e+00
2.859000000000000000e+03 4.232915115356445312e+01 7.362694144248962402e-01 1.077235579490661621e+00 3.279017448425292969e+00 1.306875944137573242e+00 -2.311280012130737305e+00
2.860000000000000000e+03 4.252023696899414062e+01 1.561085134744644165e-01 1.173435926437377930e+00 3.248480081558227539e+00 1.326574802398681641e+00 -2.412961244583129883e+00
2.861000000000000000e+03 4.259526062011718750e+01 1.408809065818786621e+00 9.228438735008239746e-01 3.692854881286621094e+00 1.384709596633911133e+00 -2.301027297973632812e+00
2.862000000000000000e+03 4.172364044189453125e+01 1.224450230598449707e+00 1.014488339424133301e+00 3.042120933532714844e+00 1.216982841491699219e+00 -2.083919286727905273e+00
2.863000000000000000e+03 4.449802017211914062e+01 -1.305659770965576172e+01 6.339515447616577148e-01 5.400994777679443359e+00 1.810483813285827637e+00 3.112288475036621094e+00
2.864000000000000000e+03 2.922251892089843750e+01 3.184298753738403320e+00 9.781504422426223755e-02 2.721616029739379883e-01 1.109929904341697693e-01 2.732216119766235352e-01
2.865000000000000000e+03 2.937820053100585938e+01 4.065402984619140625e+00 1.330643743276596069e-01 3.615770339965820312e-01 1.483924239873886108e-01 2.082497030496597290e-01
2.866000000000000000e+03 4.389957427978515625e+01 -1.437637042999267578e+01 4.862340688705444336e-01 4.920762062072753906e+00 1.622098922729492188e+00 2.731406450271606445e+00
2.867000000000000000e+03 4.338281250000000000e+01 -1.363404941558837891e+01 7.079576849937438965e-01 4.245973587036132812e+00 1.486179351806640625e+00 2.747960090637207031e+00
2.868000000000000000e+03 3.658291244506835938e+01 3.852824211120605469e+00 6.352590918540954590e-01 1.457567691802978516e+00 6.278480291366577148e-01 -7.541739344596862793e-01
2.869000000000000000e+03 3.955278015136718750e+01 2.410733222961425781e+00 8.641000390052795410e-01 2.159699678421020508e+00 9.071399569511413574e-01 -1.407116889953613281e+00
2.870000000000000000e+03 3.565351104736328125e+01 3.779601573944091797e+00 5.896281003952026367e-01 1.232877969741821289e+00 5.467517971992492676e-01 -5.956270098686218262e-01
2.871000000000000000e+03 3.728357315063476562e+01 4.208323955535888672e+00 6.590004563331604004e-01 1.774546504020690918e+00 7.300640940666198730e-01 -9.438336491584777832e-01
2.872000000000000000e+03 4.075252914428710938e+01 1.954445600509643555e+00 9.136226773262023926e-01 2.618208885192871094e+00 1.059549450874328613e+00 -1.752331256866455078e+00
2.873000000000000000e+03 4.151306915283203125e+01 1.907561421394348145e+00 9.110859632492065430e-01 3.112143993377685547e+00 1.206969022750854492e+00 -1.986409902572631836e+00
2.874000000000000000e+03 4.184557342529296875e+01 -1.510251903533935547e+01 6.411021947860717773e-01 3.314496278762817383e+00 1.186679482460021973e+00 2.142759084701538086e+00
2.875000000000000000e+03 4.028838348388671875e+01 2.648917198181152344e+00 8.459209203720092773e-01 2.596929550170898438e+00 1.032855153083801270e+00 -1.625061869621276855e+00
2.876000000000000000e+03 4.183057403564453125e+01 -1.891666221618652344e+01 2.776295542716979980e-01 3.965766906738281250e+00 1.273018956184387207e+00 1.802438378334045410e+00
2.877000000000000000e+03 4.128516769409179688e+01 -1.541011524200439453e+01 6.378142237663269043e-01 3.005558013916015625e+00 1.093011617660522461e+00 2.023365736007690430e+00
2.878000000000000000e+03 2.905356216430664062e+01 -2.014981842041015625e+01 2.277035415172576904e-01 6.732949018478393555e-01 2.702995538711547852e-01 3.983442112803459167e-02
2.879000000000000000e+03 3.602172470092773438e+01 -1.809644508361816406e+01 4.883528947830200195e-01 1.542524814605712891e+00 6.092633008956909180e-01 8.639818429946899414e-01
2.880000000000000000e+03 3.782896423339843750e+01 -1.776548957824707031e+01 5.277035832405090332e-01 1.951709866523742676e+00 7.438240647315979004e-01 1.178130388259887695e+00
2.881000000000000000e+03 6.745507812500000000e+01 -1.190981578826904297e+01 6.513025760650634766e-01 7.479596614837646484e+00 2.439269781112670898e+00 -5.655708312988281250e-01
2.882000000000000000e+03 3.185036087036132812e+01 2.552175998687744141e+00 2.577442824840545654e-01 4.843119680881500244e-01 2.226168811321258545e-01 7.202956825494766235e-02
2.883000000000000000e+03 3.060034751892089844e+01 7.833311557769775391e+00 2.168772667646408081e-01 8.566671013832092285e-01 3.220633268356323242e-01 -1.371788680553436279e-01
2.884000000000000000e+03 3.095963287353515625e+01 3.177280426025390625e+00 2.105275541543960571e-01 4.565014839172363281e-01 2.001087069511413574e-01 1.231373250484466553e-01
2.885000000000000000e+03 2.966975975036621094e+01 4.919980525970458984e+00 1.713678240776062012e-01 4.612057209014892578e-01 1.897720694541931152e-01 1.299308389425277710e-01
2.886000000000000000e+03 2.844302368164062500e+01 1.382161045074462891e+01 -2.712914161384105682e-02 9.859318733215332031e-01 2.876408100128173828e-01 -2.457518875598907471e-01
2.887000000000000000e+03 2.899666404724121094e+01 6.184441089630126953e+00 1.289497017860412598e-01 4.952681958675384521e-01 1.872653663158416748e-01 1.067549437284469604e-01
2.888000000000000000e+03 3.463164901733398438e+01 3.705054521560668945e+00 5.042278766632080078e-01 1.015452265739440918e+00 4.559040367603302002e-01 -3.999625742435455322e-01
2.889000000000000000e+03 3.267838287353515625e+01 3.384810686111450195e+00 3.470267355442047119e-01 6.759441494941711426e-01 3.068912625312805176e-01 -8.828913420438766479e-02
2.890000000000000000e+03 6.840157318115234375e+01 -1.450158405303955078e+01 3.867754042148590088e-01 7.499567985534667969e+00 2.365902900695800781e+00 -7.075480222702026367e-01
2.891000000000000000e+03 2.716506958007812500e+01 1.306553936004638672e+01 -6.966115534305572510e-02 7.228302955627441406e-01 1.959507316350936890e-01 -1.367244869470596313e-01
2.892000000000000000e+03 6.627550506591796875e+01 -1.143132448196411133e+00 7.853571772575378418e-01 7.576979160308837891e+00 2.508700847625732422e+00 6.510151624679565430e-01
2.893000000000000000e+03 6.571761322021484375e+01 -1.600599288940429688e+01 3.529051244258880615e-01 7.783464908599853516e+00 2.440911054611206055e+00 -8.621135354042053223e-01
2.894000000000000000e+03 6.602275848388671875e+01 -1.802402687072753906e+01 1.533323973417282104e-01 7.810915946960449219e+00 2.389274597167968750e+00 -8.772872090339660645e-01
2.895000000000000000e+03 3.014722061157226562e+01 3.860089302062988281e+00 1.734966188669204712e-01 4.148943722248077393e-01 1.765172928571701050e-01 1.603693217039108276e-01
2.896000000000000000e+03 6.689976501464843750e+01 -2.217783927917480469e+01 -1.293335109949111938e-01 7.820770740509033203e+00 2.307431221008300781e+00 -8.123338818550109863e-01
2.897000000000000000e+03 3.212873840332031250e+01 -1.949493598937988281e+01 3.745607435703277588e-01 1.003324985504150391e+00 4.133657217025756836e-01 3.488182723522186279e-01
2.898000000000000000e+03 3.337891769409179688e+01 -2.048015403747558594e+01 4.431381523609161377e-01 1.298364400863647461e+00 5.224507451057434082e-01 5.150581598281860352e-01
2.899000000000000000e+03 6.577257537841796875e+01 -2.131837272644042969e+01 -1.059614866971969604e-01 7.874479293823242188e+00 2.330555200576782227e+00 -8.425642251968383789e-01
2.900000000000000000e+03 6.337546157836914062e+01 -2.496645545959472656e+01 -3.885718882083892822e-01 7.936848163604736328e+00 2.264482975006103516e+00 -6.891725063323974609e-01
2.901000000000000000e+03 2.576381874084472656e+01 -2.036265754699707031e+01 9.052270650863647461e-02 4.320854842662811279e-01 1.567824631929397583e-01 -1.627486348152160645e-01
2.902000000000000000e+03 6.789533233642578125e+01 4.032308578491210938e+00 2.650233209133148193e-01 7.654354095458984375e+00 2.375813245773315430e+00 8.853400349617004395e-01
2.903000000000000000e+03 6.812696838378906250e+01 1.478483200073242188e+00 4.338209331035614014e-01 7.526390075683593750e+00 2.388063192367553711e+00 7.692015767097473145e-01
2.904000000000000000e+03 6.794036102294921875e+01 5.827810764312744141e+00 1.291560977697372437e-01 7.708893775939941406e+00 2.351414918899536133e+00 9.158501625061035156e-01
2.905000000000000000e+03 6.433773040771484375e+01 1.035842323303222656e+01 -2.050099968910217285e-01 7.961017131805419922e+00 2.326802015304565430e+00 8.950444459915161133e-01
2.906000000000000000e+03 2.817121887207031250e+01 1.869670104980468750e+01 -2.656303346157073975e-02 1.203999161720275879e+00 3.532308340072631836e-01 -3.584647476673126221e-01
2.907000000000000000e+03 2.724454689025878906e+01 -1.869747924804687500e+01 5.393990501761436462e-02 4.264743328094482422e-01 1.441242694854736328e-01 -1.586361378431320190e-01
2.908000000000000000e+03 6.492604827880859375e+01 2.198584365844726562e+01 -3.625756502151489258e-01 7.744929313659667969e+00 2.214706182479858398e+00 4.862638413906097412e-01
2.909000000000000000e+03 6.279148101806640625e+01 1.628868103027343750e+01 -4.336329698562622070e-01 7.795227527618408203e+00 2.208478450775146484e+00 6.258873939514160156e-01
2.910000000000000000e+03 2.434957695007324219e+01 2.122582626342773438e+01 -4.815429449081420898e-03 6.119784712791442871e-01 1.821489185094833374e-01 -2.257005870342254639e-01
2.911000000000000000e+03 2.628546142578125000e+01 2.096736335754394531e+01 4.611194599419832230e-03 9.644572138786315918e-01 2.907205224037170410e-01 -3.052559494972229004e-01
2.912000000000000000e+03 4.940901947021484375e+01 -2.483561992645263672e+00 9.750353693962097168e-01 1.316931629180908203e+01 4.243305683135986328e+00 2.375839464366436005e-02
2.913000000000000000e+03 5.031687545776367188e+01 -9.158964157104492188e+00 3.016809940338134766e+00 1.309307479858398438e+01 4.832965373992919922e+00 -1.511454820632934570e+00
2.914000000000000000e+03 4.625762939453125000e+01 -2.064389228820800781e+00 8.755276203155517578e-01 8.876675605773925781e+00 2.925661087036132812e+00 -3.936736822128295898e+00
2.915000000000000000e+03 4.738784790039062500e+01 -2.017846345901489258e+00 3.161139786243438721e-01 1.126936912536621094e+01 3.475645065307617188e+00 -2.945700883865356445e+00
2.916000000000000000e+03 5.098689651489257812e+01 -7.082980632781982422e+00 6.267787933349609375e+00 1.162077045440673828e+01 5.366567611694335938e+00 -7.826765179634094238e-01
2.917000000000000000e+03 4.505017852783203125e+01 -1.251221752166748047e+01 6.101709604263305664e-01 6.181759357452392578e+00 2.037579059600830078e+00 3.374271869659423828e+00
2.918000000000000000e+03 4.578588867187500000e+01 -2.100976228713989258e+00 1.200062274932861328e+00 7.543832778930664062e+00 2.623168468475341797e+00 -4.087261199951171875e+00
2.919000000000000000e+03 4.550099182128906250e+01 -2.418721914291381836e+00 1.544376730918884277e+00 6.766597747802734375e+00 2.493292331695556641e+00 -4.212369441986083984e+00
2.920000000000000000e+03 4.851386642456054688e+01 -2.393498182296752930e+00 4.644095897674560547e-01 1.320466613769531250e+01 4.100722789764404297e+00 -1.204663515090942383e+00
2.921000000000000000e+03 5.086726760864257812e+01 -5.271928787231445312e+00 5.806202888488769531e+00 1.195353889465332031e+01 5.327922821044921875e+00 1.261508464813232422e+00
2.922000000000000000e+03 5.083562469482421875e+01 -5.630076885223388672e+00 6.337419509887695312e+00 1.187507724761962891e+01 5.463748931884765625e+00 9.860964417457580566e-01
2.923000000000000000e+03 4.863090515136718750e+01 -1.116224193572998047e+01 -1.318297255784273148e-02 1.228594589233398438e+01 3.681828737258911133e+00 1.284011602401733398e+00
2.924000000000000000e+03 4.609911346435546875e+01 -1.069757270812988281e+01 7.637877464294433594e-01 8.421557426452636719e+00 2.755603551864624023e+00 4.118296146392822266e+00
2.925000000000000000e+03 4.568403244018554688e+01 -1.139372634887695312e+01 7.018996477127075195e-01 7.254700660705566406e+00 2.386980056762695312e+00 3.774708986282348633e+00
2.926000000000000000e+03 4.509588623046875000e+01 -1.199881172180175781e+01 7.343204617500305176e-01 6.243941783905029297e+00 2.093478679656982422e+00 3.519987821578979492e+00
2.927000000000000000e+03 4.804828262329101562e+01 -1.042343616485595703e+01 1.174806728959083557e-01 1.291042804718017578e+01 3.908372402191162109e+00 2.016678571701049805e+00
2.928000000000000000e+03 4.298374176025390625e+01 3.711885809898376465e-01 1.100980639457702637e+00 3.727869033813476562e+00 1.448654890060424805e+00 -2.565508842468261719e+00
2.929000000000000000e+03 4.217892074584960938e+01 1.352262377738952637e+00 9.891045689582824707e-01 3.341401815414428711e+00 1.299151897430419922e+00 -2.242273330688476562e+00
2.930000000000000000e+03 4.216865921020507812e+01 3.002732038497924805e+00 6.999304890632629395e-01 3.789521694183349609e+00 1.346835732460021973e+00 -2.050642013549804688e+00
2.931000000000000000e+03 4.263600540161132812e+01 1.922942399978637695e+00 8.159137368202209473e-01 3.937219142913818359e+00 1.425939917564392090e+00 -2.275970935821533203e+00
2.932000000000000000e+03 4.348592376708984375e+01 2.157385349273681641e+00 6.402474641799926758e-01 4.685805797576904297e+00 1.597815990447998047e+00 -2.420776367187500000e+00
2.933000000000000000e+03 4.433993148803710938e+01 -5.023642182350158691e-01 1.093899369239807129e+00 5.067670822143554688e+00 1.848471045494079590e+00 -3.148954153060913086e+00
2.934000000000000000e+03 4.355798721313476562e+01 1.432345628738403320e+00 8.003105521202087402e-01 4.630228042602539062e+00 1.629161596298217773e+00 -2.597372055053710938e+00
2.935000000000000000e+03 3.852873992919921875e+01 4.042422771453857422e+00 7.118938565254211426e-01 2.144394159317016602e+00 8.568864464759826660e-01 -1.199296593666076660e+00
2.936000000000000000e+03 4.330792236328125000e+01 -1.511005306243896484e+01 4.545984864234924316e-01 4.506467342376708984e+00 1.488319754600524902e+00 2.460839271545410156e+00
2.937000000000000000e+03 4.210262298583984375e+01 2.092323064804077148e+00 8.608433604240417480e-01 3.539441108703613281e+00 1.320085287094116211e+00 -2.139555215835571289e+00
2.938000000000000000e+03 3.909982299804687500e+01 3.241241693496704102e+00 7.777796983718872070e-01 2.181769609451293945e+00 8.878647685050964355e-01 -1.316340088844299316e+00
2.939000000000000000e+03 3.792961502075195312e+01 4.823811054229736328e+00 6.509160995483398438e-01 2.061379194259643555e+00 8.136885762214660645e-01 -1.083374977111816406e+00
2.940000000000000000e+03 3.364160537719726562e+01 3.500365495681762695e+00 4.212546646595001221e-01 8.083654046058654785e-01 3.688860237598419189e-01 -2.211461514234542847e-01
2.941000000000000000e+03 3.661278533935546875e+01 4.717250347137451172e+00 5.961467027664184570e-01 1.659227609634399414e+00 6.766122579574584961e-01 -8.122130036354064941e-01
2.942000000000000000e+03 4.069741821289062500e+01 -1.948193740844726562e+01 3.469875752925872803e-01 3.459793806076049805e+00 1.142034411430358887e+00 1.620516061782836914e+00
2.943000000000000000e+03 4.228187179565429688e+01 -1.713986587524414062e+01 3.787326514720916748e-01 4.023771286010742188e+00 1.320751190185546875e+00 2.058873891830444336e+00
2.944000000000000000e+03 4.232379150390625000e+01 -1.497759532928466797e+01 6.082556843757629395e-01 3.732807397842407227e+00 1.302318930625915527e+00 2.351045131683349609e+00
2.945000000000000000e+03 3.011032104492187500e+01 3.056862592697143555e+00 1.417075842618942261e-01 3.474566340446472168e-01 1.467492729425430298e-01 2.170574665069580078e-01
2.946000000000000000e+03 3.178000450134277344e+01 3.330178499221801758e+00 2.728524506092071533e-01 5.555690526962280273e-01 2.485264390707015991e-01 2.198395691812038422e-02
2.947000000000000000e+03 4.131132507324218750e+01 -1.772034263610839844e+01 4.250689446926116943e-01 3.515677213668823242e+00 1.182223916053771973e+00 1.852088332176208496e+00
2.948000000000000000e+03 3.920101928710937500e+01 -1.852346801757812500e+01 4.922501444816589355e-01 2.656635522842407227e+00 9.446656703948974609e-01 1.457908511161804199e+00
2.949000000000000000e+03 6.691597747802734375e+01 -2.499619126319885254e-01 6.561793088912963867e-01 7.554621219635009766e+00 2.463240146636962891e+00 7.018420696258544922e-01
2.950000000000000000e+03 6.610928344726562500e+01 -3.962138891220092773e+00 9.810115098953247070e-01 7.500936985015869141e+00 2.544584512710571289e+00 3.492496609687805176e-01
2.951000000000000000e+03 3.712952804565429688e+01 -1.857548713684082031e+01 5.114548206329345703e-01 1.905616998672485352e+00 7.251215577125549316e-01 1.059553146362304688e+00
2.952000000000000000e+03 6.669858551025390625e+01 -1.108910083770751953e+01 7.603384256362915039e-01 7.509725093841552734e+00 2.481019020080566406e+00 -5.329701900482177734e-01
2.953000000000000000e+03 6.690422821044921875e+01 -8.527734756469726562e+00 8.683946132659912109e-01 7.432691097259521484e+00 2.490325689315795898e+00 -2.327525168657302856e-01
2.954000000000000000e+03 6.616576385498046875e+01 -7.428277492523193359e+00 9.916716814041137695e-01 7.478374481201171875e+00 2.541013956069946289e+00 -8.621690422296524048e-02
2.955000000000000000e+03 3.050840950012207031e+01 6.811321258544921875e+00 2.171302735805511475e-01 7.520995736122131348e-01 2.907689511775970459e-01 -6.371092796325683594e-02
2.956000000000000000e+03 6.641435241699218750e+01 -5.687491893768310547e+00 1.006712794303894043e+00 7.448102951049804688e+00 2.536444664001464844e+00 1.195007264614105225e-01
2.957000000000000000e+03 3.343718719482421875e+01 4.633301734924316406e+00 4.161913990974426270e-01 9.551079869270324707e-01 4.113897979259490967e-01 -2.743801474571228027e-01
2.958000000000000000e+03 3.561775970458984375e+01 4.863199234008789062e+00 5.520781874656677246e-01 1.439549326896667480e+00 5.974882841110229492e-01 -6.561414003372192383e-01
2.959000000000000000e+03 3.450181961059570312e+01 4.781136035919189453e+00 4.917306303977966309e-01 1.170863628387451172e+00 4.987782537937164307e-01 -4.584385156631469727e-01
2.960000000000000000e+03 6.465201568603515625e+01 -2.046435928344726562e+01 -7.124950736761093140e-02 7.942954540252685547e+00 2.361511468887329102e+00 -8.677969574928283691e-01
2.961000000000000000e+03 6.644481658935546875e+01 -2.006382179260253906e+01 -8.247971534729003906e-03 7.819089412689208984e+00 2.343252420425415039e+00 -8.584550619125366211e-01
2.962000000000000000e+03 6.719003295898437500e+01 -7.411748886108398438e+00 8.957972526550292969e-01 7.390106201171875000e+00 2.485770940780639648e+00 -8.760102838277816772e-02
2.963000000000000000e+03 6.733727264404296875e+01 -1.001376819610595703e+01 7.713463306427001953e-01 7.426498413085937500e+00 2.459353446960449219e+00 -4.008444249629974365e-01
2.964000000000000000e+03 3.685100173950195312e+01 -1.995123100280761719e+01 4.769654572010040283e-01 2.063352346420288086e+00 7.620953321456909180e-01 1.020020842552185059e+00
2.965000000000000000e+03 3.501291275024414062e+01 -2.113558959960937500e+01 4.475321769714355469e-01 1.769032120704650879e+00 6.649692654609680176e-01 7.370711565017700195e-01
2.966000000000000000e+03 6.744927978515625000e+01 -1.370978641510009766e+01 4.895975589752197266e-01 7.545663356781005859e+00 2.410578250885009766e+00 -6.976231932640075684e-01
2.967000000000000000e+03 6.541943359375000000e+01 2.905982971191406250e+00 4.411438703536987305e-01 7.815200805664062500e+00 2.476903438568115234e+00 9.467490911483764648e-01
2.968000000000000000e+03 3.268061447143554688e+01 -2.226103591918945312e+01 4.143448173999786377e-01 1.355329871177673340e+00 5.309023857116699219e-01 4.781941473484039307e-01
2.969000000000000000e+03 3.108756065368652344e+01 1.239949893951416016e+01 9.245403856039047241e-02 1.378466963768005371e+00 4.412762820720672607e-01 -3.826396167278289795e-01
2.970000000000000000e+03 6.623270416259765625e+01 4.967362880706787109e-01 6.340386271476745605e-01 7.648470878601074219e+00 2.484752893447875977e+00 7.844350934028625488e-01
2.971000000000000000e+03 6.727474975585937500e+01 1.590951442718505859e+00 4.586881697177886963e-01 7.603786468505859375e+00 2.418742418289184570e+00 8.126798868179321289e-01
2.972000000000000000e+03 6.165277481079101562e+01 1.372588920593261719e+01 -4.426707923412322998e-01 7.893185615539550781e+00 2.235154628753662109e+00 6.789029836654663086e-01
2.973000000000000000e+03 6.459456634521484375e+01 8.710405349731445312e+00 -9.865982830524444580e-02 7.963562011718750000e+00 2.359470605850219727e+00 9.464514851570129395e-01
2.974000000000000000e+03 6.600351715087890625e+01 8.695899009704589844e+00 -6.849763542413711548e-02 7.889253139495849609e+00 2.346226692199707031e+00 9.381492733955383301e-01
2.975000000000000000e+03 2.742108154296875000e+01 -2.246897697448730469e+01 2.682525217533111572e-01 6.942615509033203125e-01 2.887542247772216797e-01 2.794673107564449310e-02
2.976000000000000000e+03 2.556302261352539062e+01 -2.217128753662109375e+01 1.804921180009841919e-01 5.004495978355407715e-01 2.042825222015380859e-01 -9.885334223508834839e-02
2.977000000000000000e+03 6.329061889648437500e+01 -2.285020256042480469e+01 -2.891192436218261719e-01 7.988968849182128906e+00 2.309954881668090820e+00 -7.745693325996398926e-01
2.978000000000000000e+03 6.507014465332031250e+01 -2.257321548461914062e+01 -2.048845887184143066e-01 7.914342403411865234e+00 2.312837362289428711e+00 -8.081456422805786133e-01
2.979000000000000000e+03 6.532632446289062500e+01 -1.923973083496093750e+01 4.324149712920188904e-02 7.885558128356933594e+00 2.378639936447143555e+00 -8.850275874137878418e-01
2.980000000000000000e+03 6.754680633544921875e+01 2.198335456848144531e+01 -2.823761701583862305e-01 7.885926723480224609e+00 2.281065225601196289e+00 5.133948922157287598e-01
2.981000000000000000e+03 6.621356201171875000e+01 2.169643402099609375e+01 -3.169260621070861816e-01 7.828657627105712891e+00 2.253519535064697266e+00 5.173356533050537109e-01
2.982000000000000000e+03 3.666339111328125000e+01 -2.155292320251464844e+01 4.276742041110992432e-01 2.266224622726440430e+00 8.081696629524230957e-01 9.753968119621276855e-01
2.983000000000000000e+03 2.852711486816406250e+01 1.516309738159179688e+01 -2.809964306652545929e-02 1.084179997444152832e+00 3.168240785598754883e-01 -3.074526786804199219e-01
2.984000000000000000e+03 5.125629043579101562e+01 -6.283504486083984375e+00 6.308602333068847656e+00 1.126715850830078125e+01 5.272727966308593750e+00 1.527731418609619141e-01
2.985000000000000000e+03 5.128416061401367188e+01 -8.165114402770996094e+00 4.689424991607666016e+00 1.165745925903320312e+01 4.904065132141113281e+00 -1.453723907470703125e+00
2.986000000000000000e+03 4.794512939453125000e+01 -1.858312129974365234e+00 1.830390840768814087e-01 1.189707756042480469e+01 3.624034881591796875e+00 -2.152825355529785156e+00
2.987000000000000000e+03 5.139712524414062500e+01 -6.571971416473388672e+00 6.065569877624511719e+00 1.112264347076416016e+01 5.156464099884033203e+00 -1.876234412193298340e-01
2.988000000000000000e+03 5.081930160522460938e+01 -8.333095550537109375e+00 4.549368858337402344e+00 1.231277847290039062e+01 5.058644294738769531e+00 -1.654651403427124023e+00
2.989000000000000000e+03 4.974718475341796875e+01 -9.521102905273437500e+00 2.003899335861206055e+00 1.371345615386962891e+01 4.715206623077392578e+00 -9.979525208473205566e-01
2.990000000000000000e+03 4.706557846069335938e+01 -1.122034549713134766e+01 1.018561199307441711e-01 1.031197166442871094e+01 3.124148368835449219e+00 3.193873405456542969e+00
2.991000000000000000e+03 5.008803558349609375e+01 -9.415578842163085938e+00 2.347765922546386719e+00 1.341433811187744141e+01 4.728631019592285156e+00 -1.247243881225585938e+00
2.992000000000000000e+03 4.895985794067382812e+01 -2.042403697967529297e+00 4.683916568756103516e-01 1.273918628692626953e+01 3.962273359298706055e+00 -7.257465124130249023e-01
2.993000000000000000e+03 5.021336364746093750e+01 -3.526340007781982422e+00 2.803926229476928711e+00 1.317235374450683594e+01 4.792883872985839844e+00 1.361736178398132324e+00
2.994000000000000000e+03 5.101056289672851562e+01 -3.688361406326293945e+00 3.359719514846801758e+00 1.210785388946533203e+01 4.640272140502929688e+00 1.540089607238769531e+00
2.995000000000000000e+03 5.154303741455078125e+01 -5.268900394439697266e+00 5.338906288146972656e+00 1.115398788452148438e+01 4.947868347167968750e+00 1.034975409507751465e+00
2.996000000000000000e+03 4.826477050781250000e+01 -1.126037120819091797e+01 -1.153987050056457520e-01 1.192483520507812500e+01 3.542830944061279297e+00 1.781975030899047852e+00
2.997000000000000000e+03 4.750939178466796875e+01 -1.120848655700683594e+01 -5.056327208876609802e-02 1.108552646636962891e+01 3.310488939285278320e+00 2.732395172119140625e+00
2.998000000000000000e+03 4.793512725830078125e+01 -1.163737106323242188e+01 -1.799922883510589600e-01 1.115482902526855469e+01 3.292451143264770508e+00 2.220224380493164062e+00
2.999000000000000000e+03 4.836719894409179688e+01 -2.160818815231323242e+00 2.954402267932891846e-01 1.252179718017578125e+01 3.845171213150024414e+00 -1.577893257141113281e+00
3.000000000000000000e+03 4.500754547119140625e+01 -1.155835628509521484e+00 1.145070433616638184e+00 5.965207099914550781e+00 2.133083343505859375e+00 -3.555651426315307617e+00
3.001000000000000000e+03 5.091506958007812500e+01 -8.797569274902343750e+00 3.750615835189819336e+00 1.228335094451904297e+01 4.810189723968505859e+00 -1.613221049308776855e+00
3.002000000000000000e+03 4.859743499755859375e+01 -1.045342254638671875e+01 2.636766731739044189e-01 1.327658557891845703e+01 4.062078475952148438e+00 1.126616120338439941e+00
3.003000000000000000e+03 4.926168441772460938e+01 -1.022113418579101562e+01 8.229554891586303711e-01 1.349091339111328125e+01 4.294160842895507812e+00 4.420543089509010315e-02
3.004000000000000000e+03 4.317033767700195312e+01 1.120743751525878906e+00 9.175765514373779297e-01 4.166338920593261719e+00 1.525174617767333984e+00 -2.545523881912231445e+00
3.005000000000000000e+03 4.369596862792968750e+01 2.033855170011520386e-01 1.056808948516845703e+00 4.481904983520507812e+00 1.661614179611206055e+00 -2.854240417480468750e+00
3.006000000000000000e+03 4.342217254638671875e+01 6.654328703880310059e-01 9.850992560386657715e-01 4.282225131988525391e+00 1.580197215080261230e+00 -2.688610792160034180e+00
3.007000000000000000e+03 4.411670684814453125e+01 5.714330077171325684e-01 8.630369901657104492e-01 5.054305076599121094e+00 1.775202631950378418e+00 -2.855926275253295898e+00
3.008000000000000000e+03 4.385333251953125000e+01 1.017195224761962891e+00 8.229368925094604492e-01 4.852608203887939453e+00 1.702663540840148926e+00 -2.733542442321777344e+00
3.009000000000000000e+03 4.430457687377929688e+01 1.414398312568664551e+00 6.239665150642395020e-01 5.432219505310058594e+00 1.816855907440185547e+00 -2.700679302215576172e+00
3.010000000000000000e+03 3.042840194702148438e+01 4.509618282318115234e+00 2.042998671531677246e-01 5.116882920265197754e-01 2.147964388132095337e-01 9.521973133087158203e-02
3.011000000000000000e+03 4.547736740112304688e+01 -1.202427005767822266e+01 6.011728048324584961e-01 6.911937713623046875e+00 2.253933191299438477e+00 3.544883489608764648e+00
3.012000000000000000e+03 4.445940399169921875e+01 -1.370457744598388672e+01 4.960103332996368408e-01 5.448483943939208984e+00 1.783348202705383301e+00 2.954456567764282227e+00
3.013000000000000000e+03 3.718513107299804688e+01 5.542033672332763672e+00 5.900933146476745605e-01 1.962758898735046387e+00 7.658556699752807617e-01 -9.498441815376281738e-01
3.014000000000000000e+03 3.837170791625976562e+01 2.675381183624267578e+00 7.848312854766845703e-01 1.740268230438232422e+00 7.575298547744750977e-01 -1.099555015563964844e+00
3.015000000000000000e+03 4.288636016845703125e+01 -1.565896511077880859e+01 4.657121896743774414e-01 4.225410938262939453e+00 1.407336950302124023e+00 2.352895259857177734e+00
3.016000000000000000e+03 3.649675369262695312e+01 6.308615207672119141e+00 5.350164771080017090e-01 1.886793851852416992e+00 7.265431284904479980e-01 -8.536338806152343750e-01
3.017000000000000000e+03 3.980190658569335938e+01 3.867371797561645508e+00 7.334153056144714355e-01 2.614156246185302734e+00 1.004271507263183594e+00 -1.474622011184692383e+00
3.018000000000000000e+03 4.027216720581054688e+01 -1.817162132263183594e+01 4.592135250568389893e-01 3.070994853973388672e+00 1.059062480926513672e+00 1.649080991744995117e+00
3.019000000000000000e+03 3.106644058227539062e+01 5.120746135711669922e+00 2.615923285484313965e-01 6.686517000198364258e-01 2.790732085704803467e-01 -2.224117517471313477e-02
3.020000000000000000e+03 4.131206130981445312e+01 3.229536771774291992e+00 7.592673897743225098e-01 3.264139175415039062e+00 1.207021951675415039e+00 -1.869266629219055176e+00
3.021000000000000000e+03 6.419611358642578125e+01 -1.843848228454589844e+01 1.058994755148887634e-01 7.969925403594970703e+00 2.422747373580932617e+00 -9.072132110595703125e-01
3.022000000000000000e+03 6.225782775878906250e+01 -2.209714508056640625e+01 -2.798427343368530273e-01 8.063725471496582031e+00 2.335165023803710938e+00 -7.760034203529357910e-01
3.023000000000000000e+03 3.082219505310058594e+01 3.918162345886230469e+00 2.168584018945693970e-01 5.123817920684814453e-01 2.187720537185668945e-01 9.263890236616134644e-02
3.024000000000000000e+03 6.566826629638671875e+01 -2.237366437911987305e+00 9.322646856307983398e-01 7.587321758270263672e+00 2.555875778198242188e+00 5.731116533279418945e-01
3.025000000000000000e+03 6.408058166503906250e+01 -7.090310573577880859e+00 1.320442676544189453e+00 7.638697624206542969e+00 2.687742233276367188e+00 -8.981537818908691406e-02
3.026000000000000000e+03 4.057594299316406250e+01 4.313101768493652344e+00 6.512858867645263672e-01 3.135377407073974609e+00 1.135998964309692383e+00 -1.642129659652709961e+00
3.027000000000000000e+03 4.045856475830078125e+01 3.433827877044677734e+00 7.672910690307617188e-01 2.853680849075317383e+00 1.086291551589965820e+00 -1.648815393447875977e+00
3.028000000000000000e+03 3.435504531860351562e+01 5.930623531341552734e+00 4.591817259788513184e-01 1.333976984024047852e+00 5.379475951194763184e-01 -5.084223151206970215e-01
3.029000000000000000e+03 6.545417022705078125e+01 -7.950369358062744141e+00 1.124177217483520508e+00 7.542662143707275391e+00 2.600051879882812500e+00 -1.570001840591430664e-01
3.030000000000000000e+03 3.158032417297363281e+01 7.935907363891601562e+00 2.627655267715454102e-01 1.071425676345825195e+00 4.002573490142822266e-01 -2.510211467742919922e-01
3.031000000000000000e+03 3.089091300964355469e+01 8.741800308227539062e+00 2.014998346567153931e-01 1.028704524040222168e+00 3.690613210201263428e-01 -2.256440073251724243e-01
3.032000000000000000e+03 6.657046508789062500e+01 -1.483331775665283203e+01 4.460929930210113525e-01 7.664686679840087891e+00 2.433233976364135742e+00 -7.899566292762756348e-01
3.033000000000000000e+03 6.492440795898437500e+01 -1.721744918823242188e+01 2.362998872995376587e-01 7.884916782379150391e+00 2.436365127563476562e+00 -8.999099135398864746e-01
3.034000000000000000e+03 6.589113616943359375e+01 -1.197138023376464844e+01 7.655267119407653809e-01 7.617953300476074219e+00 2.515043973922729492e+00 -6.410135626792907715e-01
3.035000000000000000e+03 6.655279541015625000e+01 -1.288383674621582031e+01 6.362417936325073242e-01 7.594065189361572266e+00 2.469092130661010742e+00 -6.737530827522277832e-01
3.036000000000000000e+03 3.076709175109863281e+01 1.060910701751708984e+01 1.348959356546401978e-01 1.173303365707397461e+00 3.924597799777984619e-01 -2.875008583068847656e-01
3.037000000000000000e+03 2.959753227233886719e+01 1.446875667572021484e+01 2.471373789012432098e-02 1.260111451148986816e+00 3.854475617408752441e-01 -3.449639379978179932e-01
3.038000000000000000e+03 2.918587684631347656e+01 1.268088245391845703e+01 1.429780665785074234e-02 1.041554212570190430e+00 3.167555928230285645e-01 -2.361585646867752075e-01
3.039000000000000000e+03 3.319601821899414062e+01 5.746539592742919922e+00 3.855692446231842041e-01 1.066516518592834473e+00 4.356257617473602295e-01 -3.133000433444976807e-01
3.040000000000000000e+03 6.680335998535156250e+01 6.624518394470214844e+00 7.674229890108108521e-02 7.819153308868408203e+00 2.368768692016601562e+00 9.569519162178039551e-01
3.041000000000000000e+03 6.663260650634765625e+01 2.095789194107055664e+00 4.454086720943450928e-01 7.679525852203369141e+00 2.437480211257934570e+00 8.638448119163513184e-01
3.042000000000000000e+03 2.737714576721191406e+01 -2.039207077026367188e+01 1.591432243585586548e-01 5.318663716316223145e-01 2.073028832674026489e-01 -6.192244961857795715e-02
3.043000000000000000e+03 6.468272399902343750e+01 -1.517691612243652344e+01 4.850469827651977539e-01 7.855208873748779297e+00 2.502076864242553711e+00 -8.724797368049621582e-01
3.044000000000000000e+03 6.561819458007812500e+01 -1.398816204071044922e+01 5.791643857955932617e-01 7.718515872955322266e+00 2.489304065704345703e+00 -7.793875932693481445e-01
3.045000000000000000e+03 6.574037933349609375e+01 -1.041899490356445312e+01 9.402776360511779785e-01 7.576760768890380859e+00 2.555111646652221680e+00 -4.999605119228363037e-01
3.046000000000000000e+03 6.539366149902343750e+01 -2.189093977212905884e-01 7.703093290328979492e-01 7.687738895416259766e+00 2.537414312362670898e+00 7.633919119834899902e-01
3.047000000000000000e+03 6.713697814941406250e+01 4.802000522613525391e+00 2.311304807662963867e-01 7.739168167114257812e+00 2.391089677810668945e+00 9.385771751403808594e-01
3.048000000000000000e+03 6.568420410156250000e+01 7.106931209564208984e+00 3.426006063818931580e-02 7.894291877746582031e+00 2.378565549850463867e+00 9.723464846611022949e-01
3.049000000000000000e+03 6.385628509521484375e+01 1.219281101226806641e+01 -3.016249835491180420e-01 7.937253952026367188e+00 2.290688753128051758e+00 8.205373287200927734e-01
3.050000000000000000e+03 6.333147811889648438e+01 8.446132659912109375e+00 -1.179461255669593811e-01 8.033719062805175781e+00 2.374731779098510742e+00 9.416254162788391113e-01
3.051000000000000000e+03 6.220651245117187500e+01 -2.593436241149902344e+01 -4.801403880119323730e-01 7.920873641967773438e+00 2.232219934463500977e+00 -6.041777133941650391e-01
3.052000000000000000e+03 6.570709228515625000e+01 4.180138111114501953e+00 2.996980845928192139e-01 7.832542896270751953e+00 2.439672231674194336e+00 9.713360071182250977e-01
3.053000000000000000e+03 6.205636596679687500e+01 1.553401350975036621e+00 7.248421907424926758e-01 8.100900650024414062e+00 2.647722721099853516e+00 1.006553649902343750e+00
3.054000000000000000e+03 3.055850982666015625e+01 2.015350341796875000e+01 1.145752798765897751e-02 1.734698891639709473e+00 5.238469243049621582e-01 -4.627335071563720703e-01
3.055000000000000000e+03 6.567241668701171875e+01 -2.753840827941894531e+01 -3.716159164905548096e-01 7.857542991638183594e+00 2.245778083801269531e+00 -6.204050183296203613e-01
3.056000000000000000e+03 3.948772430419921875e+01 -1.988228225708007812e+01 4.044196307659149170e-01 2.998381853103637695e+00 1.020840406417846680e+00 1.433604121208190918e+00
3.057000000000000000e+03 3.648648834228515625e+01 -2.338449478149414062e+01 3.702046871185302734e-01 2.460276603698730469e+00 8.491443991661071777e-01 8.884483575820922852e-01
3.058000000000000000e+03 5.731944656372070312e+01 1.688243293762207031e+01 -6.137598752975463867e-01 7.464315891265869141e+00 2.055166959762573242e+00 2.855845689773559570e-01
3.059000000000000000e+03 6.936631011962890625e+01 2.522982406616210938e+01 -2.166542261838912964e-01 8.007922172546386719e+00 2.337380409240722656e+00 4.125623404979705811e-01
3.060000000000000000e+03 7.066986846923828125e+01 -3.773678588867187500e+01 -2.386929243803024292e-01 7.943606853485107422e+00 2.311474323272705078e+00 -1.942326277494430542e-01
3.061000000000000000e+03 5.142663192749023438e+01 -7.124733924865722656e+00 5.774838447570800781e+00 1.115030670166015625e+01 5.077543735504150391e+00 -7.167000770568847656e-01
3.062000000000000000e+03 5.166910552978515625e+01 -7.892851352691650391e+00 4.904873847961425781e+00 1.112451839447021484e+01 4.808817863464355469e+00 -1.200217723846435547e+00
3.063000000000000000e+03 4.683159255981445312e+01 -1.891138195991516113e+00 4.994783401489257812e-01 1.002433681488037109e+01 3.157144546508789062e+00 -3.455448150634765625e+00
3.064000000000000000e+03 5.119575500488281250e+01 -4.800751209259033203e+00 4.947587013244628906e+00 1.170210838317871094e+01 4.994908809661865234e+00 1.399699807167053223e+00
3.065000000000000000e+03 5.156112670898437500e+01 -5.581597328186035156e+00 5.625407218933105469e+00 1.105116558074951172e+01 5.002971649169921875e+00 8.012349605560302734e-01
3.066000000000000000e+03 4.769030380249023438e+01 -1.461450576782226562e+00 1.213058456778526306e-01 1.108337593078613281e+01 3.361404418945312500e+00 -2.435534238815307617e+00
3.067000000000000000e+03 4.632552719116210938e+01 -1.754913330078125000e+00 7.447997331619262695e-01 8.824557304382324219e+00 2.870806932449340820e+00 -3.681062936782836914e+00
3.068000000000000000e+03 4.702295684814453125e+01 -1.640884160995483398e+00 3.720031976699829102e-01 1.016660976409912109e+01 3.161583900451660156e+00 -3.169020652770996094e+00
3.069000000000000000e+03 5.137707138061523438e+01 -7.597268104553222656e+00 5.402556896209716797e+00 1.134292793273925781e+01 5.023645401000976562e+00 -1.116593599319458008e+00
3.070000000000000000e+03 4.614135360717773438e+01 -1.125800704956054688e+01 5.329302549362182617e-01 8.271797180175781250e+00 2.641418218612670898e+00 3.804748296737670898e+00
3.071000000000000000e+03 5.115023422241210938e+01 -7.328426837921142578e+00 5.853137016296386719e+00 1.153036975860595703e+01 5.215052127838134766e+00 -9.770327210426330566e-01
3.072000000000000000e+03 5.123738861083984375e+01 -6.939978599548339844e+00 6.123413562774658203e+00 1.134970855712890625e+01 5.241936683654785156e+00 -5.893992781639099121e-01
3.073000000000000000e+03 4.605556869506835938e+01 -1.822257637977600098e+00 9.046043157577514648e-01 8.334315299987792969e+00 2.771675825119018555e+00 -3.887236356735229492e+00
3.074000000000000000e+03 4.969006347656250000e+01 -1.026574897766113281e+01 1.032717347145080566e+00 1.311225032806396484e+01 4.243490219116210938e+00 -3.441592156887054443e-01
3.075000000000000000e+03 4.665905761718750000e+01 -1.573019266128540039e+00 5.059624314308166504e-01 9.516285896301269531e+00 3.006674289703369141e+00 -3.424148321151733398e+00
3.076000000000000000e+03 4.587820053100585938e+01 -1.463101148605346680e+00 8.851185441017150879e-01 7.770612239837646484e+00 2.596719264984130859e+00 -3.738614797592163086e+00
3.077000000000000000e+03 4.930397415161132812e+01 -1.062941265106201172e+01 4.789330065250396729e-01 1.293860435485839844e+01 4.025261402130126953e+00 2.398609668016433716e-01
3.078000000000000000e+03 4.436096954345703125e+01 1.430477797985076904e-01 9.078527688980102539e-01 5.327500343322753906e+00 1.870606064796447754e+00 -2.997032403945922852e+00
3.079000000000000000e+03 4.324999237060546875e+01 1.809328794479370117e+00 7.895830869674682617e-01 4.373956203460693359e+00 1.549061775207519531e+00 -2.473802804946899414e+00
3.080000000000000000e+03 4.505818557739257812e+01 -1.312122154235839844e+01 4.404713809490203857e-01 6.229806423187255859e+00 2.001083374023437500e+00 3.150605678558349609e+00
3.081000000000000000e+03 4.300206375122070312e+01 2.240396976470947266e+00 7.204080224037170410e-01 4.262799263000488281e+00 1.494962096214294434e+00 -2.324434757232666016e+00
3.082000000000000000e+03 4.457418060302734375e+01 9.040881395339965820e-01 6.675086617469787598e-01 5.669708251953125000e+00 1.901165008544921875e+00 -2.846163272857666016e+00
3.083000000000000000e+03 4.442637252807617188e+01 -1.437924766540527344e+01 3.673272430896759033e-01 5.476041793823242188e+00 1.753010749816894531e+00 2.774457693099975586e+00
3.084000000000000000e+03 4.501536178588867188e+01 -1.376693534851074219e+01 3.235623538494110107e-01 6.161751747131347656e+00 1.945594191551208496e+00 2.943356275558471680e+00
3.085000000000000000e+03 4.386991500854492188e+01 -1.520405769348144531e+01 3.582874834537506104e-01 5.019577503204345703e+00 1.613359570503234863e+00 2.554893732070922852e+00
3.086000000000000000e+03 3.155507659912109375e+01 4.205719947814941406e+00 2.878195345401763916e-01 6.300262808799743652e-01 2.753537595272064209e-01 -1.663224585354328156e-02
3.087000000000000000e+03 3.179954147338867188e+01 6.789683341979980469e+00 2.966206371784210205e-01 9.624276161193847656e-01 3.777144849300384521e-01 -2.075526863336563110e-01
3.088000000000000000e+03 3.802845764160156250e+01 6.324147701263427734e+00 5.365353822708129883e-01 2.393374204635620117e+00 8.789728879928588867e-01 -1.106080412864685059e+00
3.089000000000000000e+03 4.285433578491210938e+01 -1.825304412841796875e+01 1.988206058740615845e-01 4.517542362213134766e+00 1.414908885955810547e+00 1.972617149353027344e+00
3.090000000000000000e+03 3.930511093139648438e+01 4.670179367065429688e+00 6.674315333366394043e-01 2.542528390884399414e+00 9.629879593849182129e-01 -1.357963562011718750e+00
3.091000000000000000e+03 4.314499282836914062e+01 3.754231214523315430e+00 4.676871299743652344e-01 4.585403919219970703e+00 1.515927314758300781e+00 -2.117845773696899414e+00
3.092000000000000000e+03 4.403974533081054688e+01 -1.611936759948730469e+01 2.161125987768173218e-01 5.226566791534423828e+00 1.632803797721862793e+00 2.400945901870727539e+00
3.093000000000000000e+03 6.305597686767578125e+01 -1.768493080139160156e+01 1.691345870494842529e-01 8.063780784606933594e+00 2.469874620437622070e+00 -9.256113767623901367e-01
3.094000000000000000e+03 6.351517868041992188e+01 -1.965512084960937500e+01 -2.792510390281677246e-02 8.024394989013671875e+00 2.398940801620483398e+00 -8.849498629570007324e-01
3.095000000000000000e+03 4.299095916748046875e+01 2.906782388687133789e+00 6.245316863059997559e-01 4.398784637451171875e+00 1.506994843482971191e+00 -2.243314981460571289e+00
3.096000000000000000e+03 6.428419494628906250e+01 -1.110491371154785156e+01 9.859293103218078613e-01 7.719006538391113281e+00 2.611480712890625000e+00 -6.039901971817016602e-01
3.097000000000000000e+03 6.382936096191406250e+01 -1.271582603454589844e+01 8.320406079292297363e-01 7.832402706146240234e+00 2.599333047866821289e+00 -7.686639428138732910e-01
3.098000000000000000e+03 6.381644439697265625e+01 -1.642041778564453125e+01 3.423693478107452393e-01 7.973928928375244141e+00 2.494889497756958008e+00 -9.211512207984924316e-01
3.099000000000000000e+03 6.565148162841796875e+01 -9.058667182922363281e+00 9.840119481086730957e-01 7.542184352874755859e+00 2.557858943939208984e+00 -3.274683654308319092e-01
3.100000000000000000e+03 6.493923187255859375e+01 -9.616641998291015625e+00 1.083897829055786133e+00 7.618718624114990234e+00 2.610784769058227539e+00 -4.246824979782104492e-01
3.101000000000000000e+03 3.576791381835937500e+01 6.977589130401611328e+00 4.682058095932006836e-01 1.797033190727233887e+00 6.795716881752014160e-01 -7.518686652183532715e-01
3.102000000000000000e+03 3.552371597290039062e+01 5.991588592529296875e+00 5.126280784606933594e-01 1.608201146125793457e+00 6.362487673759460449e-01 -6.940976977348327637e-01
3.103000000000000000e+03 3.651235961914062500e+01 7.846964836120605469e+00 4.211399257183074951e-01 2.114724636077880859e+00 7.607594132423400879e-01 -8.579605221748352051e-01
3.104000000000000000e+03 6.561935424804687500e+01 -6.638004779815673828e+00 1.096237182617187500e+00 7.507942676544189453e+00 2.581254005432128906e+00 -1.142236217856407166e-02
3.105000000000000000e+03 6.386606597900390625e+01 -1.008254337310791016e+01 1.161917686462402344e+00 7.726407527923583984e+00 2.666497468948364258e+00 -5.089259147644042969e-01
3.106000000000000000e+03 3.134484100341796875e+01 1.410721778869628906e+01 6.883573532104492188e-02 1.571084737777709961e+00 4.919761419296264648e-01 -4.410308003425598145e-01
3.107000000000000000e+03 6.467576599121093750e+01 -6.036069393157958984e+00 1.254314303398132324e+00 7.580375671386718750e+00 2.650407075881958008e+00 9.044907242059707642e-02
3.108000000000000000e+03 6.466143798828125000e+01 -1.327115249633789062e+01 7.152829766273498535e-01 7.770894527435302734e+00 2.545853137969970703e+00 -7.688790559768676758e-01
3.109000000000000000e+03 3.023459053039550781e+01 -2.357199287414550781e+01 3.732015490531921387e-01 1.105348825454711914e+00 4.435651004314422607e-01 2.855318188667297363e-01
3.110000000000000000e+03 3.015489578247070312e+01 5.800422191619873047e+00 2.075001150369644165e-01 6.191846728324890137e-01 2.480054348707199097e-01 2.302084304392337799e-02
3.111000000000000000e+03 3.819616317749023438e+01 -2.006441688537597656e+01 4.524864256381988525e-01 2.537010192871093750e+00 8.968489766120910645e-01 1.246540546417236328e+00
3.112000000000000000e+03 4.247283554077148438e+01 -2.022072601318359375e+01 1.109569147229194641e-01 4.409176826477050781e+00 1.356040120124816895e+00 1.689043283462524414e+00
3.113000000000000000e+03 6.508005523681640625e+01 -3.384865522384643555e+00 1.079705238342285156e+00 7.604192256927490234e+00 2.605169296264648438e+00 4.538139700889587402e-01
3.114000000000000000e+03 6.380153656005859375e+01 6.792930513620376587e-02 8.519522547721862793e-01 7.855002403259277344e+00 2.612086534500122070e+00 8.613550662994384766e-01
3.115000000000000000e+03 6.474900817871093750e+01 4.534451961517333984e+00 2.692123949527740479e-01 7.910366058349609375e+00 2.453873395919799805e+00 9.919393062591552734e-01
3.116000000000000000e+03 6.235549926757812500e+01 1.175867366790771484e+01 -3.453994989395141602e-01 7.974826812744140625e+00 2.288828134536743164e+00 7.915108203887939453e-01
3.117000000000000000e+03 6.381757354736328125e+01 -1.434798240661621094e+00 1.066441059112548828e+00 7.787341594696044922e+00 2.656134843826293945e+00 7.280837893486022949e-01
3.118000000000000000e+03 6.372831344604492188e+01 5.057249546051025391e+00 2.156702727079391479e-01 8.010247230529785156e+00 2.467775344848632812e+00 1.013875007629394531e+00
3.119000000000000000e+03 6.267325592041015625e+01 2.592747688293457031e+00 5.416981577873229980e-01 8.065611839294433594e+00 2.582193136215209961e+00 1.022114872932434082e+00
3.120000000000000000e+03 6.397839355468750000e+01 -2.168505287170410156e+01 -1.833146512508392334e-01 7.976950168609619141e+00 2.338090658187866211e+00 -8.283625245094299316e-01
3.121000000000000000e+03 6.257681655883789062e+01 -2.388770294189453125e+01 -3.766935467720031738e-01 7.987264156341552734e+00 2.283171176910400391e+00 -7.085400223731994629e-01
3.122000000000000000e+03 6.048146820068359375e+01 -2.468577957153320312e+01 -5.216318368911743164e-01 7.987333774566650391e+00 2.239710569381713867e+00 -5.638847351074218750e-01
3.123000000000000000e+03 6.325620651245117188e+01 -2.250593662261962891e+00 1.199882268905639648e+00 7.806515216827392578e+00 2.701919317245483398e+00 6.591416001319885254e-01
3.124000000000000000e+03 5.158771133422851562e+01 -5.884552478790283203e+00 5.781941413879394531e+00 1.096726703643798828e+01 5.024762630462646484e+00 5.222219228744506836e-01
3.125000000000000000e+03 5.163813018798828125e+01 -6.174703121185302734e+00 5.845520973205566406e+00 1.089190292358398438e+01 5.021227359771728516e+00 2.439600974321365356e-01
3.126000000000000000e+03 4.753736877441406250e+01 -1.164383220672607422e+01 -1.043666899204254150e-01 1.063764286041259766e+01 3.159982919692993164e+00 2.605003356933593750e+00
3.127000000000000000e+03 4.728855514526367188e+01 -1.766708731651306152e+00 2.704148590564727783e-01 1.082485294342041016e+01 3.328580379486083984e+00 -2.982214927673339844e+00
3.128000000000000000e+03 5.150683975219726562e+01 -6.860523700714111328e+00 5.843641757965087891e+00 1.103677940368652344e+01 5.064126491546630859e+00 -4.713974893093109131e-01
3.129000000000000000e+03 4.994339370727539062e+01 -2.795276403427124023e+00 1.593382477760314941e+00 1.303757286071777344e+01 4.389286518096923828e+00 7.203750610351562500e-01
3.130000000000000000e+03 5.043884658813476562e+01 -9.776921272277832031e+00 2.087400197982788086e+00 1.281654930114746094e+01 4.471184730529785156e+00 -1.192813396453857422e+00
3.131000000000000000e+03 4.816491699218750000e+01 -1.977912187576293945e+00 2.290807515382766724e-01 1.231284427642822266e+01 3.762577295303344727e+00 -1.788296341896057129e+00
3.132000000000000000e+03 5.121666336059570312e+01 -5.292406082153320312e+00 5.609051227569580078e+00 1.154200267791748047e+01 5.145316123962402344e+00 1.129997730255126953e+00
3.133000000000000000e+03 4.661405563354492188e+01 -1.123612976074218750e+01 2.847237586975097656e-01 9.425995826721191406e+00 2.913215637207031250e+00 3.562832355499267578e+00
3.134000000000000000e+03 4.922196578979492188e+01 -1.181888580322265625e+01 -4.725597798824310303e-02 1.167755985260009766e+01 3.489091396331787109e+00 8.426384329795837402e-01
3.135000000000000000e+03 5.057150268554687500e+01 -3.656545162200927734e+00 3.128956317901611328e+00 1.273077487945556641e+01 4.757919311523437500e+00 1.491456747055053711e+00
3.136000000000000000e+03 5.033090591430664062e+01 -3.172418594360351562e+00 2.321287393569946289e+00 1.282576751708984375e+01 4.544116497039794922e+00 1.194209933280944824e+00
3.137000000000000000e+03 4.602526473999023438e+01 -8.000918030738830566e-01 5.937419533729553223e-01 7.897809505462646484e+00 2.547465562820434570e+00 -3.353806972503662109e+00
3.138000000000000000e+03 4.749356079101562500e+01 -1.626501798629760742e+00 1.991751492023468018e-01 1.096626377105712891e+01 3.349631786346435547e+00 -2.737040042877197266e+00
3.139000000000000000e+03 4.586647415161132812e+01 -1.190954971313476562e+01 4.511365294456481934e-01 7.665350914001464844e+00 2.434946298599243164e+00 3.529982566833496094e+00
3.140000000000000000e+03 4.893067932128906250e+01 -1.512231111526489258e+00 2.065111398696899414e-01 1.210872268676757812e+01 3.694570302963256836e+00 -9.521068930625915527e-01
3.141000000000000000e+03 4.670206069946289062e+01 -1.173172950744628906e+01 1.256455779075622559e-01 9.215332984924316406e+00 2.802293539047241211e+00 3.289338588714599609e+00
3.142000000000000000e+03 4.461946868896484375e+01 -2.210216969251632690e-01 9.653560519218444824e-01 5.618530273437500000e+00 1.975165843963623047e+00 -3.190513849258422852e+00
3.143000000000000000e+03 4.470704269409179688e+01 -6.172326207160949707e-01 1.039369463920593262e+00 5.607941150665283203e+00 1.994193196296691895e+00 -3.290959358215332031e+00
3.144000000000000000e+03 4.470759582519531250e+01 1.935080051422119141e+00 4.384051263332366943e-01 5.856368064880371094e+00 1.888432025909423828e+00 -2.609832763671875000e+00
3.145000000000000000e+03 4.391043090820312500e+01 1.826368689537048340e+00 6.254521608352661133e-01 5.059027671813964844e+00 1.705343961715698242e+00 -2.545136690139770508e+00
3.146000000000000000e+03 4.422777175903320312e+01 2.308511018753051758e+00 4.798237979412078857e-01 5.414898395538330078e+00 1.768416762351989746e+00 -2.495133161544799805e+00
3.147000000000000000e+03 4.368213653564453125e+01 2.686305284500122070e+00 5.407189726829528809e-01 4.950969696044921875e+00 1.647506594657897949e+00 -2.366752862930297852e+00
3.148000000000000000e+03 6.488229370117187500e+01 -7.435292243957519531e+00 1.160521626472473145e+00 7.577357292175292969e+00 2.621363639831542969e+00 -1.177138835191726685e-01
3.149000000000000000e+03 6.539209747314453125e+01 -5.031965255737304688e+00 1.137091636657714844e+00 7.538054943084716797e+00 2.602544069290161133e+00 2.201070487499237061e-01
3.150000000000000000e+03 4.320919418334960938e+01 -1.654821586608886719e+01 3.136180639266967773e-01 4.593618392944335938e+00 1.472170948982238770e+00 2.251258850097656250e+00
3.151000000000000000e+03 3.204309082031250000e+01 5.569846153259277344e+00 3.250989615917205811e-01 8.461614847183227539e-01 3.513781428337097168e-01 -1.601889282464981079e-01
3.152000000000000000e+03 4.022546386718750000e+01 5.265184402465820312e+00 5.667941570281982422e-01 3.130268573760986328e+00 1.109118819236755371e+00 -1.537696599960327148e+00
3.153000000000000000e+03 4.236130523681640625e+01 3.963401317596435547e+00 5.432283878326416016e-01 4.131776809692382812e+00 1.402501583099365234e+00 -2.000136375427246094e+00
3.154000000000000000e+03 4.149277114868164062e+01 4.243546962738037109e+00 5.913337469100952148e-01 3.613464355468750000e+00 1.261439442634582520e+00 -1.804163336753845215e+00
3.155000000000000000e+03 4.267335128784179688e+01 4.879146099090576172e+00 3.862607181072235107e-01 4.438413143157958984e+00 1.447402238845825195e+00 -1.906949400901794434e+00
3.156000000000000000e+03 3.729786682128906250e+01 7.115761756896972656e+00 4.767059087753295898e-01 2.271337509155273438e+00 8.244130015373229980e-01 -9.868892431259155273e-01
3.157000000000000000e+03 6.190517044067382812e+01 -1.695584106445312500e+01 2.487441450357437134e-01 8.182030677795410156e+00 2.529232501983642578e+00 -9.440030455589294434e-01
3.158000000000000000e+03 6.287023925781250000e+01 -2.088380241394042969e+01 -1.585232764482498169e-01 8.055720329284667969e+00 2.369158983230590820e+00 -8.412111401557922363e-01
3.159000000000000000e+03 6.274855804443359375e+01 -1.584957599639892578e+01 4.373185634613037109e-01 8.063287734985351562e+00 2.550182104110717773e+00 -9.399197101593017578e-01
3.160000000000000000e+03 6.226053237915039062e+01 -1.191311073303222656e+01 1.096134066581726074e+00 7.985978603363037109e+00 2.724633693695068359e+00 -7.907597422599792480e-01
3.161000000000000000e+03 6.381197738647460938e+01 -1.424012660980224609e+01 6.225008368492126465e-01 7.907852172851562500e+00 2.559105873107910156e+00 -8.701908588409423828e-01
3.162000000000000000e+03 3.889664840698242188e+01 7.111946582794189453e+00 4.448955059051513672e-01 2.844927787780761719e+00 9.869469404220581055e-01 -1.227912664413452148e+00
3.163000000000000000e+03 3.451368713378906250e+01 1.035128498077392578e+01 2.546224892139434814e-01 1.920631408691406250e+00 6.525762081146240234e-01 -6.504191160202026367e-01
3.164000000000000000e+03 6.417262268066406250e+01 -8.138513565063476562e+00 1.289271831512451172e+00 7.645608425140380859e+00 2.680464029312133789e+00 -2.293365448713302612e-01
3.165000000000000000e+03 6.289824295043945312e+01 -1.087963199615478516e+01 1.199779033660888672e+00 7.860883235931396484e+00 2.718198537826538086e+00 -6.412183046340942383e-01
3.166000000000000000e+03 6.491786193847656250e+01 -8.719718933105468750e+00 1.172039508819580078e+00 7.594216823577880859e+00 2.629876852035522461e+00 -3.047219514846801758e-01
3.167000000000000000e+03 6.452441406250000000e+01 -8.403062820434570312e-01 9.029336571693420410e-01 7.739692211151123047e+00 2.592787742614746094e+00 7.514390349388122559e-01
3.168000000000000000e+03 6.412139892578125000e+01 -2.845897436141967773e+00 1.149850845336914062e+00 7.696535587310791016e+00 2.653915882110595703e+00 5.417622923851013184e-01
3.169000000000000000e+03 6.235296630859375000e+01 -1.892028045654296875e+01 1.917469501495361328e-02 8.121309280395507812e+00 2.442145347595214844e+00 -8.978863954544067383e-01
3.170000000000000000e+03 3.228759765625000000e+01 1.324299526214599609e+01 1.000088304281234741e-01 1.715866208076477051e+00 5.447624921798706055e-01 -5.002141594886779785e-01
3.171000000000000000e+03 3.163671684265136719e+01 9.588330268859863281e+00 1.994664669036865234e-01 1.230702877044677734e+00 4.290508031845092773e-01 -3.135289251804351807e-01
3.172000000000000000e+03 3.250629425048828125e+01 8.604910850524902344e+00 2.792716324329376221e-01 1.298303723335266113e+00 4.732725918292999268e-01 -3.811824023723602295e-01
3.173000000000000000e+03 3.982009506225585938e+01 -2.146208190917968750e+01 2.969578802585601807e-01 3.316753625869750977e+00 1.084113359451293945e+00 1.377614617347717285e+00
3.174000000000000000e+03 3.183552551269531250e+01 1.139214611053466797e+01 1.512291282415390015e-01 1.451234817504882812e+00 4.807391762733459473e-01 -4.044868052005767822e-01
3.175000000000000000e+03 6.524427795410156250e+01 5.785662174224853516e+00 1.510063409805297852e-01 7.905033111572265625e+00 2.416811704635620117e+00 9.921467900276184082e-01
3.176000000000000000e+03 6.296538543701171875e+01 8.617900609970092773e-01 8.036601543426513672e-01 7.972663402557373047e+00 2.632897138595581055e+00 9.466981291770935059e-01
3.177000000000000000e+03 6.308518218994140625e+01 -7.510014176368713379e-01 1.039284467697143555e+00 7.889048576354980469e+00 2.678499937057495117e+00 8.216065764427185059e-01
3.178000000000000000e+03 3.493035125732421875e+01 7.680833339691162109e+00 4.058366715908050537e-01 1.722996950149536133e+00 6.386500597000122070e-01 -6.518507599830627441e-01
3.179000000000000000e+03 3.456385803222656250e+01 -2.287789916992187500e+01 4.313004910945892334e-01 1.843892216682434082e+00 6.825578212738037109e-01 6.797679066658020020e-01
3.180000000000000000e+03 4.468982315063476562e+01 -1.579228591918945312e+01 1.190973296761512756e-01 5.813845634460449219e+00 1.779882907867431641e+00 2.471659660339355469e+00
3.181000000000000000e+03 6.428844451904296875e+01 6.207221031188964844e+00 1.031097695231437683e-01 7.977847576141357422e+00 2.424287319183349609e+00 1.000994324684143066e+00
3.182000000000000000e+03 6.371869277954101562e+01 1.895522356033325195e+00 6.131685972213745117e-01 7.930222511291503906e+00 2.563017368316650391e+00 9.638513922691345215e-01
3.183000000000000000e+03 6.167698287963867188e+01 -2.449649238586425781e+01 -4.510872066020965576e-01 7.982529640197753906e+00 2.259432792663574219e+00 -6.398402452468872070e-01
3.184000000000000000e+03 6.072350692749023438e+01 -2.297135543823242188e+01 -4.082955718040466309e-01 8.100067138671875000e+00 2.307531595230102539e+00 -6.702790856361389160e-01
3.185000000000000000e+03 6.308911895751953125e+01 -1.234711933135986328e+01 9.557665586471557617e-01 7.910225391387939453e+00 2.659797430038452148e+00 -7.868234515190124512e-01
3.186000000000000000e+03 6.162149429321289062e+01 -1.280595779418945312e+01 9.757968783378601074e-01 8.091705322265625000e+00 2.720250606536865234e+00 -8.706072568893432617e-01
3.187000000000000000e+03 3.220903778076171875e+01 1.644208526611328125e+01 3.510773181915283203e-02 1.914950966835021973e+00 5.850176215171813965e-01 -5.195522904396057129e-01
3.188000000000000000e+03 3.149918746948242188e+01 1.767774772644042969e+01 1.168889459222555161e-02 1.813166260719299316e+00 5.474565029144287109e-01 -5.136896967887878418e-01
3.189000000000000000e+03 6.095549392700195312e+01 1.116692733764648438e+01 -3.835335075855255127e-01 8.024024009704589844e+00 2.292147159576416016e+00 7.524188160896301270e-01
3.190000000000000000e+03 6.365900039672851562e+01 7.083413124084472656e+00 5.289838183671236038e-03 8.027681350708007812e+00 2.409891366958618164e+00 9.833832979202270508e-01
3.191000000000000000e+03 6.077065658569335938e+01 -2.663747787475585938e+01 -5.721904635429382324e-01 7.877409934997558594e+00 2.191565990447998047e+00 -4.914929270744323730e-01
3.192000000000000000e+03 6.495140075683593750e+01 1.447209072113037109e+01 -3.298171460628509521e-01 7.883624553680419922e+00 2.266142368316650391e+00 7.547831535339355469e-01
3.193000000000000000e+03 4.643416976928710938e+01 -1.430625796318054199e+00 5.814320445060729980e-01 8.914323806762695312e+00 2.848726749420166016e+00 -3.468909025192260742e+00
3.194000000000000000e+03 5.172416305541992188e+01 -6.464834690093994141e+00 5.823006629943847656e+00 1.081122493743896484e+01 4.990269660949707031e+00 -5.719381198287010193e-02
3.195000000000000000e+03 5.169835281372070312e+01 -7.331582546234130859e+00 5.424788475036621094e+00 1.095157718658447266e+01 4.912909507751464844e+00 -8.283035755157470703e-01
3.196000000000000000e+03 4.760286712646484375e+01 -1.206081199645996094e+01 -1.898872703313827515e-01 1.034150886535644531e+01 3.045486450195312500e+00 2.465820312500000000e+00
3.197000000000000000e+03 4.621577072143554688e+01 -1.166372776031494141e+00 5.959361791610717773e-01 8.394581794738769531e+00 2.697155237197875977e+00 -3.464165687561035156e+00
3.198000000000000000e+03 4.835562896728515625e+01 -1.200999450683593750e+01 -2.281736135482788086e-01 1.118006134033203125e+01 3.285566329956054688e+00 1.722105264663696289e+00
3.199000000000000000e+03 5.139741897583007812e+01 -5.023830890655517578e+00 5.173617839813232422e+00 1.140970325469970703e+01 4.974996566772460938e+00 1.249940872192382812e+00
3.200000000000000000e+03 5.167695999145507812e+01 -4.759742259979248047e+00 4.659422874450683594e+00 1.116973209381103516e+01 4.748746395111083984e+00 1.280658483505249023e+00
3.201000000000000000e+03 5.089342498779296875e+01 -4.117530822753906250e+00 3.978348016738891602e+00 1.223559188842773438e+01 4.864181995391845703e+00 1.604565978050231934e+00
3.202000000000000000e+03 4.826038360595703125e+01 -1.602214455604553223e+00 1.452798396348953247e-01 1.188562202453613281e+01 3.609270811080932617e+00 -1.719128370285034180e+00
3.203000000000000000e+03 4.627887725830078125e+01 -1.180434131622314453e+01 2.882917225360870361e-01 8.391551017761230469e+00 2.603952884674072266e+00 3.437865734100341797e+00
3.204000000000000000e+03 4.874651718139648438e+01 -1.165332698822021484e+01 -1.232488676905632019e-01 1.178740882873535156e+01 3.499248027801513672e+00 1.255957484245300293e+00
3.205000000000000000e+03 4.584117889404296875e+01 -4.477574825286865234e-01 5.891391038894653320e-01 7.482077598571777344e+00 2.421365022659301758e+00 -3.285621881484985352e+00
3.206000000000000000e+03 4.565771102905273438e+01 -1.075149655342102051e+00 8.503773212432861328e-01 7.218549728393554688e+00 2.420678138732910156e+00 -3.569426536560058594e+00
3.207000000000000000e+03 4.598801803588867188e+01 -1.242690563201904297e+01 2.651855647563934326e-01 7.738546371459960938e+00 2.401119709014892578e+00 3.266948223114013672e+00
3.208000000000000000e+03 4.641062545776367188e+01 -1.232229137420654297e+01 1.376140415668487549e-01 8.447080612182617188e+00 2.575408220291137695e+00 3.185513734817504883e+00
3.209000000000000000e+03 5.193395614624023438e+01 -5.509639263153076172e+00 5.278994560241699219e+00 1.074523830413818359e+01 4.807269573211669922e+00 7.598778605461120605e-01
3.210000000000000000e+03 5.187987136840820312e+01 -5.207903385162353516e+00 5.088456153869628906e+00 1.086325836181640625e+01 4.785514354705810547e+00 9.989339709281921387e-01
3.211000000000000000e+03 4.858282852172851562e+01 -1.577143788337707520e+00 1.661841869354248047e-01 1.204898834228515625e+01 3.664551734924316406e+00 -1.350659489631652832e+00
3.212000000000000000e+03 4.712502670288085938e+01 -1.167804336547851562e+01 -1.938257925212383270e-02 1.001812839508056641e+01 2.999623775482177734e+00 2.975787162780761719e+00
3.213000000000000000e+03 4.553437042236328125e+01 -1.251186656951904297e+01 4.237400591373443604e-01 7.004484176635742188e+00 2.228467226028442383e+00 3.346935272216796875e+00
3.214000000000000000e+03 4.492265701293945312e+01 5.622033402323722839e-02 7.840061187744140625e-01 6.044044494628906250e+00 2.048415184020996094e+00 -3.124238967895507812e+00
3.215000000000000000e+03 4.561445617675781250e+01 -1.307778453826904297e+01 2.648593485355377197e-01 7.034759998321533203e+00 2.189885854721069336e+00 3.131566524505615234e+00
3.216000000000000000e+03 4.504333877563476562e+01 2.544164419174194336e+00 2.570964992046356201e-01 6.173250675201416016e+00 1.929104089736938477e+00 -2.447678565979003906e+00
3.217000000000000000e+03 4.539088058471679688e+01 -1.502433872222900391e+01 4.395885765552520752e-02 6.502516269683837891e+00 1.963942527770996094e+00 2.601426839828491211e+00
3.218000000000000000e+03 4.446261215209960938e+01 -1.508826065063476562e+01 2.476796805858612061e-01 5.571177959442138672e+00 1.745657205581665039e+00 2.610537767410278320e+00
3.219000000000000000e+03 4.454393768310546875e+01 2.838404655456542969e+00 3.384619653224945068e-01 5.715326786041259766e+00 1.816136717796325684e+00 -2.403958559036254883e+00
3.220000000000000000e+03 4.379120254516601562e+01 3.670432806015014648e+00 3.658347129821777344e-01 5.093641757965087891e+00 1.637843012809753418e+00 -2.201457977294921875e+00
3.221000000000000000e+03 4.120180511474609375e+01 5.948311805725097656e+00 4.270270168781280518e-01 3.707347393035888672e+00 1.240312337875366211e+00 -1.629206657409667969e+00
3.222000000000000000e+03 4.341265487670898438e+01 4.611363410949707031e+00 3.132324516773223877e-01 4.870631694793701172e+00 1.555159211158752441e+00 -1.998630642890930176e+00
3.223000000000000000e+03 6.198073196411132812e+01 -1.523389339447021484e+01 5.332154035568237305e-01 8.140773773193359375e+00 2.602196693420410156e+00 -9.529979228973388672e-01
3.224000000000000000e+03 4.375315856933593750e+01 -1.759212875366210938e+01 1.120919361710548401e-01 5.073181629180908203e+00 1.555582046508789062e+00 2.103665351867675781e+00
3.225000000000000000e+03 6.202774429321289062e+01 -1.037991905212402344e+01 1.360728383064270020e+00 7.927814006805419922e+00 2.786562681198120117e+00 -6.196900606155395508e-01
3.226000000000000000e+03 6.139098739624023438e+01 -1.129283905029296875e+01 1.283435106277465820e+00 8.059523582458496094e+00 2.802887678146362305e+00 -7.714703083038330078e-01
3.227000000000000000e+03 6.145541000366210938e+01 -8.607975959777832031e+00 1.647646665573120117e+00 7.919687747955322266e+00 2.870200395584106445e+00 -3.784101307392120361e-01
3.228000000000000000e+03 3.871352005004882812e+01 5.508070945739746094e+00 5.979083180427551270e-01 2.496663570404052734e+00 9.283716082572937012e-01 -1.239348053932189941e+00
3.229000000000000000e+03 6.304105377197265625e+01 -6.706700801849365234e+00 1.507244467735290527e+00 7.726116657257080078e+00 2.770008325576782227e+00 -2.246769703924655914e-02
3.230000000000000000e+03 6.284893417358398438e+01 -1.477327060699462891e+01 5.755364894866943359e-01 8.020358085632324219e+00 2.578768491744995117e+00 -9.131448268890380859e-01
3.231000000000000000e+03 3.334349822998046875e+01 7.791471481323242188e+00 3.509357273578643799e-01 1.371999144554138184e+00 5.168804526329040527e-01 -4.559802412986755371e-01
3.232000000000000000e+03 6.260848236083984375e+01 -3.076804637908935547e+00 1.375059247016906738e+00 7.838397502899169922e+00 2.764036893844604492e+00 5.727059245109558105e-01
3.233000000000000000e+03 6.464061737060546875e+01 -1.842014908790588379e+00 9.939215779304504395e-01 7.686940193176269531e+00 2.604258537292480469e+00 6.412666440010070801e-01
3.234000000000000000e+03 6.363513183593750000e+01 -5.480041980743408203e+00 1.391744017601013184e+00 7.677690505981445312e+00 2.720830440521240234e+00 1.809840351343154907e-01
3.235000000000000000e+03 6.439014434814453125e+01 -4.431921958923339844e+00 1.239172458648681641e+00 7.628182411193847656e+00 2.660206556320190430e+00 3.269222378730773926e-01
3.236000000000000000e+03 6.228752136230468750e+01 -5.312371626496315002e-02 9.900774955749511719e-01 8.012324333190917969e+00 2.700720548629760742e+00 9.169352054595947266e-01
3.237000000000000000e+03 6.316984939575195312e+01 -1.325655269622802734e+01 8.271273374557495117e-01 7.938572406768798828e+00 2.629709959030151367e+00 -8.425621390342712402e-01
3.238000000000000000e+03 3.262006759643554688e+01 1.040394496917724609e+01 2.131667584180831909e-01 1.533545136451721191e+00 5.240135788917541504e-01 -4.625855982303619385e-01
3.239000000000000000e+03 3.300099945068359375e+01 6.849167346954345703e+00 3.664156794548034668e-01 1.174392342567443848e+00 4.622423946857452393e-01 -3.576975464820861816e-01
3.240000000000000000e+03 6.219495010375976562e+01 4.361221313476562500e+00 2.933306694030761719e-01 8.138205528259277344e+00 2.529460906982421875e+00 1.031414747238159180e+00
3.241000000000000000e+03 3.359950637817382812e+01 1.121243858337402344e+01 2.125906199216842651e-01 1.817375659942626953e+00 6.089898943901062012e-01 -5.851136445999145508e-01
3.242000000000000000e+03 3.199372863769531250e+01 1.504699420928955078e+01 4.971658065915107727e-02 1.800448894500732422e+00 5.550496578216552734e-01 -4.967944324016571045e-01
3.243000000000000000e+03 3.842937088012695312e+01 -2.363294792175292969e+01 2.744077742099761963e-01 3.071876049041748047e+00 1.003885149955749512e+00 1.109538793563842773e+00
3.244000000000000000e+03 6.238918685913085938e+01 -7.842382907867431641e+00 1.574659109115600586e+00 7.794085979461669922e+00 2.810623407363891602e+00 -2.217520475387573242e-01
3.245000000000000000e+03 3.960063171386718750e+01 6.203202724456787109e+00 5.041023492813110352e-01 2.997749805450439453e+00 1.050555706024169922e+00 -1.370846509933471680e+00
3.246000000000000000e+03 6.117364120483398438e+01 -2.153758239746093750e+01 -2.896166145801544189e-01 8.145817756652832031e+00 2.356860160827636719e+00 -7.597486376762390137e-01
3.247000000000000000e+03 6.462975311279296875e+01 7.313873767852783203e+00 2.187711215810850263e-04 7.954829692840576172e+00 2.386514663696289062e+00 9.708112478256225586e-01
3.248000000000000000e+03 6.268971252441406250e+01 5.519331932067871094e+00 1.572990268468856812e-01 8.101210594177246094e+00 2.477552890777587891e+00 1.017199635505676270e+00
3.249000000000000000e+03 3.856403732299804688e+01 -2.605283927917480469e+01 1.773976534605026245e-01 3.332132577896118164e+00 1.052859067916870117e+00 9.640920758247375488e-01
3.250000000000000000e+03 6.161067962646484375e+01 9.487867355346679688e+00 -2.520211338996887207e-01 8.086722373962402344e+00 2.350410223007202148e+00 8.624342679977416992e-01
3.251000000000000000e+03 6.215969467163085938e+01 7.982249736785888672e+00 -1.187595576047897339e-01 8.103174209594726562e+00 2.395324468612670898e+00 9.353508353233337402e-01
3.252000000000000000e+03 3.074602317810058594e+01 1.507982444763183594e+01 3.575249388813972473e-02 1.498995304107666016e+00 4.604243338108062744e-01 -4.097492396831512451e-01
3.253000000000000000e+03 5.167329788208007812e+01 -8.507977485656738281e+00 4.139158725738525391e+00 1.134322357177734375e+01 4.644714832305908203e+00 -1.445783853530883789e+00
3.254000000000000000e+03 5.202642822265625000e+01 -7.053518772125244141e+00 5.360285282135009766e+00 1.064859199523925781e+01 4.802662849426269531e+00 -5.568512678146362305e-01
3.255000000000000000e+03 5.216809082031250000e+01 -6.576021194458007812e+00 5.385355472564697266e+00 1.044868850708007812e+01 4.750213146209716797e+00 -1.375184655189514160e-01
3.256000000000000000e+03 5.034453964233398438e+01 -2.756756067276000977e+00 1.802492856979370117e+00 1.261605358123779297e+01 4.325563907623291016e+00 9.428376555442810059e-01
3.257000000000000000e+03 4.969099426269531250e+01 -1.845978260040283203e+00 6.624886393547058105e-01 1.238173294067382812e+01 3.913266420364379883e+00 -3.735271468758583069e-02
3.258000000000000000e+03 4.933311080932617188e+01 -1.101326179504394531e+01 3.799216747283935547e-01 1.259466171264648438e+01 3.892375230789184570e+00 3.582282066345214844e-01
3.259000000000000000e+03 4.970095062255859375e+01 -1.068426418304443359e+01 6.733125448226928711e-01 1.277832508087158203e+01 4.035491466522216797e+00 -7.479590922594070435e-02
3.260000000000000000e+03 4.721617507934570312e+01 -1.212967872619628906e+01 -1.032907366752624512e-01 9.758010864257812500e+00 2.896415948867797852e+00 2.775315761566162109e+00
3.261000000000000000e+03 5.144651794433593750e+01 -8.865682601928710938e+00 3.728435277938842773e+00 1.164034938812255859e+01 4.610635280609130859e+00 -1.512916088104248047e+00
3.262000000000000000e+03 5.045420074462890625e+01 -1.038437271118164062e+01 1.445306301116943359e+00 1.247616291046142578e+01 4.176440715789794922e+00 -8.708998560905456543e-01
3.263000000000000000e+03 5.018073654174804688e+01 -1.004799270629882812e+01 1.609352111816406250e+00 1.288676261901855469e+01 4.348834514617919922e+00 -8.852413296699523926e-01
3.264000000000000000e+03 5.069042968750000000e+01 -3.218287944793701172e+00 2.499225378036499023e+00 1.245332908630371094e+01 4.485766410827636719e+00 1.312980532646179199e+00
3.265000000000000000e+03 4.982969284057617188e+01 -2.312510013580322266e+00 1.100285172462463379e+00 1.275526809692382812e+01 4.156665802001953125e+00 3.569058477878570557e-01
3.266000000000000000e+03 4.637590408325195312e+01 -5.001582503318786621e-01 3.711816370487213135e-01 8.434363365173339844e+00 2.641663312911987305e+00 -3.104090690612792969e+00
3.267000000000000000e+03 4.929561233520507812e+01 -1.136606502532958984e+01 1.278312057256698608e-01 1.213223648071289062e+01 3.678020477294921875e+00 6.278281807899475098e-01
3.268000000000000000e+03 4.512181091308593750e+01 -6.606519222259521484e-01 9.374997019767761230e-01 6.267993927001953125e+00 2.161648035049438477e+00 -3.411307573318481445e+00
3.269000000000000000e+03 4.494466781616210938e+01 -1.439446640014648438e+01 2.345959991216659546e-01 6.043704986572265625e+00 1.883490324020385742e+00 2.768168449401855469e+00
3.270000000000000000e+03 4.611685180664062500e+01 -1.294976043701171875e+01 1.215087324380874634e-01 7.826246738433837891e+00 2.384326696395874023e+00 3.057646989822387695e+00
3.271000000000000000e+03 4.544490814208984375e+01 -1.448159122467041016e+01 9.455657005310058594e-02 6.616331577301025391e+00 2.013266563415527344e+00 2.728018283843994141e+00
3.272000000000000000e+03 4.583823394775390625e+01 2.291201651096343994e-01 4.159580767154693604e-01 7.333251953125000000e+00 2.324763059616088867e+00 -2.992858886718750000e+00
3.273000000000000000e+03 4.507667922973632812e+01 1.026430726051330566e+00 5.117881894111633301e-01 6.230853557586669922e+00 2.022792577743530273e+00 -2.818140268325805664e+00
3.274000000000000000e+03 4.506648635864257812e+01 4.771445095539093018e-01 6.304110288619995117e-01 6.274648189544677734e+00 2.071517705917358398e+00 -2.997027158737182617e+00
3.275000000000000000e+03 4.520272827148437500e+01 1.658916592597961426e+00 3.710889518260955811e-01 6.332638740539550781e+00 2.011118412017822266e+00 -2.662761449813842773e+00
3.276000000000000000e+03 4.516310501098632812e+01 -1.545713996887207031e+01 5.020686611533164978e-02 6.234379291534423828e+00 1.885375857353210449e+00 2.527854919433593750e+00
3.277000000000000000e+03 4.452092361450195312e+01 -1.699949645996093750e+01 2.448509074747562408e-02 5.607396125793457031e+00 1.689564347267150879e+00 2.223350286483764648e+00
3.278000000000000000e+03 6.173912429809570312e+01 -2.020926094055175781e+01 -1.393367499113082886e-01 8.156766891479492188e+00 2.405228853225708008e+00 -8.448144793510437012e-01
3.279000000000000000e+03 4.401821136474609375e+01 3.169147491455078125e+00 4.007078111171722412e-01 5.235660076141357422e+00 1.690910458564758301e+00 -2.278745412826538086e+00
3.280000000000000000e+03 4.434725952148437500e+01 4.603057384490966797e+00 1.664877384901046753e-01 5.514768123626708984e+00 1.704376816749572754e+00 -2.082308530807495117e+00
3.281000000000000000e+03 4.188212966918945312e+01 5.193823814392089844e+00 4.505098760128021240e-01 3.922613382339477539e+00 1.311936974525451660e+00 -1.775687336921691895e+00
3.282000000000000000e+03 6.059452819824218750e+01 -9.320741653442382812e+00 1.728331565856933594e+00 8.058393478393554688e+00 2.936017513275146484e+00 -5.568820834159851074e-01
3.283000000000000000e+03 4.355349731445312500e+01 -1.938963317871093750e+01 9.857115335762500763e-03 4.987791061401367188e+00 1.499294400215148926e+00 1.824896335601806641e+00
3.284000000000000000e+03 4.518148040771484375e+01 -1.780009269714355469e+01 -1.495213657617568970e-01 6.042723178863525391e+00 1.767960548400878906e+00 2.035069227218627930e+00
3.285000000000000000e+03 6.162552642822265625e+01 -7.235441684722900391e+00 1.714316606521606445e+00 7.861804008483886719e+00 2.872836112976074219e+00 -1.337714195251464844e-01
3.286000000000000000e+03 6.316344833374023438e+01 -8.857228279113769531e+00 1.382647752761840820e+00 7.750771045684814453e+00 2.740025520324707031e+00 -3.625512421131134033e-01
3.287000000000000000e+03 3.403487014770507812e+01 7.004668712615966797e+00 4.259390830993652344e-01 1.421942710876464844e+00 5.543645024299621582e-01 -5.218124389648437500e-01
3.288000000000000000e+03 4.431082153320312500e+01 3.598927259445190430e+00 2.773965597152709961e-01 5.567351341247558594e+00 1.753424286842346191e+00 -2.237720012664794922e+00
3.289000000000000000e+03 6.185874938964843750e+01 -2.357226371765136719e+00 1.401716113090515137e+00 7.949707508087158203e+00 2.805427074432373047e+00 7.047851681709289551e-01
3.290000000000000000e+03 6.093362426757812500e+01 -1.348539543151855469e+01 8.762238621711730957e-01 8.231884002685546875e+00 2.732432365417480469e+00 -9.421760439872741699e-01
3.291000000000000000e+03 6.345156478881835938e+01 -3.789146423339843750e+00 1.319915175437927246e+00 7.727476119995117188e+00 2.714217424392700195e+00 4.465515017509460449e-01
3.292000000000000000e+03 3.571479415893554688e+01 8.504855155944824219e+00 3.833087086677551270e-01 2.012676715850830078e+00 7.187956571578979492e-01 -7.845470905303955078e-01
3.293000000000000000e+03 3.811177825927734375e+01 7.989441394805908203e+00 3.914124071598052979e-01 2.682798147201538086e+00 9.222631454467773438e-01 -1.090817928314208984e+00
3.294000000000000000e+03 3.549487686157226562e+01 1.148845863342285156e+01 2.020709216594696045e-01 2.300253391265869141e+00 7.506972551345825195e-01 -7.522518038749694824e-01
3.295000000000000000e+03 4.267648696899414062e+01 5.763784885406494141e+00 2.788880467414855957e-01 4.484220504760742188e+00 1.428932666778564453e+00 -1.787189602851867676e+00
3.296000000000000000e+03 6.113151550292968750e+01 -1.823756027221679688e+01 6.558667868375778198e-02 8.248506546020507812e+00 2.494227886199951172e+00 -9.059945940971374512e-01
3.297000000000000000e+03 4.121924209594726562e+01 -2.094417762756347656e+01 2.113264948129653931e-01 3.846938848495483398e+00 1.217479586601257324e+00 1.536749362945556641e+00
3.298000000000000000e+03 6.231226348876953125e+01 -1.371949672698974609e+01 7.796689271926879883e-01 8.041539192199707031e+00 2.646362304687500000e+00 -8.883214592933654785e-01
3.299000000000000000e+03 6.147311401367187500e+01 -1.433459568023681641e+01 6.882141828536987305e-01 8.181420326232910156e+00 2.660890102386474609e+00 -9.486949443817138672e-01
3.300000000000000000e+03 3.678226470947265625e+01 1.065378952026367188e+01 2.380077391862869263e-01 2.565976381301879883e+00 8.411952257156372070e-01 -8.870719075202941895e-01
3.301000000000000000e+03 3.258315658569335938e+01 1.924053955078125000e+01 1.569566433317959309e-03 2.110842227935791016e+00 6.337235569953918457e-01 -5.484672784805297852e-01
3.302000000000000000e+03 3.328364944458007812e+01 1.448052692413330078e+01 8.212967216968536377e-02 2.001741170883178711e+00 6.251612901687622070e-01 -5.883898735046386719e-01
3.303000000000000000e+03 6.059506225585937500e+01 -1.965624046325683594e+01 -1.369450986385345459e-01 8.265879631042480469e+00 2.438680171966552734e+00 -8.334314823150634766e-01
3.304000000000000000e+03 6.086830902099609375e+01 -7.862392902374267578e+00 1.819496989250183105e+00 7.963933944702148438e+00 2.935029268264770508e+00 -2.659842669963836670e-01
3.305000000000000000e+03 3.479747009277343750e+01 1.372692108154296875e+01 1.133689433336257935e-01 2.292975425720214844e+00 7.219033241271972656e-01 -6.890229582786560059e-01
3.306000000000000000e+03 6.323407363891601562e+01 3.762471437454223633e+00 3.838854432106018066e-01 8.037369728088378906e+00 2.526376485824584961e+00 1.022985339164733887e+00
3.307000000000000000e+03 6.267225265502929688e+01 6.680712223052978516e+00 1.659967750310897827e-02 8.094193458557128906e+00 2.433237791061401367e+00 9.873613119125366211e-01
3.308000000000000000e+03 6.103579711914062500e+01 7.327332019805908203e+00 -8.953055739402770996e-02 8.197776794433593750e+00 2.432473897933959961e+00 9.332614541053771973e-01
3.309000000000000000e+03 4.330271530151367188e+01 -2.157461166381835938e+01 -6.795196980237960815e-02 4.876250743865966797e+00 1.442489624023437500e+00 1.532303452491760254e+00
3.310000000000000000e+03 4.028459167480468750e+01 -2.334827232360839844e+01 1.706776171922683716e-01 3.632683753967285156e+00 1.141008496284484863e+00 1.271297216415405273e+00
3.311000000000000000e+03 6.012970352172851562e+01 1.301105594635009766e+01 -4.796240627765655518e-01 7.909983158111572266e+00 2.229107618331909180e+00 6.286097168922424316e-01
3.312000000000000000e+03 3.620771789550781250e+01 -2.540780639648437500e+01 3.219854533672332764e-01 2.525809288024902344e+00 8.543384671211242676e-01 7.668113112449645996e-01
3.313000000000000000e+03 4.655942535400390625e+01 -8.782065510749816895e-01 3.763970434665679932e-01 8.895003318786621094e+00 2.781419992446899414e+00 -3.155807018280029297e+00
3.314000000000000000e+03 4.719629669189453125e+01 -1.541875004768371582e+00 2.746423184871673584e-01 1.043297481536865234e+01 3.212285041809082031e+00 -2.964836359024047852e+00
3.315000000000000000e+03 4.782844543457031250e+01 -1.282642459869384766e+01 -3.164526522159576416e-01 9.972236633300781250e+00 2.896735191345214844e+00 2.149507999420166016e+00
3.316000000000000000e+03 5.187778091430664062e+01 -9.075642585754394531e+00 3.470375776290893555e+00 1.116889476776123047e+01 4.391781330108642578e+00 -1.450245618820190430e+00
3.317000000000000000e+03 4.819193267822265625e+01 -1.186452507972717285e+00 3.355896100401878357e-02 1.133012199401855469e+01 3.409104108810424805e+00 -1.827917218208312988e+00
3.318000000000000000e+03 5.158750152587890625e+01 -4.275411605834960938e+00 4.164733886718750000e+00 1.139002037048339844e+01 4.666426181793212891e+00 1.461400747299194336e+00
3.319000000000000000e+03 5.114817810058593750e+01 -3.217945098876953125e+00 2.689819335937500000e+00 1.196380710601806641e+01 4.396088123321533203e+00 1.420945882797241211e+00
3.320000000000000000e+03 4.668207550048828125e+01 -1.178137779235839844e+00 3.877840042114257812e-01 9.246116638183593750e+00 2.890170335769653320e+00 -3.206437587738037109e+00
3.321000000000000000e+03 4.733993530273437500e+01 -1.256502056121826172e+01 -1.899866908788681030e-01 9.599355697631835938e+00 2.822810649871826172e+00 2.557546854019165039e+00
3.322000000000000000e+03 5.197645950317382812e+01 -5.808122634887695312e+00 5.405916213989257812e+00 1.065801811218261719e+01 4.819180488586425781e+00 5.410793423652648926e-01
3.323000000000000000e+03 4.926448440551757812e+01 -1.502973914146423340e+00 3.225795328617095947e-01 1.209902763366699219e+01 3.726482152938842773e+00 -6.208218336105346680e-01
3.324000000000000000e+03 5.058644104003906250e+01 -1.087487411499023438e+01 1.053040742874145508e+00 1.210677909851074219e+01 3.947945833206176758e+00 -6.940252780914306641e-01
3.325000000000000000e+03 4.957604598999023438e+01 -1.433570265769958496e+00 4.218034148216247559e-01 1.205049896240234375e+01 3.741690635681152344e+00 -3.120197355747222900e-01
3.326000000000000000e+03 4.595203399658203125e+01 -1.405445766448974609e+01 -1.059601083397865295e-02 7.314579010009765625e+00 2.191195011138916016e+00 2.738727092742919922e+00
3.327000000000000000e+03 4.939516830444335938e+01 -1.133933305740356445e+00 2.006459981203079224e-01 1.176445770263671875e+01 3.589530944824218750e+00 -6.222549080848693848e-01
3.328000000000000000e+03 4.551879501342773438e+01 -6.595569252967834473e-01 7.899208664894104004e-01 6.935972213745117188e+00 2.317767858505249023e+00 -3.422938108444213867e+00
3.329000000000000000e+03 4.594233322143554688e+01 -1.459504127502441406e+01 -5.672865360975265503e-02 7.218330860137939453e+00 2.148480653762817383e+00 2.633982419967651367e+00
3.330000000000000000e+03 4.973919677734375000e+01 -1.144251155853271484e+01 2.947094440460205078e-01 1.204300880432128906e+01 3.701315402984619141e+00 2.163949310779571533e-01
3.331000000000000000e+03 5.010176849365234375e+01 -1.038278007507324219e+01 1.198642611503601074e+00 1.272455883026123047e+01 4.176960468292236328e+00 -6.026297211647033691e-01
3.332000000000000000e+03 4.772388839721679688e+01 -1.004202365875244141e+00 4.168089479207992554e-02 1.065470695495605469e+01 3.208916425704956055e+00 -2.348064184188842773e+00
3.333000000000000000e+03 5.219596099853515625e+01 -5.110367298126220703e+00 4.793899059295654297e+00 1.058475303649902344e+01 4.613595485687255859e+00 9.613711237907409668e-01
3.334000000000000000e+03 4.525311279296875000e+01 -1.329567879438400269e-01 7.311645746231079102e-01 6.498960018157958984e+00 2.169037342071533203e+00 -3.190279483795166016e+00
3.335000000000000000e+03 4.681781005859375000e+01 -1.222036266326904297e+01 6.037776824086904526e-03 9.113729476928710938e+00 2.735930204391479492e+00 3.017644405364990234e+00
3.336000000000000000e+03 4.551609420776367188e+01 -1.393347167968750000e+01 1.475459784269332886e-01 6.787709236145019531e+00 2.080576419830322266e+00 2.887477874755859375e+00
3.337000000000000000e+03 4.696299362182617188e+01 -1.269999885559082031e+01 -9.696200489997863770e-02 9.019757270812988281e+00 2.676838636398315430e+00 2.778978586196899414e+00
3.338000000000000000e+03 5.011592864990234375e+01 -1.079220008850097656e+01 8.605495095252990723e-01 1.242460632324218750e+01 3.985546827316284180e+00 -3.697644770145416260e-01
3.339000000000000000e+03 4.549574661254882812e+01 2.261167287826538086e+00 1.876440495252609253e-01 6.578583240509033203e+00 2.029868125915527344e+00 -2.472213268280029297e+00
3.340000000000000000e+03 4.589243316650390625e+01 -1.523889636993408203e+01 -1.095109730958938599e-01 6.986074447631835938e+00 2.062968969345092773e+00 2.473837375640869141e+00
3.341000000000000000e+03 4.374315261840820312e+01 6.161978244781494141e+00 9.805932641029357910e-02 5.122915267944335938e+00 1.566292405128479004e+00 -1.775178432464599609e+00
3.342000000000000000e+03 4.445047378540039062e+01 -1.856798934936523438e+01 -7.309795171022415161e-02 5.527180194854736328e+00 1.636224627494812012e+00 1.948901534080505371e+00
3.343000000000000000e+03 4.514975357055664062e+01 -1.645426177978515625e+01 -4.891618341207504272e-02 6.139923095703125000e+00 1.827302098274230957e+00 2.292173385620117188e+00
3.344000000000000000e+03 4.054370498657226562e+01 6.922188758850097656e+00 3.772024214267730713e-01 3.509839534759521484e+00 1.166112661361694336e+00 -1.463578820228576660e+00
3.345000000000000000e+03 3.981020355224609375e+01 7.918148517608642578e+00 3.341301083564758301e-01 3.319265842437744141e+00 1.096018791198730469e+00 -1.309091329574584961e+00
3.346000000000000000e+03 6.124427032470703125e+01 -9.947070121765136719e+00 1.552469730377197266e+00 8.007293701171875000e+00 2.867929220199584961e+00 -6.111124157905578613e-01
3.347000000000000000e+03 4.255679321289062500e+01 8.336758613586425781e+00 6.735325604677200317e-02 4.562920570373535156e+00 1.389082193374633789e+00 -1.489499092102050781e+00
3.348000000000000000e+03 6.013891220092773438e+01 5.394488334655761719e+00 9.201829880475997925e-02 8.324148178100585938e+00 2.524849891662597656e+00 9.823159575462341309e-01
3.349000000000000000e+03 6.166742324829101562e+01 3.227542400360107422e+00 4.590845704078674316e-01 8.185804367065429688e+00 2.593466758728027344e+00 1.045120000839233398e+00
3.350000000000000000e+03 6.266394805908203125e+01 -4.720449924468994141e+00 1.519306302070617676e+00 7.775548934936523438e+00 2.788456439971923828e+00 3.098198473453521729e-01
3.351000000000000000e+03 3.344400787353515625e+01 9.475592613220214844e+00 2.752762734889984131e-01 1.587423443794250488e+00 5.588099360466003418e-01 -5.253237485885620117e-01
3.352000000000000000e+03 3.515871047973632812e+01 9.351161003112792969e+00 3.201663196086883545e-01 1.989780426025390625e+00 6.929840445518493652e-01 -7.136404514312744141e-01
3.353000000000000000e+03 6.060493087768554688e+01 -1.489974689483642578e+01 6.014801859855651855e-01 8.326749801635742188e+00 2.678468942642211914e+00 -9.848599433898925781e-01
3.354000000000000000e+03 5.984309768676757812e+01 -1.643776130676269531e+01 2.858474552631378174e-01 8.417393684387207031e+00 2.610972404479980469e+00 -9.488373994827270508e-01
3.355000000000000000e+03 4.401602554321289062e+01 5.209387779235839844e+00 1.520349830389022827e-01 5.292674541473388672e+00 1.633412837982177734e+00 -1.948529958724975586e+00
3.356000000000000000e+03 4.624174880981445312e+01 -1.640348434448242188e+01 -2.605713605880737305e-01 7.009757995605468750e+00 2.024755954742431641e+00 2.155860185623168945e+00
3.357000000000000000e+03 6.246267318725585938e+01 -1.576692819595336914e+00 1.231908321380615234e+00 7.915454864501953125e+00 2.744208812713623047e+00 7.757697701454162598e-01
3.358000000000000000e+03 6.200755691528320312e+01 -6.392737865447998047e+00 1.690267443656921387e+00 7.809608459472656250e+00 2.849962711334228516e+00 4.162044823169708252e-02
3.359000000000000000e+03 3.723231124877929688e+01 8.792191505432128906e+00 3.445481061935424805e-01 2.505642652511596680e+00 8.550572395324707031e-01 -9.625503420829772949e-01
3.360000000000000000e+03 3.622113418579101562e+01 9.441817283630371094e+00 3.068893551826477051e-01 2.267275571823120117e+00 7.722495198249816895e-01 -8.253580927848815918e-01
3.361000000000000000e+03 6.167263412475585938e+01 -9.086968898773193359e-01 1.190821647644042969e+00 8.047603607177734375e+00 2.771527528762817383e+00 8.785883188247680664e-01
3.362000000000000000e+03 6.023348617553710938e+01 -1.400595474243164062e+01 7.836777567863464355e-01 8.358895301818847656e+00 2.742771863937377930e+00 -9.810467362403869629e-01
3.363000000000000000e+03 5.976811981201171875e+01 -1.782900428771972656e+01 6.268779188394546509e-02 8.394749641418457031e+00 2.537231206893920898e+00 -8.919860720634460449e-01
3.364000000000000000e+03 4.443857955932617188e+01 4.104956150054931641e+00 1.995003670454025269e-01 5.596385955810546875e+00 1.738765954971313477e+00 -2.164647340774536133e+00
3.365000000000000000e+03 3.632378387451171875e+01 1.290590381622314453e+01 1.284503489732742310e-01 2.656564950942993164e+00 8.355045914649963379e-01 -8.171859383583068848e-01
3.366000000000000000e+03 5.984135055541992188e+01 -1.003546237945556641e+01 1.726491332054138184e+00 8.206962585449218750e+00 2.980036020278930664e+00 -7.093010544776916504e-01
3.367000000000000000e+03 6.028175735473632812e+01 -1.282748699188232422e+01 1.059191584587097168e+00 8.298717498779296875e+00 2.807372570037841797e+00 -9.417934417724609375e-01
3.368000000000000000e+03 4.442119979858398438e+01 -2.049774169921875000e+01 -1.688029468059539795e-01 5.447784900665283203e+00 1.583694577217102051e+00 1.666292428970336914e+00
3.369000000000000000e+03 6.144123840332031250e+01 6.042664051055908203e-01 9.245277643203735352e-01 8.146060943603515625e+00 2.721176624298095703e+00 9.925690293312072754e-01
3.370000000000000000e+03 6.176276779174804688e+01 6.122685909271240234e+00 5.696280300617218018e-02 8.182423591613769531e+00 2.471815824508666992e+00 9.930632114410400391e-01
3.371000000000000000e+03 5.874341964721679688e+01 1.201932144165039062e+01 -5.106154680252075195e-01 7.939509868621826172e+00 2.228668451309204102e+00 5.643259882926940918e-01
3.372000000000000000e+03 5.923917007446289062e+01 8.159684181213378906e+00 -2.719648480415344238e-01 8.253264427185058594e+00 2.394390106201171875e+00 7.926599383354187012e-01
3.373000000000000000e+03 5.946789169311523438e+01 -1.431921863555908203e+01 7.224978208541870117e-01 8.480805397033691406e+00 2.760991096496582031e+00 -1.005633950233459473e+00
3.374000000000000000e+03 5.854190063476562500e+01 -1.641724205017089844e+01 2.257779240608215332e-01 8.602939605712890625e+00 2.648615121841430664e+00 -9.164794683456420898e-01
3.375000000000000000e+03 3.561875915527343750e+01 1.538979148864746094e+01 3.787302970886230469e-02 2.631736040115356445e+00 8.008827567100524902e-01 -7.201059460639953613e-01
3.376000000000000000e+03 3.423075866699218750e+01 1.226272583007812500e+01 1.538941711187362671e-01 2.041524648666381836e+00 6.586256027221679688e-01 -6.349200606346130371e-01
3.377000000000000000e+03 4.293881225585937500e+01 -2.429378890991210938e+01 -1.174282282590866089e-01 4.728478908538818359e+00 1.383315205574035645e+00 1.231130003929138184e+00
3.378000000000000000e+03 5.236838150024414062e+01 -6.795897483825683594e+00 5.161916255950927734e+00 1.034924125671386719e+01 4.653347492218017578e+00 -2.936118543148040771e-01
3.379000000000000000e+03 4.708855819702148438e+01 -1.337712764739990234e+00 2.807844579219818115e-01 9.976841926574707031e+00 3.077287912368774414e+00 -2.963557958602905273e+00
3.380000000000000000e+03 5.239574432373046875e+01 -7.866940975189208984e+00 4.552595138549804688e+00 1.051274394989013672e+01 4.519601821899414062e+00 -9.917953014373779297e-01
3.381000000000000000e+03 5.006550216674804688e+01 -1.623078107833862305e+00 7.277044653892517090e-01 1.209425163269042969e+01 3.846586942672729492e+00 1.905996799468994141e-01
3.382000000000000000e+03 4.977800750732421875e+01 -1.196679306030273438e+01 7.886200398206710815e-02 1.160876369476318359e+01 3.506287813186645508e+00 3.783145248889923096e-01
3.383000000000000000e+03 4.851076889038085938e+01 -1.075789690017700195e+00 3.251397609710693359e-02 1.141282939910888672e+01 3.433603048324584961e+00 -1.473411560058593750e+00
3.384000000000000000e+03 5.069160079956054688e+01 -9.456179618835449219e+00 2.709681272506713867e+00 1.256977558135986328e+01 4.583837032318115234e+00 -1.452818632125854492e+00
3.385000000000000000e+03 5.175559234619140625e+01 -9.691405296325683594e+00 2.699496269226074219e+00 1.146839714050292969e+01 4.250368118286132812e+00 -1.456658124923706055e+00
3.386000000000000000e+03 4.616092300415039062e+01 -7.977583259344100952e-02 3.569412827491760254e-01 7.889343261718750000e+00 2.473885297775268555e+00 -3.025050163269042969e+00
3.387000000000000000e+03 5.035790634155273438e+01 -1.204310321807861328e+01 2.383264303207397461e-01 1.145629596710205078e+01 3.508386611938476562e+00 -7.995609194040298462e-03
3.388000000000000000e+03 5.004146957397460938e+01 -1.122529125213623047e+01 5.119902491569519043e-01 1.216454982757568359e+01 3.802962064743041992e+00 -1.084984168410301208e-01
3.389000000000000000e+03 4.804624557495117188e+01 -1.238838672637939453e+01 -3.001099824905395508e-01 1.054950809478759766e+01 3.074819326400756836e+00 2.029529809951782227e+00
3.390000000000000000e+03 4.933150100708007812e+01 -1.275379562377929688e+01 -2.521693110466003418e-01 1.095134067535400391e+01 3.209751367568969727e+00 9.400801658630371094e-01
3.391000000000000000e+03 4.543972015380859375e+01 3.803016543388366699e-01 5.302697420120239258e-01 6.706589698791503906e+00 2.171057701110839844e+00 -2.969550132751464844e+00
3.392000000000000000e+03 4.559483718872070312e+01 -2.352936118841171265e-01 6.366803646087646484e-01 6.982997894287109375e+00 2.285903453826904297e+00 -3.236290931701660156e+00
3.393000000000000000e+03 4.627986907958984375e+01 -1.347040939331054688e+01 -2.277284860610961914e-02 7.839768409729003906e+00 2.345098733901977539e+00 2.851845264434814453e+00
3.394000000000000000e+03 4.674961471557617188e+01 -1.336151981353759766e+01 -1.347209513187408447e-01 8.442208290100097656e+00 2.492246389389038086e+00 2.692640066146850586e+00
3.395000000000000000e+03 4.580605697631835938e+01 -1.359106445312500000e+01 1.129647940397262573e-01 7.174436569213867188e+00 2.186220407485961914e+00 2.924045801162719727e+00
3.396000000000000000e+03 5.189292144775390625e+01 -4.440153121948242188e+00 4.225712299346923828e+00 1.105066490173339844e+01 4.582912921905517578e+00 1.335780739784240723e+00
3.397000000000000000e+03 4.603678894042968750e+01 7.993957996368408203e-01 2.543414831161499023e-01 7.473875522613525391e+00 2.318464994430541992e+00 -2.759377956390380859e+00
3.398000000000000000e+03 4.570013809204101562e+01 1.497264504432678223e+00 2.616727054119110107e-01 6.917728424072265625e+00 2.153820276260375977e+00 -2.636525392532348633e+00
3.399000000000000000e+03 4.564402008056640625e+01 -1.588864612579345703e+01 -1.107624769210815430e-01 6.638942241668701172e+00 1.958454012870788574e+00 2.367289543151855469e+00
3.400000000000000000e+03 4.539760971069335938e+01 3.159031629562377930e+00 1.095806434750556946e-01 6.423413276672363281e+00 1.959898233413696289e+00 -2.277721643447875977e+00
3.401000000000000000e+03 4.530273437500000000e+01 -1.946747589111328125e+01 -2.513045966625213623e-01 5.980036258697509766e+00 1.718619465827941895e+00 1.753490090370178223e+00
3.402000000000000000e+03 4.484120559692382812e+01 3.409225702285766602e+00 1.969790011644363403e-01 5.961006164550781250e+00 1.847395539283752441e+00 -2.255805492401123047e+00
3.403000000000000000e+03 5.284265899658203125e+01 -8.844800949096679688e+00 3.517217874526977539e+00 1.041419696807861328e+01 4.179424285888671875e+00 -1.258457303047180176e+00
3.404000000000000000e+03 6.055545806884765625e+01 -1.068102073669433594e+01 1.510728597640991211e+00 8.141182899475097656e+00 2.895573616027832031e+00 -7.352682948112487793e-01
3.405000000000000000e+03 4.330108642578125000e+01 7.284296989440917969e+00 6.029597297310829163e-02 4.908465385437011719e+00 1.490628480911254883e+00 -1.618141174316406250e+00
3.406000000000000000e+03 6.173516464233398438e+01 -5.422053813934326172e+00 1.705467581748962402e+00 7.848307609558105469e+00 2.866132497787475586e+00 2.030218392610549927e-01
3.407000000000000000e+03 6.182685470581054688e+01 -3.842879533767700195e+00 1.590276956558227539e+00 7.895277023315429688e+00 2.845666170120239258e+00 4.985302984714508057e-01
3.408000000000000000e+03 6.100295257568359375e+01 -4.585599899291992188e+00 1.790759325027465820e+00 7.965735912322998047e+00 2.926948547363281250e+00 4.039368033409118652e-01
3.409000000000000000e+03 3.897293853759765625e+01 8.913348197937011719e+00 2.945131361484527588e-01 3.103512287139892578e+00 1.019407629966735840e+00 -1.171304583549499512e+00
3.410000000000000000e+03 5.958837890625000000e+01 -1.274209976196289062e+01 1.109224081039428711e+00 8.411594390869140625e+00 2.856245517730712891e+00 -9.631708264350891113e-01
3.411000000000000000e+03 3.799132919311523438e+01 9.843651771545410156e+00 2.636327445507049561e-01 2.867824792861938477e+00 9.394372105598449707e-01 -1.033912658691406250e+00
3.412000000000000000e+03 3.769455337524414062e+01 1.197051811218261719e+01 1.386487931013107300e-01 2.971969366073608398e+00 9.331854581832885742e-01 -9.370281100273132324e-01
3.413000000000000000e+03 4.630070114135742188e+01 -2.025654983520507812e+01 -4.126093685626983643e-01 6.422705173492431641e+00 1.803028702735900879e+00 1.541278600692749023e+00
3.414000000000000000e+03 5.867391586303710938e+01 -1.438252639770507812e+01 7.015341520309448242e-01 8.620463371276855469e+00 2.796599149703979492e+00 -1.015840768814086914e+00
3.415000000000000000e+03 5.964111328125000000e+01 -1.524954223632812500e+01 5.332568883895874023e-01 8.458381652832031250e+00 2.697491407394409180e+00 -9.890739321708679199e-01
3.416000000000000000e+03 3.892612838745117188e+01 1.097036647796630859e+01 1.526911556720733643e-01 3.264834165573120117e+00 1.025257587432861328e+00 -1.074340224266052246e+00
3.417000000000000000e+03 6.085375213623046875e+01 -2.804078459739685059e-01 1.130750894546508789e+00 8.187718391418457031e+00 2.795540809631347656e+00 9.679304957389831543e-01
3.418000000000000000e+03 6.116234207153320312e+01 5.016745567321777344e+00 1.661236137151718140e-01 8.245732307434082031e+00 2.523556709289550781e+00 1.013800501823425293e+00
3.419000000000000000e+03 6.120437240600585938e+01 -3.028655529022216797e+00 1.584057092666625977e+00 7.995481014251708984e+00 2.873861551284790039e+00 6.416789293289184570e-01
3.420000000000000000e+03 4.179126739501953125e+01 9.448196411132812500e+00 6.023993715643882751e-02 4.286338329315185547e+00 1.303973436355590820e+00 -1.370005249977111816e+00
3.421000000000000000e+03 5.989969635009765625e+01 6.743784427642822266e+00 -8.013974875211715698e-02 8.304950714111328125e+00 2.467443227767944336e+00 9.178335666656494141e-01
3.422000000000000000e+03 4.438110733032226562e+01 -2.288136672973632812e+01 -2.405936568975448608e-01 5.345527172088623047e+00 1.531480073928833008e+00 1.375138521194458008e+00
3.423000000000000000e+03 5.900161361694335938e+01 -2.052996635437011719e+01 -3.167991936206817627e-01 8.323133468627929688e+00 2.401900291442871094e+00 -7.045786976814270020e-01
3.424000000000000000e+03 6.004891586303710938e+01 -2.107328224182128906e+01 -3.076261579990386963e-01 8.232799530029296875e+00 2.377552032470703125e+00 -7.291469573974609375e-01
3.425000000000000000e+03 5.748168945312500000e+01 1.086985206604003906e+01 -5.288709998130798340e-01 8.014618873596191406e+00 2.245724201202392578e+00 4.899479448795318604e-01
3.426000000000000000e+03 6.082924270629882812e+01 1.601112365722656250e+01 -5.110623836517333984e-01 7.733305931091308594e+00 2.166672945022583008e+00 5.417101979255676270e-01
3.427000000000000000e+03 4.099034500122070312e+01 -2.566127395629882812e+01 3.386681154370307922e-02 3.997377872467041016e+00 1.209373354911804199e+00 1.106943964958190918e+00
3.428000000000000000e+03 3.088556098937988281e+01 -2.184766769409179688e+01 3.793276250362396240e-01 1.053238630294799805e+00 4.297698736190795898e-01 3.016077876091003418e-01
3.429000000000000000e+03 5.961131286621093750e+01 -2.264426994323730469e+01 -4.442844390869140625e-01 8.161533355712890625e+00 2.315174579620361328e+00 -6.231898069381713867e-01
3.430000000000000000e+03 5.834404754638671875e+01 -2.598490142822265625e+01 -6.444929838180541992e-01 7.876875877380371094e+00 2.169714927673339844e+00 -3.508557677268981934e-01
3.431000000000000000e+03 5.204040527343750000e+01 -8.193174362182617188e+00 4.412636280059814453e+00 1.089321899414062500e+01 4.591756343841552734e+00 -1.241989731788635254e+00
3.432000000000000000e+03 5.230602645874023438e+01 -6.343712806701660156e+00 5.238708972930908203e+00 1.035209751129150391e+01 4.677241802215576172e+00 4.565827921032905579e-02
3.433000000000000000e+03 6.005763626098632812e+01 -5.974412441253662109e+00 2.120586156845092773e+00 8.044387817382812500e+00 3.049492120742797852e+00 1.151293441653251648e-01
3.434000000000000000e+03 5.201091003417968750e+01 -7.600584506988525391e+00 4.979523658752441406e+00 1.075809955596923828e+01 4.721287250518798828e+00 -9.404940009117126465e-01
3.435000000000000000e+03 5.080191040039062500e+01 -1.022651767730712891e+01 1.771433711051940918e+00 1.223390674591064453e+01 4.201601982116699219e+00 -1.095243692398071289e+00
3.436000000000000000e+03 5.023297500610351562e+01 -2.051841259002685547e+00 1.112710714340209961e+00 1.230108737945556641e+01 4.024139404296875000e+00 5.352303385734558105e-01
3.437000000000000000e+03 4.655971908569335938e+01 -1.283343982696533203e+01 -5.957038141787052155e-03 8.450782775878906250e+00 2.533447742462158203e+00 2.946500062942504883e+00
3.438000000000000000e+03 4.678501129150390625e+01 4.565032005310058594e+00 -2.728596627712249756e-01 7.131038188934326172e+00 2.057453632354736328e+00 -1.763260960578918457e+00
3.439000000000000000e+03 5.142795562744140625e+01 -3.763188838958740234e+00 3.531408309936523438e+00 1.166740131378173828e+01 4.559642791748046875e+00 1.534586548805236816e+00
3.440000000000000000e+03 4.714879989624023438e+01 -9.323290586471557617e-01 1.792459785938262939e-01 9.819576263427734375e+00 2.999646663665771484e+00 -2.830173969268798828e+00
3.441000000000000000e+03 4.749148941040039062e+01 -6.905943155288696289e-01 4.548644274473190308e-02 1.008384037017822266e+01 3.038798093795776367e+00 -2.470584154129028320e+00
3.442000000000000000e+03 5.073606872558593750e+01 -2.812668800354003906e+00 2.105695962905883789e+00 1.224194145202636719e+01 4.304291248321533203e+00 1.156476855278015137e+00
3.443000000000000000e+03 5.107543182373046875e+01 -1.077553844451904297e+01 1.334691405296325684e+00 1.177639484405517578e+01 3.933326005935668945e+00 -9.111339449882507324e-01
3.444000000000000000e+03 4.980440139770507812e+01 -1.264163780212402344e+01 -1.335989236831665039e-01 1.108897590637207031e+01 3.286612987518310547e+00 5.632716417312622070e-01
3.445000000000000000e+03 4.906377792358398438e+01 -1.226120758056640625e+01 -1.966012418270111084e-01 1.126838588714599609e+01 3.321535348892211914e+00 1.052667379379272461e+00
3.446000000000000000e+03 4.692720031738281250e+01 -6.200110912322998047e-01 2.093755602836608887e-01 9.285353660583496094e+00 2.848418712615966797e+00 -2.850214242935180664e+00
3.447000000000000000e+03 5.211885833740234375e+01 -8.811833381652832031e+00 3.693919181823730469e+00 1.096378040313720703e+01 4.397309780120849609e+00 -1.400707125663757324e+00
3.448000000000000000e+03 5.120470046997070312e+01 -1.006980514526367188e+01 2.103498697280883789e+00 1.187910366058349609e+01 4.194780349731445312e+00 -1.228028655052185059e+00
3.449000000000000000e+03 4.642308044433593750e+01 -1.403476428985595703e+01 -1.225828230381011963e-01 7.805269718170166016e+00 2.304805994033813477e+00 2.640480756759643555e+00
3.450000000000000000e+03 4.556807327270507812e+01 9.317225217819213867e-01 3.855096399784088135e-01 6.851079940795898438e+00 2.170976877212524414e+00 -2.802843093872070312e+00
3.451000000000000000e+03 5.047074508666992188e+01 -2.357837677001953125e+00 1.453728795051574707e+00 1.234189510345458984e+01 4.138687133789062500e+00 8.026416301727294922e-01
3.452000000000000000e+03 4.576895141601562500e+01 -1.708316612243652344e+01 -2.163158953189849854e-01 6.531491279602050781e+00 1.894552588462829590e+00 2.109672307968139648e+00
3.453000000000000000e+03 4.721844482421875000e+01 -1.507807159423828125e+01 -3.605787754058837891e-01 8.228292465209960938e+00 2.360314130783081055e+00 2.105788230895996094e+00
3.454000000000000000e+03 6.006210708618164062e+01 -8.197685241699218750e+00 1.945476174354553223e+00 8.078199386596679688e+00 3.007102727890014648e+00 -3.449222445487976074e-01
3.455000000000000000e+03 5.864862442016601562e+01 -7.030026912689208984e+00 2.391241788864135742e+00 8.248561859130859375e+00 3.191941022872924805e+00 -1.297561973333358765e-01
3.456000000000000000e+03 4.543692779541015625e+01 5.078651428222656250e+00 -8.422419428825378418e-02 6.185539245605468750e+00 1.830394506454467773e+00 -1.877277612686157227e+00
3.457000000000000000e+03 4.504551315307617188e+01 4.064744949340820312e+00 9.304175525903701782e-02 6.026385307312011719e+00 1.835828185081481934e+00 -2.102322340011596680e+00
3.458000000000000000e+03 5.978041458129882812e+01 -7.597546100616455078e+00 2.058072805404663086e+00 8.093827247619628906e+00 3.045570135116577148e+00 -2.336574643850326538e-01
3.459000000000000000e+03 5.980492782592773438e+01 -1.140743160247802734e+01 1.419007182121276855e+00 8.311322212219238281e+00 2.919098615646362305e+00 -8.716098666191101074e-01
3.460000000000000000e+03 4.580181121826171875e+01 5.787933349609375000e+00 -2.064708322286605835e-01 6.423666477203369141e+00 1.865158796310424805e+00 -1.697149515151977539e+00
3.461000000000000000e+03 6.111986541748046875e+01 -6.624299526214599609e+00 1.875889897346496582e+00 7.923184394836425781e+00 2.939722299575805664e+00 7.337509305216372013e-05
3.462000000000000000e+03 6.110620498657226562e+01 -1.704096674919128418e+00 1.405379176139831543e+00 8.079858779907226562e+00 2.845571517944335938e+00 8.316895961761474609e-01
3.463000000000000000e+03 5.875108718872070312e+01 -1.365635681152343750e+01 8.816416859626770020e-01 8.610217094421386719e+00 2.847557544708251953e+00 -1.018190145492553711e+00
3.464000000000000000e+03 4.736852264404296875e+01 -1.813257598876953125e+01 -5.072397589683532715e-01 7.355937480926513672e+00 2.054609298706054688e+00 1.618141412734985352e+00
3.465000000000000000e+03 5.765299987792968750e+01 -1.512410545349121094e+01 4.666412174701690674e-01 8.790853500366210938e+00 2.777248382568359375e+00 -9.617197513580322266e-01
3.466000000000000000e+03 4.439622879028320312e+01 8.083763122558593750e+00 -1.214814856648445129e-01 5.420739173889160156e+00 1.589777350425720215e+00 -1.513757944107055664e+00
3.467000000000000000e+03 4.275802230834960938e+01 1.003190803527832031e+01 -5.821359157562255859e-02 4.629415512084960938e+00 1.371360540390014648e+00 -1.318449020385742188e+00
3.468000000000000000e+03 5.930633544921875000e+01 -1.362053108215332031e+01 8.848860859870910645e-01 8.487374305725097656e+00 2.811678171157836914e+00 -1.007770180702209473e+00
3.469000000000000000e+03 5.186466217041015625e+01 -1.170545196533203125e+01 9.628478884696960449e-01 1.100700950622558594e+01 3.590957164764404297e+00 -8.324074149131774902e-01
3.470000000000000000e+03 4.487698364257812500e+01 6.231425762176513672e+00 -7.107071578502655029e-02 5.755657672882080078e+00 1.705376148223876953e+00 -1.731309294700622559e+00
3.471000000000000000e+03 3.870581817626953125e+01 1.332461929321289062e+01 3.688674420118331909e-02 3.357302665710449219e+00 1.018256783485412598e+00 -9.456816315650939941e-01
3.472000000000000000e+03 4.547677230834960938e+01 -2.150998497009277344e+01 -3.337513208389282227e-01 5.893981933593750000e+00 1.668069243431091309e+00 1.468639016151428223e+00
3.473000000000000000e+03 5.811527633666992188e+01 -1.899835205078125000e+01 -2.006927728652954102e-01 8.492910385131835938e+00 2.487665414810180664e+00 -7.288863062858581543e-01
3.474000000000000000e+03 5.940385437011718750e+01 -1.923106575012207031e+01 -1.510148197412490845e-01 8.359966278076171875e+00 2.462685346603393555e+00 -7.955421209335327148e-01
3.475000000000000000e+03 4.078107070922851562e+01 8.722360610961914062e+00 1.956564188003540039e-01 3.819025039672851562e+00 1.204404473304748535e+00 -1.349687099456787109e+00
3.476000000000000000e+03 3.994021987915039062e+01 9.865423202514648438e+00 1.725656688213348389e-01 3.542292594909667969e+00 1.114457488059997559e+00 -1.198460817337036133e+00
3.477000000000000000e+03 5.819684219360351562e+01 -2.131922149658203125e+01 -4.390318393707275391e-01 8.285473823547363281e+00 2.353932619094848633e+00 -5.758947730064392090e-01
3.478000000000000000e+03 5.842881393432617188e+01 9.530709266662597656e+00 -4.180702269077301025e-01 8.156847000122070312e+00 2.321632862091064453e+00 6.545279026031494141e-01
3.479000000000000000e+03 6.002085494995117188e+01 3.179041445255279541e-01 1.048608899116516113e+00 8.331349372863769531e+00 2.813987493515014648e+00 1.034749746322631836e+00
3.480000000000000000e+03 6.056597518920898438e+01 1.226696729660034180e+00 8.306569457054138184e-01 8.285285949707031250e+00 2.734782934188842773e+00 1.047579526901245117e+00
3.481000000000000000e+03 5.518207168579101562e+01 1.810209846496582031e+01 -6.370155811309814453e-01 7.120702266693115234e+00 1.945106029510498047e+00 8.141442388296127319e-02
3.482000000000000000e+03 5.444636154174804688e+01 1.599664688110351562e+01 -6.650233864784240723e-01 7.224105834960937500e+00 1.967724680900573730e+00 3.407670930027961731e-02
3.483000000000000000e+03 5.267124557495117188e+01 -7.525283813476562500e+00 4.627792358398437500e+00 1.025062656402587891e+01 4.463525772094726562e+00 -7.603889107704162598e-01
3.484000000000000000e+03 5.207657241821289062e+01 -4.126934051513671875e+00 3.893336057662963867e+00 1.092509555816650391e+01 4.445529460906982422e+00 1.359841704368591309e+00
3.485000000000000000e+03 4.616203308105468750e+01 1.383119702339172363e+00 1.393582373857498169e-01 7.475738048553466797e+00 2.284528970718383789e+00 -2.529985427856445312e+00
3.486000000000000000e+03 4.655667114257812500e+01 2.110355347394943237e-01 1.787695139646530151e-01 8.301654815673828125e+00 2.544127225875854492e+00 -2.784484624862670898e+00
3.487000000000000000e+03 5.238732528686523438e+01 -5.755738258361816406e+00 5.049690723419189453e+00 1.032817649841308594e+01 4.613360404968261719e+00 5.046175122261047363e-01
3.488000000000000000e+03 5.949962234497070312e+01 -2.914148330688476562e+00 1.841039419174194336e+00 8.249647140502929688e+00 3.027205944061279297e+00 7.563766241073608398e-01
3.489000000000000000e+03 4.872122573852539062e+01 -1.271981811523437500e+01 -3.299522697925567627e-01 1.067362785339355469e+01 3.103102684020996094e+00 1.412787079811096191e+00
3.490000000000000000e+03 4.744443893432617188e+01 2.554318904876708984e+00 -2.702590525150299072e-01 8.215169906616210938e+00 2.383473157882690430e+00 -1.863319873809814453e+00
3.491000000000000000e+03 4.748641586303710938e+01 -1.354223442077636719e+01 -3.232919871807098389e-01 9.117937088012695312e+00 2.638393640518188477e+00 2.281620740890502930e+00
3.492000000000000000e+03 4.643369674682617188e+01 -1.530539798736572266e+01 -2.295097559690475464e-01 7.426702022552490234e+00 2.159157752990722656e+00 2.304205656051635742e+00
3.493000000000000000e+03 5.078681945800781250e+01 -2.446849584579467773e+00 1.736205935478210449e+00 1.207944583892822266e+01 4.144695281982421875e+00 1.027344226837158203e+00
3.494000000000000000e+03 5.062703704833984375e+01 -1.756852149963378906e+00 1.087259054183959961e+00 1.185645961761474609e+01 3.883115530014038086e+00 6.228811144828796387e-01
3.495000000000000000e+03 4.885254287719726562e+01 -9.670749306678771973e-01 5.090200528502464294e-02 1.152239990234375000e+01 3.471990585327148438e+00 -1.136295437812805176e+00
3.496000000000000000e+03 5.166646575927734375e+01 -3.282089710235595703e+00 2.910210609436035156e+00 1.143723106384277344e+01 4.304232597351074219e+00 1.445954322814941406e+00
3.497000000000000000e+03 5.115306854248046875e+01 -2.797164440155029297e+00 2.236183643341064453e+00 1.187697601318359375e+01 4.233947753906250000e+00 1.256819844245910645e+00
3.498000000000000000e+03 5.284132003784179688e+01 -7.193116664886474609e+00 4.683113574981689453e+00 1.007890033721923828e+01 4.428604125976562500e+00 -5.281119346618652344e-01
3.499000000000000000e+03 5.273206710815429688e+01 -6.581338882446289062e+00 4.912903785705566406e+00 1.007308292388916016e+01 4.495795726776123047e+00 -1.112513095140457153e-01
3.500000000000000000e+03 5.108689117431640625e+01 -1.169386577606201172e+01 7.120194435119628906e-01 1.139850997924804688e+01 3.633158683776855469e+00 -5.637148618698120117e-01
3.501000000000000000e+03 5.259392166137695312e+01 -6.257691383361816406e+00 5.023938179016113281e+00 1.016851043701171875e+01 4.557734489440917969e+00 1.275753378868103027e-01
3.502000000000000000e+03 5.821697616577148438e+01 -1.171357059478759766e+01 1.470197200775146484e+00 8.605630874633789062e+00 3.022748470306396484e+00 -9.770256280899047852e-01
3.503000000000000000e+03 5.152354431152343750e+01 -1.054082107543945312e+01 1.705411195755004883e+00 1.149968147277832031e+01 3.961527824401855469e+00 -1.129046082496643066e+00
3.504000000000000000e+03 5.285626983642578125e+01 -6.885342121124267578e+00 4.780960559844970703e+00 1.001488018035888672e+01 4.438752174377441406e+00 -3.013187944889068604e-01
3.505000000000000000e+03 4.769972610473632812e+01 -1.245844745635986328e+01 -2.534531354904174805e-01 1.013574409484863281e+01 2.964687347412109375e+00 2.321014881134033203e+00
3.506000000000000000e+03 5.051977920532226562e+01 -1.143938255310058594e+01 6.219384074211120605e-01 1.180572128295898438e+01 3.728297948837280273e+00 -3.622434437274932861e-01
3.507000000000000000e+03 4.588837432861328125e+01 2.010587453842163086e+00 1.360112875699996948e-01 6.956376552581787109e+00 2.127716302871704102e+00 -2.460282802581787109e+00
3.508000000000000000e+03 5.909286880493164062e+01 -1.209573459625244141e+01 1.320879459381103516e+00 8.464246749877929688e+00 2.935537815093994141e+00 -9.637599587440490723e-01
3.509000000000000000e+03 4.651569366455078125e+01 -1.765839195251464844e+01 -3.737172484397888184e-01 6.958479404449462891e+00 1.975428700447082520e+00 1.882027626037597656e+00
3.510000000000000000e+03 4.691518783569335938e+01 -1.689749336242675781e+01 -4.095401465892791748e-01 7.398790836334228516e+00 2.096775293350219727e+00 1.904779553413391113e+00
3.511000000000000000e+03 4.691425323486328125e+01 -1.913617324829101562e+01 -4.706693291664123535e-01 6.898691654205322266e+00 1.928406715393066406e+00 1.591901659965515137e+00
3.512000000000000000e+03 4.951967239379882812e+01 -1.394160652160644531e+01 -4.169945120811462402e-01 1.012072849273681641e+01 2.911120176315307617e+00 9.596204161643981934e-01
3.513000000000000000e+03 5.988305664062500000e+01 -8.852312088012695312e+00 1.915405988693237305e+00 8.134797096252441406e+00 3.015060901641845703e+00 -5.037690997123718262e-01
3.514000000000000000e+03 5.817811584472656250e+01 -1.095870685577392578e+01 1.690377712249755859e+00 8.579704284667968750e+00 3.081024646759033203e+00 -9.387431144714355469e-01
3.515000000000000000e+03 5.741641235351562500e+01 -1.162699317932128906e+01 1.587952971458435059e+00 8.786167144775390625e+00 3.112236022949218750e+00 -1.027070164680480957e+00
3.516000000000000000e+03 5.788295745849609375e+01 -1.421776580810546875e+01 7.127988934516906738e-01 8.766032218933105469e+00 2.843649387359619141e+00 -1.014257192611694336e+00
3.517000000000000000e+03 4.588608169555664062e+01 2.799648523330688477e+00 4.400802403688430786e-02 6.824757575988769531e+00 2.060629606246948242e+00 -2.278749704360961914e+00
3.518000000000000000e+03 5.948494720458984375e+01 -5.526563525199890137e-01 1.276928186416625977e+00 8.375885009765625000e+00 2.895843982696533203e+00 1.016326069831848145e+00
3.519000000000000000e+03 5.922249984741210938e+01 -9.435899734497070312e+00 1.923143148422241211e+00 8.276548385620117188e+00 3.059907436370849609e+00 -6.466419696807861328e-01
3.520000000000000000e+03 6.041854095458984375e+01 -3.175648212432861328e+00 1.709225177764892578e+00 8.084723472595214844e+00 2.938184738159179688e+00 6.534494161605834961e-01
3.521000000000000000e+03 6.083230590820312500e+01 -5.886116981506347656e+00 1.949642658233642578e+00 7.945223808288574219e+00 2.968459844589233398e+00 1.202034726738929749e-01
3.522000000000000000e+03 5.905801773071289062e+01 -1.062667465209960938e+01 1.696257591247558594e+00 8.383137702941894531e+00 3.023818731307983398e+00 -8.332415819168090820e-01
3.523000000000000000e+03 4.577050399780273438e+01 3.848878622055053711e+00 -3.867636620998382568e-02 6.580283641815185547e+00 1.962482213973999023e+00 -2.045327186584472656e+00
3.524000000000000000e+03 4.538332748413085938e+01 7.246387004852294922e+00 -2.042796015739440918e-01 5.958822250366210938e+00 1.726362705230712891e+00 -1.557856440544128418e+00
3.525000000000000000e+03 6.061140060424804688e+01 -2.419261932373046875e+00 1.570528745651245117e+00 8.101311683654785156e+00 2.901552200317382812e+00 7.674293518066406250e-01
3.526000000000000000e+03 4.354214477539062500e+01 9.067935943603515625e+00 -7.961881905794143677e-02 4.980827808380126953e+00 1.470362663269042969e+00 -1.405297279357910156e+00
3.527000000000000000e+03 5.737678527832031250e+01 -1.620039558410644531e+01 2.080705761909484863e-01 8.797486305236816406e+00 2.701667070388793945e+00 -8.834010362625122070e-01
3.528000000000000000e+03 5.862739181518554688e+01 -1.530649089813232422e+01 4.765752851963043213e-01 8.616327285766601562e+00 2.727870702743530273e+00 -9.751756191253662109e-01
3.529000000000000000e+03 5.834502410888671875e+01 -1.767592048645019531e+01 1.262168050743639469e-03 8.558207511901855469e+00 2.567840814590454102e+00 -8.296642899513244629e-01
3.530000000000000000e+03 5.847518920898437500e+01 -2.249882507324218750e+01 -4.962707459926605225e-01 8.178923606872558594e+00 2.304795742034912109e+00 -5.388010740280151367e-01
3.531000000000000000e+03 5.741442489624023438e+01 -2.289768409729003906e+01 -5.912318229675292969e-01 8.157601356506347656e+00 2.269910812377929688e+00 -4.057665765285491943e-01
3.532000000000000000e+03 4.903100967407226562e+01 -1.998637008666992188e+01 -6.739999651908874512e-01 7.614350318908691406e+00 2.082105159759521484e+00 1.068516731262207031e+00
3.533000000000000000e+03 4.649061965942382812e+01 -2.709218978881835938e+01 -4.803830683231353760e-01 5.799706459045410156e+00 1.595797061920166016e+00 8.604895472526550293e-01
3.534000000000000000e+03 5.694049453735351562e+01 3.282435178756713867e+00 2.677221298217773438e-01 8.818248748779296875e+00 2.725791454315185547e+00 9.432646036148071289e-01
3.535000000000000000e+03 4.535750961303710938e+01 9.058193206787109375e+00 -2.917518913745880127e-01 5.845280647277832031e+00 1.666058659553527832e+00 -1.325725793838500977e+00
3.536000000000000000e+03 4.441564178466796875e+01 9.942970275878906250e+00 -2.285839766263961792e-01 5.363876819610595703e+00 1.540587782859802246e+00 -1.302986621856689453e+00
3.537000000000000000e+03 3.722792434692382812e+01 1.440211391448974609e+01 3.812541812658309937e-02 2.988679885864257812e+00 9.080415964126586914e-01 -8.359944224357604980e-01
3.538000000000000000e+03 6.174392318725585938e+01 -2.326362419128417969e+01 -3.862939476966857910e-01 8.037940979003906250e+00 2.295494079589843750e+00 -7.037093043327331543e-01
3.539000000000000000e+03 5.672555541992187500e+01 -1.893509101867675781e+01 -3.011854290962219238e-01 8.614712715148925781e+00 2.494058370590209961e+00 -5.906965732574462891e-01
3.540000000000000000e+03 5.967511367797851562e+01 1.824461579322814941e+00 7.114078998565673828e-01 8.429013252258300781e+00 2.742126226425170898e+00 1.075195312500000000e+00
3.541000000000000000e+03 6.017860794067382812e+01 2.792253732681274414e+00 5.237354040145874023e-01 8.366288185119628906e+00 2.667007207870483398e+00 1.063370585441589355e+00
3.542000000000000000e+03 5.868191146850585938e+01 3.566859662532806396e-02 1.171792387962341309e+00 8.553438186645507812e+00 2.917569160461425781e+00 1.079217553138732910e+00
3.543000000000000000e+03 5.759903335571289062e+01 1.361139678955078125e+01 -6.001070141792297363e-01 7.751255989074707031e+00 2.145344734191894531e+00 3.926463425159454346e-01
3.544000000000000000e+03 5.639605712890625000e+01 1.215315437316894531e+01 -6.123954057693481445e-01 7.834706306457519531e+00 2.166693210601806641e+00 3.224199116230010986e-01
3.545000000000000000e+03 6.257719039916992188e+01 1.853346824645996094e+01 -4.547880887985229492e-01 7.715659141540527344e+00 2.178261280059814453e+00 5.403650403022766113e-01
3.546000000000000000e+03 4.445461654663085938e+01 -2.585591125488281250e+01 -2.933774292469024658e-01 5.249783992767333984e+00 1.486922025680541992e+00 1.073934793472290039e+00
3.547000000000000000e+03 5.117046737670898438e+01 -1.996944665908813477e+00 1.463787317276000977e+00 1.164895343780517578e+01 3.933822154998779297e+00 9.584304690361022949e-01
3.548000000000000000e+03 6.021618652343750000e+01 -3.978845357894897461e+00 1.888465642929077148e+00 8.071292877197265625e+00 2.987927436828613281e+00 5.372232198715209961e-01
3.549000000000000000e+03 4.690898513793945312e+01 -1.393814086914062500e+01 -2.386212050914764404e-01 8.381455421447753906e+00 2.442850351333618164e+00 2.477489948272705078e+00
3.550000000000000000e+03 4.803253173828125000e+01 -7.921264171600341797e-01 -2.756932191550731659e-02 1.074477767944335938e+01 3.215162515640258789e+00 -1.980490088462829590e+00
3.551000000000000000e+03 4.650301361083984375e+01 7.548101544380187988e-01 1.199323385953903198e-01 8.048130035400390625e+00 2.450418710708618164e+00 -2.643305063247680664e+00
3.552000000000000000e+03 4.727884292602539062e+01 -3.663224577903747559e-01 4.866524785757064819e-02 9.590411186218261719e+00 2.891722917556762695e+00 -2.548233747482299805e+00
3.553000000000000000e+03 4.944357681274414062e+01 -5.216029882431030273e-01 5.611137673258781433e-02 1.119826221466064453e+01 3.376312017440795898e+00 -6.814855337142944336e-01
3.554000000000000000e+03 5.232975387573242188e+01 -3.891401767730712891e+00 3.564027547836303711e+00 1.073892593383789062e+01 4.290885925292968750e+00 1.357795238494873047e+00
3.555000000000000000e+03 4.727626419067382812e+01 1.772735595703125000e+00 -1.796298772096633911e-01 8.400714874267578125e+00 2.466325521469116211e+00 -2.102912664413452148e+00
3.556000000000000000e+03 4.838880157470703125e+01 -1.236116886138916016e+01 -2.983303368091583252e-01 1.081701374053955078e+01 3.155605077743530273e+00 1.728113889694213867e+00
3.557000000000000000e+03 4.666451644897460938e+01 -1.591701698303222656e+01 -3.115789890289306641e-01 7.416285991668701172e+00 2.131412029266357422e+00 2.162570953369140625e+00
3.558000000000000000e+03 5.235417938232421875e+01 -6.076301574707031250e+00 5.138460636138916016e+00 1.030534267425537109e+01 4.633141040802001953e+00 2.845540344715118408e-01
3.559000000000000000e+03 5.245991134643554688e+01 -8.503022193908691406e+00 3.918810129165649414e+00 1.062548065185546875e+01 4.363287448883056641e+00 -1.261243581771850586e+00
3.560000000000000000e+03 4.969196319580078125e+01 -8.402022719383239746e-01 1.795530915260314941e-01 1.147694969177246094e+01 3.496950864791870117e+00 -4.320790171623229980e-01
3.561000000000000000e+03 4.837025833129882812e+01 -5.946378707885742188e-01 -7.021523267030715942e-02 1.082989215850830078e+01 3.227903127670288086e+00 -1.648958683013916016e+00
3.562000000000000000e+03 5.113361358642578125e+01 -2.433449029922485352e+00 1.864137291908264160e+00 1.179368400573730469e+01 4.097346305847167969e+00 1.121907949447631836e+00
3.563000000000000000e+03 4.716352462768554688e+01 -1.317517852783203125e+01 -2.212742716073989868e-01 8.998546600341796875e+00 2.633181571960449219e+00 2.528261899948120117e+00
3.564000000000000000e+03 5.142875289916992188e+01 -1.128575992584228516e+01 1.087265849113464355e+00 1.139432430267333984e+01 3.744477033615112305e+00 -8.483922481536865234e-01
3.565000000000000000e+03 4.989908981323242188e+01 -1.207775592803955078e+00 4.275039732456207275e-01 1.180255126953125000e+01 3.669016599655151367e+00 -1.237973049283027649e-01
3.566000000000000000e+03 5.045382308959960938e+01 -1.344779968261718750e+00 7.381280660629272461e-01 1.171879673004150391e+01 3.737077474594116211e+00 3.628325760364532471e-01
3.567000000000000000e+03 5.314996719360351562e+01 -7.707428932189941406e+00 4.244589805603027344e+00 9.977297782897949219e+00 4.266566276550292969e+00 -7.773693799972534180e-01
3.568000000000000000e+03 5.089138031005859375e+01 -1.221476745605468750e+01 3.470380902290344238e-01 1.123519229888916016e+01 3.474668979644775391e+00 -2.695372104644775391e-01
3.569000000000000000e+03 4.745442199707031250e+01 -1.426938438415527344e+01 -3.817067444324493408e-01 8.697846412658691406e+00 2.494841814041137695e+00 2.173636674880981445e+00
3.570000000000000000e+03 5.219543457031250000e+01 -9.870445251464843750e+00 2.589557409286499023e+00 1.102117824554443359e+01 4.083220481872558594e+00 -1.388915777206420898e+00
3.571000000000000000e+03 4.689231109619140625e+01 -1.477011489868164062e+01 -2.832345962524414062e-01 8.015707969665527344e+00 2.319741964340209961e+00 2.274483919143676758e+00
3.572000000000000000e+03 5.748159408569335938e+01 -1.312670135498046875e+01 1.022680521011352539e+00 8.843666076660156250e+00 2.959903955459594727e+00 -1.056872844696044922e+00
3.573000000000000000e+03 4.816511917114257812e+01 -1.579779386520385742e-01 -1.242258325219154358e-01 1.028903198242187500e+01 3.049442052841186523e+00 -1.806306123733520508e+00
3.574000000000000000e+03 4.661506271362304688e+01 1.320232152938842773e+00 1.662412658333778381e-02 7.951370716094970703e+00 2.390398502349853516e+00 -2.424444913864135742e+00
3.575000000000000000e+03 5.002042007446289062e+01 -1.447842216491699219e+01 -4.346719086170196533e-01 9.974934577941894531e+00 2.862078666687011719e+00 7.158357501029968262e-01
3.576000000000000000e+03 6.038927459716796875e+01 -7.136141777038574219e+00 1.997597813606262207e+00 8.007587432861328125e+00 3.001555442810058594e+00 -1.140699163079261780e-01
3.577000000000000000e+03 5.976716995239257812e+01 -1.993334174156188965e+00 1.596643805503845215e+00 8.256575584411621094e+00 2.955965757369995117e+00 8.706665635108947754e-01
3.578000000000000000e+03 5.853604888916015625e+01 -1.275172996520996094e+01 1.149965524673461914e+00 8.611817359924316406e+00 2.928534746170043945e+00 -1.023953437805175781e+00
3.579000000000000000e+03 5.932973480224609375e+01 -8.407084465026855469e+00 2.137314796447753906e+00 8.209073066711425781e+00 3.103916168212890625e+00 -4.391930997371673584e-01
3.580000000000000000e+03 4.711479568481445312e+01 5.766282558441162109e+00 -3.739790320396423340e-01 7.099837303161621094e+00 2.017757415771484375e+00 -1.496787548065185547e+00
3.581000000000000000e+03 4.635447311401367188e+01 6.546288013458251953e+00 -3.013599216938018799e-01 6.575137615203857422e+00 1.882133245468139648e+00 -1.523492455482482910e+00
3.582000000000000000e+03 4.853366470336914062e+01 1.350166648626327515e-01 -1.732735037803649902e-01 1.035888957977294922e+01 3.055684804916381836e+00 -1.487428069114685059e+00
3.583000000000000000e+03 4.742827224731445312e+01 -2.091154098510742188e+01 -5.481733679771423340e-01 6.823465824127197266e+00 1.882587790489196777e+00 1.305053591728210449e+00
3.584000000000000000e+03 4.748090744018554688e+01 -1.483800315856933594e+01 -3.960828781127929688e-01 8.487854957580566406e+00 2.427531719207763672e+00 2.028636455535888672e+00
3.585000000000000000e+03 5.788048553466796875e+01 -1.242636680603027344e+01 1.251125335693359375e+00 8.719451904296875000e+00 2.991173267364501953e+00 -1.042326092720031738e+00
3.586000000000000000e+03 5.736685562133789062e+01 -1.107903385162353516e+01 1.687832951545715332e+00 8.764556884765625000e+00 3.135716915130615234e+00 -9.901645183563232422e-01
3.587000000000000000e+03 5.917748641967773438e+01 9.024349451065063477e-01 9.316601753234863281e-01 8.488716125488281250e+00 2.826112747192382812e+00 1.083117961883544922e+00
3.588000000000000000e+03 4.007794570922851562e+01 1.215228843688964844e+01 1.687004603445529938e-02 3.751623868942260742e+00 1.130548238754272461e+00 -1.078706860542297363e+00
3.589000000000000000e+03 5.293850708007812500e+01 -4.663847446441650391e+00 4.103096485137939453e+00 1.018936634063720703e+01 4.287738800048828125e+00 1.039627790451049805e+00
3.590000000000000000e+03 5.884530639648437500e+01 6.294969558715820312e+00 -9.544670581817626953e-02 8.415583610534667969e+00 2.496041059494018555e+00 8.761724829673767090e-01
3.591000000000000000e+03 5.921641921997070312e+01 5.156620979309082031e+00 8.496412634849548340e-02 8.444359779357910156e+00 2.558797121047973633e+00 9.621245265007019043e-01
3.592000000000000000e+03 5.679167175292968750e+01 -2.038548088073730469e+01 -4.506483972072601318e-01 8.416737556457519531e+00 2.389826774597167969e+00 -4.878409504890441895e-01
3.593000000000000000e+03 5.815045166015625000e+01 -1.344071960449218750e+01 9.413900375366210938e-01 8.704505920410156250e+00 2.893769025802612305e+00 -1.035817980766296387e+00
3.594000000000000000e+03 5.702413177490234375e+01 -2.170674514770507812e+01 -5.435665845870971680e-01 8.252531051635742188e+00 2.312689304351806641e+00 -4.262116551399230957e-01
3.595000000000000000e+03 3.978294372558593750e+01 1.476567935943603516e+01 -7.165568321943283081e-02 3.726208925247192383e+00 1.096366047859191895e+00 -9.240899682044982910e-01
3.596000000000000000e+03 4.743999481201171875e+01 -2.495110702514648438e+01 -5.460520386695861816e-01 6.295853137969970703e+00 1.724940299987792969e+00 9.484716653823852539e-01
3.597000000000000000e+03 4.815251922607421875e+01 -2.304884338378906250e+01 -6.108734011650085449e-01 6.754200458526611328e+00 1.842998147010803223e+00 1.013325572013854980e+00
3.598000000000000000e+03 4.866890716552734375e+01 -2.140261840820312500e+01 -6.494832634925842285e-01 7.201907634735107422e+00 1.965727329254150391e+00 1.046478271484375000e+00
3.599000000000000000e+03 5.730055236816406250e+01 6.600676059722900391e+00 -2.276334166526794434e-01 8.483610153198242188e+00 2.476792812347412109e+00 7.263092398643493652e-01
3.600000000000000000e+03 5.818618392944335938e+01 7.434612751007080078e+00 -2.545615136623382568e-01 8.355950355529785156e+00 2.430416584014892578e+00 7.547326683998107910e-01
3.601000000000000000e+03 3.654085922241210938e+01 1.712701988220214844e+01 -2.025385759770870209e-02 2.937293767929077148e+00 8.751119375228881836e-01 -7.366464138031005859e-01
3.602000000000000000e+03 5.424097061157226562e+01 1.176115608215332031e+01 -6.720547676086425781e-01 7.729382514953613281e+00 2.117198228836059570e+00 5.665284395217895508e-02
3.603000000000000000e+03 5.731404495239257812e+01 8.539564132690429688e+00 -4.141628444194793701e-01 8.273699760437011719e+00 2.357861042022705078e+00 5.950509309768676758e-01
3.604000000000000000e+03 4.107595062255859375e+01 1.078496742248535156e+01 2.961649559438228607e-02 4.045205116271972656e+00 1.222446441650390625e+00 -1.204986333847045898e+00
3.605000000000000000e+03 5.325263977050781250e+01 -7.238944530487060547e+00 4.421183586120605469e+00 9.842366218566894531e+00 4.279064655303955078e+00 -4.939645826816558838e-01
3.606000000000000000e+03 5.208266067504882812e+01 -3.542977333068847656e+00 3.215789318084716797e+00 1.101870441436767578e+01 4.270348072052001953e+00 1.419975757598876953e+00
3.607000000000000000e+03 4.789267730712890625e+01 -1.379159927368164062e+01 -3.966358304023742676e-01 9.356111526489257812e+00 2.687842845916748047e+00 1.953694581985473633e+00
3.608000000000000000e+03 5.231177520751953125e+01 -5.409557819366455078e+00 4.907751560211181641e+00 1.044168567657470703e+01 4.604831218719482422e+00 7.743140459060668945e-01
3.609000000000000000e+03 4.750645446777343750e+01 -1.296503257751464844e+01 -2.650984525680541992e-01 9.536727905273437500e+00 2.781488895416259766e+00 2.362446069717407227e+00
3.610000000000000000e+03 5.249619674682617188e+01 -9.188332557678222656e+00 3.260355710983276367e+00 1.072486209869384766e+01 4.195565223693847656e+00 -1.369541049003601074e+00
3.611000000000000000e+03 4.891849899291992188e+01 5.369120836257934570e-01 -2.151222079992294312e-01 1.025982952117919922e+01 3.013412237167358398e+00 -1.235609769821166992e+00
3.612000000000000000e+03 4.713966751098632812e+01 -1.444504165649414062e+01 -3.229697346687316895e-01 8.316020011901855469e+00 2.397915124893188477e+00 2.265106678009033203e+00
3.613000000000000000e+03 4.689364242553710938e+01 -1.523024940490722656e+01 -3.195390999317169189e-01 7.869570732116699219e+00 2.265009403228759766e+00 2.210512876510620117e+00
3.614000000000000000e+03 4.874019241333007812e+01 -3.997063040733337402e-01 -9.384652972221374512e-02 1.085636138916015625e+01 3.228754520416259766e+00 -1.315507292747497559e+00
3.615000000000000000e+03 5.146703338623046875e+01 -2.535386323928833008e+00 2.100882291793823242e+00 1.161545467376708984e+01 4.114901065826416016e+00 1.276624917984008789e+00
3.616000000000000000e+03 5.269437789916992188e+01 -5.256353855133056641e+00 4.592101573944091797e+00 1.020626926422119141e+01 4.439511299133300781e+00 7.803651690483093262e-01
3.617000000000000000e+03 4.946382904052734375e+01 -1.335424518585205078e+01 -3.446857631206512451e-01 1.048594284057617188e+01 3.042377233505249023e+00 9.123941063880920410e-01
3.618000000000000000e+03 5.031841278076171875e+01 -1.267882156372070312e+01 -1.337374188005924225e-02 1.106247234344482422e+01 3.314729452133178711e+00 2.161671668291091919e-01
3.619000000000000000e+03 4.760477447509765625e+01 -1.067743450403213501e-01 -6.798446923494338989e-02 9.778948783874511719e+00 2.913289308547973633e+00 -2.252542495727539062e+00
3.620000000000000000e+03 5.187099838256835938e+01 -1.099783134460449219e+01 1.462884426116943359e+00 1.120738601684570312e+01 3.801081180572509766e+00 -1.076021075248718262e+00
3.621000000000000000e+03 5.374545669555664062e+01 -7.747135639190673828e+00 3.963088989257812500e+00 9.681303977966308594e+00 4.093317985534667969e+00 -7.067005038261413574e-01
3.622000000000000000e+03 4.787574005126953125e+01 -1.641972351074218750e+01 -5.269723534584045410e-01 8.128896713256835938e+00 2.280577421188354492e+00 1.692284226417541504e+00
3.623000000000000000e+03 4.989567565917968750e+01 -1.330013561248779297e+01 -2.736461758613586426e-01 1.059140491485595703e+01 3.095327854156494141e+00 6.441412568092346191e-01
3.624000000000000000e+03 4.773149108886718750e+01 9.104534983634948730e-01 -1.764478683471679688e-01 9.220611572265625000e+00 2.713249206542968750e+00 -1.989593029022216797e+00
3.625000000000000000e+03 5.850913619995117188e+01 -9.917328834533691406e+00 1.965429663658142090e+00 8.438848495483398438e+00 3.121283531188964844e+00 -7.799929380416870117e-01
3.626000000000000000e+03 4.767992782592773438e+01 -1.406279468536376953e+01 -4.018853008747100830e-01 9.060560226440429688e+00 2.597602605819702148e+00 2.071604967117309570e+00
3.627000000000000000e+03 4.793437194824218750e+01 -1.962975883483886719e+01 -5.866495966911315918e-01 7.282506465911865234e+00 2.008757114410400391e+00 1.331193685531616211e+00
3.628000000000000000e+03 5.931985473632812500e+01 -5.702582836151123047e+00 2.255763769149780273e+00 8.144572257995605469e+00 3.120100975036621094e+00 1.775265336036682129e-01
3.629000000000000000e+03 5.865895843505859375e+01 -8.847236633300781250e+00 2.175320863723754883e+00 8.331391334533691406e+00 3.152013540267944336e+00 -5.562562346458435059e-01
3.630000000000000000e+03 5.743238449096679688e+01 -1.854003965854644775e-01 1.257390379905700684e+00 8.801838874816894531e+00 3.017768621444702148e+00 1.119024157524108887e+00
3.631000000000000000e+03 4.852244949340820312e+01 2.041795492172241211e+00 -3.657976686954498291e-01 9.157758712768554688e+00 2.637588262557983398e+00 -1.464898228645324707e+00
3.632000000000000000e+03 4.621296310424804688e+01 2.371380329132080078e+00 1.051016524434089661e-02 7.176234722137451172e+00 2.156023502349853516e+00 -2.271040201187133789e+00
3.633000000000000000e+03 5.777226257324218750e+01 -1.027766418457031250e+01 1.974170684814453125e+00 8.603161811828613281e+00 3.173199892044067383e+00 -8.813182711601257324e-01
3.634000000000000000e+03 5.722219085693359375e+01 -1.214668560028076172e+01 1.356820821762084961e+00 8.883575439453125000e+00 3.072118759155273438e+00 -1.063981533050537109e+00
3.635000000000000000e+03 5.679251861572265625e+01 -1.271002101898193359e+01 1.156162500381469727e+00 8.996261596679687500e+00 3.045727252960205078e+00 -1.070530533790588379e+00
3.636000000000000000e+03 5.709690475463867188e+01 -1.388405799865722656e+01 7.672517895698547363e-01 8.920351982116699219e+00 2.906280994415283203e+00 -1.020135879516601562e+00
3.637000000000000000e+03 5.696768188476562500e+01 -1.747941589355468750e+01 -8.368264138698577881e-02 8.740468978881835938e+00 2.597035884857177734e+00 -7.319443821907043457e-01
3.638000000000000000e+03 4.718488693237304688e+01 -1.626005935668945312e+01 -4.338213205337524414e-01 7.736494064331054688e+00 2.190801858901977539e+00 1.940624117851257324e+00
3.639000000000000000e+03 4.769146728515625000e+01 -1.723680686950683594e+01 -5.256716609001159668e-01 7.759100437164306641e+00 2.170028686523437500e+00 1.648414731025695801e+00
3.640000000000000000e+03 4.771436691284179688e+01 4.069392681121826172e+00 -3.791287839412689209e-01 7.866868972778320312e+00 2.246322154998779297e+00 -1.513312220573425293e+00
3.641000000000000000e+03 4.645947647094726562e+01 5.237090110778808594e+00 -2.666424214839935303e-01 6.826879024505615234e+00 1.968070864677429199e+00 -1.679601669311523438e+00
3.642000000000000000e+03 5.636939239501953125e+01 -1.578988552093505859e+01 2.141235917806625366e-01 8.978694915771484375e+00 2.757845640182495117e+00 -8.482050299644470215e-01
3.643000000000000000e+03 5.746669006347656250e+01 1.949369072914123535e+00 6.250049471855163574e-01 8.792937278747558594e+00 2.825382709503173828e+00 1.057487249374389648e+00
3.644000000000000000e+03 4.234352493286132812e+01 1.118759059906005859e+01 -8.740765601396560669e-02 4.490950107574462891e+00 1.321062803268432617e+00 -1.206548929214477539e+00
3.645000000000000000e+03 5.306945037841796875e+01 -2.664172172546386719e+00 2.479456424713134766e+00 1.036673736572265625e+01 3.853857994079589844e+00 1.325039029121398926e+00
3.646000000000000000e+03 5.628502273559570312e+01 -1.339736175537109375e+01 8.846821784973144531e-01 9.134718894958496094e+00 3.005820512771606445e+00 -1.043198347091674805e+00
3.647000000000000000e+03 5.036359405517578125e+01 -1.775019454956054688e+01 -6.706456542015075684e-01 8.647115707397460938e+00 2.392940998077392578e+00 7.630303502082824707e-01
3.648000000000000000e+03 5.922247695922851562e+01 3.397885084152221680e+00 3.785988092422485352e-01 8.488347053527832031e+00 2.660083770751953125e+00 1.038567066192626953e+00
3.649000000000000000e+03 5.832162857055664062e+01 1.452077269554138184e+00 7.847616672515869141e-01 8.654854774475097656e+00 2.831884860992431641e+00 1.092473030090332031e+00
3.650000000000000000e+03 5.893369674682617188e+01 -6.340206146240234375e+00 2.367600679397583008e+00 8.194006919860839844e+00 3.168482303619384766e+00 5.205329880118370056e-02
3.651000000000000000e+03 5.889546203613281250e+01 -5.235482692718505859e+00 2.321166753768920898e+00 8.226497650146484375e+00 3.164299488067626953e+00 3.128371834754943848e-01
3.652000000000000000e+03 5.835234451293945312e+01 4.880449295043945312e+00 7.940626889467239380e-02 8.533639907836914062e+00 2.583914041519165039e+00 9.330956339836120605e-01
3.653000000000000000e+03 5.135144805908203125e+01 -2.352544975280761719e+01 -7.513487339019775391e-01 7.501567363739013672e+00 2.025065660476684570e+00 4.921267628669738770e-01
3.654000000000000000e+03 5.715893554687500000e+01 -2.500228881835937500e+01 -6.656492352485656738e-01 7.945945739746093750e+00 2.184088945388793945e+00 -2.979407310485839844e-01
3.655000000000000000e+03 5.632502746582031250e+01 9.625391960144042969e+00 -5.361416339874267578e-01 8.123667716979980469e+00 2.276257753372192383e+00 4.145122170448303223e-01
3.656000000000000000e+03 4.972417068481445312e+01 -2.344935226440429688e+01 -7.004411220550537109e-01 7.152473926544189453e+00 1.935609817504882812e+00 7.527925372123718262e-01
3.657000000000000000e+03 4.999813461303710938e+01 -2.168568992614746094e+01 -7.208635210990905762e-01 7.534965038299560547e+00 2.044230461120605469e+00 7.843574881553649902e-01
3.658000000000000000e+03 4.936068344116210938e+01 -2.551969337463378906e+01 -6.684325337409973145e-01 6.758531570434570312e+00 1.827029705047607422e+00 6.992934942245483398e-01
3.659000000000000000e+03 5.515981674194335938e+01 1.328162479400634766e+01 -6.663591861724853516e-01 7.609803676605224609e+00 2.083033323287963867e+00 1.497524678707122803e-01
3.660000000000000000e+03 5.529524230957031250e+01 1.072296905517578125e+01 -6.145043373107910156e-01 7.943524837493896484e+00 2.198706150054931641e+00 2.421102523803710938e-01
3.661000000000000000e+03 5.636358642578125000e+01 7.434274196624755859e+00 -3.762666583061218262e-01 8.435478210449218750e+00 2.417763471603393555e+00 5.570190548896789551e-01
3.662000000000000000e+03 5.160884475708007812e+01 -2.027626276016235352e+00 1.667406082153320312e+00 1.133998012542724609e+01 3.902215957641601562e+00 1.115772604942321777e+00
3.663000000000000000e+03 5.179184341430664062e+01 -1.509258270263671875e+00 1.320593833923339844e+00 1.109400749206542969e+01 3.724380493164062500e+00 9.974024891853332520e-01
3.664000000000000000e+03 4.905834960937500000e+01 -1.341366767883300781e+01 -4.112859368324279785e-01 1.036537170410156250e+01 2.986225605010986328e+00 1.237116217613220215e+00
3.665000000000000000e+03 4.826617813110351562e+01 -1.308121585845947266e+01 -3.911620378494262695e-01 1.014553833007812500e+01 2.926312923431396484e+00 1.817901730537414551e+00
3.666000000000000000e+03 5.282737350463867188e+01 -4.210122108459472656e+00 3.802012681961059570e+00 1.034145736694335938e+01 4.243041038513183594e+00 1.203582286834716797e+00
3.667000000000000000e+03 5.189888381958007812e+01 -2.718836069107055664e+00 2.375283002853393555e+00 1.121924114227294922e+01 4.078357219696044922e+00 1.336102604866027832e+00
3.668000000000000000e+03 5.618605804443359375e+01 -1.211074542999267578e+01 1.384121656417846680e+00 9.136350631713867188e+00 3.156141519546508789e+00 -1.094550132751464844e+00
3.669000000000000000e+03 4.912377548217773438e+01 -3.369853496551513672e-01 -7.031013071537017822e-02 1.098131179809570312e+01 3.273300409317016602e+00 -1.034796714782714844e+00
3.670000000000000000e+03 5.001523590087890625e+01 -4.968554675579071045e-01 1.796292811632156372e-01 1.122903156280517578e+01 3.422598361968994141e+00 -2.755611240863800049e-01
3.671000000000000000e+03 5.106369781494140625e+01 -1.521832108497619629e+00 1.078431725502014160e+00 1.149414730072021484e+01 3.771773576736450195e+00 7.376086711883544922e-01
3.672000000000000000e+03 5.376492691040039062e+01 -7.211092472076416016e+00 4.171400547027587891e+00 9.597168922424316406e+00 4.130570888519287109e+00 -4.334073364734649658e-01
3.673000000000000000e+03 5.325034332275390625e+01 -6.810531139373779297e+00 4.571660518646240234e+00 9.809189796447753906e+00 4.314255237579345703e+00 -2.375751733779907227e-01
3.674000000000000000e+03 4.859568405151367188e+01 -1.571101474761962891e+01 -5.457705259323120117e-01 8.816842079162597656e+00 2.481321573257446289e+00 1.447560548782348633e+00
3.675000000000000000e+03 4.691949844360351562e+01 7.863914966583251953e-01 -2.688475418835878372e-03 8.502661705017089844e+00 2.549991846084594727e+00 -2.481729030609130859e+00
3.676000000000000000e+03 4.772640228271484375e+01 -1.329080963134765625e+01 -3.354109823703765869e-01 9.479811668395996094e+00 2.743320226669311523e+00 2.174570322036743164e+00
3.677000000000000000e+03 5.025765228271484375e+01 -9.143378138542175293e-01 4.134176969528198242e-01 1.148757553100585938e+01 3.570297956466674805e+00 4.831671342253684998e-02
3.678000000000000000e+03 4.853194808959960938e+01 9.628497958183288574e-01 -2.551656961441040039e-01 9.719470024108886719e+00 2.839291334152221680e+00 -1.487336397171020508e+00
3.679000000000000000e+03 5.205072021484375000e+01 -2.156582593917846680e+00 1.873235344886779785e+00 1.102473258972167969e+01 3.869390249252319336e+00 1.209682345390319824e+00
3.680000000000000000e+03 5.255656433105468750e+01 -3.276961088180541992e+00 2.963178396224975586e+00 1.069480037689208984e+01 4.097393512725830078e+00 1.378926396369934082e+00
3.681000000000000000e+03 5.314563369750976562e+01 -1.120296764373779297e+01 1.598818898200988770e+00 1.039187526702880859e+01 3.597208261489868164e+00 -1.179019927978515625e+00
3.682000000000000000e+03 5.178671264648437500e+01 -9.364165306091308594e+00 3.045926094055175781e+00 1.133675098419189453e+01 4.314803123474121094e+00 -1.462984800338745117e+00
3.683000000000000000e+03 5.876636886596679688e+01 -4.552991390228271484e+00 2.272588253021240234e+00 8.271458625793457031e+00 3.163214206695556641e+00 4.791685640811920166e-01
3.684000000000000000e+03 5.822950363159179688e+01 -2.109736919403076172e+00 1.811790108680725098e+00 8.516595840454101562e+00 3.098515748977661133e+00 9.502502679824829102e-01
3.685000000000000000e+03 5.157168197631835938e+01 -1.203558635711669922e+01 6.916389465332031250e-01 1.101756572723388672e+01 3.512761354446411133e+00 -6.387640833854675293e-01
3.686000000000000000e+03 5.327653884887695312e+01 -8.515399932861328125e+00 3.684918880462646484e+00 1.005130577087402344e+01 4.120867252349853516e+00 -1.067147135734558105e+00
3.687000000000000000e+03 4.740105819702148438e+01 1.683002114295959473e-01 -5.010253190994262695e-02 9.388165473937988281e+00 2.801419019699096680e+00 -2.320530176162719727e+00
3.688000000000000000e+03 5.866296005249023438e+01 -3.812982559204101562e+00 2.142246961593627930e+00 8.323227882385253906e+00 3.139642477035522461e+00 6.465440392494201660e-01
3.689000000000000000e+03 5.290569686889648438e+01 -9.529397964477539062e+00 2.940043926239013672e+00 1.050362205505371094e+01 4.033099651336669922e+00 -1.337624192237854004e+00
3.690000000000000000e+03 4.705867767333984375e+01 1.212838530540466309e+00 -8.822650462388992310e-02 8.458930969238281250e+00 2.511211395263671875e+00 -2.305281162261962891e+00
3.691000000000000000e+03 4.898259735107421875e+01 -1.297970771789550781e+01 -3.513857126235961914e-01 1.067000675201416016e+01 3.095586299896240234e+00 1.253981471061706543e+00
3.692000000000000000e+03 4.825082015991210938e+01 -1.450241374969482422e+01 -5.089179873466491699e-01 9.272195816040039062e+00 2.628983259201049805e+00 1.731266736984252930e+00
3.693000000000000000e+03 4.819274902343750000e+01 -1.410584259033203125e+01 -4.517969787120819092e-01 9.397882461547851562e+00 2.683825492858886719e+00 1.796696782112121582e+00
3.694000000000000000e+03 4.829460144042968750e+01 -1.849373054504394531e+01 -6.101666688919067383e-01 7.701395034790039062e+00 2.127368450164794922e+00 1.353423833847045898e+00
3.695000000000000000e+03 4.971131896972656250e+01 -1.132039427757263184e-01 -3.756793914362788200e-03 1.096568965911865234e+01 3.288579940795898438e+00 -5.809805393218994141e-01
3.696000000000000000e+03 4.704988098144531250e+01 3.794929742813110352e+00 -2.631634771823883057e-01 7.526224136352539062e+00 2.178918123245239258e+00 -1.794359207153320312e+00
3.697000000000000000e+03 5.956432723999023438e+01 -4.409616470336914062e+00 2.045655250549316406e+00 8.145439147949218750e+00 3.057328224182128906e+00 4.656691849231719971e-01
3.698000000000000000e+03 5.892586517333984375e+01 -1.420510768890380859e+00 1.557278752326965332e+00 8.429674148559570312e+00 2.996085882186889648e+00 9.756426811218261719e-01
3.699000000000000000e+03 4.773851013183593750e+01 -1.459457588195800781e+01 -4.460259079933166504e-01 8.792863845825195312e+00 2.504051446914672852e+00 1.996788978576660156e+00
3.700000000000000000e+03 5.674822616577148438e+01 -1.476334381103515625e+01 5.038930773735046387e-01 8.973156929016113281e+00 2.843115091323852539e+00 -9.601455330848693848e-01
3.701000000000000000e+03 5.495740127563476562e+01 -1.616352844238281250e+01 -4.653352126479148865e-02 9.160120964050292969e+00 2.734076261520385742e+00 -6.155280470848083496e-01
3.702000000000000000e+03 5.914107894897460938e+01 -7.808639526367187500e+00 2.209185600280761719e+00 8.213409423828125000e+00 3.126778602600097656e+00 -3.259820640087127686e-01
3.703000000000000000e+03 5.973591232299804688e+01 -6.641403675079345703e+00 2.159701347351074219e+00 8.080380439758300781e+00 3.072024583816528320e+00 -1.619183272123336792e-02
3.704000000000000000e+03 5.764257812500000000e+01 -1.415542125701904297e+00 1.644097805023193359e+00 8.699077606201171875e+00 3.102952718734741211e+00 1.062029242515563965e+00
3.705000000000000000e+03 5.786855316162109375e+01 5.954007506370544434e-01 1.020369410514831543e+00 8.733963012695312500e+00 2.926299571990966797e+00 1.112599730491638184e+00
3.706000000000000000e+03 5.817972183227539062e+01 -7.526351809501647949e-01 1.418232679367065430e+00 8.622919082641601562e+00 3.012345552444458008e+00 1.075522184371948242e+00
3.707000000000000000e+03 4.927627182006835938e+01 -1.874780654907226562e+01 -6.721601486206054688e-01 8.015759468078613281e+00 2.203079700469970703e+00 1.069314837455749512e+00
3.708000000000000000e+03 5.559383010864257812e+01 -1.268726348876953125e+01 1.098607659339904785e+00 9.342832565307617188e+00 3.132432222366333008e+00 -1.078382492065429688e+00
3.709000000000000000e+03 4.968748855590820312e+01 9.592669486999511719e+00 -6.366902589797973633e-01 7.295289039611816406e+00 1.997579693794250488e+00 -6.992390751838684082e-01
3.710000000000000000e+03 4.841960525512695312e+01 4.992780685424804688e+00 -4.813401103019714355e-01 7.904211044311523438e+00 2.226861238479614258e+00 -1.249795436859130859e+00
3.711000000000000000e+03 4.905770492553710938e+01 -1.534286212921142578e+01 -5.621828436851501465e-01 9.178927421569824219e+00 2.585023403167724609e+00 1.251009583473205566e+00
3.712000000000000000e+03 5.663176345825195312e+01 2.395292758941650391e+00 4.645333588123321533e-01 8.932734489440917969e+00 2.819180250167846680e+00 9.967955350875854492e-01
3.713000000000000000e+03 4.346858215332031250e+01 1.076805305480957031e+01 -1.800380200147628784e-01 4.972542285919189453e+00 1.437751173973083496e+00 -1.228877902030944824e+00
3.714000000000000000e+03 5.667459106445312500e+01 5.647675037384033203e+00 -1.608975082635879517e-01 8.636118888854980469e+00 2.542566537857055664e+00 7.275471091270446777e-01
3.715000000000000000e+03 5.700833129882812500e+01 -8.656118512153625488e-01 1.494759798049926758e+00 8.889098167419433594e+00 3.115157365798950195e+00 1.122038125991821289e+00
3.716000000000000000e+03 5.331503295898437500e+01 -4.079847812652587891e+00 3.572091579437255859e+00 1.005765342712402344e+01 4.088923454284667969e+00 1.156125426292419434e+00
3.717000000000000000e+03 4.234018707275390625e+01 1.502626037597656250e+01 -2.244735807180404663e-01 4.529782295227050781e+00 1.291592597961425781e+00 -9.302017092704772949e-01
3.718000000000000000e+03 5.415809249877929688e+01 9.320220947265625000e+00 -6.151614785194396973e-01 8.078996658325195312e+00 2.239150524139404297e+00 1.126136779785156250e-01
3.719000000000000000e+03 5.963308334350585938e+01 -5.073280334472656250e+00 2.101191043853759766e+00 8.109139442443847656e+00 3.063099145889282227e+00 3.382509350776672363e-01
3.720000000000000000e+03 5.530306243896484375e+01 -1.921585464477539062e+01 -4.418313205242156982e-01 8.630259513854980469e+00 2.456528425216674805e+00 -3.769682347774505615e-01
3.721000000000000000e+03 4.123898696899414062e+01 1.353110122680664062e+01 -1.058610305190086365e-01 4.159825801849365234e+00 1.216189384460449219e+00 -1.027969479560852051e+00
3.722000000000000000e+03 5.550013351440429688e+01 -2.073400115966796875e+01 -5.609554648399353027e-01 8.382184982299804688e+00 2.346368789672851562e+00 -2.866119444370269775e-01
3.723000000000000000e+03 5.920511245727539062e+01 -2.441312408447265625e+01 -5.689209103584289551e-01 8.004480361938476562e+00 2.230667829513549805e+00 -4.816931784152984619e-01
3.724000000000000000e+03 5.523951339721679688e+01 8.266558647155761719e+00 -5.181070566177368164e-01 8.306621551513671875e+00 2.336554288864135742e+00 3.287393152713775635e-01
3.725000000000000000e+03 5.018861007690429688e+01 -2.018964195251464844e+01 -7.183682322502136230e-01 7.911541938781738281e+00 2.157952070236206055e+00 7.880521416664123535e-01
3.726000000000000000e+03 5.247433471679687500e+01 1.134735774993896484e+01 -6.984010338783264160e-01 7.575449943542480469e+00 2.063114643096923828e+00 -2.032803297042846680e-01
3.727000000000000000e+03 4.628683853149414062e+01 8.195150375366210938e+00 -3.585434257984161377e-01 6.298365116119384766e+00 1.781946539878845215e+00 -1.331349968910217285e+00
3.728000000000000000e+03 5.327093887329101562e+01 -2.532157325744628906e+01 -7.621434330940246582e-01 7.545119762420654297e+00 2.034893035888671875e+00 1.969847828149795532e-01
3.729000000000000000e+03 5.532277297973632812e+01 5.030789852142333984e+00 -1.944276392459869385e-01 8.806699752807617188e+00 2.583681583404541016e+00 5.921035408973693848e-01
3.730000000000000000e+03 5.821859741210937500e+01 3.854484796524047852e+00 2.436985969543457031e-01 8.597532272338867188e+00 2.652369499206542969e+00 9.842252135276794434e-01
3.731000000000000000e+03 3.941231918334960938e+01 1.763864135742187500e+01 -1.305256187915802002e-01 3.686276912689208984e+00 1.066725373268127441e+00 -7.903152108192443848e-01
3.732000000000000000e+03 4.094473648071289062e+01 1.629256820678710938e+01 -1.688035428524017334e-01 4.094315052032470703e+00 1.177653551101684570e+00 -8.730524778366088867e-01
3.733000000000000000e+03 5.314150619506835938e+01 -6.424734592437744141e+00 4.634852886199951172e+00 9.844631195068359375e+00 4.343844890594482422e+00 2.579803578555583954e-03
3.734000000000000000e+03 5.842256546020507812e+01 -7.714715957641601562e+00 2.388155698776245117e+00 8.313035964965820312e+00 3.210357427597045898e+00 -3.281586170196533203e-01
3.735000000000000000e+03 5.354529571533203125e+01 -8.955575942993164062e+00 3.274444341659545898e+00 9.967390060424804688e+00 3.972550392150878906e+00 -1.134342074394226074e+00
3.736000000000000000e+03 5.035376358032226562e+01 -1.329971885681152344e+01 -1.893402040004730225e-01 1.066781902313232422e+01 3.143543720245361328e+00 3.525677025318145752e-01
3.737000000000000000e+03 5.316912460327148438e+01 -9.168644905090332031e+00 3.233854055404663086e+00 1.026629924774169922e+01 4.050045967102050781e+00 -1.250147819519042969e+00
3.738000000000000000e+03 4.817960739135742188e+01 6.027732491493225098e-01 -2.016437053680419922e-01 9.721943855285644531e+00 2.856090068817138672e+00 -1.728275537490844727e+00
3.739000000000000000e+03 5.400512313842773438e+01 -5.241410732269287109e+00 3.933136940002441406e+00 9.511691093444824219e+00 4.033448219299316406e+00 6.046643853187561035e-01
3.740000000000000000e+03 5.248144149780273438e+01 -2.750257253646850586e+00 2.511614322662353516e+00 1.078173542022705078e+01 3.988004922866821289e+00 1.363886356353759766e+00
3.741000000000000000e+03 5.275073623657226562e+01 -1.001894760131835938e+01 2.506196975708007812e+00 1.063282966613769531e+01 3.941707849502563477e+00 -1.334384918212890625e+00
3.742000000000000000e+03 5.396414566040039062e+01 -9.569822311401367188e+00 2.817788600921630859e+00 9.846327781677246094e+00 3.799235105514526367e+00 -1.192209243774414062e+00
3.743000000000000000e+03 5.233708953857421875e+01 -1.074522304534912109e+01 1.816222906112670898e+00 1.088694095611572266e+01 3.810949325561523438e+00 -1.214736819267272949e+00
3.744000000000000000e+03 4.932669448852539062e+01 1.935663074254989624e-01 -1.412060111761093140e-01 1.064914989471435547e+01 3.152383327484130859e+00 -9.332028627395629883e-01
3.745000000000000000e+03 5.281545257568359375e+01 -5.653936386108398438e+00 4.734893798828125000e+00 1.006820011138916016e+01 4.440927982330322266e+00 5.303072929382324219e-01
3.746000000000000000e+03 5.322366714477539062e+01 -5.487321376800537109e+00 4.417327880859375000e+00 9.861371040344238281e+00 4.283609867095947266e+00 5.650588274002075195e-01
3.747000000000000000e+03 4.803760528564453125e+01 -1.348430633544921875e+01 -4.047054648399353027e-01 9.638901710510253906e+00 2.770258903503417969e+00 1.909934639930725098e+00
3.748000000000000000e+03 5.194510650634765625e+01 -1.027879524230957031e+01 2.128576040267944336e+00 1.122485256195068359e+01 4.006028652191162109e+00 -1.293828845024108887e+00
3.749000000000000000e+03 5.219970703125000000e+01 -1.142696285247802734e+01 1.246788859367370605e+00 1.091188240051269531e+01 3.647601366043090820e+00 -1.017178893089294434e+00
3.750000000000000000e+03 4.906455230712890625e+01 -1.396328353881835938e+01 -4.579728245735168457e-01 9.991704940795898438e+00 2.860119819641113281e+00 1.256237506866455078e+00
3.751000000000000000e+03 5.135665130615234375e+01 -1.242411136627197266e+01 4.178203642368316650e-01 1.097258758544921875e+01 3.417122364044189453e+00 -4.358598887920379639e-01
3.752000000000000000e+03 4.804603195190429688e+01 2.253846645355224609e+00 -3.159206807613372803e-01 8.685344696044921875e+00 2.510827064514160156e+00 -1.632378816604614258e+00
3.753000000000000000e+03 4.784895706176757812e+01 1.558945178985595703e+00 -2.381872236728668213e-01 8.894858360290527344e+00 2.597001314163208008e+00 -1.835398316383361816e+00
3.754000000000000000e+03 5.081400299072265625e+01 -1.332730484008789062e+01 -8.758085221052169800e-02 1.065563678741455078e+01 3.170416831970214844e+00 9.602592885494232178e-02
3.755000000000000000e+03 4.867234039306640625e+01 -1.650804328918457031e+01 -6.010465025901794434e-01 8.521292686462402344e+00 2.376073837280273438e+00 1.376150965690612793e+00
3.756000000000000000e+03 5.668577194213867188e+01 -1.107257270812988281e+01 1.782069921493530273e+00 8.964265823364257812e+00 3.223900556564331055e+00 -1.055754423141479492e+00
3.757000000000000000e+03 5.800033950805664062e+01 -9.329300880432128906e+00 2.201601028442382812e+00 8.493474006652832031e+00 3.208522558212280273e+00 -7.166795134544372559e-01
3.758000000000000000e+03 5.706890106201171875e+01 -1.057638931274414062e+01 1.940259695053100586e+00 8.817669868469238281e+00 3.227378845214843750e+00 -9.874151945114135742e-01
3.759000000000000000e+03 5.747298812866210938e+01 -2.557000875473022461e+00 2.060019016265869141e+00 8.659685134887695312e+00 3.215911149978637695e+00 9.558663964271545410e-01
3.760000000000000000e+03 5.655133819580078125e+01 -2.325700998306274414e+00 2.078456640243530273e+00 8.916735649108886719e+00 3.298557758331298828e+00 1.053938388824462891e+00
3.761000000000000000e+03 4.952369308471679688e+01 -1.660743141174316406e+01 -6.231557726860046387e-01 8.813538551330566406e+00 2.457114696502685547e+00 1.060690402984619141e+00
3.762000000000000000e+03 5.042357254028320312e+01 -1.390136432647705078e+01 -2.992329597473144531e-01 1.032508087158203125e+01 3.007754325866699219e+00 4.371963143348693848e-01
3.763000000000000000e+03 4.853726196289062500e+01 -1.747293853759765625e+01 -6.089327335357666016e-01 8.114006042480468750e+00 2.251521825790405273e+00 1.360029458999633789e+00
3.764000000000000000e+03 5.586301422119140625e+01 -1.427878379821777344e+01 5.721379518508911133e-01 9.197285652160644531e+00 2.930826902389526367e+00 -9.540332555770874023e-01
3.765000000000000000e+03 5.485089874267578125e+01 -1.788865661621093750e+01 -3.370306789875030518e-01 8.874799728393554688e+00 2.561330556869506836e+00 -4.165192842483520508e-01
3.766000000000000000e+03 5.702797317504882812e+01 1.094212770462036133e+00 8.347358107566833496e-01 8.910649299621582031e+00 2.923615455627441406e+00 1.087858080863952637e+00
3.767000000000000000e+03 4.852062988281250000e+01 2.608897209167480469e+00 -3.930287361145019531e-01 8.833651542663574219e+00 2.532186746597290039e+00 -1.421180605888366699e+00
3.768000000000000000e+03 4.783792877197265625e+01 6.428946971893310547e+00 -4.761320948600769043e-01 7.337677001953125000e+00 2.058463573455810547e+00 -1.258117556571960449e+00
3.769000000000000000e+03 5.785693359375000000e+01 2.862253189086914062e+00 4.351199865341186523e-01 8.696231842041015625e+00 2.739405632019042969e+00 1.025303959846496582e+00
3.770000000000000000e+03 5.629039382934570312e+01 4.638842582702636719e+00 -4.290775582194328308e-02 8.777446746826171875e+00 2.620361804962158203e+00 7.705214619636535645e-01
3.771000000000000000e+03 5.708431243896484375e+01 -1.935350060462951660e+00 1.869781613349914551e+00 8.802312850952148438e+00 3.201628208160400391e+00 1.046259164810180664e+00
3.772000000000000000e+03 5.634255599975585938e+01 -4.623983204364776611e-01 1.365129351615905762e+00 9.094079017639160156e+00 3.137762546539306641e+00 1.157247543334960938e+00
3.773000000000000000e+03 5.856798553466796875e+01 -2.957787036895751953e+00 1.979792356491088867e+00 8.392037391662597656e+00 3.111548900604248047e+00 8.143651485443115234e-01
3.774000000000000000e+03 4.519961547851562500e+01 1.094468784332275391e+01 -3.394723236560821533e-01 5.627426624298095703e+00 1.586386322975158691e+00 -1.161482214927673340e+00
3.775000000000000000e+03 4.488150024414062500e+01 1.297324466705322266e+01 -3.576095104217529297e-01 5.383514881134033203e+00 1.507771611213684082e+00 -1.024106621742248535e+00
3.776000000000000000e+03 5.601748275756835938e+01 -1.052196621894836426e+00 1.580834627151489258e+00 9.152965545654296875e+00 3.220140218734741211e+00 1.163607120513916016e+00
3.777000000000000000e+03 4.705559158325195312e+01 1.107791328430175781e+01 -4.855355918407440186e-01 6.238786697387695312e+00 1.725975275039672852e+00 -9.891591072082519531e-01
3.778000000000000000e+03 4.598557662963867188e+01 1.200476646423339844e+01 -4.141680002212524414e-01 5.811555862426757812e+00 1.619216442108154297e+00 -1.022307515144348145e+00
3.779000000000000000e+03 5.137820816040039062e+01 -1.891259384155273438e+01 -6.914575099945068359e-01 8.493052482604980469e+00 2.340478420257568359e+00 4.836224615573883057e-01
3.780000000000000000e+03 5.580857086181640625e+01 -1.694364166259765625e+01 -1.014455482363700867e-01 8.925351142883300781e+00 2.647171735763549805e+00 -6.531832814216613770e-01
3.781000000000000000e+03 5.364974975585937500e+01 -1.844332504272460938e+01 -5.206738114356994629e-01 8.780232429504394531e+00 2.477867364883422852e+00 -1.127815619111061096e-01
3.782000000000000000e+03 3.769007110595703125e+01 1.896466636657714844e+01 -9.259074181318283081e-02 3.261857271194458008e+00 9.507799148559570312e-01 -7.095133066177368164e-01
3.783000000000000000e+03 5.293458938598632812e+01 -2.328437423706054688e+01 -7.574331164360046387e-01 7.791534423828125000e+00 2.110230445861816406e+00 2.284332811832427979e-01
3.784000000000000000e+03 5.455762863159179688e+01 6.750715255737304688e+00 -4.531863033771514893e-01 8.535733222961425781e+00 2.424764156341552734e+00 3.113313913345336914e-01
3.785000000000000000e+03 5.325573730468750000e+01 1.047127723693847656e+01 -6.727395653724670410e-01 7.788286209106445312e+00 2.134664058685302734e+00 -6.708103418350219727e-02
3.786000000000000000e+03 5.491772842407226562e+01 -2.458620643615722656e+01 -7.297106981277465820e-01 7.790780544281005859e+00 2.118320941925048828e+00 -3.777647018432617188e-02
3.787000000000000000e+03 5.419996643066406250e+01 -1.688279724121093750e+01 -2.604202330112457275e-01 9.122097969055175781e+00 2.658503293991088867e+00 -4.057701826095581055e-01
3.788000000000000000e+03 4.271667098999023438e+01 1.257602882385253906e+01 -1.723176240921020508e-01 4.635115623474121094e+00 1.338839411735534668e+00 -1.108087062835693359e+00
3.789000000000000000e+03 4.365693283081054688e+01 1.394271659851074219e+01 -2.906762361526489258e-01 4.943418979644775391e+00 1.395822882652282715e+00 -9.893441200256347656e-01
3.790000000000000000e+03 4.716830062866210938e+01 1.541101074218750000e+01 -5.205982327461242676e-01 5.887449741363525391e+00 1.610055446624755859e+00 -7.156635522842407227e-01
3.791000000000000000e+03 5.137594223022460938e+01 -2.173380851745605469e+01 -7.475260496139526367e-01 7.831652164459228516e+00 2.125237941741943359e+00 5.100474953651428223e-01
3.792000000000000000e+03 5.326856231689453125e+01 5.363914012908935547e+00 -4.176485240459442139e-01 8.838024139404296875e+00 2.526112794876098633e+00 1.752695739269256592e-01
3.793000000000000000e+03 5.587395858764648438e+01 -2.650789070129394531e+01 -7.278555035591125488e-01 7.665119647979736328e+00 2.081179141998291016e+00 -1.132187247276306152e-01
3.794000000000000000e+03 5.374267578125000000e+01 -6.696601390838623047e+00 4.276155471801757812e+00 9.566476821899414062e+00 4.152789592742919922e+00 -1.377585679292678833e-01
3.795000000000000000e+03 5.219018936157226562e+01 -1.647966980934143066e+00 1.539038419723510742e+00 1.088388919830322266e+01 3.726878166198730469e+00 1.109697222709655762e+00
3.796000000000000000e+03 5.336892700195312500e+01 -9.736993789672851562e+00 2.682079553604125977e+00 1.019595909118652344e+01 3.863411426544189453e+00 -1.273406505584716797e+00
3.797000000000000000e+03 5.732887649536132812e+01 -9.702226638793945312e+00 2.204896926879882812e+00 8.659934997558593750e+00 3.259449481964111328e+00 -8.265363574028015137e-01
3.798000000000000000e+03 5.285637664794921875e+01 -1.059898185729980469e+01 2.043290615081787109e+00 1.060249710083007812e+01 3.793736219406127930e+00 -1.284904122352600098e+00
3.799000000000000000e+03 5.296665573120117188e+01 -6.051132678985595703e+00 4.715317726135253906e+00 9.948120117187500000e+00 4.399031162261962891e+00 2.590407133102416992e-01
3.800000000000000000e+03 5.359103393554687500e+01 -6.254249095916748047e+00 4.368986129760742188e+00 9.625012397766113281e+00 4.198199272155761719e+00 1.029932051897048950e-01
3.801000000000000000e+03 5.322470855712890625e+01 3.072431564331054688e+00 -1.026693806052207947e-01 9.382861137390136719e+00 2.784057617187500000e+00 4.023237824440002441e-01
3.802000000000000000e+03 5.407167053222656250e+01 -8.808609008789062500e+00 3.257402181625366211e+00 9.697216987609863281e+00 3.886385679244995117e+00 -1.030685424804687500e+00
3.803000000000000000e+03 5.253458404541015625e+01 -2.202234029769897461e+00 2.014898777008056641e+00 1.073964023590087891e+01 3.826361656188964844e+00 1.275786638259887695e+00
3.804000000000000000e+03 5.272908782958984375e+01 -3.744969367980957031e+00 3.410526752471923828e+00 1.050679016113281250e+01 4.175195217132568359e+00 1.326596975326538086e+00
3.805000000000000000e+03 5.311362075805664062e+01 -3.155438423156738281e+00 2.822656631469726562e+00 1.030718135833740234e+01 3.938951492309570312e+00 1.316606044769287109e+00
3.806000000000000000e+03 5.065206909179687500e+01 -5.939286351203918457e-01 4.209214150905609131e-01 1.120177650451660156e+01 3.486809492111206055e+00 1.964578926563262939e-01
3.807000000000000000e+03 5.355029296875000000e+01 -9.359199523925781250e+00 2.985698223114013672e+00 1.002341079711914062e+01 3.902732610702514648e+00 -1.214995741844177246e+00
3.808000000000000000e+03 5.304992294311523438e+01 -1.213141345977783203e+01 1.031723618507385254e+00 1.033039951324462891e+01 3.408636808395385742e+00 -9.818558692932128906e-01
3.809000000000000000e+03 5.404537582397460938e+01 -5.619005680084228516e+00 4.006163120269775391e+00 9.450565338134765625e+00 4.037018299102783203e+00 4.250124990940093994e-01
3.810000000000000000e+03 5.693650054931640625e+01 -3.546950101852416992e+00 2.458184003829956055e+00 8.710579872131347656e+00 3.350629091262817383e+00 8.296205997467041016e-01
3.811000000000000000e+03 4.996275329589843750e+01 -1.390512847900390625e+01 -3.623301386833190918e-01 1.023896980285644531e+01 2.962991714477539062e+00 6.753658652305603027e-01
3.812000000000000000e+03 4.970226287841796875e+01 7.492138147354125977e-01 -1.863245666027069092e-01 1.035223197937011719e+01 3.049772262573242188e+00 -7.307828068733215332e-01
3.813000000000000000e+03 4.884910583496093750e+01 1.356934785842895508e+00 -3.085761964321136475e-01 9.719648361206054688e+00 2.823321819305419922e+00 -1.269241094589233398e+00
3.814000000000000000e+03 5.228142929077148438e+01 -1.208000564575195312e+01 8.590528368949890137e-01 1.065475940704345703e+01 3.454143524169921875e+00 -8.278247117996215820e-01
3.815000000000000000e+03 5.598818206787109375e+01 -1.088657283782958984e+01 1.882378101348876953e+00 9.129001617431640625e+00 3.303413867950439453e+00 -1.090126514434814453e+00
3.816000000000000000e+03 5.787511062622070312e+01 -4.008237838745117188e+00 2.347963094711303711e+00 8.458474159240722656e+00 3.241931200027465820e+00 6.533222794532775879e-01
3.817000000000000000e+03 5.559574508666992188e+01 -1.147504997253417969e+01 1.641373872756958008e+00 9.303930282592773438e+00 3.283591270446777344e+00 -1.125525116920471191e+00
3.818000000000000000e+03 5.807709121704101562e+01 -8.348008155822753906e+00 2.402392625808715820e+00 8.396099090576171875e+00 3.239547491073608398e+00 -4.921238422393798828e-01
3.819000000000000000e+03 4.914172363281250000e+01 -1.463299655914306641e+01 -5.062547326087951660e-01 9.561693191528320312e+00 2.716631412506103516e+00 1.212352275848388672e+00
3.820000000000000000e+03 5.291812896728515625e+01 -1.644377899169921875e+01 -3.516015112400054932e-01 9.297096252441406250e+00 2.683648347854614258e+00 -1.497249156236648560e-01
3.821000000000000000e+03 5.772233581542968750e+01 -7.504850387573242188e+00 2.602201461791992188e+00 8.428406715393066406e+00 3.309182405471801758e+00 -3.025032579898834229e-01
3.822000000000000000e+03 4.943025970458984375e+01 -1.764128112792968750e+01 -6.616621017456054688e-01 8.396854400634765625e+00 2.320557594299316406e+00 1.071751713752746582e+00
3.823000000000000000e+03 5.772190856933593750e+01 -3.265933275222778320e+00 2.206934452056884766e+00 8.551266670227050781e+00 3.227460145950317383e+00 8.242909312248229980e-01
3.824000000000000000e+03 5.383330535888671875e+01 -3.952790021896362305e+00 3.326551437377929688e+00 9.787063598632812500e+00 3.934084653854370117e+00 1.107723236083984375e+00
3.825000000000000000e+03 4.766045379638671875e+01 3.340092658996582031e+00 -3.408466875553131104e-01 8.047363281250000000e+00 2.311954975128173828e+00 -1.679576277732849121e+00
3.826000000000000000e+03 4.711912155151367188e+01 7.321623802185058594e+00 -4.132715761661529541e-01 6.762135028839111328e+00 1.904659152030944824e+00 -1.323772549629211426e+00
3.827000000000000000e+03 5.505695724487304688e+01 -1.192106723785400391e+01 1.418954849243164062e+00 9.524092674255371094e+00 3.282914400100708008e+00 -1.133431434631347656e+00
3.828000000000000000e+03 5.500389862060546875e+01 -1.394793033599853516e+01 5.830429792404174805e-01 9.430225372314453125e+00 3.003980636596679688e+00 -9.151036739349365234e-01
3.829000000000000000e+03 5.602450561523437500e+01 3.656273841857910156e+00 1.057361215353012085e-01 8.922454833984375000e+00 2.708457231521606445e+00 8.214067816734313965e-01
3.830000000000000000e+03 5.549396896362304688e+01 -1.526446151733398438e+01 2.304200679063796997e-01 9.174174308776855469e+00 2.821378469467163086e+00 -7.972698807716369629e-01
3.831000000000000000e+03 5.658843994140625000e+01 -1.426860570907592773e+00 1.714606404304504395e+00 8.978374481201171875e+00 3.207894086837768555e+00 1.125528812408447266e+00
3.832000000000000000e+03 5.559381103515625000e+01 1.914356827735900879e+00 4.749223291873931885e-01 9.191147804260253906e+00 2.899821043014526367e+00 9.515123367309570312e-01
3.833000000000000000e+03 5.568705749511718750e+01 -1.934915632009506226e-01 1.227212786674499512e+00 9.272702217102050781e+00 3.149974346160888672e+00 1.145455002784729004e+00
3.834000000000000000e+03 4.855611801147460938e+01 5.812745571136474609e+00 -5.243495702743530273e-01 7.764829635620117188e+00 2.172143936157226562e+00 -1.168572902679443359e+00
3.835000000000000000e+03 4.933171463012695312e+01 4.944365978240966797e+00 -5.401886105537414551e-01 8.302023887634277344e+00 2.328550577163696289e+00 -9.794592261314392090e-01
3.836000000000000000e+03 5.510556411743164062e+01 3.942913293838500977e+00 -3.737116232514381409e-02 9.007876396179199219e+00 2.691151618957519531e+00 6.670936942100524902e-01
3.837000000000000000e+03 4.847814559936523438e+01 4.118278503417968750e+00 -4.594662487506866455e-01 8.187144279479980469e+00 2.318303585052490234e+00 -1.327662348747253418e+00
3.838000000000000000e+03 5.813114547729492188e+01 -5.459038257598876953e+00 2.519381523132324219e+00 8.335004806518554688e+00 3.256315946578979492e+00 2.778732776641845703e-01
3.839000000000000000e+03 5.068436431884765625e+01 7.106386661529541016e+00 -6.295868754386901855e-01 8.037698745727539062e+00 2.222433328628540039e+00 -5.387861728668212891e-01
3.840000000000000000e+03 4.732460021972656250e+01 9.135705947875976562e+00 -4.828080236911773682e-01 6.628992557525634766e+00 1.843855381011962891e+00 -1.093704700469970703e+00
3.841000000000000000e+03 5.264242935180664062e+01 -2.006214141845703125e+01 -6.903875470161437988e-01 8.372572898864746094e+00 2.304655551910400391e+00 2.124500870704650879e-01
3.842000000000000000e+03 4.687296676635742188e+01 1.306431484222412109e+01 -4.903391897678375244e-01 5.993143081665039062e+00 1.650841116905212402e+00 -8.719679117202758789e-01
3.843000000000000000e+03 4.826838302612304688e+01 1.026821708679199219e+01 -5.696248412132263184e-01 6.782813072204589844e+00 1.863956451416015625e+00 -8.745331168174743652e-01
3.844000000000000000e+03 4.407390594482421875e+01 1.181858921051025391e+01 -2.567914724349975586e-01 5.177090167999267578e+00 1.476089596748352051e+00 -1.153523802757263184e+00
3.845000000000000000e+03 5.276733398437500000e+01 -2.154862976074218750e+01 -7.257829308509826660e-01 8.082448005676269531e+00 2.206999540328979492e+00 2.362095564603805542e-01
3.846000000000000000e+03 5.414710235595703125e+01 -2.118537139892578125e+01 -6.677783727645874023e-01 8.273495674133300781e+00 2.281715154647827148e+00 -4.170971363782882690e-02
3.847000000000000000e+03 5.314441299438476562e+01 1.257247734069824219e+01 -6.955054998397827148e-01 7.467607975006103516e+00 2.031630754470825195e+00 -1.146178096532821655e-01
3.848000000000000000e+03 5.569911193847656250e+01 6.230866432189941406e+00 -3.081874549388885498e-01 8.604469299316406250e+00 2.488884687423706055e+00 5.559539198875427246e-01
3.849000000000000000e+03 5.328086090087890625e+01 6.819880485534667969e+00 -5.435280203819274902e-01 8.485633850097656250e+00 2.382631778717041016e+00 6.617856770753860474e-02
3.850000000000000000e+03 3.386281204223632812e+01 1.622460556030273438e+01 4.053502902388572693e-02 2.250161409378051758e+00 6.872088909149169922e-01 -6.303181648254394531e-01
3.851000000000000000e+03 5.441766357421875000e+01 -2.280442237854003906e+01 -7.099136710166931152e-01 8.023000717163085938e+00 2.193926095962524414e+00 -1.628554984927177429e-02
3.852000000000000000e+03 5.287454605102539062e+01 8.293586730957031250e+00 -6.219772100448608398e-01 8.162579536437988281e+00 2.262180805206298828e+00 -8.217909932136535645e-02
3.853000000000000000e+03 5.039241409301757812e+01 1.077595233917236328e+01 -6.595546007156372070e-01 7.257128715515136719e+00 1.979272246360778809e+00 -5.304315090179443359e-01
3.854000000000000000e+03 4.888710021972656250e+01 -2.789656639099121094e+01 -6.339082121849060059e-01 6.399926185607910156e+00 1.729805469512939453e+00 6.213833689689636230e-01
3.855000000000000000e+03 5.396482467651367188e+01 -2.772709083557128906e+01 -7.531111240386962891e-01 7.339947700500488281e+00 1.976050972938537598e+00 1.014713197946548462e-01
3.856000000000000000e+03 6.497331237792968750e+01 -3.280834579467773438e+01 -4.515243172645568848e-01 7.775610446929931641e+00 2.197225809097290039e+00 -3.870819807052612305e-01
3.857000000000000000e+03 6.620640563964843750e+01 -3.066012763977050781e+01 -3.944589495658874512e-01 7.823172569274902344e+00 2.228614091873168945e+00 -4.893581271171569824e-01
3.858000000000000000e+03 7.444067382812500000e+01 3.255551147460937500e+01 -4.748362302780151367e-02 8.648880004882812500e+00 2.580418825149536133e+00 1.412889808416366577e-01
3.859000000000000000e+03 7.139012145996093750e+01 3.392554855346679688e+01 -9.641311317682266235e-02 8.334671020507812500e+00 2.471477270126342773e+00 1.544691920280456543e-01
3.860000000000000000e+03 5.337643814086914062e+01 -5.874464988708496094e+00 4.453784465789794922e+00 9.741358757019042969e+00 4.258543014526367188e+00 3.501497507095336914e-01
3.861000000000000000e+03 5.146936798095703125e+01 -1.246641993522644043e+00 1.051121592521667480e+00 1.120065593719482422e+01 3.675533294677734375e+00 8.052588105201721191e-01
3.862000000000000000e+03 5.325764465332031250e+01 -1.011708927154541016e+01 2.449734210968017578e+00 1.028708648681640625e+01 3.821046113967895508e+00 -1.280116200447082520e+00
3.863000000000000000e+03 5.127948760986328125e+01 -7.840291857719421387e-01 7.196065783500671387e-01 1.110574722290039062e+01 3.547605991363525391e+00 5.715378522872924805e-01
3.864000000000000000e+03 5.436468124389648438e+01 -7.645643711090087891e+00 3.720147132873535156e+00 9.377325057983398438e+00 3.929241657257080078e+00 -5.742134451866149902e-01
3.865000000000000000e+03 5.617919921875000000e+01 -3.080245256423950195e+00 2.416456460952758789e+00 8.958924293518066406e+00 3.412614107131958008e+00 9.853180646896362305e-01
3.866000000000000000e+03 5.619973373413085938e+01 -1.869517326354980469e+00 1.915538191795349121e+00 9.053221702575683594e+00 3.290627956390380859e+00 1.122439265251159668e+00
3.867000000000000000e+03 5.320968246459960938e+01 -3.624333858489990234e+00 3.246856927871704102e+00 1.019345855712890625e+01 4.032094478607177734e+00 1.269823431968688965e+00
3.868000000000000000e+03 4.927853775024414062e+01 1.073429942131042480e+00 -2.634491324424743652e-01 1.002384090423583984e+01 2.928117513656616211e+00 -1.013950824737548828e+00
3.869000000000000000e+03 5.432495117187500000e+01 -7.128702163696289062e+00 3.913498163223266602e+00 9.354479789733886719e+00 3.980393409729003906e+00 -3.427635133266448975e-01
3.870000000000000000e+03 5.262283325195312500e+01 -1.129160785675048828e+01 1.455364942550659180e+00 1.064794731140136719e+01 3.630993604660034180e+00 -1.119278550148010254e+00
3.871000000000000000e+03 5.198328399658203125e+01 -1.238084411621093750e+01 6.179451942443847656e-01 1.073577117919921875e+01 3.406115055084228516e+00 -6.704071164131164551e-01
3.872000000000000000e+03 5.419872283935546875e+01 -1.315464687347412109e+01 7.363976240158081055e-01 9.737318992614746094e+00 3.142114877700805664e+00 -9.337489008903503418e-01
3.873000000000000000e+03 5.661307907104492188e+01 -8.641306877136230469e+00 2.666787862777709961e+00 8.742456436157226562e+00 3.422773361206054688e+00 -6.748700141906738281e-01
3.874000000000000000e+03 5.602947235107421875e+01 -8.863909721374511719e+00 2.751223087310791016e+00 8.931725502014160156e+00 3.504884719848632812e+00 -7.864710688591003418e-01
3.875000000000000000e+03 4.960200500488281250e+01 -1.456755256652832031e+01 -4.901885986328125000e-01 9.777675628662109375e+00 2.786246299743652344e+00 9.610800147056579590e-01
3.876000000000000000e+03 5.135498809814453125e+01 -1.384695243835449219e+01 -8.710700273513793945e-02 1.034165763854980469e+01 3.076365232467651367e+00 -4.379187896847724915e-02
3.877000000000000000e+03 4.838898086547851562e+01 1.469544529914855957e+00 -3.033492863178253174e-01 9.384300231933593750e+00 2.724285364151000977e+00 -1.542330622673034668e+00
3.878000000000000000e+03 5.039929962158203125e+01 -1.118746772408485413e-01 1.647063493728637695e-01 1.092906093597412109e+01 3.328130245208740234e+00 -1.114586740732192993e-01
3.879000000000000000e+03 5.014381027221679688e+01 1.376013278961181641e+00 -2.356453239917755127e-01 1.005360221862792969e+01 2.945387125015258789e+00 -5.417050719261169434e-01
3.880000000000000000e+03 5.124595260620117188e+01 -1.286847305297851562e+01 1.691233068704605103e-01 1.082273197174072266e+01 3.297556638717651367e+00 -2.419312894344329834e-01
3.881000000000000000e+03 5.174081420898437500e+01 -1.265580177307128906e+01 4.418345391750335693e-01 1.071354484558105469e+01 3.346613883972167969e+00 -5.159720182418823242e-01
3.882000000000000000e+03 5.539293289184570312e+01 -7.911700606346130371e-01 1.449973464012145996e+00 9.363917350769042969e+00 3.244167327880859375e+00 1.173812150955200195e+00
3.883000000000000000e+03 5.589738082885742188e+01 4.470110237598419189e-01 9.820745587348937988e-01 9.190417289733886719e+00 3.051747560501098633e+00 1.106041073799133301e+00
3.884000000000000000e+03 5.297780227661132812e+01 -1.134065389633178711e+00 1.355449199676513672e+00 1.038387584686279297e+01 3.521797418594360352e+00 1.109981179237365723e+00
3.885000000000000000e+03 5.367865753173828125e+01 -1.031056404113769531e+01 2.303298711776733398e+00 1.005538749694824219e+01 3.707605838775634766e+00 -1.244425892829895020e+00
3.886000000000000000e+03 4.846708679199218750e+01 3.301044940948486328e+00 -4.224539399147033691e-01 8.523167610168457031e+00 2.430213928222656250e+00 -1.391077756881713867e+00
3.887000000000000000e+03 5.136480712890625000e+01 5.708307623863220215e-01 1.867831647396087646e-01 1.045779037475585938e+01 3.193372011184692383e+00 2.308265566825866699e-01
3.888000000000000000e+03 5.043672943115234375e+01 -1.587475776672363281e+01 -5.478914380073547363e-01 9.342413902282714844e+00 2.638356685638427734e+00 6.525369882583618164e-01
3.889000000000000000e+03 5.125351333618164062e+01 -1.677520942687988281e+01 -5.651577711105346680e-01 9.136477470397949219e+00 2.571395874023437500e+00 4.118599891662597656e-01
3.890000000000000000e+03 5.664061355590820312e+01 -1.003331089019775391e+01 2.198051452636718750e+00 8.876284599304199219e+00 3.322300910949707031e+00 -9.481134414672851562e-01
3.891000000000000000e+03 5.753326416015625000e+01 -8.821331977844238281e+00 2.412968873977661133e+00 8.545057296752929688e+00 3.287407875061035156e+00 -6.438245773315429688e-01
3.892000000000000000e+03 5.679754257202148438e+01 -2.886832952499389648e+00 2.250989437103271484e+00 8.805953025817871094e+00 3.317082881927490234e+00 9.661803245544433594e-01
3.893000000000000000e+03 5.810810852050781250e+01 -6.186113834381103516e+00 2.561778545379638672e+00 8.322983741760253906e+00 3.265428543090820312e+00 9.015202522277832031e-02
3.894000000000000000e+03 4.859403991699218750e+01 7.073767185211181641e+00 -5.559166669845581055e-01 7.507654190063476562e+00 2.085521221160888672e+00 -1.037461996078491211e+00
3.895000000000000000e+03 4.907837677001953125e+01 6.343737125396728516e+00 -5.720314383506774902e-01 7.788856029510498047e+00 2.165047407150268555e+00 -1.000886440277099609e+00
3.896000000000000000e+03 5.602485275268554688e+01 -5.808373928070068359e+00 3.218084335327148438e+00 8.792235374450683594e+00 3.603096008300781250e+00 2.365538477897644043e-01
3.897000000000000000e+03 5.800577163696289062e+01 -4.734893321990966797e+00 2.472150802612304688e+00 8.388584136962890625e+00 3.258220672607421875e+00 4.747761487960815430e-01
3.898000000000000000e+03 5.455444717407226562e+01 -1.128925895690917969e+01 1.728056907653808594e+00 9.697120666503906250e+00 3.427553176879882812e+00 -1.177379608154296875e+00
3.899000000000000000e+03 5.472579956054687500e+01 -1.479497337341308594e+01 2.513395845890045166e-01 9.392041206359863281e+00 2.893014192581176758e+00 -7.563869357109069824e-01
3.900000000000000000e+03 5.427334594726562500e+01 -1.550139141082763672e+01 1.641485467553138733e-02 9.377873420715332031e+00 2.818286418914794922e+00 -6.016024351119995117e-01
3.901000000000000000e+03 4.968228912353515625e+01 -1.567539215087890625e+01 -5.696296691894531250e-01 9.253617286682128906e+00 2.605196237564086914e+00 9.852594137191772461e-01
3.902000000000000000e+03 5.039005279541015625e+01 -1.674475860595703125e+01 -6.140256524085998535e-01 9.015480041503906250e+00 2.520436286926269531e+00 7.156857848167419434e-01
3.903000000000000000e+03 5.230317306518554688e+01 -1.765589523315429688e+01 -5.601758956909179688e-01 8.943479537963867188e+00 2.514991044998168945e+00 1.555682718753814697e-01
3.904000000000000000e+03 5.511836624145507812e+01 -1.878895401954650879e+00 1.970251321792602539e+00 9.419938087463378906e+00 3.417056798934936523e+00 1.187097191810607910e+00
3.905000000000000000e+03 5.526784515380859375e+01 2.300434857606887817e-01 1.022449254989624023e+00 9.393414497375488281e+00 3.124759197235107422e+00 1.104195594787597656e+00
3.906000000000000000e+03 5.449135208129882812e+01 -1.224330806732177734e+01 1.225633025169372559e+00 9.718266487121582031e+00 3.283169746398925781e+00 -1.098551154136657715e+00
3.907000000000000000e+03 5.012662887573242188e+01 5.870859146118164062e+00 -5.876137614250183105e-01 8.245111465454101562e+00 2.297249317169189453e+00 -7.173163890838623047e-01
3.908000000000000000e+03 5.409443664550781250e+01 2.232479095458984375e+00 1.995682120323181152e-01 9.444045066833496094e+00 2.893083810806274414e+00 7.055920362472534180e-01
3.909000000000000000e+03 5.030622482299804688e+01 -1.889278221130371094e+01 -7.047904729843139648e-01 8.276605606079101562e+00 2.271544456481933594e+00 7.829516530036926270e-01
3.910000000000000000e+03 5.238454055786132812e+01 -1.483901023864746094e+01 -1.213383451104164124e-01 9.854268074035644531e+00 2.919878959655761719e+00 -2.494368702173233032e-01
3.911000000000000000e+03 5.417645645141601562e+01 4.112265586853027344e+00 -1.696666479110717773e-01 9.075930595397949219e+00 2.671879291534423828e+00 4.883053898811340332e-01
3.912000000000000000e+03 5.461311721801757812e+01 1.402914404869079590e+00 5.308003425598144531e-01 9.453427314758300781e+00 2.995268344879150391e+00 9.099422097206115723e-01
3.913000000000000000e+03 5.484249114990234375e+01 2.088790893554687500e+00 3.509776890277862549e-01 9.319023132324218750e+00 2.901000261306762695e+00 8.512405157089233398e-01
3.914000000000000000e+03 4.809698486328125000e+01 8.091105461120605469e+00 -5.378829836845397949e-01 7.089231491088867188e+00 1.965404629707336426e+00 -1.055320501327514648e+00
3.915000000000000000e+03 5.249143981933593750e+01 -1.877453231811523438e+01 -6.313055157661437988e-01 8.666477203369140625e+00 2.410551548004150391e+00 1.862019598484039307e-01
3.916000000000000000e+03 5.132709121704101562e+01 -1.776704788208007812e+01 -6.347366571426391602e-01 8.825854301452636719e+00 2.457335233688354492e+00 4.462887048721313477e-01
3.917000000000000000e+03 4.920734786987304688e+01 2.579467058181762695e+00 -4.177229106426239014e-01 9.147522926330566406e+00 2.618940114974975586e+00 -1.082991480827331543e+00
3.918000000000000000e+03 5.393915939331054688e+01 -1.971392059326171875e+01 -5.957475304603576660e-01 8.543628692626953125e+00 2.384364366531372070e+00 -7.689696550369262695e-02
3.919000000000000000e+03 4.921999740600585938e+01 8.391236305236816406e+00 -6.028706431388854980e-01 7.366548061370849609e+00 2.029103279113769531e+00 -8.382123112678527832e-01
3.920000000000000000e+03 4.983468246459960938e+01 6.682380199432373047e+00 -5.982697010040283203e-01 7.925231456756591797e+00 2.198088645935058594e+00 -7.854964733123779297e-01
3.921000000000000000e+03 5.205342102050781250e+01 9.556679725646972656e+00 -6.700844168663024902e-01 7.778112411499023438e+00 2.132408380508422852e+00 -2.766185104846954346e-01
3.922000000000000000e+03 5.164557647705078125e+01 1.176815128326416016e+01 -6.779314875602722168e-01 7.290514945983886719e+00 1.983775019645690918e+00 -3.495967388153076172e-01
3.923000000000000000e+03 6.810843658447265625e+01 3.243530273437500000e+01 -2.049804180860519409e-01 7.913731098175048828e+00 2.312625169754028320e+00 2.247842699289321899e-01
3.924000000000000000e+03 5.230037307739257812e+01 1.466740608215332031e+01 -6.800101399421691895e-01 7.070477485656738281e+00 1.917140245437622070e+00 -2.097180336713790894e-01
3.925000000000000000e+03 4.975555801391601562e+01 1.169863033294677734e+01 -6.524695158004760742e-01 7.001233100891113281e+00 1.904629111289978027e+00 -6.200125813484191895e-01
3.926000000000000000e+03 4.476994705200195312e+01 1.521672821044921875e+01 -3.811819553375244141e-01 5.263010501861572266e+00 1.464548587799072266e+00 -8.708509206771850586e-01
3.927000000000000000e+03 4.590013122558593750e+01 1.415342998504638672e+01 -4.456219673156738281e-01 5.624552726745605469e+00 1.553679108619689941e+00 -8.881014585494995117e-01
3.928000000000000000e+03 5.139210128784179688e+01 -2.022428321838378906e+01 -7.267622947692871094e-01 8.160786628723144531e+00 2.230207204818725586e+00 5.077303051948547363e-01
3.929000000000000000e+03 5.464778900146484375e+01 -8.646649360656738281e+00 3.206464052200317383e+00 9.389212608337402344e+00 3.778703212738037109e+00 -8.954957127571105957e-01
3.930000000000000000e+03 5.494795989990234375e+01 -7.529371261596679688e+00 3.525888919830322266e+00 9.150997161865234375e+00 3.803065776824951172e+00 -4.670946598052978516e-01
3.931000000000000000e+03 5.186463165283203125e+01 -1.028476238250732422e+00 1.043053030967712402e+00 1.088713455200195312e+01 3.579056262969970703e+00 8.614635467529296875e-01
3.932000000000000000e+03 5.443473434448242188e+01 -5.612902164459228516e+00 3.843807458877563477e+00 9.319449424743652344e+00 3.948976993560791016e+00 4.104242920875549316e-01
3.933000000000000000e+03 5.341000747680664062e+01 -4.519427776336669922e+00 3.804563999176025391e+00 9.923339843750000000e+00 4.118371009826660156e+00 9.966073036193847656e-01
3.934000000000000000e+03 5.605275344848632812e+01 -2.583225965499877930e+00 2.236389636993408203e+00 9.041442871093750000e+00 3.383349657058715820e+00 1.074727535247802734e+00
3.935000000000000000e+03 5.430826187133789062e+01 -6.597559452056884766e+00 3.998861074447631836e+00 9.339305877685546875e+00 4.001450061798095703e+00 -7.274051755666732788e-02
3.936000000000000000e+03 5.598787307739257812e+01 -5.285778045654296875e+00 3.166304826736450195e+00 8.833820343017578125e+00 3.600037574768066406e+00 4.328508675098419189e-01
3.937000000000000000e+03 5.392115020751953125e+01 -1.247644996643066406e+01 9.985236525535583496e-01 9.915013313293457031e+00 3.274060964584350586e+00 -1.006807923316955566e+00
3.938000000000000000e+03 5.258142089843750000e+01 -1.714818954467773438e+00 1.686824321746826172e+00 1.065606212615966797e+01 3.702866077423095703e+00 1.178128838539123535e+00
3.939000000000000000e+03 5.108537292480468750e+01 -2.822454869747161865e-01 4.219889342784881592e-01 1.091787147521972656e+01 3.401957988739013672e+00 3.260023891925811768e-01
3.940000000000000000e+03 5.466026306152343750e+01 -3.089163303375244141e+00 2.683940887451171875e+00 9.515877723693847656e+00 3.659945726394653320e+00 1.149691939353942871e+00
3.941000000000000000e+03 5.306086730957031250e+01 -2.147888183593750000e+00 2.090623378753662109e+00 1.041294479370117188e+01 3.751070499420166016e+00 1.292479515075683594e+00
3.942000000000000000e+03 5.502737808227539062e+01 -3.567099809646606445e+00 2.869040489196777344e+00 9.309529304504394531e+00 3.653570890426635742e+00 1.017559289932250977e+00
3.943000000000000000e+03 5.008343887329101562e+01 3.583270013332366943e-01 -5.587550252676010132e-02 1.065211963653564453e+01 3.178873300552368164e+00 -4.395831227302551270e-01
3.944000000000000000e+03 4.960929870605468750e+01 1.694356560707092285e+00 -3.153946995735168457e-01 9.755030632019042969e+00 2.831890583038330078e+00 -8.492336869239807129e-01
3.945000000000000000e+03 5.198732376098632812e+01 -1.299274730682373047e+01 3.437179625034332275e-01 1.049829673767089844e+01 3.252604484558105469e+00 -5.037859082221984863e-01
3.946000000000000000e+03 4.905923843383789062e+01 1.923226118087768555e+00 -3.548156917095184326e-01 9.473106384277343750e+00 2.735487222671508789e+00 -1.163733482360839844e+00
3.947000000000000000e+03 5.266786575317382812e+01 -1.247470951080322266e+01 7.474370598793029785e-01 1.041145229339599609e+01 3.347666978836059570e+00 -8.303179740905761719e-01
3.948000000000000000e+03 5.522516632080078125e+01 -8.508921623229980469e+00 3.100262641906738281e+00 9.147002220153808594e+00 3.674179553985595703e+00 -7.761671543121337891e-01
3.949000000000000000e+03 5.447030639648437500e+01 -8.146607398986816406e+00 3.494471073150634766e+00 9.394417762756347656e+00 3.866666793823242188e+00 -7.463292479515075684e-01
3.950000000000000000e+03 4.992606353759765625e+01 -1.500386047363281250e+01 -5.218667984008789062e-01 9.670412063598632812e+00 2.744563579559326172e+00 8.380283713340759277e-01
3.951000000000000000e+03 5.792364120483398438e+01 -6.878167152404785156e+00 2.601787567138671875e+00 8.366905212402343750e+00 3.290607690811157227e+00 -1.129006966948509216e-01
3.952000000000000000e+03 5.557399749755859375e+01 -2.707166433334350586e+00 2.349315404891967773e+00 9.204625129699707031e+00 3.466182231903076172e+00 1.105334997177124023e+00
3.953000000000000000e+03 5.501372146606445312e+01 -1.093476867675781250e+01 1.936786413192749023e+00 9.506468772888183594e+00 3.432976484298706055e+00 -1.164483308792114258e+00
3.954000000000000000e+03 5.541356277465820312e+01 -1.051261711120605469e+01 2.115263938903808594e+00 9.336832046508789062e+00 3.435628890991210938e+00 -1.114158868789672852e+00
3.955000000000000000e+03 5.594121932983398438e+01 -1.024020671844482422e+01 2.183858156204223633e+00 9.093548774719238281e+00 3.383222341537475586e+00 -1.031444191932678223e+00
3.956000000000000000e+03 5.693265914916992188e+01 -9.159726142883300781e+00 2.444168329238891602e+00 8.714924812316894531e+00 3.347727775573730469e+00 -7.690071463584899902e-01
3.957000000000000000e+03 5.365616226196289062e+01 -1.100901222229003906e+01 1.836930990219116211e+00 1.012277317047119141e+01 3.587911128997802734e+00 -1.226770877838134766e+00
3.958000000000000000e+03 5.750637054443359375e+01 -8.033488273620605469e+00 2.602338075637817383e+00 8.485638618469238281e+00 3.326392889022827148e+00 -4.427586495876312256e-01
3.959000000000000000e+03 5.334683227539062500e+01 -1.052228355407714844e+01 2.154092788696289062e+00 1.025575637817382812e+01 3.722954750061035156e+00 -1.265229582786560059e+00
3.960000000000000000e+03 5.479064559936523438e+01 -4.726944923400878906e+00 3.427818298339843750e+00 9.256065368652343750e+00 3.805165290832519531e+00 7.069099545478820801e-01
3.961000000000000000e+03 5.090186691284179688e+01 8.750510215759277344e+00 -6.538990139961242676e-01 7.765120029449462891e+00 2.133366346359252930e+00 -4.779738783836364746e-01
3.962000000000000000e+03 4.941523361206054688e+01 7.463809967041015625e+00 -6.028806567192077637e-01 7.614847183227539062e+00 2.103590011596679688e+00 -8.648207187652587891e-01
3.963000000000000000e+03 5.501648712158203125e+01 8.867326378822326660e-01 7.493764758110046387e-01 9.431439399719238281e+00 3.054244995117187500e+00 1.020442843437194824e+00
3.964000000000000000e+03 5.570169448852539062e+01 1.164819478988647461e+00 7.337886095046997070e-01 9.213078498840332031e+00 2.984060049057006836e+00 1.038142681121826172e+00
3.965000000000000000e+03 5.406389999389648438e+01 -1.440455150604248047e+01 2.880861163139343262e-01 9.613897323608398438e+00 2.970594882965087891e+00 -7.160585522651672363e-01
3.966000000000000000e+03 5.449411010742187500e+01 -3.470684528350830078e+00 2.914173364639282227e+00 9.535081863403320312e+00 3.734776735305786133e+00 1.106272459030151367e+00
3.967000000000000000e+03 5.709049224853515625e+01 -4.244702816009521484e+00 2.597854137420654297e+00 8.622619628906250000e+00 3.366142034530639648e+00 6.615638136863708496e-01
3.968000000000000000e+03 5.466903686523437500e+01 -1.341850519180297852e+00 1.697034597396850586e+00 9.620553016662597656e+00 3.395276308059692383e+00 1.212859869003295898e+00
3.969000000000000000e+03 5.574706268310546875e+01 -1.551032781600952148e+00 1.793905496597290039e+00 9.220380783081054688e+00 3.304286003112792969e+00 1.165366291999816895e+00
3.970000000000000000e+03 5.405613327026367188e+01 -1.158700370788574219e+01 1.516424059867858887e+00 9.930024147033691406e+00 3.433934450149536133e+00 -1.161311626434326172e+00
3.971000000000000000e+03 5.327824020385742188e+01 -1.737296485900878906e+01 -4.320536255836486816e-01 9.043600082397460938e+00 2.583464145660400391e+00 -1.321908533573150635e-01
3.972000000000000000e+03 5.056792068481445312e+01 8.752722144126892090e-01 -8.083064109086990356e-02 1.034688663482666016e+01 3.079816818237304688e+00 -2.413927167654037476e-01
3.973000000000000000e+03 5.733707046508789062e+01 -5.564721584320068359e+00 2.760003328323364258e+00 8.485399246215820312e+00 3.373620748519897461e+00 2.766860425472259521e-01
3.974000000000000000e+03 5.207207870483398438e+01 6.477862834930419922e+00 -5.843814611434936523e-01 8.442524909973144531e+00 2.357443094253540039e+00 -1.978829950094223022e-01
3.975000000000000000e+03 4.933291244506835938e+01 4.121260166168212891e+00 -5.129927396774291992e-01 8.572957038879394531e+00 2.417989492416381836e+00 -1.001537919044494629e+00
3.976000000000000000e+03 5.110879898071289062e+01 -1.515078830718994141e+01 -4.028849005699157715e-01 9.753628730773925781e+00 2.805223226547241211e+00 2.949608564376831055e-01
3.977000000000000000e+03 5.049504089355468750e+01 -1.514388275146484375e+01 -4.786395430564880371e-01 9.676551818847656250e+00 2.759373903274536133e+00 5.797173976898193359e-01
3.978000000000000000e+03 5.496102905273437500e+01 2.974348306655883789e+00 1.357815265655517578e-01 9.168068885803222656e+00 2.791155099868774414e+00 7.530698776245117188e-01
3.979000000000000000e+03 5.431555175781250000e+01 5.303673267364501953e+00 -3.257703781127929688e-01 8.835365295410156250e+00 2.552878379821777344e+00 3.888507485389709473e-01
3.980000000000000000e+03 5.245148468017578125e+01 1.016645073890686035e+00 2.645016014575958252e-01 1.006214904785156250e+01 3.097995042800903320e+00 5.163047909736633301e-01
3.981000000000000000e+03 5.023539352416992188e+01 4.100780963897705078e+00 -5.108873248100280762e-01 8.858081817626953125e+00 2.504158258438110352e+00 -6.688882112503051758e-01
3.982000000000000000e+03 5.267973327636718750e+01 -1.320687675476074219e+01 4.413352608680725098e-01 1.025341129302978516e+01 3.208424091339111328e+00 -6.670882701873779297e-01
3.983000000000000000e+03 5.411001586914062500e+01 3.095392942428588867e+00 9.449644945561885834e-03 9.280669212341308594e+00 2.787035703659057617e+00 5.977870821952819824e-01
3.984000000000000000e+03 5.335732269287109375e+01 2.167460680007934570e+00 1.020665913820266724e-01 9.591004371643066406e+00 2.907921075820922852e+00 5.574824213981628418e-01
3.985000000000000000e+03 5.366323471069335938e+01 -1.605910873413085938e+01 -1.941114813089370728e-01 9.355452537536621094e+00 2.748402118682861328e+00 -3.852268159389495850e-01
3.986000000000000000e+03 5.221003723144531250e+01 5.249417781829833984e+00 -4.864650666713714600e-01 8.769732475280761719e+00 2.484980344772338867e+00 -9.156868606805801392e-02
3.987000000000000000e+03 5.322012710571289062e+01 4.145749092102050781e+00 -2.864715754985809326e-01 9.125201225280761719e+00 2.651618957519531250e+00 2.743724584579467773e-01
3.988000000000000000e+03 4.798357772827148438e+01 1.398219108581542969e+01 -5.649996995925903320e-01 6.261355400085449219e+00 1.708906650543212891e+00 -7.000708580017089844e-01
3.989000000000000000e+03 5.012182235717773438e+01 7.939283370971679688e+00 -6.335977315902709961e-01 7.701660633087158203e+00 2.120419025421142578e+00 -6.468158364295959473e-01
3.990000000000000000e+03 5.155113220214843750e+01 1.067520713806152344e+01 -6.920458674430847168e-01 7.502150058746337891e+00 2.043031215667724609e+00 -3.698101639747619629e-01
3.991000000000000000e+03 5.069953536987304688e+01 1.188457393646240234e+01 -6.631111502647399902e-01 7.154336452484130859e+00 1.947367548942565918e+00 -4.206899702548980713e-01
3.992000000000000000e+03 3.575763702392578125e+01 2.020232391357421875e+01 -5.223361030220985413e-02 2.843723297119140625e+00 8.374469280242919922e-01 -6.370905041694641113e-01
3.993000000000000000e+03 3.363241195678710938e+01 2.132347679138183594e+01 -1.326488237828016281e-02 2.417630910873413086e+00 7.213098406791687012e-01 -5.573863983154296875e-01
3.994000000000000000e+03 5.377988815307617188e+01 1.414267826080322266e+01 -6.864649653434753418e-01 7.355215549468994141e+00 2.000625133514404297e+00 -3.786801546812057495e-02
3.995000000000000000e+03 3.910919952392578125e+01 2.091055488586425781e+01 -1.577858626842498779e-01 3.641543149948120117e+00 1.045127153396606445e+00 -6.677733659744262695e-01
3.996000000000000000e+03 5.137180328369140625e+01 -2.564969825744628906e+01 -7.458848953247070312e-01 7.195456027984619141e+00 1.934871315956115723e+00 4.338853955268859863e-01
3.997000000000000000e+03 5.145955657958984375e+01 -2.812286376953125000e+01 -7.186205983161926270e-01 6.912858486175537109e+00 1.858271479606628418e+00 3.741235733032226562e-01
3.998000000000000000e+03 5.745558547973632812e+01 -2.767525100708007812e+01 -7.137024402618408203e-01 7.665415287017822266e+00 2.085513830184936523e+00 -2.114316672086715698e-01
3.999000000000000000e+03 5.920065307617187500e+01 -2.739385032653808594e+01 -6.476600766181945801e-01 7.770071983337402344e+00 2.136723518371582031e+00 -3.721564114093780518e-01
4.000000000000000000e+03 6.051219177246093750e+01 1.858911895751953125e+01 -5.227906107902526855e-01 7.601892948150634766e+00 2.123730659484863281e+00 4.488781690597534180e-01
4.001000000000000000e+03 6.930889892578125000e+01 3.546883392333984375e+01 -1.323817670345306396e-01 8.075380325317382812e+00 2.382899522781372070e+00 1.474673151969909668e-01
4.002000000000000000e+03 2.660515785217285156e+01 2.324946212768554688e+01 7.576276361942291260e-02 1.113041996955871582e+00 3.566414415836334229e-01 -3.228691518306732178e-01
4.003000000000000000e+03 2.687886810302734375e+01 2.572605323791503906e+01 1.172342598438262939e-01 1.230106830596923828e+00 4.042023122310638428e-01 -3.073113560676574707e-01
4.004000000000000000e+03 5.078593063354492188e+01 1.482281684875488281e+01 -6.569920182228088379e-01 6.768009662628173828e+00 1.833305239677429199e+00 -3.873205482959747314e-01
4.005000000000000000e+03 5.600766754150390625e+01 2.043587684631347656e+01 -6.111034750938415527e-01 7.057709693908691406e+00 1.933981895446777344e+00 1.127128824591636658e-01
4.006000000000000000e+03 5.489548110961914062e+01 -7.031082153320312500e+00 3.666096687316894531e+00 9.128229141235351562e+00 3.838297605514526367e+00 -2.604880928993225098e-01
4.007000000000000000e+03 5.505662155151367188e+01 -8.016256332397460938e+00 3.333083868026733398e+00 9.154463768005371094e+00 3.746264219284057617e+00 -6.390919089317321777e-01
4.008000000000000000e+03 5.616850280761718750e+01 -7.688547611236572266e+00 3.043725728988647461e+00 8.780494689941406250e+00 3.547266244888305664e+00 -4.355131983757019043e-01
4.009000000000000000e+03 5.359172058105468750e+01 -2.053696393966674805e+00 2.060880899429321289e+00 1.009858322143554688e+01 3.647839307785034180e+00 1.261575222015380859e+00
4.010000000000000000e+03 5.363422775268554688e+01 -3.077730655670166016e+00 2.758858442306518555e+00 1.001140975952148438e+01 3.831080675125122070e+00 1.274367928504943848e+00
4.011000000000000000e+03 5.233961105346679688e+01 -8.589177131652832031e-01 1.063670039176940918e+00 1.063144874572753906e+01 3.508535623550415039e+00 9.259321093559265137e-01
4.012000000000000000e+03 5.372341537475585938e+01 -5.698033332824707031e+00 4.231448173522949219e+00 9.619380950927734375e+00 4.155248641967773438e+00 4.034311473369598389e-01
4.013000000000000000e+03 5.388304138183593750e+01 -4.412692070007324219e+00 3.587841749191284180e+00 9.683902740478515625e+00 3.981523513793945312e+00 9.518553018569946289e-01
4.014000000000000000e+03 5.361254882812500000e+01 -5.338674068450927734e+00 4.161478996276855469e+00 9.694230079650878906e+00 4.156712532043457031e+00 5.962880253791809082e-01
4.015000000000000000e+03 5.620807647705078125e+01 -3.663959026336669922e+00 2.643980264663696289e+00 8.895958900451660156e+00 3.461981773376464844e+00 8.742982745170593262e-01
4.016000000000000000e+03 5.370840454101562500e+01 -3.509488582611083984e+00 3.077251911163330078e+00 9.905497550964355469e+00 3.894824743270874023e+00 1.210870981216430664e+00
4.017000000000000000e+03 5.435371780395507812e+01 -4.364441394805908203e+00 3.408500909805297852e+00 9.481210708618164062e+00 3.866913318634033203e+00 9.085577130317687988e-01
4.018000000000000000e+03 5.259366989135742188e+01 -1.174252986907958984e+01 1.140563607215881348e+00 1.059591484069824219e+01 3.520943403244018555e+00 -9.940361976623535156e-01
4.019000000000000000e+03 5.232513427734375000e+01 -1.279847049713134766e+01 5.118480324745178223e-01 1.043627548217773438e+01 3.284437179565429688e+00 -6.558016538619995117e-01
4.020000000000000000e+03 5.100865173339843750e+01 -1.449107646942138672e+01 -3.070262074470520020e-01 1.004424095153808594e+01 2.921164512634277344e+00 2.509044706821441650e-01
4.021000000000000000e+03 5.049034500122070312e+01 -1.450624561309814453e+01 -3.800843656063079834e-01 1.002149677276611328e+01 2.892423629760742188e+00 4.972929358482360840e-01
4.022000000000000000e+03 5.085496902465820312e+01 2.667220830917358398e-01 1.603643298149108887e-01 1.068441104888916016e+01 3.253432512283325195e+00 6.681586802005767822e-02
4.023000000000000000e+03 5.311839675903320312e+01 -1.336283397674560547e+01 4.729069173336029053e-01 1.009564590454101562e+01 3.170565843582153320e+00 -7.394917607307434082e-01
4.024000000000000000e+03 5.491510772705078125e+01 -3.991452932357788086e+00 3.077609300613403320e+00 9.293807029724121094e+00 3.711425065994262695e+00 9.451092481613159180e-01
4.025000000000000000e+03 5.394132614135742188e+01 -5.979341030120849609e+00 4.158103942871093750e+00 9.484176635742187500e+00 4.092684268951416016e+00 2.400602698326110840e-01
4.026000000000000000e+03 5.190260314941406250e+01 8.023211359977722168e-01 2.189182490110397339e-01 1.025847721099853516e+01 3.143218755722045898e+00 3.936485648155212402e-01
4.027000000000000000e+03 5.511576080322265625e+01 -2.737759590148925781e+00 2.421115636825561523e+00 9.369507789611816406e+00 3.537186861038208008e+00 1.144330024719238281e+00
4.028000000000000000e+03 5.554782485961914062e+01 -1.956159114837646484e+00 1.986909151077270508e+00 9.268162727355957031e+00 3.376521587371826172e+00 1.160131335258483887e+00
4.029000000000000000e+03 5.495149612426757812e+01 -1.011104679107666016e+01 2.323618888854980469e+00 9.449212074279785156e+00 3.531849145889282227e+00 -1.111868858337402344e+00
4.030000000000000000e+03 5.434098434448242188e+01 -9.305426597595214844e+00 2.882984399795532227e+00 9.654763221740722656e+00 3.761324167251586914e+00 -1.099904656410217285e+00
4.031000000000000000e+03 5.409797668457031250e+01 -1.073085689544677734e+01 2.058917284011840820e+00 9.877415657043457031e+00 3.580899953842163086e+00 -1.218353748321533203e+00
4.032000000000000000e+03 5.697271347045898438e+01 -7.952992916107177734e+00 2.769993066787719727e+00 8.606569290161132812e+00 3.412968635559082031e+00 -4.594720602035522461e-01
4.033000000000000000e+03 5.630592727661132812e+01 -9.424093246459960938e+00 2.480951309204101562e+00 8.900722503662109375e+00 3.414502382278442383e+00 -8.831422924995422363e-01
4.034000000000000000e+03 5.714796829223632812e+01 -8.392401695251464844e+00 2.609072208404541016e+00 8.599390983581542969e+00 3.362539052963256836e+00 -5.725632309913635254e-01
4.035000000000000000e+03 5.705665206909179688e+01 -7.411756515502929688e+00 2.822743177413940430e+00 8.562786102294921875e+00 3.415658950805664062e+00 -3.034956157207489014e-01
4.036000000000000000e+03 5.561543655395507812e+01 -3.150699615478515625e+00 2.562843561172485352e+00 9.137677192687988281e+00 3.510156393051147461e+00 1.031794309616088867e+00
4.037000000000000000e+03 5.732133865356445312e+01 -6.193143844604492188e+00 2.798052787780761719e+00 8.482808113098144531e+00 3.384258270263671875e+00 9.108430147171020508e-02
4.038000000000000000e+03 5.472439575195312500e+01 -7.275365591049194336e-01 1.378313064575195312e+00 9.593241691589355469e+00 3.291466474533081055e+00 1.166609168052673340e+00
4.039000000000000000e+03 5.488772583007812500e+01 -6.527017593383789062e+00 3.713464021682739258e+00 9.115485191345214844e+00 3.848684787750244141e+00 -3.497876971960067749e-02
4.040000000000000000e+03 5.726130294799804688e+01 -4.916484355926513672e+00 2.679566144943237305e+00 8.530079841613769531e+00 3.362893819808959961e+00 4.631614983081817627e-01
4.041000000000000000e+03 5.118218231201171875e+01 -1.590655994415283203e+01 -4.868758618831634521e-01 9.446754455566406250e+00 2.687963724136352539e+00 3.629220426082611084e-01
4.042000000000000000e+03 4.988695526123046875e+01 2.415814161300659180e+00 -3.799620866775512695e-01 9.483374595642089844e+00 2.731023788452148438e+00 -7.445753812789916992e-01
4.043000000000000000e+03 5.361873245239257812e+01 -1.327725601196289062e+01 5.878391861915588379e-01 9.937368392944335938e+00 3.157562255859375000e+00 -8.353725075721740723e-01
4.044000000000000000e+03 5.371889877319335938e+01 -1.389766979217529297e+01 3.820812702178955078e-01 9.768847465515136719e+00 3.045278787612915039e+00 -7.307376861572265625e-01
4.045000000000000000e+03 5.428881072998046875e+01 -1.383445453643798828e+01 5.131630301475524902e-01 9.652846336364746094e+00 3.049802780151367188e+00 -8.562854528427124023e-01
4.046000000000000000e+03 5.465024566650390625e+01 -7.594422996044158936e-02 1.075289487838745117e+00 9.598122596740722656e+00 3.202023506164550781e+00 1.098998546600341797e+00
4.047000000000000000e+03 5.010445404052734375e+01 3.226447105407714844e+00 -4.478198289871215820e-01 9.147205352783203125e+00 2.609815597534179688e+00 -6.881939172744750977e-01
4.048000000000000000e+03 4.929008865356445312e+01 3.315200567245483398e+00 -4.633875191211700439e-01 8.879753112792968750e+00 2.524909734725952148e+00 -1.037569284439086914e+00
4.049000000000000000e+03 5.119564437866210938e+01 5.106490612030029297e+00 -5.326392650604248047e-01 8.698563575744628906e+00 2.449777364730834961e+00 -3.750717043876647949e-01
4.050000000000000000e+03 5.113592529296875000e+01 1.966404199600219727e+00 -2.034059464931488037e-01 9.828272819519042969e+00 2.887459993362426758e+00 -1.707670241594314575e-01
4.051000000000000000e+03 5.104055786132812500e+01 6.141503810882568359e+00 -5.974735021591186523e-01 8.375954627990722656e+00 2.333544492721557617e+00 -4.483777284622192383e-01
4.052000000000000000e+03 5.324047088623046875e+01 -1.536819267272949219e+01 -1.281770467758178711e-01 9.562113761901855469e+00 2.830180883407592773e+00 -3.754483461380004883e-01
4.053000000000000000e+03 5.369029235839843750e+01 -1.494149589538574219e+01 7.972027361392974854e-02 9.608153343200683594e+00 2.906362056732177734e+00 -5.767796635627746582e-01
4.054000000000000000e+03 5.200538635253906250e+01 -1.342356491088867188e+01 1.948277950286865234e-01 1.040093612670898438e+01 3.178729057312011719e+00 -4.172474145889282227e-01
4.055000000000000000e+03 5.024471282958984375e+01 5.000916957855224609e+00 -5.485485196113586426e-01 8.558475494384765625e+00 2.402978181838989258e+00 -6.796301007270812988e-01
4.056000000000000000e+03 5.419150924682617188e+01 1.043925881385803223e+00 6.135512590408325195e-01 9.640908241271972656e+00 3.076338052749633789e+00 9.080638289451599121e-01
4.057000000000000000e+03 5.210276794433593750e+01 -1.667752838134765625e+01 -4.749391078948974609e-01 9.232778549194335938e+00 2.627351760864257812e+00 1.147684454917907715e-01
4.058000000000000000e+03 5.165684127807617188e+01 7.662817955017089844e+00 -6.408997774124145508e-01 8.133742332458496094e+00 2.247852563858032227e+00 -3.218410313129425049e-01
4.059000000000000000e+03 5.053549957275390625e+01 2.156156301498413086e+00 -3.025947213172912598e-01 9.746446609497070312e+00 2.833155632019042969e+00 -4.197026789188385010e-01
4.060000000000000000e+03 4.636325073242187500e+01 1.816820716857910156e+01 -4.858860075473785400e-01 5.542012691497802734e+00 1.516838073730468750e+00 -6.408918499946594238e-01
4.061000000000000000e+03 4.383804702758789062e+01 1.916127967834472656e+01 -3.615880310535430908e-01 4.867451667785644531e+00 1.351759076118469238e+00 -6.903579235076904297e-01
4.062000000000000000e+03 5.260467529296875000e+01 1.662298393249511719e+01 -6.630918383598327637e-01 6.896231651306152344e+00 1.869941830635070801e+00 -1.722275167703628540e-01
4.063000000000000000e+03 5.071011352539062500e+01 1.674831962585449219e+01 -6.347543001174926758e-01 6.573394775390625000e+00 1.781592130661010742e+00 -3.407751917839050293e-01
4.064000000000000000e+03 3.135312461853027344e+01 2.225231170654296875e+01 2.040656097233295441e-02 1.958823204040527344e+00 5.937688946723937988e-01 -4.782350361347198486e-01
4.065000000000000000e+03 4.082401275634765625e+01 -3.036960029602050781e+01 -5.148281529545783997e-02 3.996635913848876953e+00 1.183545947074890137e+00 7.556778788566589355e-01
4.066000000000000000e+03 4.527674865722656250e+01 -2.947474861145019531e+01 -4.051440060138702393e-01 5.366429328918457031e+00 1.488385677337646484e+00 7.112778425216674805e-01
4.067000000000000000e+03 5.351109695434570312e+01 -4.942156314849853516e+00 4.034503459930419922e+00 9.792541503906250000e+00 4.148113250732421875e+00 8.062506914138793945e-01
4.068000000000000000e+03 5.437818527221679688e+01 -3.918408155441284180e+00 3.166161060333251953e+00 9.527517318725585938e+00 3.808103561401367188e+00 1.038851022720336914e+00
4.069000000000000000e+03 5.394182205200195312e+01 -4.840317726135253906e+00 3.784155368804931641e+00 9.595747947692871094e+00 4.013971328735351562e+00 7.882397174835205078e-01
4.070000000000000000e+03 5.639325714111328125e+01 -8.126736640930175781e+00 2.883712530136108398e+00 8.755310058593750000e+00 3.491706848144531250e+00 -5.445510745048522949e-01
4.071000000000000000e+03 5.506485366821289062e+01 -9.669009208679199219e+00 2.544093847274780273e+00 9.360637664794921875e+00 3.571419477462768555e+00 -1.059458732604980469e+00
4.072000000000000000e+03 5.460649108886718750e+01 -9.750324249267578125e+00 2.574661016464233398e+00 9.576690673828125000e+00 3.645405530929565430e+00 -1.128697156906127930e+00
4.073000000000000000e+03 5.176220321655273438e+01 -1.372377681732177734e+01 3.932807967066764832e-02 1.034723281860351562e+01 3.115968227386474609e+00 -2.509440481662750244e-01
4.074000000000000000e+03 5.154568862915039062e+01 -1.439959239959716797e+01 -1.937054395675659180e-01 1.006718730926513672e+01 2.962044477462768555e+00 -8.191700093448162079e-03
4.075000000000000000e+03 5.191495513916015625e+01 -1.581063556671142578e+01 -3.877347409725189209e-01 9.532370567321777344e+00 2.743390798568725586e+00 7.329709827899932861e-02
4.076000000000000000e+03 5.155669021606445312e+01 -9.708173573017120361e-03 4.385564327239990234e-01 1.066781330108642578e+01 3.331910848617553711e+00 4.590740501880645752e-01
4.077000000000000000e+03 5.536749267578125000e+01 -4.928752899169921875e+00 3.280410766601562500e+00 9.030086517333984375e+00 3.693149089813232422e+00 6.033844947814941406e-01
4.078000000000000000e+03 5.436521911621093750e+01 -6.083340167999267578e+00 3.968847274780273438e+00 9.320693969726562500e+00 3.986862182617187500e+00 1.748195737600326538e-01
4.079000000000000000e+03 5.544876098632812500e+01 -5.929122447967529297e+00 3.455614328384399414e+00 8.952305793762207031e+00 3.722376108169555664e+00 2.142423689365386963e-01
4.080000000000000000e+03 5.441837692260742188e+01 -5.185345649719238281e+00 3.732088565826416016e+00 9.345780372619628906e+00 3.923360586166381836e+00 5.847566723823547363e-01
4.081000000000000000e+03 5.416072845458984375e+01 -2.466321229934692383e+00 2.359494924545288086e+00 9.794945716857910156e+00 3.646332263946533203e+00 1.247891783714294434e+00
4.082000000000000000e+03 5.410302734375000000e+01 -1.408266663551330566e+00 1.689231753349304199e+00 9.860010147094726562e+00 3.464772462844848633e+00 1.212299942970275879e+00
4.083000000000000000e+03 5.221191787719726562e+01 -3.238759636878967285e-01 7.560810446739196777e-01 1.053455162048339844e+01 3.387189865112304688e+00 7.624599337577819824e-01
4.084000000000000000e+03 5.118655014038085938e+01 4.040503025054931641e+00 -4.472694396972656250e-01 9.050919532775878906e+00 2.581095218658447266e+00 -3.166292905807495117e-01
4.085000000000000000e+03 5.341097259521484375e+01 -1.269036579132080078e+01 8.105307817459106445e-01 1.010652637481689453e+01 3.275117158889770508e+00 -9.123836755752563477e-01
4.086000000000000000e+03 5.722175216674804688e+01 -6.808550834655761719e+00 2.813644409179687500e+00 8.505652427673339844e+00 3.395788908004760742e+00 -1.057225093245506287e-01
4.087000000000000000e+03 5.664655303955078125e+01 -5.682929039001464844e+00 2.986395597457885742e+00 8.634688377380371094e+00 3.486325263977050781e+00 2.598482668399810791e-01
4.088000000000000000e+03 5.566446685791015625e+01 -9.616524696350097656e+00 2.505734443664550781e+00 9.130064964294433594e+00 3.490739822387695312e+00 -9.799251556396484375e-01
4.089000000000000000e+03 5.091687011718750000e+01 3.047836065292358398e+00 -3.749956190586090088e-01 9.378716468811035156e+00 2.701116323471069336e+00 -3.269056975841522217e-01
4.090000000000000000e+03 5.464007186889648438e+01 -2.353132724761962891e+00 2.249304771423339844e+00 9.571461677551269531e+00 3.546229839324951172e+00 1.198769688606262207e+00
4.091000000000000000e+03 5.411611557006835938e+01 -1.951659917831420898e+00 2.022827863693237305e+00 9.854157447814941406e+00 3.563095569610595703e+00 1.253300547599792480e+00
4.092000000000000000e+03 5.443178176879882812e+01 5.297040343284606934e-01 7.946128845214843750e-01 9.635660171508789062e+00 3.129081964492797852e+00 1.008580446243286133e+00
4.093000000000000000e+03 5.350465393066406250e+01 -9.814518690109252930e-01 1.360541343688964844e+00 1.013328933715820312e+01 3.448149204254150391e+00 1.143942236900329590e+00
4.094000000000000000e+03 5.298911666870117188e+01 1.245586514472961426e+00 3.143473565578460693e-01 9.862050056457519531e+00 3.052919149398803711e+00 6.313850283622741699e-01
4.095000000000000000e+03 5.352138519287109375e+01 -1.183284568786621094e+01 1.293624281883239746e+00 1.016741752624511719e+01 3.438312292098999023e+00 -1.091226577758789062e+00
4.096000000000000000e+03 5.298556900024414062e+01 -1.289943981170654297e+01 6.418811082839965820e-01 1.024481010437011719e+01 3.266007184982299805e+00 -8.115971088409423828e-01
4.097000000000000000e+03 5.643852996826171875e+01 -4.555617332458496094e+00 2.831971645355224609e+00 8.752570152282714844e+00 3.475362539291381836e+00 6.289823651313781738e-01
4.098000000000000000e+03 5.558202743530273438e+01 -3.627665996551513672e+00 2.766206979751586914e+00 9.099658012390136719e+00 3.559759378433227539e+00 9.457939863204956055e-01
4.099000000000000000e+03 5.384946060180664062e+01 2.878309488296508789e-01 8.208370208740234375e-01 9.847999572753906250e+00 3.200650930404663086e+00 9.829058647155761719e-01
4.100000000000000000e+03 5.407952117919921875e+01 -8.398823142051696777e-01 1.363266825675964355e+00 9.868527412414550781e+00 3.369538307189941406e+00 1.158423304557800293e+00
4.101000000000000000e+03 5.352740097045898438e+01 1.452134490013122559e+00 3.493408560752868652e-01 9.726274490356445312e+00 3.022684574127197266e+00 7.200112938880920410e-01
4.102000000000000000e+03 5.220626831054687500e+01 4.060619831085205078e+00 -3.699823021888732910e-01 9.136452674865722656e+00 2.629941225051879883e+00 2.505595795810222626e-03
4.103000000000000000e+03 5.151648330688476562e+01 2.647934913635253906e+00 -2.881232500076293945e-01 9.561127662658691406e+00 2.781901359558105469e+00 -9.547622501850128174e-02
4.104000000000000000e+03 5.261321640014648438e+01 -1.561585426330566406e+01 -2.541943490505218506e-01 9.551023483276367188e+00 2.789048910140991211e+00 -1.810384392738342285e-01
4.105000000000000000e+03 5.209062957763671875e+01 -1.418195724487304688e+01 -2.904213964939117432e-02 1.010017395019531250e+01 3.021339416503906250e+00 -2.661554515361785889e-01
4.106000000000000000e+03 2.840827178955078125e+01 2.060888099670410156e+01 1.441584248095750809e-02 1.334258913993835449e+00 4.046024382114410400e-01 -3.821114301681518555e-01
4.107000000000000000e+03 3.074894142150878906e+01 1.638552665710449219e+01 -7.546418346464633942e-03 1.539387702941894531e+00 4.595523774623870850e-01 -4.358641803264617920e-01
4.108000000000000000e+03 5.077230072021484375e+01 1.320889091491699219e+01 -6.679833531379699707e-01 6.982147693634033203e+00 1.894249320030212402e+00 -4.203797578811645508e-01
4.109000000000000000e+03 4.830110168457031250e+01 1.851545715332031250e+01 -5.492696166038513184e-01 5.907969474792480469e+00 1.607609868049621582e+00 -5.077192783355712891e-01
4.110000000000000000e+03 5.437251281738281250e+01 -4.779405117034912109e+00 3.589678049087524414e+00 9.413964271545410156e+00 3.901092767715454102e+00 7.476668953895568848e-01
4.111000000000000000e+03 5.405739593505859375e+01 -3.228862762451171875e+00 2.831426382064819336e+00 9.766202926635742188e+00 3.779288768768310547e+00 1.201823234558105469e+00
4.112000000000000000e+03 5.423188400268554688e+01 -9.959535598754882812e+00 2.506006717681884766e+00 9.750369071960449219e+00 3.676912784576416016e+00 -1.183195829391479492e+00
4.113000000000000000e+03 5.363325119018554688e+01 -2.584964752197265625e+00 2.435183286666870117e+00 1.005713176727294922e+01 3.747694492340087891e+00 1.281378626823425293e+00
4.114000000000000000e+03 5.490695571899414062e+01 -5.549237251281738281e+00 3.630782365798950195e+00 9.147626876831054688e+00 3.833522796630859375e+00 4.016238152980804443e-01
4.115000000000000000e+03 5.516874694824218750e+01 -4.540479183197021484e+00 3.199744224548339844e+00 9.124942779541015625e+00 3.697406291961669922e+00 7.414087653160095215e-01
4.116000000000000000e+03 5.550510787963867188e+01 -7.409460067749023438e+00 3.342254877090454102e+00 8.947957038879394531e+00 3.687063694000244141e+00 -3.708412349224090576e-01
4.117000000000000000e+03 5.562337112426757812e+01 -7.876252174377441406e+00 3.175720691680908203e+00 8.957407951354980469e+00 3.639938592910766602e+00 -5.403392314910888672e-01
4.118000000000000000e+03 5.399784088134765625e+01 -2.696841955184936523e-01 1.080072641372680664e+00 9.869313240051269531e+00 3.284815788269042969e+00 1.083176374435424805e+00
4.119000000000000000e+03 5.367628097534179688e+01 8.485369682312011719e-01 5.756456255912780762e-01 9.792584419250488281e+00 3.110469102859497070e+00 8.565113544464111328e-01
4.120000000000000000e+03 5.602217483520507812e+01 -6.829323768615722656e+00 3.231553316116333008e+00 8.790195465087890625e+00 3.606524467468261719e+00 -1.467297524213790894e-01
4.121000000000000000e+03 5.603110122680664062e+01 -6.326913833618164062e+00 3.240742921829223633e+00 8.781211853027343750e+00 3.606586456298828125e+00 4.691385850310325623e-02
4.122000000000000000e+03 5.286326217651367188e+01 -6.383280754089355469e-01 1.065672993659973145e+00 1.035231494903564453e+01 3.425396442413330078e+00 9.929585456848144531e-01
4.123000000000000000e+03 5.328458023071289062e+01 8.831720054149627686e-02 8.088298439979553223e-01 1.005431556701660156e+01 3.258943557739257812e+00 9.252742528915405273e-01
4.124000000000000000e+03 5.664432144165039062e+01 -6.244096279144287109e+00 3.020513057708740234e+00 8.623855590820312500e+00 3.493310689926147461e+00 7.292554527521133423e-02
4.125000000000000000e+03 5.246524429321289062e+01 -1.372310256958007812e+01 2.018793374300003052e-01 1.015530586242675781e+01 3.107155561447143555e+00 -4.856179058551788330e-01
4.126000000000000000e+03 5.602178192138671875e+01 -4.252738475799560547e+00 2.865949630737304688e+00 8.894592285156250000e+00 3.528162479400634766e+00 7.446278333663940430e-01
4.127000000000000000e+03 5.658996200561523438e+01 -5.111929893493652344e+00 2.913183689117431641e+00 8.673790931701660156e+00 3.476092338562011719e+00 4.485552608966827393e-01
4.128000000000000000e+03 5.544293975830078125e+01 -4.128183364868164062e+00 2.984976768493652344e+00 9.093271255493164062e+00 3.623474359512329102e+00 8.386320471763610840e-01
4.129000000000000000e+03 5.510504531860351562e+01 -3.147300958633422852e+00 2.650472402572631836e+00 9.333248138427734375e+00 3.595116138458251953e+00 1.096580982208251953e+00
4.130000000000000000e+03 5.601931762695312500e+01 -7.293819904327392578e+00 3.193027257919311523e+00 8.806879997253417969e+00 3.599972248077392578e+00 -3.052454292774200439e-01
4.131000000000000000e+03 5.309009552001953125e+01 -1.397562122344970703e+01 2.415491640567779541e-01 9.955308914184570312e+00 3.059057235717773438e+00 -6.068713665008544922e-01
4.132000000000000000e+03 5.486946105957031250e+01 -5.103836059570312500e+00 3.536884546279907227e+00 9.203504562377929688e+00 3.822116851806640625e+00 5.839074850082397461e-01
4.133000000000000000e+03 5.542735290527343750e+01 -5.428865909576416016e+00 3.397109031677246094e+00 8.975950241088867188e+00 3.711917877197265625e+00 4.098022878170013428e-01
4.134000000000000000e+03 5.174016952514648438e+01 -1.505093002319335938e+01 -2.906911075115203857e-01 9.807686805725097656e+00 2.855098724365234375e+00 3.735381364822387695e-02
4.135000000000000000e+03 5.355963897705078125e+01 -1.518052577972412109e+00 1.702161312103271484e+00 1.013058948516845703e+01 3.549825429916381836e+00 1.225513577461242676e+00
4.136000000000000000e+03 5.304603958129882812e+01 -1.630680203437805176e+00 1.699709534645080566e+00 1.041527557373046875e+01 3.634495496749877930e+00 1.214247465133666992e+00
4.137000000000000000e+03 5.229320144653320312e+01 2.982169389724731445e+00 -2.250138372182846069e-01 9.472344398498535156e+00 2.774199247360229492e+00 1.484450250864028931e-01
4.138000000000000000e+03 5.115824127197265625e+01 1.229078888893127441e+00 -4.429559782147407532e-02 1.014413928985595703e+01 3.029953002929687500e+00 -2.073884569108486176e-02
4.139000000000000000e+03 5.277776718139648438e+01 1.867435097694396973e+00 8.839222788810729980e-02 9.753270149230957031e+00 2.952498674392700195e+00 4.549103975296020508e-01
4.140000000000000000e+03 5.231713867187500000e+01 2.171024799346923828e+00 -4.139046743512153625e-02 9.750960350036621094e+00 2.912870883941650391e+00 2.881786823272705078e-01
4.141000000000000000e+03 5.659578704833984375e+01 -6.790961742401123047e+00 3.015580415725708008e+00 8.641324996948242188e+00 3.497071743011474609e+00 -1.094681844115257263e-01
4.142000000000000000e+03 5.230556488037109375e+01 1.578086853027343750e+00 7.995773851871490479e-02 9.965014457702636719e+00 3.013491630554199219e+00 3.836990594863891602e-01
4.143000000000000000e+03 4.881357192993164062e+01 1.637356185913085938e+01 -5.819534063339233398e-01 6.195384025573730469e+00 1.684029221534729004e+00 -5.316061377525329590e-01
4.144000000000000000e+03 4.460208511352539062e+01 2.244342613220214844e+01 -3.773204088211059570e-01 4.967782497406005859e+00 1.377138614654541016e+00 -5.287179350852966309e-01
4.145000000000000000e+03 4.081608963012695312e+01 1.934657287597656250e+01 -2.111052721738815308e-01 4.049736499786376953e+00 1.151589393615722656e+00 -7.232173681259155273e-01
4.146000000000000000e+03 5.056729125976562500e+01 1.907017898559570312e+01 -6.046334505081176758e-01 6.340339660644531250e+00 1.720711827278137207e+00 -3.105413913726806641e-01
4.147000000000000000e+03 8.689905166625976562e+00 3.844473266601562500e+01 1.571220904588699341e-01 -4.123681485652923584e-01 -7.657381147146224976e-02 1.087122559547424316e-01
4.148000000000000000e+03 5.479940795898437500e+01 -4.380462169647216797e+00 3.246513128280639648e+00 9.294930458068847656e+00 3.762433052062988281e+00 8.538173437118530273e-01
4.149000000000000000e+03 5.432656478881835938e+01 -2.881602525711059570e+00 2.586156606674194336e+00 9.682971954345703125e+00 3.680738449096679688e+00 1.203070640563964844e+00
4.150000000000000000e+03 5.546165847778320312e+01 -6.924524784088134766e+00 3.443028926849365234e+00 8.943702697753906250e+00 3.716019392013549805e+00 -1.911060959100723267e-01
4.151000000000000000e+03 5.649746322631835938e+01 -7.318684577941894531e+00 3.001998186111450195e+00 8.678433418273925781e+00 3.504129409790039062e+00 -2.967777848243713379e-01
4.152000000000000000e+03 5.259815597534179688e+01 4.435576200485229492e-01 5.158842802047729492e-01 1.018385982513427734e+01 3.209923267364501953e+00 6.921075582504272461e-01
4.153000000000000000e+03 5.590348434448242188e+01 -4.776841640472412109e+00 3.091379165649414062e+00 8.893741607666015625e+00 3.595536231994628906e+00 6.030234694480895996e-01
4.154000000000000000e+03 5.206296157836914062e+01 2.244255244731903076e-01 4.788775146007537842e-01 1.041848945617675781e+01 3.269210100173950195e+00 5.797327756881713867e-01
4.155000000000000000e+03 5.341075134277343750e+01 -4.502688646316528320e-01 1.073646903038024902e+00 1.010360622406005859e+01 3.353175878524780273e+00 1.043081164360046387e+00
4.156000000000000000e+03 5.273639297485351562e+01 -1.125412359833717346e-01 7.823564410209655762e-01 1.029700183868408203e+01 3.323807477951049805e+00 8.521909117698669434e-01
4.157000000000000000e+03 5.314092254638671875e+01 6.519322395324707031e-01 5.463489890098571777e-01 9.989877700805664062e+00 3.160868167877197266e+00 7.868992090225219727e-01
4.158000000000000000e+03 5.170697402954101562e+01 2.043248653411865234e+00 -1.026175990700721741e-01 9.798747062683105469e+00 2.908838987350463867e+00 1.128836125135421753e-01
4.159000000000000000e+03 5.176253509521484375e+01 1.411395549774169922e+00 3.881468996405601501e-02 1.002353286743164062e+01 3.018704175949096680e+00 2.384030222892761230e-01
4.160000000000000000e+03 5.197856140136718750e+01 1.305515098571777344e+01 -6.837782263755798340e-01 7.210629940032958984e+00 1.958055496215820312e+00 -2.661032080650329590e-01
4.161000000000000000e+03 5.545345687866210938e+01 -6.428741931915283203e+00 3.471830129623413086e+00 8.943194389343261719e+00 3.724507331848144531e+00 8.075783844105899334e-04
4.162000000000000000e+03 3.777408599853515625e+01 -2.888388442993164062e+01 1.403906643390655518e-01 3.231600999832153320e+00 1.011597514152526855e+00 7.583695054054260254e-01
4.163000000000000000e+03 6.454383850097656250e+01 2.037202835083007812e+01 -3.754448294639587402e-01 7.760722160339355469e+00 2.215583086013793945e+00 5.340748429298400879e-01
4.164000000000000000e+03 6.080744934082031250e+01 2.116778182983398438e+01 -4.959748089313507080e-01 7.488924026489257812e+00 2.097884654998779297e+00 3.763973414897918701e-01
4.165000000000000000e+03 6.314944458007812500e+01 -2.753876304626464844e+01 -4.867191016674041748e-01 7.864919185638427734e+00 2.213460206985473633e+00 -5.675621628761291504e-01
4.166000000000000000e+03 6.347148513793945312e+01 2.303319358825683594e+01 -4.088531136512756348e-01 7.621968269348144531e+00 2.163934707641601562e+00 4.095798730850219727e-01
4.167000000000000000e+03 6.579132843017578125e+01 2.297340011596679688e+01 -3.368799388408660889e-01 7.780755519866943359e+00 2.233162641525268555e+00 4.634187519550323486e-01
4.168000000000000000e+03 4.565967178344726562e+01 2.017312049865722656e+01 -4.383524358272552490e-01 5.276789665222167969e+00 1.451531171798706055e+00 -5.810298919677734375e-01
4.169000000000000000e+03 2.025420188903808594e+01 -2.293102264404296875e+01 3.658846765756607056e-02 4.977398365736007690e-02 2.590873651206493378e-02 -2.461193501949310303e-01
4.170000000000000000e+03 1.899258232116699219e+01 -2.540158081054687500e+01 1.826237738132476807e-01 1.483921054750680923e-02 5.923889577388763428e-02 -2.328107506036758423e-01
4.171000000000000000e+03 6.755767822265625000e+01 -3.426360321044921875e+01 -3.642876148223876953e-01 7.819586277008056641e+00 2.236589431762695312e+00 -3.479630947113037109e-01
4.172000000000000000e+03 2.714445304870605469e+01 2.844134140014648438e+01 1.627090275287628174e-01 1.346548080444335938e+00 4.527771174907684326e-01 -2.733625173568725586e-01
4.173000000000000000e+03 3.370420074462890625e+01 -2.665340614318847656e+01 3.611622452735900879e-01 1.999243617057800293e+00 7.081217169761657715e-01 5.803939104080200195e-01
4.174000000000000000e+03 1.098304367065429688e+01 3.502581787109375000e+01 2.065179347991943359e-01 -2.969877421855926514e-01 -2.714094705879688263e-02 1.678275018930435181e-01
4.175000000000000000e+03 3.159921836853027344e+01 -2.635945701599121094e+01 3.908466696739196777e-01 1.583257317543029785e+00 5.922311544418334961e-01 4.283753037452697754e-01
4.176000000000000000e+03 3.213191604614257812e+01 -2.423969459533691406e+01 3.920370936393737793e-01 1.478200435638427734e+00 5.610712766647338867e-01 4.494785666465759277e-01
4.177000000000000000e+03 5.470384979248046875e+01 -3.067899322509765625e+01 -7.459279894828796387e-01 7.197751522064208984e+00 1.935546994209289551e+00 2.780000306665897369e-02
4.178000000000000000e+03 3.479146194458007812e+01 2.362752532958984375e+01 -3.907153382897377014e-02 2.717296361923217773e+00 8.034674525260925293e-01 -5.332787632942199707e-01
4.179000000000000000e+03 3.019706153869628906e+01 2.804104042053222656e+01 9.532396495342254639e-02 1.882736682891845703e+00 5.934181809425354004e-01 -3.515945672988891602e-01
4.180000000000000000e+03 2.369388580322265625e+01 -2.618185997009277344e+01 2.932540774345397949e-01 4.727350473403930664e-01 2.297967374324798584e-01 -6.725847721099853516e-02
4.181000000000000000e+03 5.986419677734375000e+01 -2.964498519897460938e+01 -6.300343871116638184e-01 7.685088157653808594e+00 2.116516113281250000e+00 -3.385478258132934570e-01
4.182000000000000000e+03 6.114708709716796875e+01 -3.224826431274414062e+01 -6.222190260887145996e-01 7.625832080841064453e+00 2.101083993911743164e+00 -3.084531724452972412e-01
4.183000000000000000e+03 2.988536071777343750e+01 1.836904716491699219e+01 3.343527670949697495e-03 1.538215398788452148e+00 4.624677002429962158e-01 -4.247630536556243896e-01
4.184000000000000000e+03 1.122904872894287109e+01 -3.443805694580078125e+01 2.346159815788269043e-01 -3.668830990791320801e-01 -3.968013450503349304e-02 -2.176538258790969849e-01
4.185000000000000000e+03 1.628034400939941406e+01 -2.370594024658203125e+01 3.859234973788261414e-02 -2.491842061281204224e-01 -6.317755579948425293e-02 -3.116846084594726562e-01
4.186000000000000000e+03 5.151345443725585938e+01 -3.099448776245117188e+01 -6.868468523025512695e-01 6.647477149963378906e+00 1.788189053535461426e+00 2.802007496356964111e-01
4.187000000000000000e+03 7.633899688720703125e+01 -3.691154479980468750e+01 -6.624553352594375610e-02 8.263433456420898438e+00 2.459156274795532227e+00 -1.134667173027992249e-01
4.188000000000000000e+03 4.931926727294921875e+01 1.459286212921142578e+01 -6.160368919372558594e-01 6.507087707519531250e+00 1.767315268516540527e+00 -5.446833968162536621e-01
4.189000000000000000e+03 1.345722007751464844e+01 3.370313644409179688e+01 2.576831579208374023e-01 -1.879942417144775391e-01 2.090667933225631714e-02 1.575761735439300537e-01
4.190000000000000000e+03 1.531610298156738281e+01 2.992268371582031250e+01 2.583487927913665771e-01 -1.265050619840621948e-01 3.955312073230743408e-02 1.665495485067367554e-01
4.191000000000000000e+03 5.293045425415039062e+01 1.897825622558593750e+01 -6.335030198097229004e-01 6.724243640899658203e+00 1.827222228050231934e+00 -1.208387911319732666e-01
4.192000000000000000e+03 5.827644729614257812e+01 1.920520591735839844e+01 -5.724518895149230957e-01 7.375580310821533203e+00 2.040938615798950195e+00 3.021436929702758789e-01
4.193000000000000000e+03 8.166913032531738281e+00 -4.095698165893554688e+01 1.338924914598464966e-01 -5.719170570373535156e-01 -1.314073652029037476e-01 -4.837700352072715759e-02
4.194000000000000000e+03 1.360274219512939453e+01 -3.277175140380859375e+01 2.731126844882965088e-01 -2.671031653881072998e-01 1.802857150323688984e-03 -2.353040277957916260e-01
4.195000000000000000e+03 2.414528083801269531e+01 2.847766494750976562e+01 2.049376368522644043e-01 8.583215475082397461e-01 3.189777433872222900e-01 -1.874467730522155762e-01
4.196000000000000000e+03 1.251599311828613281e+01 -3.727954483032226562e+01 2.684310972690582275e-01 -2.531808614730834961e-01 4.575075116008520126e-03 -1.355042904615402222e-01
4.197000000000000000e+03 2.333168601989746094e+01 -3.751180267333984375e+01 4.232788383960723877e-01 7.780802845954895020e-01 3.604077398777008057e-01 -8.358480408787727356e-04
4.198000000000000000e+03 4.185986328125000000e+01 -3.715182113647460938e+01 -1.991684585809707642e-01 4.359438419342041016e+00 1.248080968856811523e+00 3.123713731765747070e-01
4.199000000000000000e+03 3.701385498046875000e+01 -3.752076339721679688e+01 7.630829513072967529e-02 3.241219520568847656e+00 9.952583312988281250e-01 2.539226114749908447e-01
4.200000000000000000e+03 4.728775024414062500e+01 -4.075104141235351562e+01 -4.760060310363769531e-01 5.493772506713867188e+00 1.505329966545104980e+00 8.019587397575378418e-02
4.201000000000000000e+03 4.689952850341796875e+01 -3.717675781250000000e+01 -4.675228595733642578e-01 5.466383457183837891e+00 1.499658226966857910e+00 2.618021368980407715e-01
4.202000000000000000e+03 5.626657104492187500e+01 -3.736222839355468750e+01 -6.796306371688842773e-01 7.034542560577392578e+00 1.906473636627197266e+00 -2.457521483302116394e-02
4.203000000000000000e+03 5.660988235473632812e+01 3.633413314819335938e+01 -3.527851998805999756e-01 6.539937973022460938e+00 1.856145858764648438e+00 2.968922816216945648e-02
4.204000000000000000e+03 6.140152740478515625e+01 3.624919509887695312e+01 -2.988000214099884033e-01 7.134882450103759766e+00 2.050824642181396484e+00 9.434639662504196167e-02
4.205000000000000000e+03 6.334742736816406250e+01 -3.513549041748046875e+01 -5.303213000297546387e-01 7.655431747436523438e+00 2.137533187866210938e+00 -2.544793188571929932e-01
4.206000000000000000e+03 6.597385406494140625e+01 3.642426300048828125e+01 -2.046951055526733398e-01 7.717457771301269531e+00 2.253828763961791992e+00 1.231946870684623718e-01
4.207000000000000000e+03 6.681378936767578125e+01 -3.715929412841796875e+01 -3.996735215187072754e-01 7.769945621490478516e+00 2.211081504821777344e+00 -2.199702262878417969e-01
4.208000000000000000e+03 4.311725234985351562e+01 3.703726959228515625e+01 -1.933808922767639160e-01 4.313572406768798828e+00 1.236057519912719727e+00 -1.388072520494461060e-01
4.209000000000000000e+03 3.658119964599609375e+01 3.676596450805664062e+01 -2.298194356262683868e-02 3.163676023483276367e+00 9.422082304954528809e-01 -1.761824041604995728e-01
4.210000000000000000e+03 1.877632141113281250e+01 3.724702835083007812e+01 3.120847642421722412e-01 3.562142252922058105e-01 2.004896998405456543e-01 1.347942184656858444e-02
4.211000000000000000e+03 2.313212013244628906e+01 3.770894241333007812e+01 2.923574447631835938e-01 9.156700968742370605e-01 3.624082505702972412e-01 -4.328191652894020081e-02
4.212000000000000000e+03 1.543350505828857422e+01 3.576864242553710938e+01 2.835640907287597656e-01 3.143858537077903748e-02 9.450080990791320801e-02 8.920671045780181885e-02
4.213000000000000000e+03 3.554476165771484375e+01 -2.736917495727539062e+01 3.048645555973052979e-01 2.441259860992431641e+00 8.238373398780822754e-01 6.879826784133911133e-01
4.214000000000000000e+03 1.543087863922119141e+01 -3.069977951049804688e+01 2.856615781784057617e-01 -1.655557900667190552e-01 3.603173792362213135e-02 -2.469894438982009888e-01
4.215000000000000000e+03 1.572885227203369141e+01 -3.515442276000976562e+01 3.361221551895141602e-01 -5.127847567200660706e-02 8.545310050249099731e-02 -1.488845795392990112e-01
4.216000000000000000e+03 2.079945945739746094e+01 -2.499847793579101562e+01 1.751949936151504517e-01 1.415820121765136719e-01 9.503310173749923706e-02 -1.809472739696502686e-01
4.217000000000000000e+03 6.531468963623046875e+01 2.971770477294921875e+01 -2.948538661003112793e-01 7.624173164367675781e+00 2.198795795440673828e+00 2.709112763404846191e-01
4.218000000000000000e+03 1.938957595825195312e+01 -2.734166526794433594e+01 2.773215174674987793e-01 1.044465899467468262e-01 1.145304366946220398e-01 -1.927097588777542114e-01
4.219000000000000000e+03 2.921497917175292969e+01 -2.215716743469238281e+01 3.192164897918701172e-01 8.658111095428466797e-01 3.555082976818084717e-01 1.495456695556640625e-01
4.220000000000000000e+03 1.508861732482910156e+01 -2.730324554443359375e+01 2.100741714239120483e-01 -2.646340131759643555e-01 -1.636794582009315491e-02 -2.998405992984771729e-01
4.221000000000000000e+03 3.224678039550781250e+01 2.463975334167480469e+01 2.638432942330837250e-02 2.209972620010375977e+00 6.709070801734924316e-01 -4.597593247890472412e-01
4.222000000000000000e+03 5.537946319580078125e+01 -3.398255157470703125e+01 -7.011196613311767578e-01 7.075135707855224609e+00 1.912204861640930176e+00 4.529626748990267515e-04
4.223000000000000000e+03 4.318838500976562500e+01 2.509985923767089844e+01 -3.008342385292053223e-01 4.554795265197753906e+00 1.276188254356384277e+00 -4.560897946357727051e-01
4.224000000000000000e+03 4.088161087036132812e+01 2.296892738342285156e+01 -2.251183986663818359e-01 4.026995658874511719e+00 1.140563130378723145e+00 -5.784938931465148926e-01
4.225000000000000000e+03 3.873032760620117188e+01 2.474668312072753906e+01 -1.520819813013076782e-01 3.579792976379394531e+00 1.028313279151916504e+00 -5.389508605003356934e-01
4.226000000000000000e+03 2.958199310302734375e+01 2.535207366943359375e+01 8.339678496122360229e-02 1.704804778099060059e+00 5.364604592323303223e-01 -3.854530155658721924e-01
4.227000000000000000e+03 4.080030822753906250e+01 -3.358671188354492188e+01 -1.118188425898551941e-01 4.097056865692138672e+00 1.195571422576904297e+00 5.425814986228942871e-01
4.228000000000000000e+03 6.271236419677734375e+01 2.899751472473144531e+01 -3.584676086902618408e-01 7.401361465454101562e+00 2.112868309020996094e+00 2.351192682981491089e-01
4.229000000000000000e+03 2.014346313476562500e+01 3.401551437377929688e+01 3.091408908367156982e-01 4.646140933036804199e-01 2.321264892816543579e-01 -1.682471483945846558e-02
4.230000000000000000e+03 2.864750671386718750e+01 -2.845380020141601562e+01 3.992900848388671875e-01 1.232039093971252441e+00 4.893987476825714111e-01 2.019332200288772583e-01
4.231000000000000000e+03 5.896416854858398438e+01 2.163305664062500000e+01 -5.421929359436035156e-01 7.298637866973876953e+00 2.026933431625366211e+00 2.901947200298309326e-01
4.232000000000000000e+03 2.365763473510742188e+01 3.450132369995117188e+01 2.749809324741363525e-01 9.242625236511230469e-01 3.597730398178100586e-01 -8.699100464582443237e-02
4.233000000000000000e+03 4.991348648071289062e+01 2.137302017211914062e+01 -5.486474037170410156e-01 6.052788257598876953e+00 1.651242256164550781e+00 -3.060587346553802490e-01
4.234000000000000000e+03 4.770590209960937500e+01 2.083138465881347656e+01 -5.000024437904357910e-01 5.671550273895263672e+00 1.551464438438415527e+00 -4.638835787773132324e-01
4.235000000000000000e+03 4.729256820678710938e+01 -3.370757293701171875e+01 -4.875587821006774902e-01 5.646648406982421875e+00 1.547726869583129883e+00 4.264485538005828857e-01
4.236000000000000000e+03 5.366499328613281250e+01 2.159270477294921875e+01 -5.927607417106628418e-01 6.645091056823730469e+00 1.815699219703674316e+00 -4.844201728701591492e-02
4.237000000000000000e+03 6.018504333496093750e+01 2.337712669372558594e+01 -4.858953058719635010e-01 7.354882717132568359e+00 2.060696363449096680e+00 2.991306185722351074e-01
4.238000000000000000e+03 5.178134155273437500e+01 -3.745464324951171875e+01 -6.500239372253417969e-01 6.439243793487548828e+00 1.736765861511230469e+00 1.148680374026298523e-01
4.239000000000000000e+03 3.143645477294921875e+01 -2.878572082519531250e+01 3.771762847900390625e-01 1.771435379981994629e+00 6.445835232734680176e-01 3.807650804519653320e-01
4.240000000000000000e+03 6.484517669677734375e+01 2.440170288085937500e+01 -3.523645997047424316e-01 7.679160118103027344e+00 2.198038578033447266e+00 3.958247900009155273e-01
4.241000000000000000e+03 6.378292846679687500e+01 2.638752555847167969e+01 -3.445124924182891846e-01 7.560163497924804688e+00 2.164695262908935547e+00 3.239272832870483398e-01
4.242000000000000000e+03 1.770794296264648438e+01 -3.226647949218750000e+01 3.596864342689514160e-01 6.899091601371765137e-02 1.286032050848007202e-01 -1.666375398635864258e-01
4.243000000000000000e+03 2.585194396972656250e+01 -2.767413139343261719e+01 3.711440861225128174e-01 7.907177209854125977e-01 3.485585451126098633e-01 5.928412079811096191e-02
4.244000000000000000e+03 2.341742324829101562e+01 -2.326622962951660156e+01 1.543114483356475830e-01 3.384251296520233154e-01 1.478209644556045532e-01 -1.708546727895736694e-01
4.245000000000000000e+03 4.631124114990234375e+01 2.984989547729492188e+01 -3.246688544750213623e-01 5.023886680603027344e+00 1.409765362739562988e+00 -2.761488258838653564e-01
4.246000000000000000e+03 3.320904922485351562e+01 2.727359771728515625e+01 2.753726020455360413e-02 2.443246603012084961e+00 7.412351369857788086e-01 -4.176006019115447998e-01
4.247000000000000000e+03 5.191782760620117188e+01 3.687815475463867188e+01 -3.510132133960723877e-01 5.820211410522460938e+00 1.640759348869323730e+00 -4.333853349089622498e-02
4.248000000000000000e+03 3.209246063232421875e+01 -3.458592605590820312e+01 3.040988445281982422e-01 2.114282131195068359e+00 7.255142927169799805e-01 2.657761573791503906e-01
4.249000000000000000e+03 2.483218955993652344e+01 -3.077769088745117188e+01 4.038114249706268311e-01 7.819238305091857910e-01 3.557205796241760254e-01 2.671959437429904938e-02
4.250000000000000000e+03 5.700555419921875000e+01 2.291133499145507812e+01 -5.507866144180297852e-01 7.012255668640136719e+00 1.938440799713134766e+00 1.567725390195846558e-01
4.251000000000000000e+03 5.480616760253906250e+01 2.429284667968750000e+01 -5.347101092338562012e-01 6.652633666992187500e+00 1.835376977920532227e+00 2.133595012128353119e-02
4.252000000000000000e+03 6.191735839843750000e+01 2.491667175292968750e+01 -4.210211336612701416e-01 7.435764789581298828e+00 2.104423046112060547e+00 3.148602545261383057e-01
4.253000000000000000e+03 5.839492416381835938e+01 2.529447174072265625e+01 -4.788655936717987061e-01 7.062466144561767578e+00 1.975080251693725586e+00 2.017033845186233521e-01
4.254000000000000000e+03 4.253483200073242188e+01 2.102300262451171875e+01 -2.956348657608032227e-01 4.489042758941650391e+00 1.258022308349609375e+00 -6.140425801277160645e-01
4.255000000000000000e+03 3.233246231079101562e+01 -3.776750946044921875e+01 2.762596309185028076e-01 2.256977319717407227e+00 7.599710822105407715e-01 1.680054217576980591e-01
4.256000000000000000e+03 4.747205352783203125e+01 4.071802520751953125e+01 -2.700393497943878174e-01 5.091398715972900391e+00 1.446407914161682129e+00 -2.086770348250865936e-02
4.257000000000000000e+03 2.776633262634277344e+01 -3.778096389770507812e+01 3.954022824764251709e-01 1.415007472038269043e+00 5.431228876113891602e-01 7.721941173076629639e-02
4.258000000000000000e+03 2.159598541259765625e+01 -2.730627059936523438e+01 3.071652054786682129e-01 3.082215785980224609e-01 1.846160441637039185e-01 -1.183491051197052002e-01
4.259000000000000000e+03 2.162243461608886719e+01 -3.019878959655761719e+01 3.710493445396423340e-01 3.958252966403961182e-01 2.300623953342437744e-01 -7.815934717655181885e-02
4.260000000000000000e+03 4.957608413696289062e+01 2.627664566040039062e+01 -4.600961208343505859e-01 5.748609542846679688e+00 1.586554050445556641e+00 -2.261689752340316772e-01
4.261000000000000000e+03 5.239746856689453125e+01 2.552105712890625000e+01 -5.133455991744995117e-01 6.261930465698242188e+00 1.724575519561767578e+00 -1.059219762682914734e-01
4.262000000000000000e+03 5.621957778930664062e+01 2.712636566162109375e+01 -4.814690351486206055e-01 6.700096130371093750e+00 1.865588068962097168e+00 7.715542614459991455e-02
4.263000000000000000e+03 5.352759170532226562e+01 2.859659194946289062e+01 -4.606872200965881348e-01 6.296567916870117188e+00 1.750764250755310059e+00 -3.684483468532562256e-02
4.264000000000000000e+03 2.823455238342285156e+01 -3.141553688049316406e+01 3.996365070343017578e-01 1.321606516838073730e+00 5.163729190826416016e-01 1.792080998420715332e-01
4.265000000000000000e+03 4.741228866577148438e+01 3.715604782104492188e+01 -2.901948392391204834e-01 5.082548141479492188e+00 1.437705993652343750e+00 -7.659563422203063965e-02
4.266000000000000000e+03 3.204048919677734375e+01 3.745726776123046875e+01 1.169940754771232605e-01 2.327309131622314453e+00 7.332909703254699707e-01 -1.219286844134330750e-01
4.267000000000000000e+03 3.082490730285644531e+01 3.098404121398925781e+01 1.058124154806137085e-01 2.052609443664550781e+00 6.475265026092529297e-01 -2.936960160732269287e-01
4.268000000000000000e+03 3.145329093933105469e+01 3.413977432250976562e+01 1.144695952534675598e-01 2.214238643646240234e+00 6.986124515533447266e-01 -2.151968479156494141e-01
4.269000000000000000e+03 5.017820358276367188e+01 2.948245048522949219e+01 -4.051426053047180176e-01 5.751361370086669922e+00 1.603865623474121094e+00 -1.488861292600631714e-01
4.270000000000000000e+03 4.074004745483398438e+01 2.740608596801757812e+01 -2.064184397459030151e-01 4.016981124877929688e+00 1.143168807029724121e+00 -4.240675866603851318e-01
4.271000000000000000e+03 3.749851989746093750e+01 2.896575355529785156e+01 -8.017207682132720947e-02 3.308265447616577148e+00 9.684280157089233398e-01 -3.872193098068237305e-01
4.272000000000000000e+03 3.528156280517578125e+01 3.330014038085937500e+01 -2.549505734350532293e-04 2.892171382904052734e+00 8.675749301910400391e-01 -2.773121297359466553e-01
4.273000000000000000e+03 3.422061920166015625e+01 3.015842056274414062e+01 1.114832051098346710e-02 2.666642665863037109e+00 8.033373355865478516e-01 -3.561002910137176514e-01
4.274000000000000000e+03 6.031169128417968750e+01 2.742751312255859375e+01 -4.149934053421020508e-01 7.226281166076660156e+00 2.043386459350585938e+00 2.179155349731445312e-01
4.275000000000000000e+03 4.239283752441406250e+01 3.059358596801757812e+01 -2.359317988157272339e-01 4.327258110046386719e+00 1.227397918701171875e+00 -3.079509437084197998e-01
4.276000000000000000e+03 4.022999572753906250e+01 3.522536468505859375e+01 -1.227786913514137268e-01 3.827597141265869141e+00 1.111445546150207520e+00 -1.927373111248016357e-01
4.277000000000000000e+03 1.769452095031738281e+01 -7.697114944458007812e+00 -9.719230979681015015e-02 -1.343015730381011963e-01 -6.944816559553146362e-02 -1.170620545744895935e-01
4.278000000000000000e+03 1.784611892700195312e+01 -7.167494297027587891e+00 1.063072681427001953e-02 -1.795395836234092712e-02 -2.196969231590628624e-03 -2.979528345167636871e-02
4.279000000000000000e+03 1.858662033081054688e+01 -3.509092092514038086e+00 -3.056908026337623596e-03 -6.569402664899826050e-02 -2.062528021633625031e-02 1.465406268835067749e-02
4.280000000000000000e+03 3.871125280857086182e-01 2.100460529327392578e+00 -1.550323650008067489e-04 -1.358644658466801047e-04 -8.726905070943757892e-05 6.617166945943608880e-05
4.281000000000000000e+03 4.438848495483398438e+01 -4.835018634796142578e+00 1.919759631156921387e+00 1.150658488273620605e+00 9.211254119873046875e-01 -2.074396371841430664e+00
4.282000000000000000e+03 4.476910400390625000e+01 -4.832754135131835938e+00 2.353109836578369141e+00 1.566749572753906250e+00 1.175957798957824707e+00 -2.649538516998291016e+00
4.283000000000000000e+03 4.490869903564453125e+01 -4.493989467620849609e+00 2.838713169097900391e+00 2.504881858825683594e+00 1.603078484535217285e+00 -3.456534385681152344e+00
4.284000000000000000e+03 4.545157623291015625e+01 -4.624403476715087891e+00 3.419192790985107422e+00 4.025912761688232422e+00 2.233531713485717773e+00 -4.530643939971923828e+00
4.285000000000000000e+03 4.560157012939453125e+01 -4.664784908294677734e+00 3.654335498809814453e+00 4.406844615936279297e+00 2.418354034423828125e+00 -4.894785881042480469e+00
4.286000000000000000e+03 4.576488113403320312e+01 -4.648025512695312500e+00 3.750233411788940430e+00 5.303115844726562500e+00 2.716004848480224609e+00 -5.321216583251953125e+00
4.287000000000000000e+03 4.611302566528320312e+01 -4.557536125183105469e+00 3.394919872283935547e+00 7.989173889160156250e+00 3.415228128433227539e+00 -6.152885913848876953e+00
4.288000000000000000e+03 4.637014389038085938e+01 -4.793431282043457031e+00 3.548308849334716797e+00 9.774971008300781250e+00 3.996984004974365234e+00 -6.799301624298095703e+00
4.289000000000000000e+03 4.657986068725585938e+01 -4.761845111846923828e+00 3.155610799789428711e+00 1.207503318786621094e+01 4.569192886352539062e+00 -6.854535102844238281e+00
4.290000000000000000e+03 4.700389099121093750e+01 -4.797549247741699219e+00 2.274431705474853516e+00 1.626041221618652344e+01 5.560453414916992188e+00 -5.964326381683349609e+00
4.291000000000000000e+03 4.720315933227539062e+01 -4.813340187072753906e+00 1.932672142982482910e+00 1.818905258178710938e+01 6.036517143249511719e+00 -4.978517055511474609e+00
4.292000000000000000e+03 4.740233993530273438e+01 -4.825872421264648438e+00 1.889261007308959961e+00 1.959080696105957031e+01 6.444020271301269531e+00 -3.603294372558593750e+00
4.293000000000000000e+03 4.784573745727539062e+01 -4.483615398406982422e+00 1.833224296569824219e+00 1.835033035278320312e+01 6.055066585540771484e+00 -1.578658461570739746e+00
4.294000000000000000e+03 4.780969619750976562e+01 -4.928663253784179688e+00 2.745154142379760742e+00 2.073253440856933594e+01 7.043306827545166016e+00 -9.423274397850036621e-01
4.295000000000000000e+03 4.818673706054687500e+01 -5.136821269989013672e+00 4.860787391662597656e+00 2.012681961059570312e+01 7.496282100677490234e+00 1.453385353088378906e+00
4.296000000000000000e+03 4.861655807495117188e+01 -5.049418449401855469e+00 5.352849006652832031e+00 1.801109123229980469e+01 7.009181976318359375e+00 1.969942927360534668e+00
4.297000000000000000e+03 4.524786758422851562e+01 -8.138508796691894531e+00 2.797259330749511719e+00 3.002589941024780273e+00 1.739954829216003418e+00 3.800195455551147461e+00
4.298000000000000000e+03 4.564202117919921875e+01 -8.389758110046386719e+00 3.052103757858276367e+00 4.958573341369628906e+00 2.403203248977661133e+00 5.041270732879638672e+00
4.299000000000000000e+03 4.600770568847656250e+01 -8.540481567382812500e+00 2.842480182647705078e+00 7.656993389129638672e+00 3.149842023849487305e+00 5.820577621459960938e+00
4.300000000000000000e+03 4.711577987670898438e+01 -8.374107360839843750e+00 1.396328687667846680e+00 1.594383430480957031e+01 5.202048778533935547e+00 4.949843883514404297e+00
4.301000000000000000e+03 4.734579467773437500e+01 -8.388431549072265625e+00 1.211581945419311523e+00 1.707353973388671875e+01 5.485536575317382812e+00 3.984148740768432617e+00
4.302000000000000000e+03 4.810055541992187500e+01 -8.299595832824707031e+00 2.240708827972412109e+00 1.863556671142578125e+01 6.262882232666015625e+00 2.085811197757720947e-01
4.303000000000000000e+03 4.867737960815429688e+01 -7.643169403076171875e+00 6.259357452392578125e+00 1.805036163330078125e+01 7.292915821075439453e+00 -2.377424716949462891e+00
4.304000000000000000e+03 4.873552322387695312e+01 -7.448362827301025391e+00 7.374402523040771484e+00 1.766354942321777344e+01 7.511385440826416016e+00 -2.514416694641113281e+00
4.305000000000000000e+03 4.917075347900390625e+01 -6.767088413238525391e+00 9.967125892639160156e+00 1.511424350738525391e+01 7.524411201477050781e+00 -1.081564188003540039e+00
4.306000000000000000e+03 4.914464950561523438e+01 -6.519225120544433594e+00 1.028480815887451172e+01 1.512312126159667969e+01 7.622378826141357422e+00 -3.980565667152404785e-01
4.307000000000000000e+03 4.875673675537109375e+01 -6.071435928344726562e+00 1.100873661041259766e+01 1.662812614440917969e+01 8.291058540344238281e+00 1.428602337837219238e+00
4.308000000000000000e+03 4.900076675415039062e+01 -5.640347480773925781e+00 8.668273925781250000e+00 1.606426239013671875e+01 7.419761180877685547e+00 2.068443298339843750e+00
4.309000000000000000e+03 4.879174041748046875e+01 -6.521382331848144531e+00 1.154385948181152344e+01 1.621671295166015625e+01 8.328171730041503906e+00 -4.600993096828460693e-01
4.310000000000000000e+03 1.791723632812500000e+01 -7.126923561096191406e+00 -1.102383248507976532e-02 -1.206280081532895565e-03 -3.669033758342266083e-03 -2.142271772027015686e-02
4.311000000000000000e+03 2.498025178909301758e+00 2.746557950973510742e+00 -3.592928696889430285e-04 -1.438472827430814505e-04 -1.509420399088412523e-04 1.474386681366013363e-05
4.312000000000000000e+03 1.823681449890136719e+01 -7.704926490783691406e+00 -1.895060837268829346e-01 -1.024891138076782227e-01 -8.759856224060058594e-02 -1.651456058025360107e-01
4.313000000000000000e+03 4.583954238891601562e+01 -8.886116027832031250e+00 2.338610172271728516e+00 7.103736400604248047e+00 2.832704067230224609e+00 5.310002326965332031e+00
4.314000000000000000e+03 4.623703002929687500e+01 -8.714353561401367188e+00 2.303404569625854492e+00 9.216378211975097656e+00 3.455935001373291016e+00 5.801954746246337891e+00
4.315000000000000000e+03 4.652334213256835938e+01 -8.376376152038574219e+00 2.511671066284179688e+00 1.121645355224609375e+01 4.118437290191650391e+00 6.394441127777099609e+00
4.316000000000000000e+03 4.736507034301757812e+01 -8.668005943298339844e+00 9.685035347938537598e-01 1.625146865844726562e+01 5.165991783142089844e+00 3.786614418029785156e+00
4.317000000000000000e+03 4.897630310058593750e+01 -7.713614940643310547e+00 6.151955604553222656e+00 1.654413986206054688e+01 6.808828830718994141e+00 -2.262489318847656250e+00
4.318000000000000000e+03 4.953656768798828125e+01 -6.787274837493896484e+00 8.785709381103515625e+00 1.391399383544921875e+01 6.809910774230957031e+00 -8.831018805503845215e-01
4.319000000000000000e+03 4.924165725708007812e+01 -7.438817501068115234e+00 7.315880775451660156e+00 1.534770488739013672e+01 6.799075603485107422e+00 -2.151569128036499023e+00
4.320000000000000000e+03 4.441267013549804688e+01 -4.443324565887451172e+00 2.157392501831054688e+00 1.608248233795166016e+00 1.129692196846008301e+00 -2.584327936172485352e+00
4.321000000000000000e+03 1.386069393157958984e+01 2.570981264114379883e+00 -6.174705922603607178e-04 -5.460612010210752487e-04 -3.490595554467290640e-04 -6.483937031589448452e-04
4.322000000000000000e+03 4.447421264648437500e+01 -9.034200668334960938e+00 1.980936884880065918e+00 2.713415622711181641e+00 1.408305764198303223e+00 3.293687105178833008e+00
4.323000000000000000e+03 4.481666564941406250e+01 -8.802615165710449219e+00 2.263037443161010742e+00 3.081596612930297852e+00 1.603390216827392578e+00 3.602658748626708984e+00
4.324000000000000000e+03 4.927030944824218750e+01 -5.390925884246826172e+00 7.273765563964843750e+00 1.520212173461914062e+01 6.742765903472900391e+00 2.032872200012207031e+00
4.325000000000000000e+03 4.921706771850585938e+01 -4.246432781219482422e+00 3.406897068023681641e+00 1.528103542327880859e+01 5.606379985809326172e+00 1.397155523300170898e+00
4.326000000000000000e+03 4.870207595825195312e+01 -5.273180961608886719e+00 6.749420166015625000e+00 1.784800148010253906e+01 7.379226684570312500e+00 2.392915725708007812e+00
4.327000000000000000e+03 4.939172744750976562e+01 -6.215707302093505859e+00 9.389714241027832031e+00 1.425389862060546875e+01 7.093083858489990234e+00 5.944969058036804199e-01
4.328000000000000000e+03 1.005908012390136719e+01 -2.127473068237304688e+01 -2.275803983211517334e-01 -5.622176527976989746e-01 -2.369394153356552124e-01 -4.801922440528869629e-01
4.329000000000000000e+03 4.461464691162109375e+01 -4.380700111389160156e+00 2.493304252624511719e+00 2.062777042388916016e+00 1.366824388504028320e+00 -2.991602659225463867e+00
4.330000000000000000e+03 4.823968887329101562e+01 -4.577381610870361328e+00 2.661860942840576172e+00 1.818711662292480469e+01 6.254693031311035156e+00 1.229364126920700073e-01
4.331000000000000000e+03 4.672382354736328125e+01 -8.635710716247558594e+00 1.693098306655883789e+00 1.245630359649658203e+01 4.244820594787597656e+00 5.650860309600830078e+00
4.332000000000000000e+03 4.438740158081054688e+01 -8.603738784790039062e+00 1.853421211242675781e+00 1.913324952125549316e+00 1.130023837089538574e+00 2.749050855636596680e+00
4.333000000000000000e+03 4.403639602661132812e+01 -8.696420669555664062e+00 1.517055034637451172e+00 1.490956306457519531e+00 9.024034142494201660e-01 2.352003812789916992e+00
4.334000000000000000e+03 4.736285018920898438e+01 -4.247588157653808594e+00 1.294828891754150391e+00 1.626435470581054688e+01 5.267755031585693359e+00 -3.776164293289184570e+00
4.335000000000000000e+03 4.704985809326171875e+01 -4.541903972625732422e+00 1.890956997871398926e+00 1.561117362976074219e+01 5.250639438629150391e+00 -5.389807701110839844e+00
4.336000000000000000e+03 4.686869049072265625e+01 -4.445397853851318359e+00 2.038558244705200195e+00 1.393108940124511719e+01 4.790894031524658203e+00 -5.820856571197509766e+00
4.337000000000000000e+03 4.701588058471679688e+01 -4.161151885986328125e+00 1.497212886810302734e+00 1.420016956329345703e+01 4.709214687347412109e+00 -4.886153221130371094e+00
4.338000000000000000e+03 4.619530868530273438e+01 -4.217793464660644531e+00 2.729729175567626953e+00 8.886148452758789062e+00 3.484763145446777344e+00 -5.864421844482421875e+00
4.339000000000000000e+03 4.593628692626953125e+01 -4.611479282379150391e+00 3.578523397445678711e+00 6.659062385559082031e+00 3.071275711059570312e+00 -5.821555614471435547e+00
4.340000000000000000e+03 4.585840988159179688e+01 -4.401838779449462891e+00 3.214257955551147461e+00 6.706271648406982422e+00 2.976158857345581055e+00 -5.528334140777587891e+00
4.341000000000000000e+03 4.556651306152343750e+01 -4.497072219848632812e+00 3.424265861511230469e+00 4.772369861602783203e+00 2.458990812301635742e+00 -4.982832908630371094e+00
4.342000000000000000e+03 4.571909713745117188e+01 -4.456555843353271484e+00 3.334780216217041016e+00 5.498268604278564453e+00 2.649914741516113281e+00 -5.233700752258300781e+00
4.343000000000000000e+03 4.477202224731445312e+01 -4.280230045318603516e+00 2.661326885223388672e+00 2.728998422622680664e+00 1.617097616195678711e+00 -3.443038702011108398e+00
4.344000000000000000e+03 4.981091308593750000e+01 -6.340415000915527344e+00 8.452177047729492188e+00 1.329680633544921875e+01 6.524694919586181641e+00 1.424798667430877686e-01
4.345000000000000000e+03 4.950183868408203125e+01 -6.482369899749755859e+00 9.141770362854003906e+00 1.390840053558349609e+01 6.915051460266113281e+00 -1.897111684083938599e-01
4.346000000000000000e+03 4.530781936645507812e+01 -8.935685157775878906e+00 2.399767398834228516e+00 4.895653724670410156e+00 2.188626289367675781e+00 4.518293857574462891e+00
4.347000000000000000e+03 4.896509170532226562e+01 -7.487041950225830078e+00 7.234644412994384766e+00 1.656871604919433594e+01 7.141008377075195312e+00 -2.395956039428710938e+00
4.348000000000000000e+03 4.929626464843750000e+01 -7.742712497711181641e+00 6.161182880401611328e+00 1.530368995666503906e+01 6.439461708068847656e+00 -2.145851850509643555e+00
4.349000000000000000e+03 4.692810440063476562e+01 -8.647094726562500000e+00 1.408880710601806641e+00 1.377244377136230469e+01 4.554397583007812500e+00 5.194634914398193359e+00
4.350000000000000000e+03 4.741712570190429688e+01 -8.922391891479492188e+00 8.318364620208740234e-01 1.533335590362548828e+01 4.849557876586914062e+00 3.413185119628906250e+00
4.351000000000000000e+03 4.775360488891601562e+01 -9.343993186950683594e+00 5.504875779151916504e-01 1.485118198394775391e+01 4.620501041412353516e+00 2.503842592239379883e+00
4.352000000000000000e+03 5.034473800659179688e+01 -6.912806034088134766e+00 7.195362091064453125e+00 1.243139934539794922e+01 5.888028144836425781e+00 -7.947763800621032715e-01
4.353000000000000000e+03 4.995215225219726562e+01 -6.863832473754882812e+00 7.940611839294433594e+00 1.316620254516601562e+01 6.332044124603271484e+00 -8.691540956497192383e-01
4.354000000000000000e+03 4.945394897460937500e+01 -5.115047454833984375e+00 6.291915893554687500e+00 1.483645629882812500e+01 6.338511466979980469e+00 2.006850957870483398e+00
4.355000000000000000e+03 2.051105260848999023e+00 3.720058822631835938e+01 8.156587369740009308e-03 -8.494669795036315918e-01 -2.523931264877319336e-01 4.187951236963272095e-02
4.356000000000000000e+03 7.774548339843750000e+01 -3.576816558837890625e+01 -2.902965992689132690e-02 8.314566612243652344e+00 2.485661029815673828e+00 -7.545701414346694946e-02
4.357000000000000000e+03 4.825312042236328125e+01 -9.258025169372558594e+00 9.384103417396545410e-01 1.545845127105712891e+01 4.919058322906494141e+00 9.765844941139221191e-01
4.358000000000000000e+03 4.906367874145507812e+01 -8.451947212219238281e+00 3.521957159042358398e+00 1.599170112609863281e+01 5.854097366333007812e+00 -1.558724522590637207e+00
4.359000000000000000e+03 4.922467422485351562e+01 -8.292996406555175781e+00 4.200947284698486328e+00 1.556735229492187500e+01 5.930489540100097656e+00 -1.807075381278991699e+00
4.360000000000000000e+03 4.435372543334960938e+01 -4.201571941375732422e+00 2.274411439895629883e+00 2.040920019149780273e+00 1.294599413871765137e+00 -2.839008331298828125e+00
4.361000000000000000e+03 4.449921417236328125e+01 -3.759084224700927734e+00 2.349235057830810547e+00 2.878884315490722656e+00 1.568435788154602051e+00 -3.326440572738647461e+00
4.362000000000000000e+03 4.884261608123779297e+00 -1.220467662811279297e+01 5.786075256764888763e-03 -5.361523013561964035e-03 1.273656234843656421e-04 -2.602020045742392540e-03
4.363000000000000000e+03 4.284541130065917969e+00 -1.309707927703857422e+01 9.095351211726665497e-03 -1.016953215003013611e-02 -3.222542873118072748e-04 -1.468476140871644020e-03
4.364000000000000000e+03 1.030963039398193359e+01 2.334494018554687500e+01 -1.086064502596855164e-01 -4.730805158615112305e-01 -1.745060831308364868e-01 4.694292843341827393e-01
4.365000000000000000e+03 1.512194633483886719e+01 3.188557052612304688e+01 2.740389406681060791e-01 -1.004727184772491455e-01 5.206986889243125916e-02 1.470112949609756470e-01
4.366000000000000000e+03 1.375353145599365234e+01 3.066977882385253906e+01 2.374557703733444214e-01 -2.557833194732666016e-01 -5.498264450579881668e-03 2.063414901494979858e-01
4.367000000000000000e+03 4.659151077270507812e+01 -4.051795482635498047e+00 2.008940696716308594e+00 1.131879806518554688e+01 3.998321533203125000e+00 -5.610367774963378906e+00
4.368000000000000000e+03 4.673315429687500000e+01 -9.270081520080566406e+00 1.081345438957214355e+00 1.164064216613769531e+01 3.816596269607543945e+00 4.815896511077880859e+00
4.369000000000000000e+03 4.689925003051757812e+01 -9.578761100769042969e+00 7.394110560417175293e-01 1.185767269134521484e+01 3.779125213623046875e+00 4.332266807556152344e+00
4.370000000000000000e+03 4.468928527832031250e+01 -3.361439943313598633e+00 2.322585105895996094e+00 3.912180662155151367e+00 1.870429635047912598e+00 -3.818516969680786133e+00
4.371000000000000000e+03 4.441980361938476562e+01 -3.154700279235839844e+00 2.187083005905151367e+00 3.574476003646850586e+00 1.728467702865600586e+00 -3.555785179138183594e+00
4.372000000000000000e+03 4.984391021728515625e+01 -5.974829673767089844e+00 8.347378730773925781e+00 1.336968040466308594e+01 6.515117645263671875e+00 8.874430656433105469e-01
4.373000000000000000e+03 5.000508499145507812e+01 -5.862369537353515625e+00 7.689630508422851562e+00 1.305964851379394531e+01 6.224783897399902344e+00 1.005545973777770996e+00
4.374000000000000000e+03 4.782965087890625000e+01 -3.967041254043579102e+00 1.143973946571350098e+00 1.634573745727539062e+01 5.246913433074951172e+00 -2.137129545211791992e+00
4.375000000000000000e+03 4.888005733489990234e+00 3.649880981445312500e+01 6.474379450082778931e-02 -6.276085972785949707e-01 -1.688594371080398560e-01 1.277651637792587280e-01
4.376000000000000000e+03 4.744128799438476562e+01 -9.217672348022460938e+00 6.309586167335510254e-01 1.453676605224609375e+01 4.550317287445068359e+00 3.334394216537475586e+00
4.377000000000000000e+03 4.955322647094726562e+01 -8.087284088134765625e+00 5.049498081207275391e+00 1.467937660217285156e+01 5.918662548065185547e+00 -1.948256373405456543e+00
4.378000000000000000e+03 5.022206497192382812e+01 -5.717335224151611328e+00 7.150556564331054688e+00 1.277441978454589844e+01 5.977492809295654297e+00 1.077381014823913574e+00
4.379000000000000000e+03 4.980026245117187500e+01 -5.766033649444580078e+00 7.841250896453857422e+00 1.352301692962646484e+01 6.409280300140380859e+00 1.215710163116455078e+00
4.380000000000000000e+03 4.980766296386718750e+01 -8.161487579345703125e+00 4.988030910491943359e+00 1.400771331787109375e+01 5.698723316192626953e+00 -1.895065188407897949e+00
4.381000000000000000e+03 5.063987350463867188e+01 -6.931810379028320312e+00 6.825273036956787109e+00 1.208173847198486328e+01 5.672103404998779297e+00 -7.255936264991760254e-01
4.382000000000000000e+03 5.044162368774414062e+01 -6.612622737884521484e+00 7.352452278137207031e+00 1.224601936340332031e+01 5.879541397094726562e+00 -3.581844866275787354e-01
4.383000000000000000e+03 4.889542388916015625e+01 -4.502040386199951172e+00 3.758244991302490234e+00 1.645056343078613281e+01 6.062642574310302734e+00 1.425775408744812012e+00
4.384000000000000000e+03 4.946174621582031250e+01 -4.828264236450195312e+00 5.249212265014648438e+00 1.491572380065917969e+01 6.049480915069580078e+00 1.956872940063476562e+00
4.385000000000000000e+03 5.013945770263671875e+01 -5.397050857543945312e+00 6.702458381652832031e+00 1.305490016937255859e+01 5.927207469940185547e+00 1.486141562461853027e+00
4.386000000000000000e+03 4.220390319824218750e+00 -2.271666717529296875e+01 -6.974361836910247803e-02 -2.604943215847015381e-01 -9.907138347625732422e-02 -2.670373618602752686e-01
4.387000000000000000e+03 5.001193523406982422e+00 -2.349189567565917969e+01 -7.597868144512176514e-02 -3.164920806884765625e-01 -1.177412271499633789e-01 -3.351887762546539307e-01
4.388000000000000000e+03 4.842359542846679688e+01 -9.811179161071777344e+00 5.376741290092468262e-01 1.427684879302978516e+01 4.444356918334960938e+00 1.111947178840637207e+00
4.389000000000000000e+03 4.718455886840820312e+01 -9.172462463378906250e+00 7.461188435554504395e-01 1.381062984466552734e+01 4.367024898529052734e+00 4.060067176818847656e+00
4.390000000000000000e+03 4.584169006347656250e+01 -4.036446571350097656e+00 2.763576745986938477e+00 7.039685726165771484e+00 2.940978765487670898e+00 -5.406354904174804688e+00
4.391000000000000000e+03 4.024652004241943359e+00 4.386240005493164062e+00 -2.584942267276346684e-04 -2.181663294322788715e-04 -1.429981639375910163e-04 -9.423454321222379804e-05
4.392000000000000000e+03 4.821390151977539062e+01 -3.786115407943725586e+00 1.237703919410705566e+00 1.595646190643310547e+01 5.158249855041503906e+00 -1.090922832489013672e+00
4.393000000000000000e+03 2.239865493774414062e+01 -1.997020483016967773e+00 -1.205166801810264587e-01 -1.881619095802307129e-01 -9.260357171297073364e-02 3.201717436313629150e-01
4.394000000000000000e+03 4.697266769409179688e+01 -9.185935020446777344e+00 9.038328528404235840e-01 1.291443347930908203e+01 4.145480155944824219e+00 4.494778156280517578e+00
4.395000000000000000e+03 5.041976451873779297e+00 -5.038984298706054688e+00 2.660622703842818737e-04 -1.814511051634326577e-04 2.538334956625476480e-05 -4.812793631572276354e-04
4.396000000000000000e+03 5.110590744018554688e+01 -6.707481861114501953e+00 6.332095146179199219e+00 1.143630409240722656e+01 5.330519676208496094e+00 -3.850959539413452148e-01
4.397000000000000000e+03 5.092508697509765625e+01 -6.471873283386230469e+00 6.669846057891845703e+00 1.163331031799316406e+01 5.490946769714355469e+00 -8.537897467613220215e-02
4.398000000000000000e+03 5.119256210327148438e+01 -5.625466346740722656e+00 6.002174377441406250e+00 1.146957778930664062e+01 5.241525650024414062e+00 8.704184889793395996e-01
4.399000000000000000e+03 4.718427658081054688e+01 -9.785038948059082031e+00 4.393022954463958740e-01 1.237517070770263672e+01 3.844341754913330078e+00 3.635395765304565430e+00
4.400000000000000000e+03 4.666415405273437500e+01 -3.325816631317138672e+00 1.254572629928588867e+00 1.100004673004150391e+01 3.676385879516601562e+00 -4.650716781616210938e+00
4.401000000000000000e+03 4.637030410766601562e+01 -3.455871820449829102e+00 1.621970415115356445e+00 9.888632774353027344e+00 3.453181028366088867e+00 -5.028960227966308594e+00
4.402000000000000000e+03 4.607953643798828125e+01 -3.927586078643798828e+00 2.395939826965332031e+00 8.351472854614257812e+00 3.224223613739013672e+00 -5.419429779052734375e+00
4.403000000000000000e+03 4.860723114013671875e+01 -3.847148180007934570e+00 1.801452755928039551e+00 1.584156513214111328e+01 5.292905330657958984e+00 -4.366319626569747925e-03
4.404000000000000000e+03 4.876097488403320312e+01 -4.167655944824218750e+00 2.594378471374511719e+00 1.625350379943847656e+01 5.654364585876464844e+00 6.931815147399902344e-01
4.405000000000000000e+03 1.174940586090087891e+01 -2.604144859313964844e+01 1.146232709288597107e-01 -4.669087231159210205e-01 -1.056856364011764526e-01 -3.973562419414520264e-01
4.406000000000000000e+03 3.393844223022460938e+01 -2.854959869384765625e+01 3.283085227012634277e-01 2.221010208129882812e+00 7.647956013679504395e-01 5.667113661766052246e-01
4.407000000000000000e+03 4.892925643920898438e+01 -1.062633037567138672e+01 3.252255320549011230e-01 1.296396446228027344e+01 3.986757040023803711e+00 7.199553251266479492e-01
4.408000000000000000e+03 8.634711265563964844e+00 2.840526580810546875e+01 9.339809417724609375e-02 -4.187786877155303955e-01 -9.761418402194976807e-02 3.442901968955993652e-01
4.409000000000000000e+03 4.892931747436523438e+01 -2.960831165313720703e+00 1.065217018127441406e+00 1.402545261383056641e+01 4.527200698852539062e+00 -2.658875286579132080e-01
4.410000000000000000e+03 4.801657485961914062e+01 -3.926144123077392578e+00 1.238978385925292969e+00 1.630825233459472656e+01 5.264169216156005859e+00 -1.440095782279968262e+00
4.411000000000000000e+03 4.767479324340820312e+01 -3.694106578826904297e+00 9.183000326156616211e-01 1.503580951690673828e+01 4.786232948303222656e+00 -2.575194835662841797e+00
4.412000000000000000e+03 4.652193069458007812e+01 -2.939558267593383789e+00 1.136049151420593262e+00 1.006698513031005859e+01 3.360910415649414062e+00 -4.421380043029785156e+00
4.413000000000000000e+03 4.690085220336914062e+01 -2.868177175521850586e+00 8.130491971969604492e-01 1.127712440490722656e+01 3.627052068710327148e+00 -3.952364921569824219e+00
4.414000000000000000e+03 5.183919143676757812e+01 -6.768254756927490234e+00 5.595245838165283203e+00 1.074891281127929688e+01 4.903247356414794922e+00 -3.717493116855621338e-01
4.415000000000000000e+03 4.976822662353515625e+01 -9.881020545959472656e+00 1.504028797149658203e+00 1.340833282470703125e+01 4.473708629608154297e+00 -7.007859945297241211e-01
4.416000000000000000e+03 6.791261291503906250e+01 2.552476310729980469e+01 -2.542880773544311523e-01 7.893780231475830078e+00 2.291847705841064453e+00 4.014870524406433105e-01
4.417000000000000000e+03 4.356131744384765625e+01 -1.096660709381103516e+01 1.301270127296447754e+00 3.158837795257568359e+00 1.338032364845275879e+00 2.946437120437622070e+00
4.418000000000000000e+03 2.197951698303222656e+01 -2.287715530395507812e+01 8.843884617090225220e-02 1.761534661054611206e-01 7.937769591808319092e-02 -2.099777311086654663e-01
4.419000000000000000e+03 5.083927536010742188e+01 -4.521389961242675781e+00 4.618585586547851562e+00 1.224664306640625000e+01 5.059568405151367188e+00 1.617556571960449219e+00
4.420000000000000000e+03 5.116515731811523438e+01 -4.506300926208496094e+00 4.571054458618164062e+00 1.182663249969482422e+01 4.919306278228759766e+00 1.530303239822387695e+00
4.421000000000000000e+03 4.679526329040527344e+00 7.565090179443359375e+00 1.899494673125445843e-04 -6.693264585919678211e-04 -1.438130857422947884e-04 1.962366077350452542e-04
4.422000000000000000e+03 5.448084354400634766e+00 8.999217987060546875e+00 1.685039140284061432e-03 -5.653494154103100300e-04 3.359068941790610552e-04 2.358137717237696052e-04
4.423000000000000000e+03 4.835869979858398438e+01 -1.073451328277587891e+01 7.509447634220123291e-02 1.277330970764160156e+01 3.854521036148071289e+00 1.577553749084472656e+00
4.424000000000000000e+03 5.640811920166015625e+00 5.557699203491210938e+00 9.638826595619320869e-04 2.855547354556620121e-04 3.748312010429799557e-04 -3.209347487427294254e-04
4.425000000000000000e+03 4.804681396484375000e+01 -3.571067094802856445e+00 9.226520061492919922e-01 1.525618648529052734e+01 4.853651523590087891e+00 -1.707329511642456055e+00
4.426000000000000000e+03 4.746681976318359375e+01 -1.078779888153076172e+01 7.089972496032714844e-02 1.156347370147705078e+01 3.490312099456787109e+00 2.869349241256713867e+00
4.427000000000000000e+03 4.784175491333007812e+01 -2.762770652770996094e+00 4.640789031982421875e-01 1.313406085968017578e+01 4.079442024230957031e+00 -2.294914722442626953e+00
4.428000000000000000e+03 4.759599304199218750e+01 -3.100165367126464844e+00 6.166224479675292969e-01 1.345215797424316406e+01 4.220633983612060547e+00 -2.834489107131958008e+00
4.429000000000000000e+03 4.821681594848632812e+01 -3.348748445510864258e+00 8.613767623901367188e-01 1.473396301269531250e+01 4.678601741790771484e+00 -1.407721042633056641e+00
4.430000000000000000e+03 4.789323425292968750e+01 -3.030547857284545898e+00 5.529466867446899414e-01 1.388990974426269531e+01 4.332857131958007812e+00 -2.135325670242309570e+00
4.431000000000000000e+03 4.531192398071289062e+01 -1.370982527732849121e+00 1.113469600677490234e+00 6.578148841857910156e+00 2.307485580444335938e+00 -3.730386495590209961e+00
4.432000000000000000e+03 4.530355834960937500e+01 -1.164235019683837891e+01 7.590644955635070801e-01 6.546244144439697266e+00 2.191592693328857422e+00 3.646793603897094727e+00
4.433000000000000000e+03 5.106293487548828125e+01 -9.634428024291992188e+00 2.540318489074707031e+00 1.212054634094238281e+01 4.398259639739990234e+00 -1.393435597419738770e+00
4.434000000000000000e+03 5.098984527587890625e+01 -9.240099906921386719e+00 3.105060577392578125e+00 1.226481151580810547e+01 4.610961437225341797e+00 -1.533771753311157227e+00
4.435000000000000000e+03 5.230730819702148438e+01 -7.305755138397216797e+00 4.999024391174316406e+00 1.047021198272705078e+01 4.640770912170410156e+00 -6.884305477142333984e-01
4.436000000000000000e+03 5.286479568481445312e+01 -8.144207000732421875e+00 4.101382732391357422e+00 1.021948814392089844e+01 4.296261310577392578e+00 -1.019949793815612793e+00
4.437000000000000000e+03 4.932215118408203125e+01 -1.976733684539794922e+00 5.649810433387756348e-01 1.262235164642333984e+01 3.956199645996093750e+00 -3.634961843490600586e-01
4.438000000000000000e+03 4.868319702148437500e+01 -2.687032938003540039e+00 6.407226324081420898e-01 1.364646816253662109e+01 4.286157131195068359e+00 -8.642809987068176270e-01
4.439000000000000000e+03 5.157350921630859375e+01 -9.932706832885742188e+00 2.411878824234008789e+00 1.157960319519042969e+01 4.197444438934326172e+00 -1.352421760559082031e+00
4.440000000000000000e+03 5.140491485595703125e+01 -9.256015777587890625e+00 3.168654680252075195e+00 1.179996109008789062e+01 4.490584850311279297e+00 -1.524940371513366699e+00
4.441000000000000000e+03 5.002680206298828125e+01 -3.223359584808349609e+00 2.211310625076293945e+00 1.330745887756347656e+01 4.655631065368652344e+00 1.083347201347351074e+00
4.442000000000000000e+03 4.791349411010742188e+01 -1.125482559204101562e+01 -1.140425503253936768e-01 1.161229228973388672e+01 3.449474811553955078e+00 2.248375415802001953e+00
4.443000000000000000e+03 4.811698532104492188e+01 -2.800829648971557617e+00 4.871458411216735840e-01 1.364764404296875000e+01 4.240437030792236328e+00 -1.797645688056945801e+00
4.444000000000000000e+03 5.142064285278320312e+01 -9.610678672790527344e+00 2.661603212356567383e+00 1.175199890136718750e+01 4.324080467224121094e+00 -1.443271875381469727e+00
4.445000000000000000e+03 2.014356994628906250e+01 2.111616134643554688e+01 -5.965254455804824829e-02 -5.833652988076210022e-02 -3.539672121405601501e-02 -2.663572318851947784e-02
4.446000000000000000e+03 5.756630897521972656e+00 7.432322502136230469e+00 1.394878840073943138e-03 4.741015727631747723e-04 5.606941413134336472e-04 -5.560170393437147141e-04
4.447000000000000000e+03 7.135211467742919922e+00 6.642897605895996094e+00 5.298583419062197208e-04 6.056017009541392326e-04 3.406380128581076860e-04 -1.379034656565636396e-04
4.448000000000000000e+03 4.751943206787109375e+01 -2.292698383331298828e+00 3.570418953895568848e-01 1.189475917816162109e+01 3.675540447235107422e+00 -2.805577754974365234e+00
4.449000000000000000e+03 6.621840667724609375e+01 2.017647361755371094e+01 -3.165665268898010254e-01 7.835749626159667969e+00 2.255754947662353516e+00 5.659360289573669434e-01
4.450000000000000000e+03 5.142438125610351562e+01 -4.583565711975097656e+00 4.561110973358154297e+00 1.148878097534179688e+01 4.814967632293701172e+00 1.425264596939086914e+00
4.451000000000000000e+03 5.126335144042968750e+01 -4.162737846374511719e+00 4.049984455108642578e+00 1.179284858703613281e+01 4.752850055694580078e+00 1.560429453849792480e+00
4.452000000000000000e+03 5.256421279907226562e+01 -7.041449069976806641e+00 4.945417881011962891e+00 1.024537086486816406e+01 4.557236671447753906e+00 -4.664912521839141846e-01
4.453000000000000000e+03 4.899269866943359375e+01 -1.104742431640625000e+01 1.825024485588073730e-01 1.246995258331298828e+01 3.795736551284790039e+00 8.229048252105712891e-01
4.454000000000000000e+03 4.887204742431640625e+01 -1.026045703887939453e+01 5.273070931434631348e-01 1.363671493530273438e+01 4.249206542968750000e+00 6.098552942276000977e-01
4.455000000000000000e+03 4.796625518798828125e+01 -2.285464286804199219e+00 2.770880162715911865e-01 1.261749076843261719e+01 3.868373632431030273e+00 -2.148758888244628906e+00
4.456000000000000000e+03 4.776451873779296875e+01 -2.078999519348144531e+00 2.663586735725402832e-01 1.197768783569335938e+01 3.673213958740234375e+00 -2.416578531265258789e+00
4.457000000000000000e+03 4.683421325683593750e+01 -2.182920694351196289e+00 5.869809985160827637e-01 1.032434272766113281e+01 3.273396968841552734e+00 -3.621301889419555664e+00
4.458000000000000000e+03 2.409157562255859375e+01 1.962021636962890625e+01 -6.047280132770538330e-02 5.309866666793823242e-01 1.411541551351547241e-01 -2.005587071180343628e-01
4.459000000000000000e+03 4.281869506835937500e+01 -1.362902545928955078e+01 7.677872180938720703e-01 3.696104764938354492e+00 1.339167594909667969e+00 2.568308830261230469e+00
4.460000000000000000e+03 2.998601150512695312e+01 1.165553665161132812e+01 7.014797627925872803e-02 1.129765510559082031e+00 3.599740266799926758e-01 -2.616001367568969727e-01
4.461000000000000000e+03 4.108710479736328125e+01 -2.082605838775634766e+00 1.013528466224670410e+00 1.185943722724914551e+00 6.598416566848754883e-01 -1.366797447204589844e+00
4.462000000000000000e+03 5.215211868286132812e+01 -9.398372650146484375e+00 3.063765764236450195e+00 1.097724819183349609e+01 4.212304115295410156e+00 -1.413524508476257324e+00
4.463000000000000000e+03 5.178451538085937500e+01 -3.922185897827148438e+00 3.691340208053588867e+00 1.128462505340576172e+01 4.492789745330810547e+00 1.457900643348693848e+00
4.464000000000000000e+03 4.822600555419921875e+01 -2.454621553421020508e+00 4.048558175563812256e-01 1.309565067291259766e+01 4.050151824951171875e+00 -1.674588203430175781e+00
4.465000000000000000e+03 4.761295700073242188e+01 -1.857674360275268555e+00 2.132788896560668945e-01 1.144779396057128906e+01 3.498321771621704102e+00 -2.614651679992675781e+00
4.466000000000000000e+03 4.780358505249023438e+01 -1.693033456802368164e+00 1.498656421899795532e-01 1.150241661071777344e+01 3.495684862136840820e+00 -2.339747667312622070e+00
4.467000000000000000e+03 4.706840133666992188e+01 -1.862114191055297852e+00 3.951810598373413086e-01 1.049297904968261719e+01 3.266448020935058594e+00 -3.230628967285156250e+00
4.468000000000000000e+03 4.658542633056640625e+01 -1.847521424293518066e+00 6.064492464065551758e-01 9.499098777770996094e+00 3.031664371490478516e+00 -3.586149215698242188e+00
4.469000000000000000e+03 4.798116683959960938e+01 -1.201922512054443359e+01 -2.278665453195571899e-01 1.083796977996826172e+01 3.183031082153320312e+00 2.135047197341918945e+00
4.470000000000000000e+03 4.833023452758789062e+01 -1.163729381561279297e+01 -1.786962747573852539e-01 1.162805461883544922e+01 3.434807300567626953e+00 1.727287054061889648e+00
4.471000000000000000e+03 4.872091674804687500e+01 -1.204768466949462891e+01 -1.993624418973922729e-01 1.140445041656494141e+01 3.361526489257812500e+00 1.330623269081115723e+00
4.472000000000000000e+03 4.968838882446289062e+01 -1.106544589996337891e+01 4.533639252185821533e-01 1.248632907867431641e+01 3.881907939910888672e+00 1.181129291653633118e-01
4.473000000000000000e+03 5.252284240722656250e+01 -4.880063533782958984e+00 4.446762561798095703e+00 1.040011310577392578e+01 4.454062938690185547e+00 1.025693535804748535e+00
4.474000000000000000e+03 5.199860382080078125e+01 -6.095206260681152344e+00 5.459994316101074219e+00 1.061785411834716797e+01 4.823354721069335938e+00 2.911868989467620850e-01
4.475000000000000000e+03 5.203294372558593750e+01 -6.360614299774169922e+00 5.504493236541748047e+00 1.056123733520507812e+01 4.819718837738037109e+00 2.580588310956954956e-02
4.476000000000000000e+03 5.197280502319335938e+01 -4.915884971618652344e+00 4.773134231567382812e+00 1.085522460937500000e+01 4.688507556915283203e+00 1.139992952346801758e+00
4.477000000000000000e+03 5.384732055664062500e+01 -8.283568382263183594e+00 3.661968708038330078e+00 9.715022087097167969e+00 4.013097286224365234e+00 -9.002419710159301758e-01
4.478000000000000000e+03 5.578232574462890625e+01 -2.222586822509765625e+01 -6.329526305198669434e-01 8.169887542724609375e+00 2.261080265045166016e+00 -2.475726753473281860e-01
4.479000000000000000e+03 4.337239837646484375e+01 -1.434265327453613281e+01 5.925389528274536133e-01 4.427441120147705078e+00 1.505994081497192383e+00 2.634104013442993164e+00
4.480000000000000000e+03 4.862652206420898438e+01 -2.048760175704956055e+00 3.194422721862792969e-01 1.277631950378417969e+01 3.928728580474853516e+00 -1.181691765785217285e+00
4.481000000000000000e+03 3.106423377990722656e+01 -1.856185913085937500e+01 2.397481501102447510e-01 7.157294154167175293e-01 2.866432666778564453e-01 1.446902006864547729e-01
4.482000000000000000e+03 3.030360031127929688e+01 1.339117431640625000e+01 5.777737870812416077e-02 1.343740940093994141e+00 4.204554855823516846e-01 -3.598168790340423584e-01
4.483000000000000000e+03 4.874142837524414062e+01 -1.238758087158203125e+01 -2.597705721855163574e-01 1.096220207214355469e+01 3.210729360580444336e+00 1.361341714859008789e+00
4.484000000000000000e+03 5.239902877807617188e+01 -4.253502368927001953e+00 3.950591325759887695e+00 1.062538528442382812e+01 4.372793197631835938e+00 1.272962689399719238e+00
4.485000000000000000e+03 4.800090026855468750e+01 -1.604352831840515137e+00 1.056749522686004639e-01 1.165357875823974609e+01 3.527776002883911133e+00 -2.064646720886230469e+00
4.486000000000000000e+03 4.752221298217773438e+01 -1.235980033874511719e+00 1.235320791602134705e-01 1.060573101043701172e+01 3.218778848648071289e+00 -2.595473051071166992e+00
4.487000000000000000e+03 4.737565994262695312e+01 -1.418553829193115234e+00 1.727823019027709961e-01 1.064172554016113281e+01 3.244352340698242188e+00 -2.799981832504272461e+00
4.488000000000000000e+03 4.791348266601562500e+01 -1.308029532432556152e+00 7.267387211322784424e-02 1.124058914184570312e+01 3.393978834152221680e+00 -2.156307697296142578e+00
4.489000000000000000e+03 5.086172485351562500e+01 -1.061361551284790039e+00 7.207667231559753418e-01 1.136607360839843750e+01 3.626051902770996094e+00 4.708422124385833740e-01
4.490000000000000000e+03 4.918199920654296875e+01 -8.110643029212951660e-01 7.307854294776916504e-02 1.143096542358398438e+01 3.451213359832763672e+00 -8.881620764732360840e-01
4.491000000000000000e+03 4.842550659179687500e+01 -1.267880535125732422e+01 -3.434905707836151123e-01 1.058280944824218750e+01 3.071795701980590820e+00 1.709469199180603027e+00
4.492000000000000000e+03 4.813644409179687500e+01 -1.273817825317382812e+01 -3.374873697757720947e-01 1.033078479766845703e+01 2.997989177703857422e+00 1.927234888076782227e+00
4.493000000000000000e+03 5.490174865722656250e+01 -6.031486511230468750e+00 3.705051422119140625e+00 9.118618011474609375e+00 3.847100734710693359e+00 1.799354404211044312e-01
4.494000000000000000e+03 5.076968765258789062e+01 -2.111690759658813477e+00 1.350613236427307129e+00 1.193122005462646484e+01 3.984549999237060547e+00 8.271837234497070312e-01
4.495000000000000000e+03 7.167344665527343750e+01 1.362974792718887329e-01 2.988571226596832275e-01 7.178852558135986328e+00 2.243312835693359375e+00 5.453526377677917480e-01
4.496000000000000000e+03 4.471523284912109375e+01 4.033388495445251465e-01 7.624174952507019043e-01 5.774446487426757812e+00 1.961059212684631348e+00 -2.993693828582763672e+00
4.497000000000000000e+03 4.495177841186523438e+01 -1.497377490997314453e+01 1.575921326875686646e-01 6.040544033050537109e+00 1.859440922737121582e+00 2.645907878875732422e+00
4.498000000000000000e+03 4.281839752197265625e+01 -1.498002338409423828e+01 5.832813382148742676e-01 3.943869829177856445e+00 1.358145356178283691e+00 2.452241182327270508e+00
4.499000000000000000e+03 4.679501342773437500e+01 -1.363264918327331543e+00 3.954551815986633301e-01 9.552502632141113281e+00 2.984387397766113281e+00 -3.266500711441040039e+00
4.500000000000000000e+03 4.773386764526367188e+01 1.208384037017822266e+01 -5.438183546066284180e-01 6.392295360565185547e+00 1.754543066024780273e+00 -8.503582477569580078e-01
4.501000000000000000e+03 5.080404663085937500e+01 -1.276416873931884766e+01 8.911781013011932373e-02 1.096168804168701172e+01 3.315241813659667969e+00 -4.964569211006164551e-02
4.502000000000000000e+03 2.771162986755371094e+01 -3.919285833835601807e-01 -1.754957437515258789e-01 9.857678785920143127e-03 -4.969141632318496704e-02 4.568319022655487061e-01
4.503000000000000000e+03 4.644322967529296875e+01 -1.464960193634033203e+01 -1.805126518011093140e-01 7.668552398681640625e+00 2.246411800384521484e+00 2.477192878723144531e+00
4.504000000000000000e+03 4.797759246826171875e+01 -1.315617752075195312e+01 -3.516105115413665771e-01 9.878715515136718750e+00 2.858131647109985352e+00 1.978937268257141113e+00
4.505000000000000000e+03 4.852910995483398438e+01 -1.295299720764160156e+01 -3.652187287807464600e-01 1.033563423156738281e+01 2.991124629974365234e+00 1.611112117767333984e+00
4.506000000000000000e+03 4.873969650268554688e+01 -1.325583839416503906e+01 -3.950935602188110352e-01 1.022349452972412109e+01 2.948520183563232422e+00 1.466955184936523438e+00
4.507000000000000000e+03 5.797317886352539062e+01 -2.023942756652832031e+01 -3.594827651977539062e-01 8.412830352783203125e+00 2.416004180908203125e+00 -6.352651119232177734e-01
4.508000000000000000e+03 2.862007522583007812e+01 2.883637249469757080e-01 -1.050624027848243713e-01 7.004219293594360352e-02 -1.050606276839971542e-02 4.268610477447509766e-01
4.509000000000000000e+03 5.487153244018554688e+01 -9.153182029724121094e+00 2.885846376419067383e+00 9.360151290893554688e+00 3.673799276351928711e+00 -9.826722145080566406e-01
4.510000000000000000e+03 5.544360733032226562e+01 -9.031092643737792969e+00 2.833540439605712891e+00 9.137074470520019531e+00 3.591184377670288086e+00 -8.958300352096557617e-01
4.511000000000000000e+03 4.842996978759765625e+01 -1.347988605499267578e+01 -4.229293763637542725e-01 9.929802894592285156e+00 2.852061986923217773e+00 1.666891336441040039e+00
4.512000000000000000e+03 4.293633270263671875e+01 1.554957866668701172e+00 8.514150977134704590e-01 4.152664184570312500e+00 1.501223802566528320e+00 -2.448030471801757812e+00
4.513000000000000000e+03 4.729463577270507812e+01 -1.196138858795166016e+00 1.819805502891540527e-01 1.027798366546630859e+01 3.137989282608032227e+00 -2.769315242767333984e+00
4.514000000000000000e+03 5.801682281494140625e+01 5.785207271575927734e+00 -8.650930225849151611e-02 8.503883361816406250e+00 2.525212049484252930e+00 8.484427928924560547e-01
4.515000000000000000e+03 3.983356475830078125e+01 -1.323209762573242188e+00 8.257979750633239746e-01 9.592463970184326172e-01 5.355132818222045898e-01 -1.027021408081054688e+00
4.516000000000000000e+03 5.381821441650390625e+01 -9.942788124084472656e+00 2.520048856735229492e+00 9.963211059570312500e+00 3.744977951049804688e+00 -1.222814202308654785e+00
4.517000000000000000e+03 4.685037994384765625e+01 -1.654664635658264160e+00 4.574348032474517822e-01 9.868698120117187500e+00 3.097839832305908203e+00 -3.350554943084716797e+00
4.518000000000000000e+03 5.124736404418945312e+01 -1.334898567199707031e+01 2.011008746922016144e-02 1.060328388214111328e+01 3.187018394470214844e+00 -1.206412762403488159e-01
4.519000000000000000e+03 5.089476394653320312e+01 -1.389443016052246094e+01 -2.032883316278457642e-01 1.034678745269775391e+01 3.043049812316894531e+00 1.936540007591247559e-01
4.520000000000000000e+03 5.172478485107421875e+01 -5.377842783927917480e-01 7.333957552909851074e-01 1.080227565765380859e+01 3.460701465606689453e+00 6.766200065612792969e-01
4.521000000000000000e+03 5.163093566894531250e+01 -1.334870147705078125e+01 1.212131679058074951e-01 1.054383277893066406e+01 3.199513912200927734e+00 -2.911721765995025635e-01
4.522000000000000000e+03 3.214635467529296875e+01 -1.414403152465820312e+01 -1.396303921937942505e-01 3.372248411178588867e-01 5.927833169698715210e-02 -3.046076372265815735e-02
4.523000000000000000e+03 4.223559188842773438e+01 -1.561172771453857422e+01 5.420500636100769043e-01 3.794911146163940430e+00 1.301088333129882812e+00 2.224558353424072266e+00
4.524000000000000000e+03 5.580488586425781250e+01 -8.349393844604492188e+00 2.994857549667358398e+00 8.949155807495117188e+00 3.583203792572021484e+00 -6.727213263511657715e-01
4.525000000000000000e+03 4.854882049560546875e+01 1.274476432800292969e+01 -5.956398844718933105e-01 6.539870738983154297e+00 1.783269166946411133e+00 -6.952172517776489258e-01
4.526000000000000000e+03 3.072494125366210938e+01 -1.394223785400390625e+01 -2.708168625831604004e-01 2.449356764554977417e-01 -7.764354348182678223e-03 -1.743288934230804443e-01
4.527000000000000000e+03 4.692461395263671875e+01 -1.160456657409667969e+00 2.926936149597167969e-01 9.562190055847167969e+00 2.956465244293212891e+00 -3.040664434432983398e+00
4.528000000000000000e+03 4.673857498168945312e+01 -2.376973927021026611e-01 2.042337208986282349e-01 8.777940750122070312e+00 2.694652318954467773e+00 -2.833374738693237305e+00
4.529000000000000000e+03 4.709027099609375000e+01 -2.654417045414447784e-02 5.609797686338424683e-02 9.133820533752441406e+00 2.756975650787353516e+00 -2.556512117385864258e+00
4.530000000000000000e+03 4.015279006958007812e+01 1.467094302177429199e+00 1.001977562904357910e+00 2.123680591583251953e+00 9.376974105834960938e-01 -1.592276811599731445e+00
4.531000000000000000e+03 4.041542816162109375e+01 1.078442573547363281e+00 1.031337738037109375e+00 2.113572359085083008e+00 9.434729814529418945e-01 -1.642494797706604004e+00
4.532000000000000000e+03 5.463105773925781250e+01 -1.879880428314208984e+00 1.993676900863647461e+00 9.614465713500976562e+00 3.482442617416381836e+00 1.226295828819274902e+00
4.533000000000000000e+03 4.734109115600585938e+01 -1.389638614654541016e+01 -3.113408684730529785e-01 8.816752433776855469e+00 2.551623582839965820e+00 2.284207344055175781e+00
4.534000000000000000e+03 5.249845504760742188e+01 -1.308316111564636230e+00 1.359863162040710449e+00 1.067234802246093750e+01 3.609663486480712891e+00 1.089482426643371582e+00
4.535000000000000000e+03 5.163133621215820312e+01 -1.297156238555908203e+01 2.297828048467636108e-01 1.065949726104736328e+01 3.266783952713012695e+00 -3.722459673881530762e-01
4.536000000000000000e+03 5.751536178588867188e+01 5.107737064361572266e+00 -1.113719027489423752e-02 8.612166404724121094e+00 2.580308675765991211e+00 8.569306135177612305e-01
4.537000000000000000e+03 3.109394454956054688e+01 2.433863401412963867e+00 1.825100183486938477e-01 3.953037858009338379e-01 1.733441501855850220e-01 1.618480831384658813e-01
4.538000000000000000e+03 4.871384429931640625e+01 1.155103302001953125e+01 -5.962237119674682617e-01 6.743864536285400391e+00 1.844292163848876953e+00 -7.474334239959716797e-01
4.539000000000000000e+03 4.693719100952148438e+01 -1.483966588973999023e+00 3.910617530345916748e-01 9.834281921386718750e+00 3.067603111267089844e+00 -3.181520462036132812e+00
4.540000000000000000e+03 3.418260192871093750e+01 -1.387823867797851562e+01 -2.862020209431648254e-02 4.660454988479614258e-01 1.312275826930999756e-01 2.055239379405975342e-01
4.541000000000000000e+03 5.469484710693359375e+01 -2.747407436370849609e+00 2.457454204559326172e+00 9.532371520996093750e+00 3.596947908401489258e+00 1.180594205856323242e+00
4.542000000000000000e+03 5.309176254272460938e+01 -5.085570812225341797e+00 4.316572666168212891e+00 1.000335311889648438e+01 4.295977592468261719e+00 8.018412590026855469e-01
4.543000000000000000e+03 4.730754852294921875e+01 4.742996394634246826e-01 -5.123345926403999329e-02 9.110520362854003906e+00 2.717785835266113281e+00 -2.291625499725341797e+00
4.544000000000000000e+03 4.696039199829101562e+01 3.587310016155242920e-01 5.123976990580558777e-02 8.712933540344238281e+00 2.629251956939697266e+00 -2.520899534225463867e+00
4.545000000000000000e+03 4.858694839477539062e+01 -1.399152946472167969e+01 -4.509551525115966797e-01 9.713322639465332031e+00 2.778710126876831055e+00 1.552632570266723633e+00
4.546000000000000000e+03 5.522621154785156250e+01 -1.379075527191162109e+00 1.730297803878784180e+00 9.410599708557128906e+00 3.342269182205200195e+00 1.196377158164978027e+00
4.547000000000000000e+03 6.656267547607421875e+01 3.871310710906982422e+00 3.148611485958099365e-01 7.751549243927001953e+00 2.419923067092895508e+00 9.411286115646362305e-01
4.548000000000000000e+03 4.810764694213867188e+01 -1.492220592498779297e+01 -5.036727190017700195e-01 8.953942298889160156e+00 2.535080909729003906e+00 1.754142642021179199e+00
4.549000000000000000e+03 4.794792556762695312e+01 -1.432401371002197266e+01 -4.479401111602783203e-01 9.080622673034667969e+00 2.589804649353027344e+00 1.899122476577758789e+00
4.550000000000000000e+03 4.750770568847656250e+01 -1.550494194030761719e+01 -4.309684038162231445e-01 8.206771850585937500e+00 2.332741022109985352e+00 1.940315246582031250e+00
4.551000000000000000e+03 5.723219299316406250e+01 4.213310718536376953e+00 1.015045791864395142e-01 8.712316513061523438e+00 2.644146442413330078e+00 8.926723003387451172e-01
4.552000000000000000e+03 5.877111434936523438e+01 2.381760120391845703e+00 5.752710700035095215e-01 8.570239067077636719e+00 2.743653059005737305e+00 1.068629860877990723e+00
4.553000000000000000e+03 5.489996719360351562e+01 -1.303883743286132812e+01 8.909578919410705566e-01 9.523966789245605469e+00 3.124477386474609375e+00 -1.020083546638488770e+00
4.554000000000000000e+03 4.627705764770507812e+01 1.902647972106933594e+00 4.896537587046623230e-02 7.414146900177001953e+00 2.238933563232421875e+00 -2.351687908172607422e+00
4.555000000000000000e+03 4.674124145507812500e+01 1.896624207496643066e+00 -6.874644011259078979e-02 7.890145301818847656e+00 2.346419572830200195e+00 -2.235321283340454102e+00
4.556000000000000000e+03 4.712625122070312500e+01 -1.572325515747070312e+01 -3.913308680057525635e-01 7.914206504821777344e+00 2.256862640380859375e+00 2.042730331420898438e+00
4.557000000000000000e+03 4.796417999267578125e+01 -1.573158645629882812e+01 -5.063910484313964844e-01 8.442682266235351562e+00 2.380887269973754883e+00 1.733116865158081055e+00
4.558000000000000000e+03 4.761000442504882812e+01 4.470463395118713379e-01 -1.183535158634185791e-01 9.440773010253906250e+00 2.796725988388061523e+00 -2.142800092697143555e+00
4.559000000000000000e+03 4.729108428955078125e+01 8.917441368103027344e-01 -8.665357530117034912e-02 8.795356750488281250e+00 2.612611055374145508e+00 -2.224366903305053711e+00
4.560000000000000000e+03 6.782820892333984375e+01 -8.868939399719238281e+00 7.604445815086364746e-01 7.358733177185058594e+00 2.435753345489501953e+00 -2.512513101100921631e-01
4.561000000000000000e+03 5.453349304199218750e+01 -1.042824363708496094e+01 2.196705579757690430e+00 9.667374610900878906e+00 3.559224128723144531e+00 -1.183437824249267578e+00
4.562000000000000000e+03 4.865452194213867188e+01 -1.456721210479736328e+01 -5.047691464424133301e-01 9.364015579223632812e+00 2.657773733139038086e+00 1.506930351257324219e+00
4.563000000000000000e+03 4.856490325927734375e+01 -1.512462615966796875e+01 -5.413647890090942383e-01 9.071301460266113281e+00 2.558980941772460938e+00 1.548196673393249512e+00
4.564000000000000000e+03 6.431450653076171875e+01 3.173032760620117188e+00 4.370757043361663818e-01 7.913554191589355469e+00 2.505188941955566406e+00 9.836190342903137207e-01
4.565000000000000000e+03 6.719624328613281250e+01 3.312987327575683594e+00 3.330000340938568115e-01 7.668379783630371094e+00 2.400413990020751953e+00 8.847533464431762695e-01
4.566000000000000000e+03 6.746290588378906250e+01 2.458528041839599609e+00 3.674645423889160156e-01 7.626811504364013672e+00 2.398282766342163086e+00 8.430324792861938477e-01
4.567000000000000000e+03 5.585729217529296875e+01 -2.184842586517333984e+00 2.079936265945434570e+00 9.138764381408691406e+00 3.365610361099243164e+00 1.122612476348876953e+00
4.568000000000000000e+03 5.306314849853515625e+01 -1.469316387176513672e+01 4.171659797430038452e-02 9.776600837707519531e+00 2.945495367050170898e+00 -4.567836225032806396e-01
4.569000000000000000e+03 4.782147216796875000e+01 -1.523298454284667969e+01 -4.532684385776519775e-01 8.629993438720703125e+00 2.453017473220825195e+00 1.821516394615173340e+00
4.570000000000000000e+03 5.677453613281250000e+01 -1.170897960662841797e+01 1.552997589111328125e+00 8.981756210327148438e+00 3.160426139831542969e+00 -1.078070640563964844e+00
4.571000000000000000e+03 5.509162902832031250e+01 -2.323318719863891602e+00 2.202044725418090820e+00 9.406503677368164062e+00 3.482564449310302734e+00 1.172720432281494141e+00
4.572000000000000000e+03 4.674627685546875000e+01 2.583185911178588867e+00 -1.333446651697158813e-01 7.639347553253173828e+00 2.251801013946533203e+00 -2.068722486495971680e+00
4.573000000000000000e+03 4.395092773437500000e+01 4.253800868988037109e+00 2.619650363922119141e-01 5.246639251708984375e+00 1.652581214904785156e+00 -2.126631736755371094e+00
4.574000000000000000e+03 4.479342651367187500e+01 5.364479541778564453e+00 6.004336755722761154e-03 5.728012084960937500e+00 1.720204949378967285e+00 -1.867107987403869629e+00
4.575000000000000000e+03 5.976845169067382812e+01 4.348073005676269531e+00 2.422602176666259766e-01 8.402103424072265625e+00 2.593309164047241211e+00 1.015067696571350098e+00
4.576000000000000000e+03 4.642685699462890625e+01 3.307201862335205078e+00 -1.327009499073028564e-01 7.190296173095703125e+00 2.117278575897216797e+00 -2.013217926025390625e+00
4.577000000000000000e+03 4.495363616943359375e+01 4.718287467956542969e+00 3.825573623180389404e-02 5.899757862091064453e+00 1.781404137611389160e+00 -1.996683120727539062e+00
4.578000000000000000e+03 4.607192230224609375e+01 4.603552341461181641e+00 -1.567474007606506348e-01 6.677999019622802734e+00 1.956375479698181152e+00 -1.853974461555480957e+00
4.579000000000000000e+03 6.503090667724609375e+01 -1.222224521636962891e+01 7.907254695892333984e-01 7.708366394042968750e+00 2.549727678298950195e+00 -6.880059838294982910e-01
4.580000000000000000e+03 6.464724731445312500e+01 9.397254586219787598e-01 6.893715262413024902e-01 7.811699390411376953e+00 2.550321340560913086e+00 8.876407742500305176e-01
4.581000000000000000e+03 3.316609954833984375e+01 2.004460811614990234e+00 3.075782358646392822e-01 5.521011948585510254e-01 2.579038143157958984e-01 -4.074651375412940979e-02
4.582000000000000000e+03 5.579977416992187500e+01 2.744182348251342773e+00 2.851077914237976074e-01 9.067046165466308594e+00 2.805646181106567383e+00 8.845164179801940918e-01
4.583000000000000000e+03 6.420138549804687500e+01 -1.194513130187988281e+01 8.733800053596496582e-01 7.767756462097167969e+00 2.592340946197509766e+00 -7.082138657569885254e-01
4.584000000000000000e+03 6.356222915649414062e+01 -1.153929138183593750e+01 1.022509455680847168e+00 7.823908805847167969e+00 2.653925418853759766e+00 -6.860610246658325195e-01
4.585000000000000000e+03 6.638319396972656250e+01 2.991208314895629883e+00 4.066962003707885742e-01 7.727032184600830078e+00 2.440118551254272461e+00 9.094944596290588379e-01
4.586000000000000000e+03 5.408172607421875000e+01 1.557970404624938965e+00 3.831261396408081055e-01 9.566188812255859375e+00 2.984794378280639648e+00 7.901397347450256348e-01
4.587000000000000000e+03 6.608275604248046875e+01 -8.278742790222167969e+00 1.000864267349243164e+00 7.476801395416259766e+00 2.543299674987792969e+00 -2.240275740623474121e-01
4.588000000000000000e+03 4.931200408935546875e+01 5.697811126708984375e+00 -5.545113086700439453e-01 8.086897850036621094e+00 2.259716033935546875e+00 -9.618063569068908691e-01
4.589000000000000000e+03 5.665456390380859375e+01 2.666255533695220947e-01 1.080516815185546875e+00 9.015624046325683594e+00 3.028842210769653320e+00 1.128040075302124023e+00
4.590000000000000000e+03 5.986144638061523438e+01 -1.333677959442138672e+01 9.266924858093261719e-01 8.388776779174804688e+00 2.794640779495239258e+00 -9.773323535919189453e-01
4.591000000000000000e+03 3.785675811767578125e+01 2.092587232589721680e+00 7.522132396697998047e-01 1.417466282844543457e+00 6.509038209915161133e-01 -9.198576211929321289e-01
4.592000000000000000e+03 5.550380706787109375e+01 -2.315293073654174805e+00 2.172966957092285156e+00 9.257452011108398438e+00 3.429125547409057617e+00 1.145279526710510254e+00
4.593000000000000000e+03 4.754764556884765625e+01 4.894094467163085938e+00 -4.114975035190582275e-01 7.577766895294189453e+00 2.149880886077880859e+00 -1.485405206680297852e+00
4.594000000000000000e+03 6.519439697265625000e+01 -1.126771736145019531e+01 9.100349545478820801e-01 7.649255275726318359e+00 2.567786931991577148e+00 -6.001278758049011230e-01
4.595000000000000000e+03 5.931653213500976562e+01 -7.231602668762207031e+00 2.235675811767578125e+00 8.155361175537109375e+00 3.117311239242553711e+00 -1.573413908481597900e-01
4.596000000000000000e+03 5.628493499755859375e+01 1.597068190574645996e+00 6.572335362434387207e-01 9.046281814575195312e+00 2.911054372787475586e+00 1.039516448974609375e+00
4.597000000000000000e+03 6.207427978515625000e+01 -9.431378364562988281e+00 1.473673343658447266e+00 7.882266998291015625e+00 2.806782245635986328e+00 -4.961139559745788574e-01
4.598000000000000000e+03 5.945265579223632812e+01 -3.738816499710083008e+00 2.003417491912841797e+00 8.202670097351074219e+00 3.061826229095458984e+00 6.335725784301757812e-01
4.599000000000000000e+03 6.037527465820312500e+01 -5.299505710601806641e+00 2.000681638717651367e+00 8.021571159362792969e+00 3.006675958633422852e+00 2.707948386669158936e-01
4.600000000000000000e+03 1.488040065765380859e+01 1.046121835708618164e+00 3.833709342870861292e-05 3.169006376992911100e-04 1.065713222487829626e-04 4.501823059399612248e-05
4.601000000000000000e+03 1.433596038818359375e+01 8.109902739524841309e-01 6.283092807279899716e-05 -5.018679803470149636e-05 3.793239329752395861e-06 2.569985808804631233e-04
4.602000000000000000e+03 1.339948463439941406e+01 9.943951964378356934e-01 2.472888736519962549e-04 -1.286214865103829652e-05 7.032801659079268575e-05 -1.409398737450828776e-05
4.603000000000000000e+03 1.399857616424560547e+01 1.078236818313598633e+00 -3.240368096157908440e-04 -1.471180876251310110e-04 -1.413464633515104651e-04 -5.118289118399843574e-05
4.604000000000000000e+03 1.342517852783203125e+01 2.516243755817413330e-01 -6.124295032350346446e-05 3.678451321320608258e-05 -7.337530860240804031e-06 1.110994344344362617e-05
4.605000000000000000e+03 1.503903388977050781e+01 3.840551078319549561e-01 -4.159437958151102066e-05 -5.650305320159532130e-05 -2.942922947113402188e-05 -4.316455670050345361e-05
4.606000000000000000e+03 1.424006271362304688e+01 2.423980534076690674e-01 1.438177878299029544e-05 2.996353032358456403e-05 1.330359282292192802e-05 -1.142564883593877312e-06
4.607000000000000000e+03 1.447602939605712891e+01 1.142013788223266602e+00 2.871349861379712820e-04 -1.197779693029588088e-05 8.254715794464573264e-05 4.711902874987572432e-05
4.608000000000000000e+03 1.113503360748291016e+01 3.384475409984588623e-01 -3.273611218901351094e-05 -1.028638871503062546e-04 -4.067999907420016825e-05 3.000078322656918317e-05
4.609000000000000000e+03 1.115649890899658203e+01 1.078244447708129883e+00 -2.830562298186123371e-04 -3.168192506564082578e-06 -8.586733019910752773e-05 -1.911589788505807519e-04
4.610000000000000000e+03 1.038435840606689453e+01 3.729175329208374023e-01 -1.923903764691203833e-04 5.293505819281563163e-05 -4.183659257250837982e-05 -8.183314639609307051e-05
4.611000000000000000e+03 1.188578510284423828e+01 3.038018345832824707e-01 -1.061224029399454594e-04 1.243187580257654190e-04 5.458904979604994878e-06 -4.671531496569514275e-05
4.612000000000000000e+03 1.263660717010498047e+01 2.689834535121917725e-01 4.334444747655652463e-05 -1.116115163313224912e-04 -2.048012174782343209e-05 -3.252777332818368450e-06
4.613000000000000000e+03 1.266393947601318359e+01 1.008509635925292969e+00 -2.000250824494287372e-04 -3.285324783064424992e-05 -6.986349762883037329e-05 -1.056370601872913539e-04
4.614000000000000000e+03 1.040289020538330078e+01 1.112849831581115723e+00 1.261643774341791868e-04 8.417123171966522932e-05 6.310068420134484768e-05 1.894266752060502768e-04
4.615000000000000000e+03 1.191018390655517578e+01 1.043463349342346191e+00 1.242766156792640686e-04 1.231257829203968868e-05 4.097675628145225346e-05 3.831481080851517618e-05
4.616000000000000000e+03 9.630480766296386719e+00 3.871794641017913818e-01 -8.881641406333073974e-05 6.280244269873946905e-05 -7.804191227478440851e-06 9.616927127353847027e-05
4.617000000000000000e+03 8.873666763305664062e+00 3.829238712787628174e-01 -2.267809613840654492e-04 -2.014745550695806742e-04 -1.284766476601362228e-04 -1.287750201299786568e-04
4.618000000000000000e+03 9.660673141479492188e+00 1.127179503440856934e+00 -2.784170501399785280e-04 -1.681750291027128696e-04 -1.339776208624243736e-04 -3.031732339877635241e-04
4.619000000000000000e+03 8.116720199584960938e+00 3.805542886257171631e-01 -1.089656288968399167e-04 3.405666211619973183e-04 6.948030204512178898e-05 1.330027298536151648e-04
4.620000000000000000e+03 7.360193252563476562e+00 3.795430362224578857e-01 -2.476380032021552324e-04 -4.504024400375783443e-04 -2.094121300615370274e-04 -1.476912293583154678e-04
4.621000000000000000e+03 5.847065925598144531e+00 3.768712580204010010e-01 -2.395556948613375425e-04 -5.411328165791928768e-04 -2.342065563425421715e-04 -1.409298565704375505e-04
4.622000000000000000e+03 5.091114044189453125e+00 3.758820295333862305e-01 -8.839148358674719930e-05 5.162415327504277229e-04 1.283550082007423043e-04 1.419136242475360632e-04
4.623000000000000000e+03 3.579006433486938477e+00 3.681437373161315918e-01 -3.290889799245633185e-05 3.645488759502768517e-04 9.949199011316522956e-05 1.185633154818788171e-04
4.624000000000000000e+03 2.823871612548828125e+00 3.614119887351989746e-01 -1.531052403151988983e-04 -2.837514621205627918e-04 -1.310570078203454614e-04 -8.390652510570362210e-05
4.625000000000000000e+03 2.070111274719238281e+00 3.578882515430450439e-01 3.083845513174310327e-05 2.126928884536027908e-04 7.305940380319952965e-05 1.002938952296972275e-04
4.626000000000000000e+03 2.362852334976196289e+00 1.097888231277465820e+00 -1.636703673284500837e-04 -2.002254186663776636e-04 -1.091687372536398470e-04 -2.773518463072832674e-05
4.627000000000000000e+03 1.328713655471801758e+00 3.659794926643371582e-01 -5.687699012923985720e-05 -1.411292323609814048e-04 -5.940186747466214001e-05 -4.112791793886572123e-05
4.628000000000000000e+03 1.647709608078002930e+00 1.105979442596435547e+00 5.143633825355209410e-05 1.661312126088887453e-04 6.527026562253013253e-05 8.746142702875658870e-05
4.629000000000000000e+03 6.516475677490234375e-01 3.939257264137268066e-01 -1.606233672646339983e-05 2.771439903881400824e-05 3.495618784654652700e-06 -1.438773324480280280e-05
4.630000000000000000e+03 3.489431142807006836e-01 9.570703506469726562e-01 8.586754120187833905e-05 5.430571764009073377e-05 4.205197546980343759e-05 6.948827376618282869e-06
4.631000000000000000e+03 3.090358018875122070e+00 1.101411938667297363e+00 7.568592991447076201e-05 2.599402505438774824e-04 1.006878519547171891e-04 1.029873747029341757e-04
4.632000000000000000e+03 3.819237709045410156e+00 1.108143687248229980e+00 -1.971823221538215876e-04 -3.232647723052650690e-04 -1.561341341584920883e-04 -2.983319427585229278e-05
4.633000000000000000e+03 4.335169315338134766e+00 3.733847737312316895e-01 -2.011838078033179045e-04 -4.462584911379963160e-04 -1.942326925927773118e-04 -1.064476964529603720e-04
4.634000000000000000e+03 6.008533000946044922e+00 1.116871237754821777e+00 1.575141868670471013e-05 4.459394840523600578e-04 1.385072682751342654e-04 1.887097023427486420e-04
4.635000000000000000e+03 6.603851795196533203e+00 3.786112964153289795e-01 -1.087973214453086257e-04 5.231220275163650513e-04 1.242974103661254048e-04 1.519451179774478078e-04
4.636000000000000000e+03 8.930113792419433594e+00 1.122923851013183594e+00 6.753588968422263861e-05 2.599670551717281342e-04 9.825087909121066332e-05 2.814725448843091726e-04
4.637000000000000000e+03 8.199422836303710938e+00 1.120554327964782715e+00 -2.766060060821473598e-04 -3.246720880270004272e-04 -1.803834311431273818e-04 -3.017011331394314766e-04
4.638000000000000000e+03 7.469150543212890625e+00 1.119543075561523438e+00 3.888980427291244268e-05 3.969890822190791368e-04 1.307636703131720424e-04 2.627791254781186581e-04
4.639000000000000000e+03 6.739063739776611328e+00 1.118611335754394531e+00 -2.525521267671138048e-04 -4.207253805361688137e-04 -2.019832609221339226e-04 -2.197951980633661151e-04
4.640000000000000000e+03 5.278835773468017578e+00 1.115882039070129395e+00 -2.140877186320722103e-04 -4.193477216176688671e-04 -1.900306378956884146e-04 -1.090071891667321324e-04
4.641000000000000000e+03 4.549146175384521484e+00 1.113384723663330078e+00 1.717547820589970797e-05 3.972180420532822609e-04 1.243180595338344574e-04 1.181399056804366410e-04
4.642000000000000000e+03 9.968983530998229980e-01 1.133925795555114746e+00 -2.905279689002782106e-05 -2.094829687848687172e-04 -7.156073115766048431e-05 3.062140604015439749e-05
4.643000000000000000e+03 7.947246074676513672e+00 -3.790149092674255371e-01 -1.542847167002037168e-04 -5.953800064162351191e-05 -6.414681411115452647e-05 8.298279863083735108e-05
4.644000000000000000e+03 8.798082351684570312e+00 -1.121163964271545410e+00 -1.121750974562019110e-04 -3.898503564414568245e-05 -4.534803883871063590e-05 2.237553853774443269e-04
4.645000000000000000e+03 9.582462310791015625e+00 -3.862577378749847412e-01 -9.373871580464765429e-05 3.816563912550918758e-05 -1.667192191234789789e-05 7.727796764811500907e-05
4.646000000000000000e+03 7.128131389617919922e+00 -3.778152763843536377e-01 -1.416084123775362968e-04 1.064489115378819406e-04 -1.054785116139100865e-05 -6.844284507678821683e-05
4.647000000000000000e+03 6.302709579467773438e+00 -3.771458566188812256e-01 -1.841894118115305901e-04 -1.324752520304173231e-04 -9.499939915258437395e-05 7.633110362803563476e-05
4.648000000000000000e+03 5.439445972442626953e+00 -3.834656774997711182e-01 -1.611497282283380628e-04 1.470919378334656358e-04 -4.217339210299542174e-06 -6.734447379130870104e-05
4.649000000000000000e+03 4.549984931945800781e+00 -3.402172923088073730e-01 -1.068971905624493957e-04 -1.547708379803225398e-04 -7.850040856283158064e-05 1.203617284772917628e-05
4.650000000000000000e+03 4.365737915039062500e+00 -8.721476197242736816e-01 -2.126563194906339049e-04 9.438019333174452186e-05 -3.548283712007105350e-05 -7.595500937895849347e-05
4.651000000000000000e+03 2.784216165542602539e+00 -7.810403704643249512e-01 -5.025736027164384723e-05 3.728768933797255158e-05 -3.890901552949799225e-06 -1.137538492912426591e-04
4.652000000000000000e+03 1.180924773216247559e+00 -3.613742887973785400e-01 -1.393626371282152832e-05 -2.556333674874622375e-05 -1.184988013847032562e-05 2.631417009979486465e-05
4.653000000000000000e+03 4.100910127162933350e-01 -5.529776215553283691e-01 -1.148382034443784505e-05 -1.795613752619829029e-05 -8.831987543089780957e-06 -2.237119588244240731e-05
4.654000000000000000e+03 7.475960254669189453e-01 -1.101374268531799316e+00 -4.915108547720592469e-06 9.500432497588917613e-05 2.702676647459156811e-05 -7.516225650761043653e-06
4.655000000000000000e+03 9.582078933715820312e+00 -1.126257777214050293e+00 -2.228892481070943177e-05 5.585581675404682755e-06 -5.011002940591424704e-06 -1.475084718549624085e-04
4.656000000000000000e+03 8.013586997985839844e+00 -1.119014978408813477e+00 -6.512815161840990186e-05 7.300774450413882732e-05 2.363877911193412729e-06 -1.502415398135781288e-04
4.657000000000000000e+03 7.227835178375244141e+00 -1.117815256118774414e+00 -1.551255700178444386e-04 -7.089018617989495397e-05 -6.780472904210910201e-05 1.901760697364807129e-04
4.658000000000000000e+03 6.435775756835937500e+00 -1.117145895957946777e+00 -6.644988025072962046e-05 1.059947535395622253e-04 1.186346071335719898e-05 -1.626957237021997571e-04
4.659000000000000000e+03 5.605874538421630859e+00 -1.123465657234191895e+00 -2.060452388832345605e-04 -8.733604772714897990e-05 -8.801438525551930070e-05 1.668763288762420416e-04
4.660000000000000000e+03 4.870606899261474609e+00 -1.221678614616394043e+00 5.235215940047055483e-05 9.747732110554352403e-05 4.494884342420846224e-05 -2.524781157262623310e-04
4.661000000000000000e+03 4.215381145477294922e+00 -1.291930317878723145e+00 -1.002255012281239033e-04 -1.023129298118874431e-04 -6.076152931200340390e-05 2.054685901384800673e-04
4.662000000000000000e+03 3.483533143997192383e+00 -1.264367222785949707e+00 -8.853117469698190689e-05 8.938413520809262991e-05 2.558885796588583617e-07 -2.537541731726378202e-04
4.663000000000000000e+03 2.720056772232055664e+00 -1.259521603584289551e+00 -3.074735650443471968e-05 -6.064200351829640567e-05 -2.741680873441509902e-05 1.281461591133847833e-04
4.664000000000000000e+03 1.356012225151062012e+00 -1.203287243843078613e+00 1.217228273162618279e-04 -1.905880635604262352e-04 -2.065957414743024856e-05 1.621511182747781277e-05
4.665000000000000000e+03 1.973117947578430176e+00 -8.476541042327880859e-01 -6.718584336340427399e-05 1.556990719109307975e-05 -1.548478030599653721e-05 1.551826790091581643e-05
4.666000000000000000e+03 8.765102386474609375e+00 -3.811639845371246338e-01 -9.988021338358521461e-05 1.092561251425649971e-05 -2.668638080649543554e-05 -5.625256744679063559e-05
4.667000000000000000e+03 3.694828748703002930e+00 -2.827752828598022461e-01 -1.065477335941977799e-04 1.272955705644562840e-04 6.224352546269074082e-06 -6.040766038495348766e-06
4.668000000000000000e+03 2.863922595977783203e+00 -2.815187871456146240e-01 -9.843720181379467249e-05 -7.603602716699242592e-05 -5.234196942183189094e-05 -6.923839009687071666e-06
4.669000000000000000e+03 1.994147539138793945e+00 -3.323310017585754395e-01 -3.245728294132277369e-05 2.324253000551834702e-05 -2.764425744317122735e-06 -3.076321445405483246e-05
4.670000000000000000e+03 1.978801369667053223e+00 -1.275323033332824707e+00 -1.234966621268540621e-04 6.955477147130295634e-05 -1.618256646906957030e-05 -2.023997949436306953e-04
4.671000000000000000e+03 3.578665971755981445e+00 -7.871425151824951172e-01 -1.035112218232825398e-04 -5.383320240071043372e-05 -4.720332799479365349e-05 6.346018926706165075e-05
4.672000000000000000e+03 1.511178874969482422e+01 -1.151870131492614746e+00 4.245075160724809393e-06 -2.409694752714131027e-05 -5.955561846349155530e-06 -4.189436003798618913e-05
4.673000000000000000e+03 1.328532791137695312e+01 -1.267471551895141602e+00 7.015465598669834435e-06 2.212643948951154016e-06 2.768432750599458814e-06 7.500679203076288104e-05
4.674000000000000000e+03 1.480503654479980469e+01 -5.744030475616455078e-01 4.246642129146493971e-05 6.766991646145470440e-06 1.477002388128312305e-05 -4.044462002639193088e-06
4.675000000000000000e+03 1.453040313720703125e+01 -1.313965797424316406e+00 -9.476094419369474053e-05 6.367927653627702966e-06 -2.651790418894961476e-05 1.052137304213829339e-04
4.676000000000000000e+03 1.393833351135253906e+01 -1.278923630714416504e+00 1.309179060626775026e-05 2.266275259898975492e-05 1.072636314347619191e-05 -9.537624282529577613e-05
4.677000000000000000e+03 1.336329460144042969e+01 -5.279909372329711914e-01 2.275869519507978112e-06 -4.211830309941433370e-05 -1.195273034682031721e-05 -3.460881998762488365e-05
4.678000000000000000e+03 1.411463356018066406e+01 -5.394020080566406250e-01 1.933230350914527662e-06 2.788346137094777077e-05 8.945007721194997430e-06 3.766109875869005919e-05
4.679000000000000000e+03 1.111242771148681641e+01 -4.403275847434997559e-01 -4.432282730704173446e-05 9.628250700188800693e-05 1.558790427225176245e-05 5.437702566268853843e-05
4.680000000000000000e+03 1.260764503479003906e+01 -5.095726251602172852e-01 -2.734999270614935085e-06 5.753579534939490259e-05 1.644023905100766569e-05 2.889910683734342456e-05
4.681000000000000000e+03 1.185993289947509766e+01 -4.741277396678924561e-01 3.442160050326492637e-06 -9.011104702949523926e-05 -2.600066545710433275e-05 -1.989331030927132815e-05
4.682000000000000000e+03 1.109096240997314453e+01 -1.180124521255493164e+00 3.961944457842037082e-05 -8.309310942422598600e-05 -1.304209854424698278e-05 -9.970314567908644676e-05
4.683000000000000000e+03 1.036482620239257812e+01 -4.067706167697906494e-01 -3.862088851747103035e-05 -8.142039587255567312e-05 -3.601238495321013033e-05 -4.251322752679698169e-05
4.684000000000000000e+03 1.034629440307617188e+01 -1.146702885627746582e+00 -9.369816689286381006e-05 3.210467184544540942e-05 -1.847804924182128161e-05 2.098727272823452950e-04
4.685000000000000000e+03 1.258031177520751953e+01 -1.249099493026733398e+00 1.782498293323442340e-05 -6.575839506695047021e-05 -1.438002436771057546e-05 -5.063531352789141238e-05
4.686000000000000000e+03 1.183553314208984375e+01 -1.213789224624633789e+00 -6.413296068785712123e-05 7.273884693859145045e-05 2.581765784270828590e-06 1.070269790943711996e-04
4.687000000000000000e+03 4.701623916625976562e+01 -6.447971820831298828e+00 3.397465896606445312e+01 6.689533233642578125e+00 1.219925785064697266e+01 1.266738986968994141e+01
4.688000000000000000e+03 4.702044296264648438e+01 -6.466980934143066406e+00 3.083914184570312500e+01 1.936038970947265625e+01 1.505985927581787109e+01 2.361099624633789062e+01
4.689000000000000000e+03 4.702826690673828125e+01 -6.484807491302490234e+00 2.823387336730957031e+01 3.140852737426757812e+01 1.789272117614746094e+01 2.729630661010742188e+01
4.690000000000000000e+03 4.703940963745117188e+01 -6.500770568847656250e+00 2.427247619628906250e+01 4.384900665283203125e+01 2.043644523620605469e+01 2.814580726623535156e+01
4.691000000000000000e+03 4.705345153808593750e+01 -6.514257907867431641e+00 2.083400154113769531e+01 5.507641220092773438e+01 2.277312469482421875e+01 2.601755523681640625e+01
4.692000000000000000e+03 4.706984710693359375e+01 -6.524754524230957031e+00 1.763400840759277344e+01 6.452154541015625000e+01 2.464666557312011719e+01 2.145734024047851562e+01
4.693000000000000000e+03 4.708797073364257812e+01 -6.531858444213867188e+00 1.625831222534179688e+01 7.135964965820312500e+01 2.628538894653320312e+01 1.512081241607666016e+01
4.694000000000000000e+03 4.710713577270507812e+01 -6.535297393798828125e+00 1.638599205017089844e+01 7.497634887695312500e+01 2.740870285034179688e+01 7.801599502563476562e+00
4.695000000000000000e+03 4.712659835815429688e+01 -6.534939765930175781e+00 1.875463294982910156e+01 7.545360565185546875e+01 2.826247215270996094e+01 7.373965978622436523e-01
4.696000000000000000e+03 4.714562225341796875e+01 -6.530799865722656250e+00 2.280282020568847656e+01 7.306336212158203125e+01 2.875985336303710938e+01 -5.315753936767578125e+00
4.697000000000000000e+03 4.716347503662109375e+01 -6.523035526275634766e+00 2.798315811157226562e+01 6.868743896484375000e+01 2.900118064880371094e+01 -9.482124328613281250e+00
4.698000000000000000e+03 4.717947387695312500e+01 -6.511944293975830078e+00 3.360147857666015625e+01 6.322781372070312500e+01 2.904878807067871094e+01 -1.149398612976074219e+01
4.699000000000000000e+03 4.719300842285156250e+01 -6.497950553894042969e+00 3.887549209594726562e+01 5.776211547851562500e+01 2.899128341674804688e+01 -1.134026241302490234e+01
4.700000000000000000e+03 4.720355987548828125e+01 -6.481589317321777344e+00 4.318983840942382812e+01 5.295907211303710938e+01 2.884467315673828125e+01 -9.378271102905273438e+00
4.701000000000000000e+03 4.721072387695312500e+01 -6.463487625122070312e+00 4.619530868530273438e+01 4.962281417846679688e+01 2.874543762207031250e+01 -6.096011638641357422e+00
4.702000000000000000e+03 4.721422576904296875e+01 -6.444336891174316406e+00 4.767964935302734375e+01 4.790382003784179688e+01 2.867503929138183594e+01 -1.999881386756896973e+00
4.703000000000000000e+03 4.721393585205078125e+01 -6.424870967864990234e+00 4.753337478637695312e+01 4.798612594604492188e+01 2.865584945678710938e+01 2.270234823226928711e+00
4.704000000000000000e+03 4.720985794067382812e+01 -6.405834197998046875e+00 4.583750915527343750e+01 4.997018432617187500e+01 2.874230766296386719e+01 6.232256889343261719e+00
4.705000000000000000e+03 4.720215225219726562e+01 -6.387955665588378906e+00 4.262444686889648438e+01 5.357125854492187500e+01 2.885871124267578125e+01 9.348777770996093750e+00
4.706000000000000000e+03 4.719111633300781250e+01 -6.371919155120849609e+00 3.814345550537109375e+01 5.839506149291992188e+01 2.896155548095703125e+01 1.106204509735107422e+01
4.707000000000000000e+03 4.717716598510742188e+01 -6.358337879180908203e+00 3.287530517578125000e+01 6.390063476562500000e+01 2.903278160095214844e+01 1.088723850250244141e+01
4.708000000000000000e+03 4.716084289550781250e+01 -6.347732543945312500e+00 2.735754203796386719e+01 6.925016784667968750e+01 2.898231315612792969e+01 8.542119026184082031e+00
4.709000000000000000e+03 4.714276504516601562e+01 -6.340507984161376953e+00 2.231805229187011719e+01 7.334404754638671875e+01 2.869863128662109375e+01 4.095212936401367188e+00
4.710000000000000000e+03 4.712362670898437500e+01 -6.336941242218017578e+00 1.860949707031250000e+01 7.534680175781250000e+01 2.818689155578613281e+01 -2.113397121429443359e+00
4.711000000000000000e+03 4.710415649414062500e+01 -6.337169170379638672e+00 1.666830635070800781e+01 7.445281982421875000e+01 2.733633804321289062e+01 -9.265377998352050781e+00
4.712000000000000000e+03 4.708510589599609375e+01 -6.341182231903076172e+00 1.678870582580566406e+01 7.033233642578125000e+01 2.613631248474121094e+01 -1.647162437438964844e+01
4.713000000000000000e+03 4.706720352172851562e+01 -6.348827362060546875e+00 1.848787879943847656e+01 6.313872909545898438e+01 2.448798179626464844e+01 -2.253445816040039062e+01
4.714000000000000000e+03 4.705112838745117188e+01 -6.359811305999755859e+00 2.190953826904296875e+01 5.344558334350585938e+01 2.260653686523437500e+01 -2.670779037475585938e+01
4.715000000000000000e+03 4.703750228881835938e+01 -6.373714923858642578e+00 2.528297615051269531e+01 4.202100372314453125e+01 2.019119453430175781e+01 -2.844964218139648438e+01
4.716000000000000000e+03 4.702684402465820312e+01 -6.390005111694335938e+00 2.911706352233886719e+01 2.975644874572753906e+01 1.766205406188964844e+01 -2.713873100280761719e+01
4.717000000000000000e+03 4.701955795288085938e+01 -6.408059120178222656e+00 3.141069793701171875e+01 1.793346786499023438e+01 1.480324935913085938e+01 -2.308362388610839844e+01
4.718000000000000000e+03 4.701592636108398438e+01 -6.427185535430908203e+00 3.383471679687500000e+01 5.907303333282470703e+00 1.192260646820068359e+01 -1.175311851501464844e+01
