# el_label, x, y, sXX, sYY, sZZ, sXY
1.000000000000000000e+00 7.681788635253906250e+01 -6.427097797393798828e+00 -1.068399238586425781e+01 -2.898219585418701172e+00 -4.074663639068603516e+00 -3.118279695510864258e+00
2.000000000000000000e+00 7.661989593505859375e+01 -6.447533607482910156e+00 -6.099108695983886719e+00 1.136133313179016113e+00 -1.488892555236816406e+00 6.579397916793823242e-01
3.000000000000000000e+00 7.642190551757812500e+01 -6.467968940734863281e+00 -7.434282302856445312e+00 -5.418968796730041504e-01 -2.392853736877441406e+00 -1.245517954230308533e-01
4.000000000000000000e+00 7.622392272949218750e+01 -6.488404750823974609e+00 -7.747579097747802734e+00 3.229344785213470459e-01 -2.227393388748168945e+00 4.743259772658348083e-02
5.000000000000000000e+00 7.682953643798828125e+01 -6.484328269958496094e+00 6.000183582305908203e+00 -2.657346963882446289e+00 1.002850890159606934e+00 2.078584671020507812e+00
6.000000000000000000e+00 7.663931274414062500e+01 -6.542918205261230469e+00 -1.759496212005615234e+00 4.421831071376800537e-01 -3.951939046382904053e-01 1.339915037155151367e+00
7.000000000000000000e+00 7.644908905029296875e+01 -6.601507663726806641e+00 -1.911284804344177246e+00 8.444367051124572754e-01 -3.200544416904449463e-01 2.167594671249389648e+00
8.000000000000000000e+00 7.625887298583984375e+01 -6.660097122192382812e+00 -3.026745796203613281e+00 2.967383563518524170e-01 -8.190022706985473633e-01 1.312957167625427246e+00
9.000000000000000000e+00 7.685210418701171875e+01 -6.538196086883544922e+00 1.147089958190917969e+01 3.089689493179321289e+00 4.368176460266113281e+00 9.756727218627929688e+00
1.000000000000000000e+01 7.667692565917968750e+01 -6.632697582244873047e+00 4.566807746887207031e+00 1.745475053787231445e+00 1.893684744834899902e+00 5.601619243621826172e+00
1.100000000000000000e+01 7.650175476074218750e+01 -6.727199077606201172e+00 1.294486165046691895e+00 2.328942775726318359e+00 1.087028622627258301e+00 4.284810543060302734e+00
1.200000000000000000e+01 7.632657623291015625e+01 -6.821700572967529297e+00 2.943126261234283447e-01 2.061980485916137695e+00 7.068879604339599609e-01 4.031414031982421875e+00
1.300000000000000000e+01 7.688472747802734375e+01 -6.586639404296875000e+00 1.297988986968994141e+01 1.074275398254394531e+01 7.116793155670166016e+00 1.561197090148925781e+01
1.400000000000000000e+01 7.673130035400390625e+01 -6.713436126708984375e+00 6.344382286071777344e+00 6.665462970733642578e+00 3.902953624725341797e+00 1.001603221893310547e+01
1.500000000000000000e+01 7.657787322998046875e+01 -6.840233325958251953e+00 3.758283615112304688e+00 5.369760036468505859e+00 2.738413095474243164e+00 7.768860816955566406e+00
1.600000000000000000e+01 7.642444610595703125e+01 -6.967030048370361328e+00 1.868554472923278809e+00 4.783985614776611328e+00 1.995761990547180176e+00 6.473781585693359375e+00
1.700000000000000000e+01 7.692615509033203125e+01 -6.627804279327392578e+00 1.084038352966308594e+01 2.030727386474609375e+01 9.344297409057617188e+00 1.905674743652343750e+01
1.800000000000000000e+01 7.680035400390625000e+01 -6.782044887542724609e+00 6.201161384582519531e+00 1.312180995941162109e+01 5.796891212463378906e+00 1.320793437957763672e+01
1.900000000000000000e+01 7.667454528808593750e+01 -6.936285018920898438e+00 3.617918252944946289e+00 1.037757205963134766e+01 4.198647022247314453e+00 1.037269496917724609e+01
2.000000000000000000e+01 7.654873657226562500e+01 -7.090525150299072266e+00 2.271809577941894531e+00 8.867773056030273438e+00 3.341874837875366211e+00 8.908787727355957031e+00
2.100000000000000000e+01 7.697480773925781250e+01 -6.660116195678710938e+00 7.652843952178955078e+00 3.002275848388671875e+01 1.130268096923828125e+01 1.961884498596191406e+01
2.200000000000000000e+01 7.688143920898437500e+01 -6.835897445678710938e+00 4.171453475952148438e+00 2.048707199096679688e+01 7.397557258605957031e+00 1.432048511505126953e+01
2.300000000000000000e+01 7.678807067871093750e+01 -7.011678695678710938e+00 2.470423936843872070e+00 1.630905342102050781e+01 5.633842945098876953e+00 1.172610569000244141e+01
2.400000000000000000e+01 7.669469451904296875e+01 -7.187459945678710938e+00 1.135071277618408203e+00 1.389126014709472656e+01 4.507899761199951172e+00 9.964074134826660156e+00
2.500000000000000000e+01 7.702882385253906250e+01 -6.682337284088134766e+00 4.175839424133300781e+00 3.886069107055664062e+01 1.291095924377441406e+01 1.726636314392089844e+01
2.600000000000000000e+01 7.697145843505859375e+01 -6.872933387756347656e+00 2.060789108276367188e+00 2.753812599182128906e+01 8.879673957824707031e+00 1.348687267303466797e+01
2.700000000000000000e+01 7.691409301757812500e+01 -7.063529014587402344e+00 4.709781408309936523e-01 2.234559822082519531e+01 6.844973087310791016e+00 1.118896198272705078e+01
2.800000000000000000e+01 7.685673522949218750e+01 -7.254124641418457031e+00 -3.016509413719177246e-01 1.923472213745117188e+01 5.679921150207519531e+00 9.751929283142089844e+00
2.900000000000000000e+01 7.708612823486328125e+01 -6.693618774414062500e+00 2.202209949493408203e+00 4.569953536987304688e+01 1.437052345275878906e+01 1.286360073089599609e+01
3.000000000000000000e+01 7.706696319580078125e+01 -6.891735553741455078e+00 1.905270963907241821e-01 3.344964981079101562e+01 1.009205341339111328e+01 1.073502063751220703e+01
3.100000000000000000e+01 7.704780578613281250e+01 -7.089852333068847656e+00 -1.015710234642028809e+00 2.764965248107910156e+01 7.990182876586914062e+00 9.245187759399414062e+00
3.200000000000000000e+01 7.702864837646484375e+01 -7.287969112396240234e+00 -1.796756386756896973e+00 2.401372337341308594e+01 6.665090084075927734e+00 7.988444805145263672e+00
3.300000000000000000e+01 7.714453125000000000e+01 -6.693528175354003906e+00 1.924870967864990234e+00 4.980471801757812500e+01 1.551887702941894531e+01 7.221431255340576172e+00
3.400000000000000000e+01 7.716430664062500000e+01 -6.891584396362304688e+00 -3.060777187347412109e-01 3.774196243286132812e+01 1.123076534271240234e+01 6.930952548980712891e+00
3.500000000000000000e+01 7.718408203125000000e+01 -7.089640617370605469e+00 -1.794539213180541992e+00 3.147103881835937500e+01 8.902949333190917969e+00 6.012127399444580078e+00
3.600000000000000000e+01 7.720385742187500000e+01 -7.287696838378906250e+00 -2.423466444015502930e+00 2.760517120361328125e+01 7.554511070251464844e+00 5.366648674011230469e+00
3.700000000000000000e+01 7.720179748535156250e+01 -6.682069301605224609e+00 4.083904743194580078e+00 5.136901473999023438e+01 1.663587570190429688e+01 1.685981631278991699e+00
3.800000000000000000e+01 7.725975799560546875e+01 -6.872485637664794922e+00 3.624607324600219727e-01 3.983013916015625000e+01 1.205778026580810547e+01 2.584098339080810547e+00
3.900000000000000000e+01 7.731771087646484375e+01 -7.062902450561523438e+00 -1.089276194572448730e+00 3.372949600219726562e+01 9.792065620422363281e+00 2.434891223907470703e+00
4.000000000000000000e+01 7.737566375732421875e+01 -7.253319263458251953e+00 -2.181987762451171875e+00 2.958151054382324219e+01 8.219856262207031250e+00 2.066166639328002930e+00
4.100000000000000000e+01 7.725574493408203125e+01 -6.659679889678955078e+00 7.480059146881103516e+00 5.034830856323242188e+01 1.734851074218750000e+01 -2.988622903823852539e+00
4.200000000000000000e+01 7.734966278076171875e+01 -6.835170745849609375e+00 2.943802356719970703e+00 4.021407699584960938e+01 1.294736385345458984e+01 -1.250170469284057617e+00
4.300000000000000000e+01 7.744358062744140625e+01 -7.010661125183105469e+00 4.506399631500244141e-01 3.399459457397460938e+01 1.033357048034667969e+01 -1.101910471916198730e+00
4.400000000000000000e+01 7.753749084472656250e+01 -7.186151504516601562e+00 -4.797113835811614990e-01 3.019659423828125000e+01 8.915064811706542969e+00 -8.740221858024597168e-01
4.500000000000000000e+01 7.730429840087890625e+01 -6.627217292785644531e+00 1.243479633331298828e+01 4.818010711669921875e+01 1.818447113037109375e+01 -5.831628322601318359e+00
4.600000000000000000e+01 7.743058013916015625e+01 -6.781066417694091797e+00 6.130768775939941406e+00 3.860250473022460938e+01 1.341998291015625000e+01 -4.280949592590332031e+00
4.700000000000000000e+01 7.755686950683593750e+01 -6.934915065765380859e+00 3.472632408142089844e+00 3.320804595947265625e+01 1.100420379638671875e+01 -3.548942327499389648e+00
4.800000000000000000e+01 7.768315124511718750e+01 -7.088764190673828125e+00 1.645871400833129883e+00 2.892457580566406250e+01 9.171133995056152344e+00 -3.412094831466674805e+00
4.900000000000000000e+01 7.734559631347656250e+01 -6.585923671722412109e+00 1.700554656982421875e+01 4.479907226562500000e+01 1.854138565063476562e+01 -7.029798507690429688e+00
5.000000000000000000e+01 7.749942016601562500e+01 -6.712243556976318359e+00 1.035500907897949219e+01 3.652815246582031250e+01 1.406494808197021484e+01 -5.640017032623291016e+00
5.100000000000000000e+01 7.765323638916015625e+01 -6.838563919067382812e+00 6.644808769226074219e+00 3.092980384826660156e+01 1.127238368988037109e+01 -4.966932773590087891e+00
5.200000000000000000e+01 7.780706024169921875e+01 -6.964883804321289062e+00 4.552982330322265625e+00 2.741179084777832031e+01 9.589431762695312500e+00 -4.630729198455810547e+00
5.300000000000000000e+01 7.737806701660156250e+01 -6.537379741668701172e+00 2.157935714721679688e+01 4.214694213867187500e+01 1.911788940429687500e+01 -6.264886856079101562e+00
5.400000000000000000e+01 7.755353546142578125e+01 -6.631336688995361328e+00 1.387746810913085938e+01 3.358744430541992188e+01 1.423947429656982422e+01 -5.626536369323730469e+00
5.500000000000000000e+01 7.772901153564453125e+01 -6.725293636322021484e+00 1.021166133880615234e+01 2.890590095520019531e+01 1.173526859283447266e+01 -4.837854385375976562e+00
5.600000000000000000e+01 7.790447998046875000e+01 -6.819250583648681641e+00 7.224989891052246094e+00 2.523620414733886719e+01 9.738358497619628906e+00 -4.623816013336181641e+00
5.700000000000000000e+01 7.740047454833984375e+01 -6.483441829681396484e+00 2.448187637329101562e+01 3.942213058471679688e+01 1.917120170593261719e+01 -4.420112133026123047e+00
5.800000000000000000e+01 7.759087371826171875e+01 -6.541440486907958984e+00 1.708810806274414062e+01 3.178380012512207031e+01 1.466157245635986328e+01 -3.922191858291625977e+00
5.900000000000000000e+01 7.778128051757812500e+01 -6.599439144134521484e+00 1.251056480407714844e+01 2.661786270141601562e+01 1.173852825164794922e+01 -3.700161695480346680e+00
6.000000000000000000e+01 7.797168731689453125e+01 -6.657437801361083984e+00 9.912923812866210938e+00 2.389280509948730469e+01 1.014171886444091797e+01 -3.292318582534790039e+00
6.100000000000000000e+01 7.741194152832031250e+01 -6.426175117492675781e+00 2.627956962585449219e+01 3.855233383178710938e+01 1.944957160949707031e+01 -1.578499436378479004e+00
6.200000000000000000e+01 7.760999298095703125e+01 -6.445996284484863281e+00 1.861427307128906250e+01 3.015567207336425781e+01 1.463098335266113281e+01 -1.475064396858215332e+00
6.300000000000000000e+01 7.780805206298828125e+01 -6.465816974639892578e+00 1.404095268249511719e+01 2.593791007995605469e+01 1.199365901947021484e+01 -1.342588663101196289e+00
6.400000000000000000e+01 7.800610351562500000e+01 -6.485638141632080078e+00 1.068168926239013672e+01 2.250088119506835938e+01 9.954771041870117188e+00 -1.346660614013671875e+00
6.500000000000000000e+01 7.741204833984375000e+01 -6.367770671844482422e+00 2.624996757507324219e+01 3.840867614746093750e+01 1.939759254455566406e+01 1.525574445724487305e+00
6.600000000000000000e+01 7.761016845703125000e+01 -6.348655700683593750e+00 1.866851997375488281e+01 3.027612304687500000e+01 1.468339347839355469e+01 1.396025776863098145e+00
6.700000000000000000e+01 7.780828857421875000e+01 -6.329540252685546875e+00 1.398814678192138672e+01 2.582735252380371094e+01 1.194464969635009766e+01 1.233998894691467285e+00
6.800000000000000000e+01 7.800640869140625000e+01 -6.310424804687500000e+00 1.070962810516357422e+01 2.255334663391113281e+01 9.978893280029296875e+00 1.272075057029724121e+00
6.900000000000000000e+01 7.740077972412109375e+01 -6.310463905334472656e+00 2.458412361145019531e+01 3.947191619873046875e+01 1.921681213378906250e+01 4.346509933471679688e+00
7.000000000000000000e+01 7.759139251708984375e+01 -6.253143787384033203e+00 1.708472442626953125e+01 3.167207336425781250e+01 1.462703895568847656e+01 3.893706083297729492e+00
7.100000000000000000e+01 7.778199768066406250e+01 -6.195823669433593750e+00 1.253520965576171875e+01 2.673798751831054688e+01 1.178195953369140625e+01 3.615725278854370117e+00
7.200000000000000000e+01 7.797260284423828125e+01 -6.138503074645996094e+00 9.800071716308593750e+00 2.370224380493164062e+01 1.005069446563720703e+01 3.223937511444091797e+00
7.300000000000000000e+01 7.737857055664062500e+01 -6.256446838378906250e+00 2.163745307922363281e+01 4.204972839355468750e+01 1.910615539550781250e+01 6.243275642395019531e+00
7.400000000000000000e+01 7.755437469482421875e+01 -6.163115024566650391e+00 1.396790695190429688e+01 3.358640289306640625e+01 1.426629257202148438e+01 5.615374088287353516e+00
7.500000000000000000e+01 7.773017883300781250e+01 -6.069783687591552734e+00 1.017442417144775391e+01 2.890527725219726562e+01 1.172391033172607422e+01 4.833860397338867188e+00
7.600000000000000000e+01 7.790597534179687500e+01 -5.976452350616455078e+00 7.292747497558593750e+00 2.525785064697265625e+01 9.765179634094238281e+00 4.587137222290039062e+00
7.700000000000000000e+01 7.734626770019531250e+01 -6.207787036895751953e+00 1.710685920715332031e+01 4.475561904907226562e+01 1.855874252319335938e+01 7.044799804687500000e+00
7.800000000000000000e+01 7.750054168701171875e+01 -6.082015991210937500e+00 1.043828105926513672e+01 3.645629119873046875e+01 1.406837177276611328e+01 5.648752689361572266e+00
7.900000000000000000e+01 7.765480804443359375e+01 -5.956244468688964844e+00 6.652872085571289062e+00 3.095366477966308594e+01 1.128196048736572266e+01 5.077421665191650391e+00
8.000000000000000000e+01 7.780908203125000000e+01 -5.830473423004150391e+00 4.696195125579833984e+00 2.752816963195800781e+01 9.667309761047363281e+00 4.537218570709228516e+00
8.100000000000000000e+01 7.730511474609375000e+01 -6.166347026824951172e+00 1.258426284790039062e+01 4.808261108398437500e+01 1.820006179809570312e+01 5.878573417663574219e+00
8.200000000000000000e+01 7.743194580078125000e+01 -6.012948989868164062e+00 6.162670612335205078e+00 3.860828399658203125e+01 1.343128681182861328e+01 4.353679180145263672e+00
8.300000000000000000e+01 7.755877685546875000e+01 -5.859550476074218750e+00 3.598474025726318359e+00 3.311159515380859375e+01 1.101302146911621094e+01 3.642882108688354492e+00
8.400000000000000000e+01 7.768560791015625000e+01 -5.706152439117431641e+00 1.520917654037475586e+00 2.914281654357910156e+01 9.199120521545410156e+00 3.465583562850952148e+00
8.500000000000000000e+01 7.725667572021484375e+01 -6.133711814880371094e+00 7.571049213409423828e+00 5.035789489746093750e+01 1.737868309020996094e+01 3.046010732650756836e+00
8.600000000000000000e+01 7.735121917724609375e+01 -5.958556652069091797e+00 3.023585081100463867e+00 4.014542770385742188e+01 1.295070362091064453e+01 1.378890395164489746e+00
8.700000000000000000e+01 7.744576263427734375e+01 -5.783401489257812500e+00 4.720735847949981689e-01 3.400711822509765625e+01 1.034375762939453125e+01 1.149264812469482422e+00
8.800000000000000000e+01 7.754030609130859375e+01 -5.608246803283691406e+00 -5.469390749931335449e-01 3.013594245910644531e+01 8.876701354980468750e+00 1.088025212287902832e+00
8.900000000000000000e+01 7.720281982421875000e+01 -6.111130237579345703e+00 4.139090061187744141e+00 5.135006332397460938e+01 1.664674568176269531e+01 -1.533099889755249023e+00
9.000000000000000000e+01 7.726145172119140625e+01 -5.920921325683593750e+00 4.217959046363830566e-01 3.986410522460937500e+01 1.208576965332031250e+01 -2.527539730072021484e+00
9.100000000000000000e+01 7.732008361816406250e+01 -5.730711936950683594e+00 -1.113802671432495117e+00 3.369649124145507812e+01 9.774806976318359375e+00 -2.297551631927490234e+00
9.200000000000000000e+01 7.737871551513671875e+01 -5.540503025054931641e+00 -2.250446081161499023e+00 2.951203536987304688e+01 8.178477287292480469e+00 -2.003911018371582031e+00
9.300000000000000000e+01 7.714559173583984375e+01 -6.099467277526855469e+00 1.999659538269042969e+00 4.988701629638671875e+01 1.556600284576416016e+01 -7.115147590637207031e+00
9.400000000000000000e+01 7.716606903076171875e+01 -5.901483058929443359e+00 -3.509623706340789795e-01 3.780023574829101562e+01 1.123478221893310547e+01 -6.817289352416992188e+00
9.500000000000000000e+01 7.718655395507812500e+01 -5.703498363494873047e+00 -1.778772115707397461e+00 3.149047088623046875e+01 8.913509368896484375e+00 -5.982991695404052734e+00
9.600000000000000000e+01 7.720703125000000000e+01 -5.505513668060302734e+00 -2.588295459747314453e+00 2.759421920776367188e+01 7.501777172088623047e+00 -5.246718406677246094e+00
9.700000000000000000e+01 7.708718109130859375e+01 -6.099168777465820312e+00 2.155780315399169922e+00 4.581483840942382812e+01 1.439118576049804688e+01 -1.273299598693847656e+01
9.800000000000000000e+01 7.706872558593750000e+01 -5.900985240936279297e+00 1.922613680362701416e-01 3.356758117675781250e+01 1.012795352935791016e+01 -1.067880439758300781e+01
9.900000000000000000e+01 7.705027770996093750e+01 -5.702801704406738281e+00 -1.130601644515991211e+00 2.776772308349609375e+01 7.991136550903320312e+00 -9.208383560180664062e+00
1.000000000000000000e+02 7.703182220458984375e+01 -5.504617691040039062e+00 -1.824445843696594238e+00 2.405560684204101562e+01 6.669348239898681641e+00 -7.970553398132324219e+00
1.010000000000000000e+02 7.702983856201171875e+01 -6.110246181488037109e+00 4.201781749725341797e+00 3.905140686035156250e+01 1.297595691680908203e+01 -1.719263267517089844e+01
1.020000000000000000e+02 7.697315216064453125e+01 -5.919446945190429688e+00 1.941265463829040527e+00 2.768240928649902344e+01 8.887103080749511719e+00 -1.344362545013427734e+01
1.030000000000000000e+02 7.691647338867187500e+01 -5.728648185729980469e+00 4.259295165538787842e-01 2.250618171691894531e+01 6.879632949829101562e+00 -1.117256927490234375e+01
1.040000000000000000e+02 7.685978698730468750e+01 -5.537849426269531250e+00 -4.304473996162414551e-01 1.951751899719238281e+01 5.726121902465820312e+00 -9.757652282714843750e+00
1.050000000000000000e+02 7.697574615478515625e+01 -6.132275104522705078e+00 7.535044193267822266e+00 3.020078086853027344e+01 1.132074737548828125e+01 -1.962136650085449219e+01
1.060000000000000000e+02 7.688300323486328125e+01 -5.956162452697753906e+00 4.197041988372802734e+00 2.066219711303710938e+01 7.457771778106689453e+00 -1.428489494323730469e+01
1.070000000000000000e+02 7.679026031494140625e+01 -5.780049324035644531e+00 2.284114599227905273e+00 1.649941635131835938e+01 5.635059356689453125e+00 -1.173548221588134766e+01
1.080000000000000000e+02 7.669751739501953125e+01 -5.603936672210693359e+00 1.121049284934997559e+00 1.414976501464843750e+01 4.581243991851806641e+00 -9.870589256286621094e+00
1.090000000000000000e+02 7.692697906494140625e+01 -6.164412975311279297e+00 1.084029293060302734e+01 2.056089401245117188e+01 9.420355796813964844e+00 -1.906395339965820312e+01
1.100000000000000000e+02 7.680172729492187500e+01 -6.009725570678710938e+00 6.149844169616699219e+00 1.323240756988525391e+01 5.814675807952880859e+00 -1.328385257720947266e+01
1.110000000000000000e+02 7.667646789550781250e+01 -5.855038166046142578e+00 3.621858596801757812e+00 1.056869983673095703e+01 4.257167816162109375e+00 -1.028589248657226562e+01
1.120000000000000000e+02 7.655121612548828125e+01 -5.700350761413574219e+00 2.111656904220581055e+00 8.909563064575195312e+00 3.306365966796875000e+00 -8.881189346313476562e+00
1.130000000000000000e+02 7.688540649414062500e+01 -6.205430030822753906e+00 1.303990650177001953e+01 1.086570072174072266e+01 7.171681880950927734e+00 -1.570071601867675781e+01
1.140000000000000000e+02 7.673242950439453125e+01 -6.078087806701660156e+00 6.329779624938964844e+00 6.829572200775146484e+00 3.947805404663085938e+00 -1.006083393096923828e+01
1.150000000000000000e+02 7.657946014404296875e+01 -5.950745105743408203e+00 3.845278263092041016e+00 5.410169124603271484e+00 2.776634216308593750e+00 -7.791229724884033203e+00
1.160000000000000000e+02 7.642648315429687500e+01 -5.823402404785156250e+00 1.888089537620544434e+00 4.824181556701660156e+00 2.013681411743164062e+00 -6.404132366180419922e+00
1.170000000000000000e+02 7.685260772705078125e+01 -6.253756999969482422e+00 1.153502273559570312e+01 3.182448625564575195e+00 4.415241241455078125e+00 -9.896320343017578125e+00
1.180000000000000000e+02 7.667777252197265625e+01 -6.158632278442382812e+00 4.695907592773437500e+00 1.827243566513061523e+00 1.956945419311523438e+00 -5.616676807403564453e+00
1.190000000000000000e+02 7.650292968750000000e+01 -6.063507556915283203e+00 1.315008282661437988e+00 2.357439756393432617e+00 1.101734399795532227e+00 -4.350829124450683594e+00
1.200000000000000000e+02 7.632809448242187500e+01 -5.968382835388183594e+00 5.475113987922668457e-01 2.151095390319824219e+00 8.095820546150207520e-01 -4.088890552520751953e+00
1.210000000000000000e+02 7.682984924316406250e+01 -6.307544231414794922e+00 6.199268817901611328e+00 -2.617198705673217773e+00 1.074621081352233887e+00 -2.152756690979003906e+00
1.220000000000000000e+02 7.663983154296875000e+01 -6.248277187347412109e+00 -1.622353315353393555e+00 4.508457481861114502e-01 -3.514522612094879150e-01 -1.392533183097839355e+00
1.230000000000000000e+02 7.644982147216796875e+01 -6.189010620117187500e+00 -1.758743047714233398e+00 8.949576020240783691e-01 -2.591356337070465088e-01 -2.167356491088867188e+00
1.240000000000000000e+02 7.625981140136718750e+01 -6.129744052886962891e+00 -3.072202205657958984e+00 3.486839234828948975e-01 -8.170554637908935547e-01 -1.349037051200866699e+00
1.250000000000000000e+02 7.681799316406250000e+01 -6.364732742309570312e+00 -1.039244556427001953e+01 -2.825178146362304688e+00 -3.965286970138549805e+00 3.124710559844970703e+00
1.260000000000000000e+02 7.662007904052734375e+01 -6.343592166900634766e+00 -5.940554618835449219e+00 1.052580952644348145e+00 -1.466392040252685547e+00 -6.601644754409790039e-01
1.270000000000000000e+02 7.642216491699218750e+01 -6.322451114654541016e+00 -7.316495418548583984e+00 -4.525262713432312012e-01 -2.330706357955932617e+00 1.441377401351928711e-01
1.280000000000000000e+02 7.622425079345703125e+01 -6.301310539245605469e+00 -7.587155342102050781e+00 2.754174470901489258e-01 -2.193521499633789062e+00 1.601610518991947174e-02
1.290000000000000000e+02 2.196186065673828125e+01 -6.700578212738037109e+00 -1.069276854395866394e-01 1.839790376834571362e-03 -3.152636811137199402e-02 -1.806778251193463802e-03
1.300000000000000000e+02 2.033289909362792969e+01 -7.179516792297363281e+00 -7.799474149942398071e-02 4.703694023191928864e-03 -2.198731526732444763e-02 -2.462819777429103851e-02
1.310000000000000000e+02 2.261169624328613281e+01 -7.556783676147460938e+00 -1.773523092269897461e-01 4.552138969302177429e-03 -5.184005200862884521e-02 -3.971390798687934875e-02
1.320000000000000000e+02 2.185197448730468750e+01 -7.432458400726318359e+00 -1.396571248769760132e-01 4.909717012196779251e-03 -4.042422398924827576e-02 -3.520521521568298340e-02
1.330000000000000000e+02 2.270871162414550781e+01 -6.822772979736328125e+00 -1.531136631965637207e-01 -4.788869991898536682e-04 -4.607776179909706116e-02 -1.292121247388422489e-03
1.340000000000000000e+02 2.121509361267089844e+01 -6.576943874359130859e+00 -7.131237536668777466e-02 1.923581585288047791e-03 -2.081663720309734344e-02 -4.527790937572717667e-03
1.350000000000000000e+02 2.046852302551269531e+01 -6.451897144317626953e+00 -4.111097380518913269e-02 2.985981525853276253e-03 -1.143749803304672241e-02 -7.307103369385004044e-03
1.360000000000000000e+02 2.109233665466308594e+01 -7.306693553924560547e+00 -1.037590652704238892e-01 5.564426071941852570e-03 -2.945839241147041321e-02 -2.928639017045497894e-02
1.370000000000000000e+02 2.421343040466308594e+01 -6.977969646453857422e+00 -2.393234223127365112e-01 9.195164893753826618e-04 -7.152117043733596802e-02 -1.955765532329678535e-03
1.380000000000000000e+02 2.414235687255859375e+01 -7.714632511138916016e+00 -2.554511427879333496e-01 3.436835715547204018e-03 -7.560429722070693970e-02 -4.034269228577613831e-02
1.390000000000000000e+02 2.337517356872558594e+01 -7.650850772857666016e+00 -2.148008048534393311e-01 3.252038732171058655e-03 -6.346463412046432495e-02 -3.961714357137680054e-02
1.400000000000000000e+02 2.490980529785156250e+01 -7.777047634124755859e+00 -2.969677448272705078e-01 2.552399178966879845e-03 -8.832459896802902222e-02 -4.407612979412078857e-02
1.410000000000000000e+02 2.496787261962890625e+01 -7.039327144622802734e+00 -2.847760617733001709e-01 6.187228136695921421e-04 -8.524720370769500732e-02 -6.426682812161743641e-04
1.420000000000000000e+02 2.567740631103515625e+01 -7.838097095489501953e+00 -3.356756865978240967e-01 -1.821507350541651249e-03 -1.012491583824157715e-01 -4.791252687573432922e-02
1.430000000000000000e+02 2.572246742248535156e+01 -7.099318504333496094e+00 -3.389281928539276123e-01 -1.890966086648404598e-03 -1.022457480430603027e-01 -2.348569920286536217e-03
1.440000000000000000e+02 2.345925331115722656e+01 -6.915245532989501953e+00 -1.990111768245697021e-01 -2.419653756078332663e-04 -5.977594107389450073e-02 -2.400000812485814095e-03
1.450000000000000000e+02 2.796761512756347656e+01 -7.914083957672119141e+00 -4.597555100917816162e-01 -2.318505663424730301e-03 -1.386222094297409058e-01 -5.499326065182685852e-02
1.460000000000000000e+02 2.720497512817382812e+01 -7.896495819091796875e+00 -4.192625880241394043e-01 -2.487851772457361221e-03 -1.265251338481903076e-01 -4.962579160928726196e-02
1.470000000000000000e+02 2.644245719909667969e+01 -7.877746582031250000e+00 -3.760488331317901611e-01 -3.292765468358993530e-03 -1.138024851679801941e-01 -4.773269593715667725e-02
1.480000000000000000e+02 2.873032188415527344e+01 -7.930514812469482422e+00 -4.979892969131469727e-01 -6.316691171377897263e-03 -1.512918025255203247e-01 -5.912465602159500122e-02
1.490000000000000000e+02 2.798519706726074219e+01 -7.174292564392089844e+00 -4.673364162445068359e-01 -6.312390905804932117e-04 -1.403902918100357056e-01 -1.180207543075084686e-02
1.500000000000000000e+02 2.723094940185546875e+01 -7.156898498535156250e+00 -4.238421022891998291e-01 1.330749655608087778e-04 -1.271127015352249146e-01 -1.075981464236974716e-02
1.510000000000000000e+02 2.873951339721679688e+01 -7.190530300140380859e+00 -5.177613496780395508e-01 -2.277618739753961563e-03 -1.560116857290267944e-01 -1.540844887495040894e-02
1.520000000000000000e+02 2.647681999206542969e+01 -7.138342857360839844e+00 -3.862764835357666016e-01 -2.917491132393479347e-03 -1.167581975460052490e-01 -7.639942690730094910e-03
1.530000000000000000e+02 2.949276733398437500e+01 -7.195246696472167969e+00 -5.619846582412719727e-01 -3.694180632010102272e-03 -1.697036474943161011e-01 -2.160877361893653870e-02
1.540000000000000000e+02 2.948995018005371094e+01 -7.935307502746582031e+00 -5.380095839500427246e-01 -6.472780834883451462e-03 -1.633447110652923584e-01 -6.048218160867691040e-02
1.550000000000000000e+02 3.024649810791015625e+01 -7.928795814514160156e+00 -5.803100466728210449e-01 -5.822641775012016296e-03 -1.758397966623306274e-01 -6.381893903017044067e-02
1.560000000000000000e+02 3.099722290039062500e+01 -7.181584835052490234e+00 -6.404250264167785645e-01 -1.812679925933480263e-03 -1.926713138818740845e-01 -2.769617550075054169e-02
1.570000000000000000e+02 3.175983238220214844e+01 -7.913609027862548828e+00 -6.590458750724792480e-01 -7.598661351948976517e-03 -1.999933570623397827e-01 -7.322676479816436768e-02
1.580000000000000000e+02 3.174956512451171875e+01 -7.173673152923583984e+00 -6.871037483215332031e-01 -2.243902068585157394e-03 -2.068042904138565063e-01 -3.123754076659679413e-02
1.590000000000000000e+02 3.024495315551757812e+01 -7.188776493072509766e+00 -5.985389947891235352e-01 -7.448956603184342384e-04 -1.797851771116256714e-01 -2.564778365194797516e-02
1.600000000000000000e+02 3.100312805175781250e+01 -7.921562194824218750e+00 -6.200351119041442871e-01 -4.828458186239004135e-03 -1.874590814113616943e-01 -6.927783787250518799e-02
1.610000000000000000e+02 3.325168609619140625e+01 -7.142140388488769531e+00 -7.703403234481811523e-01 -1.514240633696317673e-03 -2.315563708543777466e-01 -3.944658860564231873e-02
1.620000000000000000e+02 3.401905441284179688e+01 -7.863194465637207031e+00 -7.833767533302307129e-01 -5.754750221967697144e-03 -2.367394417524337769e-01 -8.376884460449218750e-02
1.630000000000000000e+02 3.251437759399414062e+01 -7.900443077087402344e+00 -6.997064352035522461e-01 -6.949155125766992569e-03 -2.119966894388198853e-01 -7.580655813217163086e-02
1.640000000000000000e+02 3.477159881591796875e+01 -7.845397949218750000e+00 -8.250753283500671387e-01 -7.298328448086977005e-03 -2.497120946645736694e-01 -8.713660389184951782e-02
1.650000000000000000e+02 3.475299453735351562e+01 -7.105631351470947266e+00 -8.598108887672424316e-01 -2.380823018029332161e-03 -2.586575150489807129e-01 -4.434300586581230164e-02
1.660000000000000000e+02 3.400221252441406250e+01 -7.123385429382324219e+00 -8.136708140373229980e-01 -2.480910858139395714e-03 -2.448455244302749634e-01 -4.147905483841896057e-02
1.670000000000000000e+02 3.250104904174804688e+01 -7.160549640655517578e+00 -7.306444048881530762e-01 -3.655367530882358551e-03 -2.202899307012557983e-01 -3.599106147885322571e-02
1.680000000000000000e+02 3.326676940917968750e+01 -7.881991863250732422e+00 -7.421090602874755859e-01 -6.888498552143573761e-03 -2.246992588043212891e-01 -7.913840562105178833e-02
1.690000000000000000e+02 3.550323104858398438e+01 -7.085636138916015625e+00 -9.054406881332397461e-01 -3.146400209516286850e-03 -2.725761234760284424e-01 -4.743841663002967834e-02
1.700000000000000000e+02 3.627172470092773438e+01 -7.801253795623779297e+00 -9.126302003860473633e-01 -6.756956689059734344e-03 -2.758161425590515137e-01 -9.298568218946456909e-02
1.710000000000000000e+02 3.552280426025390625e+01 -7.825378894805908203e+00 -8.679853677749633789e-01 -6.494124885648488998e-03 -2.623438537120819092e-01 -9.013698995113372803e-02
1.720000000000000000e+02 3.700176620483398438e+01 -7.040159225463867188e+00 -9.970258474349975586e-01 -2.860485343262553215e-03 -2.999659180641174316e-01 -5.159134790301322937e-02
1.730000000000000000e+02 3.775260925292968750e+01 -7.021411418914794922e+00 -1.044210553169250488e+00 -1.818404416553676128e-03 -3.138086795806884766e-01 -5.334759131073951721e-02
1.740000000000000000e+02 3.777272796630859375e+01 -7.761138439178466797e+00 -1.003388285636901855e+00 -5.760192871093750000e-03 -3.027445375919342041e-01 -9.914083033800125122e-02
1.750000000000000000e+02 3.702170562744140625e+01 -7.779891967773437500e+00 -9.569766521453857422e-01 -5.457305349409580231e-03 -2.887302041053771973e-01 -9.627008438110351562e-02
1.760000000000000000e+02 3.625196838378906250e+01 -7.061516284942626953e+00 -9.502173662185668945e-01 -1.866833772510290146e-03 -2.856252491474151611e-01 -4.976573213934898376e-02
1.770000000000000000e+02 3.925203704833984375e+01 -6.983466625213623047e+00 -1.146427989006042480e+00 -1.959445653483271599e-03 -3.445162475109100342e-01 -5.597862228751182556e-02
1.780000000000000000e+02 3.850259399414062500e+01 -7.002532482147216797e+00 -1.094150543212890625e+00 -2.336854580789804459e-03 -3.289462029933929443e-01 -5.452015995979309082e-02
1.790000000000000000e+02 3.852244567871093750e+01 -7.742266178131103516e+00 -1.050241231918334961e+00 -4.865039605647325516e-03 -3.165318667888641357e-01 -1.024033799767494202e-01
1.800000000000000000e+02 4.076818847656250000e+01 -7.683057308197021484e+00 -1.200042843818664551e+00 -4.112859722226858139e-03 -3.612467348575592041e-01 -1.087389141321182251e-01
1.810000000000000000e+02 4.001962661743164062e+01 -7.703031063079833984e+00 -1.147736668586730957e+00 -4.630238749086856842e-03 -3.457100689411163330e-01 -1.067911013960838318e-01
1.820000000000000000e+02 4.075049972534179688e+01 -6.943266868591308594e+00 -1.250773310661315918e+00 -1.036557368934154510e-03 -3.755429685115814209e-01 -5.796888098120689392e-02
1.830000000000000000e+02 3.927116775512695312e+01 -7.723219394683837891e+00 -1.098174691200256348e+00 -5.788685288280248642e-03 -3.311890065670013428e-01 -1.048677787184715271e-01
1.840000000000000000e+02 4.000121688842773438e+01 -6.963259696960449219e+00 -1.198950290679931641e+00 -2.469596220180392265e-03 -3.604259788990020752e-01 -5.741072818636894226e-02
1.850000000000000000e+02 4.226616287231445312e+01 -7.653321743011474609e+00 -1.305931568145751953e+00 -4.527564626187086105e-03 -3.931377232074737549e-01 -1.143308952450752258e-01
1.860000000000000000e+02 4.225036239624023438e+01 -6.913490295410156250e+00 -1.367409110069274902e+00 -2.032603370025753975e-03 -4.108324944972991943e-01 -5.849034339189529419e-02
1.870000000000000000e+02 4.151683807373046875e+01 -7.666196823120117188e+00 -1.252797007560729980e+00 -3.451389493420720100e-03 -3.768745064735412598e-01 -1.122062206268310547e-01
1.880000000000000000e+02 4.299967193603515625e+01 -6.897992610931396484e+00 -1.427000999450683594e+00 -1.770207309164106846e-03 -4.286313652992248535e-01 -5.978602916002273560e-02
1.890000000000000000e+02 4.301445007324218750e+01 -7.637845039367675781e+00 -1.361591100692749023e+00 -3.806841559708118439e-03 -4.096193611621856689e-01 -1.153678968548774719e-01
1.900000000000000000e+02 4.376168441772460938e+01 -7.619610786437988281e+00 -1.420911669731140137e+00 -2.743972698226571083e-03 -4.270966947078704834e-01 -1.170164868235588074e-01
1.910000000000000000e+02 4.374792480468750000e+01 -6.879736900329589844e+00 -1.485558986663818359e+00 -3.093856794293969870e-04 -4.457604885101318359e-01 -5.942443013191223145e-02
1.920000000000000000e+02 4.150001907348632812e+01 -6.926386356353759766e+00 -1.306911587715148926e+00 -1.312527921982109547e-03 -3.924672305583953857e-01 -5.755083635449409485e-02
1.930000000000000000e+02 4.524763870239257812e+01 -6.857576370239257812e+00 -1.618325114250183105e+00 -1.474123913794755936e-03 -4.859397709369659424e-01 -5.861865729093551636e-02
1.940000000000000000e+02 4.600764846801757812e+01 -7.586318016052246094e+00 -1.603340387344360352e+00 -2.997339237481355667e-03 -4.819013178348541260e-01 -1.231693625450134277e-01
1.950000000000000000e+02 4.450997543334960938e+01 -7.606111049652099609e+00 -1.480463147163391113e+00 -2.248775213956832886e-03 -4.448135793209075928e-01 -1.201446503400802612e-01
1.960000000000000000e+02 4.675494384765625000e+01 -7.572458744049072266e+00 -1.670421123504638672e+00 -2.224084455519914627e-03 -5.017935633659362793e-01 -1.251593530178070068e-01
1.970000000000000000e+02 4.525932312011718750e+01 -7.597484111785888672e+00 -1.540240287780761719e+00 -3.830600762739777565e-03 -4.632212817668914795e-01 -1.225864067673683167e-01
1.980000000000000000e+02 4.674534988403320312e+01 -6.832519531250000000e+00 -1.753262877464294434e+00 6.127695087343454361e-04 -5.257950425148010254e-01 -5.920096859335899353e-02
1.990000000000000000e+02 4.449724578857421875e+01 -6.866219043731689453e+00 -1.549252390861511230e+00 -6.794324726797640324e-04 -4.649795293807983398e-01 -5.822335928678512573e-02
2.000000000000000000e+02 4.599700927734375000e+01 -6.846394062042236328e+00 -1.686259388923645020e+00 -1.665200805291533470e-03 -5.063773989677429199e-01 -5.990670621395111084e-02
2.010000000000000000e+02 4.824522781372070312e+01 -6.818868637084960938e+00 -1.905595302581787109e+00 -8.401738596148788929e-04 -5.719306468963623047e-01 -5.784012749791145325e-02
2.020000000000000000e+02 4.825285720825195312e+01 -7.558829784393310547e+00 -1.805995225906372070e+00 -3.330884501338005066e-03 -5.427978038787841797e-01 -1.312916725873947144e-01
2.030000000000000000e+02 4.750334548950195312e+01 -7.563237667083740234e+00 -1.738254785537719727e+00 -1.262729405425488949e-03 -5.218552350997924805e-01 -1.287553012371063232e-01
2.040000000000000000e+02 4.899468994140625000e+01 -6.811831474304199219e+00 -1.983889341354370117e+00 -1.449792296625673771e-03 -5.956017374992370605e-01 -5.892704427242279053e-02
2.050000000000000000e+02 4.900135803222656250e+01 -7.551801681518554688e+00 -1.877937078475952148e+00 -2.190432744100689888e-03 -5.640382170677185059e-01 -1.321327239274978638e-01
2.060000000000000000e+02 4.974884033203125000e+01 -7.541996002197265625e+00 -1.954147696495056152e+00 -1.477612880989909172e-03 -5.866875648498535156e-01 -1.337688863277435303e-01
2.070000000000000000e+02 4.974313354492187500e+01 -6.802017211914062500e+00 -2.061529159545898438e+00 1.176165649667382240e-03 -6.181059479713439941e-01 -5.810678377747535706e-02
2.080000000000000000e+02 4.749475479125976562e+01 -6.823286056518554688e+00 -1.826218366622924805e+00 -5.248550442047417164e-04 -5.480229854583740234e-01 -5.756970494985580444e-02
2.090000000000000000e+02 5.124328231811523438e+01 -6.795847415924072266e+00 -2.236425161361694336e+00 -8.470478351227939129e-04 -6.711816191673278809e-01 -5.644092336297035217e-02
2.100000000000000000e+02 5.199635314941406250e+01 -7.532447814941406250e+00 -2.189869642257690430e+00 -2.608544193208217621e-03 -6.577434539794921875e-01 -1.424191147089004517e-01
2.110000000000000000e+02 5.049753570556640625e+01 -7.536636352539062500e+00 -2.031245470046997070e+00 -6.872595404274761677e-04 -6.095798015594482422e-01 -1.380384117364883423e-01
2.120000000000000000e+02 5.274426269531250000e+01 -7.526317596435546875e+00 -2.275821208953857422e+00 -2.238393994048237801e-03 -6.834179162979125977e-01 -1.448255926370620728e-01
2.130000000000000000e+02 5.124744033813476562e+01 -7.535836219787597656e+00 -2.108254432678222656e+00 -2.861903281882405281e-03 -6.333349347114562988e-01 -1.405781805515289307e-01
2.140000000000000000e+02 5.274152374267578125e+01 -6.786322593688964844e+00 -2.418166875839233398e+00 5.329501582309603691e-04 -7.252901792526245117e-01 -5.746028199791908264e-02
2.150000000000000000e+02 5.049266433715820312e+01 -6.796650886535644531e+00 -2.145492792129516602e+00 -6.405816384358331561e-05 -6.436670422554016113e-01 -5.605598539113998413e-02
2.160000000000000000e+02 5.199290466308593750e+01 -6.792455673217773438e+00 -2.326933383941650391e+00 -9.383618598803877831e-04 -6.983615159988403320e-01 -5.759184807538986206e-02
2.170000000000000000e+02 5.349121475219726562e+01 -6.783879280090332031e+00 -2.514953851699829102e+00 -2.862598048523068428e-04 -7.545720338821411133e-01 -5.671728029847145081e-02
2.180000000000000000e+02 5.424106216430664062e+01 -6.783032417297363281e+00 -2.617442607879638672e+00 -7.564754341728985310e-04 -7.854596972465515137e-01 -5.753752589225769043e-02
2.190000000000000000e+02 5.349338912963867188e+01 -7.523876190185546875e+00 -2.362376451492309570e+00 -2.041082596406340599e-03 -7.093252539634704590e-01 -1.495721489191055298e-01
2.200000000000000000e+02 5.424282073974609375e+01 -7.523030757904052734e+00 -2.450850963592529297e+00 -3.503521438688039780e-03 -7.363063693046569824e-01 -1.530035436153411865e-01
2.210000000000000000e+02 5.499200439453125000e+01 -7.520969867706298828e+00 -2.543101310729980469e+00 -3.537595504894852638e-03 -7.639917135238647461e-01 -1.562837362289428711e-01
2.220000000000000000e+02 5.574129104614257812e+01 -7.519091606140136719e+00 -2.639353513717651367e+00 -3.259868826717138290e-03 -7.927840352058410645e-01 -1.604657769203186035e-01
2.230000000000000000e+02 5.574037551879882812e+01 -6.779091835021972656e+00 -2.827282190322875977e+00 -7.139131776057183743e-05 -8.482061028480529785e-01 -5.969712883234024048e-02
2.240000000000000000e+02 5.499066925048828125e+01 -6.780971050262451172e+00 -2.721612691879272461e+00 -9.491032105870544910e-04 -8.167685270309448242e-01 -5.891473591327667236e-02
2.250000000000000000e+02 5.724125289916992188e+01 -6.781723022460937500e+00 -3.056112527847290039e+00 -1.549313892610371113e-03 -9.172985553741455078e-01 -6.222067773342132568e-02
2.260000000000000000e+02 5.799132537841796875e+01 -7.521727561950683594e+00 -2.940417289733886719e+00 -5.307634361088275909e-03 -8.837174773216247559e-01 -1.768369078636169434e-01
2.270000000000000000e+02 5.649098205566406250e+01 -7.519072055816650391e+00 -2.737479925155639648e+00 -3.522068029269576073e-03 -8.223005533218383789e-01 -1.663803905248641968e-01
2.280000000000000000e+02 5.874002075195312500e+01 -7.518932342529296875e+00 -3.049450159072875977e+00 -5.827234126627445221e-03 -9.165832400321960449e-01 -1.828116625547409058e-01
2.290000000000000000e+02 5.724164199829101562e+01 -7.521722793579101562e+00 -2.836438655853271484e+00 -5.024860613048076630e-03 -8.524391055107116699e-01 -1.720710694789886475e-01
2.300000000000000000e+02 5.874005126953125000e+01 -6.778932571411132812e+00 -3.302070617675781250e+00 -3.209547430742532015e-04 -9.907174706459045410e-01 -6.651725620031356812e-02
2.310000000000000000e+02 5.649037933349609375e+01 -6.779072284698486328e+00 -2.938552141189575195e+00 -6.024697213433682919e-04 -8.817464113235473633e-01 -6.011593714356422424e-02
2.320000000000000000e+02 5.799114608764648438e+01 -6.781727790832519531e+00 -3.176728725433349609e+00 -1.341819763183593750e-03 -9.534211754798889160e-01 -6.492733955383300781e-02
2.330000000000000000e+02 5.948999786376953125e+01 -6.779025554656982422e+00 -3.432879447937011719e+00 -1.819086726754903793e-03 -1.030409574508666992e+00 -6.850834935903549194e-02
2.340000000000000000e+02 6.024008560180664062e+01 -6.779928684234619141e+00 -3.569288492202758789e+00 -1.336767687462270260e-03 -1.071187615394592285e+00 -7.165268063545227051e-02
2.350000000000000000e+02 6.098959350585937500e+01 -7.519578456878662109e+00 -3.391487360000610352e+00 -6.958790123462677002e-03 -1.019533872604370117e+00 -2.047704011201858521e-01
2.360000000000000000e+02 5.948982238769531250e+01 -7.519025802612304688e+00 -3.159929513931274414e+00 -5.812839604914188385e-03 -9.497227072715759277e-01 -1.903359889984130859e-01
2.370000000000000000e+02 6.023982620239257812e+01 -7.519928932189941406e+00 -3.273596286773681641e+00 -7.245960645377635956e-03 -9.842526912689208984e-01 -1.973159313201904297e-01
2.380000000000000000e+02 6.173945999145507812e+01 -7.519367694854736328e+00 -3.513479709625244141e+00 -7.715081796050071716e-03 -1.056358456611633301e+00 -2.127006947994232178e-01
2.390000000000000000e+02 6.173988723754882812e+01 -6.779367923736572266e+00 -3.859111785888671875e+00 -1.191621879115700722e-03 -1.158090949058532715e+00 -7.780305296182632446e-02
2.400000000000000000e+02 6.098993682861328125e+01 -6.779578208923339844e+00 -3.711470365524291992e+00 -1.899591414257884026e-03 -1.114011049270629883e+00 -7.474762946367263794e-02
2.410000000000000000e+02 6.398949432373046875e+01 -6.780055046081542969e+00 -4.350710868835449219e+00 -2.269399585202336311e-03 -1.305894017219543457e+00 -8.897806704044342041e-02
2.420000000000000000e+02 6.473910522460937500e+01 -7.521468162536621094e+00 -4.031770706176757812e+00 -1.321116648614406586e-02 -1.213494658470153809e+00 -2.531655430793762207e-01
2.430000000000000000e+02 6.248938369750976562e+01 -7.519622325897216797e+00 -3.638332366943359375e+00 -7.859424687922000885e-03 -1.093857526779174805e+00 -2.220742404460906982e-01
2.440000000000000000e+02 6.473950958251953125e+01 -6.781468391418457031e+00 -4.532056331634521484e+00 -4.087551962584257126e-03 -1.360843062400817871e+00 -9.537763893604278564e-02
2.450000000000000000e+02 6.398907470703125000e+01 -7.520054817199707031e+00 -3.899382829666137695e+00 -1.044455543160438538e-02 -1.172948241233825684e+00 -2.419251501560211182e-01
2.460000000000000000e+02 6.323971939086914062e+01 -6.779904842376708984e+00 -4.178905963897705078e+00 -2.048494759947061539e-03 -1.254286408424377441e+00 -8.474954962730407715e-02
2.470000000000000000e+02 6.248984146118164062e+01 -6.779622554779052734e+00 -4.014691352844238281e+00 -1.891546649858355522e-03 -1.204974889755249023e+00 -8.076392114162445068e-02
2.480000000000000000e+02 6.323927688598632812e+01 -7.519904613494873047e+00 -3.766633272171020508e+00 -9.491438046097755432e-03 -1.132837414741516113e+00 -2.309741675853729248e-01
2.490000000000000000e+02 6.548949432373046875e+01 -6.781818389892578125e+00 -4.719984531402587891e+00 -4.282597918063402176e-03 -1.417280077934265137e+00 -1.034967526793479919e-01
2.500000000000000000e+02 6.623823547363281250e+01 -7.519035339355468750e+00 -4.309017181396484375e+00 -1.350996922701597214e-02 -1.296758174896240234e+00 -2.738323509693145752e-01
2.510000000000000000e+02 6.548912811279296875e+01 -7.521818161010742188e+00 -4.166422843933105469e+00 -1.311663072556257248e-02 -1.253861904144287109e+00 -2.628450691699981689e-01
2.520000000000000000e+02 6.698857879638671875e+01 -6.779065132141113281e+00 -5.122007369995117188e+00 -3.889790968969464302e-03 -1.537769198417663574e+00 -1.152279749512672424e-01
2.530000000000000000e+02 6.773959350585937500e+01 -6.781753540039062500e+00 -5.336931705474853516e+00 -4.424239508807659149e-03 -1.602406859397888184e+00 -1.231191903352737427e-01
2.540000000000000000e+02 6.773941040039062500e+01 -7.521753787994384766e+00 -4.578210830688476562e+00 -1.415674202144145966e-02 -1.377710223197937012e+00 -2.995533049106597900e-01
2.550000000000000000e+02 6.698833465576171875e+01 -7.519065380096435547e+00 -4.445708274841308594e+00 -1.226265076547861099e-02 -1.337391376495361328e+00 -2.875636219978332520e-01
2.560000000000000000e+02 6.623854827880859375e+01 -6.779035568237304688e+00 -4.915344715118408203e+00 -2.147894119843840599e-03 -1.475247859954833984e+00 -1.096288636326789856e-01
2.570000000000000000e+02 6.998964691162109375e+01 -6.782073974609375000e+00 -6.066042900085449219e+00 -6.210099440068006516e-03 -1.821676015853881836e+00 -1.455602198839187622e-01
2.580000000000000000e+02 7.073990631103515625e+01 -7.522998809814453125e+00 -5.017724514007568359e+00 7.241134997457265854e-03 -1.503145098686218262e+00 -3.079384267330169678e-01
2.590000000000000000e+02 6.848968505859375000e+01 -7.522591590881347656e+00 -4.705911636352539062e+00 -1.256928406655788422e-02 -1.415544271469116211e+00 -3.081442117691040039e-01
2.600000000000000000e+02 7.073976135253906250e+01 -6.782998561859130859e+00 -6.322366237640380859e+00 5.076460074633359909e-03 -1.895186901092529297e+00 -1.459006369113922119e-01
2.610000000000000000e+02 6.998970794677734375e+01 -7.522073745727539062e+00 -4.935197830200195312e+00 -3.039659233763813972e-03 -1.481471300125122070e+00 -3.142802417278289795e-01
2.620000000000000000e+02 6.923977661132812500e+01 -6.782402992248535156e+00 -5.811916828155517578e+00 -1.859609968960285187e-03 -1.744132995605468750e+00 -1.382650434970855713e-01
2.630000000000000000e+02 6.848979949951171875e+01 -6.782591342926025391e+00 -5.567262649536132812e+00 -4.992166534066200256e-03 -1.671676397323608398e+00 -1.319363713264465332e-01
2.640000000000000000e+02 6.923974609375000000e+01 -7.522402763366699219e+00 -4.827806949615478516e+00 -1.089892443269491196e-02 -1.451611876487731934e+00 -3.170779645442962646e-01
2.650000000000000000e+02 7.210768127441406250e+01 -6.811398983001708984e+00 -6.754662513732910156e+00 -5.217856541275978088e-02 -2.042052507400512695e+00 -2.009421586990356445e-01
2.660000000000000000e+02 7.147843933105468750e+01 -7.534106731414794922e+00 -5.029527187347412109e+00 -2.432669326663017273e-02 -1.516156196594238281e+00 -3.124703466892242432e-01
2.670000000000000000e+02 7.364675903320312500e+01 -6.672008991241455078e+00 -7.609657764434814453e+00 -3.688540309667587280e-02 -2.293962955474853516e+00 -2.067322432994842529e-01
2.680000000000000000e+02 7.398194122314453125e+01 -7.688181400299072266e+00 -3.310327529907226562e+00 3.612148761749267578e-01 -8.847337961196899414e-01 5.060479044914245605e-01
2.690000000000000000e+02 7.402890014648437500e+01 -7.351055145263671875e+00 -4.422941684722900391e+00 2.952746748924255371e-01 -1.238300204277038574e+00 1.891391575336456299e-01
2.700000000000000000e+02 7.400300598144531250e+01 -7.168545722961425781e+00 -5.265898704528808594e+00 1.985472291707992554e-01 -1.520205497741699219e+00 7.971156388521194458e-02
2.710000000000000000e+02 7.337407684326171875e+01 -7.002840042114257812e+00 -6.342890262603759766e+00 -3.332243766635656357e-03 -1.903866767883300781e+00 -2.131060063838958740e-01
2.720000000000000000e+02 7.395704650878906250e+01 -6.733372211456298828e+00 -7.239775180816650391e+00 1.617410033941268921e-01 -2.123410224914550781e+00 -2.524681985378265381e-01
2.730000000000000000e+02 7.388784790039062500e+01 -6.521551132202148438e+00 -8.185673713684082031e+00 7.150083780288696289e-02 -2.434252023696899414e+00 -1.666180491447448730e-01
2.740000000000000000e+02 7.296451568603515625e+01 -7.636983871459960938e+00 -4.439146995544433594e+00 1.514073461294174194e-01 -1.286321878433227539e+00 -2.468793094158172607e-02
2.750000000000000000e+02 7.144081115722656250e+01 -6.794143199920654297e+00 -6.545233726501464844e+00 -1.771503500640392303e-02 -1.968884587287902832e+00 -1.537224352359771729e-01
2.760000000000000000e+02 7.222018432617187500e+01 -7.551288604736328125e+00 -4.829263687133789062e+00 -1.136698853224515915e-02 -1.452189207077026367e+00 -2.268727868795394897e-01
2.770000000000000000e+02 7.363056182861328125e+01 -7.194109439849853516e+00 -5.459839344024658203e+00 1.136500164866447449e-01 -1.603856801986694336e+00 6.776968482881784439e-03
2.780000000000000000e+02 7.396155548095703125e+01 -6.956049919128417969e+00 -6.448379993438720703e+00 1.300323903560638428e-01 -1.895504236221313477e+00 -1.240904256701469421e-01
2.790000000000000000e+02 7.386102294921875000e+01 -7.287992000579833984e+00 -4.891366958618164062e+00 1.855667084455490112e-01 -1.411740064620971680e+00 8.295209705829620361e-02
2.800000000000000000e+02 7.308637237548828125e+01 -7.229853153228759766e+00 -5.556438446044921875e+00 3.953265398740768433e-02 -1.655071735382080078e+00 -1.264127343893051147e-01
2.810000000000000000e+02 7.324031066894531250e+01 -6.632925987243652344e+00 -7.484825611114501953e+00 9.499186649918556213e-03 -2.242598056793212891e+00 -2.264053672552108765e-01
2.820000000000000000e+02 7.271757507324218750e+01 -6.739446163177490234e+00 -7.012661933898925781e+00 8.750217966735363007e-03 -2.101173639297485352e+00 -2.513747215270996094e-01
2.830000000000000000e+02 7.402020263671875000e+01 -7.533639907836914062e+00 -3.740867614746093750e+00 3.030600249767303467e-01 -1.031342267990112305e+00 3.954139649868011475e-01
2.840000000000000000e+02 7.363774108886718750e+01 -7.733360290527343750e+00 -3.621135473251342773e+00 3.196937143802642822e-01 -9.904325604438781738e-01 3.786351680755615234e-01
2.850000000000000000e+02 7.366162872314453125e+01 -6.950080394744873047e+00 -6.466443538665771484e+00 3.471502289175987244e-02 -1.929518580436706543e+00 -1.997372359037399292e-01
2.860000000000000000e+02 7.355330657958984375e+01 -7.440518856048583984e+00 -4.450112342834472656e+00 1.736429184675216675e-01 -1.282940864562988281e+00 8.853048831224441528e-02
2.870000000000000000e+02 7.384008026123046875e+01 -7.490484714508056641e+00 -4.197620868682861328e+00 2.760930359363555908e-01 -1.176458358764648438e+00 2.376490980386734009e-01
2.880000000000000000e+02 7.421745300292968750e+01 -6.521059989929199219e+00 -8.453834533691406250e+00 -1.131961122155189514e-01 -2.570109128952026367e+00 -6.700396537780761719e-02
2.890000000000000000e+02 7.769402313232421875e+01 -7.359134197235107422e+00 -1.362133741378784180e+00 2.680442810058593750e+01 7.632688045501708984e+00 -1.590343236923217773e+00
2.900000000000000000e+02 7.819609069824218750e+01 -6.667663097381591797e+00 7.643512725830078125e+00 2.080996322631835938e+01 8.536042213439941406e+00 -3.074449539184570312e+00
2.910000000000000000e+02 7.847105407714843750e+01 -5.954762935638427734e+00 4.034068584442138672e+00 1.818025016784667969e+01 6.664295196533203125e+00 3.866451978683471680e+00
2.920000000000000000e+02 7.838365173339843750e+01 -6.063887119293212891e+00 5.975272655487060547e+00 1.900180053710937500e+01 7.493121623992919922e+00 2.393772125244140625e+00
2.930000000000000000e+02 7.721167755126953125e+01 -5.038406848907470703e+00 -3.250597715377807617e+00 2.195960235595703125e+01 5.612701416015625000e+00 -4.329548358917236328e+00
2.940000000000000000e+02 7.680505371093750000e+01 -5.001527786254882812e+00 -1.920517444610595703e+00 1.659147453308105469e+01 4.401287078857421875e+00 -7.021465301513671875e+00
2.950000000000000000e+02 7.775263977050781250e+01 -5.366005897521972656e+00 -1.147539615631103516e+00 2.555041503906250000e+01 7.320862293243408203e+00 1.829460024833679199e+00
2.960000000000000000e+02 7.421363830566406250e+01 -7.782551765441894531e+00 -2.844268560409545898e+00 8.302401900291442871e-01 -6.042084693908691406e-01 8.526078462600708008e-01
2.970000000000000000e+02 7.440094757080078125e+01 -7.545283317565917969e+00 -3.410810708999633789e+00 6.272944808006286621e-01 -8.350548744201660156e-01 7.510945796966552734e-01
2.980000000000000000e+02 7.461405944824218750e+01 -7.761056900024414062e+00 -2.301880121231079102e+00 1.039172768592834473e+00 -3.788121938705444336e-01 1.390826106071472168e+00
2.990000000000000000e+02 7.719706726074218750e+01 -7.510806560516357422e+00 -2.937815189361572266e+00 2.410913085937500000e+01 6.351394653320312500e+00 4.968646526336669922e+00
3.000000000000000000e+02 7.660066986083984375e+01 -7.360989570617675781e+00 5.486823320388793945e-01 1.258240413665771484e+01 3.939326047897338867e+00 8.899253845214843750e+00
3.010000000000000000e+02 7.641932678222656250e+01 -7.262537002563476562e+00 1.228557109832763672e+00 8.040890693664550781e+00 2.780834436416625977e+00 7.619055747985839844e+00
3.020000000000000000e+02 7.592193603515625000e+01 -7.115156650543212891e+00 -9.748688340187072754e-01 1.899212121963500977e+00 2.773030102252960205e-01 3.247604608535766602e+00
3.030000000000000000e+02 7.775261688232421875e+01 -5.153745174407958984e+00 -2.471819639205932617e+00 2.404219245910644531e+01 6.471111774444580078e+00 7.579163908958435059e-01
3.040000000000000000e+02 7.802336883544921875e+01 -5.365210533142089844e+00 -1.664760708808898926e-01 2.272691535949707031e+01 6.768131732940673828e+00 3.407781124114990234e+00
3.050000000000000000e+02 7.837643432617187500e+01 -5.807192802429199219e+00 3.937530279159545898e+00 1.931439399719238281e+01 6.975577354431152344e+00 4.213598251342773438e+00
3.060000000000000000e+02 7.805279541015625000e+01 -6.950381755828857422e+00 5.533266544342041016e+00 2.331974220275878906e+01 8.655902862548828125e+00 -4.480492115020751953e+00
3.070000000000000000e+02 7.808030700683593750e+01 -7.119479656219482422e+00 2.976672172546386719e+00 2.329911613464355469e+01 7.882736682891845703e+00 -4.259459018707275391e+00
3.080000000000000000e+02 7.422049713134765625e+01 -5.001938343048095703e+00 -2.900660276412963867e+00 7.019906044006347656e-01 -6.596009135246276855e-01 -8.888428211212158203e-01
3.090000000000000000e+02 7.444852447509765625e+01 -5.243425369262695312e+00 -3.232281208038330078e+00 5.254718661308288574e-01 -8.120428323745727539e-01 -8.002474904060363770e-01
3.100000000000000000e+02 7.420829772949218750e+01 -5.858169078826904297e+00 -6.224277019500732422e+00 2.348461188375949860e-02 -1.860237717628479004e+00 1.524575650691986084e-01
3.110000000000000000e+02 7.625833892822265625e+01 -5.659410476684570312e+00 8.643279671669006348e-01 4.448147773742675781e+00 1.593742728233337402e+00 -5.794865131378173828e+00
3.120000000000000000e+02 7.669929504394531250e+01 -5.149765968322753906e+00 -1.105991840362548828e+00 1.505125427246093750e+01 4.183578968048095703e+00 -7.622578144073486328e+00
3.130000000000000000e+02 7.421113586425781250e+01 -6.267212390899658203e+00 -8.482801437377929688e+00 -1.888385564088821411e-01 -2.601492166519165039e+00 4.773292317986488342e-02
3.140000000000000000e+02 7.481192779541015625e+01 -6.219021797180175781e+00 -8.230102539062500000e+00 -4.176682233810424805e-02 -2.481560945510864258e+00 1.263520121574401855e-01
3.150000000000000000e+02 7.442676544189453125e+01 -5.008292675018310547e+00 -2.795246124267578125e+00 7.366529703140258789e-01 -6.175779700279235840e-01 -1.049132585525512695e+00
3.160000000000000000e+02 7.523325347900390625e+01 -6.226431369781494141e+00 -8.198101997375488281e+00 -7.896373048424720764e-03 -2.461799621582031250e+00 1.194830313324928284e-01
3.170000000000000000e+02 7.543527221679687500e+01 -6.240042209625244141e+00 -8.158339500427246094e+00 2.800289308652281761e-03 -2.446661710739135742e+00 1.224482282996177673e-01
3.180000000000000000e+02 7.543253326416015625e+01 -5.186654090881347656e+00 -1.175202131271362305e+00 2.262208461761474609e+00 3.261019587516784668e-01 -3.038516044616699219e+00
3.190000000000000000e+02 7.602783203125000000e+01 -6.282585144042968750e+00 -7.820127964019775391e+00 -1.532271951436996460e-01 -2.392006397247314453e+00 8.943583071231842041e-02
3.200000000000000000e+02 7.797350311279296875e+01 -5.681807994842529297e+00 2.727042913436889648e+00 2.452565383911132812e+01 8.175808906555175781e+00 4.441450595855712891e+00
3.210000000000000000e+02 7.700574493408203125e+01 -5.284712314605712891e+00 -2.267285346984863281e+00 2.122312736511230469e+01 5.686752796173095703e+00 -7.078374385833740234e+00
3.220000000000000000e+02 7.613804626464843750e+01 -5.852696895599365234e+00 -4.762615561485290527e-01 1.708386063575744629e+00 3.696373403072357178e-01 -3.437880992889404297e+00
3.230000000000000000e+02 7.581855773925781250e+01 -6.515263557434082031e+00 -8.107825279235839844e+00 2.830942533910274506e-02 -2.423854589462280273e+00 -2.311607822775840759e-02
3.240000000000000000e+02 7.625780487060546875e+01 -7.122913837432861328e+00 1.033495545387268066e+00 4.543650150299072266e+00 1.673143744468688965e+00 5.818998813629150391e+00
3.250000000000000000e+02 7.739326477050781250e+01 -7.741671562194824219e+00 -3.299579858779907227e+00 2.285951805114746094e+01 5.867981433868408203e+00 2.702500104904174805e+00
3.260000000000000000e+02 7.783434295654296875e+01 -7.225978374481201172e+00 9.212463498115539551e-01 2.652037811279296875e+01 8.232486724853515625e+00 -3.273774147033691406e+00
3.270000000000000000e+02 7.822041320800781250e+01 -6.865548610687255859e+00 5.687078475952148438e+00 2.090044403076171875e+01 7.976256847381591797e+00 -3.842664241790771484e+00
3.280000000000000000e+02 7.520834350585937500e+01 -7.760970592498779297e+00 -1.408584833145141602e+00 1.941238999366760254e+00 1.597962826490402222e-01 2.586492061614990234e+00
3.290000000000000000e+02 7.462449645996093750e+01 -6.538633823394775391e+00 -8.444223403930664062e+00 -3.316172584891319275e-02 -2.543215513229370117e+00 -9.497363865375518799e-02
3.300000000000000000e+02 7.757070922851562500e+01 -7.716823101043701172e+00 -3.025726556777954102e+00 2.375728797912597656e+01 6.219468116760253906e+00 1.101402401924133301e+00
3.310000000000000000e+02 7.526985931396484375e+01 -6.807433128356933594e+00 -5.932377815246582031e+00 1.524462699890136719e-01 -1.733979463577270508e+00 2.551028132438659668e-01
3.320000000000000000e+02 7.602196502685546875e+01 -6.507791519165039062e+00 -7.971741676330566406e+00 -1.279381215572357178e-01 -2.429903984069824219e+00 -9.886211901903152466e-02
3.330000000000000000e+02 7.801087188720703125e+01 -7.287008285522460938e+00 1.006482839584350586e+00 2.325238800048828125e+01 7.277661323547363281e+00 -3.759678363800048828e+00
3.340000000000000000e+02 7.678817749023437500e+01 -7.433729648590087891e+00 -8.108009099960327148e-01 1.682168197631835938e+01 4.803264617919921875e+00 8.692674636840820312e+00
3.350000000000000000e+02 7.660244750976562500e+01 -5.421772956848144531e+00 4.411129653453826904e-01 1.243327140808105469e+01 3.862315177917480469e+00 -8.821772575378417969e+00
3.360000000000000000e+02 7.721260070800781250e+01 -5.290149211883544922e+00 -2.937729120254516602e+00 2.450574302673339844e+01 6.470404148101806641e+00 -4.648545265197753906e+00
3.370000000000000000e+02 7.822682189941406250e+01 -5.967333316802978516e+00 5.704504489898681641e+00 2.086690521240234375e+01 7.971423149108886719e+00 3.695480108261108398e+00
3.380000000000000000e+02 7.548960876464843750e+01 -5.961958408355712891e+00 -5.057675361633300781e+00 1.514171212911605835e-01 -1.471877455711364746e+00 -5.888407826423645020e-01
3.390000000000000000e+02 7.642415618896484375e+01 -5.524879455566406250e+00 1.177935242652893066e+00 8.276517868041992188e+00 2.836336135864257812e+00 -7.687321662902832031e+00
3.400000000000000000e+02 7.520555114746093750e+01 -5.243749141693115234e+00 -1.944907546043395996e+00 1.371218919754028320e+00 -1.721065938472747803e-01 -2.092260122299194336e+00
3.410000000000000000e+02 7.643936920166015625e+01 -5.011681079864501953e+00 -6.729093790054321289e-01 1.096328544616699219e+01 3.087112903594970703e+00 -6.969627380371093750e+00
3.420000000000000000e+02 7.588788604736328125e+01 -5.558724880218505859e+00 -5.993801355361938477e-01 2.511542081832885742e+00 5.736486315727233887e-01 -3.782395839691162109e+00
3.430000000000000000e+02 7.830854797363281250e+01 -6.386087417602539062e+00 7.664658546447753906e+00 1.987145233154296875e+01 8.260832786560058594e+00 1.632566601037979126e-01
3.440000000000000000e+02 7.851593780517578125e+01 -6.107347965240478516e+00 4.877549648284912109e+00 1.834870529174804688e+01 6.967876911163330078e+00 2.286884307861328125e+00
3.450000000000000000e+02 7.758774566650390625e+01 -5.107807636260986328e+00 -2.965996026992797852e+00 2.372325706481933594e+01 6.227178096771240234e+00 -6.716262698173522949e-01
3.460000000000000000e+02 7.740579986572265625e+01 -5.323065757751464844e+00 -2.888990163803100586e+00 2.644103622436523438e+01 7.065613746643066406e+00 -2.123539686203002930e+00
3.470000000000000000e+02 7.758226776123046875e+01 -5.378168106079101562e+00 -1.987468481063842773e+00 2.697238922119140625e+01 7.495475769042968750e+00 4.164552986621856689e-01
3.480000000000000000e+02 7.772502899169921875e+01 -7.653212547302246094e+00 -2.300359249114990234e+00 2.439272308349609375e+01 6.627708911895751953e+00 -9.115028977394104004e-01
3.490000000000000000e+02 7.787390899658203125e+01 -7.543414592742919922e+00 -1.212490677833557129e+00 2.365768814086914062e+01 6.733559131622314453e+00 -1.986323833465576172e+00
3.500000000000000000e+02 7.816889953613281250e+01 -7.336547851562500000e+00 1.245537877082824707e+00 2.166701126098632812e+01 6.873764514923095703e+00 -3.979594230651855469e+00
3.510000000000000000e+02 7.825984954833984375e+01 -7.175501823425292969e+00 2.481842517852783203e+00 2.024855041503906250e+01 6.819118022918701172e+00 -4.177664756774902344e+00
3.520000000000000000e+02 7.842831420898437500e+01 -6.855215072631835938e+00 5.102138042449951172e+00 1.882549858093261719e+01 7.178290843963623047e+00 -3.386111259460449219e+00
3.530000000000000000e+02 7.803713226318359375e+01 -7.446568012237548828e+00 -3.352726697921752930e-01 2.269777870178222656e+01 6.708752155303955078e+00 -3.255980730056762695e+00
3.540000000000000000e+02 7.808457183837890625e+01 -5.835427761077880859e+00 5.122582912445068359e+00 2.317854309082031250e+01 8.490337371826171875e+00 4.375281810760498047e+00
3.550000000000000000e+02 7.826807403564453125e+01 -5.654079914093017578e+00 2.636247158050537109e+00 2.025077819824218750e+01 6.866107463836669922e+00 4.481808662414550781e+00
3.560000000000000000e+02 7.851732635498046875e+01 -6.279840946197509766e+00 5.607915401458740234e+00 1.806326293945312500e+01 7.101353645324707031e+00 5.405418872833251953e-01
3.570000000000000000e+02 7.834754180908203125e+01 -6.217889308929443359e+00 6.657674312591552734e+00 1.842111968994140625e+01 7.523638248443603516e+00 1.923641562461853027e+00
3.580000000000000000e+02 7.815138244628906250e+01 -5.503788471221923828e+00 1.501689434051513672e+00 2.210735702514648438e+01 7.082713603973388672e+00 4.102440834045410156e+00
3.590000000000000000e+02 7.758003997802734375e+01 -7.515766143798828125e+00 -2.292552471160888672e+00 2.574472808837890625e+01 7.035652637481689453e+00 3.091838061809539795e-01
3.600000000000000000e+02 7.602587127685546875e+01 -7.782674312591552734e+00 -3.453965112566947937e-02 6.266543865203857422e+00 1.869601249694824219e+00 5.684534072875976562e+00
3.610000000000000000e+02 7.663717651367187500e+01 -7.794764995574951172e+00 -1.307791233062744141e+00 1.391761779785156250e+01 3.782948017120361328e+00 7.226691722869873047e+00
3.620000000000000000e+02 7.541422271728515625e+01 -7.735324859619140625e+00 -9.566802382469177246e-01 2.536756277084350586e+00 4.740228056907653809e-01 3.183935642242431641e+00
3.630000000000000000e+02 7.606029510498046875e+01 -7.302951812744140625e+00 1.869784593582153320e-01 3.986266613006591797e+00 1.251973509788513184e+00 5.026614665985107422e+00
3.640000000000000000e+02 7.583242034912109375e+01 -7.763094902038574219e+00 -1.762000322341918945e-01 4.915623664855957031e+00 1.421827077865600586e+00 4.785455226898193359e+00
3.650000000000000000e+02 7.436672973632812500e+01 -7.349916458129882812e+00 -4.096738338470458984e+00 2.971673011779785156e-01 -1.139871358871459961e+00 4.490487277507781982e-01
3.660000000000000000e+02 7.689614868164062500e+01 -7.665969848632812500e+00 -2.001493215560913086e+00 1.836944961547851562e+01 4.910387039184570312e+00 6.934177398681640625e+00
3.670000000000000000e+02 7.682357025146484375e+01 -7.815668582916259766e+00 -1.957023143768310547e+00 1.605095863342285156e+01 4.228180885314941406e+00 6.765452861785888672e+00
3.680000000000000000e+02 7.621672821044921875e+01 -7.585602283477783203e+00 2.529951632022857666e-01 7.963905334472656250e+00 2.465070009231567383e+00 6.639997482299804688e+00
3.690000000000000000e+02 7.562747955322265625e+01 -7.733150482177734375e+00 -5.954173207283020020e-01 3.479964017868041992e+00 8.653640151023864746e-01 3.838225603103637695e+00
3.700000000000000000e+02 7.502694702148437500e+01 -6.545606613159179688e+00 -8.468305587768554688e+00 2.169411443173885345e-02 -2.533983469009399414e+00 -1.270080804824829102e-01
3.710000000000000000e+02 7.719524383544921875e+01 -7.762544155120849609e+00 -3.088544607162475586e+00 2.151063156127929688e+01 5.526626110076904297e+00 4.504659175872802734e+00
3.720000000000000000e+02 7.505577850341796875e+01 -6.841525077819824219e+00 -6.006484985351562500e+00 7.582880556583404541e-02 -1.779196858406066895e+00 1.798215657472610474e-01
3.730000000000000000e+02 7.442188262939453125e+01 -6.529865741729736328e+00 -8.436637878417968750e+00 5.646665766835212708e-02 -2.514051198959350586e+00 -1.219277307391166687e-01
3.740000000000000000e+02 7.502659606933593750e+01 -6.221098899841308594e+00 -8.216933250427246094e+00 2.562926709651947021e-02 -2.457391262054443359e+00 1.381895989179611206e-01
3.750000000000000000e+02 7.563450622558593750e+01 -6.254612922668457031e+00 -8.104891777038574219e+00 7.038465701043605804e-03 -2.429355859756469727e+00 1.114995181560516357e-01
3.760000000000000000e+02 7.583201599121093750e+01 -6.268044948577880859e+00 -7.990097522735595703e+00 7.274234294891357422e-02 -2.375206470489501953e+00 5.610768496990203857e-02
3.770000000000000000e+02 7.587747955322265625e+01 -6.033836364746093750e+00 -4.322161197662353516e+00 2.617322206497192383e-01 -1.218128681182861328e+00 -8.218659162521362305e-01
3.780000000000000000e+02 7.700318145751953125e+01 -5.030083179473876953e+00 -2.535398006439208984e+00 1.915762329101562500e+01 4.986667633056640625e+00 -5.867605209350585938e+00
3.790000000000000000e+02 7.501651000976562500e+01 -5.005303382873535156e+00 -1.624601840972900391e+00 1.660295605659484863e+00 1.070814859122037888e-02 -2.196033000946044922e+00
3.800000000000000000e+02 7.546192169189453125e+01 -5.401841640472412109e+00 -1.459429860115051270e+00 1.750975131988525391e+00 8.746358007192611694e-02 -2.606501817703247070e+00
3.810000000000000000e+02 7.623706817626953125e+01 -5.040155410766601562e+00 -7.174959033727645874e-02 8.326777458190917969e+00 2.476508378982543945e+00 -6.431098461151123047e+00
3.820000000000000000e+02 7.662698364257812500e+01 -4.986055374145507812e+00 -1.231962680816650391e+00 1.338687038421630859e+01 3.646472454071044922e+00 -6.971213340759277344e+00
3.830000000000000000e+02 7.482221221923828125e+01 -5.003151893615722656e+00 -2.066725730895996094e+00 1.313547611236572266e+00 -2.259534597396850586e-01 -1.781642317771911621e+00
3.840000000000000000e+02 7.601942443847656250e+01 -5.077614307403564453e+00 -4.338926076889038086e-02 5.769289970397949219e+00 1.717770218849182129e+00 -5.505893230438232422e+00
3.850000000000000000e+02 7.578536987304687500e+01 -5.079742431640625000e+00 -3.558104336261749268e-01 4.370352268218994141e+00 1.204362630844116211e+00 -4.595971584320068359e+00
3.860000000000000000e+02 7.420046234130859375e+01 -7.158746242523193359e+00 -5.339389324188232422e+00 1.183748543262481689e-01 -1.566304326057434082e+00 1.075966209173202515e-01
3.870000000000000000e+02 7.420429992675781250e+01 -6.060705184936523438e+00 -7.439906120300292969e+00 -1.474226564168930054e-01 -2.276198625564575195e+00 1.166144683957099915e-01
3.880000000000000000e+02 7.422384643554687500e+01 -5.654228210449218750e+00 -5.281702995300292969e+00 1.484026461839675903e-01 -1.539990186691284180e+00 -7.558190077543258667e-02
3.890000000000000000e+02 7.446852111816406250e+01 -5.485447406768798828e+00 -4.328591346740722656e+00 2.369441837072372437e-01 -1.227494120597839355e+00 -3.729605078697204590e-01
3.900000000000000000e+02 7.440500640869140625e+01 -6.264605998992919922e+00 -8.369381904602050781e+00 1.095466613769531250e-01 -2.477950572967529297e+00 1.003355681896209717e-01
3.910000000000000000e+02 7.481185913085937500e+01 -7.755592823028564453e+00 -2.138610124588012695e+00 1.270195484161376953e+00 -2.605243921279907227e-01 1.723221540451049805e+00
3.920000000000000000e+02 7.536338806152343750e+01 -7.450046062469482422e+00 -1.746307969093322754e+00 1.475320935249328613e+00 -8.129610121250152588e-02 2.372594356536865234e+00
3.930000000000000000e+02 7.612580871582031250e+01 -6.941119194030761719e+00 -6.267627477645874023e-01 1.703657507896423340e+00 3.230684399604797363e-01 3.277311325073242188e+00
3.940000000000000000e+02 7.500920104980468750e+01 -7.762365818023681641e+00 -1.828221201896667480e+00 1.614198088645935059e+00 -6.420693546533584595e-02 2.109930992126464844e+00
3.950000000000000000e+02 7.481078338623046875e+01 -7.459210395812988281e+00 -2.935309171676635742e+00 7.300181984901428223e-01 -6.615872979164123535e-01 1.180078506469726562e+00
3.960000000000000000e+02 7.437693023681640625e+01 -6.067387580871582031e+00 -7.599159717559814453e+00 -5.915894638746976852e-03 -2.281522750854492188e+00 1.069802418351173401e-01
3.970000000000000000e+02 7.630847167968750000e+01 -5.306109905242919922e+00 4.886773824691772461e-01 8.019809722900390625e+00 2.552546262741088867e+00 -7.030931472778320312e+00
3.980000000000000000e+02 7.462606811523437500e+01 -5.007246494293212891e+00 -2.488215923309326172e+00 1.154515147209167480e+00 -4.001102447509765625e-01 -1.387153625488281250e+00
3.990000000000000000e+02 7.444583892822265625e+01 -5.715495586395263672e+00 -5.401997566223144531e+00 1.622569262981414795e-01 -1.571922183036804199e+00 -1.714802533388137817e-01
4.000000000000000000e+02 7.604693603515625000e+01 -6.728540897369384766e+00 -3.697885036468505859e+00 5.383672714233398438e-01 -9.478553533554077148e-01 1.286844849586486816e+00
4.010000000000000000e+02 7.606922149658203125e+01 -6.073618888854980469e+00 -3.773815393447875977e+00 5.071513652801513672e-01 -9.799991846084594727e-01 -1.230327844619750977e+00
4.020000000000000000e+02 7.436832427978515625e+01 -7.183657646179199219e+00 -4.932757854461669922e+00 1.749195754528045654e-01 -1.427351474761962891e+00 1.722394227981567383e-01
4.030000000000000000e+02 7.650617218017578125e+01 -7.547483921051025391e+00 -2.459780871868133545e-02 1.130028057098388672e+01 3.382704734802246094e+00 7.860530853271484375e+00
4.040000000000000000e+02 7.482628631591796875e+01 -7.137182235717773438e+00 -4.473031520843505859e+00 2.205764502286911011e-01 -1.275736570358276367e+00 4.663388431072235107e-01
4.050000000000000000e+02 7.459935760498046875e+01 -7.489970684051513672e+00 -3.317094802856445312e+00 4.881159961223602295e-01 -8.486936688423156738e-01 8.736345171928405762e-01
4.060000000000000000e+02 7.505030822753906250e+01 -7.136170864105224609e+00 -3.827987432479858398e+00 3.873675763607025146e-01 -1.032185912132263184e+00 7.824006080627441406e-01
4.070000000000000000e+02 7.561920166015625000e+01 -6.511756420135498047e+00 -8.308410644531250000e+00 -2.952903136610984802e-02 -2.501382112503051758e+00 -1.899296604096889496e-02
4.080000000000000000e+02 7.482582855224609375e+01 -6.544926643371582031e+00 -8.445788383483886719e+00 -1.562959514558315277e-02 -2.538425445556640625e+00 -1.298195123672485352e-01
4.090000000000000000e+02 7.518410491943359375e+01 -7.522069931030273438e+00 -1.991370677947998047e+00 1.436034321784973145e+00 -1.666009128093719482e-01 2.021370649337768555e+00
4.100000000000000000e+02 7.575500488281250000e+01 -5.761946678161621094e+00 -2.564784526824951172e+00 8.429986238479614258e-01 -5.165357589721679688e-01 -1.896987676620483398e+00
4.110000000000000000e+02 7.500757598876953125e+01 -5.235216140747070312e+00 -2.389193534851074219e+00 1.165406107902526855e+00 -3.671362400054931641e-01 -1.692796230316162109e+00
4.120000000000000000e+02 7.442673492431640625e+01 -6.767624378204345703e+00 -6.997307300567626953e+00 1.640344783663749695e-02 -2.094271183013916016e+00 -7.330421358346939087e-02
4.130000000000000000e+02 7.582045745849609375e+01 -6.752837657928466797e+00 -4.695332050323486328e+00 1.833162307739257812e-01 -1.353604793548583984e+00 7.890421152114868164e-01
4.140000000000000000e+02 7.555934143066406250e+01 -6.907876491546630859e+00 -4.131178855895996094e+00 3.731331825256347656e-01 -1.127413749694824219e+00 9.082497954368591309e-01
4.150000000000000000e+02 7.483885955810546875e+01 -6.828476428985595703e+00 -6.375888824462890625e+00 7.659989595413208008e-02 -1.889786601066589355e+00 8.737560361623764038e-02
4.160000000000000000e+02 7.464044189453125000e+01 -5.847701549530029297e+00 -5.925446987152099609e+00 4.428958147764205933e-02 -1.764347195625305176e+00 -1.041994988918304443e-01
4.170000000000000000e+02 7.469683837890625000e+01 -5.477938652038574219e+00 -3.837360143661499023e+00 3.502877056598663330e-01 -1.046121716499328613e+00 -6.492103338241577148e-01
4.180000000000000000e+02 7.422861480712890625e+01 -5.222504138946533203e+00 -3.622663736343383789e+00 4.314764738082885742e-01 -9.573562145233154297e-01 -5.443195700645446777e-01
4.190000000000000000e+02 7.423204803466796875e+01 -5.441730499267578125e+00 -4.361371517181396484e+00 3.183170855045318604e-01 -1.212916374206542969e+00 -3.139028847217559814e-01
4.200000000000000000e+02 7.438627624511718750e+01 -5.900597572326660156e+00 -6.334559440612792969e+00 -6.224758923053741455e-02 -1.919042110443115234e+00 3.058674372732639313e-02
4.210000000000000000e+02 7.460231781005859375e+01 -6.238182067871093750e+00 -8.276575088500976562e+00 -5.620180815458297729e-02 -2.499833106994628906e+00 6.935771554708480835e-02
4.220000000000000000e+02 7.482600402832031250e+01 -5.933867454528808594e+00 -6.204378604888916016e+00 6.143506243824958801e-02 -1.842883110046386719e+00 -1.390187442302703857e-01
4.230000000000000000e+02 7.453040313720703125e+01 -6.014212131500244141e+00 -7.073193073272705078e+00 8.611734956502914429e-02 -2.096122741699218750e+00 1.342502236366271973e-01
4.240000000000000000e+02 7.504849243164062500e+01 -5.907001495361328125e+00 -5.702934265136718750e+00 1.309415698051452637e-01 -1.671597838401794434e+00 -3.123913109302520752e-01
4.250000000000000000e+02 7.527872467041015625e+01 -5.914774417877197266e+00 -5.302798748016357422e+00 1.991105377674102783e-01 -1.531106472015380859e+00 -4.428896605968475342e-01
4.260000000000000000e+02 7.568489074707031250e+01 -6.001474380493164062e+00 -4.725318908691406250e+00 2.852059304714202881e-01 -1.332033872604370117e+00 -6.913157105445861816e-01
4.270000000000000000e+02 7.609437561035156250e+01 -5.409915447235107422e+00 3.383053541183471680e-01 4.797801494598388672e+00 1.540832042694091797e+00 -5.434386253356933594e+00
4.280000000000000000e+02 7.421855163574218750e+01 -6.739924430847167969e+00 -7.164091587066650391e+00 -4.457808658480644226e-02 -2.162600994110107422e+00 -1.460704803466796875e-01
4.290000000000000000e+02 7.421130371093750000e+01 -6.953085899353027344e+00 -6.182522773742675781e+00 1.300254613161087036e-01 -1.815749168395996094e+00 -1.067795678973197937e-01
4.300000000000000000e+02 7.465219879150390625e+01 -5.241174221038818359e+00 -3.003306388854980469e+00 6.959009766578674316e-01 -6.922215819358825684e-01 -1.070766329765319824e+00
4.310000000000000000e+02 7.521178436279296875e+01 -5.006556987762451172e+00 -1.266795158386230469e+00 2.305173635482788086e+00 3.115135729312896729e-01 -2.824265718460083008e+00
4.320000000000000000e+02 7.558193969726562500e+01 -5.024086952209472656e+00 -7.505424618721008301e-01 3.172805547714233398e+00 7.266789078712463379e-01 -3.747178554534912109e+00
4.330000000000000000e+02 7.540451812744140625e+01 -4.996008396148681641e+00 -1.049845099449157715e+00 2.736430406570434570e+00 5.059755444526672363e-01 -3.259153366088867188e+00
4.340000000000000000e+02 7.463337707519531250e+01 -6.801511764526367188e+00 -6.709499835968017578e+00 3.473063185811042786e-02 -2.002430677413940430e+00 -6.446056813001632690e-02
4.350000000000000000e+02 7.522597503662109375e+01 -6.535316467285156250e+00 -8.479015350341796875e+00 -2.593706175684928894e-02 -2.551485776901245117e+00 -1.221134886145591736e-01
4.360000000000000000e+02 7.542234039306640625e+01 -6.518189907073974609e+00 -8.449601173400878906e+00 8.543571829795837402e-02 -2.509249687194824219e+00 -8.145476877689361572e-02
4.370000000000000000e+02 7.545266723632812500e+01 -6.736575603485107422e+00 -6.100025177001953125e+00 1.150102615356445312e-01 -1.795504450798034668e+00 2.763197124004364014e-01
4.380000000000000000e+02 7.440798950195312500e+01 -6.993649959564208984e+00 -5.844221591949462891e+00 3.176427260041236877e-02 -1.743737101554870605e+00 1.909290254116058350e-02
4.390000000000000000e+02 7.419971466064453125e+01 -7.361078739166259766e+00 -4.109590530395507812e+00 2.322469949722290039e-01 -1.163203120231628418e+00 3.212231993675231934e-01
4.400000000000000000e+02 7.420856475830078125e+01 -7.568159103393554688e+00 -3.597954511642456055e+00 4.462541341781616211e-01 -9.455101490020751953e-01 4.903449118137359619e-01
4.410000000000000000e+02 7.441387176513671875e+01 -7.773768901824951172e+00 -2.622588396072387695e+00 7.766635417938232422e-01 -5.537774562835693359e-01 1.014289379119873047e+00
4.420000000000000000e+02 7.590222167968750000e+01 -7.511283397674560547e+00 -2.716045677661895752e-01 4.037917613983154297e+00 1.129893898963928223e+00 4.554447650909423828e+00
4.430000000000000000e+02 7.570491027832031250e+01 -7.447504520416259766e+00 -8.148940801620483398e-01 2.780603170394897461e+00 5.897127389907836914e-01 3.561443328857421875e+00
4.440000000000000000e+02 7.622760772705078125e+01 -7.773847103118896484e+00 -2.385267317295074463e-01 8.352965354919433594e+00 2.434331655502319336e+00 6.348597526550292969e+00
4.450000000000000000e+02 7.643585205078125000e+01 -7.771767616271972656e+00 -5.831299424171447754e-01 1.085935115814208984e+01 3.082866430282592773e+00 7.009171962738037109e+00
4.460000000000000000e+02 7.569256591796875000e+01 -5.416332721710205078e+00 -7.556216120719909668e-01 2.291409492492675781e+00 4.607363641262054443e-01 -3.344659566879272461e+00
4.470000000000000000e+02 7.632606506347656250e+01 -7.458004951477050781e+00 4.493311643600463867e-01 7.965273857116699219e+00 2.524381399154663086e+00 7.034227371215820312e+00
4.480000000000000000e+02 7.679663085937500000e+01 -5.332713127136230469e+00 -1.006814360618591309e+00 1.720836639404296875e+01 4.860465526580810547e+00 -8.421218872070312500e+00
4.490000000000000000e+02 7.740653228759765625e+01 -5.064835548400878906e+00 -3.209894657135009766e+00 2.333843421936035156e+01 6.038561820983886719e+00 -2.481266736984252930e+00
4.500000000000000000e+02 7.789444732666015625e+01 -5.237667083740234375e+00 -1.104867458343505859e+00 2.365990447998046875e+01 6.766510963439941406e+00 2.442349433898925781e+00
4.510000000000000000e+02 7.784600067138671875e+01 -5.543508052825927734e+00 7.170676589012145996e-01 2.610996437072753906e+01 8.048109054565429688e+00 3.311765909194946289e+00
4.520000000000000000e+02 7.849076843261718750e+01 -6.471027851104736328e+00 5.398347377777099609e+00 1.697311019897460938e+01 6.711437225341796875e+00 -1.039322614669799805e+00
4.530000000000000000e+02 7.845383453369140625e+01 -6.669977664947509766e+00 5.835544586181640625e+00 1.779165840148925781e+01 7.088160514831542969e+00 -2.218349218368530273e+00
4.540000000000000000e+02 7.835929107666015625e+01 -7.013357162475585938e+00 4.107622146606445312e+00 1.993538665771484375e+01 7.212902545928955078e+00 -4.247452259063720703e+00
4.550000000000000000e+02 7.739345550537109375e+01 -7.483440399169921875e+00 -2.792029380798339844e+00 2.620809173583984375e+01 7.024818897247314453e+00 2.193810701370239258e+00
4.560000000000000000e+02 7.700051116943359375e+01 -7.798225402832031250e+00 -2.690404415130615234e+00 1.917200279235839844e+01 4.944479465484619141e+00 5.896864891052246094e+00
4.570000000000000000e+02 7.670506286621093750e+01 -7.606007575988769531e+00 -9.796055555343627930e-01 1.518512725830078125e+01 4.261656284332275391e+00 7.958316326141357422e+00
4.580000000000000000e+02 7.698831176757812500e+01 -7.491768836975097656e+00 -2.184182643890380859e+00 2.111753845214843750e+01 5.680006980895996094e+00 7.287422657012939453e+00
4.590000000000000000e+02 7.816848754882812500e+01 -6.143574714660644531e+00 8.128039360046386719e+00 2.130619812011718750e+01 8.830270767211914062e+00 2.641095161437988281e+00
4.600000000000000000e+02 7.817465209960937500e+01 -6.313992500305175781e+00 9.208103179931640625e+00 2.061872100830078125e+01 8.948046684265136719e+00 8.733358383178710938e-01
4.610000000000000000e+02 7.819270324707031250e+01 -6.484018325805664062e+00 8.511096954345703125e+00 2.067897605895996094e+01 8.757021903991699219e+00 -9.633939862251281738e-01
4.620000000000000000e+02 7.794140625000000000e+01 -7.073114871978759766e+00 3.505121469497680664e+00 2.504991149902343750e+01 8.566510200500488281e+00 -4.441917419433593750e+00
4.630000000000000000e+02 7.650772094726562500e+01 -5.227914333343505859e+00 1.700113643892109394e-03 1.156370830535888672e+01 3.469622373580932617e+00 -7.797850608825683594e+00
4.640000000000000000e+02 7.483549499511718750e+01 -5.217052459716796875e+00 -2.727238416671752930e+00 1.008447766304016113e+00 -5.156372189521789551e-01 -1.398214578628540039e+00
4.650000000000000000e+02 7.523927307128906250e+01 -5.491659641265869141e+00 -2.814420461654663086e+00 8.831759095191955566e-01 -5.793733596801757812e-01 -1.527169108390808105e+00
4.660000000000000000e+02 7.572893524169921875e+01 -7.212858200073242188e+00 -1.322303533554077148e+00 1.855302691459655762e+00 1.598997712135314941e-01 2.881174325942993164e+00
4.670000000000000000e+02 7.460946655273437500e+01 -7.072476387023925781e+00 -5.090860843658447266e+00 2.014787644147872925e-01 -1.466814637184143066e+00 3.080972433090209961e-01
4.680000000000000000e+02 7.616653442382812500e+01 -7.450444698333740234e+00 5.389422774314880371e-01 6.095444679260253906e+00 1.990316033363342285e+00 6.301892757415771484e+00
4.690000000000000000e+02 7.539546966552734375e+01 -7.064277648925781250e+00 -3.366562366485595703e+00 4.877224862575531006e-01 -8.636519908905029297e-01 1.140024900436401367e+00
4.700000000000000000e+02 7.562294006347656250e+01 -6.720873832702636719e+00 -5.776641368865966797e+00 1.958521902561187744e-01 -1.674236655235290527e+00 4.256506860256195068e-01
4.710000000000000000e+02 7.606273651123046875e+01 -7.585225105285644531e+00 3.280642032623291016e-01 5.680902004241943359e+00 1.802689909934997559e+00 5.830685615539550781e+00
4.720000000000000000e+02 7.554251098632812500e+01 -7.304431915283203125e+00 -1.644224882125854492e+00 1.632751941680908203e+00 -3.441869514063000679e-03 2.480183839797973633e+00
4.730000000000000000e+02 7.575422668457031250e+01 -6.990589618682861328e+00 -2.513097047805786133e+00 8.429960012435913086e-01 -5.010302662849426270e-01 1.858158826828002930e+00
4.740000000000000000e+02 7.537863159179687500e+01 -5.643027305603027344e+00 -3.085141897201538086e+00 7.569244503974914551e-01 -6.984652280807495117e-01 -1.446087837219238281e+00
4.750000000000000000e+02 7.557730102539062500e+01 -5.696613311767578125e+00 -2.943150997161865234e+00 7.493102550506591797e-01 -6.581522226333618164e-01 -1.693848133087158203e+00
4.760000000000000000e+02 7.593666076660156250e+01 -5.792709827423095703e+00 -1.355014443397521973e+00 1.783899545669555664e+00 1.286655068397521973e-01 -2.812485218048095703e+00
4.770000000000000000e+02 7.478431701660156250e+01 -5.701368331909179688e+00 -4.934142112731933594e+00 1.976599842309951782e-01 -1.420944571495056152e+00 -3.519452214241027832e-01
4.780000000000000000e+02 7.490184783935546875e+01 -5.400650978088378906e+00 -3.110146522521972656e+00 7.393590211868286133e-01 -7.112362384796142578e-01 -1.127111077308654785e+00
4.790000000000000000e+02 7.500992584228515625e+01 -5.615830898284912109e+00 -3.834205150604248047e+00 4.428217411041259766e-01 -1.017415046691894531e+00 -8.653672933578491211e-01
4.800000000000000000e+02 7.451741027832031250e+01 -7.275372028350830078e+00 -4.279559135437011719e+00 3.349361419677734375e-01 -1.183386921882629395e+00 4.117925763130187988e-01
4.810000000000000000e+02 7.501092529296875000e+01 -7.505454540252685547e+00 -2.470088243484497070e+00 1.032057642936706543e+00 -4.314091801643371582e-01 1.602586388587951660e+00
4.820000000000000000e+02 7.509656524658203125e+01 -7.344530105590820312e+00 -2.875253677368164062e+00 8.738304376602172852e-01 -6.004269719123840332e-01 1.460485935211181641e+00
4.830000000000000000e+02 7.523532867431640625e+01 -7.222494602203369141e+00 -3.163307428359985352e+00 6.598948836326599121e-01 -7.510237693786621094e-01 1.264816761016845703e+00
4.840000000000000000e+02 7.390340423583984375e+01 -6.022461414337158203e+00 -7.080718994140625000e+00 1.312206983566284180e-01 -2.084849596023559570e+00 2.120465934276580811e-01
4.850000000000000000e+02 7.371311187744140625e+01 -5.721945285797119141e+00 -5.952381134033203125e+00 7.127059996128082275e-02 -1.764333248138427734e+00 5.325325578451156616e-02
4.860000000000000000e+02 7.269660949707031250e+01 -5.076516151428222656e+00 -4.329396247863769531e+00 1.327511221170425415e-01 -1.258993506431579590e+00 1.144379004836082458e-01
4.870000000000000000e+02 7.396351623535156250e+01 -5.638696193695068359e+00 -5.345406532287597656e+00 1.022780016064643860e-01 -1.572938561439514160e+00 -3.603750839829444885e-03
4.880000000000000000e+02 7.211999511718750000e+01 -5.196166038513183594e+00 -4.810492038726806641e+00 1.986778154969215393e-02 -1.437187194824218750e+00 2.339922785758972168e-01
4.890000000000000000e+02 7.326256561279296875e+01 -5.021549701690673828e+00 -3.865143299102783203e+00 2.572130858898162842e-01 -1.082379102706909180e+00 -1.002697721123695374e-01
4.900000000000000000e+02 7.321683502197265625e+01 -5.686522483825683594e+00 -5.971359729766845703e+00 -1.422701962292194366e-02 -1.795675992965698242e+00 1.408929973840713501e-01
4.910000000000000000e+02 7.383138275146484375e+01 -4.999995231628417969e+00 -3.315783739089965820e+00 4.029362499713897705e-01 -8.738542199134826660e-01 -5.209757685661315918e-01
4.920000000000000000e+02 7.146958160400390625e+01 -5.271635055541992188e+00 -5.012000560760498047e+00 -7.565840147435665131e-03 -1.505869865417480469e+00 2.764386534690856934e-01
4.930000000000000000e+02 7.226393890380859375e+01 -6.099696636199951172e+00 -7.023982524871826172e+00 -2.983191981911659241e-03 -2.108089685440063477e+00 2.169380784034729004e-01
4.940000000000000000e+02 7.249365234375000000e+01 -5.666040420532226562e+00 -5.915565490722656250e+00 2.007437869906425476e-02 -1.768647313117980957e+00 2.144050747156143188e-01
4.950000000000000000e+02 7.291995239257812500e+01 -5.416267395019531250e+00 -5.027925491333007812e+00 1.187294796109199524e-01 -1.472758769989013672e+00 1.717102974653244019e-01
4.960000000000000000e+02 7.150721740722656250e+01 -6.011598587036132812e+00 -6.640037059783935547e+00 -1.348152663558721542e-02 -1.996055603027343750e+00 2.004787325859069824e-01
4.970000000000000000e+02 7.391516876220703125e+01 -5.436829566955566406e+00 -4.672587871551513672e+00 1.583929210901260376e-01 -1.354258418083190918e+00 -1.462071835994720459e-01
4.980000000000000000e+02 7.338092803955078125e+01 -5.278617382049560547e+00 -4.492691993713378906e+00 1.163345649838447571e-01 -1.312907218933105469e+00 -3.681850153952836990e-03
4.990000000000000000e+02 7.386830139160156250e+01 -5.219286918640136719e+00 -3.953115940093994141e+00 2.777357101440429688e-01 -1.102614045143127441e+00 -3.476842343807220459e-01
5.000000000000000000e+02 7.380577850341796875e+01 -6.248836517333984375e+00 -8.216486930847167969e+00 7.710775732994079590e-02 -2.441813707351684570e+00 1.453141421079635620e-01
5.010000000000000000e+02 7.396051788330078125e+01 -5.826214790344238281e+00 -6.324413299560546875e+00 1.087109968066215515e-01 -1.864710688591003418e+00 1.417841911315917969e-01
5.020000000000000000e+02 7.334664916992187500e+01 -6.110942840576171875e+00 -7.517995357513427734e+00 -1.028381958603858948e-01 -2.286250114440917969e+00 1.439604610204696655e-01
5.030000000000000000e+02 7.293604278564453125e+01 -6.203897476196289062e+00 -7.631130218505859375e+00 3.315207362174987793e-02 -2.279393434524536133e+00 1.585043370723724365e-01
5.040000000000000000e+02 7.297938537597656250e+01 -5.911255836486816406e+00 -6.705751419067382812e+00 7.114274799823760986e-02 -1.990382552146911621e+00 2.056893855333328247e-01
5.050000000000000000e+02 7.353608703613281250e+01 -5.520054817199707031e+00 -5.194743633270263672e+00 5.177495256066322327e-02 -1.542890548706054688e+00 -2.450270112603902817e-03
5.060000000000000000e+02 7.353189849853515625e+01 -5.895967006683349609e+00 -6.753138542175292969e+00 -3.446945548057556152e-02 -2.036282300949096680e+00 1.535169482231140137e-01
5.070000000000000000e+02 6.923983764648437500e+01 -5.262402534484863281e+00 -4.843316078186035156e+00 -1.324792671948671341e-02 -1.456969261169433594e+00 3.102624416351318359e-01
5.080000000000000000e+02 6.998959350585937500e+01 -6.002072811126708984e+00 -6.059020042419433594e+00 1.036130473949015141e-03 -1.817395210266113281e+00 1.494018733501434326e-01
5.090000000000000000e+02 6.848992156982421875e+01 -6.002591609954833984e+00 -5.581646442413330078e+00 -1.712030381895601749e-03 -1.675007581710815430e+00 1.317908912897109985e-01
5.100000000000000000e+02 7.073961639404296875e+01 -6.002997875213623047e+00 -6.322620391845703125e+00 -2.053468860685825348e-02 -1.902946472167968750e+00 1.673881560564041138e-01
5.110000000000000000e+02 7.073947906494140625e+01 -5.262997627258300781e+00 -5.008332729339599609e+00 -2.777936682105064392e-02 -1.510833501815795898e+00 3.138022422790527344e-01
5.120000000000000000e+02 6.849003601074218750e+01 -5.262591361999511719e+00 -4.730261325836181641e+00 -1.677110604941844940e-02 -1.424109697341918945e+00 3.019278347492218018e-01
5.130000000000000000e+02 6.998954010009765625e+01 -5.262072563171386719e+00 -4.941617965698242188e+00 -9.172392077744007111e-03 -1.485237121582031250e+00 3.159483969211578369e-01
5.140000000000000000e+02 6.923980712890625000e+01 -6.002402305603027344e+00 -5.814524173736572266e+00 -9.488134644925594330e-03 -1.747203588485717773e+00 1.419160515069961548e-01
5.150000000000000000e+02 6.623886871337890625e+01 -5.999034404754638672e+00 -4.943083763122558594e+00 -6.158732809126377106e-03 -1.484772801399230957e+00 1.099536642432212830e-01
5.160000000000000000e+02 6.623917388916015625e+01 -5.259034156799316406e+00 -4.335460662841796875e+00 -1.176690403372049332e-02 -1.304168343544006348e+00 2.714070081710815430e-01
5.170000000000000000e+02 6.548987579345703125e+01 -6.001818180084228516e+00 -4.751753807067871094e+00 -1.332551008090376854e-03 -1.425925850868225098e+00 1.030059903860092163e-01
5.180000000000000000e+02 6.698884582519531250e+01 -5.999063968658447266e+00 -5.143966197967529297e+00 -1.824734150432050228e-03 -1.543737292289733887e+00 1.174120232462882996e-01
5.190000000000000000e+02 6.773998260498046875e+01 -5.261753082275390625e+00 -4.604422092437744141e+00 -1.049654558300971985e-02 -1.384475469589233398e+00 2.913565337657928467e-01
5.200000000000000000e+02 6.773979187011718750e+01 -6.001753330230712891e+00 -5.358613014221191406e+00 -6.102018523961305618e-03 -1.609414458274841309e+00 1.246154531836509705e-01
5.210000000000000000e+02 6.549024963378906250e+01 -5.261817932128906250e+00 -4.212622642517089844e+00 -1.266425848007202148e-02 -1.267585992813110352e+00 2.594671249389648438e-01
5.220000000000000000e+02 6.698908996582031250e+01 -5.259063720703125000e+00 -4.468573570251464844e+00 -1.598898321390151978e-02 -1.345368742942810059e+00 2.828837335109710693e-01
5.230000000000000000e+02 6.323952865600585938e+01 -5.256879329681396484e+00 -3.832554817199707031e+00 -9.718985296785831451e-03 -1.152682185173034668e+00 2.263837307691574097e-01
5.240000000000000000e+02 6.398902130126953125e+01 -5.997806072235107422e+00 -4.404734611511230469e+00 -2.280283719301223755e-03 -1.322104573249816895e+00 9.616897255182266235e-02
5.250000000000000000e+02 6.249014663696289062e+01 -5.998846054077148438e+00 -4.095412731170654297e+00 -2.082671271637082100e-03 -1.229248523712158203e+00 8.437462151050567627e-02
5.260000000000000000e+02 6.474034118652343750e+01 -5.261467933654785156e+00 -4.083858966827392578e+00 -9.065572172403335571e-03 -1.227877378463745117e+00 2.450115382671356201e-01
5.270000000000000000e+02 6.473993682861328125e+01 -6.001468181610107422e+00 -4.572900295257568359e+00 -2.180670620873570442e-03 -1.372524380683898926e+00 9.994609653949737549e-02
5.280000000000000000e+02 6.249060440063476562e+01 -5.258846282958984375e+00 -3.716805934906005859e+00 -1.099448371678590775e-02 -1.118340134620666504e+00 2.162753194570541382e-01
5.290000000000000000e+02 6.398944091796875000e+01 -5.257805824279785156e+00 -3.954734802246093750e+00 -1.206577382981777191e-02 -1.190040230751037598e+00 2.347548305988311768e-01
5.300000000000000000e+02 6.323908996582031250e+01 -5.996879577636718750e+00 -4.246036529541015625e+00 -4.259691108018159866e-03 -1.275088906288146973e+00 9.016599506139755249e-02
5.310000000000000000e+02 6.024127578735351562e+01 -6.002173423767089844e+00 -3.676495552062988281e+00 -1.591455889865756035e-03 -1.103426098823547363e+00 7.177028059959411621e-02
5.320000000000000000e+02 5.949018478393554688e+01 -5.999024868011474609e+00 -3.547402620315551758e+00 -1.473941840231418610e-03 -1.064662933349609375e+00 6.898720562458038330e-02
5.330000000000000000e+02 6.174050903320312500e+01 -6.000143527984619141e+00 -3.950930595397949219e+00 -3.507783170789480209e-03 -1.186331510543823242e+00 7.907474040985107422e-02
5.340000000000000000e+02 6.024153518676757812e+01 -5.262173175811767578e+00 -3.378024578094482422e+00 -6.682917475700378418e-03 -1.015412211418151855e+00 1.892320662736892700e-01
5.350000000000000000e+02 6.099138641357421875e+01 -6.002598762512207031e+00 -3.811243534088134766e+00 -1.337823341600596905e-03 -1.143774390220642090e+00 7.453984022140502930e-02
5.360000000000000000e+02 6.174093246459960938e+01 -5.260143280029296875e+00 -3.600062131881713867e+00 -8.206873200833797455e-03 -1.082480669021606445e+00 2.072758227586746216e-01
5.370000000000000000e+02 5.949036026000976562e+01 -5.259025096893310547e+00 -3.267750263214111328e+00 -8.291788399219512939e-03 -9.828126430511474609e-01 1.820409893989562988e-01
5.380000000000000000e+02 6.099172973632812500e+01 -5.262598991394042969e+00 -3.489089250564575195e+00 -8.604201488196849823e-03 -1.049308061599731445e+00 1.982851028442382812e-01
5.390000000000000000e+02 5.648974227905273438e+01 -5.999071121215820312e+00 -3.079699754714965820e+00 -1.183874905109405518e-03 -9.242650866508483887e-01 5.547420680522918701e-02
5.400000000000000000e+02 5.723953247070312500e+01 -5.259526252746582031e+00 -2.963746070861816406e+00 -5.741526372730731964e-03 -8.908463120460510254e-01 1.616791039705276489e-01
5.410000000000000000e+02 5.723992156982421875e+01 -5.999526023864746094e+00 -3.188876152038574219e+00 -1.981124747544527054e-03 -9.572571516036987305e-01 5.851678177714347839e-02
5.420000000000000000e+02 5.798986434936523438e+01 -5.998773574829101562e+00 -3.303095579147338867e+00 -9.892610833048820496e-04 -9.912254810333251953e-01 6.144918501377105713e-02
5.430000000000000000e+02 5.873990631103515625e+01 -5.998174190521240234e+00 -3.422994613647460938e+00 -2.670365618541836739e-03 -1.027699470520019531e+00 6.494567543268203735e-02
5.440000000000000000e+02 5.873993682861328125e+01 -5.258173942565917969e+00 -3.163216352462768555e+00 -6.817748770117759705e-03 -9.510102272033691406e-01 1.758734583854675293e-01
5.450000000000000000e+02 5.648913955688476562e+01 -5.259071350097656250e+00 -2.866571187973022461e+00 -7.292780093848705292e-03 -8.621591925621032715e-01 1.551407277584075928e-01
5.460000000000000000e+02 5.798968124389648438e+01 -5.258773326873779297e+00 -3.062427759170532227e+00 -7.133423350751399994e-03 -9.208683371543884277e-01 1.688069254159927368e-01
5.470000000000000000e+02 5.348892211914062500e+01 -6.003879547119140625e+00 -2.670766830444335938e+00 -1.212209928780794144e-03 -8.015937209129333496e-01 4.315319657325744629e-02
5.480000000000000000e+02 5.423745727539062500e+01 -5.263031959533691406e+00 -2.592527866363525391e+00 -4.419721197336912155e-03 -7.790842652320861816e-01 1.379576027393341064e-01
5.490000000000000000e+02 5.423921203613281250e+01 -6.003029823303222656e+00 -2.766311407089233398e+00 -1.483586733229458332e-03 -8.303384780883789062e-01 4.593271389603614807e-02
5.500000000000000000e+02 5.498925781250000000e+01 -6.000969409942626953e+00 -2.866597175598144531e+00 -6.508412188850343227e-04 -8.601744174957275391e-01 4.822340235114097595e-02
5.510000000000000000e+02 5.573940658569335938e+01 -5.999091625213623047e+00 -2.972366333007812500e+00 -2.631258685141801834e-03 -8.924992680549621582e-01 5.158251896500587463e-02
5.520000000000000000e+02 5.573849105834960938e+01 -5.259091854095458984e+00 -2.772180795669555664e+00 -5.891231819987297058e-03 -8.334215879440307617e-01 1.500330269336700439e-01
5.530000000000000000e+02 5.348674774169921875e+01 -5.263882160186767578e+00 -2.503934383392333984e+00 -6.115240976214408875e-03 -7.530148625373840332e-01 1.328081637620925903e-01
5.540000000000000000e+02 5.498792266845703125e+01 -5.260970592498779297e+00 -2.681876182556152344e+00 -5.844972096383571625e-03 -8.063163757324218750e-01 1.443196535110473633e-01
5.550000000000000000e+02 5.048752975463867188e+01 -6.016662120819091797e+00 -2.302883625030517578e+00 -1.484256237745285034e-03 -6.913103461265563965e-01 3.153617307543754578e-02
5.560000000000000000e+02 5.123381042480468750e+01 -5.273665904998779297e+00 -2.252803325653076172e+00 -3.579601645469665527e-03 -6.769149303436279297e-01 1.185612007975578308e-01
5.570000000000000000e+02 5.123796844482421875e+01 -6.013654708862304688e+00 -2.388455390930175781e+00 -1.110162818804383278e-03 -7.168696522712707520e-01 3.439682722091674805e-02
5.580000000000000000e+02 5.198816299438476562e+01 -6.009502887725830078e+00 -2.479056119918823242e+00 -4.035314777866005898e-04 -7.438378930091857910e-01 3.624279424548149109e-02
5.590000000000000000e+02 5.273845672607421875e+01 -6.005567073822021484e+00 -2.575041770935058594e+00 -2.364229178056120872e-03 -7.732217907905578613e-01 3.930524736642837524e-02
5.600000000000000000e+02 5.273571777343750000e+01 -5.265571594238281250e+00 -2.417794942855834961e+00 -4.967225715517997742e-03 -7.268286347389221191e-01 1.290476322174072266e-01
5.610000000000000000e+02 5.048266220092773438e+01 -5.276676654815673828e+00 -2.170003890991210938e+00 -5.624610465019941330e-03 -6.526885628700256348e-01 1.142220050096511841e-01
5.620000000000000000e+02 5.198471069335937500e+01 -5.269510746002197266e+00 -2.335204601287841797e+00 -4.529807716608047485e-03 -7.019203305244445801e-01 1.243051365017890930e-01
5.630000000000000000e+02 4.748569488525390625e+01 -6.043330192565917969e+00 -1.959264278411865234e+00 -1.134828082285821438e-03 -5.881197452545166016e-01 2.036116458475589752e-02
5.640000000000000000e+02 4.822861480712890625e+01 -5.296689510345458984e+00 -1.934574842453002930e+00 -2.276270650327205658e-03 -5.810553431510925293e-01 1.021448895335197449e-01
5.650000000000000000e+02 4.823624420166015625e+01 -6.036650180816650391e+00 -2.039219856262207031e+00 -8.105773013085126877e-04 -6.120091080665588379e-01 2.269677259027957916e-02
5.660000000000000000e+02 4.898653793334960938e+01 -6.028829574584960938e+00 -2.124057054519653320e+00 -8.569616329623386264e-05 -6.372428536415100098e-01 2.405105531215667725e-02
5.670000000000000000e+02 4.973693847656250000e+01 -6.021259307861328125e+00 -2.214693069458007812e+00 -2.497408306226134300e-03 -6.651571989059448242e-01 2.711190655827522278e-02
5.680000000000000000e+02 4.973123168945312500e+01 -5.281280040740966797e+00 -2.089642763137817383e+00 -4.573649261146783829e-03 -6.282649636268615723e-01 1.116320043802261353e-01
5.690000000000000000e+02 4.747710418701171875e+01 -5.303378582000732422e+00 -1.856076478958129883e+00 -4.072675015777349472e-03 -5.580447316169738770e-01 9.874966740608215332e-02
5.700000000000000000e+02 4.897986984252929688e+01 -5.288859844207763672e+00 -2.012503862380981445e+00 -3.448412520810961723e-03 -6.047856807708740234e-01 1.073889210820198059e-01
5.710000000000000000e+02 4.448383331298828125e+01 -6.086326122283935547e+00 -1.634928822517395020e+00 -9.010251960717141628e-04 -4.907489717006683350e-01 1.229776069521903992e-02
5.720000000000000000e+02 4.522269439697265625e+01 -5.335564136505126953e+00 -1.632419943809509277e+00 -7.904068916104733944e-04 -4.899631142616271973e-01 8.939708769321441650e-02
5.730000000000000000e+02 4.523437500000000000e+01 -6.075472354888916016e+00 -1.710925579071044922e+00 -2.367576380493119359e-04 -5.133486986160278320e-01 1.380637846887111664e-02
5.740000000000000000e+02 4.598466110229492188e+01 -6.063519477844238281e+00 -1.791086673736572266e+00 7.265513704624027014e-05 -5.373042225837707520e-01 1.440894696861505508e-02
5.750000000000000000e+02 4.673505020141601562e+01 -6.051823139190673828e+00 -1.876504302024841309e+00 -1.960654975846409798e-03 -5.635395050048828125e-01 1.678031869232654572e-02
5.760000000000000000e+02 4.672545623779296875e+01 -5.311883449554443359e+00 -1.779976248741149902e+00 -2.972359536215662956e-03 -5.348845720291137695e-01 9.678574651479721069e-02
5.770000000000000000e+02 4.447110748291015625e+01 -5.346434116363525391e+00 -1.557978868484497070e+00 -2.099419711157679558e-03 -4.680234789848327637e-01 8.706974238157272339e-02
5.780000000000000000e+02 4.597402191162109375e+01 -5.323595523834228516e+00 -1.706695795059204102e+00 -1.726987655274569988e-03 -5.125268697738647461e-01 9.369472414255142212e-02
5.790000000000000000e+02 4.223370742797851562e+01 -6.133643150329589844e+00 -1.399626612663269043e+00 5.651309620589017868e-04 -4.197184443473815918e-01 8.123975247144699097e-03
5.800000000000000000e+02 4.148229217529296875e+01 -6.146579742431640625e+00 -1.326804757118225098e+00 -4.790114471688866615e-04 -3.981851339340209961e-01 7.924150675535202026e-03
5.810000000000000000e+02 4.221790695190429688e+01 -5.393811225891113281e+00 -1.344797134399414062e+00 6.340444087982177734e-04 -4.032489061355590820e-01 8.025678247213363647e-02
5.820000000000000000e+02 4.298408889770507812e+01 -6.118122577667236328e+00 -1.476149201393127441e+00 6.027277777320705354e-05 -4.428266882896423340e-01 7.845891639590263367e-03
5.830000000000000000e+02 4.373342132568359375e+01 -6.099862575531005859e+00 -1.556649446487426758e+00 -1.400666194967925549e-03 -4.674150347709655762e-01 9.574448689818382263e-03
5.840000000000000000e+02 4.371966552734375000e+01 -5.359988689422607422e+00 -1.485493063926696777e+00 -1.360113616101443768e-03 -4.460559487342834473e-01 8.593081682920455933e-02
5.850000000000000000e+02 4.146547317504882812e+01 -5.406769752502441406e+00 -1.273408412933349609e+00 -8.556508691981434822e-05 -3.820481896400451660e-01 7.899711281061172485e-02
5.860000000000000000e+02 4.296931076049804688e+01 -5.378270149230957031e+00 -1.415858626365661621e+00 9.115175635088235140e-05 -4.247302412986755371e-01 8.341268450021743774e-02
5.870000000000000000e+02 3.846181488037109375e+01 -5.483074665069580078e+00 -1.003548026084899902e+00 2.056733006611466408e-03 -3.004474043846130371e-01 7.498398423194885254e-02
5.880000000000000000e+02 3.848166656494140625e+01 -6.222808361053466797e+00 -1.033470749855041504e+00 5.633531254716217518e-04 -3.098722100257873535e-01 7.439737673848867416e-03
5.890000000000000000e+02 3.923187255859375000e+01 -6.203719139099121094e+00 -1.103747844696044922e+00 4.666167078539729118e-04 -3.309843540191650391e-01 6.742861587554216385e-03
5.900000000000000000e+02 3.998181152343750000e+01 -6.183495998382568359e+00 -1.176240921020507812e+00 5.014468915760517120e-04 -3.527218401432037354e-01 6.117468234151601791e-03
5.910000000000000000e+02 4.073185729980468750e+01 -6.163486957550048828e+00 -1.252234339714050293e+00 -5.645973142236471176e-04 -3.758396804332733154e-01 6.512925960123538971e-03
5.920000000000000000e+02 4.071416854858398438e+01 -5.423696517944335938e+00 -1.204652190208435059e+00 4.190041508991271257e-04 -3.612699508666992188e-01 7.874462753534317017e-02
5.930000000000000000e+02 3.921274185180664062e+01 -5.463966846466064453e+00 -1.070136308670043945e+00 2.324082190170884132e-03 -3.203436732292175293e-01 7.570676505565643311e-02
5.940000000000000000e+02 3.996340179443359375e+01 -5.443724155426025391e+00 -1.137650728225708008e+00 1.582313212566077709e-03 -3.408205211162567139e-01 7.722674310207366943e-02
5.950000000000000000e+02 3.698171997070312500e+01 -6.262598514556884766e+00 -8.935754895210266113e-01 8.914173231460154057e-04 -2.678052186965942383e-01 8.837798610329627991e-03
5.960000000000000000e+02 3.621255493164062500e+01 -5.544963359832763672e+00 -8.118693828582763672e-01 3.558841301128268242e-03 -2.424931675195693970e-01 7.445028424263000488e-02
5.970000000000000000e+02 3.548279571533203125e+01 -6.306656837463378906e+00 -7.585998773574829102e-01 1.418691361322999001e-03 -2.271543592214584351e-01 1.153184752911329269e-02
5.980000000000000000e+02 3.771127700805664062e+01 -5.501970291137695312e+00 -9.383323192596435547e-01 2.531177364289760590e-03 -2.807403504848480225e-01 7.503012567758560181e-02
5.990000000000000000e+02 3.773139953613281250e+01 -6.241697311401367188e+00 -9.634062647819519043e-01 4.153445479460060596e-04 -2.888972759246826172e-01 7.991306483745574951e-03
6.000000000000000000e+02 3.546322250366210938e+01 -5.566914081573486328e+00 -7.508035898208618164e-01 3.743552835658192635e-03 -2.241180092096328735e-01 7.417431473731994629e-02
6.010000000000000000e+02 3.696178054809570312e+01 -5.522866249084472656e+00 -8.747986555099487305e-01 2.870529890060424805e-03 -2.615784406661987305e-01 7.465604692697525024e-02
6.020000000000000000e+02 3.623231124877929688e+01 -6.284700870513916016e+00 -8.255926966667175293e-01 7.527527050115168095e-04 -2.474519908428192139e-01 9.945265017449855804e-03
6.030000000000000000e+02 3.323463058471679688e+01 -6.359344959259033203e+00 -5.724440217018127441e-01 6.567480741068720818e-04 -1.715361922979354858e-01 1.667809113860130310e-02
6.040000000000000000e+02 3.321954727172851562e+01 -5.619493961334228516e+00 -5.756098628044128418e-01 3.091451711952686310e-03 -1.717555373907089233e-01 7.451798021793365479e-02
6.050000000000000000e+02 3.248681640625000000e+01 -6.379900932312011719e+00 -5.113885998725891113e-01 1.607488375157117844e-03 -1.529343277215957642e-01 1.812773570418357849e-02
6.060000000000000000e+02 3.398349380493164062e+01 -6.341384410858154297e+00 -6.333076953887939453e-01 1.183590735308825970e-03 -1.896372288465499878e-01 1.561046950519084930e-02
6.070000000000000000e+02 3.471478271484375000e+01 -5.586100101470947266e+00 -6.908376812934875488e-01 3.787637222558259964e-03 -2.061150074005126953e-01 7.376942783594131470e-02
6.080000000000000000e+02 3.473338699340820312e+01 -6.325866699218750000e+00 -6.946804523468017578e-01 1.386049436405301094e-03 -2.079883217811584473e-01 1.369405724108219147e-02
6.090000000000000000e+02 3.247348785400390625e+01 -5.640007495880126953e+00 -5.219696164131164551e-01 3.373763523995876312e-03 -1.555787473917007446e-01 7.372889667749404907e-02
6.100000000000000000e+02 3.396664810180664062e+01 -5.601575374603271484e+00 -6.322663426399230957e-01 2.975587733089923859e-03 -1.887872219085693359e-01 7.403652369976043701e-02
6.110000000000000000e+02 3.099083137512207031e+01 -6.399948596954345703e+00 -4.043772816658020020e-01 3.073204425163567066e-04 -1.212209910154342651e-01 2.211732231080532074e-02
6.120000000000000000e+02 3.024179267883300781e+01 -5.667771339416503906e+00 -3.695430159568786621e-01 3.497948637232184410e-04 -1.107579618692398071e-01 7.169889658689498901e-02
6.130000000000000000e+02 2.949573898315429688e+01 -6.414954185485839844e+00 -3.003670573234558105e-01 8.468336891382932663e-04 -8.985606580972671509e-02 2.298400364816188812e-02
6.140000000000000000e+02 3.172830200195312500e+01 -5.652883052825927734e+00 -4.691343307495117188e-01 2.705306746065616608e-03 -1.399287134408950806e-01 7.232837378978729248e-02
6.150000000000000000e+02 3.173856925964355469e+01 -6.392818927764892578e+00 -4.555976092815399170e-01 1.513199531473219395e-03 -1.362253278493881226e-01 2.064281888306140900e-02
6.160000000000000000e+02 2.949855422973632812e+01 -5.674893379211425781e+00 -3.243390917778015137e-01 4.075959150213748217e-04 -9.717945009469985962e-02 6.968805938959121704e-02
6.170000000000000000e+02 3.098492622375488281e+01 -5.659971237182617188e+00 -4.178342223167419434e-01 1.158894156105816364e-03 -1.250025928020477295e-01 7.196550071239471436e-02
6.180000000000000000e+02 3.024333572387695312e+01 -6.407790660858154297e+00 -3.523640334606170654e-01 2.624676853884011507e-04 -1.056304723024368286e-01 2.226147986948490143e-02
6.190000000000000000e+02 2.800358009338378906e+01 -6.392907142639160156e+00 -2.162202596664428711e-01 -1.442755223251879215e-03 -6.529890745878219604e-02 2.493006922304630280e-02
6.200000000000000000e+02 2.728431129455566406e+01 -5.636834621429443359e+00 -2.021401524543762207e-01 -4.890502430498600006e-03 -6.210919469594955444e-02 6.219528242945671082e-02
6.210000000000000000e+02 2.651304817199707031e+01 -6.358762741088867188e+00 -1.377089917659759521e-01 -1.246483065187931061e-03 -4.168664291501045227e-02 2.210653945803642273e-02
6.220000000000000000e+02 2.875823974609375000e+01 -5.669638156890869141e+00 -2.809349894523620605e-01 -1.192925847135484219e-03 -8.463837206363677979e-02 6.646226346492767334e-02
6.230000000000000000e+02 2.874904632568359375e+01 -6.409622669219970703e+00 -2.553106248378753662e-01 5.114331725053489208e-04 -7.643976062536239624e-02 2.470930665731430054e-02
6.240000000000000000e+02 2.654741096496582031e+01 -5.619358539581298828e+00 -1.679277718067169189e-01 -5.007051862776279449e-03 -5.188044533133506775e-02 5.780629441142082214e-02
6.250000000000000000e+02 2.802116203308105469e+01 -5.653115749359130859e+00 -2.396898865699768066e-01 -3.170893993228673935e-03 -7.285822927951812744e-02 6.449624896049499512e-02
6.260000000000000000e+02 2.725833702087402344e+01 -6.376431941986083984e+00 -1.764860004186630249e-01 -1.147924689576029778e-03 -5.329017713665962219e-02 2.343773469328880310e-02
6.270000000000000000e+02 2.428754043579101562e+01 -6.197861671447753906e+00 -5.397428572177886963e-02 -2.969098044559359550e-03 -1.708301529288291931e-02 1.670186407864093781e-02
6.280000000000000000e+02 2.435861396789550781e+01 -5.461198806762695312e+00 -8.327650278806686401e-02 -1.012961380183696747e-02 -2.802183665335178375e-02 4.353562369942665100e-02
6.290000000000000000e+02 2.354777717590332031e+01 -6.138960838317871094e+00 -3.144736588001251221e-02 -3.243035869672894478e-03 -1.040712092071771622e-02 1.283680927008390427e-02
6.300000000000000000e+02 2.502826499938964844e+01 -6.258197307586669922e+00 -7.948046177625656128e-02 -3.096940461546182632e-03 -2.477322146296501160e-02 1.981417462229728699e-02
6.310000000000000000e+02 2.581491851806640625e+01 -5.581003189086914062e+00 -1.362055540084838867e-01 -6.979573518037796021e-03 -4.295554012060165405e-02 5.293707177042961121e-02
6.320000000000000000e+02 2.576985549926757812e+01 -6.319781780242919922e+00 -1.057720258831977844e-01 -1.713619567453861237e-03 -3.224569186568260193e-02 2.135296165943145752e-02
6.330000000000000000e+02 2.363185691833496094e+01 -5.403356075286865234e+00 -6.072540581226348877e-02 -1.040259096771478653e-02 -2.133839949965476990e-02 3.701301291584968567e-02
6.340000000000000000e+02 2.508633232116699219e+01 -5.520476818084716797e+00 -1.077327728271484375e-01 -8.613947778940200806e-03 -3.490401804447174072e-02 4.858271405100822449e-02
6.350000000000000000e+02 2.146717453002929688e+01 -5.077126979827880859e+00 -1.734666153788566589e-02 -1.054940838366746902e-02 -8.368820883333683014e-03 1.394050195813179016e-02
6.360000000000000000e+02 2.134441947937011719e+01 -5.806876659393310547e+00 6.330544129014015198e-03 -5.761179490946233273e-04 1.726327813230454922e-03 2.751626772806048393e-03
6.370000000000000000e+02 2.061148262023925781e+01 -5.684748649597167969e+00 1.042275689542293549e-02 -2.928446279838681221e-03 2.248293021693825722e-03 -8.928253082558512688e-04
6.380000000000000000e+02 2.207760429382324219e+01 -5.928263664245605469e+00 -2.218702808022499084e-03 -3.860641736537218094e-03 -1.823803409934043884e-03 5.394527688622474670e-03
6.390000000000000000e+02 2.290797805786132812e+01 -5.314875125885009766e+00 -4.270442575216293335e-02 -1.157632190734148026e-02 -1.628422364592552185e-02 2.938499860465526581e-02
6.400000000000000000e+02 2.281096076965332031e+01 -6.048885822296142578e+00 -1.410204358398914337e-02 -2.637235680595040321e-03 -5.021783988922834396e-03 9.608107618987560272e-03
6.410000000000000000e+02 2.074710655212402344e+01 -4.957129478454589844e+00 -1.097928918898105621e-02 -6.412414833903312683e-03 -5.217511206865310669e-03 7.758076768368482590e-03
6.420000000000000000e+02 2.218749046325683594e+01 -5.196383476257324219e+00 -2.759751304984092712e-02 -1.139071304351091385e-02 -1.169646810740232468e-02 2.317075803875923157e-02
6.430000000000000000e+02 1.905580329895019531e+01 -4.613489627838134766e+00 1.307716156588867307e-04 4.299722146242856979e-03 1.329148188233375549e-03 -5.232129245996475220e-03
6.440000000000000000e+02 1.978026580810546875e+01 -5.523462295532226562e+00 8.279306814074516296e-03 5.869638989679515362e-04 2.659881254658102989e-03 -3.718578722327947617e-03
6.450000000000000000e+02 1.992511749267578125e+01 -4.797539234161376953e+00 -4.192084074020385742e-03 -7.480716332793235779e-03 -3.501840168610215187e-03 2.022014523390680552e-04
6.460000000000000000e+02 1.847771644592285156e+01 -4.667171001434326172e+00 -6.981459591770544648e-05 8.013739250600337982e-03 2.383177401497960091e-03 -1.197339734062552452e-03
6.470000000000000000e+02 1.890536689758300781e+01 -5.338151454925537109e+00 2.354627009481191635e-03 1.241237390786409378e-03 1.078759320080280304e-03 -3.059937851503491402e-03
6.480000000000000000e+02 1.882146453857421875e+01 -6.111851215362548828e+00 -1.027123507810756564e-04 -7.327821222133934498e-04 -2.506483579054474831e-04 -1.445071655325591564e-03
6.490000000000000000e+02 1.800308799743652344e+01 -6.754832744598388672e+00 -1.501834136433899403e-03 -7.371442392468452454e-03 -2.661982784047722816e-03 -3.695788327604532242e-04
6.500000000000000000e+02 1.831862449645996094e+01 -6.817986488342285156e+00 -8.728266693651676178e-03 -5.694721825420856476e-03 -4.326896276324987411e-03 -5.801151972264051437e-03
6.510000000000000000e+02 1.959215354919433594e+01 -7.028707504272460938e+00 -5.301652103662490845e-02 -2.083597937598824501e-03 -1.653003692626953125e-02 -2.151234820485115051e-02
6.520000000000000000e+02 1.890554809570312500e+01 -6.889476776123046875e+00 -2.790688909590244293e-02 -7.929917424917221069e-03 -1.075104158371686935e-02 -1.486280933022499084e-02
6.530000000000000000e+02 1.965883255004882812e+01 -6.285129547119140625e+00 -1.392713468521833420e-02 -1.311148866079747677e-03 -4.571485333144664764e-03 -6.324578542262315750e-03
6.540000000000000000e+02 1.828899765014648438e+01 -6.266255378723144531e+00 -1.532464171759784222e-03 6.162554491311311722e-04 -2.748625993262976408e-04 -5.052085034549236298e-04
6.550000000000000000e+02 1.796524238586425781e+01 -6.500696659088134766e+00 -8.342934888787567616e-04 8.103788131847977638e-04 -7.174402071541408077e-06 1.956681953743100166e-03
6.560000000000000000e+02 1.805694389343261719e+01 -7.337166786193847656e+00 -1.393059035763144493e-03 -2.162569388747215271e-02 -6.905625574290752411e-03 -2.099421247839927673e-02
6.570000000000000000e+02 1.870118522644042969e+01 -7.445179462432861328e+00 -4.283716529607772827e-02 -1.008066721260547638e-02 -1.587535068392753601e-02 -3.106968291103839874e-02
6.580000000000000000e+02 1.718050956726074219e+01 -9.355028152465820312e+00 -5.177604034543037415e-02 -6.009046733379364014e-02 -3.355995193123817444e-02 -6.186145916581153870e-02
6.590000000000000000e+02 2.246794319152832031e+01 -9.063021659851074219e+00 -2.127409130334854126e-01 3.662404837086796761e-03 -6.272355467081069946e-02 -9.639392048120498657e-02
6.600000000000000000e+02 2.794106674194335938e+01 -8.653834342956542969e+00 -4.461656808853149414e-01 -6.763139739632606506e-03 -1.358786523342132568e-01 -9.167900681495666504e-02
6.610000000000000000e+02 2.407688331604003906e+01 -8.445061683654785156e+00 -2.653943598270416260e-01 3.832085058093070984e-03 -7.846868783235549927e-02 -7.553722709417343140e-02
6.620000000000000000e+02 1.502404308319091797e+01 -1.271275901794433594e+01 -1.345844119787216187e-01 -1.997791975736618042e-01 -1.003090813755989075e-01 -1.598485410213470459e-01
6.630000000000000000e+02 1.241015434265136719e+01 -1.604191017150878906e+01 -2.073716372251510620e-01 -2.162461876869201660e-01 -1.270853430032730103e-01 -2.085413187742233276e-01
6.640000000000000000e+02 1.431001853942871094e+01 -1.572228813171386719e+01 -1.885707080364227295e-01 -1.815845817327499390e-01 -1.110465899109840393e-01 -1.800383776426315308e-01
6.650000000000000000e+02 1.538099861145019531e+01 -2.441413688659667969e+01 -1.234318502247333527e-02 -1.987763643264770508e-01 -6.333586573600769043e-02 -1.661116182804107666e-01
6.660000000000000000e+02 1.689348220825195312e+01 -3.117033386230468750e+01 9.679774940013885498e-02 -2.399964928627014160e-01 -4.295962303876876831e-02 -1.483584791421890259e-01
6.670000000000000000e+02 1.791982269287109375e+01 -4.066929626464843750e+01 1.772636622190475464e-01 -2.733045518398284912e-01 -2.881226688623428345e-02 -2.932097204029560089e-02
6.680000000000000000e+02 2.278087043762207031e+01 -4.093527221679687500e+01 2.659233808517456055e-01 -2.903460264205932617e-01 -7.326788268983364105e-03 -2.867536991834640503e-02
6.690000000000000000e+02 1.934596824645996094e+01 -3.710330581665039062e+01 1.857148259878158569e-01 -2.725880742073059082e-01 -2.606197446584701538e-02 -8.680269122123718262e-02
6.700000000000000000e+02 2.436211204528808594e+01 -3.455221176147460938e+01 2.389253675937652588e-01 -2.729355096817016602e-01 -1.020304299890995026e-02 -1.487755030393600464e-01
6.710000000000000000e+02 2.126225471496582031e+01 -2.166882133483886719e+01 -7.874882221221923828e-02 -1.422698795795440674e-01 -6.630561500787734985e-02 -2.341360300779342651e-01
6.720000000000000000e+02 2.343664550781250000e+01 -1.282356834411621094e+01 -2.698320150375366211e-01 -1.761908642947673798e-02 -8.623532950878143311e-02 -2.025329619646072388e-01
6.730000000000000000e+02 2.350296783447265625e+01 -1.443182563781738281e+01 -2.551383078098297119e-01 -3.489682823419570923e-02 -8.701054751873016357e-02 -2.296876758337020874e-01
6.740000000000000000e+02 1.333069038391113281e+01 -1.494665718078613281e+01 -1.930341571569442749e-01 -2.170686572790145874e-01 -1.230308413505554199e-01 -2.005169987678527832e-01
6.750000000000000000e+02 1.142855930328369141e+01 -1.718158912658691406e+01 -2.468011379241943359e-01 -2.086782306432723999e-01 -1.366438120603561401e-01 -2.042716890573501587e-01
6.760000000000000000e+02 1.020593643188476562e+01 -1.805946159362792969e+01 -2.938385605812072754e-01 -1.665661931037902832e-01 -1.381214261054992676e-01 -1.687585711479187012e-01
6.770000000000000000e+02 8.885307312011718750e+00 -1.835013580322265625e+01 -1.966916024684906006e-01 -4.674069210886955261e-02 -7.302968949079513550e-02 -8.849594742059707642e-02
6.780000000000000000e+02 7.176005363464355469e+00 -1.728316879272460938e+01 -2.533254772424697876e-02 1.792098954319953918e-02 -2.223466988652944565e-03 -7.967750541865825653e-03
6.790000000000000000e+02 6.399394512176513672e+00 -1.630218887329101562e+01 4.834873601794242859e-03 3.773045958951115608e-03 2.582375891506671906e-03 -5.525582004338502884e-03
6.800000000000000000e+02 7.066537857055664062e+00 -1.512666416168212891e+01 2.475660992786288261e-03 1.257713604718446732e-02 4.515838809311389923e-03 -4.006592091172933578e-03
6.810000000000000000e+02 8.855728149414062500e+00 -1.144986152648925781e+01 -2.820060763042420149e-04 -2.645289932843297720e-04 -1.639605179661884904e-04 1.177592930616810918e-04
6.820000000000000000e+02 9.654201507568359375e+00 -1.031058025360107422e+01 1.180443214252591133e-04 -4.118637377814593492e-07 3.528973684296943247e-05 -2.118716074619442225e-04
6.830000000000000000e+02 1.214739227294921875e+01 -7.054331779479980469e+00 -4.728540443466044962e-05 -6.034790567355230451e-05 -3.228999048587866127e-05 2.737277463893406093e-05
6.840000000000000000e+02 1.172772598266601562e+01 -2.754101037979125977e+00 -1.337148569291457534e-05 4.307393828639760613e-05 8.910735232348088175e-06 3.322787961224094033e-05
6.850000000000000000e+02 1.225430870056152344e+01 -4.641711235046386719e+00 1.277987576031591743e-05 -9.061043783731292933e-06 1.115649411076446995e-06 -4.039624036522582173e-05
6.860000000000000000e+02 1.105039215087890625e+01 -1.912775158882141113e+00 -9.908436368277762085e-06 3.914386252290569246e-05 8.770627573539968580e-06 3.752765042008832097e-05
6.870000000000000000e+02 4.286009788513183594e+00 -1.931474447250366211e+00 -1.764501030265819281e-05 -6.758473318768665195e-06 -7.321044904529117048e-06 -5.491135379998013377e-05
6.880000000000000000e+02 1.982357978820800781e+00 -1.474981784820556641e+01 2.058811718598008156e-03 -2.656618016771972179e-04 5.379449576139450073e-04 3.447267459705471992e-03
6.890000000000000000e+02 4.538830757141113281e+00 -1.808062744140625000e+01 -3.054583072662353516e-02 -1.142487023025751114e-02 -1.259121019393205643e-02 -7.372881751507520676e-03
6.900000000000000000e+02 6.296316385269165039e-01 -2.479453086853027344e+01 -1.257812837138772011e-03 -5.493593215942382812e-02 -1.685812324285507202e-02 -1.283848099410533905e-02
6.910000000000000000e+02 6.902323365211486816e-01 -3.176095962524414062e+01 5.922185955569148064e-04 -2.063608467578887939e-01 -6.173058971762657166e-02 -1.272061374038457870e-02
6.920000000000000000e+02 2.895664453506469727e+00 -3.808708953857421875e+01 7.537173107266426086e-03 -2.651008963584899902e-01 -7.726911455392837524e-02 -1.733166910707950592e-02
6.930000000000000000e+02 9.271919131278991699e-01 -3.731131744384765625e+01 1.515688956715166569e-03 -2.756573259830474854e-01 -8.224248886108398438e-02 -5.876479670405387878e-03
6.940000000000000000e+02 9.313513755798339844e+00 -3.785871124267578125e+01 6.138849630951881409e-02 -2.456432878971099854e-01 -5.527643486857414246e-02 -5.015487968921661377e-02
6.950000000000000000e+02 6.307082176208496094e+00 -3.115392684936523438e+01 1.978016644716262817e-02 -1.987443417310714722e-01 -5.368925258517265320e-02 -9.122979640960693359e-02
6.960000000000000000e+02 1.193356800079345703e+01 -2.121394729614257812e+01 -6.838424503803253174e-02 -1.909645497798919678e-01 -7.780463993549346924e-02 -1.473320275545120239e-01
6.970000000000000000e+02 1.038157176971435547e+01 -2.179471588134765625e+01 -5.224848166108131409e-02 -1.740763634443283081e-01 -6.789745390415191650e-02 -1.450462490320205688e-01
6.980000000000000000e+02 6.367071866989135742e-01 -2.339011192321777344e+01 -3.800983831752091646e-04 -2.834837138652801514e-02 -8.618541061878204346e-03 -1.097050495445728302e-02
6.990000000000000000e+02 1.254483032226562500e+01 -2.002691745758056641e+00 1.651064485486131161e-05 1.757987047312781215e-05 1.022715423459885642e-05 1.527851964056026191e-05
7.000000000000000000e+02 2.761282157897949219e+01 -4.102713394165039062e+01 3.640228509902954102e-01 -2.946901917457580566e-01 2.079979702830314636e-02 -2.992904558777809143e-02
7.010000000000000000e+02 3.246742630004882812e+01 -4.101422119140625000e+01 4.783259332180023193e-01 -2.810062766075134277e-01 5.919589847326278687e-02 -3.664277866482734680e-02
7.020000000000000000e+02 2.840999603271484375e+01 -3.178754997253417969e+01 2.605011761188507080e-01 -2.559023499488830566e-01 1.379652996547520161e-03 -2.253961712121963501e-01
7.030000000000000000e+02 3.146273422241210938e+01 -1.486354351043701172e+01 -3.782149255275726318e-01 -6.223383918404579163e-02 -1.321346312761306763e-01 -3.217416703701019287e-01
7.040000000000000000e+02 3.100693511962890625e+01 -8.653797149658203125e+00 -5.959407687187194824e-01 -1.080034766346216202e-02 -1.820223331451416016e-01 -1.059654355049133301e-01
7.050000000000000000e+02 2.946208572387695312e+01 -9.412782669067382812e+00 -5.009140968322753906e-01 -1.240340992808341980e-02 -1.539952456951141357e-01 -1.333246678113937378e-01
7.060000000000000000e+02 4.230131149291992188e+01 -4.076231002807617188e+01 7.397302389144897461e-01 -8.814881742000579834e-02 1.954744309186935425e-01 -4.265894740819931030e-02
7.070000000000000000e+02 3.736046981811523438e+01 -4.091098403930664062e+01 6.104177832603454590e-01 -2.237430065870285034e-01 1.160024330019950867e-01 -4.324351996183395386e-02
7.080000000000000000e+02 3.547959518432617188e+01 -3.153411674499511719e+01 3.985034525394439697e-01 -2.255893945693969727e-01 5.187421664595603943e-02 -2.765978872776031494e-01
7.090000000000000000e+02 3.540365219116210938e+01 -2.188731384277343750e+01 -4.413484781980514526e-02 -1.570765525102615356e-01 -6.036342307925224304e-02 -4.242932498455047607e-01
7.100000000000000000e+02 3.639950561523437500e+01 -1.373301506042480469e+01 -5.565593838691711426e-01 -6.187417358160018921e-02 -1.855300664901733398e-01 -3.482224941253662109e-01
7.110000000000000000e+02 3.929114913940429688e+01 -8.450410842895507812e+00 -1.049516439437866211e+00 -8.893044665455818176e-03 -3.175228536128997803e-01 -1.498866826295852661e-01
7.120000000000000000e+02 3.781399536132812500e+01 -9.213028907775878906e+00 -9.141455888748168945e-01 -1.575781963765621185e-02 -2.789710164070129395e-01 -1.822024732828140259e-01
7.130000000000000000e+02 3.629307556152343750e+01 -8.533442497253417969e+00 -8.728907704353332520e-01 -1.063012704253196716e-02 -2.650562822818756104e-01 -1.344928145408630371e-01
7.140000000000000000e+02 3.879045867919921875e+01 -3.068967628479003906e+01 4.373326003551483154e-01 -1.918649673461914062e-01 7.364029437303543091e-02 -3.040471971035003662e-01
7.150000000000000000e+02 4.486248779296875000e+01 -2.260325050354003906e+01 1.007234230637550354e-01 -1.047093272209167480e-01 -1.195771154016256332e-03 -4.686739146709442139e-01
7.160000000000000000e+02 4.365838623046875000e+01 -1.405439949035644531e+01 -7.413793206214904785e-01 -6.438882648944854736e-02 -2.417304366827011108e-01 -4.458838701248168945e-01
7.170000000000000000e+02 4.676644134521484375e+01 -8.296428680419921875e+00 -1.582397341728210449e+00 -5.929970648139715195e-03 -4.764982163906097412e-01 -1.866110265254974365e-01
7.180000000000000000e+02 4.302975845336914062e+01 -8.361043930053710938e+00 -1.297799825668334961e+00 -7.322102785110473633e-03 -3.915365934371948242e-01 -1.676650494337081909e-01
7.190000000000000000e+02 4.379565048217773438e+01 -9.062171936035156250e+00 -1.280539631843566895e+00 -1.207622978836297989e-02 -3.877847492694854736e-01 -2.204182446002960205e-01
7.200000000000000000e+02 4.228277969360351562e+01 -8.377443313598632812e+00 -1.244811534881591797e+00 -7.332792039960622787e-03 -3.756433129310607910e-01 -1.644137054681777954e-01
7.210000000000000000e+02 4.727257156372070312e+01 -4.072135925292968750e+01 8.458654284477233887e-01 1.380095481872558594e-01 2.951624989509582520e-01 -3.502412512898445129e-02
7.220000000000000000e+02 5.223467254638671875e+01 -4.077367019653320312e+01 9.067583084106445312e-01 5.323615670204162598e-01 4.317359626293182373e-01 -9.775444865226745605e-03
7.230000000000000000e+02 5.321591186523437500e+01 -2.273269271850585938e+01 3.216366469860076904e-01 9.029574692249298096e-02 1.235797181725502014e-01 -3.290091753005981445e-01
7.240000000000000000e+02 5.087567520141601562e+01 -1.432123756408691406e+01 -8.536544442176818848e-01 -6.030161306262016296e-02 -2.741868197917938232e-01 -5.238839387893676758e-01
7.250000000000000000e+02 5.274905395507812500e+01 -8.248476982116699219e+00 -2.129697799682617188e+00 -6.723175290971994400e-03 -6.409263014793395996e-01 -2.233939617872238159e-01
7.260000000000000000e+02 5.126110076904296875e+01 -8.966937065124511719e+00 -1.852863430976867676e+00 -1.210176851600408554e-02 -5.594895482063293457e-01 -2.763595283031463623e-01
7.270000000000000000e+02 4.975599670410156250e+01 -8.265522003173828125e+00 -1.841522455215454102e+00 -5.073782056570053101e-03 -5.539788603782653809e-01 -2.039772123098373413e-01
7.280000000000000000e+02 6.214418029785156250e+01 -4.054612731933593750e+01 7.649537920951843262e-01 1.964918732643127441e+00 8.189617395401000977e-01 7.367302477359771729e-02
7.290000000000000000e+02 5.716357803344726562e+01 -4.074288177490234375e+01 8.978487253189086914e-01 1.114166140556335449e+00 6.036044955253601074e-01 1.315590552985668182e-02
7.300000000000000000e+02 5.900260543823242188e+01 -2.318346214294433594e+01 6.101781129837036133e-01 5.544756650924682617e-01 3.493961393833160400e-01 2.370461449027061462e-02
7.310000000000000000e+02 5.736489105224609375e+01 -1.371350002288818359e+01 -1.000710964202880859e+00 -4.184512794017791748e-02 -3.127668201923370361e-01 -5.113754272460937500e-01
7.320000000000000000e+02 5.799200439453125000e+01 -8.238377571105957031e+00 -2.707746505737304688e+00 -1.235040649771690369e-02 -8.160290718078613281e-01 -2.705485224723815918e-01
7.330000000000000000e+02 5.500200271606445312e+01 -8.949650764465332031e+00 -2.188224554061889648e+00 -1.545803807675838470e-02 -6.611047387123107910e-01 -3.121612966060638428e-01
7.340000000000000000e+02 5.499538421630859375e+01 -8.242312431335449219e+00 -2.366281509399414062e+00 -8.600980043411254883e-03 -7.124646902084350586e-01 -2.407247126102447510e-01
7.350000000000000000e+02 6.366164779663085938e+01 -2.889272499084472656e+01 8.229590654373168945e-01 1.786811590194702148e+00 7.829312086105346680e-01 4.695007801055908203e-01
7.360000000000000000e+02 6.406831359863281250e+01 -2.443659973144531250e+01 8.164891004562377930e-01 1.492553472518920898e+00 6.927127838134765625e-01 5.294458866119384766e-01
7.370000000000000000e+02 6.316724777221679688e+01 -1.412278079986572266e+01 -6.089812517166137695e-01 1.333447992801666260e-01 -1.426909267902374268e-01 -2.555579841136932373e-01
7.380000000000000000e+02 6.474004364013671875e+01 -8.235576629638671875e+00 -3.547430753707885742e+00 -2.193405292928218842e-02 -1.070809364318847656e+00 -3.604483008384704590e-01
7.390000000000000000e+02 6.324060440063476562e+01 -8.236956596374511719e+00 -3.361784934997558594e+00 -1.876832731068134308e-02 -1.014165997505187988e+00 -3.398892879486083984e-01
7.400000000000000000e+02 6.099107742309570312e+01 -8.236554145812988281e+00 -3.076182126998901367e+00 -1.605342887341976166e-02 -9.276707172393798828e-01 -3.075410127639770508e-01
7.410000000000000000e+02 6.717251586914062500e+01 -4.065390014648437500e+01 5.461826324462890625e-01 2.894197463989257812e+00 1.032114028930664062e+00 1.061682179570198059e-01
7.420000000000000000e+02 6.748799896240234375e+01 -3.734732818603515625e+01 5.519617199897766113e-01 2.942117691040039062e+00 1.048223853111267090e+00 2.916422784328460693e-01
7.430000000000000000e+02 7.190175628662109375e+01 -2.914300155639648438e+01 4.344971776008605957e-01 4.053669452667236328e+00 1.346449971199035645e+00 8.362782001495361328e-01
7.440000000000000000e+02 7.243152618408203125e+01 -2.237392425537109375e+01 6.086119413375854492e-01 4.300458908081054688e+00 1.472721219062805176e+00 1.359665513038635254e+00
7.450000000000000000e+02 7.389390563964843750e+01 -1.616025924682617188e+01 6.772962212562561035e-01 5.028764724731445312e+00 1.711818337440490723e+00 1.992974162101745605e+00
7.460000000000000000e+02 7.454380798339843750e+01 -8.132222175598144531e+00 -1.685932159423828125e+00 1.542135596275329590e+00 -4.313895478844642639e-02 1.767183542251586914e+00
7.470000000000000000e+02 7.222946929931640625e+01 -8.167744636535644531e+00 -3.505144119262695312e+00 1.808856427669525146e-01 -9.972774982452392578e-01 1.859270595014095306e-02
7.480000000000000000e+02 7.222978973388671875e+01 -8.746057510375976562e+00 -2.532611846923828125e+00 3.770825266838073730e-01 -6.466587781906127930e-01 2.493224740028381348e-01
7.490000000000000000e+02 6.698765563964843750e+01 -8.227560997009277344e+00 -3.798558235168457031e+00 -2.260061725974082947e-02 -1.146347641944885254e+00 -3.852818608283996582e-01
7.500000000000000000e+02 7.801619720458984375e+01 -4.160607147216796875e+01 8.191379159688949585e-02 4.944979190826416016e+00 1.508067846298217773e+00 2.298133261501789093e-02
7.510000000000000000e+02 7.824320983886718750e+01 -3.794762802124023438e+01 6.989210844039916992e-03 5.037542343139648438e+00 1.513359427452087402e+00 1.148786395788192749e-01
7.520000000000000000e+02 7.769631195068359375e+01 -3.063585090637207031e+01 5.329145118594169617e-02 5.559957981109619141e+00 1.683974742889404297e+00 3.011076748371124268e-01
7.530000000000000000e+02 7.818666839599609375e+01 -2.354141044616699219e+01 4.512778297066688538e-02 7.007851123809814453e+00 2.115893602371215820e+00 5.411395430564880371e-01
7.540000000000000000e+02 7.836182403564453125e+01 -1.659898948669433594e+01 1.232786178588867188e-01 9.809847831726074219e+00 2.979938030242919922e+00 1.037532687187194824e+00
7.550000000000000000e+02 7.655092620849609375e+01 -8.326298713684082031e+00 -1.702538371086120605e+00 1.256275558471679688e+01 3.258064985275268555e+00 5.548655986785888672e+00
7.560000000000000000e+02 7.946047210693359375e+01 -1.386776351928710938e+01 -3.512836620211601257e-02 1.306345367431640625e+01 3.908497571945190430e+00 4.554791450500488281e-01
7.570000000000000000e+02 7.664668273925781250e+01 -8.022999763488769531e+00 -1.633382201194763184e+00 1.366849613189697266e+01 3.610534191131591797e+00 6.457991123199462891e+00
7.580000000000000000e+02 7.867929840087890625e+01 -6.927286624908447266e+00 3.056634426116943359e+00 1.645235824584960938e+01 5.852697849273681641e+00 -3.255090951919555664e+00
7.590000000000000000e+02 7.904498291015625000e+01 -4.992340564727783203e+00 -1.780490726232528687e-01 1.479225063323974609e+01 4.384260654449462891e+00 3.165819883346557617e+00
7.600000000000000000e+02 7.763532257080078125e+01 -4.790995121002197266e+00 -3.188680887222290039e+00 2.123799896240234375e+01 5.414795398712158203e+00 -9.407548308372497559e-01
7.610000000000000000e+02 7.966108703613281250e+01 -4.228928089141845703e+00 -3.368854224681854248e-01 1.320470523834228516e+01 3.860345840454101562e+00 1.231411337852478027e+00
7.620000000000000000e+02 7.634941864013671875e+01 3.862267684936523438e+01 1.000901684165000916e-02 3.931482553482055664e+00 1.182447433471679688e+00 -6.381491571664810181e-02
7.630000000000000000e+02 7.939817810058593750e+01 3.741233825683593750e+01 -7.885122671723365784e-03 4.089353561401367188e+00 1.224440574645996094e+00 -1.764159835875034332e-02
7.640000000000000000e+02 7.914631652832031250e+01 3.068368721008300781e+01 2.409626264125108719e-03 4.358850479125976562e+00 1.308378100395202637e+00 -4.294085502624511719e-02
7.650000000000000000e+02 7.934410858154296875e+01 2.364550590515136719e+01 -2.089875197270885110e-04 4.891733646392822266e+00 1.467457413673400879e+00 -6.521949172019958496e-02
7.660000000000000000e+02 7.937327575683593750e+01 1.672170257568359375e+01 1.123819686472415924e-02 5.861059188842773438e+00 1.761689186096191406e+00 -1.125160530209541321e-01
7.670000000000000000e+02 7.933238983154296875e+01 9.737010002136230469e+00 8.300076588056981564e-04 7.734369754791259766e+00 2.320559978485107422e+00 -2.380387336015701294e-01
7.680000000000000000e+02 7.950621032714843750e+01 2.751787185668945312e+00 4.824662953615188599e-02 1.162901782989501953e+01 3.503179311752319336e+00 -3.716260790824890137e-01
7.690000000000000000e+02 7.645688629150390625e+01 -4.747168064117431641e+00 -9.852488636970520020e-01 1.108315563201904297e+01 3.029372215270996094e+00 -6.051750183105468750e+00
7.700000000000000000e+02 7.807691955566406250e+01 1.258041954040527344e+01 6.269048154354095459e-02 6.422753334045410156e+00 1.945633053779602051e+00 -5.015960335731506348e-01
7.710000000000000000e+02 7.810774993896484375e+01 2.081504058837890625e+01 2.332606911659240723e-02 5.037747859954833984e+00 1.518322229385375977e+00 -2.334669083356857300e-01
7.720000000000000000e+02 7.532874298095703125e+01 2.449103736877441406e+01 7.672415673732757568e-02 4.277676105499267578e+00 1.306320071220397949e+00 -3.733069896697998047e-01
7.730000000000000000e+02 7.910952758789062500e+01 3.212327957153320312e+01 3.802884835749864578e-03 4.292996883392333984e+00 1.289039969444274902e+00 -3.816751390695571899e-02
7.740000000000000000e+02 7.028115844726562500e+01 3.783601760864257812e+01 1.612656116485595703e-01 3.250180721282958984e+00 1.023433923721313477e+00 -1.243620961904525757e-01
7.750000000000000000e+02 6.650539398193359375e+01 3.784722137451171875e+01 2.724950313568115234e-01 2.777232885360717773e+00 9.149183630943298340e-01 -1.400790661573410034e-01
7.760000000000000000e+02 7.360013580322265625e+01 3.158869361877441406e+01 9.897390007972717285e-02 3.734587192535400391e+00 1.150068283081054688e+00 -2.579461038112640381e-01
7.770000000000000000e+02 7.263558959960937500e+01 2.386141014099121094e+01 1.881966441869735718e-01 3.838938236236572266e+00 1.208140492439270020e+00 -5.371167063713073730e-01
7.780000000000000000e+02 7.318243408203125000e+01 1.688943481445312500e+01 2.825802564620971680e-01 4.292163372039794922e+00 1.372423052787780762e+00 -8.813133239746093750e-01
7.790000000000000000e+02 6.823795318603515625e+01 -9.745709300041198730e-01 -9.435362815856933594e-01 3.350810408592224121e-01 -1.825365722179412842e-01 -8.868303894996643066e-02
7.800000000000000000e+02 6.929104614257812500e+01 -4.606218338012695312e+00 -4.006933689117431641e+00 -1.773365586996078491e-02 -1.207400083541870117e+00 3.649932146072387695e-01
7.810000000000000000e+02 7.142034149169921875e+01 -4.256434917449951172e+00 -3.201426744461059570e+00 1.277569532394409180e-01 -9.221009016036987305e-01 6.644169241189956665e-02
7.820000000000000000e+02 7.141204071044921875e+01 -4.680617332458496094e+00 -3.791213512420654297e+00 7.729684561491012573e-02 -1.114175081253051758e+00 1.685748547315597534e-01
7.830000000000000000e+02 5.748614501953125000e+01 4.071709823608398438e+01 4.979931712150573730e-01 1.668637871742248535e+00 6.499893069267272949e-01 -3.306553512811660767e-02
7.840000000000000000e+02 6.235868072509765625e+01 4.087174987792968750e+01 3.831469714641571045e-01 2.249092102050781250e+00 7.896717190742492676e-01 -4.511647298932075500e-02
7.850000000000000000e+02 6.085483551025390625e+01 2.869592475891113281e+01 5.141935348510742188e-01 1.912695884704589844e+00 7.280668020248413086e-01 -3.347562849521636963e-01
7.860000000000000000e+02 6.560747528076171875e+01 2.337418746948242188e+01 4.804103374481201172e-01 2.529788255691528320e+00 9.030595421791076660e-01 -5.955547094345092773e-01
7.870000000000000000e+02 6.695079040527343750e+01 1.945845603942871094e+01 5.330910682678222656e-01 2.642887830734252930e+00 9.527937173843383789e-01 -7.599328756332397461e-01
7.880000000000000000e+02 6.745626831054687500e+01 1.010703182220458984e+01 7.523244023323059082e-01 2.215151786804199219e+00 8.902428746223449707e-01 -1.029218435287475586e+00
7.890000000000000000e+02 6.252326965332031250e+01 -3.863652348518371582e-01 -1.360054731369018555e+00 8.848214522004127502e-03 -4.053619503974914551e-01 3.877566754817962646e-01
7.900000000000000000e+02 6.033260726928710938e+01 -4.537066459655761719e+00 -3.087426424026489258e+00 -1.713196747004985809e-02 -9.313675165176391602e-01 2.857967913150787354e-01
7.910000000000000000e+02 6.258292388916015625e+01 -4.538694381713867188e+00 -3.349129676818847656e+00 -1.867119036614894867e-02 -1.010340332984924316e+00 3.158107399940490723e-01
7.920000000000000000e+02 6.333211135864257812e+01 -4.541245460510253906e+00 -3.439280033111572266e+00 -2.203235961496829987e-02 -1.038393735885620117e+00 3.249019384384155273e-01
7.930000000000000000e+02 6.350659179687500000e+01 -3.845752239227294922e+00 -3.054460763931274414e+00 -2.795213833451271057e-02 -9.247238636016845703e-01 3.923426270484924316e-01
7.940000000000000000e+02 5.827610397338867188e+01 2.339418601989746094e+01 6.098754405975341797e-01 1.415027499198913574e+00 6.074709296226501465e-01 -3.131174445152282715e-01
7.950000000000000000e+02 5.857220840454101562e+01 1.842662811279296875e+01 6.404450535774230957e-01 1.165803670883178711e+00 5.418745875358581543e-01 -3.139896392822265625e-01
7.960000000000000000e+02 5.567666625976562500e+01 7.479338169097900391e+00 2.219000831246376038e-02 1.653055697679519653e-01 5.624867230653762817e-02 2.677337527275085449e-01
7.970000000000000000e+02 5.564062881469726562e+01 -2.785639762878417969e-01 -1.418403029441833496e+00 -4.474907368421554565e-02 -4.389456510543823242e-01 4.835473895072937012e-01
7.980000000000000000e+02 5.432776641845703125e+01 -4.538703441619873047e+00 -2.425949573516845703e+00 -1.199485547840595245e-02 -7.313833236694335938e-01 2.195005267858505249e-01
7.990000000000000000e+02 5.657970809936523438e+01 -4.535542011260986328e+00 -2.664143800735473633e+00 -1.234770938754081726e-02 -8.029474616050720215e-01 2.423640042543411255e-01
8.000000000000000000e+02 5.357759857177734375e+01 -4.540154933929443359e+00 -2.348484039306640625e+00 -9.715043008327484131e-03 -7.074596881866455078e-01 2.135668396949768066e-01
8.010000000000000000e+02 5.254315185546875000e+01 4.067212677001953125e+01 5.708724260330200195e-01 1.172478199005126953e+00 5.230051875114440918e-01 -2.129871770739555359e-02
8.020000000000000000e+02 5.076379394531250000e+01 2.969036865234375000e+01 5.867699980735778809e-01 8.371672034263610840e-01 4.271811842918395996e-01 -5.840925872325897217e-02
8.030000000000000000e+02 5.001628112792968750e+01 1.352257251739501953e+01 2.804897725582122803e-01 2.286562770605087280e-01 1.527438163757324219e-01 2.797806560993194580e-01
8.040000000000000000e+02 4.857180023193359375e+01 6.788689136505126953e+00 -2.935599088668823242e-01 1.469591050408780575e-03 -8.762709051370620728e-02 5.166341662406921387e-01
8.050000000000000000e+02 4.809179306030273438e+01 -2.774306237697601318e-01 -1.184867382049560547e+00 -3.039142489433288574e-02 -3.645776212215423584e-01 4.641478955745697021e-01
8.060000000000000000e+02 4.831477355957031250e+01 -4.571937084197998047e+00 -1.835463404655456543e+00 -7.160767447203397751e-03 -5.527872443199157715e-01 1.755748987197875977e-01
8.070000000000000000e+02 5.057096099853515625e+01 -4.552725791931152344e+00 -2.049952268600463867e+00 -8.073630742728710175e-03 -6.174077391624450684e-01 1.906306594610214233e-01
8.080000000000000000e+02 5.132225036621093750e+01 -4.549562931060791016e+00 -2.123529911041259766e+00 -9.653449058532714844e-03 -6.399549841880798340e-01 1.952756196260452271e-01
8.090000000000000000e+02 3.777613830566406250e+01 4.069109725952148438e+01 5.575295090675354004e-01 7.639978826045989990e-02 1.901787966489791870e-01 1.505867484956979752e-02
8.100000000000000000e+02 4.266608047485351562e+01 4.076053237915039062e+01 5.966423749923706055e-01 3.537069261074066162e-01 2.851047813892364502e-01 1.211224403232336044e-02
8.110000000000000000e+02 4.723710250854492188e+01 3.040450096130371094e+01 5.750767588615417480e-01 5.976849198341369629e-01 3.518285155296325684e-01 1.717203482985496521e-02
8.120000000000000000e+02 4.325041580200195312e+01 1.565118217468261719e+01 1.863840669393539429e-01 7.443017512559890747e-02 7.824426889419555664e-02 3.876094222068786621e-01
8.130000000000000000e+02 4.250117492675781250e+01 6.531740665435791016e+00 -3.695176839828491211e-01 -3.216798231005668640e-02 -1.205056980252265930e-01 5.691301822662353516e-01
8.140000000000000000e+02 4.222641372680664062e+01 -3.165900111198425293e-01 -9.242959618568420410e-01 -1.656569540500640869e-02 -2.822584807872772217e-01 4.350662529468536377e-01
8.150000000000000000e+02 4.003991317749023438e+01 -4.717919349670410156e+00 -1.103430390357971191e+00 1.514892908744513988e-03 -3.305746316909790039e-01 1.411199718713760376e-01
8.160000000000000000e+02 4.380000305175781250e+01 -4.634799480438232422e+00 -1.425437688827514648e+00 -2.516816370189189911e-03 -4.283863604068756104e-01 1.533260047435760498e-01
8.170000000000000000e+02 4.530554199218750000e+01 -4.610371112823486328e+00 -1.559363842010498047e+00 -3.904578043147921562e-03 -4.689805507659912109e-01 1.598639786243438721e-01
8.180000000000000000e+02 3.621899414062500000e+01 2.311147689819335938e+01 2.682565748691558838e-01 -5.262152105569839478e-02 6.469050794839859009e-02 2.730798423290252686e-01
8.190000000000000000e+02 3.735647583007812500e+01 1.616373062133789062e+01 5.730794370174407959e-02 -4.476449266076087952e-02 3.763034939765930176e-03 4.345028996467590332e-01
8.200000000000000000e+02 3.737692642211914062e+01 1.244907665252685547e+01 -9.423245489597320557e-02 -5.403173342347145081e-02 -4.447925463318824768e-02 5.122280716896057129e-01
8.210000000000000000e+02 3.610267639160156250e+01 -6.410619616508483887e-01 -6.596801877021789551e-01 -1.160501595586538315e-02 -2.013855576515197754e-01 3.893029689788818359e-01
8.220000000000000000e+02 3.404530334472656250e+01 -4.880924224853515625e+00 -6.358649134635925293e-01 4.016601014882326126e-03 -1.895544975996017456e-01 1.279946863651275635e-01
8.230000000000000000e+02 3.479134750366210938e+01 -4.862084865570068359e+00 -6.901532411575317383e-01 4.151490516960620880e-03 -2.058005183935165405e-01 1.295110136270523071e-01
8.240000000000000000e+02 3.703716278076171875e+01 -4.798409938812255859e+00 -8.606734275817871094e-01 3.896998940035700798e-03 -2.570329308509826660e-01 1.343279331922531128e-01
8.250000000000000000e+02 3.288708877563476562e+01 4.050714492797851562e+01 5.044160485267639160e-01 -1.450979858636856079e-01 1.077954098582267761e-01 2.343169786036014557e-02
8.260000000000000000e+02 2.952246856689453125e+01 3.557503509521484375e+01 4.281137883663177490e-01 -2.782128751277923584e-01 4.497027024626731873e-02 8.688698709011077881e-02
8.270000000000000000e+02 3.349357986450195312e+01 2.849078369140625000e+01 3.618288636207580566e-01 -1.406143307685852051e-01 6.636435538530349731e-02 1.796918958425521851e-01
8.280000000000000000e+02 2.652479362487792969e+01 2.395230674743652344e+01 1.159769594669342041e-01 -3.598588109016418457e-01 -7.316455990076065063e-02 2.382399588823318481e-01
8.290000000000000000e+02 2.777039718627929688e+01 1.658557891845703125e+01 -1.426247954368591309e-01 -2.638553977012634277e-01 -1.219440624117851257e-01 3.865795135498046875e-01
8.300000000000000000e+02 2.797314071655273438e+01 9.914980888366699219e+00 -2.939628660678863525e-01 -2.073596119880676270e-01 -1.503967493772506714e-01 5.023983120918273926e-01
8.310000000000000000e+02 2.535005569458007812e+01 1.894182324409484863e+00 -2.219556421041488647e-01 -1.632263213396072388e-01 -1.155545860528945923e-01 3.433006703853607178e-01
8.320000000000000000e+02 2.739054298400878906e+01 -4.907830715179443359e+00 -2.284595519304275513e-01 -9.274375624954700470e-03 -7.132017612457275391e-02 9.886484593152999878e-02
8.330000000000000000e+02 3.033009147644042969e+01 -4.944483280181884766e+00 -3.891852498054504395e-01 -8.700612233951687813e-04 -1.170165985822677612e-01 1.163381934165954590e-01
8.340000000000000000e+02 2.903919219970703125e+01 -4.239372730255126953e+00 -3.273427784442901611e-01 -9.533001109957695007e-03 -1.010627299547195435e-01 1.483504474163055420e-01
8.350000000000000000e+02 3.329962158203125000e+01 -4.899085521697998047e+00 -5.831580758094787598e-01 3.433012170717120171e-03 -1.739175170660018921e-01 1.261277794837951660e-01
8.360000000000000000e+02 1.766194534301757812e+01 4.052944946289062500e+01 2.839114367961883545e-01 -4.949026703834533691e-01 -6.329736858606338501e-02 3.470982983708381653e-02
8.370000000000000000e+02 2.271977424621582031e+01 4.008722305297851562e+01 3.703813850879669189e-01 -4.312532842159271240e-01 -1.826157048344612122e-02 3.848339989781379700e-02
8.380000000000000000e+02 1.988626670837402344e+01 2.906664466857910156e+01 2.009579241275787354e-01 -5.252972245216369629e-01 -9.730179607868194580e-02 1.946811974048614502e-01
8.390000000000000000e+02 2.283553314208984375e+01 2.119893646240234375e+01 -6.085816770792007446e-02 -4.854403436183929443e-01 -1.638895422220230103e-01 2.532277703285217285e-01
8.400000000000000000e+02 2.198618316650390625e+01 1.501173591613769531e+01 -3.312663733959197998e-01 -4.941848814487457275e-01 -2.476353794336318970e-01 3.798006176948547363e-01
8.410000000000000000e+02 2.017920875549316406e+01 1.003029251098632812e+01 -3.001637756824493408e-01 -6.756615042686462402e-01 -2.927475869655609131e-01 4.332297444343566895e-01
8.420000000000000000e+02 1.986127662658691406e+01 5.447157859802246094e+00 -9.465067088603973389e-02 -5.064079761505126953e-01 -1.803175956010818481e-01 2.435432076454162598e-01
8.430000000000000000e+02 2.166534423828125000e+01 -4.347867012023925781e+00 -3.530713543295860291e-02 -2.395329810678958893e-02 -1.777813024818897247e-02 3.173566609621047974e-02
8.440000000000000000e+02 2.467039680480957031e+01 -4.090365409851074219e+00 -1.301843076944351196e-01 -2.988881245255470276e-02 -4.802193865180015564e-02 9.747552126646041870e-02
8.450000000000000000e+02 2.377780342102050781e+01 -4.698815822601318359e+00 -8.602625131607055664e-02 -2.038568444550037384e-02 -3.192358091473579407e-02 6.114548444747924805e-02
8.460000000000000000e+02 1.762587356567382812e+01 3.661175918579101562e+01 2.724981307983398438e-01 -5.020562410354614258e-01 -6.886743009090423584e-02 1.049456298351287842e-01
8.470000000000000000e+02 1.753502082824707031e+01 3.289599227905273438e+01 2.431151866912841797e-01 -5.176699757575988770e-01 -8.236644417047500610e-02 1.669076830148696899e-01
8.480000000000000000e+02 1.652762603759765625e+01 2.306452369689941406e+01 -2.830845303833484650e-02 -6.359615325927734375e-01 -1.992809921503067017e-01 2.831097543239593506e-01
8.490000000000000000e+02 1.295318603515625000e+01 1.756253433227539062e+01 -7.442458868026733398e-01 -6.212298870086669922e-01 -4.096427261829376221e-01 6.215428113937377930e-01
8.500000000000000000e+02 1.507725429534912109e+01 1.557805347442626953e+01 -6.676351428031921387e-01 -1.019261837005615234e+00 -5.060690641403198242e-01 7.435636520385742188e-01
8.510000000000000000e+02 1.879361152648925781e+01 1.605010604858398438e+01 -3.885875344276428223e-01 -7.050476670265197754e-01 -3.280905783176422119e-01 3.937838673591613770e-01
8.520000000000000000e+02 1.592173385620117188e+01 1.440288162231445312e+01 -5.485530495643615723e-01 -1.174435734748840332e+00 -5.168966054916381836e-01 7.067567706108093262e-01
8.530000000000000000e+02 1.801480102539062500e+01 9.128061294555664062e+00 -1.487340480089187622e-01 -1.049275398254394531e+00 -3.594028353691101074e-01 3.411951363086700439e-01
8.540000000000000000e+02 1.855669975280761719e+01 6.411487579345703125e+00 -5.334451049566268921e-02 -6.887294650077819824e-01 -2.226222008466720581e-01 1.809238940477371216e-01
8.550000000000000000e+02 1.895126152038574219e+01 2.271902084350585938e+00 -9.637908078730106354e-03 -2.492529451847076416e-01 -7.766725122928619385e-02 5.606272816658020020e-02
8.560000000000000000e+02 1.891306686401367188e+01 -4.503137767314910889e-01 -5.940976087003946304e-03 -6.459511816501617432e-02 -2.116082794964313507e-02 2.383669652044773102e-02
8.570000000000000000e+02 1.979850959777832031e+01 -2.940170049667358398e+00 -1.677493937313556671e-02 -2.499164640903472900e-02 -1.252997573465108871e-02 2.029412612318992615e-02
8.580000000000000000e+02 1.293512248992919922e+01 4.075286865234375000e+01 1.948543190956115723e-01 -4.992997050285339355e-01 -9.133362025022506714e-02 3.079421259462833405e-02
8.590000000000000000e+02 8.451184272766113281e+00 4.072184371948242188e+01 9.434369951486587524e-02 -4.831318259239196777e-01 -1.166364327073097229e-01 3.507405519485473633e-02
8.600000000000000000e+02 8.455542564392089844e+00 3.173604965209960938e+01 7.934815436601638794e-02 -4.413770735263824463e-01 -1.086086705327033997e-01 1.991514712572097778e-01
8.610000000000000000e+02 6.075035572052001953e+00 2.468581008911132812e+01 -5.496378988027572632e-02 -2.337030023336410522e-01 -8.660003542900085449e-02 2.097472697496414185e-01
8.620000000000000000e+02 1.025940418243408203e+01 1.890063285827636719e+01 -5.884799361228942871e-01 -2.306714057922363281e-01 -2.457453906536102295e-01 2.794411480426788330e-01
8.630000000000000000e+02 1.169888114929199219e+01 1.844010543823242188e+01 -7.099822163581848145e-01 -4.176167249679565430e-01 -3.382796645164489746e-01 4.717725515365600586e-01
8.640000000000000000e+02 2.021791934967041016e+00 4.161195755004882812e+01 8.316673338413238525e-03 -5.402359962463378906e-01 -1.595758050680160522e-01 2.362844999879598618e-03
8.650000000000000000e+02 4.273327827453613281e+00 3.724084854125976562e+01 2.988083846867084503e-02 -4.732638597488403320e-01 -1.330149024724960327e-01 6.527198851108551025e-02
8.660000000000000000e+02 1.876446723937988281e+00 3.581101608276367188e+01 9.316768497228622437e-03 -4.681006669998168945e-01 -1.376351714134216309e-01 3.612467274069786072e-02
8.670000000000000000e+02 1.919676303863525391e+00 2.897206306457519531e+01 2.338228980079293251e-03 -2.640633881092071533e-01 -7.851754873991012573e-02 8.302303403615951538e-02
8.680000000000000000e+02 1.971607327461242676e+00 2.316731643676757812e+01 -1.524711586534976959e-02 -6.259921938180923462e-02 -2.335389889776706696e-02 5.257784947752952576e-02
8.690000000000000000e+02 4.243135929107666016e+00 1.572348022460937500e+01 4.177385941147804260e-03 -1.609337702393531799e-02 -3.574797185137867928e-03 -4.263446200639009476e-03
8.700000000000000000e+02 4.929409623146057129e-01 6.425919532775878906e+00 -2.212004474131390452e-04 -2.374175819568336010e-04 -1.375854044454172254e-04 1.193944917758926749e-04
8.710000000000000000e+02 6.064692497253417969e+00 1.858443379402160645e+00 -4.660618287744000554e-05 -1.237381948158144951e-04 -5.110331403557211161e-05 -1.370800164295360446e-04
8.720000000000000000e+02 8.104472160339355469e+00 2.578650236129760742e+00 -1.017963040794711560e-05 -2.081445272779092193e-04 -6.549724639626219869e-05 -3.214446769561618567e-04
8.730000000000000000e+02 9.633602142333984375e+00 1.859762430191040039e+00 -2.702324491110630333e-05 7.375195855274796486e-05 1.401861391059355810e-05 1.939885987667366862e-04
8.740000000000000000e+02 1.392453670501708984e+01 1.747703790664672852e+00 1.289766369154676795e-04 -9.936771675711497664e-05 8.882675501808989793e-06 2.643040716066025198e-06
8.750000000000000000e+02 1.444339466094970703e+01 6.251596927642822266e+00 -4.704511084128171206e-04 -1.637003151699900627e-04 -1.902454241644591093e-04 -1.399403117829933763e-04
8.760000000000000000e+02 1.180588245391845703e+01 9.558267593383789062e+00 -5.470077740028500557e-04 -1.028502127155661583e-03 -4.726529878098517656e-04 -7.391166291199624538e-04
8.770000000000000000e+02 1.132324981689453125e+01 1.233956050872802734e+01 1.418031170032918453e-03 9.531404939480125904e-04 7.113514584489166737e-04 1.458159531466662884e-03
8.780000000000000000e+02 1.216628265380859375e+01 1.123407363891601562e+01 -1.354081090539693832e-03 -9.907187195494771004e-04 -7.034399313852190971e-04 -7.732600788585841656e-04
8.790000000000000000e+02 9.413298606872558594e+00 1.445861434936523438e+01 2.184179844334721565e-03 2.624383429065346718e-03 1.442568958736956120e-03 2.057560021057724953e-03
8.800000000000000000e+02 7.857352733612060547e+00 1.687183380126953125e+01 1.103527937084436417e-02 5.778075754642486572e-02 2.064481005072593689e-02 1.262112241238355637e-02
8.810000000000000000e+02 1.786565423011779785e+00 2.173233604431152344e+01 -1.662740111351013184e-02 -2.564384602010250092e-02 -1.268137432634830475e-02 3.055394627153873444e-02
8.820000000000000000e+02 1.153068065643310547e+00 3.854373455047607422e+00 1.062412411556579173e-04 1.321261424891417846e-05 3.583615762181580067e-05 -1.066893964889459312e-04
8.830000000000000000e+02 1.385223579406738281e+01 2.566471576690673828e+00 -2.810891892295330763e-04 -2.348798007005825639e-04 -1.547907013446092606e-04 -3.550714463926851749e-04
8.840000000000000000e+02 2.252622032165527344e+01 -8.307606697082519531e+00 -1.985338926315307617e-01 6.410664878785610199e-03 -5.763696879148483276e-02 -6.839399039745330811e-02
8.850000000000000000e+02 7.824363708496093750e+01 5.372607231140136719e+00 6.345471739768981934e-02 8.858976364135742188e+00 2.676729202270507812e+00 -9.321880936622619629e-01
8.860000000000000000e+02 2.110456466674804688e+01 -2.318766784667968750e+01 -3.980891406536102295e-02 -1.631177216768264771e-01 -6.087798997759819031e-02 -2.262842357158660889e-01
8.870000000000000000e+02 1.554638767242431641e+01 -2.247163772583007812e+01 -5.492819845676422119e-02 -1.833112984895706177e-01 -7.147184759378433228e-02 -1.670504063367843628e-01
8.880000000000000000e+02 3.849877548217773438e+01 -1.392140579223632812e+01 -6.020432114601135254e-01 -6.384947896003723145e-02 -1.997678130865097046e-01 -3.844375014305114746e-01
8.890000000000000000e+02 4.332016754150390625e+01 -1.468088912963867188e+01 -6.547803878784179688e-01 -7.181283831596374512e-02 -2.179779559373855591e-01 -4.619589149951934814e-01
8.900000000000000000e+02 5.020222854614257812e+01 -1.494176769256591797e+01 -7.344983220100402832e-01 -6.897157430648803711e-02 -2.410409599542617798e-01 -5.309822559356689453e-01
8.910000000000000000e+02 6.300434112548828125e+01 -1.481115150451660156e+01 -3.940584957599639893e-01 1.869217008352279663e-01 -6.214103847742080688e-02 -2.068465501070022583e-01
8.920000000000000000e+02 7.416922760009765625e+01 -1.892157173156738281e+01 5.907441973686218262e-01 5.340234279632568359e+00 1.779293537139892578e+00 1.712044119834899902e+00
8.930000000000000000e+02 7.941680908203125000e+01 -2.225170898437500000e+01 -3.083279589191079140e-03 7.889194011688232422e+00 2.365833282470703125e+00 2.091527283191680908e-01
8.940000000000000000e+02 5.455840587615966797e+00 -1.557196044921875000e+01 2.778461901471018791e-03 -7.571146357804536819e-03 -1.437805360183119774e-03 -3.166736569255590439e-03
8.950000000000000000e+02 1.813917994499206543e+00 -1.774364280700683594e+01 -4.117670468986034393e-03 2.531107165850698948e-04 -1.159367966465651989e-03 1.647210214287042618e-03
8.960000000000000000e+02 5.824170112609863281e-01 -1.063996219635009766e+01 4.512901359703391790e-04 1.218118195538409054e-04 1.719305873848497868e-04 2.045774017460644245e-04
8.970000000000000000e+02 2.503655624389648438e+01 -3.149796485900878906e+01 1.963106095790863037e-01 -2.515809237957000732e-01 -1.658109202980995178e-02 -2.060154378414154053e-01
8.980000000000000000e+02 1.472936344146728516e+01 -3.304074478149414062e+01 8.956395089626312256e-02 -2.407983690500259399e-01 -4.537032544612884521e-02 -1.207773461937904358e-01
8.990000000000000000e+02 3.167090415954589844e+01 -2.261450576782226562e+01 -2.019628509879112244e-02 -1.602079272270202637e-01 -5.412126332521438599e-02 -3.771294951438903809e-01
9.000000000000000000e+02 3.400561523437500000e+01 -2.420123100280761719e+01 6.179285421967506409e-02 -1.801863461732864380e-01 -3.551804646849632263e-02 -3.920375406742095947e-01
9.010000000000000000e+02 4.101821517944335938e+01 -2.129643821716308594e+01 -4.433411732316017151e-02 -1.407718360424041748e-01 -5.553178489208221436e-02 -4.774038195610046387e-01
9.020000000000000000e+02 5.214298248291015625e+01 -2.427145195007324219e+01 4.274680912494659424e-01 9.959881007671356201e-02 1.581200659275054932e-01 -3.106266856193542480e-01
9.030000000000000000e+02 5.889911651611328125e+01 -2.506642150878906250e+01 7.263433337211608887e-01 6.998715996742248535e-01 4.278644621372222900e-01 9.431209415197372437e-02
9.040000000000000000e+02 6.469914245605468750e+01 -2.616661834716796875e+01 8.276009559631347656e-01 1.806241035461425781e+00 7.901526093482971191e-01 5.887844562530517578e-01
9.050000000000000000e+02 7.324131774902343750e+01 -2.398793220520019531e+01 4.776119589805603027e-01 4.688751697540283203e+00 1.549908995628356934e+00 1.209685087203979492e+00
9.060000000000000000e+02 7.934130859375000000e+01 -2.643939971923828125e+01 1.738911122083663940e-02 6.641308307647705078e+00 1.997609257698059082e+00 1.508746296167373657e-01
9.070000000000000000e+02 6.522224545478820801e-01 -3.036641883850097656e+01 -8.371288276975974441e-05 -1.787971407175064087e-01 -5.366425216197967529e-02 -1.337911188602447510e-02
9.080000000000000000e+02 4.050075912475585938e+01 -3.373323822021484375e+01 5.823771357536315918e-01 -1.525419205427169800e-01 1.289505660533905029e-01 -2.232318520545959473e-01
9.090000000000000000e+02 4.816191864013671875e+01 -3.063244628906250000e+01 6.696968674659729004e-01 7.449271529912948608e-02 2.232568711042404175e-01 -2.358062267303466797e-01
9.100000000000000000e+02 5.426237106323242188e+01 -3.058419036865234375e+01 8.064489960670471191e-01 5.319237112998962402e-01 4.015118181705474854e-01 -4.227101057767868042e-02
9.110000000000000000e+02 6.473583221435546875e+01 -3.107315826416015625e+01 7.584357857704162598e-01 2.188219070434570312e+00 8.839964866638183594e-01 4.685419797897338867e-01
9.120000000000000000e+02 7.255497741699218750e+01 -3.145469093322753906e+01 3.369939327239990234e-01 4.184801101684570312e+00 1.356538534164428711e+00 6.502225995063781738e-01
9.130000000000000000e+02 7.917056274414062500e+01 -3.349855422973632812e+01 -8.775976486504077911e-03 5.528015613555908203e+00 1.655771970748901367e+00 7.965923845767974854e-02
9.140000000000000000e+02 7.136553192138671875e+01 3.545490026473999023e+00 7.353830933570861816e-01 2.922373533248901367e+00 1.097326993942260742e+00 -1.592320442199707031e+00
9.150000000000000000e+02 6.107975006103515625e+01 4.981281459331512451e-01 -1.094225049018859863e+00 1.132976822555065155e-02 -3.248685896396636963e-01 3.944038748741149902e-01
9.160000000000000000e+02 5.561515045166015625e+01 4.828671514987945557e-01 -1.233399510383605957e+00 -4.342623054981231689e-02 -3.830477297306060791e-01 4.890055954456329346e-01
9.170000000000000000e+02 4.884405517578125000e+01 -1.015795707702636719e+00 -1.329195618629455566e+00 -2.853466942906379700e-02 -4.073190987110137939e-01 4.352340996265411377e-01
9.180000000000000000e+02 4.301054763793945312e+01 -3.505167365074157715e-01 -9.646503329277038574e-01 -1.890786737203598022e-02 -2.950674593448638916e-01 4.379704892635345459e-01
9.190000000000000000e+02 3.538246536254882812e+01 1.512601524591445923e-01 -6.002317070960998535e-01 -1.860135793685913086e-02 -1.856499314308166504e-01 4.187037646770477295e-01
9.200000000000000000e+02 2.946475410461425781e+01 8.836008608341217041e-03 -3.662683963775634766e-01 -6.000009179115295410e-02 -1.278805434703826904e-01 3.526212573051452637e-01
9.210000000000000000e+02 2.011902427673339844e+01 4.043563365936279297e+00 -7.034156471490859985e-02 -3.897736966609954834e-01 -1.380345821380615234e-01 2.079308182001113892e-01
9.220000000000000000e+02 1.890908241271972656e+01 3.657730102539062500e+00 -2.154858782887458801e-02 -3.835805952548980713e-01 -1.215387508273124695e-01 8.437474817037582397e-02
9.230000000000000000e+02 7.292559051513671875e+01 1.191802787780761719e+01 4.493182599544525146e-01 4.434776782989501953e+00 1.465228557586669922e+00 -1.245876908302307129e+00
9.240000000000000000e+02 6.675442504882812500e+01 1.095163059234619141e+01 7.449718713760375977e-01 2.114226102828979492e+00 8.577594161033630371e-01 -9.631820321083068848e-01
9.250000000000000000e+02 5.568690109252929688e+01 8.687310218811035156e+00 1.636282652616500854e-01 2.393247187137603760e-01 1.208858937025070190e-01 1.983914673328399658e-01
9.260000000000000000e+02 5.312920379638671875e+01 9.379049301147460938e+00 1.039624586701393127e-01 1.700349897146224976e-01 8.219923079013824463e-02 3.026273250579833984e-01
9.270000000000000000e+02 4.287996673583984375e+01 8.409112930297851562e+00 -2.297475337982177734e-01 -2.017145790159702301e-02 -7.497569918632507324e-02 5.521502494812011719e-01
9.280000000000000000e+02 3.670528793334960938e+01 8.450354576110839844e+00 -2.757304310798645020e-01 -5.670445412397384644e-02 -9.973046183586120605e-02 5.588114261627197266e-01
9.290000000000000000e+02 2.671109962463378906e+01 1.013150405883789062e+01 -3.001410961151123047e-01 -2.458747625350952148e-01 -1.638047546148300171e-01 4.925069510936737061e-01
9.300000000000000000e+02 1.986552429199218750e+01 1.143359375000000000e+01 -3.443705439567565918e-01 -7.179025411605834961e-01 -3.186819255352020264e-01 4.512169957160949707e-01
9.310000000000000000e+02 7.321672821044921875e+01 1.816345787048339844e+01 2.610995173454284668e-01 4.230413436889648438e+00 1.347453832626342773e+00 -7.977486848831176758e-01
9.320000000000000000e+02 5.038209533691406250e+01 1.627211380004882812e+01 4.159560203552246094e-01 3.590753972530364990e-01 2.325094342231750488e-01 1.737265437841415405e-01
9.330000000000000000e+02 3.579729843139648438e+01 1.541379928588867188e+01 -6.943113170564174652e-03 -7.625851780176162720e-02 -2.496048808097839355e-02 4.539198875427246094e-01
9.340000000000000000e+02 2.811274909973144531e+01 1.512862777709960938e+01 -1.788165867328643799e-01 -2.449352890253067017e-01 -1.271255612373352051e-01 4.187621772289276123e-01
9.350000000000000000e+02 2.048529815673828125e+01 1.787960624694824219e+01 -2.536775469779968262e-01 -5.749365687370300293e-01 -2.485842406749725342e-01 3.182120025157928467e-01
9.360000000000000000e+02 2.703760385513305664e+00 2.095592498779296875e+01 -2.587679959833621979e-02 -3.984134271740913391e-02 -1.971544325351715088e-02 3.143356740474700928e-02
9.370000000000000000e+02 7.253561401367187500e+01 2.527278518676757812e+01 1.778163611888885498e-01 3.752905368804931641e+00 1.179216504096984863e+00 -4.835691154003143311e-01
9.380000000000000000e+02 6.429981994628906250e+01 2.491263580322265625e+01 4.899804592132568359e-01 2.339490175247192383e+00 8.488411903381347656e-01 -5.222673416137695312e-01
9.390000000000000000e+02 5.765478134155273438e+01 2.109086418151855469e+01 6.279271841049194336e-01 1.196699500083923340e+00 5.473880171775817871e-01 -2.793617844581604004e-01
9.400000000000000000e+02 4.382154846191406250e+01 2.472663307189941406e+01 4.610794782638549805e-01 2.657991945743560791e-01 2.180635929107666016e-01 1.574997305870056152e-01
9.410000000000000000e+02 3.939429473876953125e+01 2.156158447265625000e+01 2.945557832717895508e-01 4.426492378115653992e-02 1.016462072730064392e-01 2.880425751209259033e-01
9.420000000000000000e+02 2.857749557495117188e+01 2.538570213317871094e+01 1.937648802995681763e-01 -2.987332940101623535e-01 -3.149052709341049194e-02 2.246223241090774536e-01
9.430000000000000000e+02 2.127783584594726562e+01 2.338535690307617188e+01 3.451116383075714111e-02 -5.285721421241760254e-01 -1.482183039188385010e-01 2.333782464265823364e-01
9.440000000000000000e+02 1.758584403991699219e+01 2.470583152770996094e+01 5.360907316207885742e-02 -5.990200042724609375e-01 -1.636232882738113403e-01 2.562479674816131592e-01
9.450000000000000000e+02 7.811741828918457031e+00 2.304204368591308594e+01 -1.166245490312576294e-01 -2.421796321868896484e-01 -1.076412573456764221e-01 2.598549127578735352e-01
9.460000000000000000e+02 6.928326416015625000e+01 2.993187332153320312e+01 2.376235872507095337e-01 3.156289100646972656e+00 1.018173813819885254e+00 -3.815242648124694824e-01
9.470000000000000000e+02 6.242567443847656250e+01 3.402480697631835938e+01 4.144188463687896729e-01 2.217207193374633789e+00 7.894877791404724121e-01 -2.229623645544052124e-01
9.480000000000000000e+02 5.755116271972656250e+01 3.699763107299804688e+01 5.085411667823791504e-01 1.662218809127807617e+00 6.512279510498046875e-01 -1.089300438761711121e-01
9.490000000000000000e+02 5.193249511718750000e+01 3.313378524780273438e+01 5.831456184387207031e-01 1.028389930725097656e+00 4.834606647491455078e-01 -7.911793142557144165e-02
9.500000000000000000e+02 4.355784225463867188e+01 3.057719230651855469e+01 5.446420311927795410e-01 3.405843675136566162e-01 2.655679285526275635e-01 7.786650210618972778e-02
9.510000000000000000e+02 3.919064712524414062e+01 3.360665512084960938e+01 5.240959525108337402e-01 1.267247945070266724e-01 1.952462196350097656e-01 8.505037426948547363e-02
9.520000000000000000e+02 3.173080062866210938e+01 3.174150657653808594e+01 3.984273076057434082e-01 -2.007300704717636108e-01 5.930916965007781982e-02 1.351993978023529053e-01
9.530000000000000000e+02 2.095112609863281250e+01 3.210116577148437500e+01 2.726184129714965820e-01 -4.887508749961853027e-01 -6.483974307775497437e-02 1.537714749574661255e-01
9.540000000000000000e+02 1.463082981109619141e+01 3.223950958251953125e+01 1.936458647251129150e-01 -5.246516466140747070e-01 -9.930174052715301514e-02 1.916112005710601807e-01
9.550000000000000000e+02 7.590851783752441406e+00 3.453873443603515625e+01 7.888650149106979370e-02 -4.520896077156066895e-01 -1.119609251618385315e-01 1.390140652656555176e-01
9.560000000000000000e+02 1.965984940528869629e+00 3.181162452697753906e+01 5.384774878621101379e-03 -3.614879250526428223e-01 -1.068309471011161804e-01 7.051084190607070923e-02
9.570000000000000000e+02 1.587446689605712891e+00 9.069329261779785156e+00 4.038987972307950258e-04 1.505606487626209855e-04 1.663378352532163262e-04 -4.840756591875106096e-04
9.580000000000000000e+02 1.929128074645996094e+01 -7.735610008239746094e+00 -6.781107932329177856e-02 -8.321550674736499786e-03 -2.283979021012783051e-02 -4.004355892539024353e-02
9.590000000000000000e+02 1.421265029907226562e+01 -1.384920024871826172e+01 -1.736207306385040283e-01 -2.205575853586196899e-01 -1.182534918189048767e-01 -1.888619661331176758e-01
9.600000000000000000e+02 7.492805004119873047e+00 -1.386117362976074219e+01 -6.757341325283050537e-04 1.959818415343761444e-03 3.852252848446369171e-04 6.485115736722946167e-04
9.610000000000000000e+02 1.133600616455078125e+01 -8.127580642700195312e+00 5.813970710732974112e-05 -1.556010488457104657e-06 1.697510924714151770e-05 -9.051417146110907197e-05
9.620000000000000000e+02 1.015742301940917969e+01 -3.140318155288696289e+00 -7.711254511377774179e-06 4.549656750896247104e-06 -9.484792826697230339e-07 -6.906371709192171693e-05
9.630000000000000000e+02 1.320864772796630859e+01 -1.964254379272460938e+00 -1.371208509226562455e-05 -2.553594276832882315e-05 -1.177440844912780449e-05 -2.044305620074737817e-05
9.640000000000000000e+02 1.491088199615478516e+01 -2.294744729995727539e+00 8.217713912017643452e-06 -1.909763795993058011e-06 1.892384943857905455e-06 8.306020390591584146e-06
9.650000000000000000e+02 1.430379581451416016e+01 -2.143708467483520508e+00 -7.067768024171527941e-07 4.552604877972044051e-06 1.153748371507390402e-06 -1.541104029456619173e-05
9.660000000000000000e+02 1.375008869171142578e+01 -1.999431133270263672e+00 -1.905144131342240144e-07 -2.139920752597390674e-06 -6.991305099290912040e-07 1.566366699989885092e-05
9.670000000000000000e+02 1.179620361328125000e+01 -1.972565174102783203e+00 -5.534963747777510434e-06 -4.177646769676357508e-05 -1.419342970621073619e-05 -3.669749276014044881e-06
9.680000000000000000e+02 1.031381225585937500e+01 -1.855529546737670898e+00 -6.133993338153231889e-06 -4.277215339243412018e-05 -1.467184392822673544e-05 -2.728024628595449030e-05
9.690000000000000000e+02 9.572947502136230469e+00 -1.831109642982482910e+00 -1.038709433487383649e-05 3.623577140388078988e-05 7.754602847853675485e-06 6.075076453271321952e-05
9.700000000000000000e+02 8.825383186340332031e+00 -1.839076995849609375e+00 -2.041454172285739332e-05 -3.086348078795708716e-05 -1.538340620754752308e-05 -3.671758167911320925e-05
9.710000000000000000e+02 7.321359157562255859e+00 -1.860980391502380371e+00 -2.327762922504916787e-05 -1.871291533461771905e-05 -1.259716282220324501e-05 -4.212870408082380891e-05
9.720000000000000000e+02 5.801559925079345703e+00 -1.878156423568725586e+00 -1.031118335959035903e-05 -1.824508399295154959e-05 -8.566880751459393650e-06 -5.635572961182333529e-05
9.730000000000000000e+02 3.524117469787597656e+00 -1.976092934608459473e+00 -7.771436685288790613e-06 1.231333681062096730e-05 1.362570060337020550e-06 2.633926305861677974e-05
9.740000000000000000e+02 5.042989730834960938e+00 -1.899150729179382324e+00 -4.337265272624790668e-05 3.277012365288101137e-05 -3.180757857990101911e-06 4.111199086764827371e-05
9.750000000000000000e+02 4.456729412078857422e+00 -2.784775972366333008e+00 -2.186476376664359123e-05 4.012282079202122986e-05 5.477417289512231946e-06 4.737077688332647085e-05
9.760000000000000000e+02 2.755300045013427734e+00 -2.028532266616821289e+00 -3.552041016519069672e-05 -9.617616342438850552e-06 -1.354140749754151329e-05 -5.284031067276373506e-05
9.770000000000000000e+02 1.977737307548522949e+00 -2.071923971176147461e+00 1.324051572737516835e-05 1.000194424705114216e-05 6.972737992327893153e-06 6.867510819574818015e-06
9.780000000000000000e+02 1.194054722785949707e+00 -2.131175041198730469e+00 -4.263484152033925056e-05 -2.753416083578485996e-05 -2.105070052493829280e-05 -4.666792665375396609e-05
9.790000000000000000e+02 2.034103393554687500e+00 -4.164295196533203125e+01 2.108466345816850662e-03 -2.896571755409240723e-01 -8.626461029052734375e-02 -5.954998196102678776e-04
9.800000000000000000e+02 6.410147190093994141e+00 -3.787909317016601562e+01 3.353998064994812012e-02 -2.418711185455322266e-01 -6.249934434890747070e-02 -4.066754505038261414e-02
9.810000000000000000e+02 1.053816676139831543e+00 -3.869904708862304688e+01 -4.704647290054708719e-04 -2.839715778827667236e-01 -8.533260971307754517e-02 -5.636377725750207901e-03
9.820000000000000000e+02 7.938899397850036621e-01 -3.453964614868164062e+01 1.228991663083434105e-03 -2.500094175338745117e-01 -7.463412731885910034e-02 -9.981298819184303284e-03
9.830000000000000000e+02 7.397967576980590820e-01 -3.315152359008789062e+01 4.585617571137845516e-04 -2.303607016801834106e-01 -6.897064298391342163e-02 -1.170404907315969467e-02
9.840000000000000000e+02 6.273830533027648926e-01 -2.897100639343261719e+01 5.932606291025876999e-04 -1.486933678388595581e-01 -4.443003237247467041e-02 -1.383113488554954529e-02
9.850000000000000000e+02 6.159052848815917969e-01 -2.758093452453613281e+01 -6.085216882638633251e-04 -1.168440282344818115e-01 -3.523576259613037109e-02 -1.398083008825778961e-02
9.860000000000000000e+02 6.195132136344909668e-01 -2.619189834594726562e+01 4.293481179047375917e-04 -8.500812202692031860e-02 -2.537363208830356598e-02 -1.367120537906885147e-02
9.870000000000000000e+02 6.346287727355957031e-01 -2.198361587524414062e+01 -2.038674196228384972e-03 -6.874024868011474609e-03 -2.673809649422764778e-03 -8.349714800715446472e-03
9.880000000000000000e+02 1.871247768402099609e+00 -2.054359054565429688e+01 -8.166148327291011810e-03 -1.444152649492025375e-02 -6.782302632927894592e-03 -1.547472923994064331e-02
9.890000000000000000e+02 6.457597017288208008e-01 -1.631450843811035156e+01 -1.164120694738812745e-04 1.076309662312269211e-02 3.194005461409687996e-03 2.323857974261045456e-03
9.900000000000000000e+02 6.560029983520507812e-01 -1.487256717681884766e+01 3.442165907472372055e-04 6.046465132385492325e-03 1.917204470373690128e-03 2.124791266396641731e-03
9.910000000000000000e+02 6.302037835121154785e-01 -1.344176387786865234e+01 7.042681099846959114e-04 2.486124867573380470e-03 9.571178816258907318e-04 1.001719618216156960e-03
9.920000000000000000e+02 5.202484607696533203e+00 -1.410656929016113281e+01 2.884730696678161621e-03 -3.323572920635342598e-03 -1.316526468144729733e-04 -1.799597172066569328e-03
9.930000000000000000e+02 5.581932663917541504e-01 -9.252047538757324219e+00 -3.061916504520922899e-04 -1.155818899860605597e-04 -1.265320606762543321e-04 -1.585907921253237873e-05
9.940000000000000000e+02 5.353446006774902344e-01 -7.864788532257080078e+00 2.726257662288844585e-04 -1.462955406168475747e-04 3.789906986639834940e-05 3.157554601784795523e-05
9.950000000000000000e+02 5.233499407768249512e-01 -6.474650382995605469e+00 -1.957651111297309399e-04 -1.066361946868710220e-04 -9.072039392776787281e-05 -5.055544170318171382e-05
9.960000000000000000e+02 7.186938476562500000e+01 -4.090297698974609375e+01 2.615584135055541992e-01 3.956188440322875977e+00 1.265324115753173828e+00 7.859036326408386230e-02
9.970000000000000000e+02 3.236193084716796875e+01 -3.798896026611328125e+01 4.552723765373229980e-01 -2.728215754032135010e-01 5.473523214459419250e-02 -1.094220429658889771e-01
9.980000000000000000e+02 1.298219299316406250e+01 -4.069274139404296875e+01 1.099434569478034973e-01 -2.576322555541992188e-01 -4.430663958191871643e-02 -2.579994127154350281e-02
9.990000000000000000e+02 7.860715484619140625e+01 3.995621490478515625e+01 -1.035329326987266541e-02 3.994775056838989258e+00 1.195326447486877441e+00 -3.944921121001243591e-02
1.000000000000000000e+03 7.905982971191406250e+01 3.860266113281250000e+01 -4.656959790736436844e-03 4.041103839874267578e+00 1.210934042930603027e+00 -2.781146205961704254e-02
1.001000000000000000e+03 7.945117950439453125e+01 3.624880218505859375e+01 7.684321608394384384e-03 4.140184402465820312e+00 1.244360685348510742e+00 -1.499515958130359650e-02
1.002000000000000000e+03 7.915224456787109375e+01 3.355302810668945312e+01 5.242153536528348923e-03 4.237094879150390625e+00 1.272701025009155273e+00 -3.122031316161155701e-02
1.003000000000000000e+03 7.612564849853515625e+01 2.896489906311035156e+01 3.987336531281471252e-02 4.134347438812255859e+00 1.252266168594360352e+00 -2.179002612829208374e-01
1.004000000000000000e+03 7.929522705078125000e+01 2.642833518981933594e+01 -3.268408181611448526e-05 4.637171268463134766e+00 1.391141653060913086e+00 -5.523802340030670166e-02
1.005000000000000000e+03 7.653931427001953125e+01 2.609630012512207031e+01 3.684750944375991821e-02 4.353680610656738281e+00 1.317158460617065430e+00 -2.567672133445739746e-01
1.006000000000000000e+03 7.935771179199218750e+01 2.226057624816894531e+01 5.907451268285512924e-03 5.042600154876708984e+00 1.514552354812622070e+00 -7.093427330255508423e-02
1.007000000000000000e+03 7.936738586425781250e+01 2.087596893310546875e+01 7.562090759165585041e-04 5.211720943450927734e+00 1.563743114471435547e+00 -7.870062440633773804e-02
1.008000000000000000e+03 7.937319946289062500e+01 1.949149703979492188e+01 7.593146525323390961e-03 5.402363300323486328e+00 1.622987031936645508e+00 -8.769924193620681763e-02
1.009000000000000000e+03 7.936928558349609375e+01 1.533406829833984375e+01 2.841760870069265366e-03 6.138154029846191406e+00 1.842298746109008789e+00 -1.284762471914291382e-01
1.010000000000000000e+03 7.936472320556640625e+01 1.394369888305664062e+01 1.506032701581716537e-02 6.455265998840332031e+00 1.941097855567932129e+00 -1.484791338443756104e-01
1.011000000000000000e+03 7.935636901855468750e+01 1.254850196838378906e+01 6.976474542170763016e-03 6.820276737213134766e+00 2.048176050186157227e+00 -1.730097085237503052e-01
1.012000000000000000e+03 7.934377288818359375e+01 1.114668083190917969e+01 2.594092302024364471e-02 7.246363639831542969e+00 2.181691408157348633e+00 -2.088029384613037109e-01
1.013000000000000000e+03 7.933316802978515625e+01 8.325194358825683594e+00 3.457784652709960938e-02 8.286371231079101562e+00 2.496284484863281250e+00 -2.739059627056121826e-01
1.014000000000000000e+03 7.936101531982421875e+01 6.918968200683593750e+00 -3.305266378447413445e-03 8.927522659301757812e+00 2.677265167236328125e+00 -3.106509745121002197e-01
1.015000000000000000e+03 7.941333770751953125e+01 5.519113540649414062e+00 2.362146787345409393e-02 9.689926147460937500e+00 2.914064168930053711e+00 -3.321461975574493408e-01
1.016000000000000000e+03 7.952356719970703125e+01 1.382703542709350586e+00 -6.549257785081863403e-02 1.278727245330810547e+01 3.816534042358398438e+00 -3.559144437313079834e-01
1.017000000000000000e+03 7.741665649414062500e+01 -4.738896369934082031e+00 -3.430463075637817383e+00 2.040256881713867188e+01 5.091631889343261719e+00 -2.458602428436279297e+00
1.018000000000000000e+03 7.821459960937500000e+01 -5.131590366363525391e+00 -6.379967927932739258e-01 2.063137435913085938e+01 5.998013019561767578e+00 3.246246337890625000e+00
1.019000000000000000e+03 7.950985717773437500e+01 -1.246351909637451172e+01 -1.178784668445587158e-02 1.430235862731933594e+01 4.287171363830566406e+00 3.930314183235168457e-01
1.020000000000000000e+03 7.945156860351562500e+01 -1.527698993682861328e+01 4.207068681716918945e-02 1.184572124481201172e+01 3.566337585449218750e+00 4.353416860103607178e-01
1.021000000000000000e+03 7.837078094482421875e+01 -1.799106216430664062e+01 6.495178490877151489e-02 9.094578742980957031e+00 2.747859001159667969e+00 8.960216641426086426e-01
1.022000000000000000e+03 7.945373535156250000e+01 -1.807144546508789062e+01 2.328056283295154572e-02 9.882278442382812500e+00 2.971667766571044922e+00 3.076512217521667480e-01
1.023000000000000000e+03 7.939424896240234375e+01 -2.364600753784179688e+01 2.007658034563064575e-02 7.409265995025634766e+00 2.228802680969238281e+00 1.867978870868682861e-01
1.024000000000000000e+03 7.811041259765625000e+01 -2.494056701660156250e+01 6.069211289286613464e-02 6.634479045867919922e+00 2.008551359176635742e+00 4.847696423530578613e-01
1.025000000000000000e+03 7.936938476562500000e+01 -2.504189491271972656e+01 -2.623986219987273216e-03 6.996517658233642578e+00 2.098168134689331055e+00 1.684925556182861328e-01
1.026000000000000000e+03 7.927304840087890625e+01 -2.924740409851074219e+01 1.582047529518604279e-02 6.078998565673828125e+00 1.828445792198181152e+00 1.205985397100448608e-01
1.027000000000000000e+03 7.757246398925781250e+01 -3.210915374755859375e+01 4.035621508955955505e-02 5.378190517425537109e+00 1.625563979148864746e+00 2.680827677249908447e-01
1.028000000000000000e+03 7.919150543212890625e+01 -3.207724761962890625e+01 2.258944511413574219e-02 5.677455425262451172e+00 1.710013508796691895e+00 9.300156682729721069e-02
1.029000000000000000e+03 7.925610351562500000e+01 -3.630503082275390625e+01 1.754079759120941162e-02 5.287693500518798828e+00 1.591570377349853516e+00 4.309615120291709900e-02
1.030000000000000000e+03 7.938666534423828125e+01 -3.761181640625000000e+01 -2.063016407191753387e-02 5.200504779815673828e+00 1.553962349891662598e+00 4.260222241282463074e-02
1.031000000000000000e+03 7.928971862792968750e+01 -3.879230880737304688e+01 1.625454425811767578e-02 5.086950302124023438e+00 1.530961513519287109e+00 4.221369698643684387e-02
1.032000000000000000e+03 7.882235717773437500e+01 -4.003257369995117188e+01 -3.414922952651977539e-02 4.979426383972167969e+00 1.483583211898803711e+00 7.671102136373519897e-02
1.033000000000000000e+03 9.992436408996582031e+00 3.769138717651367188e+01 1.248714625835418701e-01 -4.840198457241058350e-01 -1.077445149421691895e-01 9.761941432952880859e-02
1.034000000000000000e+03 2.789264488220214844e+01 4.008320617675781250e+01 4.366070330142974854e-01 -3.220504820346832275e-01 3.436696901917457581e-02 3.249638155102729797e-02
1.035000000000000000e+03 4.758663558959960938e+01 4.073838806152343750e+01 6.075444221496582031e-01 7.188051939010620117e-01 3.979048728942871094e-01 -5.415314342826604843e-03
1.036000000000000000e+03 6.935172677040100098e-01 3.046932220458984375e+00 -1.331610837951302528e-04 -1.598436792846769094e-04 -8.790143328951671720e-05 9.737810614751651883e-05
1.037000000000000000e+03 3.196539878845214844e+00 2.738630533218383789e+00 -8.711089321877807379e-05 6.961163308005779982e-05 -5.249777132121380419e-06 1.797290897229686379e-04
1.038000000000000000e+03 5.313448429107666016e+00 2.601659059524536133e+00 -1.972392965399194509e-06 -1.042493386194109917e-04 -3.186651883879676461e-05 -1.150550961028784513e-04
1.039000000000000000e+03 1.515736699104309082e+00 6.358046054840087891e+00 1.752173848217353225e-04 -9.194907033815979958e-05 2.498049616406206042e-05 -1.748611539369449019e-04
1.040000000000000000e+03 5.267781019210815430e-01 9.210029602050781250e+00 -4.667738394346088171e-04 -1.216591335833072662e-04 -1.765298948157578707e-04 6.864069291623309255e-05
1.041000000000000000e+03 5.847576856613159180e-01 1.201098155975341797e+01 -4.155728674959391356e-04 2.128257416188716888e-03 5.138053675182163715e-04 -7.599280215799808502e-04
1.042000000000000000e+03 1.767249703407287598e+00 1.179850387573242188e+01 1.522960257716476917e-03 7.826188812032341957e-04 6.916737183928489685e-04 -2.150409622117877007e-03
1.043000000000000000e+03 6.266984343528747559e-01 1.765145874023437500e+01 -1.189981703646481037e-03 3.084061667323112488e-02 8.895190432667732239e-03 -4.094123840332031250e-03
1.044000000000000000e+03 7.684726715087890625e+00 1.837034606933593750e+01 -7.467588782310485840e-02 2.938746102154254913e-02 -1.358652859926223755e-02 2.153876237571239471e-02
1.045000000000000000e+03 5.991978645324707031e-01 2.192124557495117188e+01 -4.495105240494012833e-03 1.847924292087554932e-02 4.195240791887044907e-03 1.125168241560459137e-02
1.046000000000000000e+03 6.454129219055175781e-01 2.334301948547363281e+01 -1.932840561494231224e-03 -1.509101688861846924e-02 -5.107157398015260696e-03 1.805489324033260345e-02
1.047000000000000000e+03 6.527283787727355957e-01 2.478170967102050781e+01 -3.473167307674884796e-03 -6.092706695199012756e-02 -1.932007074356079102e-02 2.403383702039718628e-02
1.048000000000000000e+03 6.432513594627380371e-01 2.903402709960937500e+01 2.059637190541252494e-04 -2.464481443166732788e-01 -7.387265563011169434e-02 2.883924357593059540e-02
1.049000000000000000e+03 6.506631374359130859e-01 3.044931030273437500e+01 8.512114291079342365e-04 -3.081564903259277344e-01 -9.219158440828323364e-02 2.767002955079078674e-02
1.050000000000000000e+03 1.952517628669738770e+00 3.039002037048339844e+01 6.140960846096277237e-03 -3.163546025753021240e-01 -9.306409209966659546e-02 7.687386870384216309e-02
1.051000000000000000e+03 6.480489373207092285e-01 3.186005210876464844e+01 2.022588625550270081e-03 -3.644258975982666016e-01 -1.087209954857826233e-01 2.449845150113105774e-02
1.052000000000000000e+03 6.309161186218261719e-01 3.602540206909179688e+01 -2.402831451036036015e-04 -4.857898950576782227e-01 -1.458090543746948242e-01 1.236519776284694672e-02
1.053000000000000000e+03 3.019169807434082031e+00 3.695996475219726562e+01 1.725908182561397552e-02 -4.783468842506408691e-01 -1.383263468742370605e-01 5.016969889402389526e-02
1.054000000000000000e+03 8.784991502761840820e-01 3.870424270629882812e+01 -1.963968854397535324e-03 -5.250231623649597168e-01 -1.580961346626281738e-01 8.873505517840385437e-03
1.055000000000000000e+03 1.284184694290161133e+00 4.003753662109375000e+01 1.244795159436762333e-03 -5.368064641952514648e-01 -1.606685072183609009e-01 8.384756743907928467e-03
1.056000000000000000e+03 1.037341022491455078e+01 1.848082780838012695e+00 -1.198140162159688771e-04 -9.417554792889859527e-06 -3.876947084791027009e-05 -2.395600895397365093e-04
1.057000000000000000e+03 8.912973403930664062e+00 1.858667373657226562e+00 -8.040137618081644177e-05 -9.442021109862253070e-05 -5.244647763902321458e-05 -2.760655770543962717e-04
1.058000000000000000e+03 8.198332786560058594e+00 1.856247901916503906e+00 -9.359307296108454466e-05 1.553710026200860739e-04 1.853337562351953238e-05 2.177100541302934289e-04
1.059000000000000000e+03 7.486515998840332031e+00 1.854471325874328613e+00 -5.455968130263499916e-05 -1.361349422950297594e-04 -5.720838817069306970e-05 -2.276283339597284794e-04
1.060000000000000000e+03 5.351536750793457031e+00 1.866344213485717773e+00 -1.063361632986925542e-04 1.440437918063253164e-04 1.131228873418876901e-05 1.581363321747630835e-04
1.061000000000000000e+03 4.637792110443115234e+00 1.878735661506652832e+00 -4.282687223167158663e-05 -8.806871483102440834e-05 -3.926867429981939495e-05 -6.362923159031197429e-05
1.062000000000000000e+03 3.925009965896606445e+00 1.892462253570556641e+00 -8.998352859634906054e-05 1.005011363304220140e-04 3.155281774525064975e-06 1.444873923901468515e-04
1.063000000000000000e+03 3.215684413909912109e+00 1.900950908660888672e+00 -1.320220326306298375e-05 -8.096851524896919727e-05 -2.825121555360965431e-05 -1.875778616522438824e-05
1.064000000000000000e+03 2.515788555145263672e+00 1.898879051208496094e+00 -5.373187377699650824e-05 5.185064219404011965e-05 -5.643690883516683243e-07 1.142340406659059227e-04
1.065000000000000000e+03 1.820945143699645996e+00 1.896553874015808105e+00 -1.157143651653314009e-05 -4.290154538466595113e-05 -1.634189538890495896e-05 -1.770019116520415992e-05
1.066000000000000000e+03 1.263369464874267578e+01 1.760476469993591309e+00 -1.721146691124886274e-05 3.637912595877423882e-05 5.750297532358672470e-06 -4.293623078410746530e-06
1.067000000000000000e+03 1.331465911865234375e+01 1.737609028816223145e+00 -9.391854837303981185e-05 -5.555764073505997658e-05 -4.484285454964265227e-05 -1.535358023829758167e-04
1.068000000000000000e+03 1.513075542449951172e+01 1.858779668807983398e+00 7.288195320143131539e-06 2.003673580475151539e-04 6.229666178114712238e-05 1.896091125672683120e-04
1.069000000000000000e+03 1.325245094299316406e+01 2.469692230224609375e+00 -1.077122506103478372e-04 1.035366949508897960e-04 -1.252665356332727242e-06 3.607299004215747118e-05
1.070000000000000000e+03 1.475464057922363281e+01 3.606899738311767578e+00 -9.846169268712401390e-05 3.830136847682297230e-05 -1.804809835448395461e-05 -1.056110413628630340e-04
1.071000000000000000e+03 1.405010604858398438e+01 7.553732872009277344e+00 6.634631427004933357e-04 -1.580482421559281647e-05 1.942974922712892294e-04 3.030650259461253881e-04
1.072000000000000000e+03 1.351300430297851562e+01 8.816611289978027344e+00 -8.688226225785911083e-04 -4.566373536363244057e-04 -3.976379812229424715e-04 -3.677434287965297699e-04
1.073000000000000000e+03 1.288105678558349609e+01 1.004718589782714844e+01 1.030157902278006077e-03 2.151639637304469943e-04 3.735965583473443985e-04 7.486579706892371178e-04
1.074000000000000000e+03 1.028590774536132812e+01 1.167803955078125000e+01 -5.065856967121362686e-04 -1.523010199889540672e-03 -6.088787922635674477e-04 -9.952288819476962090e-04
1.075000000000000000e+03 9.390953063964843750e+00 1.271922969818115234e+01 3.849770291708409786e-04 2.881344873458147049e-03 9.798965184018015862e-04 1.406317111104726791e-03
1.076000000000000000e+03 8.446747779846191406e+00 1.556860256195068359e+01 -2.896189223974943161e-03 1.136272586882114410e-02 2.539960900321602821e-03 -4.369136411696672440e-03
1.077000000000000000e+03 1.626828384399414062e+01 1.678078460693359375e+01 -4.675581753253936768e-01 -8.363291621208190918e-01 -3.911662101745605469e-01 4.705890417098999023e-01
1.078000000000000000e+03 1.657559776306152344e+01 1.310644912719726562e+01 -3.787477016448974609e-01 -1.166860222816467285e+00 -4.636823832988739014e-01 6.226809024810791016e-01
1.079000000000000000e+03 1.762556838989257812e+01 1.046980094909667969e+01 -2.311729043722152710e-01 -1.147410511970520020e+00 -4.135750234127044678e-01 4.629669785499572754e-01
1.080000000000000000e+03 1.830590820312500000e+01 7.772657871246337891e+00 -7.479497045278549194e-02 -8.529339432716369629e-01 -2.783186733722686768e-01 2.405290007591247559e-01
1.081000000000000000e+03 1.876676750183105469e+01 5.038547039031982422e+00 -3.694327175617218018e-02 -5.381246209144592285e-01 -1.725203692913055420e-01 1.293593049049377441e-01
1.082000000000000000e+03 1.927761650085449219e+01 -3.758928298950195312e+00 -6.359994877129793167e-03 -8.402158506214618683e-03 -4.428646061569452286e-03 3.858903655782341957e-03
1.083000000000000000e+03 2.015875244140625000e+01 -4.003596782684326172e+00 -1.641816087067127228e-02 -1.491903979331254959e-02 -9.401160292327404022e-03 1.182704139500856400e-02
1.084000000000000000e+03 2.095722961425781250e+01 -4.193249702453613281e+00 -2.467316575348377228e-02 -1.995169743895530701e-02 -1.338745839893817902e-02 1.921305805444717407e-02
1.085000000000000000e+03 2.307284355163574219e+01 -4.614750862121582031e+00 -6.546725332736968994e-02 -2.251048944890499115e-02 -2.639332227408885956e-02 5.248755589127540588e-02
1.086000000000000000e+03 2.449153327941894531e+01 -4.757164955139160156e+00 -1.078878790140151978e-01 -1.878603361546993256e-02 -3.800217434763908386e-02 7.001329958438873291e-02
1.087000000000000000e+03 2.521077919006347656e+01 -4.809588909149169922e+00 -1.343423724174499512e-01 -1.718608662486076355e-02 -4.545854032039642334e-02 7.865034788846969604e-02
1.088000000000000000e+03 2.593097305297851562e+01 -4.856219291687011719e+00 -1.626847088336944580e-01 -1.431687828153371811e-02 -5.310047417879104614e-02 8.601323515176773071e-02
1.089000000000000000e+03 2.831049919128417969e+01 -4.222570419311523438e+00 -2.889481484889984131e-01 -1.310057006776332855e-02 -9.061461687088012695e-02 1.424800455570220947e-01
1.090000000000000000e+03 2.812512207031250000e+01 -4.927070617675781250e+00 -2.650021016597747803e-01 -7.293890696018934250e-03 -8.168879151344299316e-02 1.040003076195716858e-01
1.091000000000000000e+03 2.885729408264160156e+01 -4.943676948547363281e+00 -3.039553463459014893e-01 -4.940325394272804260e-03 -9.266870468854904175e-02 1.087297499179840088e-01
1.092000000000000000e+03 3.123744201660156250e+01 -4.236565113067626953e+00 -4.517516493797302246e-01 -1.908622565679252148e-03 -1.360980868339538574e-01 1.629829853773117065e-01
1.093000000000000000e+03 3.107061958312988281e+01 -4.937742233276367188e+00 -4.347772896289825439e-01 5.115407984703779221e-04 -1.302797198295593262e-01 1.192936748266220093e-01
1.094000000000000000e+03 3.181127738952636719e+01 -4.929572582244873047e+00 -4.824212789535522461e-01 1.745721790939569473e-03 -1.442026644945144653e-01 1.217934563755989075e-01
1.095000000000000000e+03 3.346171951293945312e+01 -4.195227146148681641e+00 -5.916328430175781250e-01 2.308909082785248756e-03 -1.767971813678741455e-01 1.741943955421447754e-01
1.096000000000000000e+03 3.495272827148437500e+01 -4.155232906341552734e+00 -6.919736862182617188e-01 3.709805430844426155e-03 -2.064791619777679443e-01 1.803413182497024536e-01
1.097000000000000000e+03 3.628765869140625000e+01 -4.820346355438232422e+00 -8.028331398963928223e-01 4.121615551412105560e-03 -2.396134585142135620e-01 1.327002048492431641e-01
1.098000000000000000e+03 3.853766250610351562e+01 -4.756420135498046875e+00 -9.802650809288024902e-01 3.044073004275560379e-03 -2.931663095951080322e-01 1.374252587556838989e-01
1.099000000000000000e+03 3.778679656982421875e+01 -4.776731014251708984e+00 -9.201539158821105957e-01 3.159878542646765709e-03 -2.750982046127319336e-01 1.355623751878738403e-01
1.100000000000000000e+03 3.928885650634765625e+01 -4.737267971038818359e+00 -1.041688323020935059e+00 2.087484113872051239e-03 -3.118802607059478760e-01 1.390066742897033691e-01
1.101000000000000000e+03 4.229566955566406250e+01 -4.665833950042724609e+00 -1.294661879539489746e+00 -7.989660371094942093e-04 -3.886382579803466797e-01 1.478016525506973267e-01
1.102000000000000000e+03 4.304770278930664062e+01 -4.650090217590332031e+00 -1.359178185462951660e+00 -1.482572988606989384e-03 -4.081982076168060303e-01 1.504455059766769409e-01
1.103000000000000000e+03 4.455299758911132812e+01 -4.621630668640136719e+00 -1.491874456405639648e+00 -2.718423958867788315e-03 -4.483778476715087891e-01 1.565560996532440186e-01
1.104000000000000000e+03 4.605732345581054688e+01 -4.599351882934570312e+00 -1.627155900001525879e+00 -4.101802594959735870e-03 -4.893773198127746582e-01 1.633645445108413696e-01
1.105000000000000000e+03 4.680996322631835938e+01 -4.588356494903564453e+00 -1.695927858352661133e+00 -5.679300520569086075e-03 -5.104821324348449707e-01 1.672557592391967773e-01
1.106000000000000000e+03 4.756271743774414062e+01 -4.579363822937011719e+00 -1.765317320823669434e+00 -5.533613264560699463e-03 -5.312553048133850098e-01 1.715078204870223999e-01
1.107000000000000000e+03 4.981828308105468750e+01 -4.557652950286865234e+00 -1.977928996086120605e+00 -8.758828975260257721e-03 -5.960063338279724121e-01 1.850431561470031738e-01
1.108000000000000000e+03 5.207346725463867188e+01 -4.546111583709716797e+00 -2.197595119476318359e+00 -8.738633245229721069e-03 -6.619001626968383789e-01 2.011172026395797729e-01
1.109000000000000000e+03 5.282585525512695312e+01 -4.542569160461425781e+00 -2.272872209548950195e+00 -1.074181776493787766e-02 -6.850841641426086426e-01 2.068028599023818970e-01
1.110000000000000000e+03 5.507779693603515625e+01 -4.537167549133300781e+00 -2.503964662551879883e+00 -1.095450483262538910e-02 -7.544757723808288574e-01 2.267926186323165894e-01
1.111000000000000000e+03 5.582886123657226562e+01 -4.535798072814941406e+00 -2.583822250366210938e+00 -1.359121873974800110e-02 -7.792240381240844727e-01 2.337847948074340820e-01
1.112000000000000000e+03 5.750309371948242188e+01 -3.833811044692993164e+00 -2.539132595062255859e+00 -2.138839848339557648e-02 -7.681563496589660645e-01 3.228549063205718994e-01
1.113000000000000000e+03 5.883189773559570312e+01 -4.536134719848632812e+00 -2.915096044540405273e+00 -1.596171408891677856e-02 -8.793173432350158691e-01 2.668202519416809082e-01
1.114000000000000000e+03 5.958267211914062500e+01 -4.536658763885498047e+00 -3.001059055328369141e+00 -1.448304951190948486e-02 -9.046626091003417969e-01 2.768620252609252930e-01
1.115000000000000000e+03 6.108219146728515625e+01 -4.537182807922363281e+00 -3.173769712448120117e+00 -1.632456481456756592e-02 -9.570282697677612305e-01 2.954154908657073975e-01
1.116000000000000000e+03 6.183235168457031250e+01 -4.537537097930908203e+00 -3.263058423995971680e+00 -1.972816511988639832e-02 -9.848359823226928711e-01 3.049618005752563477e-01
1.117000000000000000e+03 6.275807571411132812e+01 -3.839533805847167969e+00 -2.997899055480957031e+00 -3.010181896388530731e-02 -9.084002971649169922e-01 3.841699659824371338e-01
1.118000000000000000e+03 6.482781982421875000e+01 -4.550829887390136719e+00 -3.613355159759521484e+00 -2.375194057822227478e-02 -1.091132044792175293e+00 3.482775092124938965e-01
1.119000000000000000e+03 6.706238555908203125e+01 -4.572452545166015625e+00 -3.848108291625976562e+00 -1.963358186185359955e-02 -1.160322546958923340e+00 3.756446838378906250e-01
1.120000000000000000e+03 6.780782318115234375e+01 -4.579448699951171875e+00 -3.910609483718872070e+00 -2.237584255635738373e-02 -1.179895639419555664e+00 3.827445507049560547e-01
1.121000000000000000e+03 7.002370452880859375e+01 -4.634074211120605469e+00 -4.018404483795166016e+00 -4.245721269398927689e-03 -1.206795096397399902e+00 3.588697314262390137e-01
1.122000000000000000e+03 7.074815368652343750e+01 -4.663674354553222656e+00 -3.970960855484008789e+00 1.320540625602006912e-02 -1.187326550483703613e+00 2.924844920635223389e-01
1.123000000000000000e+03 7.201315307617187500e+01 -4.682499408721923828e+00 -3.715556144714355469e+00 7.315471768379211426e-02 -1.092720389366149902e+00 3.523774072527885437e-02
1.124000000000000000e+03 7.318919372558593750e+01 -4.653813362121582031e+00 -3.147595405578613281e+00 4.132097065448760986e-01 -8.203157186508178711e-01 -3.645090460777282715e-01
1.125000000000000000e+03 7.375162506103515625e+01 -4.634432315826416016e+00 -2.593204975128173828e+00 7.381932735443115234e-01 -5.565034747123718262e-01 -8.284401893615722656e-01
1.126000000000000000e+03 7.416277313232421875e+01 -4.624042034149169922e+00 -2.126595020294189453e+00 1.033431887626647949e+00 -3.279489576816558838e-01 -1.277836561203002930e+00
1.127000000000000000e+03 7.523368072509765625e+01 -4.764012336730957031e+00 -9.802892804145812988e-01 2.953494071960449219e+00 5.919613838195800781e-01 -3.119494438171386719e+00
1.128000000000000000e+03 7.483116149902343750e+01 -4.438619613647460938e+00 -1.147881627082824707e+00 2.436877727508544922e+00 3.866988420486450195e-01 -2.505156040191650391e+00
1.129000000000000000e+03 7.605132293701171875e+01 -4.744451522827148438e+00 -6.261494755744934082e-01 7.324345111846923828e+00 2.009458780288696289e+00 -5.475556850433349609e+00
1.130000000000000000e+03 7.854977416992187500e+01 9.281616657972335815e-02 2.074062079191207886e-02 1.234514904022216797e+01 3.709766864776611328e+00 -1.149390816688537598e+00
1.131000000000000000e+03 7.840204620361328125e+01 -1.180647134780883789e+00 -3.735876679420471191e-01 1.296893692016601562e+01 3.778604745864868164e+00 -1.066349744796752930e+00
1.132000000000000000e+03 7.802689361572265625e+01 -4.998930931091308594e+00 -1.852340459823608398e+00 2.130683517456054688e+01 5.836348533630371094e+00 2.227050542831420898e+00
1.133000000000000000e+03 7.857811737060546875e+01 -5.619468212127685547e+00 2.533884763717651367e+00 1.752828788757324219e+01 6.018651485443115234e+00 4.276509284973144531e+00
1.134000000000000000e+03 7.845362854003906250e+01 -5.468437671661376953e+00 2.029865026473999023e+00 1.859025573730468750e+01 6.186036109924316406e+00 4.220885276794433594e+00
1.135000000000000000e+03 7.879074859619140625e+01 -6.310584545135498047e+00 2.420948505401611328e+00 1.429531860351562500e+01 5.014880180358886719e+00 5.591874718666076660e-01
1.136000000000000000e+03 7.859975433349609375e+01 -7.138702392578125000e+00 2.836697816848754883e+00 1.748229789733886719e+01 6.095698356628417969e+00 -4.284260749816894531e+00
1.137000000000000000e+03 7.700124359130859375e+01 -8.009763717651367188e+00 -2.803194284439086914e+00 1.778684806823730469e+01 4.495095729827880859e+00 5.257047653198242188e+00
1.138000000000000000e+03 7.682685089111328125e+01 -7.997038841247558594e+00 -2.202075958251953125e+00 1.591160678863525391e+01 4.112859249114990234e+00 6.342999458312988281e+00
1.139000000000000000e+03 7.567066955566406250e+01 -8.596912384033203125e+00 -5.713464021682739258e-01 5.920345306396484375e+00 1.604699611663818359e+00 4.410595893859863281e+00
1.140000000000000000e+03 7.563628387451171875e+01 -8.074340820312500000e+00 -4.703195989131927490e-01 4.723315715789794922e+00 1.275898814201354980e+00 4.322394371032714844e+00
1.141000000000000000e+03 7.478131866455078125e+01 -8.122915267944335938e+00 -1.335481286048889160e+00 2.017714738845825195e+00 2.046700716018676758e-01 2.200037479400634766e+00
1.142000000000000000e+03 7.433061218261718750e+01 -8.100391387939453125e+00 -1.963750839233398438e+00 1.262801527976989746e+00 -2.102847844362258911e-01 1.460737943649291992e+00
1.143000000000000000e+03 7.073560333251953125e+01 -8.206574440002441406e+00 -3.864037752151489258e+00 3.768745809793472290e-02 -1.147905111312866211e+00 -3.012591898441314697e-01
1.144000000000000000e+03 7.296161651611328125e+01 -8.129012107849121094e+00 -3.281871795654296875e+00 3.031851053237915039e-01 -8.936060070991516113e-01 2.477304786443710327e-01
1.145000000000000000e+03 7.405618286132812500e+01 -8.384099960327148438e+00 -1.820017337799072266e+00 1.107393980026245117e+00 -2.137870341539382935e-01 1.417031049728393555e+00
1.146000000000000000e+03 6.923348236083984375e+01 -8.214762687683105469e+00 -3.932236194610595703e+00 -5.894114263355731964e-03 -1.181439161300659180e+00 -3.724678158760070801e-01
1.147000000000000000e+03 6.848487854003906250e+01 -8.218856811523437500e+00 -3.913399219512939453e+00 -1.523439679294824600e-02 -1.178590059280395508e+00 -3.857388794422149658e-01
1.148000000000000000e+03 6.773641967773437500e+01 -8.223389625549316406e+00 -3.863691568374633789e+00 -1.852970384061336517e-02 -1.164666414260864258e+00 -3.880387842655181885e-01
1.149000000000000000e+03 6.548948669433593750e+01 -8.233801841735839844e+00 -3.638908386230468750e+00 -2.384538948535919189e-02 -1.098826169967651367e+00 -3.707920610904693604e-01
1.150000000000000000e+03 6.623872375488281250e+01 -8.231040954589843750e+00 -3.721168518066406250e+00 -2.232713438570499420e-02 -1.123048782348632812e+00 -3.799479901790618896e-01
1.151000000000000000e+03 6.249409866333007812e+01 -8.933371543884277344e+00 -2.905074119567871094e+00 -2.647590823471546173e-02 -8.794650435447692871e-01 -4.033220708370208740e-01
1.152000000000000000e+03 6.249076080322265625e+01 -8.236738204956054688e+00 -3.266521453857421875e+00 -1.819316297769546509e-02 -9.854143261909484863e-01 -3.281814157962799072e-01
1.153000000000000000e+03 6.174091339111328125e+01 -8.236581802368164062e+00 -3.171041965484619141e+00 -1.627702824771404266e-02 -9.561957120895385742e-01 -3.180623948574066162e-01
1.154000000000000000e+03 5.949142456054687500e+01 -8.237025260925292969e+00 -2.888664722442626953e+00 -1.448911614716053009e-02 -8.709461092948913574e-01 -2.880141139030456543e-01
1.155000000000000000e+03 6.024130249023437500e+01 -8.236802101135253906e+00 -2.981758594512939453e+00 -1.468975655734539032e-02 -8.989344835281372070e-01 -2.979306578636169434e-01
1.156000000000000000e+03 5.874151992797851562e+01 -8.237380027770996094e+00 -2.796970844268798828e+00 -1.296060439199209213e-02 -8.429794311523437500e-01 -2.793283760547637939e-01
1.157000000000000000e+03 5.649335861206054688e+01 -8.239654541015625000e+00 -2.532727718353271484e+00 -1.037440076470375061e-02 -7.629306316375732422e-01 -2.546272575855255127e-01
1.158000000000000000e+03 5.574424743652343750e+01 -8.240703582763671875e+00 -2.448511600494384766e+00 -9.197541512548923492e-03 -7.373127341270446777e-01 -2.476722598075866699e-01
1.159000000000000000e+03 5.349777221679687500e+01 -8.245896339416503906e+00 -2.206801414489746094e+00 -7.569356821477413177e-03 -6.643112301826477051e-01 -2.282875031232833862e-01
1.160000000000000000e+03 5.424659347534179688e+01 -8.244038581848144531e+00 -2.285393953323364258e+00 -7.775619160383939743e-03 -6.879508495330810547e-01 -2.347923815250396729e-01
1.161000000000000000e+03 5.200056457519531250e+01 -8.252042770385742188e+00 -2.055189609527587891e+00 -6.741760764271020889e-03 -6.185794472694396973e-01 -2.175058871507644653e-01
1.162000000000000000e+03 5.050405120849609375e+01 -8.260183334350585938e+00 -1.910472750663757324e+00 -6.110143382102251053e-03 -5.749748945236206055e-01 -2.078300863504409790e-01
1.163000000000000000e+03 4.751382064819335938e+01 -8.287240028381347656e+00 -1.643999576568603516e+00 -6.733403541147708893e-03 -4.952198863029479980e-01 -1.908110827207565308e-01
1.164000000000000000e+03 4.601908111572265625e+01 -8.307642936706542969e+00 -1.522155046463012695e+00 -6.838477682322263718e-03 -4.586980640888214111e-01 -1.825651079416275024e-01
1.165000000000000000e+03 4.527162170410156250e+01 -8.319278717041015625e+00 -1.463191151618957520e+00 -6.309996824711561203e-03 -4.408503472805023193e-01 -1.784440726041793823e-01
1.166000000000000000e+03 4.452410888671875000e+01 -8.331423759460449219e+00 -1.406455874443054199e+00 -7.037566974759101868e-03 -4.240480363368988037e-01 -1.750443130731582642e-01
1.167000000000000000e+03 4.153544235229492188e+01 -8.393953323364257812e+00 -1.194276571273803711e+00 -8.352434262633323669e-03 -3.607886731624603271e-01 -1.606358736753463745e-01
1.168000000000000000e+03 4.305025482177734375e+01 -9.079927444458007812e+00 -1.229967594146728516e+00 -1.192176528275012970e-02 -3.725668191909790039e-01 -2.158813923597335815e-01
1.169000000000000000e+03 4.003937530517578125e+01 -8.431044578552246094e+00 -1.096634984016418457e+00 -9.143297560513019562e-03 -3.317334949970245361e-01 -1.533166319131851196e-01
1.170000000000000000e+03 3.779332733154296875e+01 -8.491056442260742188e+00 -9.591469764709472656e-01 -9.646762162446975708e-03 -2.906381189823150635e-01 -1.424118429422378540e-01
1.171000000000000000e+03 3.479041671752929688e+01 -8.574616432189941406e+00 -7.906418442726135254e-01 -1.082651689648628235e-02 -2.404405176639556885e-01 -1.265952736139297485e-01
1.172000000000000000e+03 3.704332733154296875e+01 -8.512243270874023438e+00 -9.159343242645263672e-01 -1.081939414143562317e-02 -2.780261337757110596e-01 -1.381980925798416138e-01
1.173000000000000000e+03 3.854267883300781250e+01 -8.470318794250488281e+00 -1.003933548927307129e+00 -1.011720951646566391e-02 -3.042152523994445801e-01 -1.460508108139038086e-01
1.174000000000000000e+03 3.554246902465820312e+01 -8.554790496826171875e+00 -8.316886425018310547e-01 -1.166816893965005875e-02 -2.530070543289184570e-01 -1.303641200065612793e-01
1.175000000000000000e+03 3.403659439086914062e+01 -8.593308448791503906e+00 -7.507846355438232422e-01 -1.176403556019067764e-02 -2.287646085023880005e-01 -1.220081895589828491e-01
1.176000000000000000e+03 3.252612304687500000e+01 -8.629643440246582031e+00 -6.721444725990295410e-01 -1.178115420043468475e-02 -2.051776796579360962e-01 -1.141552105545997620e-01
1.177000000000000000e+03 2.948011016845703125e+01 -8.670944213867187500e+00 -5.203079581260681152e-01 -9.631576016545295715e-03 -1.589818596839904785e-01 -9.898601472377777100e-02
1.178000000000000000e+03 3.024463844299316406e+01 -8.662872314453125000e+00 -5.576657652854919434e-01 -9.613846428692340851e-03 -1.701838821172714233e-01 -1.020916774868965149e-01
1.179000000000000000e+03 2.716957855224609375e+01 -8.635736465454101562e+00 -4.089021384716033936e-01 -4.700759891420602798e-03 -1.240808740258216858e-01 -8.824928849935531616e-02
1.180000000000000000e+03 2.639741897583007812e+01 -8.611588478088378906e+00 -3.725213110446929932e-01 -3.433785866945981979e-03 -1.127865239977836609e-01 -8.578692376613616943e-02
1.181000000000000000e+03 2.330208206176757812e+01 -8.383681297302246094e+00 -2.312599569559097290e-01 5.094816908240318298e-03 -6.784954667091369629e-02 -7.266017049551010132e-02
1.182000000000000000e+03 2.088469696044921875e+01 -8.183259963989257812e+00 -1.348441392183303833e-01 2.927564317360520363e-03 -3.957497328519821167e-02 -6.057728454470634460e-02
1.183000000000000000e+03 2.002461814880371094e+01 -8.030860900878906250e+00 -1.017837747931480408e-01 -2.824272960424423218e-03 -3.138241171836853027e-02 -5.240843817591667175e-02
1.184000000000000000e+03 1.820123291015625000e+01 -7.218107223510742188e+00 -7.560099009424448013e-03 -1.709145680069923401e-02 -7.395466789603233337e-03 -1.245636586099863052e-02
1.185000000000000000e+03 7.966665649414062500e+01 -9.718880653381347656e+00 -5.073601007461547852e-02 1.556191539764404297e+01 4.653353691101074219e+00 -2.546459734439849854e-01
1.186000000000000000e+03 7.823188781738281250e+01 -7.631299018859863281e+00 -6.276862025260925293e-01 2.105216217041015625e+01 6.127343177795410156e+00 -3.245541334152221680e+00
1.187000000000000000e+03 7.758704376220703125e+01 -8.416990280151367188e+00 -3.409786701202392578e+00 1.882344818115234375e+01 4.624098777770996094e+00 1.460674881935119629e+00
1.188000000000000000e+03 7.787768554687500000e+01 -7.973857879638671875e+00 -2.800609588623046875e+00 2.120395660400390625e+01 5.521003723144531250e+00 -7.589361071586608887e-01
1.189000000000000000e+03 7.903422546386718750e+01 -6.519248962402343750e+00 2.235473871231079102e+00 1.288814449310302734e+01 4.537085533142089844e+00 -3.936215639114379883e-01
1.190000000000000000e+03 7.874710845947265625e+01 -6.521977901458740234e+00 4.736265182495117188e+00 1.540089416503906250e+01 6.041147708892822266e+00 -1.339412808418273926e+00
1.191000000000000000e+03 7.807778930664062500e+01 -7.805975437164306641e+00 -1.741819143295288086e+00 2.099852180480957031e+01 5.777010917663574219e+00 -2.342052936553955078e+00
1.192000000000000000e+03 7.834971618652343750e+01 -5.301883697509765625e+00 3.055717647075653076e-01 1.937597656250000000e+01 5.904464721679687500e+00 3.784323930740356445e+00
1.193000000000000000e+03 7.857865905761718750e+01 -5.229576110839843750e+00 3.848110139369964600e-01 1.790601921081542969e+01 5.487248897552490234e+00 3.729602813720703125e+00
1.194000000000000000e+03 7.945655822753906250e+01 -1.391656517982482910e+00 -2.198786735534667969e-01 1.515325260162353516e+01 4.480012416839599609e+00 -2.437790930271148682e-01
1.195000000000000000e+03 7.833506011962890625e+01 -7.451866149902343750e+00 5.535734891891479492e-01 1.978797912597656250e+01 6.102465629577636719e+00 -3.579403162002563477e+00
1.196000000000000000e+03 7.966773986816406250e+01 -7.115036487579345703e+00 4.601113796234130859e-01 7.138916969299316406e+00 2.279708385467529297e+00 -1.073425292968750000e+00
1.197000000000000000e+03 7.838577270507812500e+01 -4.826436042785644531e+00 -1.254037022590637207e+00 1.881475639343261719e+01 5.268215656280517578e+00 3.176330804824829102e+00
1.198000000000000000e+03 7.951401519775390625e+01 1.474899053573608398e-02 1.047515943646430969e-01 1.406281948089599609e+01 4.250271320343017578e+00 -4.185896217823028564e-01
1.199000000000000000e+03 7.603378295898437500e+01 -8.093454360961914062e+00 -5.260543823242187500e-01 7.480560779571533203e+00 2.086351871490478516e+00 5.447685718536376953e+00
1.200000000000000000e+03 7.499874877929687500e+01 -8.129273414611816406e+00 -1.058299183845520020e+00 2.387636423110961914e+00 3.988012075424194336e-01 2.645418643951416016e+00
1.201000000000000000e+03 7.577138519287109375e+01 -8.316959381103515625e+00 -4.721937477588653564e-01 5.990093708038330078e+00 1.655369997024536133e+00 4.732495784759521484e+00
1.202000000000000000e+03 7.543180847167968750e+01 -8.114486694335937500e+00 -6.105604171752929688e-01 3.861297607421875000e+00 9.752211570739746094e-01 3.792369365692138672e+00
1.203000000000000000e+03 7.365756225585937500e+01 -8.093026161193847656e+00 -2.848551988601684570e+00 6.290973424911499023e-01 -6.658363342285156250e-01 7.400937080383300781e-01
1.204000000000000000e+03 7.447456359863281250e+01 -8.562727928161621094e+00 -1.194178223609924316e+00 2.058693170547485352e+00 2.593544721603393555e-01 2.170121669769287109e+00
1.205000000000000000e+03 7.638076782226562500e+01 -8.417418479919433594e+00 -1.404908537864685059e+00 1.071885299682617188e+01 2.794183254241943359e+00 5.419810771942138672e+00
1.206000000000000000e+03 7.521189117431640625e+01 -8.123733520507812500e+00 -8.183867335319519043e-01 2.973049163818359375e+00 6.463987231254577637e-01 3.155523061752319336e+00
1.207000000000000000e+03 7.663770294189453125e+01 -4.776764392852783203e+00 -1.712744593620300293e+00 1.416196727752685547e+01 3.734766960144042969e+00 -6.627179622650146484e+00
1.208000000000000000e+03 7.544561004638671875e+01 -4.734945297241210938e+00 -7.037536501884460449e-01 3.594444990158081055e+00 8.672074079513549805e-01 -3.737538814544677734e+00
1.209000000000000000e+03 7.504941558837890625e+01 -4.745517253875732422e+00 -1.188585400581359863e+00 2.399616479873657227e+00 3.633093237876892090e-01 -2.678719282150268555e+00
1.210000000000000000e+03 7.699922943115234375e+01 -4.774710655212402344e+00 -2.812713623046875000e+00 1.783080863952636719e+01 4.505428791046142578e+00 -4.969804763793945312e+00
1.211000000000000000e+03 7.581002044677734375e+01 -4.523112297058105469e+00 -5.550122261047363281e-01 6.211549282073974609e+00 1.696961164474487305e+00 -4.964149951934814453e+00
1.212000000000000000e+03 7.442923736572265625e+01 -4.633996486663818359e+00 -1.807723045349121094e+00 1.399901628494262695e+00 -1.223464384675025940e-01 -1.595069050788879395e+00
1.213000000000000000e+03 7.584967803955078125e+01 -4.746808528900146484e+00 -3.938639461994171143e-01 6.043611526489257812e+00 1.694924235343933105e+00 -5.127432346343994141e+00
1.214000000000000000e+03 7.564978027343750000e+01 -4.746788024902343750e+00 -4.117717444896697998e-01 4.645886898040771484e+00 1.270234584808349609e+00 -4.490338325500488281e+00
1.215000000000000000e+03 1.452234935760498047e+01 1.738589525222778320e+00 1.078827917808666825e-04 -6.205150566529482603e-05 1.374938619846943766e-05 -1.146877475548535585e-04
1.216000000000000000e+03 1.463119029998779297e+01 2.562081336975097656e+00 -1.742801978252828121e-04 -2.942467981483787298e-04 -1.405580987920984626e-04 2.376379961788188666e-05
1.217000000000000000e+03 1.188639354705810547e+01 1.793148756027221680e+00 -1.103014365071430802e-04 2.148931162082590163e-05 -2.664363637450151145e-05 -1.165903886430896819e-04
1.218000000000000000e+03 7.260548400878906250e+01 -4.672031402587890625e+00 -3.559596538543701172e+00 2.395796328783035278e-01 -9.960050582885742188e-01 -1.173544824123382568e-01
1.219000000000000000e+03 7.200476074218750000e+01 -4.263739109039306641e+00 -2.993216753005981445e+00 2.152144610881805420e-01 -8.334006667137145996e-01 -7.194074243307113647e-02
1.220000000000000000e+03 7.312612915039062500e+01 -4.160479545593261719e+00 -2.181660652160644531e+00 7.492560744285583496e-01 -4.297213852405548096e-01 -7.197536826133728027e-01
1.221000000000000000e+03 6.868368530273437500e+01 -3.967288970947265625e+00 -3.259752750396728516e+00 3.920577000826597214e-03 -9.767496585845947266e-01 3.663520216941833496e-01
1.222000000000000000e+03 1.446655654907226562e+01 -3.375560998916625977e+00 -1.718029011499311309e-06 5.461384716909378767e-05 1.586874532222282141e-05 -1.286264796362956986e-05
1.223000000000000000e+03 1.384667873382568359e+01 -2.967631101608276367e+00 1.919815440487582237e-05 -3.329895116621628404e-05 -4.230239937896840274e-06 -5.092568699183175340e-06
1.224000000000000000e+03 1.868430709838867188e+01 -8.293497085571289062e+00 -6.934530287981033325e-02 -1.628571003675460815e-02 -2.568930201232433319e-02 -4.834078252315521240e-02
1.225000000000000000e+03 1.864784812927246094e+01 -9.533314704895019531e+00 -1.081239581108093262e-01 -3.514059633016586304e-02 -4.297936707735061646e-02 -9.328990429639816284e-02
1.226000000000000000e+03 3.928536891937255859e+00 3.529251098632812500e+00 -3.321908661746419966e-05 5.257796874502673745e-05 5.807664820167701691e-06 2.111147186951711774e-04
1.227000000000000000e+03 9.535598754882812500e+00 2.594076633453369141e+00 -7.393225678242743015e-05 -1.342690811725333333e-04 -6.246040720725432038e-05 -3.596506139729171991e-04
1.228000000000000000e+03 7.405490398406982422e+00 2.572788238525390625e+00 -1.177640879177488387e-04 2.774696331471204758e-04 4.791166065842844546e-05 2.518359688110649586e-04
1.229000000000000000e+03 6.775828361511230469e+00 1.854927420616149902e+00 -1.199581092805601656e-04 1.782213366823270917e-04 1.747896931192371994e-05 1.926009281305596232e-04
1.230000000000000000e+03 6.709896087646484375e+00 2.572480916976928711e+00 1.545871236885432154e-05 -1.885189849417656660e-04 -5.191808304516598582e-05 -2.136057446477934718e-04
1.231000000000000000e+03 7.995545864105224609e+00 3.332509756088256836e+00 -1.094415711122564971e-04 3.956166619900614023e-04 8.585253090132027864e-05 3.029900544788688421e-04
1.232000000000000000e+03 5.895169258117675781e+00 4.021994590759277344e+00 -1.153452176367864013e-04 3.321210679132491350e-04 6.503275653813034296e-05 1.720915461191907525e-04
1.233000000000000000e+03 1.557235360145568848e+00 7.722812652587890625e+00 -1.174304343294352293e-04 -2.494685213605407625e-05 -4.271318539394997060e-05 1.713440433377400041e-04
1.234000000000000000e+03 3.922204375267028809e-01 3.797306060791015625e+00 -1.273884481634013355e-05 -9.169709665002301335e-05 -3.133078280370682478e-05 7.888911932241171598e-05
1.235000000000000000e+03 2.407487154006958008e+00 3.690775871276855469e+00 -1.190053226309828460e-04 9.005501487990841269e-05 -8.685092325322329998e-06 1.873866567621007562e-04
1.236000000000000000e+03 3.876356780529022217e-01 2.098874568939208984e+00 4.645240551326423883e-05 -1.190451803267933428e-05 1.036436606227653101e-05 -4.016206730739213526e-05
1.237000000000000000e+03 1.124075055122375488e+00 1.944537878036499023e+00 -3.008752901223488152e-05 -4.451466884347610176e-05 -2.238066008430905640e-05 1.104745679185725749e-04
1.238000000000000000e+03 1.112988948822021484e+01 1.822937965393066406e+00 3.673882747534662485e-05 -1.263709327758988366e-05 7.230520623124903068e-06 1.006748861982487142e-04
1.239000000000000000e+03 8.691424369812011719e+00 3.347120285034179688e+00 2.102575126627925783e-05 -2.753033477347344160e-04 -7.628327875863760710e-05 -4.041691718157380819e-04
1.240000000000000000e+03 2.665672111511230469e+01 -4.888158321380615234e+00 -1.938276141881942749e-01 -1.210145186632871628e-02 -6.177872046828269958e-02 9.272573143243789673e-02
1.241000000000000000e+03 2.557505035400390625e+01 -2.887915849685668945e+00 -1.860167682170867920e-01 -4.763218760490417480e-02 -7.009468972682952881e-02 1.614701151847839355e-01
1.242000000000000000e+03 2.329178428649902344e+01 -3.968317031860351562e+00 -8.698323369026184082e-02 -3.414962440729141235e-02 -3.633985668420791626e-02 7.532229274511337280e-02
1.243000000000000000e+03 2.538347625732421875e+01 -4.130490779876708984e+00 -1.570508331060409546e-01 -2.686840854585170746e-02 -5.517577007412910461e-02 1.083724871277809143e-01
1.244000000000000000e+03 2.397053718566894531e+01 -4.033487796783447266e+00 -1.054765135049819946e-01 -3.166012838482856750e-02 -4.114099219441413879e-02 8.621579408645629883e-02
1.245000000000000000e+03 2.345357322692871094e+01 -3.356337785720825195e+00 -1.008721143007278442e-01 -4.828357696533203125e-02 -4.474670812487602234e-02 9.927078336477279663e-02
1.246000000000000000e+03 2.236942863464355469e+01 -4.492639064788818359e+00 -4.988910630345344543e-02 -2.327964641153812408e-02 -2.195062488317489624e-02 4.195639118552207947e-02
1.247000000000000000e+03 1.919322204589843750e+01 -2.560223817825317383e+00 -5.114482715725898743e-03 -1.589309982955455780e-02 -6.302274763584136963e-03 1.477240212261676788e-02
1.248000000000000000e+03 2.262545204162597656e+01 -3.845055818557739258e+00 -6.739712506532669067e-02 -3.751797229051589966e-02 -3.147453069686889648e-02 6.496202945709228516e-02
1.249000000000000000e+03 2.959147834777832031e+01 -4.949282646179199219e+00 -3.454348444938659668e-01 -2.773263957351446152e-03 -1.044624373316764832e-01 1.125456839799880981e-01
1.250000000000000000e+03 2.683238983154296875e+01 -4.171337604522705078e+00 -2.190837562084197998e-01 -1.905638352036476135e-02 -7.144203782081604004e-02 1.275288909673690796e-01
1.251000000000000000e+03 2.863574409484863281e+01 -2.876188993453979492e+00 -3.239620327949523926e-01 -2.607136964797973633e-02 -1.050100177526473999e-01 2.129955589771270752e-01
1.252000000000000000e+03 2.757280540466308594e+01 -4.197230815887451172e+00 -2.524028718471527100e-01 -1.641726307570934296e-02 -8.064603805541992188e-02 1.350453495979309082e-01
1.253000000000000000e+03 3.255410385131835938e+01 -4.916546344757080078e+00 -5.316917896270751953e-01 2.765844343230128288e-03 -1.586777865886688232e-01 1.239873990416526794e-01
1.254000000000000000e+03 2.991959190368652344e+01 -3.554120302200317383e+00 -3.825404047966003418e-01 -1.147110946476459503e-02 -1.182034537196159363e-01 1.923676878213882446e-01
1.255000000000000000e+03 3.230003356933593750e+01 -2.168249368667602539e+00 -5.081764459609985352e-01 -1.218753214925527573e-02 -1.561091989278793335e-01 2.865819334983825684e-01
1.256000000000000000e+03 2.976687622070312500e+01 -4.244968414306640625e+00 -3.668087422847747803e-01 -6.465814076364040375e-03 -1.119823679327964783e-01 1.536730378866195679e-01
1.257000000000000000e+03 1.346442508697509766e+01 -4.837455272674560547e+00 1.019139517666189931e-06 -9.014316674438305199e-06 -2.398553306193207391e-06 1.385008545184973627e-05
1.258000000000000000e+03 1.287784290313720703e+01 -5.958547115325927734e+00 2.361107544857077301e-05 -3.631502522694063373e-06 5.993871582177234814e-06 -2.648700501595158130e-05
1.259000000000000000e+03 1.332843971252441406e+01 -2.566518068313598633e+00 1.817659722291864455e-05 3.282632314949296415e-05 1.530087683931924403e-05 4.089991307409945875e-06
1.260000000000000000e+03 8.141757965087890625e+00 -2.580817699432373047e+00 -1.953819628397468477e-05 -1.724567118799313903e-05 -1.103516024159034714e-05 -4.676447861129418015e-05
1.261000000000000000e+03 3.271702194213867188e+01 -4.212782382965087891e+00 -5.435488820075988770e-01 1.191221410408616066e-03 -1.627072989940643311e-01 1.707705110311508179e-01
1.262000000000000000e+03 3.553840637207031250e+01 -4.841901302337646484e+00 -7.456985712051391602e-01 4.523376002907752991e-03 -2.223525643348693848e-01 1.311033517122268677e-01
1.263000000000000000e+03 3.370172500610351562e+01 -2.805832147598266602e+00 -5.921951532363891602e-01 -3.177653066813945770e-03 -1.786118298768997192e-01 2.608850300312042236e-01
1.264000000000000000e+03 3.420693969726562500e+01 -4.176142692565917969e+00 -6.412358283996582031e-01 3.018302610144019127e-03 -1.914652585983276367e-01 1.773416250944137573e-01
1.265000000000000000e+03 4.377681350708007812e+01 -8.345367431640625000e+00 -1.351125001907348633e+00 -6.563720293343067169e-03 -4.073066115379333496e-01 -1.714150011539459229e-01
1.266000000000000000e+03 4.528859710693359375e+01 -9.032322883605957031e+00 -1.384140849113464355e+00 -1.211678236722946167e-02 -4.188772737979888916e-01 -2.304478734731674194e-01
1.267000000000000000e+03 4.456482696533203125e+01 -9.767621994018554688e+00 -1.253861188888549805e+00 -1.827399618923664093e-02 -3.816405534744262695e-01 -2.720161974430084229e-01
1.268000000000000000e+03 4.454187774658203125e+01 -9.045983314514160156e+00 -1.331319451332092285e+00 -1.141788717359304428e-02 -4.028212130069732666e-01 -2.251581847667694092e-01
1.269000000000000000e+03 4.752757263183593750e+01 -8.999705314636230469e+00 -1.549723267555236816e+00 -1.120805926620960236e-02 -4.682793915271759033e-01 -2.470660954713821411e-01
1.270000000000000000e+03 4.307722091674804688e+01 -9.812653541564941406e+00 -1.160320878028869629e+00 -1.850049942731857300e-02 -3.536463975906372070e-01 -2.605637311935424805e-01
1.271000000000000000e+03 4.078754425048828125e+01 -8.411916732788085938e+00 -1.144743084907531738e+00 -7.967003621160984039e-03 -3.458130359649658203e-01 -1.575384289026260376e-01
1.272000000000000000e+03 4.161984634399414062e+01 -1.061740875244140625e+01 -1.003277659416198730e+00 -2.630029059946537018e-02 -3.088733851909637451e-01 -2.910912930965423584e-01
1.273000000000000000e+03 4.155836486816406250e+01 -9.116697311401367188e+00 -1.134145021438598633e+00 -1.268814969807863235e-02 -3.440499305725097656e-01 -2.067506909370422363e-01
1.274000000000000000e+03 4.902963638305664062e+01 -9.706100463867187500e+00 -1.555117845535278320e+00 -1.821989379823207855e-02 -4.720013141632080078e-01 -3.124690353870391846e-01
1.275000000000000000e+03 4.826112365722656250e+01 -8.279884338378906250e+00 -1.708051085472106934e+00 -5.513128358870744705e-03 -5.140692591667175293e-01 -1.950266808271408081e-01
1.276000000000000000e+03 4.900840377807617188e+01 -8.272674560546875000e+00 -1.773908853530883789e+00 -6.073481403291225433e-03 -5.339947342872619629e-01 -1.991061568260192871e-01
1.277000000000000000e+03 4.976550674438476562e+01 -8.977362632751464844e+00 -1.727426171302795410e+00 -1.136778201907873154e-02 -5.216381549835205078e-01 -2.643266618251800537e-01
1.278000000000000000e+03 4.827311325073242188e+01 -8.992400169372558594e+00 -1.607136249542236328e+00 -1.184307038784027100e-02 -4.856938123703002930e-01 -2.528282105922698975e-01
1.279000000000000000e+03 4.080995941162109375e+01 -9.134734153747558594e+00 -1.088021874427795410e+00 -1.401878334581851959e-02 -3.306121826171875000e-01 -2.013143599033355713e-01
1.280000000000000000e+03 4.083522415161132812e+01 -9.872533798217773438e+00 -1.028110623359680176e+00 -1.933506689965724945e-02 -3.142337203025817871e-01 -2.440267503261566162e-01
1.281000000000000000e+03 4.006143569946289062e+01 -9.153932571411132812e+00 -1.042975306510925293e+00 -1.356152724474668503e-02 -3.169610798358917236e-01 -1.970310062170028687e-01
1.282000000000000000e+03 3.856391143798828125e+01 -9.192327499389648438e+00 -9.558749794960021973e-01 -1.454363297671079636e-02 -2.911255657672882080e-01 -1.872189491987228394e-01
1.283000000000000000e+03 5.125226211547851562e+01 -8.256145477294921875e+00 -1.981799602508544922e+00 -5.557779688388109207e-03 -5.962072014808654785e-01 -2.130917906761169434e-01
1.284000000000000000e+03 5.202034759521484375e+01 -9.680997848510742188e+00 -1.776491880416870117e+00 -1.996807195246219635e-02 -5.389379858970642090e-01 -3.405002355575561523e-01
1.285000000000000000e+03 5.051334381103515625e+01 -8.971946716308593750e+00 -1.789802670478820801e+00 -1.066310610622167587e-02 -5.401397347450256348e-01 -2.709610164165496826e-01
1.286000000000000000e+03 5.350551223754882812e+01 -8.954694747924804688e+00 -2.050752162933349609e+00 -1.365244947373867035e-02 -6.193214058876037598e-01 -2.974612116813659668e-01
1.287000000000000000e+03 5.425380706787109375e+01 -8.952113151550292969e+00 -2.119432687759399414e+00 -1.467343140393495560e-02 -6.402318477630615234e-01 -3.039900064468383789e-01
1.288000000000000000e+03 5.800505447387695312e+01 -9.651165008544921875e+00 -2.240398883819580078e+00 -2.947362326085567474e-02 -6.809617280960083008e-01 -4.069986939430236816e-01
1.289000000000000000e+03 5.649908065795898438e+01 -8.945315361022949219e+00 -2.330150842666625977e+00 -1.769447512924671173e-02 -7.043536305427551270e-01 -3.282344043254852295e-01
1.290000000000000000e+03 5.799709320068359375e+01 -8.941700935363769531e+00 -2.474805831909179688e+00 -2.051100321114063263e-02 -7.485950589179992676e-01 -3.460191786289215088e-01
1.291000000000000000e+03 5.724269866943359375e+01 -8.239168167114257812e+00 -2.619231462478637695e+00 -1.083968114107847214e-02 -7.890213131904602051e-01 -2.620939314365386963e-01
1.292000000000000000e+03 5.949603652954101562e+01 -8.937497138977050781e+00 -2.621783733367919922e+00 -2.301104366779327393e-02 -7.934384346008300781e-01 -3.653383553028106689e-01
1.293000000000000000e+03 5.724817657470703125e+01 -8.944026947021484375e+00 -2.402223587036132812e+00 -1.936435326933860779e-02 -7.264763712882995605e-01 -3.371257781982421875e-01
1.294000000000000000e+03 3.569908905029296875e+01 -4.133676052093505859e+00 -7.437964677810668945e-01 3.711895085871219635e-03 -2.220253646373748779e-01 1.830908954143524170e-01
1.295000000000000000e+03 3.583573532104492188e+01 -3.430480718612670898e+00 -7.360259294509887695e-01 2.257076092064380646e-03 -2.201306521892547607e-01 2.315190732479095459e-01
1.296000000000000000e+03 3.644821166992187500e+01 -4.111931324005126953e+00 -7.965813875198364258e-01 3.796428209170699120e-03 -2.378354817628860474e-01 1.858454495668411255e-01
1.297000000000000000e+03 7.148519897460937500e+01 -8.194681167602539062e+00 -3.709934234619140625e+00 3.036321513354778290e-02 -1.103871226310729980e+00 -1.933632791042327881e-01
1.298000000000000000e+03 7.293984222412109375e+01 -8.630564689636230469e+00 -2.279133081436157227e+00 6.378341913223266602e-01 -4.923896789550781250e-01 6.114500761032104492e-01
1.299000000000000000e+03 6.998381805419921875e+01 -8.211335182189941406e+00 -3.919728040695190430e+00 1.352610252797603607e-02 -1.171860575675964355e+00 -3.496904373168945312e-01
1.300000000000000000e+03 7.148468780517578125e+01 -8.819051742553710938e+00 -2.701107740402221680e+00 2.233941107988357544e-01 -7.433140873908996582e-01 3.983369842171669006e-02
1.301000000000000000e+03 7.012075042724609375e+01 -4.091461658477783203e+00 -3.265011072158813477e+00 3.523526340723037720e-02 -9.689326882362365723e-01 2.684434056282043457e-01
1.302000000000000000e+03 6.557415008544921875e+01 -4.557300567626953125e+00 -3.695588588714599609e+00 -2.049907110631465912e-02 -1.114826321601867676e+00 3.577368855476379395e-01
1.303000000000000000e+03 6.855201721191406250e+01 -4.589135169982910156e+00 -3.970537900924682617e+00 -1.085249893367290497e-02 -1.194417119026184082e+00 3.793916404247283936e-01
1.304000000000000000e+03 7.079222869873046875e+01 -4.195848941802978516e+00 -3.229775428771972656e+00 1.246076151728630066e-01 -9.315503835678100586e-01 1.727208346128463745e-01
1.305000000000000000e+03 6.631854248046875000e+01 -4.565123081207275391e+00 -3.778933763504028320e+00 -2.575001493096351624e-02 -1.141405105590820312e+00 3.671324551105499268e-01
1.306000000000000000e+03 6.647288513183593750e+01 -3.909721851348876953e+00 -3.250101566314697266e+00 -2.288746461272239685e-02 -9.818966984748840332e-01 4.041768312454223633e-01
1.307000000000000000e+03 6.499803924560546875e+01 -3.869967222213745117e+00 -3.162455797195434570e+00 -2.633083797991275787e-02 -9.566360116004943848e-01 4.046252369880676270e-01
1.308000000000000000e+03 6.794290924072265625e+01 -3.947536230087280273e+00 -3.276668787002563477e+00 -1.135133765637874603e-02 -9.864060282707214355e-01 3.871271610260009766e-01
1.309000000000000000e+03 6.024547195434570312e+01 -8.936255455017089844e+00 -2.694757223129272461e+00 -2.460036613047122955e-02 -8.158072829246520996e-01 -3.746546506881713867e-01
1.310000000000000000e+03 6.099467849731445312e+01 -8.935011863708496094e+00 -2.766616106033325195e+00 -2.478141151368618011e-02 -8.374192714691162109e-01 -3.847452998161315918e-01
1.311000000000000000e+03 6.324400711059570312e+01 -8.932164192199707031e+00 -2.969283103942871094e+00 -2.929646708071231842e-02 -8.995738625526428223e-01 -4.113909304141998291e-01
1.312000000000000000e+03 6.408000946044921875e+01 -4.545608043670654297e+00 -3.526892423629760742e+00 -1.933331415057182312e-02 -1.063867688179016113e+00 3.373609483242034912e-01
1.313000000000000000e+03 6.441197204589843750e+01 -3.172328710556030273e+00 -2.694510459899902344e+00 -3.055096790194511414e-02 -8.175184130668640137e-01 4.245555698871612549e-01
1.314000000000000000e+03 6.425333404541015625e+01 -3.856087207794189453e+00 -3.111577033996582031e+00 -3.327897563576698303e-02 -9.434568285942077637e-01 3.987698554992675781e-01
1.315000000000000000e+03 6.399041366577148438e+01 -8.236569404602050781e+00 -3.455233573913574219e+00 -2.205722965300083160e-02 -1.043187260627746582e+00 -3.504843115806579590e-01
1.316000000000000000e+03 6.399376296997070312e+01 -8.929177284240722656e+00 -3.030029058456420898e+00 -2.878780849277973175e-02 -9.176450371742248535e-01 -4.189676046371459961e-01
1.317000000000000000e+03 6.174634170532226562e+01 -9.639716148376464844e+00 -2.503059387207031250e+00 -3.263925015926361084e-02 -7.607095837593078613e-01 -4.466439783573150635e-01
1.318000000000000000e+03 6.474266815185546875e+01 -8.924434661865234375e+00 -3.087232112884521484e+00 -3.073673881590366364e-02 -9.353906512260437012e-01 -4.248926937580108643e-01
1.319000000000000000e+03 6.549097442626953125e+01 -8.917814254760742188e+00 -3.135583639144897461e+00 -2.795310132205486298e-02 -9.490610361099243164e-01 -4.278426766395568848e-01
1.320000000000000000e+03 6.698502349853515625e+01 -8.897968292236328125e+00 -3.206189632415771484e+00 -1.829158328473567963e-02 -9.673443436622619629e-01 -4.205901324748992920e-01
1.321000000000000000e+03 6.623863983154296875e+01 -8.909013748168945312e+00 -3.178235530853271484e+00 -2.664224803447723389e-02 -9.614633917808532715e-01 -4.267565608024597168e-01
1.322000000000000000e+03 6.847561645507812500e+01 -8.871077537536621094e+00 -3.207482576370239258e+00 3.743889043107628822e-03 -9.611216187477111816e-01 -3.806391954421997070e-01
1.323000000000000000e+03 6.922048950195312500e+01 -8.858100891113281250e+00 -3.166526556015014648e+00 2.371546067297458649e-02 -9.428433179855346680e-01 -3.379174470901489258e-01
1.324000000000000000e+03 6.997056579589843750e+01 -8.848696708679199219e+00 -3.068431854248046875e+00 6.126190721988677979e-02 -9.021509885787963867e-01 -2.707703113555908203e-01
1.325000000000000000e+03 6.200567245483398438e+01 -3.836843729019165039e+00 -2.935532569885253906e+00 -2.668359130620956421e-02 -8.886648416519165039e-01 3.765933215618133545e-01
1.326000000000000000e+03 6.050737380981445312e+01 -3.836449384689331055e+00 -2.809417486190795898e+00 -2.402322739362716675e-02 -8.500322103500366211e-01 3.588916659355163574e-01
1.327000000000000000e+03 5.975802612304687500e+01 -3.836372613906860352e+00 -2.743707656860351562e+00 -2.535758353769779205e-02 -8.307195305824279785e-01 3.494122028350830078e-01
1.328000000000000000e+03 3.706379318237304688e+01 -9.234260559082031250e+00 -8.728638291358947754e-01 -1.546677947044372559e-02 -2.664991617202758789e-01 -1.775818467140197754e-01
1.329000000000000000e+03 3.783399963378906250e+01 -9.944498062133789062e+00 -8.662396669387817383e-01 -2.122977003455162048e-02 -2.662408351898193359e-01 -2.201454937458038330e-01
1.330000000000000000e+03 3.556183624267578125e+01 -9.275801658630371094e+00 -7.935112714767456055e-01 -1.610738970339298248e-02 -2.428855895996093750e-01 -1.681499481201171875e-01
1.331000000000000000e+03 5.675324630737304688e+01 -3.832347869873046875e+00 -2.470919847488403320e+00 -2.202683128416538239e-02 -7.478839755058288574e-01 3.134700357913970947e-01
1.332000000000000000e+03 5.808096694946289062e+01 -4.535918712615966797e+00 -2.829927921295166016e+00 -1.349014323204755783e-02 -8.530254364013671875e-01 2.587289512157440186e-01
1.333000000000000000e+03 5.733001327514648438e+01 -4.535904884338378906e+00 -2.746695041656494141e+00 -1.482126768678426743e-02 -8.284548521041870117e-01 2.495771795511245728e-01
1.334000000000000000e+03 5.765292739868164062e+01 -3.135490179061889648e+00 -2.325398921966552734e+00 -3.087637200951576233e-02 -7.068825364112854004e-01 3.803254663944244385e-01
1.335000000000000000e+03 5.900595474243164062e+01 -3.835187911987304688e+00 -2.675904989242553711e+00 -2.311863377690315247e-02 -8.097070455551147461e-01 3.407938778400421143e-01
1.336000000000000000e+03 5.450090026855468750e+01 -3.835185527801513672e+00 -2.267872333526611328e+00 -1.721622608602046967e-02 -6.855266094207763672e-01 2.896372675895690918e-01
1.337000000000000000e+03 5.525002670288085938e+01 -3.832710742950439453e+00 -2.335105180740356445e+00 -1.976442337036132812e-02 -7.064608931541442871e-01 2.970503866672515869e-01
1.338000000000000000e+03 5.600177001953125000e+01 -3.831415891647338867e+00 -2.402359724044799805e+00 -1.982573047280311584e-02 -7.266556620597839355e-01 3.055906891822814941e-01
1.339000000000000000e+03 4.848553848266601562e+01 -3.867673158645629883e+00 -1.745060324668884277e+00 -1.023235078901052475e-02 -5.265877842903137207e-01 2.406514436006546021e-01
1.340000000000000000e+03 4.906592559814453125e+01 -4.564624786376953125e+00 -1.906165599822998047e+00 -6.932878401130437851e-03 -5.739295482635498047e-01 1.804731339216232300e-01
1.341000000000000000e+03 5.149381256103515625e+01 -3.846869230270385742e+00 -2.003248929977416992e+00 -1.357148215174674988e-02 -6.050461530685424805e-01 2.625422179698944092e-01
1.342000000000000000e+03 5.224437332153320312e+01 -3.843330383300781250e+00 -2.069094657897949219e+00 -1.553474273532629013e-02 -6.253888010978698730e-01 2.684123218059539795e-01
1.343000000000000000e+03 5.299904251098632812e+01 -3.839606761932373047e+00 -2.134870767593383789e+00 -1.550429314374923706e-02 -6.451125144958496094e-01 2.752366065979003906e-01
1.344000000000000000e+03 4.079159545898437500e+01 -4.698676109313964844e+00 -1.166488289833068848e+00 4.682973667513579130e-04 -3.498059809207916260e-01 1.427617073059082031e-01
1.345000000000000000e+03 3.794865417480468750e+01 -4.067435264587402344e+00 -9.054714441299438477e-01 2.936228876933455467e-03 -2.707605659961700439e-01 1.911659985780715942e-01
1.346000000000000000e+03 4.154381179809570312e+01 -4.681390285491943359e+00 -1.230179548263549805e+00 1.912799925776198506e-04 -3.689964711666107178e-01 1.453121304512023926e-01
1.347000000000000000e+03 4.020269775390625000e+01 -4.010350704193115234e+00 -1.075405478477478027e+00 4.057250334881246090e-04 -3.224999308586120605e-01 1.984891295433044434e-01
1.348000000000000000e+03 3.870206451416015625e+01 -4.047350883483886719e+00 -9.616571664810180664e-01 2.062346320599317551e-03 -2.878784537315368652e-01 1.934417486190795898e-01
1.349000000000000000e+03 4.773442840576171875e+01 -3.875504493713378906e+00 -1.681542396545410156e+00 -1.020130328834056854e-02 -5.075231194496154785e-01 2.354912608861923218e-01
1.350000000000000000e+03 4.998860549926757812e+01 -3.853316307067871094e+00 -1.872689366340637207e+00 -1.245108712464570999e-02 -5.655421614646911621e-01 2.512646615505218506e-01
1.351000000000000000e+03 4.396672439575195312e+01 -3.928743362426757812e+00 -1.370769858360290527e+00 -4.511513747274875641e-03 -4.125844240188598633e-01 2.145848423242568970e-01
1.352000000000000000e+03 3.945302200317382812e+01 -4.029215812683105469e+00 -1.018041491508483887e+00 1.494132215157151222e-03 -3.049642145633697510e-01 1.961659789085388184e-01
1.353000000000000000e+03 4.246218490600585938e+01 -3.958647251129150391e+00 -1.250834822654724121e+00 -2.415403956547379494e-03 -3.759750425815582275e-01 2.076462209224700928e-01
1.354000000000000000e+03 4.321375274658203125e+01 -3.943054199218750000e+00 -1.310951232910156250e+00 -3.524658037349581718e-03 -3.943427503108978271e-01 2.110772877931594849e-01
1.355000000000000000e+03 4.547556686401367188e+01 -3.905447721481323242e+00 -1.493790388107299805e+00 -6.192157045006752014e-03 -4.499947726726531982e-01 2.222734540700912476e-01
1.356000000000000000e+03 4.697983932495117188e+01 -3.884395837783813477e+00 -1.618446826934814453e+00 -8.340310305356979370e-03 -4.880361557006835938e-01 2.308311909437179565e-01
1.357000000000000000e+03 4.472203826904296875e+01 -3.916540861129760742e+00 -1.432241320610046387e+00 -5.657895002514123917e-03 -4.313697516918182373e-01 2.184607237577438354e-01
1.358000000000000000e+03 3.328185653686523438e+01 -8.611580848693847656e+00 -7.109463214874267578e-01 -1.098340004682540894e-02 -2.165789157152175903e-01 -1.181832700967788696e-01
1.359000000000000000e+03 3.631319427490234375e+01 -9.254925727844238281e+00 -8.332948088645935059e-01 -1.652517355978488922e-02 -2.549459934234619141e-01 -1.725075095891952515e-01
1.360000000000000000e+03 3.176782035827636719e+01 -8.643915176391601562e+00 -6.338274478912353516e-01 -1.029538549482822418e-02 -1.932368427515029907e-01 -1.102852001786231995e-01
1.361000000000000000e+03 3.329729843139648438e+01 -9.332560539245605469e+00 -6.804206371307373047e-01 -1.674458570778369904e-02 -2.091495543718338013e-01 -1.535928696393966675e-01
1.362000000000000000e+03 3.480935287475585938e+01 -9.294908523559570312e+00 -7.554631829261779785e-01 -1.696326583623886108e-02 -2.317279428243637085e-01 -1.628807485103607178e-01
1.363000000000000000e+03 3.405473327636718750e+01 -9.313574790954589844e+00 -7.174546122550964355e-01 -1.606660522520542145e-02 -2.200563699007034302e-01 -1.585275977849960327e-01
1.364000000000000000e+03 8.811695098876953125e+00 2.587214231491088867e+00 -5.498124664882197976e-05 2.272209385409951210e-04 5.167190829524770379e-05 2.793178719002753496e-04
1.365000000000000000e+03 1.359386253356933594e+01 3.915148258209228516e+00 2.859200176317244768e-04 -2.589272044133394957e-04 8.097849786281585693e-06 2.145408798241987824e-04
1.366000000000000000e+03 1.257016468048095703e+01 2.529174089431762695e+00 -1.225732266902923584e-04 6.593356374651193619e-05 -1.699189851933624595e-05 -7.138783985283225775e-05
1.367000000000000000e+03 1.104799842834472656e+01 2.582516670227050781e+00 -1.614567445358261466e-04 -8.168804015440400690e-06 -5.088766556582413614e-05 -2.957978576887398958e-04
1.368000000000000000e+03 2.871204948425292969e+01 -8.668020248413085938e+00 -4.830595254898071289e-01 -7.524329237639904022e-03 -1.471751630306243896e-01 -9.528571367263793945e-02
1.369000000000000000e+03 3.023891258239746094e+01 -9.399762153625488281e+00 -5.363579988479614258e-01 -1.426675356924533844e-02 -1.651874333620071411e-01 -1.371017992496490479e-01
1.370000000000000000e+03 3.100912666320800781e+01 -9.385583877563476562e+00 -5.716763734817504883e-01 -1.439932920038700104e-02 -1.758227050304412842e-01 -1.408348679542541504e-01
1.371000000000000000e+03 3.177450561523437500e+01 -9.370725631713867188e+00 -6.073232293128967285e-01 -1.595303975045681000e-02 -1.869828850030899048e-01 -1.449566334486007690e-01
1.372000000000000000e+03 8.075860977172851562e+00 -1.852423667907714844e+00 -1.388415785186225548e-05 3.031920641660690308e-05 4.930514478473924100e-06 6.276932253967970610e-05
1.373000000000000000e+03 1.253805160522460938e+01 -3.694983959197998047e+00 -2.362034138059243560e-06 3.176390237058512866e-05 8.820560651656705886e-06 3.010133332281839103e-05
1.374000000000000000e+03 7.403785228729248047e+00 -2.595950841903686523e+00 -1.506683929619612172e-05 3.121685222140513361e-05 4.845003786613233387e-06 7.439214095938950777e-05
1.375000000000000000e+03 1.176329898834228516e+01 -5.615139007568359375e+00 -6.735650913469726220e-06 -7.206999725895002484e-05 -2.364169449720066041e-05 5.216349018155597150e-05
1.376000000000000000e+03 7.248921394348144531e+00 -4.897098064422607422e+00 -8.222217002185061574e-05 1.580347161507233977e-04 2.274376493005547673e-05 -1.517345117463264614e-05
1.377000000000000000e+03 6.562276363372802734e+00 -1.867008328437805176e+00 -3.122849739156663418e-05 3.194042801624163985e-05 2.135787724455440184e-07 5.802471059723757207e-05
1.378000000000000000e+03 6.658782482147216797e+00 -2.601323843002319336e+00 -1.171746680483920500e-05 -1.392524609400425106e-05 -7.692813596804626286e-06 -5.743905421695671976e-05
1.379000000000000000e+03 5.184806346893310547e+00 -2.693797588348388672e+00 -7.759941581753082573e-06 -1.735086698317900300e-05 -7.533242751378566027e-06 -7.425525109283626080e-05
1.380000000000000000e+03 1.616609692573547363e+00 -7.858222007751464844e+00 -1.233213115483522415e-04 -3.499909507809206843e-05 -4.749611980514600873e-05 -1.153956254711374640e-04
1.381000000000000000e+03 3.964739322662353516e+00 -3.769622087478637695e+00 -1.285681150875461753e-06 4.671905116993002594e-05 1.363001047138823196e-05 5.300439806887879968e-05
1.382000000000000000e+03 1.569321632385253906e+00 -6.545792579650878906e+00 1.357279252260923386e-04 -3.842394653474912047e-05 2.919119469879660755e-05 4.519463982433080673e-05
1.383000000000000000e+03 4.956959784030914307e-01 -3.598009109497070312e+00 -7.897041359683498740e-05 -4.192238338873721659e-05 -3.626783654908649623e-05 -3.904120967490598559e-05
1.384000000000000000e+03 4.010869264602661133e-01 -2.190470218658447266e+00 4.881646236754022539e-05 -1.070452071871841326e-05 1.143358349509071559e-05 1.422925743099767715e-05
1.385000000000000000e+03 5.470684766769409180e-01 -5.046504497528076172e+00 1.246595202246680856e-04 -7.747377094347029924e-05 1.415572478435933590e-05 1.684995913819875568e-05
1.386000000000000000e+03 2.562384605407714844e+01 -8.567918777465820312e+00 -3.362204134464263916e-01 -7.886889507062733173e-04 -1.011027321219444275e-01 -8.233233541250228882e-02
1.387000000000000000e+03 2.711642456054687500e+01 -9.387104988098144531e+00 -3.990496993064880371e-01 -7.277933880686759949e-03 -1.218982934951782227e-01 -1.224855929613113403e-01
1.388000000000000000e+03 2.868183898925781250e+01 -9.415662765502929688e+00 -4.662922024726867676e-01 -1.148825138807296753e-02 -1.433341354131698608e-01 -1.298319995403289795e-01
1.389000000000000000e+03 2.633145904541015625e+01 -9.354044914245605469e+00 -3.662250936031341553e-01 -4.367718007415533066e-03 -1.111778467893600464e-01 -1.182819157838821411e-01
1.390000000000000000e+03 2.173842430114746094e+01 -8.226617813110351562e+00 -1.678198128938674927e-01 5.636336281895637512e-03 -4.865504428744316101e-02 -6.564573943614959717e-02
1.391000000000000000e+03 2.323996925354003906e+01 -9.116181373596191406e+00 -2.423180788755416870e-01 4.002441186457872391e-03 -7.149469107389450073e-02 -1.006965637207031250e-01
1.392000000000000000e+03 2.044443702697753906e+01 -1.009528064727783203e+01 -1.764570027589797974e-01 -1.147951930761337280e-02 -5.638095736503601074e-02 -1.182838231325149536e-01
1.393000000000000000e+03 2.083619689941406250e+01 -9.096081733703613281e+00 -1.577068865299224854e-01 -2.902156673371791840e-03 -4.818271100521087646e-02 -9.041662514209747314e-02
1.394000000000000000e+03 2.485007286071777344e+01 -8.506853103637695312e+00 -3.002972006797790527e-01 1.125405658967792988e-03 -8.975153416395187378e-02 -7.926284521818161011e-02
1.395000000000000000e+03 2.478115272521972656e+01 -9.239202499389648438e+00 -3.029178380966186523e-01 5.684090428985655308e-04 -9.070482850074768066e-02 -1.097899675369262695e-01
1.396000000000000000e+03 2.401200866699218750e+01 -9.176002502441406250e+00 -2.721678614616394043e-01 2.184920711442828178e-03 -8.099488168954849243e-02 -1.057463362812995911e-01
1.397000000000000000e+03 2.196337509155273438e+01 -3.645303249359130859e+00 -5.165826156735420227e-02 -3.978754207491874695e-02 -2.743374183773994446e-02 5.440693348646163940e-02
1.398000000000000000e+03 2.055778694152832031e+01 -3.173691749572753906e+00 -2.341805770993232727e-02 -3.361786529421806335e-02 -1.711077801883220673e-02 2.745270729064941406e-02
1.399000000000000000e+03 1.214173793792724609e+01 -1.969981193542480469e+01 -1.267673522233963013e-01 -1.889989078044891357e-01 -9.472987800836563110e-02 -1.384333819150924683e-01
1.400000000000000000e+03 4.158388614654541016e+00 -1.908764457702636719e+01 -2.726890332996845245e-02 -2.188362553715705872e-02 -1.474575884640216827e-02 -1.886449195444583893e-02
1.401000000000000000e+03 1.253864479064941406e+01 1.983177185058593750e+01 -3.709695637226104736e-01 -5.662453770637512207e-01 -2.811644971370697021e-01 4.051865339279174805e-01
1.402000000000000000e+03 8.720245361328125000e+00 2.013886451721191406e+01 -3.264519870281219482e-01 -1.016430258750915527e-01 -1.284285038709640503e-01 2.532311379909515381e-01
1.403000000000000000e+03 1.935496902465820312e+01 8.201928138732910156e+00 -1.751260757446289062e-01 -7.448110580444335938e-01 -2.759811282157897949e-01 3.551807105541229248e-01
1.404000000000000000e+03 1.905987548828125000e+01 9.577569007873535156e+00 -2.498853653669357300e-01 -8.248676061630249023e-01 -3.224259018898010254e-01 4.073547720909118652e-01
1.405000000000000000e+03 1.380413436889648438e+01 1.883281707763671875e+01 -4.659873545169830322e-01 -6.651273965835571289e-01 -3.393344283103942871e-01 4.577225148677825928e-01
1.406000000000000000e+03 1.406276702880859375e+01 1.661257743835449219e+01 -7.183595299720764160e-01 -8.026310205459594727e-01 -4.562971591949462891e-01 7.018676996231079102e-01
1.407000000000000000e+03 1.713452720642089844e+01 1.179189968109130859e+01 -2.996170818805694580e-01 -1.150752305984497070e+00 -4.351108074188232422e-01 5.468161702156066895e-01
1.408000000000000000e+03 1.723577499389648438e+01 1.540057659149169922e+01 -4.802094399929046631e-01 -8.465275764465332031e-01 -3.980211019515991211e-01 4.858377575874328613e-01
1.409000000000000000e+03 2.017090988159179688e+01 2.580496788024902344e+00 -4.737190529704093933e-02 -2.901175320148468018e-01 -1.012468263506889343e-01 1.644937396049499512e-01
1.410000000000000000e+03 6.275174021720886230e-01 1.622316360473632812e+01 1.115604303777217865e-03 2.111770026385784149e-02 6.669991649687290192e-03 -4.587682895362377167e-03
1.411000000000000000e+03 1.961503028869628906e+01 6.829887866973876953e+00 -1.171627342700958252e-01 -6.287893056869506836e-01 -2.237856090068817139e-01 2.885994613170623779e-01
1.412000000000000000e+03 1.829005622863769531e+01 1.237516117095947266e+01 -3.529870212078094482e-01 -9.327138662338256836e-01 -3.857102692127227783e-01 4.985086023807525635e-01
1.413000000000000000e+03 1.502408790588378906e+01 1.784232902526855469e+01 -4.731099307537078857e-01 -7.784084677696228027e-01 -3.754555284976959229e-01 4.920152425765991211e-01
1.414000000000000000e+03 1.892574691772460938e+01 8.937524557113647461e-01 -5.589347332715988159e-03 -1.388800591230392456e-01 -4.334082454442977905e-02 3.845511749386787415e-02
1.415000000000000000e+03 2.004157638549804688e+01 1.157321453094482422e+00 -2.625029534101486206e-02 -1.943385004997253418e-01 -6.617663800716400146e-02 1.088400110602378845e-01
1.416000000000000000e+03 1.781699943542480469e+01 1.382936668395996094e+01 -4.434191584587097168e-01 -9.068928360939025879e-01 -4.050935804843902588e-01 5.331098437309265137e-01
1.417000000000000000e+03 2.227872657775878906e+01 -2.023837327957153320e+00 -7.548338919878005981e-02 -8.222926408052444458e-02 -4.731379821896553040e-02 1.068786233663558960e-01
1.418000000000000000e+03 1.894018173217773438e+01 -1.701933503150939941e+00 -3.138581290841102600e-03 -2.166518568992614746e-02 -7.441130001097917557e-03 1.346198469400405884e-02
1.419000000000000000e+03 3.808407306671142578e+00 -1.557678413391113281e+01 1.885077916085720062e-03 -8.051063865423202515e-03 -1.849795924499630928e-03 1.805554958991706371e-03
1.420000000000000000e+03 6.171053051948547363e-01 -1.774758148193359375e+01 -6.707817083224654198e-04 1.499163918197154999e-02 4.296257160604000092e-03 1.428986550308763981e-03
1.421000000000000000e+03 1.260853004455566406e+01 -1.820968437194824219e+01 -1.944975554943084717e-01 -1.778504550457000732e-01 -1.117044091224670410e-01 -1.554462909698486328e-01
1.422000000000000000e+03 1.025572872161865234e+01 -2.519941091537475586e+00 -8.727024578547570854e-06 2.606476846267469227e-05 5.201323347137076780e-06 8.126380271278321743e-05
1.423000000000000000e+03 1.647486114501953125e+01 -1.041591739654541016e+01 -6.948629021644592285e-02 -1.067965477705001831e-01 -5.288485065102577209e-02 -8.904866874217987061e-02
1.424000000000000000e+03 1.730242919921875000e+01 -1.116762924194335938e+01 -1.257452964782714844e-01 -7.931833714246749878e-02 -6.151909008622169495e-02 -1.215754598379135132e-01
1.425000000000000000e+03 1.576726150512695312e+01 -1.155509376525878906e+01 -9.665652364492416382e-02 -1.566189676523208618e-01 -7.598265260457992554e-02 -1.228811740875244141e-01
1.426000000000000000e+03 2.168621253967285156e+01 -9.035002708435058594e+00 -1.856905817985534668e-01 3.388383891433477402e-03 -5.469065904617309570e-02 -9.147767722606658936e-02
1.427000000000000000e+03 1.345813941955566406e+01 -1.691866493225097656e+01 -2.045136243104934692e-01 -1.812539547681808472e-01 -1.157302707433700562e-01 -1.814095675945281982e-01
1.428000000000000000e+03 1.662411689758300781e+01 -1.222805976867675781e+01 -1.465003341436386108e-01 -1.113706007599830627e-01 -7.736127823591232300e-02 -1.419040411710739136e-01
1.429000000000000000e+03 1.363917732238769531e+01 -3.803671360015869141e+00 -2.475296423654071987e-05 -6.294574995990842581e-05 -2.630961535032838583e-05 1.992781562876189128e-06
1.430000000000000000e+03 1.590717697143554688e+01 -1.336892604827880859e+01 -1.696523576974868774e-01 -1.407563537359237671e-01 -9.312261641025543213e-02 -1.583198010921478271e-01
1.431000000000000000e+03 1.513451099395751953e+01 -1.454306983947753906e+01 -1.829114407300949097e-01 -1.643544584512710571e-01 -1.041797697544097900e-01 -1.687353700399398804e-01
1.432000000000000000e+03 1.049095439910888672e+01 -9.205997467041015625e+00 -1.259553973795846105e-04 -1.681282883509993553e-04 -8.822510426398366690e-05 5.136396794114261866e-05
1.433000000000000000e+03 9.539518356323242188e+00 -8.684423446655273438e+00 5.593004607362672687e-05 1.031158317346125841e-04 4.771376188728027046e-05 -1.225599989993497729e-04
1.434000000000000000e+03 1.111357212066650391e+01 -6.616710186004638672e+00 3.381237547728233039e-05 4.201601041131652892e-05 2.274851613037753850e-05 -7.117296627257019281e-05
1.435000000000000000e+03 1.036365985870361328e+01 -7.637361049652099609e+00 -1.190686907648341730e-05 -1.704032183624804020e-04 -5.469302413985133171e-05 9.390040941070765257e-05
1.436000000000000000e+03 1.775543689727783203e+00 -1.051844978332519531e+01 9.020373545354232192e-05 1.424106594640761614e-04 6.978432065807282925e-05 2.940488047897815704e-04
1.437000000000000000e+03 8.117605209350585938e+00 -1.262736225128173828e+01 2.898551174439489841e-04 8.754737791605293751e-04 3.495986748021095991e-04 -4.506599216256290674e-04
1.438000000000000000e+03 1.042477703094482422e+01 -4.054865360260009766e+00 -1.484249696659389883e-05 7.226118759717792273e-05 1.722560773487202823e-05 -4.621717380359768867e-05
1.439000000000000000e+03 7.741834259033203125e+01 3.385949707031250000e+01 1.473648753017187119e-02 4.076696395874023438e+00 1.227429866790771484e+00 -9.538962692022323608e-02
1.440000000000000000e+03 7.931020355224609375e+01 -2.784038352966308594e+01 -1.625639619305729866e-03 6.337830066680908203e+00 1.900861263275146484e+00 1.354381889104843140e-01
1.441000000000000000e+03 7.918631744384765625e+01 -3.491397857666015625e+01 1.784056238830089569e-02 5.396435737609863281e+00 1.624282836914062500e+00 7.437103241682052612e-02
1.442000000000000000e+03 7.943603515625000000e+01 -2.085857009887695312e+01 2.455258741974830627e-02 8.447823524475097656e+00 2.541712760925292969e+00 2.335157841444015503e-01
1.443000000000000000e+03 7.793782043457031250e+01 -2.775505256652832031e+01 5.432240292429924011e-02 6.028530120849609375e+00 1.824855804443359375e+00 3.873202502727508545e-01
1.444000000000000000e+03 7.802826690673828125e+01 -2.634362983703613281e+01 4.188913106918334961e-02 6.311716556549072266e+00 1.906081676483154297e+00 4.328747987747192383e-01
1.445000000000000000e+03 7.923023986816406250e+01 -3.065993690490722656e+01 -3.609983017668128014e-03 5.859908580780029297e+00 1.756889581680297852e+00 1.093310937285423279e-01
1.446000000000000000e+03 7.749617767333984375e+01 -3.361038589477539062e+01 4.801440238952636719e-02 5.231531620025634766e+00 1.583863854408264160e+00 2.232912778854370117e-01
1.447000000000000000e+03 7.699897766113281250e+01 -3.883588027954101562e+01 1.729727722704410553e-02 4.970332145690917969e+00 1.496288895606994629e+00 1.421340107917785645e-01
1.448000000000000000e+03 7.807920837402343750e+01 2.217716026306152344e+01 1.520374789834022522e-02 4.882996559143066406e+00 1.469460129737854004e+00 -2.114116847515106201e-01
1.449000000000000000e+03 7.811293792724609375e+01 1.535406780242919922e+01 4.240750521421432495e-02 5.851917743682861328e+00 1.768297553062438965e+00 -3.790310621261596680e-01
1.450000000000000000e+03 7.763390350341796875e+01 2.917039108276367188e+01 2.011467330157756805e-02 4.293224334716796875e+00 1.294001698493957520e+00 -1.376127153635025024e-01
1.451000000000000000e+03 7.925407409667968750e+01 2.783257675170898438e+01 2.485507167875766754e-03 4.530156612396240234e+00 1.359792709350585938e+00 -5.258958414196968079e-02
1.452000000000000000e+03 7.790203094482421875e+01 2.629787826538085938e+01 1.835189200937747955e-02 4.502271175384521484e+00 1.356186866760253906e+00 -1.614802479743957520e-01
1.453000000000000000e+03 7.798102569580078125e+01 2.490941047668457031e+01 1.292680669575929642e-02 4.619706630706787109e+00 1.389790058135986328e+00 -1.754675209522247314e-01
1.454000000000000000e+03 7.932393646240234375e+01 2.503342819213867188e+01 4.901647567749023438e-03 4.756714820861816406e+00 1.428485035896301270e+00 -5.975971370935440063e-02
1.455000000000000000e+03 7.812446594238281250e+01 1.945256042480468750e+01 1.945066452026367188e-02 5.209124565124511719e+00 1.568572640419006348e+00 -2.599546015262603760e-01
1.456000000000000000e+03 7.937538146972656250e+01 1.810723114013671875e+01 1.527297194115817547e-03 5.617145538330078125e+00 1.685601830482482910e+00 -9.829008579254150391e-02
1.457000000000000000e+03 7.812384796142578125e+01 1.672615432739257812e+01 2.653570286929607391e-02 5.613584041595458984e+00 1.692036032676696777e+00 -3.310784399509429932e-01
1.458000000000000000e+03 7.812937927246093750e+01 1.809126091003417969e+01 3.094722889363765717e-02 5.400688171386718750e+00 1.629490613937377930e+00 -2.935794591903686523e-01
1.459000000000000000e+03 7.681299591064453125e+01 1.265171432495117188e+01 1.169599220156669617e-01 5.958250522613525391e+00 1.822563171386718750e+00 -7.535520792007446289e-01
1.460000000000000000e+03 7.799673461914062500e+01 9.719411849975585938e+00 8.430460840463638306e-02 7.142646312713623047e+00 2.168085336685180664e+00 -6.952408552169799805e-01
1.461000000000000000e+03 7.851726531982421875e+01 -1.226046466827392578e+01 -1.956958770751953125e-01 1.259100246429443359e+01 3.718591928482055664e+00 1.172858476638793945e+00
1.462000000000000000e+03 7.959050750732421875e+01 -1.107751083374023438e+01 -1.569003313779830933e-01 1.538729572296142578e+01 4.569118499755859375e+00 1.583958864212036133e-01
1.463000000000000000e+03 7.836620330810546875e+01 -1.518875980377197266e+01 8.049576729536056519e-02 1.052284908294677734e+01 3.181003332138061523e+00 1.156117677688598633e+00
1.464000000000000000e+03 7.972116851806640625e+01 -5.443508625030517578e+00 3.730754554271697998e-01 7.516717910766601562e+00 2.366937875747680664e+00 1.156893730163574219e+00
1.465000000000000000e+03 7.950665283203125000e+01 -2.849993228912353516e+00 -2.155362665653228760e-01 1.531529045104980469e+01 4.529926300048828125e+00 2.784041166305541992e-01
1.466000000000000000e+03 7.920185852050781250e+01 2.925067520141601562e+01 3.025580197572708130e-03 4.437345504760742188e+00 1.332111239433288574e+00 -4.763655364513397217e-02
1.467000000000000000e+03 7.745118713378906250e+01 3.067430496215820312e+01 1.768165640532970428e-02 4.195373535156250000e+00 1.263916492462158203e+00 -1.248058602213859558e-01
1.468000000000000000e+03 7.944898223876953125e+01 -1.946544265747070312e+01 4.562070593237876892e-03 9.108258247375488281e+00 2.733845949172973633e+00 2.728406488895416260e-01
1.469000000000000000e+03 7.792501831054687500e+01 4.158619308471679688e+01 4.256116226315498352e-02 3.979653358459472656e+00 1.206664323806762695e+00 -1.190292369574308395e-02
1.470000000000000000e+03 7.310485839843750000e+01 3.744969177246093750e+01 8.769594877958297729e-02 3.536927938461303711e+00 1.087387204170227051e+00 -1.035811528563499451e-01
1.471000000000000000e+03 7.928256225585937500e+01 3.495038986206054688e+01 1.847607549279928207e-03 4.186225414276123047e+00 1.256421923637390137e+00 -2.453889325261116028e-02
1.472000000000000000e+03 7.750691986083984375e+01 3.749621582031250000e+01 9.503858746029436588e-04 3.990311622619628906e+00 1.197378635406494141e+00 -7.193316519260406494e-02
1.473000000000000000e+03 7.803993225097656250e+01 1.116513729095458984e+01 6.065820530056953430e-02 6.749130725860595703e+00 2.042936563491821289e+00 -5.802905559539794922e-01
1.474000000000000000e+03 7.756101989746093750e+01 2.555243492126464844e+00 1.608569473028182983e-01 9.488156318664550781e+00 2.894703865051269531e+00 -1.583761096000671387e+00
1.475000000000000000e+03 7.946746063232421875e+01 4.129633903503417969e+00 -2.230725437402725220e-02 1.058199119567871094e+01 3.167905092239379883e+00 -3.405389189720153809e-01
1.476000000000000000e+03 7.857594299316406250e+01 1.368852376937866211e+00 4.175283014774322510e-02 1.153684806823730469e+01 3.473580360412597656e+00 -1.141975164413452148e+00
1.477000000000000000e+03 7.841033172607421875e+01 3.999377489089965820e+00 9.990961104631423950e-02 9.706995964050292969e+00 2.942071914672851562e+00 -1.004398345947265625e+00
1.478000000000000000e+03 7.945226287841796875e+01 -1.667711257934570312e+01 1.652683690190315247e-02 1.077905750274658203e+01 3.238675355911254883e+00 3.611102998256683350e-01
1.479000000000000000e+03 7.831662750244140625e+01 -2.076190948486328125e+01 5.723218619823455811e-02 7.927712440490722656e+00 2.395483255386352539e+00 6.769636869430541992e-01
1.480000000000000000e+03 7.835715484619140625e+01 -1.937784957885742188e+01 9.223446249961853027e-02 8.471395492553710938e+00 2.569088935852050781e+00 7.681890130043029785e-01
1.481000000000000000e+03 7.544519805908203125e+01 -4.439600944519042969e+00 -5.005908012390136719e-01 4.644360542297363281e+00 1.243130922317504883e+00 -4.177830219268798828e+00
1.482000000000000000e+03 7.969602203369140625e+01 -8.378212928771972656e+00 -3.936083018779754639e-01 1.225607395172119141e+01 3.558739662170410156e+00 -1.316968202590942383e+00
1.483000000000000000e+03 7.720343017578125000e+01 -8.076608657836914062e+00 -3.349825382232666016e+00 1.920780372619628906e+01 4.757393360137939453e+00 3.809455156326293945e+00
1.484000000000000000e+03 7.539399147033691406e+00 1.984479522705078125e+01 -2.215562611818313599e-01 -2.842632308602333069e-02 -7.499477267265319824e-02 1.072818934917449951e-01
1.485000000000000000e+03 8.850649833679199219e+00 1.869334602355957031e+01 -2.394993007183074951e-01 1.229558605700731277e-02 -6.816111505031585693e-02 7.932294160127639771e-02
1.486000000000000000e+03 1.353147268295288086e+00 -4.009097671508789062e+01 3.444459056481719017e-03 -2.885985672473907471e-01 -8.554623275995254517e-02 -2.850666409358382225e-03
1.487000000000000000e+03 6.872112154960632324e-01 3.738370895385742188e+01 3.068879246711730957e-03 -5.081112384796142578e-01 -1.515127122402191162e-01 8.556615561246871948e-03
1.488000000000000000e+03 6.181442141532897949e-01 3.464455795288085938e+01 3.182012122124433517e-03 -4.547057747840881348e-01 -1.354571282863616943e-01 1.521159801632165909e-02
1.489000000000000000e+03 6.292399764060974121e-01 3.325505065917968750e+01 1.451450632885098457e-03 -4.140395522117614746e-01 -1.237764284014701843e-01 2.072653546929359436e-02
1.490000000000000000e+03 6.394642591476440430e-01 2.762315368652343750e+01 1.196028533740900457e-04 -1.822616457939147949e-01 -5.464261397719383240e-02 2.921365946531295776e-02
1.491000000000000000e+03 6.442060470581054688e-01 2.620893287658691406e+01 -7.778613362461328506e-04 -1.184142678976058960e-01 -3.575763851404190063e-02 2.850810252130031586e-02
1.492000000000000000e+03 8.532921075820922852e-01 -3.592702102661132812e+01 1.062270835973322392e-03 -2.650581002235412598e-01 -7.919875532388687134e-02 -8.045964874327182770e-03
1.493000000000000000e+03 2.204177856445312500e+00 -3.279183959960937500e+01 4.536433611065149307e-03 -2.149296253919601440e-01 -6.311795860528945923e-02 -3.489763289690017700e-02
1.494000000000000000e+03 3.204710960388183594e+00 2.618616294860839844e+01 -1.387988310307264328e-02 -1.932212859392166138e-01 -6.213035061955451965e-02 1.214253306388854980e-01
1.495000000000000000e+03 3.267868041992187500e+00 2.474149513244628906e+01 -1.794286444783210754e-02 -1.519763916730880737e-01 -5.097577720880508423e-02 1.120810061693191528e-01
1.496000000000000000e+03 1.847319245338439941e+00 3.450316238403320312e+01 8.586642332375049591e-03 -4.398385882377624512e-01 -1.293755918741226196e-01 4.812151566147804260e-02
1.497000000000000000e+03 1.898007392883300781e+00 3.317466354370117188e+01 9.969617240130901337e-03 -4.013572931289672852e-01 -1.174162998795509338e-01 5.969970300793647766e-02
1.498000000000000000e+03 2.329884290695190430e+00 3.801026535034179688e+01 9.797110222280025482e-03 -4.991720318794250488e-01 -1.468124836683273315e-01 3.023790381848812103e-02
1.499000000000000000e+03 3.319529056549072266e+00 3.890299987792968750e+01 1.236085966229438782e-02 -5.007652640342712402e-01 -1.465213149785995483e-01 4.004450142383575439e-02
1.500000000000000000e+03 1.939101099967956543e+00 -3.011587524414062500e+01 2.551772631704807281e-03 -1.736195832490921021e-01 -5.132034420967102051e-02 -3.832967206835746765e-02
1.501000000000000000e+03 1.842822194099426270e+00 -2.743923950195312500e+01 7.756971754133701324e-04 -1.236067339777946472e-01 -3.684931248426437378e-02 -3.997845202684402466e-02
1.502000000000000000e+03 2.714424371719360352e+00 -3.679452514648437500e+01 6.554815452545881271e-03 -2.589095234870910645e-01 -7.570641487836837769e-02 -2.316172793507575989e-02
1.503000000000000000e+03 5.422632217407226562e+00 -1.726733207702636719e+01 -1.297632325440645218e-02 -1.300005335360765457e-02 -7.792912889271974564e-03 1.472424948588013649e-03
1.504000000000000000e+03 5.930463075637817383e-01 2.051577758789062500e+01 -2.554090926423668861e-03 3.644048050045967102e-02 1.016591675579547882e-02 2.134582959115505219e-03
1.505000000000000000e+03 6.247275471687316895e-01 1.908984375000000000e+01 -8.177490090020000935e-04 3.718588128685951233e-02 1.091044023633003235e-02 -1.862391596660017967e-03
1.506000000000000000e+03 6.280831694602966309e-01 1.481060695648193359e+01 -1.468773698434233665e-04 1.206690259277820587e-02 3.576007438823580742e-03 -3.262487705796957016e-03
1.507000000000000000e+03 6.149015426635742188e-01 1.341077518463134766e+01 1.364727737382054329e-03 5.731232464313507080e-03 2.128788037225604057e-03 -2.152804052457213402e-03
1.508000000000000000e+03 5.118202567100524902e-01 7.817716121673583984e+00 3.784122818615287542e-04 -2.387450513197109103e-04 4.190016989014111459e-05 -1.377653388772159815e-04
1.509000000000000000e+03 6.144225001335144043e-01 -1.916504669189453125e+01 -1.769428490661084652e-03 1.497343089431524277e-02 3.961200825870037079e-03 -1.419832231476902962e-03
1.510000000000000000e+03 1.695637226104736328e+00 -9.184678077697753906e+00 2.940739796031266451e-04 -5.768478786194464192e-06 8.649165101815015078e-05 1.790939713828265667e-04
1.511000000000000000e+03 3.514933824539184570e+00 -3.919203186035156250e+01 8.629652671515941620e-03 -2.703242301940917969e-01 -7.850836962461471558e-02 -2.008081786334514618e-02
1.512000000000000000e+03 6.446197986602783203e+00 -3.581676483154296875e+01 3.270953148603439331e-02 -2.357021421194076538e-01 -6.089778244495391846e-02 -5.779989808797836304e-02
1.513000000000000000e+03 2.371530771255493164e+00 -3.412482833862304688e+01 5.532242357730865479e-03 -2.319863140583038330e-01 -6.793621927499771118e-02 -3.182749077677726746e-02
1.514000000000000000e+03 2.056324720382690430e+00 -3.145703506469726562e+01 2.546005416661500931e-03 -1.956375539302825928e-01 -5.792746692895889282e-02 -3.688635677099227905e-02
1.515000000000000000e+03 3.048993587493896484e+00 -2.732608604431152344e+01 -1.924350945046171546e-04 -1.311905682086944580e-01 -3.941490128636360168e-02 -6.140993908047676086e-02
1.516000000000000000e+03 1.894252419471740723e+00 -2.473963356018066406e+01 -2.646235283464193344e-03 -7.335694879293441772e-02 -2.280095405876636505e-02 -3.704391792416572571e-02
1.517000000000000000e+03 1.861044406890869141e+00 -2.610673522949218750e+01 -2.021007239818572998e-03 -9.808479249477386475e-02 -3.003174066543579102e-02 -3.950238227844238281e-02
1.518000000000000000e+03 6.243716478347778320e-01 -2.057547760009765625e+01 -1.152543583884835243e-03 7.872126996517181396e-03 2.015875186771154404e-03 -4.744088277220726013e-03
1.519000000000000000e+03 3.180627584457397461e+00 -2.189525413513183594e+01 -1.684964634478092194e-02 -4.619926586747169495e-02 -1.891467347741127014e-02 -4.116144031286239624e-02
1.520000000000000000e+03 1.932013630867004395e+00 -1.628309822082519531e+01 5.971162863716017455e-06 -8.252065890701487660e-05 -2.296484854014124721e-05 4.942984320223331451e-03
1.521000000000000000e+03 1.834162950515747070e+00 -1.186984729766845703e+01 8.008609293028712273e-04 2.529073390178382397e-04 3.161304921377450228e-04 9.407809702679514885e-04
1.522000000000000000e+03 6.052736639976501465e-01 -1.203283023834228516e+01 -2.544249582570046186e-04 8.372477022930979729e-04 1.748468203004449606e-04 3.739420790225267410e-04
1.523000000000000000e+03 8.674862861633300781e+00 -9.769506454467773438e+00 -3.965046289522433653e-06 -2.582710294518619776e-04 -7.867081876611337066e-05 1.494063035352155566e-04
1.524000000000000000e+03 5.371938228607177734e+00 -3.479055643081665039e+00 -3.160141204716637731e-05 7.006218220340088010e-05 1.153823086497141048e-05 7.723474845988675952e-05
1.525000000000000000e+03 3.712010622024536133e+00 -2.904654979705810547e+00 -2.770337414403911680e-05 -1.106806394091108814e-05 -1.163143133453559130e-05 -7.480197382392361760e-05
1.526000000000000000e+03 2.928107500076293945e+00 -3.085484266281127930e+00 2.092135764542035758e-05 1.587581937201321125e-05 1.103915292333113030e-05 2.685406252567190677e-05
1.527000000000000000e+03 2.125799655914306641e+00 -3.174265861511230469e+00 -4.866989183938130736e-05 -1.359903035336174071e-05 -1.868067738541867584e-05 -4.206363882985897362e-05
1.528000000000000000e+03 1.360043287277221680e+00 -3.362811088562011719e+00 1.171981966763269156e-05 3.135991937597282231e-05 1.292392153118271381e-05 2.643939296831376851e-05
1.529000000000000000e+03 4.511677622795104980e-01 5.054516792297363281e+00 1.040823772200383246e-04 -1.879509218269959092e-04 -2.516056338208727539e-05 -5.844455154146999121e-05
1.530000000000000000e+03 1.653673171997070312e+00 1.042439270019531250e+01 2.433358458802103996e-04 4.904910456389188766e-04 2.201480674557387829e-04 -5.319463671185076237e-04
1.531000000000000000e+03 5.509949922561645508e-01 1.060789680480957031e+01 7.656051893718540668e-04 4.800573806278407574e-04 3.736987709999084473e-04 -4.966802662238478661e-04
1.532000000000000000e+03 1.879174947738647461e+00 1.317342662811279297e+01 1.938043395057320595e-03 1.487245084717869759e-03 1.027586520649492741e-03 -4.127673339098691940e-03
1.533000000000000000e+03 1.909208059310913086e+00 1.456581497192382812e+01 3.059714101254940033e-03 2.027797512710094452e-03 1.526253530755639076e-03 -7.029892411082983017e-03
1.534000000000000000e+03 1.876036047935485840e+00 1.599233627319335938e+01 1.461747684516012669e-03 3.680281108245253563e-03 1.542608602903783321e-03 -9.598566219210624695e-03
1.535000000000000000e+03 1.953976750373840332e+00 2.471544075012207031e+01 -1.192272454500198364e-02 -1.107844039797782898e-01 -3.681213781237602234e-02 7.152431458234786987e-02
1.536000000000000000e+03 9.333154678344726562e+00 1.102589607238769531e+01 -1.814903807826340199e-04 2.383891260251402855e-03 6.607202230952680111e-04 5.890803295187652111e-04
1.537000000000000000e+03 1.243012237548828125e+01 8.446791648864746094e+00 6.123024504631757736e-04 4.846388474106788635e-04 3.290823951829224825e-04 6.229086429812014103e-04
1.538000000000000000e+03 1.467385673522949219e+01 4.922066211700439453e+00 3.037629358004778624e-04 -7.587148138554766774e-05 6.836742977611720562e-05 7.403051131404936314e-05
1.539000000000000000e+03 1.181714534759521484e+01 2.563090085983276367e+00 1.430485572200268507e-04 -6.272617611102759838e-05 2.409671469649765640e-05 1.095224724849686027e-04
1.540000000000000000e+03 1.038443851470947266e+01 1.339632797241210938e+01 -2.045085188001394272e-03 -1.479337457567453384e-03 -1.057326793670654297e-03 -1.506975153461098671e-03
1.541000000000000000e+03 8.472681999206542969e+00 1.035415554046630859e+01 7.153327460400760174e-04 -8.575893589295446873e-04 -4.267699841875582933e-05 5.010908935219049454e-04
1.542000000000000000e+03 8.434409141540527344e+00 1.381523895263671875e+01 -8.235560380853712559e-04 1.565625309012830257e-03 2.226207579951733351e-04 -1.556789735332131386e-03
1.543000000000000000e+03 1.176105880737304688e+01 3.345611572265625000e+00 -2.612044918350875378e-04 4.395715950522571802e-05 -6.517420115415006876e-05 -3.772077325265854597e-04
1.544000000000000000e+03 7.115763187408447266e+00 -1.213917922973632812e+01 -3.400354398763738573e-05 1.609000464668497443e-04 3.806895256275311112e-05 -2.010382740991190076e-04
1.545000000000000000e+03 7.830479621887207031e+00 -1.091514968872070312e+01 7.692163489991798997e-05 5.777693586423993111e-04 1.964072871487587690e-04 -3.202199586667120457e-04
1.546000000000000000e+03 7.710350799560546875e+01 -4.380770683288574219e+00 -3.041984558105468750e+00 1.661773109436035156e+01 4.072723865509033203e+00 -3.997709989547729492e+00
1.547000000000000000e+03 7.457589721679687500e+01 -8.865926742553710938e+00 -8.027970790863037109e-01 2.682980060577392578e+00 5.640549063682556152e-01 2.587975263595581055e+00
1.548000000000000000e+03 7.792838287353515625e+01 -8.789458274841308594e+00 -2.899683475494384766e+00 1.745425987243652344e+01 4.366373062133789062e+00 3.398332595825195312e-01
1.549000000000000000e+03 7.544234466552734375e+01 -8.536617279052734375e+00 -4.983002841472625732e-01 5.075027465820312500e+00 1.373018145561218262e+00 4.149091243743896484e+00
1.550000000000000000e+03 7.641229248046875000e+01 -9.235671043395996094e+00 -1.505651235580444336e+00 1.056466674804687500e+01 2.717704534530639648e+00 4.027947425842285156e+00
1.551000000000000000e+03 7.485483551025390625e+01 -4.725495815277099609e+00 -1.338065743446350098e+00 1.985547542572021484e+00 1.942445337772369385e-01 -2.252750873565673828e+00
1.552000000000000000e+03 7.625765228271484375e+01 -4.739471912384033203e+00 -8.560283184051513672e-01 9.200734138488769531e+00 2.503411531448364258e+00 -6.140429496765136719e+00
1.553000000000000000e+03 7.762316894531250000e+01 2.230552583932876587e-01 -2.993712574243545532e-02 1.067700195312500000e+01 3.194119453430175781e+00 -1.745868086814880371e+00
1.554000000000000000e+03 7.539675140380859375e+01 -4.149366378784179688e+00 -6.389753222465515137e-01 5.203322887420654297e+00 1.369304299354553223e+00 -4.049160957336425781e+00
1.555000000000000000e+03 7.783869934082031250e+01 -4.880609512329101562e+00 -2.666749954223632812e+00 2.161258888244628906e+01 5.683751583099365234e+00 6.965836882591247559e-01
1.556000000000000000e+03 7.742634582519531250e+01 -4.333238124847412109e+00 -3.072355031967163086e+00 1.766910552978515625e+01 4.379024982452392578e+00 -2.390521049499511719e+00
1.557000000000000000e+03 7.896140289306640625e+01 -6.846508502960205078e+00 2.319485187530517578e+00 1.404258155822753906e+01 4.908619880676269531e+00 -2.203256368637084961e+00
1.558000000000000000e+03 7.844587707519531250e+01 -7.303228378295898438e+00 2.299713850021362305e+00 1.876432991027832031e+01 6.319212913513183594e+00 -4.120062828063964844e+00
1.559000000000000000e+03 7.839523315429687500e+01 -8.103036880493164062e+00 -1.753956794738769531e+00 1.864345359802246094e+01 5.066849231719970703e+00 -2.677691698074340820e+00
1.560000000000000000e+03 7.742366790771484375e+01 -8.072414398193359375e+00 -3.411972045898437500e+00 2.009612464904785156e+01 5.005245685577392578e+00 2.658771991729736328e+00
1.561000000000000000e+03 7.868748474121093750e+01 -5.820214748382568359e+00 3.225815296173095703e+00 1.623118782043457031e+01 5.837100982666015625e+00 3.592211246490478516e+00
1.562000000000000000e+03 7.878696441650390625e+01 -6.070366859436035156e+00 2.718776226043701172e+00 1.448381137847900391e+01 5.160776138305664062e+00 2.230605840682983398e+00
1.563000000000000000e+03 7.914407348632812500e+01 -5.869036197662353516e+00 1.697826981544494629e+00 1.256388759613037109e+01 4.278514385223388672e+00 1.975801467895507812e+00
1.564000000000000000e+03 7.871241760253906250e+01 -6.723493099212646484e+00 4.217882633209228516e+00 1.541498374938964844e+01 5.889859676361083984e+00 -1.762184619903564453e+00
1.565000000000000000e+03 7.374991607666015625e+01 -9.478884696960449219e+00 -7.621186971664428711e-01 2.149056196212768555e+00 4.160812795162200928e-01 1.820500493049621582e+00
1.566000000000000000e+03 7.364958953857421875e+01 -4.103506088256835938e+00 -1.749564886093139648e+00 1.178173303604125977e+00 -1.714174896478652954e-01 -1.191296577453613281e+00
1.567000000000000000e+03 7.357363891601562500e+01 -8.514694213867187500e+00 -2.038336038589477539e+00 9.596478343009948730e-01 -3.236064612865447998e-01 1.000411272048950195e+00
1.568000000000000000e+03 7.836846160888671875e+01 -1.371891880035400391e+01 5.803540721535682678e-02 1.141868686676025391e+01 3.443016767501831055e+00 1.300378322601318359e+00
1.569000000000000000e+03 7.250514221191406250e+01 -3.793191432952880859e+00 -2.049727678298950195e+00 5.561799407005310059e-01 -4.480642974376678467e-01 -5.247262120246887207e-01
1.570000000000000000e+03 7.257274627685546875e+01 -4.227254390716552734e+00 -2.638001203536987305e+00 3.647966086864471436e-01 -6.819613575935363770e-01 -3.161307573318481445e-01
1.571000000000000000e+03 7.145468902587890625e+01 -3.845216274261474609e+00 -2.567001581192016602e+00 2.445842325687408447e-01 -6.967251896858215332e-01 -5.061021819710731506e-02
1.572000000000000000e+03 7.150414276123046875e+01 -3.467614889144897461e+00 -2.088430881500244141e+00 3.741689622402191162e-01 -5.142785906791687012e-01 -2.220292687416076660e-01
1.573000000000000000e+03 2.168293952941894531e+01 -1.528992295265197754e+00 -5.844509601593017578e-02 -9.665627032518386841e-02 -4.653040692210197449e-02 1.030713841319084167e-01
1.574000000000000000e+03 2.100665283203125000e+01 -2.307340383529663086e+00 -3.636980429291725159e-02 -6.985710561275482178e-02 -3.186807408928871155e-02 6.152271851897239685e-02
1.575000000000000000e+03 6.958280181884765625e+01 -3.337111711502075195e+00 -2.445913791656494141e+00 1.019122079014778137e-01 -7.032005190849304199e-01 1.782560050487518311e-01
1.576000000000000000e+03 2.412404823303222656e+01 -3.363769054412841797e+00 -1.235626116394996643e-01 -4.470742493867874146e-02 -5.048101022839546204e-02 1.121608689427375793e-01
1.577000000000000000e+03 2.610282707214355469e+01 -4.151444435119628906e+00 -1.872408837080001831e-01 -2.341790869832038879e-02 -6.319763511419296265e-02 1.190420314669609070e-01
1.578000000000000000e+03 1.793485832214355469e+01 -8.685852050781250000e+00 -5.489678308367729187e-02 -2.964857406914234161e-02 -2.536360733211040497e-02 -5.056197196245193481e-02
1.579000000000000000e+03 3.049979400634765625e+01 -4.242491722106933594e+00 -4.082340002059936523e-01 -4.062038380652666092e-03 -1.236888170242309570e-01 1.584603041410446167e-01
1.580000000000000000e+03 2.698643493652343750e+01 -3.464616775512695312e+00 -2.369863837957382202e-01 -2.900628000497817993e-02 -7.979780435562133789e-02 1.609383970499038696e-01
1.581000000000000000e+03 3.904090642929077148e+00 2.696865081787109375e+00 -5.270736892271088436e-06 -4.892699143965728581e-05 -1.625931872695218772e-05 -6.790052430005744100e-05
1.582000000000000000e+03 4.609997272491455078e+00 2.643711328506469727e+00 -7.802648178767412901e-05 1.223070285050198436e-04 1.328416419710265473e-05 1.872373686637729406e-04
1.583000000000000000e+03 6.014418601989746094e+00 2.579634189605712891e+00 -1.173364435089752078e-04 2.225498610641807318e-04 3.156402453896589577e-05 2.035498328041285276e-04
1.584000000000000000e+03 5.294068336486816406e+00 3.328147411346435547e+00 -8.279756730189546943e-05 1.928098936332389712e-04 3.300370008219033480e-05 2.048174501396715641e-04
1.585000000000000000e+03 5.967542171478271484e+00 3.304302453994750977e+00 6.633779412368312478e-05 -1.744065230013802648e-04 -3.242061575292609632e-05 -1.573039480717852712e-04
1.586000000000000000e+03 1.028268432617187500e+01 2.593312501907348633e+00 4.770103987539187074e-05 9.219397179549559951e-05 4.196850204607471824e-05 2.371125301579013467e-04
1.587000000000000000e+03 7.314052581787109375e+00 3.316822052001953125e+00 8.329613774549216032e-05 -2.860092499759048223e-04 -6.081393803469836712e-05 -2.828965371008962393e-04
1.588000000000000000e+03 6.638195991516113281e+00 3.306596994400024414e+00 -1.410038094036281109e-04 3.494970151223242283e-04 6.254796608118340373e-05 2.282190253026783466e-04
1.589000000000000000e+03 4.620149612426757812e+00 3.411504507064819336e+00 1.408851312589831650e-05 -2.956774005724582821e-05 -4.643768079404253513e-06 -1.069349527824670076e-04
1.590000000000000000e+03 1.872625470161437988e+00 2.665884256362915039e+00 -1.101601810660213232e-05 6.135486501079867594e-07 -3.120740757367457263e-06 1.318894355790689588e-04
1.591000000000000000e+03 1.017040252685546875e+01 3.363684415817260742e+00 -8.510061161359772086e-05 -1.659580593695864081e-04 -7.531759911216795444e-05 -4.492597945500165224e-04
1.592000000000000000e+03 2.288469696044921875e+01 -3.270926237106323242e+00 -8.156052976846694946e-02 -4.978239163756370544e-02 -3.940287604928016663e-02 8.577024936676025391e-02
1.593000000000000000e+03 2.551403999328613281e+01 -3.477523326873779297e+00 -1.761215627193450928e-01 -3.808108717203140259e-02 -6.426079571247100830e-02 1.386538296937942505e-01
1.594000000000000000e+03 2.233438873291015625e+01 -2.996092081069946289e+00 -6.986881047487258911e-02 -5.576952174305915833e-02 -3.769150003790855408e-02 8.045129477977752686e-02
1.595000000000000000e+03 2.171425628662109375e+01 -2.672492504119873047e+00 -5.502593889832496643e-02 -6.333381682634353638e-02 -3.550792858004570007e-02 7.433188706636428833e-02
1.596000000000000000e+03 2.128711509704589844e+01 -3.414073705673217773e+00 -3.641917556524276733e-02 -4.250415042042732239e-02 -2.367699891328811646e-02 4.240874946117401123e-02
1.597000000000000000e+03 9.562812805175781250e+00 -2.490052700042724609e+00 -8.450763743894640356e-06 -3.442065280978567898e-05 -1.286142469325568527e-05 -5.261373007670044899e-05
1.598000000000000000e+03 2.848391532897949219e+01 -3.536419391632080078e+00 -3.090864121913909912e-01 -1.941129751503467560e-02 -9.854930639266967773e-02 1.791567057371139526e-01
1.599000000000000000e+03 3.197599983215332031e+01 -4.227026939392089844e+00 -4.967482984066009521e-01 -2.035694633377715945e-04 -1.490855664014816284e-01 1.669835001230239868e-01
1.600000000000000000e+03 3.138100242614746094e+01 -3.543559312820434570e+00 -4.629119038581848145e-01 -5.675893742591142654e-03 -1.405763328075408936e-01 2.042385935783386230e-01
1.601000000000000000e+03 1.157156848907470703e+01 -3.556351661682128906e+00 1.665105810388922691e-05 -3.458558785496279597e-05 -5.380358743423130363e-06 -4.354080374469049275e-05
1.602000000000000000e+03 1.096394824981689453e+01 -2.632010459899902344e+00 1.146249996963888407e-05 -4.625824294635094702e-05 -1.043872271111467853e-05 -3.867320992867462337e-05
1.603000000000000000e+03 1.124571418762207031e+01 -4.383443355560302734e+00 3.113888624284300022e-06 -5.306372986524365842e-05 -1.498495294072199613e-05 7.183766138041391969e-05
1.604000000000000000e+03 4.605387878417968750e+01 -9.739527702331542969e+00 -1.350476980209350586e+00 -1.893293112516403198e-02 -4.108229577541351318e-01 -2.846063375473022461e-01
1.605000000000000000e+03 4.678149032592773438e+01 -9.008974075317382812e+00 -1.492948532104492188e+00 -1.230122055858373642e-02 -4.515749216079711914e-01 -2.412819564342498779e-01
1.606000000000000000e+03 1.257489395141601562e+01 -2.804733514785766602e+00 -1.465606146666686982e-05 -5.336081812856718898e-05 -2.040506478806491941e-05 6.431432666431646794e-06
1.607000000000000000e+03 4.385506057739257812e+01 -1.052626132965087891e+01 -1.129976034164428711e+00 -2.538534253835678101e-02 -3.466084003448486328e-01 -3.084630072116851807e-01
1.608000000000000000e+03 3.285293579101562500e+01 -3.518186330795288086e+00 -5.492609143257141113e-01 -1.493548857979476452e-03 -1.652263402938842773e-01 2.144697904586791992e-01
1.609000000000000000e+03 4.977592086791992188e+01 -9.697936058044433594e+00 -1.609477162361145020e+00 -1.718214154243469238e-02 -4.879978001117706299e-01 -3.198490142822265625e-01
1.610000000000000000e+03 3.434379196166992188e+01 -3.477093935012817383e+00 -6.409176588058471680e-01 1.192515133880078793e-03 -1.919175535440444946e-01 2.234035581350326538e-01
1.611000000000000000e+03 5.275706100463867188e+01 -8.957934379577636719e+00 -1.983963727951049805e+00 -1.328433025628328323e-02 -5.991744399070739746e-01 -2.895393967628479004e-01
1.612000000000000000e+03 5.351597213745117188e+01 -9.672127723693847656e+00 -1.891563653945922852e+00 -2.135907113552093506e-02 -5.738767981529235840e-01 -3.561379015445709229e-01
1.613000000000000000e+03 4.008410263061523438e+01 -9.891348838806152344e+00 -9.858575463294982910e-01 -2.092120051383972168e-02 -3.020336329936981201e-01 -2.375990003347396851e-01
1.614000000000000000e+03 4.603511047363281250e+01 -9.020181655883789062e+00 -1.437777519226074219e+00 -1.149972062557935715e-02 -4.347831606864929199e-01 -2.355756759643554688e-01
1.615000000000000000e+03 4.382042694091796875e+01 -9.788045883178710938e+00 -1.205597758293151855e+00 -1.777939498424530029e-02 -3.670131564140319824e-01 -2.661869525909423828e-01
1.616000000000000000e+03 4.230508422851562500e+01 -9.098721504211425781e+00 -1.181993007659912109e+00 -1.284713018685579300e-02 -3.584520220756530762e-01 -2.108469456434249878e-01
1.617000000000000000e+03 4.158615112304687500e+01 -9.855117797851562500e+00 -1.070982575416564941e+00 -1.982289366424083710e-02 -3.272416293621063232e-01 -2.491373121738433838e-01
1.618000000000000000e+03 4.679882049560546875e+01 -9.729239463806152344e+00 -1.400429368019104004e+00 -1.826871931552886963e-02 -4.256094396114349365e-01 -2.912884354591369629e-01
1.619000000000000000e+03 4.901873016357421875e+01 -8.984929084777832031e+00 -1.666604757308959961e+00 -1.071858871728181839e-02 -5.031970143318176270e-01 -2.590761780738830566e-01
1.620000000000000000e+03 4.754321289062500000e+01 -9.721620559692382812e+00 -1.450608134269714355e+00 -1.908024400472640991e-02 -4.409065246582031250e-01 -2.983741462230682373e-01
1.621000000000000000e+03 5.575036621093750000e+01 -8.947218894958496094e+00 -2.259049177169799805e+00 -1.670422963798046112e-02 -6.827260255813598633e-01 -3.197952508926391602e-01
1.622000000000000000e+03 5.502490997314453125e+01 -1.038385105133056641e+01 -1.824285268783569336e+00 -3.119388036429882050e-02 -5.566437840461730957e-01 -4.223733842372894287e-01
1.623000000000000000e+03 3.931293106079101562e+01 -9.173082351684570312e+00 -9.989535808563232422e-01 -1.493457984179258347e-02 -3.041664659976959229e-01 -1.918411254882812500e-01
1.624000000000000000e+03 3.935921478271484375e+01 -1.142960643768310547e+01 -8.278588056564331055e-01 -3.624946624040603638e-02 -2.592324912548065186e-01 -3.041144907474517822e-01
1.625000000000000000e+03 3.858434295654296875e+01 -9.924241065979003906e+00 -9.055350422859191895e-01 -2.161586843430995941e-02 -2.781452834606170654e-01 -2.258251309394836426e-01
1.626000000000000000e+03 5.200884246826171875e+01 -8.961896896362304688e+00 -1.917509436607360840e+00 -1.215492095798254013e-02 -5.788993239402770996e-01 -2.836850583553314209e-01
1.627000000000000000e+03 5.052464675903320312e+01 -9.692727088928222656e+00 -1.663818597793579102e+00 -1.835611276328563690e-02 -5.046523809432983398e-01 -3.262377977371215820e-01
1.628000000000000000e+03 6.573757171630859375e+01 -3.888430118560791016e+00 -3.212888240814208984e+00 -3.084923513233661652e-02 -9.731212258338928223e-01 4.066843092441558838e-01
1.629000000000000000e+03 6.291180038452148438e+01 -3.146181583404541016e+00 -2.638641834259033203e+00 -3.181197121739387512e-02 -8.011361360549926758e-01 4.252807497978210449e-01
1.630000000000000000e+03 5.276775360107421875e+01 -9.676009178161621094e+00 -1.833144545555114746e+00 -2.036908827722072601e-02 -5.560541152954101562e-01 -3.494561612606048584e-01
1.631000000000000000e+03 5.501127624511718750e+01 -9.663621902465820312e+00 -2.007853984832763672e+00 -2.342849224805831909e-02 -6.093847751617431641e-01 -3.721026480197906494e-01
1.632000000000000000e+03 5.426383590698242188e+01 -9.668074607849121094e+00 -1.948800325393676758e+00 -2.208276093006134033e-02 -5.912649035453796387e-01 -3.648892343044281006e-01
1.633000000000000000e+03 5.874629974365234375e+01 -8.938838958740234375e+00 -2.548683881759643555e+00 -2.229463309049606323e-02 -7.712935209274291992e-01 -3.551895618438720703e-01
1.634000000000000000e+03 6.174425888061523438e+01 -8.934267044067382812e+00 -2.837151050567626953e+00 -2.630708552896976471e-02 -8.590374588966369629e-01 -3.939432501792907715e-01
1.635000000000000000e+03 6.099515914916992188e+01 -1.036220169067382812e+01 -2.145873069763183594e+00 -3.768549486994743347e-02 -6.550676226615905762e-01 -4.763482511043548584e-01
1.636000000000000000e+03 5.575907135009765625e+01 -9.660025596618652344e+00 -2.065439462661743164e+00 -2.484264783561229706e-02 -6.270846128463745117e-01 -3.808244764804840088e-01
1.637000000000000000e+03 5.650758743286132812e+01 -9.657483100891113281e+00 -2.124201536178588867e+00 -2.642408758401870728e-02 -6.451877355575561523e-01 -3.894372284412384033e-01
1.638000000000000000e+03 3.719717025756835938e+01 -4.089656829833984375e+00 -8.506863117218017578e-01 3.284970065578818321e-03 -2.542203962802886963e-01 1.883674710988998413e-01
1.639000000000000000e+03 3.519107055664062500e+01 -2.754339933395385742e+00 -6.784767508506774902e-01 -7.512953015975654125e-04 -2.037684023380279541e-01 2.714182734489440918e-01
1.640000000000000000e+03 7.228234100341796875e+01 -9.391102790832519531e+00 -1.569473743438720703e+00 7.390744686126708984e-01 -2.491197735071182251e-01 6.395053267478942871e-01
1.641000000000000000e+03 7.072754669189453125e+01 -8.840848922729492188e+00 -2.901101350784301758e+00 1.249749884009361267e-01 -8.328378796577453613e-01 -1.626415252685546875e-01
1.642000000000000000e+03 7.149602508544921875e+01 -9.504425048828125000e+00 -1.805971741676330566e+00 4.953575730323791504e-01 -3.931842446327209473e-01 3.168762922286987305e-01
1.643000000000000000e+03 6.773081207275390625e+01 -8.885132789611816406e+00 -3.219734907150268555e+00 -1.320970524102449417e-02 -9.698833823204040527e-01 -4.060702919960021973e-01
1.644000000000000000e+03 6.772602844238281250e+01 -9.547533988952636719e+00 -2.617994070053100586e+00 1.938078738749027252e-02 -7.795839905738830566e-01 -3.732261359691619873e-01
1.645000000000000000e+03 6.941546630859375000e+01 -4.005569934844970703e+00 -3.264088869094848633e+00 1.648995652794837952e-02 -9.742797017097473145e-01 3.290591835975646973e-01
1.646000000000000000e+03 7.126407623291015625e+01 -2.693063974380493164e+00 -1.276077508926391602e+00 6.470409035682678223e-01 -1.887109726667404175e-01 -4.797394871711730957e-01
1.647000000000000000e+03 6.720497894287109375e+01 -3.929775714874267578e+00 -3.276512861251831055e+00 -2.552121505141258240e-02 -9.906101822853088379e-01 3.981899321079254150e-01
1.648000000000000000e+03 6.588951110839843750e+01 -3.224325656890869141e+00 -2.729463577270507812e+00 -1.667945832014083862e-02 -8.238429427146911621e-01 4.133512973785400391e-01
1.649000000000000000e+03 6.515464019775390625e+01 -3.195045948028564453e+00 -2.715579032897949219e+00 -3.265064209699630737e-02 -8.244689106941223145e-01 4.224091768264770508e-01
1.650000000000000000e+03 5.950157546997070312e+01 -9.645874023437500000e+00 -2.352386951446533203e+00 -3.262278810143470764e-02 -7.155029177665710449e-01 -4.241501092910766602e-01
1.651000000000000000e+03 6.024936294555664062e+01 -9.644112586975097656e+00 -2.405462026596069336e+00 -3.282348811626434326e-02 -7.314856052398681641e-01 -4.333558678627014160e-01
1.652000000000000000e+03 5.875331497192382812e+01 -9.647434234619140625e+00 -2.297572374343872070e+00 -3.086910769343376160e-02 -6.985324621200561523e-01 -4.156434237957000732e-01
1.653000000000000000e+03 6.099726867675781250e+01 -9.641612052917480469e+00 -2.456741333007812500e+00 -3.322027251124382019e-02 -7.469884753227233887e-01 -4.403789937496185303e-01
1.654000000000000000e+03 6.366213607788085938e+01 -3.156599521636962891e+00 -2.671591520309448242e+00 -3.615344315767288208e-02 -8.123235106468200684e-01 4.262582361698150635e-01
1.655000000000000000e+03 6.125538635253906250e+01 -3.835997581481933594e+00 -2.874539613723754883e+00 -2.753072045743465424e-02 -8.706211447715759277e-01 3.676360547542572021e-01
1.656000000000000000e+03 6.249675369262695312e+01 -9.637554168701171875e+00 -2.544919967651367188e+00 -3.389921411871910095e-02 -7.736457586288452148e-01 -4.514257311820983887e-01
1.657000000000000000e+03 6.324781036376953125e+01 -9.633728981018066406e+00 -2.581375360488891602e+00 -3.271316364407539368e-02 -7.842265367507934570e-01 -4.546457529067993164e-01
1.658000000000000000e+03 6.698416137695312500e+01 -9.570486068725585938e+00 -2.647636890411376953e+00 -4.315762780606746674e-03 -7.955857515335083008e-01 -4.090198278427124023e-01
1.659000000000000000e+03 6.624002838134765625e+01 -9.590433120727539062e+00 -2.655566453933715820e+00 -1.423031929880380630e-02 -8.009390234947204590e-01 -4.316802024841308594e-01
1.660000000000000000e+03 6.772142028808593750e+01 -1.021199226379394531e+01 -2.071776866912841797e+00 6.483102589845657349e-02 -6.020837426185607910e-01 -3.035151660442352295e-01
1.661000000000000000e+03 6.994905853271484375e+01 -9.489783287048339844e+00 -2.337553977966308594e+00 1.501439213752746582e-01 -6.562229990959167480e-01 -1.348116546869277954e-01
1.662000000000000000e+03 6.846555328369140625e+01 -9.522992134094238281e+00 -2.566766977310180664e+00 4.058331996202468872e-02 -7.578551173210144043e-01 -3.226984739303588867e-01
1.663000000000000000e+03 6.920436096191406250e+01 -9.501402854919433594e+00 -2.477181434631347656e+00 9.117364138364791870e-02 -7.158023118972778320e-01 -2.490183264017105103e-01
1.664000000000000000e+03 6.806575012207031250e+01 -3.309830904006958008e+00 -2.673842906951904297e+00 9.098659269511699677e-03 -7.994232773780822754e-01 3.334069252014160156e-01
1.665000000000000000e+03 6.140327835083007812e+01 -3.139145135879516602e+00 -2.565543174743652344e+00 -3.223242238163948059e-02 -7.793326973915100098e-01 4.168201684951782227e-01
1.666000000000000000e+03 5.990965652465820312e+01 -3.140276908874511719e+00 -2.479896306991577148e+00 -3.110235370695590973e-02 -7.532995343208312988e-01 4.039906561374664307e-01
1.667000000000000000e+03 5.825415039062500000e+01 -3.834262609481811523e+00 -2.608089685440063477e+00 -2.363968454301357269e-02 -7.895188331604003906e-01 3.310930430889129639e-01
1.668000000000000000e+03 3.709877395629882812e+01 -1.071053504943847656e+01 -7.805128097534179688e-01 -2.838664501905441284e-02 -2.426698356866836548e-01 -2.494254559278488159e-01
1.669000000000000000e+03 3.708295822143554688e+01 -9.966530799865722656e+00 -8.284437060356140137e-01 -2.219889685511589050e-02 -2.551927864551544189e-01 -2.144019603729248047e-01
1.670000000000000000e+03 3.785100936889648438e+01 -1.068997859954833984e+01 -8.165372014045715332e-01 -2.895025536417961121e-02 -2.536462545394897461e-01 -2.555432915687561035e-01
1.671000000000000000e+03 5.690492630004882812e+01 -3.132655143737792969e+00 -2.270335197448730469e+00 -2.906873635947704315e-02 -6.898211836814880371e-01 3.727876842021942139e-01
1.672000000000000000e+03 5.539704132080078125e+01 -3.132819890975952148e+00 -2.158937454223632812e+00 -2.615848742425441742e-02 -6.555287837982177734e-01 3.565706312656402588e-01
1.673000000000000000e+03 5.840256881713867188e+01 -3.136879920959472656e+00 -2.377832174301147461e+00 -3.056684136390686035e-02 -7.225197553634643555e-01 3.890735507011413574e-01
1.674000000000000000e+03 6.215715408325195312e+01 -3.140757322311401367e+00 -2.605467319488525391e+00 -3.571844473481178284e-02 -7.923557162284851074e-01 4.217138290405273438e-01
1.675000000000000000e+03 7.090087890625000000e+01 -3.732280015945434570e+00 -2.595730543136596680e+00 1.941516250371932983e-01 -7.204736471176147461e-01 4.106240347027778625e-02
1.676000000000000000e+03 7.029936981201171875e+01 -3.495317459106445312e+00 -2.449626684188842773e+00 1.786171495914459229e-01 -6.813028454780578613e-01 1.014261841773986816e-01
1.677000000000000000e+03 5.915684127807617188e+01 -3.138571739196777344e+00 -2.430549860000610352e+00 -3.275808319449424744e-02 -7.389923930168151855e-01 3.964672386646270752e-01
1.678000000000000000e+03 6.399802780151367188e+01 -9.627545356750488281e+00 -2.612762689590454102e+00 -3.403280302882194519e-02 -7.940386533737182617e-01 -4.556118845939636230e-01
1.679000000000000000e+03 6.474614715576171875e+01 -9.618968963623046875e+00 -2.635442018508911133e+00 -2.944038622081279755e-02 -7.994647026062011719e-01 -4.533965289592742920e-01
1.680000000000000000e+03 5.074338531494140625e+01 -3.849388360977172852e+00 -1.938144326210021973e+00 -1.400239206850528717e-02 -5.856440067291259766e-01 2.564762532711029053e-01
1.681000000000000000e+03 5.375181579589843750e+01 -3.837266206741333008e+00 -2.201581478118896484e+00 -1.752162910997867584e-02 -6.657308936119079590e-01 2.819663584232330322e-01
1.682000000000000000e+03 5.464866638183593750e+01 -3.136661529541015625e+00 -2.104237556457519531e+00 -2.561210654675960541e-02 -6.389549374580383301e-01 3.483421802520751953e-01
1.683000000000000000e+03 7.070798492431640625e+01 -9.491849899291992188e+00 -2.111338853836059570e+00 2.746969163417816162e-01 -5.509925484657287598e-01 4.198807477951049805e-02
1.684000000000000000e+03 5.013422012329101562e+01 -3.153602361679077148e+00 -1.763166069984436035e+00 -1.816529594361782074e-02 -5.343993902206420898e-01 3.093447685241699219e-01
1.685000000000000000e+03 5.163962173461914062e+01 -3.149362802505493164e+00 -1.878047227859497070e+00 -2.005221508443355560e-02 -5.694298148155212402e-01 3.207946717739105225e-01
1.686000000000000000e+03 5.089105987548828125e+01 -3.150928497314453125e+00 -1.820590138435363770e+00 -1.840098574757575989e-02 -5.516973733901977539e-01 3.151805400848388672e-01
1.687000000000000000e+03 3.884590911865234375e+01 -3.344775199890136719e+00 -9.377735257148742676e-01 7.301013683900237083e-04 -2.811130285263061523e-01 2.453889548778533936e-01
1.688000000000000000e+03 4.095568084716796875e+01 -3.991152763366699219e+00 -1.133154869079589844e+00 -4.518430505413562059e-04 -3.400819897651672363e-01 2.016722112894058228e-01
1.689000000000000000e+03 4.170994949340820312e+01 -3.974133491516113281e+00 -1.192084789276123047e+00 -1.565315295010805130e-03 -3.580950200557708740e-01 2.043874263763427734e-01
1.690000000000000000e+03 4.034439849853515625e+01 -3.307020902633666992e+00 -1.042004585266113281e+00 -1.137355575338006020e-03 -3.129425644874572754e-01 2.518479526042938232e-01
1.691000000000000000e+03 5.615154647827148438e+01 -3.130841016769409180e+00 -2.214782238006591797e+00 -2.897215634584426880e-02 -6.731263399124145508e-01 3.641649782657623291e-01
1.692000000000000000e+03 4.923452758789062500e+01 -3.860023021697998047e+00 -1.808688163757324219e+00 -1.223645731806755066e-02 -5.462774038314819336e-01 2.455148845911026001e-01
1.693000000000000000e+03 4.788291549682617188e+01 -3.177108049392700195e+00 -1.593449831008911133e+00 -1.361335534602403641e-02 -4.821189641952514648e-01 2.931537330150604248e-01
1.694000000000000000e+03 4.622678375244140625e+01 -3.894706249237060547e+00 -1.555938601493835449e+00 -7.807488553225994110e-03 -4.691238403320312500e-01 2.265379875898361206e-01
1.695000000000000000e+03 4.937719726562500000e+01 -3.160201549530029297e+00 -1.705545306205749512e+00 -1.623562909662723541e-02 -5.165342688560485840e-01 3.040505051612854004e-01
1.696000000000000000e+03 4.335989379882812500e+01 -3.240488052368164062e+00 -1.256648182868957520e+00 -6.163368001580238342e-03 -3.788434863090515137e-01 2.662811875343322754e-01
1.697000000000000000e+03 4.185638427734375000e+01 -3.270617246627807617e+00 -1.148719787597656250e+00 -3.618447575718164444e-03 -3.457014560699462891e-01 2.588327527046203613e-01
1.698000000000000000e+03 4.260983276367187500e+01 -3.255082368850708008e+00 -1.203300952911376953e+00 -4.927185364067554474e-03 -3.624684512615203857e-01 2.623198330402374268e-01
1.699000000000000000e+03 4.487230682373046875e+01 -3.217997789382934570e+00 -1.367960095405578613e+00 -8.447350002825260162e-03 -4.129222333431243896e-01 2.743152678012847900e-01
1.700000000000000000e+03 4.411486434936523438e+01 -3.228043079376220703e+00 -1.312365412712097168e+00 -7.577090058475732803e-03 -3.959827721118927002e-01 2.704783380031585693e-01
1.701000000000000000e+03 3.808842086791992188e+01 -3.364887475967407227e+00 -8.860079646110534668e-01 1.335348235443234444e-03 -2.654017806053161621e-01 2.418798059225082397e-01
1.702000000000000000e+03 5.314705657958984375e+01 -3.142250061035156250e+00 -1.991759300231933594e+00 -2.290598675608634949e-02 -6.043995618820190430e-01 3.338758647441864014e-01
1.703000000000000000e+03 3.407366561889648438e+01 -1.003996181488037109e+01 -6.833457946777343750e-01 -2.258391305804252625e-02 -2.117789089679718018e-01 -1.921233832836151123e-01
1.704000000000000000e+03 3.253712081909179688e+01 -9.352328300476074219e+00 -6.436055898666381836e-01 -1.552346907556056976e-02 -1.977387070655822754e-01 -1.494518965482711792e-01
1.705000000000000000e+03 3.331401824951171875e+01 -1.006017398834228516e+01 -6.484501361846923828e-01 -2.130221202969551086e-02 -2.009257078170776367e-01 -1.873707920312881470e-01
1.706000000000000000e+03 3.255004882812500000e+01 -1.008465862274169922e+01 -6.139841079711914062e-01 -2.163030765950679779e-02 -1.906843185424804688e-01 -1.823119819164276123e-01
1.707000000000000000e+03 3.482820892333984375e+01 -1.002213478088378906e+01 -7.183159589767456055e-01 -2.201696857810020447e-02 -2.220998853445053101e-01 -1.981076598167419434e-01
1.708000000000000000e+03 4.109808349609375000e+01 -3.287541627883911133e+00 -1.095274329185485840e+00 -2.520659007132053375e-03 -3.293384909629821777e-01 2.549669742584228516e-01
1.709000000000000000e+03 4.712826538085937500e+01 -3.186481475830078125e+00 -1.536361575126647949e+00 -1.298450678586959839e-02 -4.648038148880004883e-01 2.881944179534912109e-01
1.710000000000000000e+03 1.355167388916015625e+01 4.999988555908203125e+00 -3.142237255815416574e-04 -1.034847664413973689e-04 -1.253125519724562764e-04 -3.354391083121299744e-04
1.711000000000000000e+03 9.414584159851074219e+00 3.357498884201049805e+00 -1.404577869834611192e-05 2.880839456338435411e-04 8.221144526032730937e-05 3.364349831826984882e-04
1.712000000000000000e+03 1.260403156280517578e+01 4.100938320159912109e+00 -3.646911936812102795e-04 6.707101420033723116e-05 -8.928605529945343733e-05 -4.556548665277659893e-04
1.713000000000000000e+03 1.257925128936767578e+01 3.292925596237182617e+00 3.011706285178661346e-04 -2.660669852048158646e-04 1.053110008797375485e-05 1.240580750163644552e-04
1.714000000000000000e+03 3.023219299316406250e+01 -1.015387821197509766e+01 -5.135743021965026855e-01 -1.803015358746051788e-02 -1.594813317060470581e-01 -1.693788468837738037e-01
1.715000000000000000e+03 3.101208305358886719e+01 -1.013369178771972656e+01 -5.466051697731018066e-01 -1.998374797403812408e-02 -1.699766814708709717e-01 -1.737240403890609741e-01
1.716000000000000000e+03 2.790035820007324219e+01 -9.406180381774902344e+00 -4.322482347488403320e-01 -8.990951813757419586e-03 -1.323717534542083740e-01 -1.259403824806213379e-01
1.717000000000000000e+03 2.944168090820312500e+01 -1.017361450195312500e+01 -4.808661341667175293e-01 -1.704616658389568329e-02 -1.493736952543258667e-01 -1.658439338207244873e-01
1.718000000000000000e+03 7.693016052246093750e+01 -1.257567214965820312e+01 -8.128888159990310669e-02 9.744178771972656250e+00 2.898866891860961914e+00 2.118024349212646484e+00
1.719000000000000000e+03 7.411682891845703125e+01 -8.745943069458007812e+00 -1.308843255043029785e+00 1.704576253890991211e+00 1.187199205160140991e-01 1.772384643554687500e+00
1.720000000000000000e+03 9.279128074645996094e+00 4.159078598022460938e+00 5.664031777996569872e-05 -3.424998431000858545e-04 -8.575785614084452391e-05 -4.817669687326997519e-04
1.721000000000000000e+03 2.000360679626464844e+01 -9.492758750915527344e+00 -1.461083739995956421e-01 -1.260984875261783600e-02 -4.761546477675437927e-02 -9.840836375951766968e-02
1.722000000000000000e+03 1.938867378234863281e+01 -8.868721961975097656e+00 -1.070989519357681274e-01 -1.535294950008392334e-02 -3.673556819558143616e-02 -7.362184673547744751e-02
1.723000000000000000e+03 6.747782230377197266e+00 -3.322695016860961914e+00 -1.642355346120893955e-05 4.081404404132626951e-05 7.317146810237318277e-06 9.190641867462545633e-05
1.724000000000000000e+03 2.600188493728637695e+00 -6.602532863616943359e+00 -6.491082604043185711e-05 -1.388484974995662924e-06 -1.988979420275427401e-05 -1.262838632101193070e-04
1.725000000000000000e+03 7.471327781677246094e+00 -4.136472702026367188e+00 2.725152444327250123e-05 -1.777062607288826257e-05 2.844269602064741775e-06 1.112806858145631850e-04
1.726000000000000000e+03 8.861431121826171875e+00 -2.535580873489379883e+00 -4.209015060041565448e-06 3.090324753429740667e-05 8.008270015125162899e-06 8.379200880881398916e-05
1.727000000000000000e+03 5.916664600372314453e+00 -2.630299091339111328e+00 -3.499414015095680952e-05 4.830462057725526392e-05 3.993144218839006498e-06 6.691698217764496803e-05
1.728000000000000000e+03 5.635856151580810547e+00 -4.255300045013427734e+00 1.363835053780348971e-05 -2.985186620207969099e-05 -4.864054972131270915e-06 -9.046908235177397728e-05
1.729000000000000000e+03 3.466766357421875000e+00 -4.706279277801513672e+00 3.484246190055273473e-05 3.913838736480101943e-05 2.219425550720188767e-05 8.501923730364069343e-05
1.730000000000000000e+03 1.614569306373596191e+00 -5.228488922119140625e+00 -1.240087149199098349e-04 -8.316595994983799756e-06 -3.969759200117550790e-05 -8.093045471468940377e-05
1.731000000000000000e+03 2.704397392272949219e+01 -1.016073131561279297e+01 -3.869736492633819580e-01 -9.692861698567867279e-03 -1.189999505877494812e-01 -1.529067456722259521e-01
1.732000000000000000e+03 2.784698295593261719e+01 -1.018050003051757812e+01 -4.174135625362396240e-01 -1.279479917138814926e-02 -1.290625184774398804e-01 -1.577255427837371826e-01
1.733000000000000000e+03 2.624171447753906250e+01 -1.012254428863525391e+01 -3.576998114585876465e-01 -7.248158100992441177e-03 -1.094843894243240356e-01 -1.483237743377685547e-01
1.734000000000000000e+03 2.316869544982910156e+01 -9.845974922180175781e+00 -2.496571391820907593e-01 6.478457362391054630e-04 -7.470279186964035034e-02 -1.264607161283493042e-01
1.735000000000000000e+03 2.393158340454101562e+01 -9.908401489257812500e+00 -2.761622965335845947e-01 1.440526830265298486e-04 -8.280547708272933960e-02 -1.315843015909194946e-01
1.736000000000000000e+03 2.555244445800781250e+01 -9.302506446838378906e+00 -3.339699208736419678e-01 -2.378611825406551361e-03 -1.009045615792274475e-01 -1.144873946905136108e-01
1.737000000000000000e+03 2.469132423400878906e+01 -9.983371734619140625e+00 -3.027620613574981689e-01 -2.043399726971983910e-03 -9.144163131713867188e-02 -1.376011073589324951e-01
1.738000000000000000e+03 1.857596206665039062e+01 -1.346462154388427734e+01 -1.973103284835815430e-01 -6.183282285928726196e-02 -7.774294167757034302e-02 -1.678494215011596680e-01
1.739000000000000000e+03 2.100597381591796875e+01 -9.799301147460937500e+00 -1.843071728944778442e-01 -5.493573378771543503e-03 -5.694022402167320251e-02 -1.142605170607566833e-01
1.740000000000000000e+03 2.013398361206054688e+01 -2.157279253005981445e+00 -1.846128329634666443e-02 -5.634688958525657654e-02 -2.244245260953903198e-02 4.169844090938568115e-02
1.741000000000000000e+03 2.168873214721679688e+01 -9.771322250366210938e+00 -2.002947181463241577e-01 -1.666228985413908958e-03 -6.058828532695770264e-02 -1.164411678910255432e-01
1.742000000000000000e+03 2.134931373596191406e+01 2.591024160385131836e+00 -8.605372905731201172e-02 -2.795268595218658447e-01 -1.096741780638694763e-01 2.301121205091476440e-01
1.743000000000000000e+03 2.098694610595703125e+01 5.968998432159423828e+00 -1.480004787445068359e-01 -4.689633250236511230e-01 -1.850891411304473877e-01 3.304643332958221436e-01
1.744000000000000000e+03 7.945197296142578125e+01 -6.254139423370361328e+00 6.963619589805603027e-01 7.907395839691162109e+00 2.581127405166625977e+00 2.680485248565673828e-01
1.745000000000000000e+03 7.867884063720703125e+01 -4.883296966552734375e+00 -7.573541402816772461e-01 1.737474441528320312e+01 4.985217094421386719e+00 3.255215406417846680e+00
1.746000000000000000e+03 1.796929359436035156e+01 -1.025655841827392578e+01 -1.157137304544448853e-01 -5.270587652921676636e-02 -5.052588135004043579e-02 -1.059050261974334717e-01
1.747000000000000000e+03 1.082461261749267578e+01 9.057218551635742188e+00 2.004026755457744002e-04 1.306976657360792160e-03 4.522138042375445366e-04 5.981464637443423271e-04
1.748000000000000000e+03 1.109187412261962891e+01 1.063538169860839844e+01 6.635374738834798336e-04 1.295010675676167011e-03 5.875644274055957794e-04 9.578387252986431122e-04
1.749000000000000000e+03 1.332585620880126953e+01 6.157448291778564453e+00 4.643204156309366226e-04 9.636898903409019113e-05 1.682068250374868512e-04 3.661106457002460957e-04
1.750000000000000000e+03 6.074150562286376953e+00 -1.456951808929443359e+01 3.283805213868618011e-03 -1.328938524238765240e-03 5.864599952474236488e-04 -6.057887803763151169e-03
1.751000000000000000e+03 6.559315204620361328e+00 -1.339850521087646484e+01 -1.183482381748035550e-04 3.869822481647133827e-03 1.125442329794168472e-03 -2.502096118405461311e-03
1.752000000000000000e+03 7.880014038085937500e+01 -7.401782035827636719e+00 2.148490667343139648e+00 1.655110549926757812e+01 5.609878540039062500e+00 -3.905144691467285156e+00
1.753000000000000000e+03 1.870521545410156250e+01 1.096773242950439453e+01 -3.084806203842163086e-01 -8.939850330352783203e-01 -3.607396781444549561e-01 4.468610882759094238e-01
1.754000000000000000e+03 2.071092224121093750e+01 7.298203468322753906e+00 -1.902890950441360474e-01 -5.512294173240661621e-01 -2.224555462598800659e-01 3.732465207576751709e-01
1.755000000000000000e+03 1.078552436828613281e+01 -3.348546981811523438e+00 -4.107842869416344911e-06 -1.370000973111018538e-05 -5.342355507309548557e-06 8.671200339449569583e-05
1.756000000000000000e+03 8.233275413513183594e+00 -2.035579681396484375e+01 -1.176869943737983704e-01 -9.068042784929275513e-02 -6.251022964715957642e-02 -1.383698582649230957e-01
1.757000000000000000e+03 7.705316066741943359e+00 -1.875647163391113281e+01 -1.053015515208244324e-01 -1.295332517474889755e-02 -3.547646477818489075e-02 -5.929279699921607971e-02
1.758000000000000000e+03 1.004736042022705078e+01 4.155541896820068359e+00 2.610127921798266470e-05 3.441763983573764563e-04 1.110832963604480028e-04 4.256305401213467121e-04
1.759000000000000000e+03 1.011923217773437500e+01 -6.158227920532226562e+00 4.010060365544632077e-05 -1.629169128136709332e-04 -3.684489274746738374e-05 9.259230137104168534e-05
1.760000000000000000e+03 1.578851795196533203e+01 -1.841441535949707031e+01 -1.510108411312103271e-01 -1.457623392343521118e-01 -8.903194963932037354e-02 -1.634646356105804443e-01
1.761000000000000000e+03 1.614529609680175781e+01 -1.520742225646972656e+01 -1.895914375782012939e-01 -1.289967298507690430e-01 -9.557645022869110107e-02 -1.679111123085021973e-01
1.762000000000000000e+03 9.344564437866210938e+00 -1.982241821289062500e+01 -1.139312162995338440e-01 -1.478535383939743042e-01 -7.853542268276214600e-02 -1.629173457622528076e-01
1.763000000000000000e+03 2.001412010192871094e+01 -1.199610605835914612e-01 -2.117654494941234589e-02 -1.267246305942535400e-01 -4.437035322189331055e-02 7.715868204832077026e-02
1.764000000000000000e+03 1.999164009094238281e+01 -1.071416473388671875e+01 -1.776412278413772583e-01 -2.026433125138282776e-02 -5.937166512012481689e-02 -1.311920136213302612e-01
1.765000000000000000e+03 1.339740180969238281e+01 3.109999656677246094e+00 -2.420216696918942034e-05 4.121425445191562176e-04 1.163821143563836813e-04 6.795633089495822787e-05
1.766000000000000000e+03 3.670297622680664062e+00 2.175601577758789062e+01 -5.346969142556190491e-02 -6.719018518924713135e-02 -3.619796410202980042e-02 6.603548675775527954e-02
1.767000000000000000e+03 7.774461364746093750e+01 -3.660032653808593750e+01 1.692429743707180023e-02 5.099077701568603516e+00 1.534800648689270020e+00 1.782572418451309204e-01
1.768000000000000000e+03 7.388729858398437500e+01 -3.364144897460937500e+01 2.093608379364013672e-01 4.438073158264160156e+00 1.394230127334594727e+00 4.385345280170440674e-01
1.769000000000000000e+03 7.598767089843750000e+01 -2.183870506286621094e+01 2.720926702022552490e-01 6.317609310150146484e+00 1.976910591125488281e+00 1.180955767631530762e+00
1.770000000000000000e+03 7.782725524902343750e+01 -2.918519592285156250e+01 4.061215743422508240e-02 5.775074958801269531e+00 1.744706034660339355e+00 3.457750678062438965e-01
1.771000000000000000e+03 7.562664031982421875e+01 1.544735336303710938e+01 1.612928360700607300e-01 5.148931980133056641e+00 1.593067407608032227e+00 -7.562043070793151855e-01
1.772000000000000000e+03 7.688303375244140625e+01 1.673947334289550781e+01 8.225424587726593018e-02 5.322799682617187500e+00 1.621516227722167969e+00 -5.221083164215087891e-01
1.773000000000000000e+03 7.845959472656250000e+01 3.662630462646484375e+01 3.642539260908961296e-03 4.077888965606689453e+00 1.224459528923034668e+00 -4.906535148620605469e-02
1.774000000000000000e+03 7.825698852539062500e+01 -2.214855384826660156e+01 6.684184074401855469e-02 7.436378479003906250e+00 2.250966072082519531e+00 6.025081872940063477e-01
1.775000000000000000e+03 7.699180603027343750e+01 -2.339552497863769531e+01 1.439532488584518433e-01 6.530184268951416016e+00 2.002241373062133789e+00 8.334596157073974609e-01
1.776000000000000000e+03 7.617359924316406250e+01 -3.052827072143554688e+01 1.198770180344581604e-01 5.200406074523925781e+00 1.596084952354431152e+00 4.762442409992218018e-01
1.777000000000000000e+03 7.641127014160156250e+01 -2.905025100708007812e+01 1.194739565253257751e-01 5.428063392639160156e+00 1.664261221885681152e+00 5.350176692008972168e-01
1.778000000000000000e+03 7.752909851074218750e+01 -3.512092208862304688e+01 2.175260335206985474e-02 5.157872200012207031e+00 1.553887367248535156e+00 1.731383204460144043e-01
1.779000000000000000e+03 7.608504486083984375e+01 -3.713547134399414062e+01 4.935583099722862244e-02 4.841008663177490234e+00 1.467109322547912598e+00 1.577736288309097290e-01
1.780000000000000000e+03 7.672337341308593750e+01 -2.620274162292480469e+01 1.331703513860702515e-01 5.915634155273437500e+00 1.814641356468200684e+00 6.745412349700927734e-01
1.781000000000000000e+03 7.658914947509765625e+01 -2.761359596252441406e+01 1.154238730669021606e-01 5.660673618316650391e+00 1.732829213142395020e+00 5.987924933433532715e-01
1.782000000000000000e+03 7.685784912109375000e+01 -2.479605102539062500e+01 1.248364150524139404e-01 6.204836368560791016e+00 1.898901939392089844e+00 7.505725622177124023e-01
1.783000000000000000e+03 7.575636291503906250e+01 -3.538905715942382812e+01 9.479522705078125000e-02 4.783969402313232422e+00 1.463629364967346191e+00 2.641482353210449219e-01
1.784000000000000000e+03 7.575406646728515625e+01 -3.368997573852539062e+01 1.084848046302795410e-01 4.887967109680175781e+00 1.498935580253601074e+00 3.385527431964874268e-01
1.785000000000000000e+03 7.517355346679687500e+01 -4.013607025146484375e+01 1.198435947299003601e-01 4.599795341491699219e+00 1.415891647338867188e+00 5.711068958044052124e-02
1.786000000000000000e+03 7.803910827636718750e+01 2.353936958312988281e+01 1.944011636078357697e-02 4.744361877441406250e+00 1.429140567779541016e+00 -1.912593841552734375e-01
1.787000000000000000e+03 7.686344146728515625e+01 2.073328590393066406e+01 4.888273030519485474e-02 4.833986282348632812e+00 1.464860677719116211e+00 -3.720246553421020508e-01
1.788000000000000000e+03 7.545121765136718750e+01 2.318843460083007812e+01 8.800680935382843018e-02 4.378291606903076172e+00 1.339889526367187500e+00 -4.071213901042938232e-01
1.789000000000000000e+03 7.681356048583984375e+01 2.206321334838867188e+01 5.050391703844070435e-02 4.697823047637939453e+00 1.424498081207275391e+00 -3.362918198108673096e-01
1.790000000000000000e+03 7.810026550292968750e+01 1.397418785095214844e+01 3.652586415410041809e-02 6.120743751525878906e+00 1.847180843353271484e+00 -4.313287734985351562e-01
1.791000000000000000e+03 7.534713745117187500e+01 9.945317268371582031e+00 2.990618646144866943e-01 5.785583972930908203e+00 1.825393795967102051e+00 -1.216980814933776855e+00
1.792000000000000000e+03 7.686651611328125000e+01 1.539085197448730469e+01 8.368551731109619141e-02 5.517083644866943359e+00 1.680230736732482910e+00 -5.860754847526550293e-01
1.793000000000000000e+03 7.684747314453125000e+01 1.403048992156982422e+01 1.103350296616554260e-01 5.731364727020263672e+00 1.752509832382202148e+00 -6.676018834114074707e-01
1.794000000000000000e+03 7.778723907470703125e+01 2.771338844299316406e+01 1.292464137077331543e-02 4.395349979400634766e+00 1.322482347488403320e+00 -1.473903805017471313e-01
1.795000000000000000e+03 7.727014160156250000e+01 3.225650787353515625e+01 1.767079532146453857e-02 4.116317749023437500e+00 1.240196585655212402e+00 -1.116128712892532349e-01
1.796000000000000000e+03 7.711313629150390625e+01 -2.201142311096191406e+01 1.433343887329101562e-01 6.903628826141357422e+00 2.114089012145996094e+00 9.302790760993957520e-01
1.797000000000000000e+03 7.797912597656250000e+01 8.250726699829101562e+00 7.861384749412536621e-02 7.624060630798339844e+00 2.310802221298217773e+00 -7.930079698562622070e-01
1.798000000000000000e+03 7.577524566650390625e+01 -1.572756195068359375e+01 4.777608215808868408e-01 7.189623355865478516e+00 2.300215244293212891e+00 2.008133649826049805e+00
1.799000000000000000e+03 7.721505737304687500e+01 -2.064378547668457031e+01 1.685204058885574341e-01 7.320258617401123047e+00 2.246633768081665039e+00 1.036656022071838379e+00
1.800000000000000000e+03 7.503906250000000000e+01 3.680879592895507812e+01 3.759521245956420898e-02 3.803374290466308594e+00 1.152290821075439453e+00 -8.508623391389846802e-02
1.801000000000000000e+03 7.806620788574218750e+01 6.793659210205078125e+00 1.076059639453887939e-01 8.170164108276367188e+00 2.483330965042114258e+00 -8.727568984031677246e-01
1.802000000000000000e+03 7.638523864746093750e+01 3.533899068832397461e+00 3.322767615318298340e-01 7.740346431732177734e+00 2.421787023544311523e+00 -1.839228749275207520e+00
1.803000000000000000e+03 7.670712280273437500e+01 6.587655067443847656e+00 2.303135693073272705e-01 7.209321022033691406e+00 2.231890439987182617e+00 -1.337602019309997559e+00
1.804000000000000000e+03 7.726355743408203125e+01 -1.654876518249511719e+01 2.193814665079116821e-01 8.628900527954101562e+00 2.654484748840332031e+00 1.517282128334045410e+00
1.805000000000000000e+03 7.445666503906250000e+01 -4.125957965850830078e+00 -1.084808707237243652e+00 2.180506467819213867e+00 3.287093341350555420e-01 -2.201599836349487305e+00
1.806000000000000000e+03 7.876908111572265625e+01 -1.087985038757324219e+01 -4.329851269721984863e-01 1.413769435882568359e+01 4.111413002014160156e+00 5.515355467796325684e-01
1.807000000000000000e+03 7.248129272460937500e+01 3.501268768310546875e+01 1.155875995755195618e-01 3.530604362487792969e+00 1.093857645988464355e+00 -1.769644469022750854e-01
1.808000000000000000e+03 7.689115142822265625e+01 1.940232658386230469e+01 6.172974035143852234e-02 4.986166954040527344e+00 1.514368891716003418e+00 -4.141531884670257568e-01
1.809000000000000000e+03 7.675389862060546875e+01 1.123746871948242188e+01 1.581230908632278442e-01 6.211163043975830078e+00 1.910785794258117676e+00 -8.700516819953918457e-01
1.810000000000000000e+03 7.655101013183593750e+01 8.181159973144531250e+00 2.388417720794677734e-01 6.739275455474853516e+00 2.093435049057006836e+00 -1.210087656974792480e+00
1.811000000000000000e+03 7.728903961181640625e+01 -1.513751220703125000e+01 2.355797588825225830e-01 9.204585075378417969e+00 2.832049369812011719e+00 1.701765179634094238e+00
1.812000000000000000e+03 7.852466583251953125e+01 2.668766260147094727e+00 3.732948005199432373e-02 1.058502388000488281e+01 3.186706066131591797e+00 -1.030899047851562500e+00
1.813000000000000000e+03 7.764689636230468750e+01 1.359329462051391602e+00 1.205733492970466614e-01 1.013543510437011719e+01 3.076802492141723633e+00 -1.673755049705505371e+00
1.814000000000000000e+03 7.653701782226562500e+01 3.603932189941406250e+01 1.140152942389249802e-02 3.977859735488891602e+00 1.196778416633605957e+00 -9.992671757936477661e-02
1.815000000000000000e+03 7.709611511230468750e+01 5.132322788238525391e+00 2.291530221700668335e-01 7.992553710937500000e+00 2.466511964797973633e+00 -1.428347706794738770e+00
1.816000000000000000e+03 7.731349182128906250e+01 -1.374191379547119141e+01 8.690283447504043579e-02 9.858899116516113281e+00 2.983740568161010742e+00 1.842949986457824707e+00
1.817000000000000000e+03 7.621601867675781250e+01 -1.669319725036621094e+01 3.509485125541687012e-01 7.492654800415039062e+00 2.353080987930297852e+00 1.805425524711608887e+00
1.818000000000000000e+03 7.473994731903076172e+00 1.310490798950195312e+01 -1.779774669557809830e-03 5.956067703664302826e-03 1.252887886948883533e-03 2.846702933311462402e-03
1.819000000000000000e+03 1.143562602996826172e+01 8.055091857910156250e+00 -1.467658585170283914e-04 -1.008916995488107204e-03 -3.467048518359661102e-04 -6.664862157776951790e-04
1.820000000000000000e+03 1.294330215454101562e+01 7.312225818634033203e+00 -4.857018939219415188e-04 -5.069000180810689926e-04 -2.977805561386048794e-04 -5.089812329970300198e-04
1.821000000000000000e+03 1.915210151672363281e+01 1.437274265289306641e+01 -4.221968650817871094e-01 -7.243525981903076172e-01 -3.439648449420928955e-01 4.400990605354309082e-01
1.822000000000000000e+03 3.118496179580688477e+00 3.567746353149414062e+01 1.942997239530086517e-02 -4.565949738025665283e-01 -1.311495006084442139e-01 6.381173431873321533e-02
1.823000000000000000e+03 1.909627556800842285e+00 2.757517242431640625e+01 -2.206504577770829201e-03 -2.096362709999084473e-01 -6.355283409357070923e-02 8.189351856708526611e-02
1.824000000000000000e+03 3.239718437194824219e+00 3.032643890380859375e+01 1.165002491325139999e-02 -3.290066719055175781e-01 -9.520699828863143921e-02 1.220729425549507141e-01
1.825000000000000000e+03 1.925293326377868652e+00 2.616646194458007812e+01 -3.365778597071766853e-03 -1.604168713092803955e-01 -4.913479462265968323e-02 7.792497426271438599e-02
1.826000000000000000e+03 3.165974140167236328e+00 2.756696510314941406e+01 -1.647793687880039215e-03 -2.432382106781005859e-01 -7.346580177545547485e-02 1.276650279760360718e-01
1.827000000000000000e+03 6.215040683746337891e+00 3.095438957214355469e+01 4.070162773132324219e-02 -3.887326121330261230e-01 -1.044092997908592224e-01 1.817928105592727661e-01
1.828000000000000000e+03 3.375851392745971680e+00 3.185208892822265625e+01 2.001395821571350098e-02 -3.731713891029357910e-01 -1.059472337365150452e-01 1.087220683693885803e-01
1.829000000000000000e+03 3.171321868896484375e+00 2.892588424682617188e+01 5.679193418473005295e-03 -2.829540967941284180e-01 -8.318246901035308838e-02 1.228796094655990601e-01
1.830000000000000000e+03 6.120610237121582031e+00 3.738891983032226562e+01 6.440152227878570557e-02 -4.669677615165710449e-01 -1.207698732614517212e-01 8.122943341732025146e-02
1.831000000000000000e+03 3.024977207183837891e+00 3.441537475585937500e+01 2.216951921582221985e-02 -4.334332346916198730e-01 -1.233791112899780273e-01 7.433648407459259033e-02
1.832000000000000000e+03 3.193623304367065430e+00 3.323503875732421875e+01 1.829943992197513580e-02 -4.027939438819885254e-01 -1.153483465313911438e-01 9.380516409873962402e-02
1.833000000000000000e+03 4.222097873687744141e+00 -3.494099807739257812e+01 1.639995165169239044e-02 -2.335409671068191528e-01 -6.514230370521545410e-02 -4.810056835412979126e-02
1.834000000000000000e+03 3.913384914398193359e+00 -3.361628723144531250e+01 1.339838095009326935e-02 -2.199144661426544189e-01 -6.195482611656188965e-02 -5.248432606458663940e-02
1.835000000000000000e+03 3.185492753982543945e+00 -2.982564735412597656e+01 4.728530999273061752e-03 -1.719680726528167725e-01 -5.017186328768730164e-02 -5.840555205941200256e-02
1.836000000000000000e+03 1.864669203758239746e+00 -2.877182960510253906e+01 7.591760950163006783e-04 -1.489440947771072388e-01 -4.445547610521316528e-02 -3.918072208762168884e-02
1.837000000000000000e+03 4.160562038421630859e+00 -2.837023735046386719e+01 5.205280613154172897e-03 -1.573878377676010132e-01 -4.565476626157760620e-02 -7.452626526355743408e-02
1.838000000000000000e+03 3.315091133117675781e+00 2.319239425659179688e+01 -3.969081118702888489e-02 -1.033342480659484863e-01 -4.290751740336418152e-02 9.297097474336624146e-02
1.839000000000000000e+03 1.884861946105957031e+00 -1.326594352722167969e+01 9.923710022121667862e-04 6.258917273953557014e-04 4.854788130614906549e-04 2.055439166724681854e-03
1.840000000000000000e+03 1.758973240852355957e+00 2.042630004882812500e+01 -1.026332192122936249e-02 -3.061416093260049820e-03 -3.997421357780694962e-03 9.173500351607799530e-03
1.841000000000000000e+03 1.893073081970214844e+00 1.896327018737792969e+01 -6.904008332639932632e-03 7.719811983406543732e-04 -1.839608186855912209e-03 -1.355430693365633488e-03
1.842000000000000000e+03 5.534844875335693359e+00 1.820518302917480469e+01 -3.445250540971755981e-02 -3.140050172805786133e-02 -1.975590176880359650e-02 1.146255433559417725e-02
1.843000000000000000e+03 1.831952571868896484e+00 -1.914175415039062500e+01 -6.383879110217094421e-03 -3.945713397115468979e-03 -3.098877612501382828e-03 -5.134536884725093842e-03
1.844000000000000000e+03 3.848688125610351562e+00 -1.730512046813964844e+01 -8.810732513666152954e-03 -1.305719651281833649e-02 -6.560378707945346832e-03 9.612109279260039330e-04
1.845000000000000000e+03 5.433770656585693359e+00 1.336320781707763672e+01 4.658217541873455048e-03 -5.653939209878444672e-03 -2.987165353260934353e-04 1.784740015864372253e-03
1.846000000000000000e+03 1.906019330024719238e+00 -2.194651031494140625e+01 -6.096389144659042358e-03 -3.066442720592021942e-02 -1.102824509143829346e-02 -2.450658008456230164e-02
1.847000000000000000e+03 6.588724136352539062e+00 -1.953404617309570312e+01 -7.586550712585449219e-02 -2.761678956449031830e-02 -3.104468993842601776e-02 -5.788898095488548279e-02
1.848000000000000000e+03 3.960774898529052734e+00 5.216586112976074219e+00 -5.254566713119857013e-05 2.766799880191683769e-04 6.724029663018882275e-05 1.201851482619531453e-04
1.849000000000000000e+03 2.648070096969604492e+00 7.639087200164794922e+00 2.837350766640156507e-04 2.610400770208798349e-06 8.590364450355991721e-05 -3.197109908796846867e-04
1.850000000000000000e+03 4.508265495300292969e+00 1.453092098236083984e+01 8.174148388206958771e-03 -9.804311208426952362e-03 -4.890488344244658947e-04 4.251222126185894012e-04
1.851000000000000000e+03 1.862334847450256348e+00 1.744635963439941406e+01 -2.195341512560844421e-03 4.123948514461517334e-03 5.785820540040731430e-04 -8.193204179406166077e-03
1.852000000000000000e+03 3.488856077194213867e+00 1.993575859069824219e+01 -3.346714377403259277e-02 -3.536376729607582092e-02 -2.064927294850349426e-02 2.254896052181720734e-02
1.853000000000000000e+03 2.656593799591064453e+00 8.928045272827148438e+00 3.193417796865105629e-04 1.572431356180459261e-04 1.429754775017499924e-04 -1.368196681141853333e-04
1.854000000000000000e+03 2.756643772125244141e+00 -4.519251823425292969e+00 -1.151073156506754458e-04 5.838821380166336894e-05 -1.701573091850150377e-05 -6.681132799712941051e-05
1.855000000000000000e+03 1.942148447036743164e+00 -4.133986949920654297e+00 9.671910083852708340e-05 -8.924559369916096330e-05 2.242051095890928991e-06 -4.192039341432973742e-05
1.856000000000000000e+03 3.064410209655761719e+00 -1.655248260498046875e+01 1.067801495082676411e-03 -6.896614562720060349e-03 -1.748643815517425537e-03 3.342575160786509514e-03
1.857000000000000000e+03 7.724684238433837891e+00 -9.178411483764648438e+00 -3.468650902505032718e-05 3.706155112013220787e-04 1.007787068374454975e-04 -6.845661118859425187e-05
1.858000000000000000e+03 3.056066989898681641e+00 -2.857096862792968750e+01 3.645776538178324699e-03 -1.526113003492355347e-01 -4.468965530395507812e-02 -6.030457094311714172e-02
1.859000000000000000e+03 2.545206069946289062e+00 -3.546480941772460938e+01 7.813546806573867798e-03 -2.461559027433395386e-01 -7.150270789861679077e-02 -2.687640674412250519e-02
1.860000000000000000e+03 4.486412525177001953e+00 -3.632247924804687500e+01 1.928646862506866455e-02 -2.425154894590377808e-01 -6.696870923042297363e-02 -3.977685421705245972e-02
1.861000000000000000e+03 2.711606502532958984e+00 -7.804715633392333984e+00 1.161239124485291541e-04 6.384876178344711661e-05 5.399180372478440404e-05 1.067296325345523655e-04
1.862000000000000000e+03 5.836481094360351562e+00 -3.430349731445312500e+01 2.666188776493072510e-02 -2.237176746129989624e-01 -5.911673605442047119e-02 -6.608323007822036743e-02
1.863000000000000000e+03 3.102589130401611328e+00 -2.048765182495117188e+01 -1.760676503181457520e-02 -2.900392934679985046e-02 -1.398320868611335754e-02 -2.672773785889148712e-02
1.864000000000000000e+03 1.914972186088562012e+00 -2.334627723693847656e+01 -5.708025302737951279e-03 -5.051460489630699158e-02 -1.686678826808929443e-02 -3.216540068387985229e-02
1.865000000000000000e+03 3.107257843017578125e+00 -2.605847358703613281e+01 -2.380106830969452858e-03 -1.112220287322998047e-01 -3.408063948154449463e-02 -6.182999908924102783e-02
1.866000000000000000e+03 4.387348651885986328e+00 -2.608617401123046875e+01 -3.718498628586530685e-03 -1.271490156650543213e-01 -3.926025331020355225e-02 -8.265104889869689941e-02
1.867000000000000000e+03 3.250918388366699219e+00 -1.442612171173095703e+01 2.796220593154430389e-03 -3.335754154250025749e-03 -1.618600654182955623e-04 2.332119969651103020e-03
1.868000000000000000e+03 3.135268449783325195e+00 -1.303781986236572266e+01 2.135333372280001640e-03 -1.700420631095767021e-03 1.304738252656534314e-04 1.317662419751286507e-03
1.869000000000000000e+03 5.799389839172363281e+00 -9.444266319274902344e+00 1.492930605309084058e-04 1.962843962246552110e-04 1.036732355714775622e-04 2.326720641576685011e-05
1.870000000000000000e+03 2.739220380783081055e+00 1.020176029205322266e+01 9.406694443896412849e-04 1.875338239187840372e-05 2.878268423955887556e-04 -1.021755393594503403e-03
1.871000000000000000e+03 3.266637086868286133e+00 1.435439014434814453e+01 5.598391871899366379e-03 -5.923483986407518387e-03 -9.752766345627605915e-05 -4.914936143904924393e-03
1.872000000000000000e+03 6.826435565948486328e+00 1.663629150390625000e+01 6.893827579915523529e-03 -9.306391701102256775e-03 -7.237693062052130699e-04 1.444006711244583130e-02
1.873000000000000000e+03 5.591863155364990234e+00 1.668898773193359375e+01 -2.819883404299616814e-03 -2.089304290711879730e-02 -7.113878149539232254e-03 5.105940625071525574e-03
1.874000000000000000e+03 4.307853698730468750e+00 1.699271202087402344e+01 -3.799382597208023071e-03 -2.610512264072895050e-02 -8.971351198852062225e-03 -1.519279903732240200e-03
1.875000000000000000e+03 5.330604076385498047e+00 1.534428405761718750e+01 7.826400920748710632e-03 -1.698701642453670502e-02 -2.748184371739625931e-03 3.565982915461063385e-03
1.876000000000000000e+03 7.447026729583740234e+00 1.509092426300048828e+01 -5.532028153538703918e-04 1.319285295903682709e-02 3.791894996538758278e-03 1.089398097246885300e-02
1.877000000000000000e+03 4.080745220184326172e+00 -8.823611259460449219e+00 2.041239640675485134e-04 6.236770423129200935e-05 7.994750194484367967e-05 1.319777657045051455e-04
1.878000000000000000e+03 9.419404983520507812e+00 -7.130481719970703125e+00 -4.018329946120502427e-06 1.455885503673925996e-04 4.247106699040159583e-05 -6.743873382220044732e-05
1.879000000000000000e+03 8.625129699707031250e+00 -8.136198043823242188e+00 8.847339631756767631e-05 -2.460462856106460094e-04 -4.727186387754045427e-05 1.113911930588074028e-04
1.880000000000000000e+03 1.193556976318359375e+01 7.048277378082275391e+00 3.372587088961154222e-04 6.189660634845495224e-04 2.868674346245825291e-04 5.577572737820446491e-04
1.881000000000000000e+03 2.135204505920410156e+01 4.696862220764160156e+00 -1.291243135929107666e-01 -3.802909255027770996e-01 -1.528245657682418823e-01 3.027868866920471191e-01
1.882000000000000000e+03 1.593565464019775391e+01 1.922694015502929688e+01 -2.997564971446990967e-01 -7.293509244918823242e-01 -3.087322115898132324e-01 3.641934394836425781e-01
1.883000000000000000e+03 2.207901573181152344e+01 1.321047306060791016e+00 -9.332483261823654175e-02 -2.137378156185150146e-01 -9.211879223585128784e-02 2.193087041378021240e-01
1.884000000000000000e+03 2.362372398376464844e+01 4.031165599822998047e+00 -1.877204179763793945e-01 -2.708820104598999023e-01 -1.375807374715805054e-01 3.678263127803802490e-01
1.885000000000000000e+03 1.885117721557617188e+01 1.789293670654296875e+01 -3.034160435199737549e-01 -6.650565862655639648e-01 -2.905417978763580322e-01 3.358568847179412842e-01
1.886000000000000000e+03 1.951546287536621094e+01 1.286666870117187500e+01 -3.912540376186370850e-01 -7.359578609466552734e-01 -3.381635844707489014e-01 4.640922248363494873e-01
1.887000000000000000e+03 1.687672233581542969e+01 -1.400987052917480469e+01 -1.869301497936248779e-01 -1.047311350703239441e-01 -8.749838173389434814e-02 -1.625805050134658813e-01
1.888000000000000000e+03 1.754961967468261719e+01 -1.287644672393798828e+01 -1.781511008739471436e-01 -8.098005503416061401e-02 -7.773935049772262573e-02 -1.549222916364669800e-01
1.889000000000000000e+03 1.537584209442138672e+01 -1.643446922302246094e+01 -1.883810311555862427e-01 -1.454211920499801636e-01 -1.001406684517860413e-01 -1.700509339570999146e-01
1.890000000000000000e+03 2.045462608337402344e+01 8.652999877929687500e+00 -2.446819692850112915e-01 -6.165702342987060547e-01 -2.583756446838378906e-01 4.076262116432189941e-01
1.891000000000000000e+03 2.110541152954101562e+01 1.185896968841552734e+01 -3.598269820213317871e-01 -5.791217088699340820e-01 -2.816846072673797607e-01 4.477724432945251465e-01
1.892000000000000000e+03 1.065250396728515625e+01 -1.951556777954101562e+01 -1.154406666755676270e-01 -1.884573996067047119e-01 -9.116941690444946289e-02 -1.421624869108200073e-01
1.893000000000000000e+03 1.368911933898925781e+01 -2.016885185241699219e+01 -1.103933528065681458e-01 -1.800690889358520508e-01 -8.713873475790023804e-02 -1.524152159690856934e-01
1.894000000000000000e+03 1.261153602600097656e+01 2.208785629272460938e+01 -1.461302936077117920e-01 -5.704280734062194824e-01 -2.149675041437149048e-01 3.715331256389617920e-01
1.895000000000000000e+03 1.149844837188720703e+01 2.113705062866210938e+01 -2.294819355010986328e-01 -4.843347668647766113e-01 -2.141450047492980957e-01 3.834964036941528320e-01
1.896000000000000000e+03 4.682985305786132812e+00 -1.489290809631347656e+01 3.671358805149793625e-03 -5.651242565363645554e-03 -5.939651164226233959e-04 -1.481215236708521843e-03
1.897000000000000000e+03 4.546191692352294922e+00 -1.148437976837158203e+01 1.411518780514597893e-03 -1.107903197407722473e-03 9.108466474572196603e-05 -3.077403234783560038e-04
1.898000000000000000e+03 5.051614284515380859e+00 -4.030065155029296875e+01 1.922391913831233978e-02 -2.588800489902496338e-01 -7.189684361219406128e-02 -1.849615387618541718e-02
1.899000000000000000e+03 5.106940746307373047e+00 3.999615097045898438e+01 3.566260635852813721e-02 -4.856365323066711426e-01 -1.349921822547912598e-01 4.194160550832748413e-02
1.900000000000000000e+03 7.651803588867187500e+01 -8.878416061401367188e+00 -1.806792259216308594e+00 1.181432723999023438e+01 3.002260446548461914e+00 4.484851837158203125e+00
1.901000000000000000e+03 7.745195007324218750e+01 -8.249533176422119141e-01 -3.930657505989074707e-01 1.098879432678222656e+01 3.178718805313110352e+00 -1.873431801795959473e+00
1.902000000000000000e+03 7.411182403564453125e+01 -3.547200918197631836e+00 -7.502866983413696289e-01 2.440417766571044922e+00 5.070393681526184082e-01 -2.117047786712646484e+00
1.903000000000000000e+03 7.855728149414062500e+01 -3.082836627960205078e+00 -1.363675236701965332e+00 1.493503952026367188e+01 4.071409225463867188e+00 2.590059936046600342e-01
1.904000000000000000e+03 7.482866668701171875e+01 -9.069496154785156250e+00 -6.250888109207153320e-01 3.611397504806518555e+00 8.958926200866699219e-01 3.051091670989990234e+00
1.905000000000000000e+03 7.764969635009765625e+01 -8.044439315795898438e+00 -3.287215948104858398e+00 2.099594688415527344e+01 5.312619209289550781e+00 7.030512690544128418e-01
1.906000000000000000e+03 7.635615539550781250e+01 -1.354222536087036133e+00 -3.690483868122100830e-01 8.983465194702148438e+00 2.584325075149536133e+00 -2.606915473937988281e+00
1.907000000000000000e+03 7.719543457031250000e+01 -4.735841751098632812e+00 -3.171546220779418945e+00 1.930055618286132812e+01 4.838703155517578125e+00 -3.932321310043334961e+00
1.908000000000000000e+03 7.652996826171875000e+01 -4.215408325195312500e+00 -1.828048467636108398e+00 1.183416461944580078e+01 3.001834869384765625e+00 -5.020276546478271484e+00
1.909000000000000000e+03 7.239698791503906250e+01 -3.406200885772705078e+00 -1.608683943748474121e+00 7.336079478263854980e-01 -2.625228166580200195e-01 -6.918697357177734375e-01
1.910000000000000000e+03 7.855138397216796875e+01 -7.505733966827392578e+00 9.185080528259277344e-01 1.792177963256835938e+01 5.652086257934570312e+00 -3.730167388916015625e+00
1.911000000000000000e+03 7.909107208251953125e+01 -8.480220794677734375e+00 -9.875621795654296875e-01 1.462676429748535156e+01 4.091760635375976562e+00 -2.667559623718261719e+00
1.912000000000000000e+03 7.896378326416015625e+01 -7.767126083374023438e+00 -5.367741584777832031e-01 1.525485134124755859e+01 4.415422916412353516e+00 -3.406409263610839844e+00
1.913000000000000000e+03 7.299636077880859375e+01 -9.170994758605957031e+00 -1.466838240623474121e+00 1.086638927459716797e+00 -1.140597835183143616e-01 9.747616052627563477e-01
1.914000000000000000e+03 7.760921478271484375e+01 -1.179570388793945312e+01 -3.510459363460540771e-01 1.140630245208740234e+01 3.316576957702636719e+00 1.768853783607482910e+00
1.915000000000000000e+03 7.516500854492187500e+01 -9.337429046630859375e+00 -5.943039059638977051e-01 5.225620746612548828e+00 1.389394998550415039e+00 3.475589990615844727e+00
1.916000000000000000e+03 7.198430633544921875e+01 -3.855266094207763672e+00 -2.409851789474487305e+00 3.451819121837615967e-01 -6.194009780883789062e-01 -2.524609565734863281e-01
1.917000000000000000e+03 7.190180206298828125e+01 -3.042435407638549805e+00 -1.379670977592468262e+00 7.402894496917724609e-01 -1.918144524097442627e-01 -6.208295226097106934e-01
1.918000000000000000e+03 6.962805938720703125e+01 -2.622785329818725586e+00 -1.769330263137817383e+00 2.332193702459335327e-01 -4.608332812786102295e-01 1.357273198664188385e-02
1.919000000000000000e+03 7.302466583251953125e+01 -3.637606382369995117e+00 -1.478540658950805664e+00 1.060883641242980957e+00 -1.252971291542053223e-01 -1.000191569328308105e+00
1.920000000000000000e+03 2.202167510986328125e+01 3.778547286987304688e+00 -1.300161480903625488e-01 -3.157744407653808594e-01 -1.337371766567230225e-01 3.002974987030029297e-01
1.921000000000000000e+03 2.482244110107421875e+01 -3.446599483489990234e+00 -1.459196954965591431e-01 -4.229971021413803101e-02 -5.646582320332527161e-02 1.243552342057228088e-01
1.922000000000000000e+03 2.379193496704101562e+01 -2.467419624328613281e+00 -1.194716915488243103e-01 -6.869129091501235962e-02 -5.644889548420906067e-02 1.344481110572814941e-01
1.923000000000000000e+03 2.011548805236816406e+01 -1.235422015190124512e+00 -2.262962609529495239e-02 -8.556840568780899048e-02 -3.245941177010536194e-02 5.803903937339782715e-02
1.924000000000000000e+03 2.623548126220703125e+01 -3.457809448242187500e+00 -2.070144265890121460e-01 -3.202390298247337341e-02 -7.171150296926498413e-02 1.500671803951263428e-01
1.925000000000000000e+03 2.434014701843261719e+01 -2.716313123703002930e+00 -1.380562782287597656e-01 -6.033436208963394165e-02 -5.951718986034393311e-02 1.407819390296936035e-01
1.926000000000000000e+03 2.774485969543457031e+01 -3.504143953323364258e+00 -2.724352180957794189e-01 -2.479701116681098938e-02 -8.916966617107391357e-02 1.716144829988479614e-01
1.927000000000000000e+03 2.629945182800292969e+01 -2.763616323471069336e+00 -2.180512994527816772e-01 -4.545681923627853394e-02 -7.905243337154388428e-02 1.814518272876739502e-01
1.928000000000000000e+03 8.549654960632324219e+00 4.156046390533447266e+00 -8.423352846875786781e-05 4.829886893276125193e-04 1.196265511680394411e-04 3.475780831649899483e-04
1.929000000000000000e+03 2.711659812927246094e+01 -2.757822751998901367e+00 -2.525105476379394531e-01 -4.022567719221115112e-02 -8.782087266445159912e-02 1.962555348873138428e-01
1.930000000000000000e+03 2.920212554931640625e+01 -3.552089214324951172e+00 -3.450420796871185303e-01 -1.494799833744764328e-02 -1.079970225691795349e-01 1.857623159885406494e-01
1.931000000000000000e+03 9.594258308410644531e+00 -3.121971607208251953e+00 -1.195347886095987633e-05 4.968070788891054690e-05 1.131816952693043277e-05 1.068664787453599274e-04
1.932000000000000000e+03 8.960741043090820312e+00 -3.279042243957519531e+00 -7.661019481020048261e-06 -3.800961712840944529e-05 -1.370119116472778842e-05 -5.604817488347180188e-05
1.933000000000000000e+03 7.859748363494873047e+00 4.134059906005859375e+00 1.462928485125303268e-04 -4.053406883031129837e-04 -7.771435048198327422e-05 -3.527551598381251097e-04
1.934000000000000000e+03 7.675458908081054688e+00 4.992445468902587891e+00 -1.887129474198445678e-04 7.225634763017296791e-04 1.601551630301401019e-04 2.747694670688360929e-04
1.935000000000000000e+03 3.764366626739501953e+00 6.306324958801269531e+00 1.806907675927504897e-04 -4.888004332315176725e-05 3.954321437049657106e-05 -1.725447655189782381e-04
1.936000000000000000e+03 2.457626104354858398e+00 4.885110378265380859e+00 6.969930109335109591e-05 1.295975471293786541e-05 2.479771683283615857e-05 -1.134015546995215118e-04
1.937000000000000000e+03 3.195482254028320312e+00 3.648597717285156250e+00 2.923335887317080051e-05 -2.864440148186986335e-06 7.910675776656717062e-06 -9.906790364766493440e-05
1.938000000000000000e+03 1.411264657974243164e+00 4.991808414459228516e+00 -1.031748324749059975e-04 -1.128780641010962427e-04 -6.481586751760914922e-05 2.446531725581735373e-04
1.939000000000000000e+03 1.708473682403564453e+00 3.386742591857910156e+00 3.177107646479271352e-05 -2.513358776923269033e-04 -6.586944073205813766e-05 8.102978608803823590e-05
1.940000000000000000e+03 3.064717864990234375e+01 -3.549468278884887695e+00 -4.219879209995269775e-01 -8.247502148151397705e-03 -1.290706247091293335e-01 1.986798197031021118e-01
1.941000000000000000e+03 3.003964614868164062e+01 -2.873799562454223633e+00 -3.928589820861816406e-01 -1.726401597261428833e-02 -1.230368986725807190e-01 2.287760823965072632e-01
1.942000000000000000e+03 2.539512062072753906e+01 -2.397766113281250000e+00 -1.823752671480178833e-01 -5.982374772429466248e-02 -7.265970110893249512e-02 1.760480105876922607e-01
1.943000000000000000e+03 2.281418991088867188e+01 -2.447032928466796875e+00 -8.920881897211074829e-02 -7.187087088823318481e-02 -4.832390695810317993e-02 1.112751737236976624e-01
1.944000000000000000e+03 2.811230659484863281e+01 -1.210826039314270020e+00 -3.100424706935882568e-01 -5.754913762211799622e-02 -1.102774813771247864e-01 2.829694449901580811e-01
1.945000000000000000e+03 3.211485290527343750e+01 -3.533995151519775391e+00 -5.054630041122436523e-01 -3.342519281432032585e-03 -1.526416540145874023e-01 2.095320373773574829e-01
1.946000000000000000e+03 3.012287712097167969e+01 -2.193697452545166016e+00 -3.982517421245574951e-01 -2.434444800019264221e-02 -1.267788559198379517e-01 2.633304595947265625e-01
1.947000000000000000e+03 7.476512432098388672e+00 -3.356808900833129883e+00 -1.043601696437690407e-05 -4.191212156001711264e-06 -4.388168690638849512e-06 -5.620265073957853019e-05
1.948000000000000000e+03 1.074149131774902344e+01 -5.243100166320800781e+00 3.370436161276302300e-06 7.116697088349610567e-05 2.236122236354276538e-05 -4.819061723537743092e-05
1.949000000000000000e+03 3.359833145141601562e+01 -3.498484849929809570e+00 -5.947194099426269531e-01 -1.163582783192396164e-05 -1.784193217754364014e-01 2.191542387008666992e-01
1.950000000000000000e+03 3.222420883178710938e+01 -2.848357915878295898e+00 -5.088530778884887695e-01 -7.568038068711757660e-03 -1.549263298511505127e-01 2.493857890367507935e-01
1.951000000000000000e+03 2.933666801452636719e+01 -2.879889488220214844e+00 -3.578710258007049561e-01 -2.148643322288990021e-02 -1.138072386384010315e-01 2.209998518228530884e-01
1.952000000000000000e+03 3.508773040771484375e+01 -3.453772068023681641e+00 -6.879566311836242676e-01 1.781349768862128258e-03 -2.058525830507278442e-01 2.275313585996627808e-01
1.953000000000000000e+03 4.537889480590820312e+01 -1.197714328765869141e+01 -1.038877010345458984e+00 -4.243483021855354309e-02 -3.243935704231262207e-01 -3.962945938110351562e-01
1.954000000000000000e+03 4.237075042724609375e+01 -1.059558105468750000e+01 -1.044225215911865234e+00 -2.650149911642074585e-02 -3.212180137634277344e-01 -2.965707480907440186e-01
1.955000000000000000e+03 4.681728363037109375e+01 -1.046299362182617188e+01 -1.303728938102722168e+00 -2.699404582381248474e-02 -3.992168903350830078e-01 -3.368320167064666748e-01
1.956000000000000000e+03 4.833397293090820312e+01 -1.202064418792724609e+01 -1.159428238868713379e+00 -4.544025659561157227e-02 -3.614605367183685303e-01 -4.320744574069976807e-01
1.957000000000000000e+03 4.316473007202148438e+01 -1.132734680175781250e+01 -1.009766221046447754e+00 -3.344272822141647339e-02 -3.129626810550689697e-01 -3.417209386825561523e-01
1.958000000000000000e+03 6.880912780761718750e+01 -3.324123382568359375e+00 -2.582385540008544922e+00 6.520458310842514038e-02 -7.551543116569519043e-01 2.767060399055480957e-01
1.959000000000000000e+03 4.904069137573242188e+01 -1.044289207458496094e+01 -1.439236521720886230e+00 -2.536890283226966858e-02 -4.393816590309143066e-01 -3.615166544914245605e-01
1.960000000000000000e+03 4.978773498535156250e+01 -1.043116760253906250e+01 -1.486678361892700195e+00 -2.537242136895656586e-02 -4.536152184009552002e-01 -3.684777021408081055e-01
1.961000000000000000e+03 4.010394287109375000e+01 -1.064781188964843750e+01 -9.258360862731933594e-01 -2.698441408574581146e-02 -2.858461439609527588e-01 -2.767331004142761230e-01
1.962000000000000000e+03 5.134219360351562500e+01 -1.192616653442382812e+01 -1.299411892890930176e+00 -4.392641410231590271e-02 -4.030014872550964355e-01 -4.621151983737945557e-01
1.963000000000000000e+03 3.376978302001953125e+01 -2.110221862792968750e+00 -5.848367810249328613e-01 -7.173218298703432083e-03 -1.776029914617538452e-01 3.001181483268737793e-01
1.964000000000000000e+03 3.658657455444335938e+01 -3.408402681350708008e+00 -7.853012681007385254e-01 2.138916170224547386e-03 -2.349487096071243286e-01 2.350263297557830811e-01
1.965000000000000000e+03 5.278453826904296875e+01 -1.040696048736572266e+01 -1.680454730987548828e+00 -2.869334444403648376e-02 -5.127444267272949219e-01 -3.990817368030548096e-01
1.966000000000000000e+03 3.935094833374023438e+01 -1.065853309631347656e+01 -8.882224559783935547e-01 -2.857142500579357147e-02 -2.750381529331207275e-01 -2.694559693336486816e-01
1.967000000000000000e+03 4.463290405273437500e+01 -1.123962593078613281e+01 -1.090110421180725098e+00 -3.421021625399589539e-02 -3.372961878776550293e-01 -3.536616861820220947e-01
1.968000000000000000e+03 4.233355331420898438e+01 -9.836280822753906250e+00 -1.114219784736633301e+00 -1.846296153962612152e-02 -3.398048281669616699e-01 -2.558054327964782715e-01
1.969000000000000000e+03 4.530950164794921875e+01 -9.752313613891601562e+00 -1.301450133323669434e+00 -1.780978776514530182e-02 -3.957779705524444580e-01 -2.778958082199096680e-01
1.970000000000000000e+03 4.459511947631835938e+01 -1.049878311157226562e+01 -1.172019124031066895e+00 -2.505451627075672150e-02 -3.591220974922180176e-01 -3.146037757396697998e-01
1.971000000000000000e+03 4.828616333007812500e+01 -9.714722633361816406e+00 -1.502501010894775391e+00 -1.789370365440845490e-02 -4.561184346675872803e-01 -3.059849441051483154e-01
1.972000000000000000e+03 4.755949020385742188e+01 -1.045884799957275391e+01 -1.348266005516052246e+00 -2.644771337509155273e-02 -4.124141335487365723e-01 -3.453049063682556152e-01
1.973000000000000000e+03 5.577116775512695312e+01 -1.037777614593505859e+01 -1.871896743774414062e+00 -3.316087275743484497e-02 -5.715172886848449707e-01 -4.295556247234344482e-01
1.974000000000000000e+03 4.086190414428710938e+01 -1.063302803039550781e+01 -9.638085365295410156e-01 -2.798962406814098358e-02 -2.975394427776336670e-01 -2.830190658569335938e-01
1.975000000000000000e+03 3.933400344848632812e+01 -9.908063888549804688e+00 -9.452642798423767090e-01 -2.028789557516574860e-02 -2.896656692028045654e-01 -2.320143729448318481e-01
1.976000000000000000e+03 5.875961685180664062e+01 -1.036637592315673828e+01 -2.045291662216186523e+00 -3.884805738925933838e-02 -6.252418756484985352e-01 -4.603085219860076904e-01
1.977000000000000000e+03 5.127317810058593750e+01 -9.687319755554199219e+00 -1.719986438751220703e+00 -1.826917752623558044e-02 -5.214766860008239746e-01 -3.343587517738342285e-01
1.978000000000000000e+03 5.053935241699218750e+01 -1.042438602447509766e+01 -1.535111784934997559e+00 -2.483092620968818665e-02 -4.679828286170959473e-01 -3.764747381210327148e-01
1.979000000000000000e+03 3.633164215087890625e+01 -9.986225128173828125e+00 -7.905312180519104004e-01 -2.187809161841869354e-02 -2.437227815389633179e-01 -2.091741114854812622e-01
1.980000000000000000e+03 3.860129165649414062e+01 -1.067083930969238281e+01 -8.519100546836853027e-01 -2.810657396912574768e-02 -2.640049755573272705e-01 -2.622558474540710449e-01
1.981000000000000000e+03 5.427867889404296875e+01 -1.039217853546142578e+01 -1.777419567108154297e+00 -2.989589422941207886e-02 -5.421946644783020020e-01 -4.143391847610473633e-01
1.982000000000000000e+03 6.529155731201171875e+01 -2.525559425354003906e+00 -2.283217906951904297e+00 -1.390231214463710785e-02 -6.891360282897949219e-01 4.007601737976074219e-01
1.983000000000000000e+03 6.541429901123046875e+01 -1.853666424751281738e+00 -1.879303097724914551e+00 5.757832899689674377e-03 -5.620635747909545898e-01 3.586682677268981934e-01
1.984000000000000000e+03 5.353157043457031250e+01 -1.039985656738281250e+01 -1.727789759635925293e+00 -2.895489148795604706e-02 -5.270234346389770508e-01 -4.081645607948303223e-01
1.985000000000000000e+03 3.733490371704101562e+01 -3.386684179306030273e+00 -8.349019885063171387e-01 2.007486997172236443e-03 -2.498683482408523560e-01 2.386272996664047241e-01
1.986000000000000000e+03 3.601692581176757812e+01 -2.031288623809814453e+00 -7.052581906318664551e-01 -3.463670611381530762e-03 -2.126165628433227539e-01 3.174245357513427734e-01
1.987000000000000000e+03 6.325037002563476562e+01 -1.034344482421875000e+01 -2.203155517578125000e+00 -3.296995162963867188e-02 -6.708376407623291016e-01 -4.704362750053405762e-01
1.988000000000000000e+03 5.725658798217773438e+01 -9.654999732971191406e+00 -2.181937456130981445e+00 -2.784276567399501801e-02 -6.629341244697570801e-01 -3.983146548271179199e-01
1.989000000000000000e+03 5.651862716674804688e+01 -1.037397193908691406e+01 -1.916337847709655762e+00 -3.513492643833160400e-02 -5.854418277740478516e-01 -4.383109807968139648e-01
1.990000000000000000e+03 6.249708938598632812e+01 -1.035079860687255859e+01 -2.191050767898559570e+00 -3.301684930920600891e-02 -6.672202944755554199e-01 -4.747397601604461670e-01
1.991000000000000000e+03 3.558015823364257812e+01 -1.000472068786621094e+01 -7.545281648635864258e-01 -2.276888117194175720e-02 -2.331891208887100220e-01 -2.031324654817581177e-01
1.992000000000000000e+03 3.710829544067382812e+01 -1.146417617797851562e+01 -7.321186065673828125e-01 -3.636878356337547302e-02 -2.305462062358856201e-01 -2.813664674758911133e-01
1.993000000000000000e+03 6.698510742187500000e+01 -1.024712276458740234e+01 -2.126301050186157227e+00 3.725730627775192261e-02 -6.267131567001342773e-01 -3.581285178661346436e-01
1.994000000000000000e+03 6.843820953369140625e+01 -1.083525753021240234e+01 -1.483359932899475098e+00 2.039146721363067627e-01 -3.838335871696472168e-01 -1.084497272968292236e-01
1.995000000000000000e+03 6.661884307861328125e+01 -3.254765748977661133e+00 -2.737252712249755859e+00 -1.603360846638679504e-02 -8.259859085083007812e-01 3.944429457187652588e-01
1.996000000000000000e+03 6.733877563476562500e+01 -3.283657550811767578e+00 -2.718318939208984375e+00 7.370589883066713810e-04 -8.152745366096496582e-01 3.683536648750305176e-01
1.997000000000000000e+03 6.602239227294921875e+01 -2.567160606384277344e+00 -2.266071319580078125e+00 -4.055082332342863083e-03 -6.810379624366760254e-01 3.831810653209686279e-01
1.998000000000000000e+03 6.455076599121093750e+01 -2.492737770080566406e+00 -2.293257474899291992e+00 -2.669976651668548584e-02 -6.959871649742126465e-01 4.198090732097625732e-01
1.999000000000000000e+03 6.379677200317382812e+01 -2.471473455429077148e+00 -2.289646387100219727e+00 -2.685852721333503723e-02 -6.949514746665954590e-01 4.314230084419250488e-01
2.000000000000000000e+03 5.950480651855468750e+01 -1.036629295349121094e+01 -2.082775354385375977e+00 -3.959489613771438599e-02 -6.367110610008239746e-01 -4.671544432640075684e-01
2.001000000000000000e+03 6.174423980712890625e+01 -1.035721492767333984e+01 -2.172445774078369141e+00 -3.563065081834793091e-02 -6.624229550361633301e-01 -4.774449467658996582e-01
2.002000000000000000e+03 6.549348449707031250e+01 -9.606687545776367188e+00 -2.652550697326660156e+00 -2.608638070523738861e-02 -8.035911321640014648e-01 -4.462792575359344482e-01
2.003000000000000000e+03 6.549645233154296875e+01 -1.030363559722900391e+01 -2.187952756881713867e+00 -6.945095490664243698e-03 -6.584693193435668945e-01 -4.305573999881744385e-01
2.004000000000000000e+03 6.065601348876953125e+01 -3.140022754669189453e+00 -2.525687932968139648e+00 -3.369662165641784668e-02 -7.678154110908508301e-01 4.106663465499877930e-01
2.005000000000000000e+03 6.918047332763671875e+01 -1.014743423461914062e+01 -1.876947164535522461e+00 1.733954548835754395e-01 -5.110655426979064941e-01 -1.259939521551132202e-01
2.006000000000000000e+03 3.444809722900390625e+01 -2.780290365219116211e+00 -6.351488232612609863e-01 -1.809883979149162769e-03 -1.910876184701919556e-01 2.663793265819549561e-01
2.007000000000000000e+03 6.674771881103515625e+01 -2.600375413894653320e+00 -2.234223365783691406e+00 3.200481086969375610e-02 -6.606655716896057129e-01 3.459137380123138428e-01
2.008000000000000000e+03 6.816006469726562500e+01 -2.672566652297973633e+00 -2.129840135574340820e+00 8.190258592367172241e-02 -6.143812537193298340e-01 2.415947020053863525e-01
2.009000000000000000e+03 6.077320098876953125e+01 -2.443460941314697266e+00 -2.237648010253906250e+00 -3.514841198921203613e-02 -6.818388700485229492e-01 4.422807693481445312e-01
2.010000000000000000e+03 5.551055526733398438e+01 -2.434809446334838867e+00 -1.978918671607971191e+00 -3.477396443486213684e-02 -6.041077971458435059e-01 4.036964476108551025e-01
2.011000000000000000e+03 5.390158081054687500e+01 -3.139540195465087891e+00 -2.048300027847290039e+00 -2.319127134978771210e-02 -6.214473843574523926e-01 3.410723805427551270e-01
2.012000000000000000e+03 6.303976821899414062e+01 -2.457327842712402344e+00 -2.285641670227050781e+00 -3.467217832803726196e-02 -6.960941553115844727e-01 4.392215013504028320e-01
2.013000000000000000e+03 6.227926635742187500e+01 -2.448323488235473633e+00 -2.272800445556640625e+00 -3.343377634882926941e-02 -6.918702721595764160e-01 4.421238303184509277e-01
2.014000000000000000e+03 1.095591259002685547e+01 3.359920024871826172e+00 1.484676031395792961e-04 8.229572995333001018e-05 6.922900502104312181e-05 3.173910663463175297e-04
2.015000000000000000e+03 1.160405731201171875e+01 4.995423316955566406e+00 -2.025949506787583232e-04 -3.338616224937140942e-04 -1.609369646757841110e-04 -7.090729777701199055e-04
2.016000000000000000e+03 5.777376556396484375e+01 -2.435857057571411133e+00 -2.105000734329223633e+00 -3.665076196193695068e-02 -6.424954533576965332e-01 4.250874817371368408e-01
2.017000000000000000e+03 6.002925872802734375e+01 -2.443538427352905273e+00 -2.212231636047363281e+00 -3.796818479895591736e-02 -6.750599145889282227e-01 4.401416480541229248e-01
2.018000000000000000e+03 5.927579498291015625e+01 -2.440768957138061523e+00 -2.179368972778320312e+00 -3.682912513613700867e-02 -6.648594141006469727e-01 4.361271858215332031e-01
2.019000000000000000e+03 7.199139404296875000e+01 -1.049396610260009766e+01 -7.257174849510192871e-01 1.174162507057189941e+00 1.345335096120834351e-01 9.299454689025878906e-01
2.020000000000000000e+03 5.238936996459960938e+01 -3.146103143692016602e+00 -1.934288024902343750e+00 -2.049215883016586304e-02 -5.864340662956237793e-01 3.272618353366851807e-01
2.021000000000000000e+03 6.400126647949218750e+01 -1.033462715148925781e+01 -2.206482648849487305e+00 -2.757930569350719452e-02 -6.702185869216918945e-01 -4.628332555294036865e-01
2.022000000000000000e+03 7.063843536376953125e+01 -1.015945053100585938e+01 -1.491255879402160645e+00 4.390743672847747803e-01 -3.156544566154479980e-01 2.289742529392242432e-01
2.023000000000000000e+03 5.852044677734375000e+01 -2.437730789184570312e+00 -2.144473314285278320e+00 -3.879173099994659424e-02 -6.549795269966125488e-01 4.306386411190032959e-01
2.024000000000000000e+03 6.474922943115234375e+01 -1.032228183746337891e+01 -2.203010082244873047e+00 -2.227313257753849030e-02 -6.675849556922912598e-01 -4.506045281887054443e-01
2.025000000000000000e+03 5.401755523681640625e+01 -2.445133447647094727e+00 -1.890278458595275879e+00 -3.112206980586051941e-02 -5.764201879501342773e-01 3.899881541728973389e-01
2.026000000000000000e+03 6.990732574462890625e+01 -1.013716602325439453e+01 -1.709174752235412598e+00 2.936072647571563721e-01 -4.246702492237091064e-01 2.210616879165172577e-02
2.027000000000000000e+03 5.024360656738281250e+01 -2.453218460083007812e+00 -1.647271871566772461e+00 -2.241111919283866882e-02 -5.009049177169799805e-01 3.607260882854461670e-01
2.028000000000000000e+03 3.959753036499023438e+01 -3.326421499252319336e+00 -9.900295734405517578e-01 -3.124293580185621977e-04 -2.971026003360748291e-01 2.482047230005264282e-01
2.029000000000000000e+03 3.594159317016601562e+01 -2.730682373046875000e+00 -7.230298519134521484e-01 -3.374789957888424397e-04 -2.170102000236511230e-01 2.760332226753234863e-01
2.030000000000000000e+03 5.175368118286132812e+01 -2.452204942703247070e+00 -1.746937513351440430e+00 -2.462553605437278748e-02 -5.314689278602600098e-01 3.712867498397827148e-01
2.031000000000000000e+03 5.702553558349609375e+01 -2.432893753051757812e+00 -2.064618349075317383e+00 -3.791924566030502319e-02 -6.307612657546997070e-01 4.176781773567199707e-01
2.032000000000000000e+03 5.626726531982421875e+01 -2.431457519531250000e+00 -2.021568536758422852e+00 -3.474996611475944519e-02 -6.168955564498901367e-01 4.114530384540557861e-01
2.033000000000000000e+03 3.896125411987304688e+01 -2.645523548126220703e+00 -9.092523455619812012e-01 -1.618261681869626045e-03 -2.732611894607543945e-01 2.924998104572296143e-01
2.034000000000000000e+03 4.863013458251953125e+01 -3.168763637542724609e+00 -1.649466037750244141e+00 -1.559805404394865036e-02 -4.995192289352416992e-01 2.982094287872314453e-01
2.035000000000000000e+03 4.637413024902343750e+01 -3.197545289993286133e+00 -1.479949712753295898e+00 -1.084992196410894394e-02 -4.472399055957794189e-01 2.832071781158447266e-01
2.036000000000000000e+03 4.799850082397460938e+01 -2.480899810791015625e+00 -1.499666333198547363e+00 -1.881857216358184814e-02 -4.555454850196838379e-01 3.442956805229187012e-01
2.037000000000000000e+03 4.423978042602539062e+01 -2.532588720321655273e+00 -1.248656511306762695e+00 -1.083763688802719116e-02 -3.778482377529144287e-01 3.203929066658020020e-01
2.038000000000000000e+03 4.197690963745117188e+01 -2.566048860549926758e+00 -1.101590514183044434e+00 -6.409790366888046265e-03 -3.324000835418701172e-01 3.080374300479888916e-01
2.039000000000000000e+03 4.562400817871093750e+01 -3.208437681198120117e+00 -1.424157381057739258e+00 -1.001450605690479279e-02 -4.302515387535095215e-01 2.788860201835632324e-01
2.040000000000000000e+03 4.574655914306640625e+01 -2.518373250961303711e+00 -1.350174188613891602e+00 -1.330066379159688950e-02 -4.090424478054046631e-01 3.289944827556610107e-01
2.041000000000000000e+03 5.325928878784179688e+01 -2.447950363159179688e+00 -1.842962741851806641e+00 -2.789141237735748291e-02 -5.612562298774719238e-01 3.833435177803039551e-01
2.042000000000000000e+03 3.669580459594726562e+01 -2.709241628646850586e+00 -7.684887051582336426e-01 -9.580105688655748963e-05 -2.305753380060195923e-01 2.806217074394226074e-01
2.043000000000000000e+03 5.250098800659179688e+01 -2.450261831283569336e+00 -1.795655608177185059e+00 -2.739787288010120392e-02 -5.469160079956054688e-01 3.769907653331756592e-01
2.044000000000000000e+03 3.333328247070312500e+01 -1.079630947113037109e+01 -6.153773069381713867e-01 -2.804113738238811493e-02 -1.930255293846130371e-01 -2.183581143617630005e-01
2.045000000000000000e+03 3.409385299682617188e+01 -1.077203083038330078e+01 -6.478706002235412598e-01 -2.794960141181945801e-02 -2.027460634708404541e-01 -2.244064956903457642e-01
2.046000000000000000e+03 5.100458908081054688e+01 -2.452426195144653320e+00 -1.698179006576538086e+00 -2.438751049339771271e-02 -5.167699456214904785e-01 3.658307790756225586e-01
2.047000000000000000e+03 4.948568725585937500e+01 -2.459178924560546875e+00 -1.597958564758300781e+00 -2.177416346967220306e-02 -4.859198033809661865e-01 3.549575209617614746e-01
2.048000000000000000e+03 3.971432495117187500e+01 -2.623601436614990234e+00 -9.567921161651611328e-01 -2.305212663486599922e-03 -2.877292037010192871e-01 2.966674864292144775e-01
2.049000000000000000e+03 4.121444320678710938e+01 -2.581314563751220703e+00 -1.051667094230651855e+00 -4.800976254045963287e-03 -3.169404268264770508e-01 3.046018481254577637e-01
2.050000000000000000e+03 4.724500274658203125e+01 -2.493117809295654297e+00 -1.450260996818542480e+00 -1.642074622213840485e-02 -4.400045275688171387e-01 3.390322327613830566e-01
2.051000000000000000e+03 4.649253845214843750e+01 -2.506767034530639648e+00 -1.400152921676635742e+00 -1.534042693674564362e-02 -4.246479868888854980e-01 3.341728150844573975e-01
2.052000000000000000e+03 4.358685684204101562e+01 -1.835692167282104492e+00 -1.136439085006713867e+00 -1.306644920259714127e-02 -3.448516428470611572e-01 3.615483939647674561e-01
2.053000000000000000e+03 4.499802398681640625e+01 -2.526381731033325195e+00 -1.300156712532043457e+00 -1.232120580971240997e-02 -3.937433660030364990e-01 3.250987231731414795e-01
2.054000000000000000e+03 3.634566879272460938e+01 -1.072830581665039062e+01 -7.469314336776733398e-01 -2.912686020135879517e-02 -2.328174859285354614e-01 -2.427877485752105713e-01
2.055000000000000000e+03 2.941525077819824219e+01 -1.095575046539306641e+01 -4.591253399848937988e-01 -2.101937308907508850e-02 -1.440434157848358154e-01 -1.954183131456375122e-01
2.056000000000000000e+03 3.022268486022949219e+01 -1.092985057830810547e+01 -4.896000325679779053e-01 -2.365974523127079010e-02 -1.539779305458068848e-01 -2.000271528959274292e-01
2.057000000000000000e+03 3.178320121765136719e+01 -1.011111164093017578e+01 -5.801429152488708496e-01 -2.008243277668952942e-02 -1.800676137208938599e-01 -1.781044304370880127e-01
2.058000000000000000e+03 3.179387664794921875e+01 -1.087133407592773438e+01 -5.510793924331665039e-01 -2.658548019826412201e-02 -1.732994616031646729e-01 -2.090124487876892090e-01
2.059000000000000000e+03 1.074786567687988281e+01 4.954820156097412109e+00 6.613799632759764791e-05 4.499334027059376240e-04 1.548214204376563430e-04 5.795945180580019951e-04
2.060000000000000000e+03 2.695066452026367188e+01 -1.095893955230712891e+01 -3.730345964431762695e-01 -1.398029923439025879e-02 -1.161044687032699585e-01 -1.807307004928588867e-01
2.061000000000000000e+03 9.816956520080566406e+00 -4.772550582885742188e+00 4.972928218194283545e-05 -1.493342570029199123e-04 -2.988149390148464590e-05 5.122685615788213909e-05
2.062000000000000000e+03 4.682410240173339844e+00 -3.621644020080566406e+00 -1.619246904738247395e-05 -1.257379881280940026e-05 -8.629880539956502616e-06 -9.177639731205999851e-05
2.063000000000000000e+03 4.201787471771240234e+00 -4.618283748626708984e+00 -3.295314309070818126e-05 2.508528041289537214e-06 -9.133384992310311645e-06 -1.122585163102485240e-04
2.064000000000000000e+03 6.579637527465820312e+00 -4.533093929290771484e+00 8.174785034498199821e-05 -9.938947914633899927e-05 -5.292488822306040674e-06 1.860320594460063148e-06
2.065000000000000000e+03 8.232030868530273438e+00 -3.370624065399169922e+00 8.314249271279550157e-07 2.742843025771435350e-05 8.477956725982949138e-06 8.611169323557987809e-05
2.066000000000000000e+03 3.786898136138916016e+00 -7.657341480255126953e+00 6.276013300521299243e-05 2.794096508296206594e-05 2.721032797126099467e-05 -9.095616405829787254e-05
2.067000000000000000e+03 3.243365764617919922e+00 -3.963334560394287109e+00 -2.674712595762684941e-05 -2.733928340603597462e-05 -1.622592390049248934e-05 -1.113673715735785663e-04
2.068000000000000000e+03 3.499647140502929688e+00 -5.571063041687011719e+00 -4.646933666663244367e-05 9.578317076375242323e-06 -1.106730542232980952e-05 -1.295567344641312957e-04
2.069000000000000000e+03 2.595027685165405273e+00 -5.487641334533691406e+00 8.355538011528551579e-05 2.075923703159787692e-06 2.568939089542254806e-05 5.517336467164568603e-05
2.070000000000000000e+03 3.101595306396484375e+01 -1.090283012390136719e+01 -5.203623175621032715e-01 -2.467471919953823090e-02 -1.635111123323440552e-01 -2.043881267309188843e-01
2.071000000000000000e+03 2.864549064636230469e+01 -1.018486690521240234e+01 -4.484342336654663086e-01 -1.459196023643016815e-02 -1.389078646898269653e-01 -1.618110090494155884e-01
2.072000000000000000e+03 2.307583808898925781e+01 -1.056013965606689453e+01 -2.543549537658691406e-01 -2.735010813921689987e-03 -7.712699472904205322e-02 -1.478216201066970825e-01
2.073000000000000000e+03 2.382416915893554688e+01 -1.063168811798095703e+01 -2.772793471813201904e-01 -3.602250246331095695e-03 -8.426447957754135132e-02 -1.546006798744201660e-01
2.074000000000000000e+03 7.069734954833984375e+01 -2.982956647872924805e+00 -1.812577962875366211e+00 3.400248289108276367e-01 -4.417659342288970947e-01 -1.394823491573333740e-01
2.075000000000000000e+03 6.887246704101562500e+01 -2.683875322341918945e+00 -2.000616073608398438e+00 1.233916655182838440e-01 -5.631673336029052734e-01 1.563778072595596313e-01
2.076000000000000000e+03 2.545644187927246094e+01 -1.006075668334960938e+01 -3.299189507961273193e-01 -3.879716154187917709e-03 -1.001396030187606812e-01 -1.427233070135116577e-01
2.077000000000000000e+03 2.860224533081054688e+01 -1.097322559356689453e+01 -4.296174645423889160e-01 -1.941864937543869019e-02 -1.347108334302902222e-01 -1.914408951997756958e-01
2.078000000000000000e+03 1.170515727996826172e+01 4.148336887359619141e+00 2.819018263835459948e-04 7.425257354043424129e-05 1.068463170668110251e-04 4.530552541837096214e-04
2.079000000000000000e+03 2.778240966796875000e+01 -1.097453022003173828e+01 -4.005174934864044189e-01 -1.672280393540859222e-02 -1.251720935106277466e-01 -1.862927526235580444e-01
2.080000000000000000e+03 1.816364097595214844e+01 -1.184744548797607422e+01 -1.655037850141525269e-01 -6.048851460218429565e-02 -6.779769062995910645e-02 -1.437114924192428589e-01
2.081000000000000000e+03 2.456620407104492188e+01 -1.073843574523925781e+01 -2.999801337718963623e-01 -4.794458858668804169e-03 -9.143237769603729248e-02 -1.610884517431259155e-01
2.082000000000000000e+03 2.162400627136230469e+01 -1.048454952239990234e+01 -2.147692441940307617e-01 -5.956567358225584030e-03 -6.621774286031723022e-02 -1.368518173694610596e-01
2.083000000000000000e+03 2.096588516235351562e+01 -1.039972877502441406e+01 -1.961221694946289062e-01 -1.012649852782487869e-02 -6.187460198998451233e-02 -1.305264830589294434e-01
2.084000000000000000e+03 7.570304870605468750e+01 -1.392401981353759766e+01 3.476212322711944580e-01 7.205368041992187500e+00 2.265896797180175781e+00 2.273271560668945312e+00
2.085000000000000000e+03 7.314970397949218750e+01 -9.715663909912109375e+00 -8.711628913879394531e-01 1.593526005744934082e+00 2.167089432477951050e-01 1.370570540428161621e+00
2.086000000000000000e+03 1.874188423156738281e+01 -1.095179080963134766e+01 -1.533005684614181519e-01 -4.327137395739555359e-02 -5.897158384323120117e-02 -1.283192336559295654e-01
2.087000000000000000e+03 1.932510948181152344e+01 -1.018203735351562500e+01 -1.463450491428375244e-01 -2.581776119768619537e-02 -5.164884030818939209e-02 -1.130439192056655884e-01
2.088000000000000000e+03 1.012140941619873047e+01 1.004480361938476562e+01 1.460096827941015363e-04 -1.452154479920864105e-03 -3.918434376828372478e-04 -5.386240663938224316e-04
2.089000000000000000e+03 9.952723503112792969e+00 8.544453620910644531e+00 3.681122907437384129e-04 -1.266545965336263180e-03 -2.695301081985235214e-04 -2.869083255063742399e-04
2.090000000000000000e+03 7.898645782470703125e+01 -9.606917381286621094e+00 -8.513543009757995605e-01 1.474229240417480469e+01 4.167281627655029297e+00 -7.163366675376892090e-01
2.091000000000000000e+03 7.794548797607421875e+01 -2.188348531723022461e+00 -8.311609625816345215e-01 1.325461959838867188e+01 3.727037668228149414e+00 -1.105428576469421387e+00
2.092000000000000000e+03 7.711569213867187500e+01 -1.693079113960266113e+00 -7.647435069084167480e-01 1.094457435607910156e+01 3.053949356079101562e+00 -2.265947341918945312e+00
2.093000000000000000e+03 2.962123870849609375e+00 1.150892829895019531e+01 2.064203144982457161e-03 -3.827454929705709219e-04 5.044372519478201866e-04 -1.371738500893115997e-03
2.094000000000000000e+03 6.631164073944091797e+00 1.823321151733398438e+01 -5.296784266829490662e-02 -1.962064020335674286e-02 -2.177654579281806946e-02 1.306706760078668594e-02
2.095000000000000000e+03 3.073510408401489258e+00 1.723268699645996094e+01 -3.840929595753550529e-03 -1.246859878301620483e-02 -4.892858676612377167e-03 -8.378502912819385529e-03
2.096000000000000000e+03 9.935187339782714844e+00 4.968816280364990234e+00 1.047821642714552581e-04 -4.338797007221728563e-04 -9.872925875242799520e-05 -6.253994069993495941e-04
2.097000000000000000e+03 4.137423515319824219e+00 1.103989315032958984e+01 2.066702814772725105e-03 -1.325810793787240982e-03 2.222675975644960999e-04 -8.847524295561015606e-04
2.098000000000000000e+03 3.045799732208251953e+00 -1.907360267639160156e+01 -1.682705618441104889e-02 -1.494274567812681198e-02 -9.530941024422645569e-03 -1.292457804083824158e-02
2.099000000000000000e+03 6.067843437194824219e+00 -1.823366546630859375e+01 -5.701306834816932678e-02 -1.296223793178796768e-02 -2.099259197711944580e-02 -1.691160723567008972e-02
2.100000000000000000e+03 9.846451759338378906e+00 -3.648066997528076172e+00 5.563270315178669989e-05 -1.393075654050335288e-04 -2.510245758458040655e-05 2.324272827536333352e-05
2.101000000000000000e+03 7.114682197570800781e+00 -2.112763786315917969e+01 -7.290326803922653198e-02 -7.221993803977966309e-02 -4.353696107864379883e-02 -1.032309904694557190e-01
2.102000000000000000e+03 2.184385681152343750e+01 7.785492420196533203e+00 -2.436799854040145874e-01 -4.680424630641937256e-01 -2.135167270898818970e-01 4.205386340618133545e-01
2.103000000000000000e+03 2.107569885253906250e+01 1.667566895484924316e-01 -4.826027154922485352e-02 -1.606972068548202515e-01 -6.268724799156188965e-02 1.306236386299133301e-01
2.104000000000000000e+03 9.255805015563964844e+00 9.446246147155761719e+00 -2.549176570028066635e-04 1.793926814571022987e-03 4.617027589119970798e-04 1.263561134692281485e-04
2.105000000000000000e+03 1.252775859832763672e+01 5.025227069854736328e+00 3.614477755036205053e-04 9.172337013296782970e-05 1.359513407805934548e-04 4.591653705574572086e-04
2.106000000000000000e+03 2.295944404602050781e+01 -1.521533489227294922e+00 -9.862598776817321777e-02 -1.001882031559944153e-01 -5.964425951242446899e-02 1.453126519918441772e-01
2.107000000000000000e+03 2.110449790954589844e+01 1.303463578224182129e+00 -5.664230510592460632e-02 -2.154445350170135498e-01 -8.162605017423629761e-02 1.692558974027633667e-01
2.108000000000000000e+03 8.159700393676757812e+00 -5.211479663848876953e+00 8.067679300438612700e-05 -1.174051503767259419e-04 -1.101850648410618305e-05 9.092088293982669711e-05
2.109000000000000000e+03 8.449738502502441406e+00 1.202962303161621094e+01 6.444164318963885307e-04 -6.476557464338839054e-04 -9.717989541968563572e-07 4.793936022906564176e-05
2.110000000000000000e+03 5.828001499176025391e+00 1.136281299591064453e+01 2.158428775146603584e-03 -1.696555758826434612e-03 1.385618816129863262e-04 9.253079770132899284e-04
2.111000000000000000e+03 1.358098602294921875e+01 2.109579658508300781e+01 -1.865686625242233276e-01 -6.233012080192565918e-01 -2.429609596729278564e-01 3.713091611862182617e-01
2.112000000000000000e+03 7.560229492187500000e+01 1.411817264556884766e+01 1.768023818731307983e-01 5.302534580230712891e+00 1.643801093101501465e+00 -8.403531908988952637e-01
2.113000000000000000e+03 7.294306945800781250e+01 3.310245895385742188e+01 1.030378565192222595e-01 3.591089487075805664e+00 1.108238220214843750e+00 -2.190525829792022705e-01
2.114000000000000000e+03 7.540925598144531250e+01 3.208306884765625000e+01 4.551794007420539856e-02 3.923833608627319336e+00 1.190805435180664062e+00 -1.775958389043807983e-01
2.115000000000000000e+03 7.564910888671875000e+01 1.676550865173339844e+01 1.342162042856216431e-01 5.001071929931640625e+00 1.540586471557617188e+00 -6.738126873970031738e-01
2.116000000000000000e+03 7.666710662841796875e+01 9.762781143188476562e+00 1.778917014598846436e-01 6.445077896118164062e+00 1.986890792846679688e+00 -1.003907799720764160e+00
2.117000000000000000e+03 7.510002899169921875e+01 8.428138732910156250e+00 3.774444758892059326e-01 5.823068141937255859e+00 1.860153675079345703e+00 -1.415400981903076172e+00
2.118000000000000000e+03 7.689438629150390625e+01 1.807449150085449219e+01 6.313769519329071045e-02 5.146855831146240234e+00 1.562998056411743164e+00 -4.611058831214904785e-01
2.119000000000000000e+03 7.567037963867187500e+01 1.806318283081054688e+01 1.264188289642333984e-01 4.865094661712646484e+00 1.497454047203063965e+00 -6.067066788673400879e-01
2.120000000000000000e+03 7.564765167236328125e+01 2.062838554382324219e+01 9.813306480646133423e-02 4.612638473510742188e+00 1.413231492042541504e+00 -4.913527965545654297e-01
2.121000000000000000e+03 7.441310882568359375e+01 1.681293487548828125e+01 2.112661600112915039e-01 4.654146194458007812e+00 1.459623694419860840e+00 -7.938377857208251953e-01
2.122000000000000000e+03 7.674479675292968750e+01 2.338963890075683594e+01 4.150159657001495361e-02 4.573602199554443359e+00 1.384531140327453613e+00 -3.065058588981628418e-01
2.123000000000000000e+03 7.556257629394531250e+01 2.191105461120605469e+01 8.706486970186233521e-02 4.488508224487304688e+00 1.372671961784362793e+00 -4.479915499687194824e-01
2.124000000000000000e+03 7.505244445800781250e+01 -2.883126449584960938e+01 2.101126909255981445e-01 5.031101703643798828e+00 1.572364330291748047e+00 6.869398355484008789e-01
2.125000000000000000e+03 7.466977691650390625e+01 -2.295856475830078125e+01 3.780488073825836182e-01 5.454133033752441406e+00 1.749654531478881836e+00 1.228789210319519043e+00
2.126000000000000000e+03 7.547924041748046875e+01 1.138636112213134766e+01 2.418752908706665039e-01 5.618959903717041016e+00 1.758250594139099121e+00 -1.065921902656555176e+00
2.127000000000000000e+03 7.402983856201171875e+01 1.027229022979736328e+01 4.148370325565338135e-01 5.040165901184082031e+00 1.636500954627990723e+00 -1.345918536186218262e+00
2.128000000000000000e+03 7.665386199951171875e+01 2.472938537597656250e+01 4.466485232114791870e-02 4.458106517791748047e+00 1.350831389427185059e+00 -2.788480818271636963e-01
2.129000000000000000e+03 7.399244689941406250e+01 2.419825553894042969e+01 1.318511813879013062e-01 4.066418170928955078e+00 1.259480834007263184e+00 -4.586147964000701904e-01
2.130000000000000000e+03 7.637294769287109375e+01 2.750004005432128906e+01 4.512048512697219849e-02 4.243975162506103516e+00 1.286728739738464355e+00 -2.370893955230712891e-01
2.131000000000000000e+03 7.501908874511718750e+01 2.720622253417968750e+01 7.055768370628356934e-02 4.088914871215820312e+00 1.247841835021972656e+00 -3.133704364299774170e-01
2.132000000000000000e+03 7.561407470703125000e+01 -2.460508728027343750e+01 2.398957759141921997e-01 5.706887722015380859e+00 1.784035086631774902e+00 9.584178924560546875e-01
2.133000000000000000e+03 7.541376495361328125e+01 -2.602666473388671875e+01 2.236262410879135132e-01 5.471560478210449219e+00 1.708556056022644043e+00 8.593150377273559570e-01
2.134000000000000000e+03 7.581658172607421875e+01 -2.320294380187988281e+01 2.461844235658645630e-01 6.003120422363281250e+00 1.874791502952575684e+00 1.066046357154846191e+00
2.135000000000000000e+03 7.578566741943359375e+01 3.048189926147460938e+01 5.266712233424186707e-02 4.032240867614746094e+00 1.225472450256347656e+00 -1.994962245225906372e-01
2.136000000000000000e+03 7.471067047119140625e+01 2.862062454223632812e+01 8.016053587198257446e-02 3.980177879333496094e+00 1.218101501464843750e+00 -2.919936478137969971e-01
2.137000000000000000e+03 7.629120635986328125e+01 -1.792857933044433594e+01 3.446810543537139893e-01 7.331082820892333984e+00 2.302729129791259766e+00 1.593908429145812988e+00
2.138000000000000000e+03 7.424811553955078125e+01 -3.188085365295410156e+01 2.202889472246170044e-01 4.622009754180908203e+00 1.452689647674560547e+00 5.316672325134277344e-01
2.139000000000000000e+03 7.373745727539062500e+01 -3.559074401855468750e+01 1.994178593158721924e-01 4.370374202728271484e+00 1.370937705039978027e+00 3.282976150512695312e-01
2.140000000000000000e+03 7.737902832031250000e+01 3.806498765945434570e+00 1.819534003734588623e-01 8.731390953063964844e+00 2.674003124237060547e+00 -1.478678345680236816e+00
2.141000000000000000e+03 7.663002014160156250e+01 2.399255037307739258e+00 2.814535796642303467e-01 8.302824974060058594e+00 2.575283765792846680e+00 -1.937637329101562500e+00
2.142000000000000000e+03 7.477695465087890625e+01 3.359893417358398438e+01 6.041249260306358337e-02 3.818420886993408203e+00 1.163650035858154297e+00 -1.638859212398529053e-01
2.143000000000000000e+03 7.410508728027343750e+01 3.006696510314941406e+01 8.673517405986785889e-02 3.836663484573364258e+00 1.177019596099853516e+00 -2.724335491657257080e-01
2.144000000000000000e+03 7.728839874267578125e+01 -1.928897857666015625e+01 1.747177392244338989e-01 7.767967700958251953e+00 2.382805585861206055e+00 1.152966141700744629e+00
2.145000000000000000e+03 7.623752593994140625e+01 -1.919646453857421875e+01 3.072195351123809814e-01 7.003622055053710938e+00 2.193252325057983398e+00 1.448141932487487793e+00
2.146000000000000000e+03 7.731510162353515625e+01 -1.793647766113281250e+01 2.158608883619308472e-01 8.203933715820312500e+00 2.525938272476196289e+00 1.319595575332641602e+00
2.147000000000000000e+03 7.467641448974609375e+01 -3.029392051696777344e+01 2.166281342506408691e-01 4.826378345489501953e+00 1.512902021408081055e+00 6.041277050971984863e-01
2.148000000000000000e+03 7.381008148193359375e+01 -2.852430534362792969e+01 3.049079477787017822e-01 4.694215297698974609e+00 1.499737024307250977e+00 7.825784087181091309e-01
2.149000000000000000e+03 7.592861938476562500e+01 -3.206708145141601562e+01 1.200260445475578308e-01 5.016481876373291016e+00 1.540952444076538086e+00 4.036412239074707031e-01
2.150000000000000000e+03 7.600655364990234375e+01 4.734326839447021484e+00 3.590679168701171875e-01 7.095151901245117188e+00 2.236265897750854492e+00 -1.728136420249938965e+00
2.151000000000000000e+03 7.500252532958984375e+01 4.192784786224365234e+00 5.290895104408264160e-01 6.126749038696289062e+00 1.996751666069030762e+00 -1.926278352737426758e+00
2.152000000000000000e+03 7.447095489501953125e+01 7.087800025939941406e+00 4.794285595417022705e-01 5.548070907592773438e+00 1.808249831199645996e+00 -1.619666457176208496e+00
2.153000000000000000e+03 7.543826293945312500e+01 6.020517826080322266e+00 4.185464084148406982e-01 6.350761890411376953e+00 2.030792474746704102e+00 -1.654223322868347168e+00
2.154000000000000000e+03 7.409698486328125000e+01 -4.090161800384521484e+00 -1.347326755523681641e+00 1.632421135902404785e+00 8.552834391593933105e-02 -1.702050447463989258e+00
2.155000000000000000e+03 7.590530395507812500e+01 -1.105484104156494141e+01 -5.173006653785705566e-01 8.050611495971679688e+00 2.259993314743041992e+00 2.881693363189697266e+00
2.156000000000000000e+03 7.796805572509765625e+01 -1.068377017974853516e+01 -9.746656417846679688e-01 1.321957683563232422e+01 3.673473358154296875e+00 1.101853489875793457e+00
2.157000000000000000e+03 7.336532592773437500e+01 -1.027068805694580078e+01 -4.388248324394226074e-01 2.275928258895874023e+00 5.511310696601867676e-01 1.741967797279357910e+00
2.158000000000000000e+03 7.503540039062500000e+01 -4.001202583312988281e+00 -6.653366684913635254e-01 4.025533676147460938e+00 1.008059144020080566e+00 -3.200489282608032227e+00
2.159000000000000000e+03 3.097990274429321289e+00 1.581492710113525391e+01 3.800628706812858582e-03 -1.051414571702480316e-02 -2.014055149629712105e-03 -7.774787489324808121e-03
2.160000000000000000e+03 2.929359197616577148e+00 -1.775499725341796875e+01 -1.156846620142459869e-02 -7.505353074520826340e-03 -5.722145549952983856e-03 1.243051956407725811e-03
2.161000000000000000e+03 5.444715023040771484e+00 1.959686470031738281e+01 -8.038995414972305298e-02 -3.956551849842071533e-02 -3.598664328455924988e-02 3.528554365038871765e-02
2.162000000000000000e+03 3.146180152893066406e+00 1.869112014770507812e+01 -1.661868393421173096e-02 -2.330880239605903625e-02 -1.197824627161026001e-02 4.367223940789699554e-03
2.163000000000000000e+03 5.262118816375732422e+00 2.097627067565917969e+01 -9.661658853292465210e-02 -6.540498137474060059e-02 -4.860647022724151611e-02 8.574886620044708252e-02
2.164000000000000000e+03 4.652854442596435547e+00 -1.644032859802246094e+01 3.567886888049542904e-04 -1.091597508639097214e-02 -3.167755901813507080e-03 -4.451055719982832670e-04
2.165000000000000000e+03 4.362114429473876953e+00 1.834808158874511719e+01 -2.831027098000049591e-02 -3.073486685752868652e-02 -1.771354116499423981e-02 6.446870509535074234e-03
2.166000000000000000e+03 4.659993648529052734e+00 2.486156463623046875e+01 -3.528193384408950806e-02 -1.913844496011734009e-01 -6.799991428852081299e-02 1.558350175619125366e-01
2.167000000000000000e+03 4.449992656707763672e+00 3.016601943969726562e+01 2.091909572482109070e-02 -3.434993326663970947e-01 -9.677406400442123413e-02 1.484002918004989624e-01
2.168000000000000000e+03 3.249767065048217773e+00 1.288535213470458984e+01 4.146174993366003036e-03 -3.261777805164456367e-03 2.653192204888910055e-04 -2.798368921503424644e-03
2.169000000000000000e+03 2.878317356109619141e+00 -9.060118675231933594e+00 1.388217060593888164e-04 4.242582508595660329e-05 5.437426079879514873e-05 -6.082865002099424601e-05
2.170000000000000000e+03 3.046120643615722656e+00 -1.034361171722412109e+01 7.022009813226759434e-04 -2.798140048980712891e-04 1.267160987481474876e-04 3.356905071996152401e-04
2.171000000000000000e+03 5.109705924987792969e+00 -1.889387512207031250e+01 -4.275413230061531067e-02 -1.929934881627559662e-02 -1.861604489386081696e-02 -2.747897803783416748e-02
2.172000000000000000e+03 3.198257207870483398e+00 -2.330824279785156250e+01 -1.179870124906301498e-02 -6.679958850145339966e-02 -2.357948757708072662e-02 -5.189372226595878601e-02
2.173000000000000000e+03 5.464817047119140625e+00 -2.010961151123046875e+01 -5.162515118718147278e-02 -3.736145794391632080e-02 -2.669598348438739777e-02 -5.031732097268104553e-02
2.174000000000000000e+03 5.701453685760498047e+00 2.309099197387695312e+01 -9.152515232563018799e-02 -1.594783812761306763e-01 -7.530105859041213989e-02 1.723445951938629150e-01
2.175000000000000000e+03 4.491746425628662109e+00 2.631355094909667969e+01 -2.028298191726207733e-02 -2.320214211940765381e-01 -7.569132000207901001e-02 1.681286841630935669e-01
2.176000000000000000e+03 3.159742355346679688e+00 -2.470972633361816406e+01 -8.578416891396045685e-03 -8.907632529735565186e-02 -2.929642237722873688e-02 -5.906653776764869690e-02
2.177000000000000000e+03 4.493930339813232422e+00 -2.328173446655273438e+01 -2.360521070659160614e-02 -7.910490036010742188e-02 -3.081303462386131287e-02 -7.208637148141860962e-02
2.178000000000000000e+03 4.472848892211914062e+00 -2.181105804443359375e+01 -2.775616012513637543e-02 -5.827262625098228455e-02 -2.580863609910011292e-02 -5.838750302791595459e-02
2.179000000000000000e+03 4.401204109191894531e+00 -2.470770072937011719e+01 -1.278136577457189560e-02 -1.032156646251678467e-01 -3.479910641908645630e-02 -8.130563050508499146e-02
2.180000000000000000e+03 3.382421731948852539e+00 -3.108648872375488281e+01 7.165538147091865540e-03 -1.892697066068649292e-01 -5.463125184178352356e-02 -5.724481865763664246e-02
2.181000000000000000e+03 4.395684719085693359e+00 -2.946618080139160156e+01 7.441929541528224945e-03 -1.699315756559371948e-01 -4.874689131975173950e-02 -7.557550072669982910e-02
2.182000000000000000e+03 4.591506958007812500e+00 9.348667144775390625e+00 9.715459891594946384e-04 -2.457803930155932903e-04 2.177296701120212674e-04 -3.869358624797314405e-04
2.183000000000000000e+03 5.383524894714355469e+00 3.337173461914062500e+01 4.424320533871650696e-02 -4.176346063613891602e-01 -1.120174229145050049e-01 1.322593092918395996e-01
2.184000000000000000e+03 4.418367862701416016e+00 3.555476760864257812e+01 4.047461226582527161e-02 -4.473295807838439941e-01 -1.220564916729927063e-01 9.142033755779266357e-02
2.185000000000000000e+03 5.937915802001953125e+00 -1.164839267730712891e+01 3.048951621167361736e-04 8.166778716258704662e-04 3.364719159435480833e-04 -9.508087532594799995e-04
2.186000000000000000e+03 3.126353502273559570e+00 -1.167009162902832031e+01 1.050444552674889565e-03 -4.378329031169414520e-04 1.837835006881505251e-04 7.308477070182561874e-04
2.187000000000000000e+03 6.137662887573242188e+00 9.598256111145019531e+00 1.000061631202697754e-03 -3.195342724211513996e-04 2.041582192759960890e-04 1.382304908474907279e-04
2.188000000000000000e+03 3.592808961868286133e+00 -6.566769599914550781e+00 4.689876368502154946e-05 8.463994163321331143e-05 3.946161086787469685e-05 8.795308531261980534e-05
2.189000000000000000e+03 6.767246723175048828e+00 -3.224808883666992188e+01 2.672501280903816223e-02 -2.084816098213195801e-01 -5.452697724103927612e-02 -8.853515237569808960e-02
2.190000000000000000e+03 4.655103206634521484e+00 -3.064399909973144531e+01 1.043257117271423340e-02 -1.864780485630035400e-01 -5.281364172697067261e-02 -7.592295855283737183e-02
2.191000000000000000e+03 3.627054214477539062e+00 -3.234687805175781250e+01 8.749489672482013702e-03 -2.058001160621643066e-01 -5.911518633365631104e-02 -5.569429323077201843e-02
2.192000000000000000e+03 4.414764881134033203e+00 2.891468429565429688e+01 8.606983348727226257e-03 -3.077800273895263672e-01 -8.975191414356231689e-02 1.621410399675369263e-01
2.193000000000000000e+03 4.105239868164062500e+00 3.402929306030273438e+01 2.911422587931156158e-02 -4.206244647502899170e-01 -1.174530684947967529e-01 1.061749756336212158e-01
2.194000000000000000e+03 4.838209629058837891e+00 3.164021682739257812e+01 3.036197833716869354e-02 -3.807753920555114746e-01 -1.051240265369415283e-01 1.461049169301986694e-01
2.195000000000000000e+03 3.736086606979370117e+00 8.861965179443359375e+00 6.737101939506828785e-04 -2.279435866512358189e-04 1.337299909209832549e-04 -3.803174477070569992e-04
2.196000000000000000e+03 5.593266487121582031e+00 5.378458023071289062e+00 -7.376880239462479949e-05 3.377739922143518925e-04 7.920155621832236648e-05 1.473094453103840351e-04
2.197000000000000000e+03 4.457842350006103516e+00 -3.780297088623046875e+01 1.544903311878442764e-02 -2.538368701934814453e-01 -7.151634991168975830e-02 -3.364074602723121643e-02
2.198000000000000000e+03 7.783237934112548828e+00 -7.556993961334228516e+00 -6.117325392551720142e-05 2.681569312699139118e-04 6.209510320331901312e-05 1.922519913932774216e-05
2.199000000000000000e+03 1.460658836364746094e+01 -1.766620445251464844e+01 -1.778456419706344604e-01 -1.586340814828872681e-01 -1.009439155459403992e-01 -1.588621437549591064e-01
2.200000000000000000e+03 1.723869132995605469e+01 -1.583179473876953125e+01 -1.916514486074447632e-01 -1.044290959835052490e-01 -8.882416039705276489e-02 -1.742293089628219604e-01
2.201000000000000000e+03 5.219736576080322266e+00 -8.384939193725585938e+00 1.926318946061655879e-04 8.029306286516657565e-07 5.803044768981635571e-05 -1.015233938232995570e-04
2.202000000000000000e+03 6.478166580200195312e+00 1.968478202819824219e+01 -1.140768751502037048e-01 -3.301786631345748901e-02 -4.412842169404029846e-02 5.118937790393829346e-02
2.203000000000000000e+03 4.436691284179687500e+00 1.956694984436035156e+01 -4.968447238206863403e-02 -4.060747846961021423e-02 -2.708758413791656494e-02 2.810040116310119629e-02
2.204000000000000000e+03 1.071953105926513672e+01 -2.083976364135742188e+01 -8.752828091382980347e-02 -1.723722964525222778e-01 -7.797016948461532593e-02 -1.493517458438873291e-01
2.205000000000000000e+03 2.137129592895507812e+01 1.046536827087402344e+01 -3.258071839809417725e-01 -5.508475899696350098e-01 -2.629964351654052734e-01 4.481436312198638916e-01
2.206000000000000000e+03 6.711781501770019531e+00 -1.031646728515625000e+01 3.085825010202825069e-04 -1.823832863010466099e-04 3.785976514336653054e-05 -1.601510302862152457e-04
2.207000000000000000e+03 8.379662513732910156e+00 2.160667419433593750e+01 -1.936357021331787109e-01 -2.069356292486190796e-01 -1.201713979244232178e-01 2.777154743671417236e-01
2.208000000000000000e+03 2.246549034118652344e+01 5.467128753662109375e+00 -1.876296550035476685e-01 -3.634862005710601807e-01 -1.653347611427307129e-01 3.799511194229125977e-01
2.209000000000000000e+03 2.210922050476074219e+01 6.544506549835205078e+00 -2.086710333824157715e-01 -4.148650765419006348e-01 -1.870608329772949219e-01 3.986445665359497070e-01
2.210000000000000000e+03 4.448499202728271484e+00 -1.008191394805908203e+01 5.108999321237206459e-04 -9.030703949974849820e-06 1.505607651779428124e-04 -2.626281930133700371e-04
2.211000000000000000e+03 1.652132415771484375e+01 -1.710526084899902344e+01 -1.796098947525024414e-01 -1.249839812517166138e-01 -9.137816727161407471e-02 -1.687567532062530518e-01
2.212000000000000000e+03 7.474106597900390625e+01 4.003098297119140625e+01 6.000537425279617310e-02 3.729053735733032227e+00 1.136717796325683594e+00 -2.512083575129508972e-02
2.213000000000000000e+03 2.045209312438964844e+01 -1.187689781188964844e+01 -2.092432826757431030e-01 -2.308235876262187958e-02 -6.969769299030303955e-02 -1.597718447446823120e-01
2.214000000000000000e+03 1.955918693542480469e+01 -1.150189971923828125e+01 -1.857148706912994385e-01 -3.123220615088939667e-02 -6.508412212133407593e-02 -1.466037482023239136e-01
2.215000000000000000e+03 1.797227668762207031e+01 2.004142761230468750e+01 -1.742278486490249634e-01 -6.576718091964721680e-01 -2.495699077844619751e-01 2.937625646591186523e-01
2.216000000000000000e+03 1.728041267395019531e+01 1.833922004699707031e+01 -3.205107748508453369e-01 -7.179176211357116699e-01 -3.115285038948059082e-01 3.561086952686309814e-01
2.217000000000000000e+03 2.296632194519042969e+01 4.640655994415283203e+00 -1.845348328351974487e-01 -3.168878257274627686e-01 -1.504268050193786621e-01 3.711802363395690918e-01
2.218000000000000000e+03 2.039250564575195312e+01 1.626191139221191406e+01 -3.281349837779998779e-01 -5.852702260017395020e-01 -2.740215659141540527e-01 3.563914597034454346e-01
2.219000000000000000e+03 1.471741962432861328e+01 2.015524482727050781e+01 -2.487573176622390747e-01 -6.865625381469726562e-01 -2.805959582328796387e-01 3.669068515300750732e-01
2.220000000000000000e+03 1.390603923797607422e+01 -1.885751914978027344e+01 -1.477357298135757446e-01 -1.721224784851074219e-01 -9.595746546983718872e-02 -1.484916210174560547e-01
2.221000000000000000e+03 1.494579887390136719e+01 -1.970878219604492188e+01 -1.229485198855400085e-01 -1.662701517343521118e-01 -8.676560223102569580e-02 -1.570663601160049438e-01
2.222000000000000000e+03 2.541982460021972656e+01 7.646599769592285156e+00 -2.914080619812011719e-01 -2.703871130943298340e-01 -1.685385406017303467e-01 4.812062084674835205e-01
2.223000000000000000e+03 7.521553039550781250e+01 -8.583052635192871094e+00 -6.196601390838623047e-01 4.136333465576171875e+00 1.055001974105834961e+00 3.469652652740478516e+00
2.224000000000000000e+03 7.496904754638671875e+01 -8.608932495117187500e+00 -7.063037157058715820e-01 3.338784456253051758e+00 7.897442579269409180e-01 3.060489654541015625e+00
2.225000000000000000e+03 7.605677795410156250e+01 -4.310880661010742188e+00 -9.918153882026672363e-01 8.645422935485839844e+00 2.296082258224487305e+00 -5.118757724761962891e+00
2.226000000000000000e+03 7.798260498046875000e+01 -4.525830268859863281e+00 -2.877491950988769531e+00 1.942290687561035156e+01 4.963624477386474609e+00 8.022291064262390137e-01
2.227000000000000000e+03 7.772849273681640625e+01 -4.394306659698486328e+00 -3.121423244476318359e+00 1.873983955383300781e+01 4.685524940490722656e+00 -5.510391592979431152e-01
2.228000000000000000e+03 7.788928985595703125e+01 -3.942106723785400391e+00 -2.633353948593139648e+00 1.701672172546386719e+01 4.315010070800781250e+00 -2.585066556930541992e-01
2.229000000000000000e+03 7.688394165039062500e+01 -4.559585571289062500e+00 -2.601011037826538086e+00 1.558864879608154297e+01 3.896291255950927734e+00 -5.044403553009033203e+00
2.230000000000000000e+03 7.588080596923828125e+01 -4.149600028991699219e+00 -8.544579148292541504e-01 7.468521118164062500e+00 1.984218955039978027e+00 -4.709565162658691406e+00
2.231000000000000000e+03 7.511368560791015625e+01 -4.296281814575195312e+00 -6.863601803779602051e-01 3.799463510513305664e+00 9.339309930801391602e-01 -3.304344415664672852e+00
2.232000000000000000e+03 7.534715270996093750e+01 -3.795443773269653320e+00 -6.747546792030334473e-01 5.617408752441406250e+00 1.482796192169189453e+00 -3.807598114013671875e+00
2.233000000000000000e+03 7.537166595458984375e+01 -8.915355682373046875e+00 -6.606918573379516602e-01 5.450766563415527344e+00 1.437022447586059570e+00 3.917610168457031250e+00
2.234000000000000000e+03 7.566421508789062500e+01 -4.083895206451416016e+00 -7.423493862152099609e-01 6.271729946136474609e+00 1.658814191818237305e+00 -4.406654357910156250e+00
2.235000000000000000e+03 7.664179992675781250e+01 -4.532577991485595703e+00 -2.010261058807373047e+00 1.357922649383544922e+01 3.470689773559570312e+00 -5.516342163085937500e+00
2.236000000000000000e+03 7.730643463134765625e+01 -2.851133346557617188e+00 -1.878011822700500488e+00 1.311297798156738281e+01 3.370489835739135742e+00 -1.976059675216674805e+00
2.237000000000000000e+03 7.674067687988281250e+01 -8.277398109436035156e+00 -2.192352533340454102e+00 1.439925289154052734e+01 3.662070035934448242e+00 5.514729022979736328e+00
2.238000000000000000e+03 7.870984649658203125e+01 -3.940768718719482422e+00 -1.679329991340637207e+00 1.560688591003417969e+01 4.178267002105712891e+00 1.796810030937194824e+00
2.239000000000000000e+03 7.424669647216796875e+01 -9.184007644653320312e+00 -7.314059734344482422e-01 2.569247961044311523e+00 5.513526201248168945e-01 2.288131237030029297e+00
2.240000000000000000e+03 7.285626983642578125e+01 -1.054991531372070312e+01 -3.548657000064849854e-01 1.945591330528259277e+00 4.772177040576934814e-01 1.464486598968505859e+00
2.241000000000000000e+03 7.183375549316406250e+01 -2.586398124694824219e+00 -9.657233953475952148e-01 9.408000111579895020e-01 -7.477013859897851944e-03 -7.644715309143066406e-01
2.242000000000000000e+03 7.733386230468750000e+01 -8.700113296508789062e+00 -3.020862102508544922e+00 1.674336814880371094e+01 4.116751670837402344e+00 2.536218881607055664e+00
2.243000000000000000e+03 7.856326293945312500e+01 -8.556567192077636719e+00 -1.780590653419494629e+00 1.718617439270019531e+01 4.621675014495849609e+00 -2.142210721969604492e+00
2.244000000000000000e+03 2.329032707214355469e+01 -2.853079080581665039e+00 -1.019753515720367432e-01 -6.025643646717071533e-02 -4.866953566670417786e-02 1.108492091298103333e-01
2.245000000000000000e+03 2.339069557189941406e+01 -2.000318050384521484e+00 -1.106450483202934265e-01 -8.273404091596603394e-02 -5.801372602581977844e-02 1.395051628351211548e-01
2.246000000000000000e+03 7.357600402832031250e+01 -3.527927637100219727e+00 -1.027668595314025879e+00 1.673140645027160645e+00 1.936416178941726685e-01 -1.507510781288146973e+00
2.247000000000000000e+03 7.298703002929687500e+01 -2.776003599166870117e+00 -7.114207148551940918e-01 1.642590403556823730e+00 2.793509066104888916e-01 -1.405427098274230957e+00
2.248000000000000000e+03 2.253967857360839844e+01 -9.990944266319274902e-01 -8.941638469696044922e-02 -1.208466440439224243e-01 -6.307891011238098145e-02 1.519955247640609741e-01
2.249000000000000000e+03 2.435314369201660156e+01 -2.149411678314208984e+00 -1.478182822465896606e-01 -7.401687651872634888e-02 -6.655054539442062378e-02 1.630467325448989868e-01
2.250000000000000000e+03 2.673609542846679688e+01 -4.958937168121337891e-01 -2.555322647094726562e-01 -8.826242387294769287e-02 -1.031384021043777466e-01 2.871510386466979980e-01
2.251000000000000000e+03 2.437535858154296875e+01 -7.764081954956054688e-01 -1.587733626365661621e-01 -1.136318221688270569e-01 -8.172155171632766724e-02 2.183706015348434448e-01
2.252000000000000000e+03 2.497664070129394531e+01 -2.837131500244140625e+00 -1.615450233221054077e-01 -5.399224534630775452e-02 -6.466118246316909790e-02 1.513441950082778931e-01
2.253000000000000000e+03 2.612211418151855469e+01 -2.122259378433227539e+00 -2.177734225988388062e-01 -6.069071590900421143e-02 -8.353924006223678589e-02 2.062025964260101318e-01
2.254000000000000000e+03 4.062590599060058594e+00 4.363707065582275391e+00 1.269527001568349078e-05 5.486806549015454948e-05 2.026900074270088226e-05 -7.953497697599232197e-05
2.255000000000000000e+03 6.732186794281005859e+00 5.679539680480957031e+00 -1.003294528345577419e-04 6.220474606379866600e-04 1.565154088893905282e-04 1.456121026421897113e-06
2.256000000000000000e+03 6.538279533386230469e+00 4.051767826080322266e+00 1.724086469039320946e-04 -2.955128147732466459e-04 -3.693124745041131973e-05 -1.616093068150803447e-04
2.257000000000000000e+03 5.108649253845214844e+00 4.609469890594482422e+00 -8.027557487366721034e-05 3.324371937196701765e-04 7.564848783658817410e-05 3.162397842970676720e-05
2.258000000000000000e+03 6.948728942871093750e+01 -1.920637130737304688e+00 -1.245243430137634277e+00 3.726132214069366455e-01 -2.617890536785125732e-01 -1.468376368284225464e-01
2.259000000000000000e+03 7.038140106201171875e+01 -2.408349037170410156e+00 -1.390342354774475098e+00 4.498859345912933350e-01 -2.821369469165802002e-01 -2.296423017978668213e-01
2.260000000000000000e+03 5.286787509918212891e+00 4.001591682434082031e+00 7.172086043283343315e-05 -1.034917222568765283e-04 -9.531259820505511016e-06 -1.112382160499691963e-04
2.261000000000000000e+03 2.807058525085449219e+01 -2.229673147201538086e+00 -3.024671673774719238e-01 -3.958078101277351379e-02 -1.026143804192543030e-01 2.345704436302185059e-01
2.262000000000000000e+03 2.790558815002441406e+01 -2.845788478851318359e+00 -2.900635898113250732e-01 -3.240136802196502686e-02 -9.673948585987091064e-02 2.052315175533294678e-01
2.263000000000000000e+03 2.875293922424316406e+01 -2.236430406570434570e+00 -3.340974152088165283e-01 -3.385851532220840454e-02 -1.103867739439010620e-01 2.444245219230651855e-01
2.264000000000000000e+03 8.386265754699707031e+00 5.033490657806396484e+00 1.739279541652649641e-04 -4.447400278877466917e-04 -8.124361920636147261e-05 -4.228800244163721800e-04
2.265000000000000000e+03 7.017817497253417969e+00 4.889886856079101562e+00 2.976384421344846487e-04 -4.696755786426365376e-04 -5.161114677321165800e-05 -1.388441160088405013e-04
2.266000000000000000e+03 7.194014072418212891e+00 4.093213081359863281e+00 -1.714391546556726098e-04 5.242715124040842056e-04 1.058497073245234787e-04 2.422650723019614816e-04
2.267000000000000000e+03 9.192583084106445312e+00 8.025348663330078125e+00 -2.617028949316591024e-04 1.409765216521918774e-03 3.444187168497592211e-04 -1.774978045432362705e-05
2.268000000000000000e+03 4.712387084960937500e+00 4.161810874938964844e+00 1.267821699002524838e-05 6.187086910358630121e-06 5.659590897266753018e-06 2.262222260469570756e-04
2.269000000000000000e+03 3.149402999877929688e+01 -2.858640909194946289e+00 -4.690141975879669189e-01 -1.036528963595628738e-02 -1.438138484954833984e-01 2.432426363229751587e-01
2.270000000000000000e+03 2.880033302307128906e+01 -1.598069190979003906e+00 -3.396125435829162598e-01 -4.220297187566757202e-02 -1.145446524024009705e-01 2.745614647865295410e-01
2.271000000000000000e+03 3.076134109497070312e+01 -2.865524530410766602e+00 -4.299637973308563232e-01 -1.371926069259643555e-02 -1.331049203872680664e-01 2.363172173500061035e-01
2.272000000000000000e+03 7.689400482177734375e+01 -1.116708469390869141e+01 -7.802086472511291504e-01 1.041732883453369141e+01 2.891136169433593750e+00 2.369276046752929688e+00
2.273000000000000000e+03 7.453359985351562500e+01 -9.491141319274902344e+00 -4.868702888488769531e-01 3.519803762435913086e+00 9.098800420761108398e-01 2.720703363418579102e+00
2.274000000000000000e+03 3.295691680908203125e+01 -2.829650163650512695e+00 -5.499748587608337402e-01 -5.012566223740577698e-03 -1.664962172508239746e-01 2.553176879882812500e-01
2.275000000000000000e+03 3.157340812683105469e+01 -2.181190013885498047e+00 -4.702107608318328857e-01 -1.608470082283020020e-02 -1.458886414766311646e-01 2.796617448329925537e-01
2.276000000000000000e+03 4.609267425537109375e+01 -1.121687126159667969e+01 -1.165415048599243164e+00 -3.454427048563957214e-02 -3.599877953529357910e-01 -3.700953125953674316e-01
2.277000000000000000e+03 4.311417007446289062e+01 -1.056237411499023438e+01 -1.084804892539978027e+00 -2.511657774448394775e-02 -3.329764604568481445e-01 -3.033378422260284424e-01
2.278000000000000000e+03 4.607466125488281250e+01 -1.047051048278808594e+01 -1.260088324546813965e+00 -2.566904947161674500e-02 -3.857272267341613770e-01 -3.290890753269195557e-01
2.279000000000000000e+03 4.905373001098632812e+01 -1.119824981689453125e+01 -1.318554282188415527e+00 -3.419854491949081421e-02 -4.058258533477783203e-01 -4.041206240653991699e-01
2.280000000000000000e+03 4.467324066162109375e+01 -1.199027633666992188e+01 -1.004956603050231934e+00 -4.268658161163330078e-02 -3.142929673194885254e-01 -3.899075090885162354e-01
2.281000000000000000e+03 3.375893783569335938e+01 1.942718029022216797e-02 -5.370334982872009277e-01 -2.395707368850708008e-02 -1.682971715927124023e-01 4.008404314517974854e-01
2.282000000000000000e+03 4.980374145507812500e+01 -1.117558574676513672e+01 -1.361027359962463379e+00 -3.232551366090774536e-02 -4.180058836936950684e-01 -4.112803041934967041e-01
2.283000000000000000e+03 5.206544494628906250e+01 -1.116613388061523438e+01 -1.482174634933471680e+00 -3.694644570350646973e-02 -4.557363390922546387e-01 -4.341066181659698486e-01
2.284000000000000000e+03 3.451777267456054688e+01 -2.078494548797607422e+00 -6.245153546333312988e-01 -5.402906797826290131e-03 -1.889754831790924072e-01 3.062244057655334473e-01
2.285000000000000000e+03 4.533434295654296875e+01 -1.048172283172607422e+01 -1.216147065162658691e+00 -2.614366449415683746e-02 -3.726872205734252930e-01 -3.220510780811309814e-01
2.286000000000000000e+03 4.170957183837890625e+01 -1.223552703857421875e+01 -8.568664789199829102e-01 -4.380516335368156433e-02 -2.702014744281768799e-01 -3.657756447792053223e-01
2.287000000000000000e+03 4.088650894165039062e+01 -1.141867828369140625e+01 -8.966735601425170898e-01 -3.463383764028549194e-02 -2.793922126293182373e-01 -3.212849795818328857e-01
2.288000000000000000e+03 4.829926681518554688e+01 -1.045355319976806641e+01 -1.392477631568908691e+00 -2.682030759751796722e-02 -4.257893860340118408e-01 -3.530660569667816162e-01
2.289000000000000000e+03 4.757451629638671875e+01 -1.122142601013183594e+01 -1.239953994750976562e+00 -3.660754486918449402e-02 -3.829684555530548096e-01 -3.862560093402862549e-01
2.290000000000000000e+03 4.166088867187500000e+01 -1.140859699249267578e+01 -9.316375255584716797e-01 -3.630551323294639587e-02 -2.903829216957092285e-01 -3.278842270374298096e-01
2.291000000000000000e+03 5.203865814208984375e+01 -1.041462516784667969e+01 -1.631003618240356445e+00 -2.753756940364837646e-02 -4.975623488426208496e-01 -3.928132951259613037e-01
2.292000000000000000e+03 5.129094696044921875e+01 -1.042058849334716797e+01 -1.582214951515197754e+00 -2.721601910889148712e-02 -4.828293025493621826e-01 -3.832046687602996826e-01
2.293000000000000000e+03 5.056002044677734375e+01 -1.116487026214599609e+01 -1.401843786239624023e+00 -3.403996676206588745e-02 -4.307651221752166748e-01 -4.185937941074371338e-01
2.294000000000000000e+03 3.858137130737304688e+01 -1.304529380798339844e+01 -6.744112968444824219e-01 -5.446600541472434998e-02 -2.186631858348846436e-01 -3.564781546592712402e-01
2.295000000000000000e+03 3.786130523681640625e+01 -1.144962120056152344e+01 -7.631777524948120117e-01 -3.601004183292388916e-02 -2.397563308477401733e-01 -2.886574864387512207e-01
2.296000000000000000e+03 5.580823898315429688e+01 -1.180844593048095703e+01 -1.492637634277343750e+00 -4.748412221670150757e-02 -4.620365500450134277e-01 -4.916124045848846436e-01
2.297000000000000000e+03 5.653074264526367188e+01 -1.108906555175781250e+01 -1.713545083999633789e+00 -4.205581918358802795e-02 -5.266802906990051270e-01 -4.736150503158569336e-01
2.298000000000000000e+03 4.535980987548828125e+01 -1.122171974182128906e+01 -1.127495408058166504e+00 -3.414826467633247375e-02 -3.484931290149688721e-01 -3.614326715469360352e-01
2.299000000000000000e+03 5.355686950683593750e+01 -1.114020347595214844e+01 -1.564757585525512695e+00 -3.629101067781448364e-02 -4.803145825862884521e-01 -4.493414163589477539e-01
2.300000000000000000e+03 8.335541725158691406e+00 -4.261119365692138672e+00 -7.571471087430836633e-06 -4.886413194071792532e-07 -2.418033545836806297e-06 -7.105035911081358790e-05
2.301000000000000000e+03 6.477308654785156250e+01 -1.119390487670898438e+00 -1.528765082359313965e+00 3.808004409074783325e-02 -4.472055137157440186e-01 3.315809667110443115e-01
2.302000000000000000e+03 5.504509735107421875e+01 -1.110700511932373047e+01 -1.643164873123168945e+00 -3.864927589893341064e-02 -5.045442581176757812e-01 -4.603804349899291992e-01
2.303000000000000000e+03 5.801792144775390625e+01 -1.109129333496093750e+01 -1.771503210067749023e+00 -4.188497737050056458e-02 -5.440164208412170410e-01 -4.866752028465270996e-01
2.304000000000000000e+03 5.726696014404296875e+01 -1.037075805664062500e+01 -1.961928486824035645e+00 -3.582245111465454102e-02 -5.993252396583557129e-01 -4.462197721004486084e-01
2.305000000000000000e+03 5.801389694213867188e+01 -1.036807727813720703e+01 -2.004895925521850586e+00 -3.718793019652366638e-02 -6.126251816749572754e-01 -4.533121585845947266e-01
2.306000000000000000e+03 6.024951171875000000e+01 -1.036548995971679688e+01 -2.116401195526123047e+00 -3.971432149410247803e-02 -6.468346714973449707e-01 -4.719384610652923584e-01
2.307000000000000000e+03 6.467153167724609375e+01 -1.809875726699829102e+00 -1.896922588348388672e+00 2.383728045970201492e-03 -5.683616399765014648e-01 3.850009143352508545e-01
2.308000000000000000e+03 5.873449325561523438e+01 -1.185250473022460938e+01 -1.542890548706054688e+00 -4.362772777676582336e-02 -4.759554564952850342e-01 -5.075798630714416504e-01
2.309000000000000000e+03 6.390995407104492188e+01 -1.788175106048583984e+00 -1.924798727035522461e+00 -1.571074500679969788e-02 -5.821528434753417969e-01 4.125185012817382812e-01
2.310000000000000000e+03 6.324948501586914062e+01 -1.106420993804931641e+01 -1.838590979576110840e+00 -2.051548287272453308e-02 -5.577319264411926270e-01 -4.612286090850830078e-01
2.311000000000000000e+03 6.249346542358398438e+01 -1.107488250732421875e+01 -1.848300933837890625e+00 -2.633065357804298401e-02 -5.623894929885864258e-01 -4.766447842121124268e-01
2.312000000000000000e+03 5.430159378051757812e+01 -1.112318801879882812e+01 -1.603378295898437500e+00 -3.611824661493301392e-02 -4.918489754199981689e-01 -4.558339416980743408e-01
2.313000000000000000e+03 6.173664474487304688e+01 -1.108873844146728516e+01 -1.845972061157226562e+00 -3.114340640604496002e-02 -5.631346106529235840e-01 -4.857871532440185547e-01
2.314000000000000000e+03 3.559431457519531250e+01 -1.074296283721923828e+01 -7.127305865287780762e-01 -2.867374941706657410e-02 -2.224213033914566040e-01 -2.370242178440093994e-01
2.315000000000000000e+03 3.861096191406250000e+01 -1.143600749969482422e+01 -7.959661483764648438e-01 -3.702507913112640381e-02 -2.498973608016967773e-01 -2.959991097450256348e-01
2.316000000000000000e+03 5.949880218505859375e+01 -1.110649299621582031e+01 -1.811758279800415039e+00 -4.471215233206748962e-02 -5.569410920143127441e-01 -4.921132922172546387e-01
2.317000000000000000e+03 6.024096679687500000e+01 -1.110830974578857422e+01 -1.827075958251953125e+00 -4.237811639904975891e-02 -5.608361959457397461e-01 -4.951664507389068604e-01
2.318000000000000000e+03 3.484535217285156250e+01 -1.075649070739746094e+01 -6.803341507911682129e-01 -2.940105274319648743e-02 -2.129205614328384399e-01 -2.299283742904663086e-01
2.319000000000000000e+03 3.860768127441406250e+01 -1.222380828857421875e+01 -7.368620038032531738e-01 -4.478217288851737976e-02 -2.344932556152343750e-01 -3.269138038158416748e-01
2.320000000000000000e+03 3.744687271118164062e+01 -2.688197851181030273e+00 -8.146578073501586914e-01 -3.840790304820984602e-04 -2.445125579833984375e-01 2.846383750438690186e-01
2.321000000000000000e+03 3.380344390869140625e+01 -1.405027985572814941e+00 -5.734052658081054688e-01 -1.179607491940259933e-02 -1.755603998899459839e-01 3.361694216728210449e-01
2.322000000000000000e+03 6.613274383544921875e+01 -1.923311710357666016e+00 -1.851207256317138672e+00 4.631166905164718628e-02 -5.414686799049377441e-01 3.171497583389282227e-01
2.323000000000000000e+03 6.845301818847656250e+01 -1.017649364471435547e+01 -1.990067839622497559e+00 1.172566264867782593e-01 -5.618433952331542969e-01 -2.253910452127456665e-01
2.324000000000000000e+03 6.914712524414062500e+01 -1.079934787750244141e+01 -1.352690577507019043e+00 3.037204444408416748e-01 -3.146910369396209717e-01 2.153547108173370361e-02
2.325000000000000000e+03 6.152022933959960938e+01 -2.443856000900268555e+00 -2.259403944015502930e+00 -3.786468878388404846e-02 -6.891805529594421387e-01 4.435340166091918945e-01
2.326000000000000000e+03 6.098563003540039062e+01 -1.110161972045898438e+01 -1.840548753738403320e+00 -3.694821894168853760e-02 -5.632491111755371094e-01 -4.923922717571258545e-01
2.327000000000000000e+03 6.624299621582031250e+01 -1.027825736999511719e+01 -2.166611194610595703e+00 8.581381291151046753e-03 -6.474089622497558594e-01 -4.016786813735961914e-01
2.328000000000000000e+03 6.745851898193359375e+01 -2.627894878387451172e+00 -2.193317413330078125e+00 2.842622809112071991e-02 -6.494673490524291992e-01 2.986443340778350830e-01
2.329000000000000000e+03 6.757332611083984375e+01 -1.933902263641357422e+00 -1.652376174926757812e+00 1.048837378621101379e-01 -4.642477333545684814e-01 1.869301944971084595e-01
2.330000000000000000e+03 6.400173950195312500e+01 -1.105456829071044922e+01 -1.817731976509094238e+00 -1.573923416435718536e-02 -5.500413775444030762e-01 -4.439540803432464600e-01
2.331000000000000000e+03 6.011539459228515625e+01 -1.735719442367553711e+00 -1.941714406013488770e+00 -3.665995225310325623e-02 -5.935122966766357422e-01 4.587164819240570068e-01
2.332000000000000000e+03 6.984357452392578125e+01 -1.079125690460205078e+01 -1.184536695480346680e+00 4.311178028583526611e-01 -2.260256707668304443e-01 1.788612157106399536e-01
2.333000000000000000e+03 5.791511917114257812e+01 -9.906835556030273438e-01 -1.650715589523315430e+00 -4.508753865957260132e-02 -5.087409019470214844e-01 4.734550714492797852e-01
2.334000000000000000e+03 3.820151138305664062e+01 -2.666775465011596680e+00 -8.613563776016235352e-01 -7.117236964404582977e-04 -2.586204409599304199e-01 2.888221740722656250e-01
2.335000000000000000e+03 3.526334381103515625e+01 -2.051184892654418945e+00 -6.641294360160827637e-01 -4.330328665673732758e-03 -2.005379199981689453e-01 3.120267689228057861e-01
2.336000000000000000e+03 6.550115966796875000e+01 -1.101270198822021484e+01 -1.755209088325500488e+00 2.328338846564292908e-02 -5.195776820182800293e-01 -3.871215283870697021e-01
2.337000000000000000e+03 5.860756301879882812e+01 -1.726266145706176758e+00 -1.903378844261169434e+00 -4.154837504029273987e-02 -5.834781527519226074e-01 4.585898518562316895e-01
2.338000000000000000e+03 6.314209365844726562e+01 -1.772679805755615234e+00 -1.940461993217468262e+00 -2.206407114863395691e-02 -5.887578129768371582e-01 4.282538592815399170e-01
2.339000000000000000e+03 6.237367630004882812e+01 -1.758487939834594727e+00 -1.953065752983093262e+00 -3.084691427648067474e-02 -5.951738357543945312e-01 4.410375058650970459e-01
2.340000000000000000e+03 5.409519958496093750e+01 -1.748687148094177246e+00 -1.728513717651367188e+00 -3.559374436736106873e-02 -5.292322039604187012e-01 4.292278289794921875e-01
2.341000000000000000e+03 5.476446914672851562e+01 -2.440543174743652344e+00 -1.935146689414978027e+00 -3.106287680566310883e-02 -5.898628830909729004e-01 3.970012366771697998e-01
2.342000000000000000e+03 5.936330795288085938e+01 -1.731830000877380371e+00 -1.926368117332458496e+00 -4.056666791439056396e-02 -5.900804400444030762e-01 4.600038826465606689e-01
2.343000000000000000e+03 6.475161743164062500e+01 -1.103913116455078125e+01 -1.788227796554565430e+00 1.431138603948056698e-03 -5.360389947891235352e-01 -4.206867814064025879e-01
2.344000000000000000e+03 5.711014938354492188e+01 -1.725240707397460938e+00 -1.854382157325744629e+00 -4.227666929364204407e-02 -5.689976811408996582e-01 4.512470960617065430e-01
2.345000000000000000e+03 6.213896751403808594e+00 -7.737108707427978516e+00 3.086447759415023029e-05 1.837059826357290149e-04 6.437113188439980149e-05 6.672181916655972600e-05
2.346000000000000000e+03 5.484267807006835938e+01 -1.740753531455993652e+00 -1.762777686119079590e+00 -3.845525905489921570e-02 -5.403698682785034180e-01 4.352170228958129883e-01
2.347000000000000000e+03 4.807603073120117188e+01 -1.777534842491149902e+00 -1.402164697647094727e+00 -2.261682786047458649e-02 -4.274344444274902344e-01 3.897986412048339844e-01
2.348000000000000000e+03 4.874213790893554688e+01 -2.469658613204956055e+00 -1.549139261245727539e+00 -1.956644281744956970e-02 -4.706116914749145508e-01 3.498157262802124023e-01
2.349000000000000000e+03 6.771965789794921875e+01 -1.088168525695800781e+01 -1.577896118164062500e+00 1.466379314661026001e-01 -4.293774664402008057e-01 -2.016689479351043701e-01
2.350000000000000000e+03 4.348278045654296875e+01 -2.539882659912109375e+00 -1.199446678161621094e+00 -9.483130648732185364e-03 -3.626789450645446777e-01 3.163578808307647705e-01
2.351000000000000000e+03 4.273242187500000000e+01 -2.551398754119873047e+00 -1.149657607078552246e+00 -7.802480366080999374e-03 -3.472380042076110840e-01 3.123324811458587646e-01
2.352000000000000000e+03 6.699079895019531250e+01 -1.093050479888916016e+01 -1.652472972869873047e+00 9.180171787738800049e-02 -4.682013690471649170e-01 -2.819833457469940186e-01
2.353000000000000000e+03 5.634731292724609375e+01 -1.726146340370178223e+00 -1.825019717216491699e+00 -4.206028580665588379e-02 -5.601239800453186035e-01 4.454462528228759766e-01
2.354000000000000000e+03 6.758088111877441406e+00 -5.624767780303955078e+00 9.849634807324036956e-05 -1.019759511109441519e-04 -1.043881411533220671e-06 1.502261511632241309e-06
2.355000000000000000e+03 4.950828075408935547e+00 -4.468754291534423828e+00 -1.209747006214456633e-05 7.817205914761871099e-05 1.982237517950125039e-05 7.907325925771147013e-05
2.356000000000000000e+03 5.257791900634765625e+01 -1.747720003128051758e+00 -1.650596737861633301e+00 -3.167163208127021790e-02 -5.046805143356323242e-01 4.186476171016693115e-01
2.357000000000000000e+03 3.256518173217773438e+01 -1.083258914947509766e+01 -5.831555128097534180e-01 -2.652649953961372375e-02 -1.829046010971069336e-01 -2.137794941663742065e-01
2.358000000000000000e+03 7.052104187011718750e+01 -1.083271026611328125e+01 -9.270899891853332520e-01 6.559771895408630371e-01 -8.133384585380554199e-02 4.146178066730499268e-01
2.359000000000000000e+03 7.137457275390625000e+01 -1.023526573181152344e+01 -1.137069582939147949e+00 7.479816079139709473e-01 -1.167263984680175781e-01 5.518099069595336914e-01
2.360000000000000000e+03 3.904564666748046875e+01 -1.939579606056213379e+00 -8.757508993148803711e-01 -3.972878679633140564e-03 -2.639171481132507324e-01 3.364949822425842285e-01
2.361000000000000000e+03 3.828613662719726562e+01 -1.967453598976135254e+00 -8.324940204620361328e-01 -3.747144713997840881e-03 -2.508723437786102295e-01 3.317185640335083008e-01
2.362000000000000000e+03 5.107972717285156250e+01 -1.744105339050292969e+00 -1.569345593452453613e+00 -2.847981639206409454e-02 -4.793476164340972900e-01 4.093191623687744141e-01
2.363000000000000000e+03 5.031463241577148438e+01 -1.741195082664489746e+00 -1.526565432548522949e+00 -2.753916196525096893e-02 -4.662313759326934814e-01 4.048965275287628174e-01
2.364000000000000000e+03 5.333585357666015625e+01 -1.750244975090026855e+00 -1.690933346748352051e+00 -3.462763503193855286e-02 -5.176683068275451660e-01 4.238676130771636963e-01
2.365000000000000000e+03 4.045990753173828125e+01 -2.600631952285766602e+00 -1.003974914550781250e+00 -3.753589466214179993e-03 -3.023185431957244873e-01 3.002276718616485596e-01
2.366000000000000000e+03 4.881554412841796875e+01 -1.758505940437316895e+00 -1.442937493324279785e+00 -2.457068674266338348e-02 -4.402524530887603760e-01 3.949161767959594727e-01
2.367000000000000000e+03 4.207260513305664062e+01 -1.848306655883789062e+00 -1.047878503799438477e+00 -9.303683415055274963e-03 -3.171546459197998047e-01 3.540515601634979248e-01
2.368000000000000000e+03 4.130718231201171875e+01 -1.859660148620605469e+00 -1.003947734832763672e+00 -8.028277195990085602e-03 -3.035928010940551758e-01 3.496406972408294678e-01
2.369000000000000000e+03 4.509734725952148438e+01 -1.840254187583923340e+00 -1.228128194808959961e+00 -1.606485806405544281e-02 -3.732579052448272705e-01 3.692601621150970459e-01
2.370000000000000000e+03 4.583950805664062500e+01 -1.833209276199340820e+00 -1.273200154304504395e+00 -1.733737438917160034e-02 -3.871612548828125000e-01 3.745128214359283447e-01
2.371000000000000000e+03 4.215171432495117188e+01 -1.102856516838073730e+00 -9.905216693878173828e-01 -1.285893004387617111e-02 -3.010141849517822266e-01 3.958776295185089111e-01
2.372000000000000000e+03 5.187269210815429688e+01 -1.020638704299926758e+00 -1.468815803527832031e+00 -3.402026742696762085e-02 -4.508508145809173584e-01 4.490240812301635742e-01
2.373000000000000000e+03 3.411592102050781250e+01 -1.150633335113525391e+01 -6.114916801452636719e-01 -3.585350513458251953e-02 -1.942035555839538574e-01 -2.532073855400085449e-01
2.374000000000000000e+03 3.635298919677734375e+01 -1.147937870025634766e+01 -6.995320916175842285e-01 -3.576188161969184875e-02 -2.205881923437118530e-01 -2.747814059257507324e-01
2.375000000000000000e+03 4.732646560668945312e+01 -1.797303438186645508e+00 -1.358771443367004395e+00 -2.117362618446350098e-02 -4.139834940433502197e-01 3.844198286533355713e-01
2.376000000000000000e+03 4.657963943481445312e+01 -1.817452549934387207e+00 -1.316494584083557129e+00 -1.897011697292327881e-02 -4.006393849849700928e-01 3.787055909633636475e-01
2.377000000000000000e+03 4.434435653686523438e+01 -1.839222788810729980e+00 -1.183378219604492188e+00 -1.472076494246721268e-02 -3.594296872615814209e-01 3.655053675174713135e-01
2.378000000000000000e+03 2.938081359863281250e+01 -1.175317859649658203e+01 -4.355538487434387207e-01 -2.679224684834480286e-02 -1.387038230895996094e-01 -2.230245023965835571e-01
2.379000000000000000e+03 6.824720001220703125e+01 -2.029179573059082031e+00 -1.617212295532226562e+00 1.600666940212249756e-01 -4.371436536312103271e-01 1.368076950311660767e-01
2.380000000000000000e+03 6.684110260009765625e+01 -1.955949187278747559e+00 -1.768141269683837891e+00 7.832895964384078979e-02 -5.069437026977539062e-01 2.606544792652130127e-01
2.381000000000000000e+03 6.783812522888183594e+00 -3.988708972930908203e+00 -3.445383845246396959e-05 4.819797322852537036e-05 4.123241069464711472e-06 -6.996449519647285342e-05
2.382000000000000000e+03 6.216817378997802734e+00 -4.026373863220214844e+00 -4.535441985353827477e-05 1.011935091810300946e-04 1.675172643444966525e-05 9.769090684130787849e-05
2.383000000000000000e+03 2.612015342712402344e+01 -1.092149543762207031e+01 -3.470177948474884033e-01 -9.944936260581016541e-03 -1.070888191461563110e-01 -1.746050864458084106e-01
2.384000000000000000e+03 3.101940155029296875e+01 -1.169649314880371094e+01 -4.921953380107879639e-01 -3.162530809640884399e-02 -1.571462005376815796e-01 -2.329982072114944458e-01
2.385000000000000000e+03 3.180857849121093750e+01 -1.165715980529785156e+01 -5.209986567497253418e-01 -3.232786804437637329e-02 -1.659979522228240967e-01 -2.383086979389190674e-01
2.386000000000000000e+03 3.101607894897460938e+01 -1.252483367919921875e+01 -4.641317129135131836e-01 -3.732671961188316345e-02 -1.504375338554382324e-01 -2.604885995388031006e-01
2.387000000000000000e+03 7.169889831542968750e+01 -1.112748622894287109e+01 -4.141961336135864258e-01 1.310105204582214355e+00 2.687726914882659912e-01 9.930135607719421387e-01
2.388000000000000000e+03 6.884740447998046875e+01 -2.077881336212158203e+00 -1.521766662597656250e+00 2.054411023855209351e-01 -3.948976695537567139e-01 3.700331225991249084e-02
2.389000000000000000e+03 2.297401237487792969e+01 -1.123698425292968750e+01 -2.562179863452911377e-01 -7.542375475168228149e-03 -7.912810891866683960e-02 -1.655762791633605957e-01
2.390000000000000000e+03 2.532205200195312500e+01 -1.084684371948242188e+01 -3.226517140865325928e-01 -7.525491993874311447e-03 -9.905316680669784546e-02 -1.685946583747863770e-01
2.391000000000000000e+03 2.771360778808593750e+01 -1.177784729003906250e+01 -3.838843703269958496e-01 -2.204716950654983521e-02 -1.217794641852378845e-01 -2.118029892444610596e-01
2.392000000000000000e+03 2.855352401733398438e+01 -1.177607154846191406e+01 -4.087838828563690186e-01 -2.421553805470466614e-02 -1.298998296260833740e-01 -2.172805070877075195e-01
2.393000000000000000e+03 7.107601928710937500e+01 -2.138391494750976562e+00 -9.148626327514648438e-01 7.934787869453430176e-01 -3.641514480113983154e-02 -5.908118486404418945e-01
2.394000000000000000e+03 1.085689258575439453e+01 4.152561187744140625e+00 -1.179497921839356422e-04 -2.255830913782119751e-04 -1.030598650686442852e-04 -5.774773890152573586e-04
2.395000000000000000e+03 2.071801185607910156e+01 -1.106334304809570312e+01 -2.033548355102539062e-01 -1.534547470510005951e-02 -6.561009585857391357e-02 -1.448897421360015869e-01
2.396000000000000000e+03 1.140022087097167969e+01 5.881565570831298828e+00 1.930867874762043357e-04 5.611716187559068203e-04 2.262775233248248696e-04 5.935006774961948395e-04
2.397000000000000000e+03 2.437824440002441406e+01 -1.150236225128173828e+01 -2.944601476192474365e-01 -9.210634045302867889e-03 -9.110123664140701294e-02 -1.821439713239669800e-01
2.398000000000000000e+03 2.513271713256835938e+01 -1.167362785339355469e+01 -3.128074705600738525e-01 -1.112168654799461365e-02 -9.717874974012374878e-02 -1.899771988391876221e-01
2.399000000000000000e+03 2.233706855773925781e+01 -1.052303600311279297e+01 -2.328162044286727905e-01 -3.909462131559848785e-03 -7.101770490407943726e-02 -1.425219923257827759e-01
2.400000000000000000e+03 2.405296325683593750e+01 -1.227536201477050781e+01 -2.813875377178192139e-01 -1.436039898544549942e-02 -8.872438222169876099e-02 -1.966354995965957642e-01
2.401000000000000000e+03 1.911152839660644531e+01 -1.242305946350097656e+01 -1.924219131469726562e-01 -4.583188146352767944e-02 -7.147613912820816040e-02 -1.589609831571578979e-01
2.402000000000000000e+03 7.361277008056640625e+01 -1.084514331817626953e+01 -1.879255101084709167e-02 3.167255640029907227e+00 9.445389509201049805e-01 2.054575681686401367e+00
2.403000000000000000e+03 7.251052856445312500e+01 -1.000729370117187500e+01 -9.181134700775146484e-01 1.251672029495239258e+00 1.000675633549690247e-01 1.035140991210937500e+00
2.404000000000000000e+03 2.148804092407226562e+01 -1.121207618713378906e+01 -2.216800749301910400e-01 -1.179719436913728714e-02 -7.004317641258239746e-02 -1.534170806407928467e-01
2.405000000000000000e+03 2.124196052551269531e+01 -8.103884458541870117e-01 -4.923043027520179749e-02 -1.200500205159187317e-01 -5.078413709998130798e-02 1.079932525753974915e-01
2.406000000000000000e+03 2.161196136474609375e+01 9.103388786315917969e+00 -2.864818871021270752e-01 -5.150000452995300293e-01 -2.404445856809616089e-01 4.407024979591369629e-01
2.407000000000000000e+03 7.454410552978515625e+01 -3.636562824249267578e+00 -6.158234477043151855e-01 3.171273231506347656e+00 7.666349411010742188e-01 -2.651633024215698242e+00
2.408000000000000000e+03 7.590014457702636719e+00 1.129086208343505859e+01 -6.212394800968468189e-04 2.510524587705731392e-03 5.667855148203670979e-04 4.429606487974524498e-04
2.409000000000000000e+03 6.587248802185058594e+00 1.228471374511718750e+01 2.333580981940031052e-03 -4.144713748246431351e-04 5.757329054176807404e-04 4.291698336601257324e-03
2.410000000000000000e+03 8.499697685241699219e+00 8.827005386352539062e+00 5.315659218467772007e-04 -7.290880894288420677e-04 -5.925664299866184592e-05 4.460859927348792553e-04
2.411000000000000000e+03 7.762142181396484375e+01 -9.150424003601074219e+00 -2.744105100631713867e+00 1.584112262725830078e+01 3.929105281829833984e+00 1.323008894920349121e+00
2.412000000000000000e+03 7.676770019531250000e+01 3.334810733795166016e-01 2.866168506443500519e-02 9.133428573608398438e+00 2.748626947402954102e+00 -2.147590398788452148e+00
2.413000000000000000e+03 8.561702728271484375e+00 7.525239944458007812e+00 3.420718712732195854e-04 -5.844670813530683517e-04 -7.271856156876310706e-05 3.032012318726629019e-04
2.414000000000000000e+03 9.150944709777832031e+00 5.014714717864990234e+00 -6.930871313670650125e-05 5.488089518621563911e-04 1.438500767108052969e-04 4.018991894554346800e-04
2.415000000000000000e+03 1.055020332336425781e+01 7.638877391815185547e+00 -4.966621054336428642e-05 1.244386890903115273e-03 3.584162041079252958e-04 3.895773843396455050e-04
2.416000000000000000e+03 4.369902133941650391e+00 -1.287590122222900391e+01 2.342595951631665230e-03 -2.144654747098684311e-03 5.938236790825612843e-05 -3.171084972564131021e-05
2.417000000000000000e+03 5.523290634155273438e+00 -1.300109291076660156e+01 2.203321084380149841e-03 -1.898415270261466503e-03 9.147173841483891010e-05 -2.649766625836491585e-03
2.418000000000000000e+03 7.593714904785156250e+01 -1.015993785858154297e+01 -8.238019943237304688e-01 8.194413185119628906e+00 2.211183309555053711e+00 3.403003692626953125e+00
2.419000000000000000e+03 1.230671310424804688e+01 6.032517433166503906e+00 -2.789754653349518776e-04 -4.498632333707064390e-04 -2.186516067013144493e-04 -6.084194756112992764e-04
2.420000000000000000e+03 2.055608367919921875e+01 1.473052310943603516e+01 -3.754348754882812500e-01 -5.952332019805908203e-01 -2.912004292011260986e-01 3.991286456584930420e-01
2.421000000000000000e+03 2.082069015502929688e+01 1.327467536926269531e+01 -3.824227750301361084e-01 -5.904996395111083984e-01 -2.918767333030700684e-01 4.294688999652862549e-01
2.422000000000000000e+03 2.616566419601440430e+00 6.269221782684326172e+00 -1.674623490544036031e-05 5.147225238033570349e-05 1.041780524246860296e-05 2.295536978635936975e-04
2.423000000000000000e+03 9.151707649230957031e+00 -5.639666557312011719e+00 -4.179554161964915693e-05 1.487816043663769960e-04 3.209581700502894819e-05 -3.530789035721682012e-05
2.424000000000000000e+03 9.206132888793945312e+00 -4.083167552947998047e+00 -3.208647103747352958e-05 1.128236763179302216e-04 2.422116085654124618e-05 9.236995538230985403e-05
2.425000000000000000e+03 6.418485641479492188e+00 1.432790756225585938e+01 6.228905636817216873e-03 -3.254615934565663338e-03 8.922869456000626087e-04 9.774295613169670105e-03
2.426000000000000000e+03 2.221035385131835938e+01 -3.793910145759582520e-01 -8.435494452714920044e-02 -1.425666511058807373e-01 -6.807647645473480225e-02 1.628791838884353638e-01
2.427000000000000000e+03 2.288903808593750000e+01 5.409306287765502930e-01 -1.165859997272491455e-01 -1.739616096019744873e-01 -8.716428279876708984e-02 2.238717079162597656e-01
2.428000000000000000e+03 5.196487903594970703e+00 1.035357666015625000e+01 1.815488678403198719e-03 -8.815109613351523876e-04 2.801933151204138994e-04 5.393434548750519753e-04
2.429000000000000000e+03 7.350599670410156250e+01 2.818553543090820312e+01 1.101570874452590942e-01 3.838909864425659180e+00 1.184720039367675781e+00 -3.345152139663696289e-01
2.430000000000000000e+03 7.323008728027343750e+01 -2.986008644104003906e+01 3.156040310859680176e-01 4.463143825531005859e+00 1.433624386787414551e+00 7.272634506225585938e-01
2.431000000000000000e+03 7.675910186767578125e+01 1.329281926155090332e+00 2.038754820823669434e-01 8.811297416687011719e+00 2.704551935195922852e+00 -2.038700580596923828e+00
2.432000000000000000e+03 7.631441497802734375e+01 -1.491903018951416016e+01 3.189192712306976318e-01 7.955389499664306641e+00 2.482292652130126953e+00 2.044614315032958984e+00
2.433000000000000000e+03 7.427358245849609375e+01 -1.773968696594238281e+01 6.108205914497375488e-01 5.410408973693847656e+00 1.806368947029113770e+00 1.844908952713012695e+00
2.434000000000000000e+03 7.526798248291015625e+01 -2.742871665954589844e+01 2.137990742921829224e-01 5.265532970428466797e+00 1.643799662590026855e+00 7.795581221580505371e-01
2.435000000000000000e+03 7.372285461425781250e+01 2.689618110656738281e+01 1.152462586760520935e-01 3.902473449707031250e+00 1.205315828323364258e+00 -3.716521263122558594e-01
2.436000000000000000e+03 7.432727813720703125e+01 2.170361900329589844e+01 1.449890136718750000e-01 4.268547058105468750e+00 1.324060797691345215e+00 -5.384816527366638184e-01
2.437000000000000000e+03 7.372134399414062500e+01 8.970088958740234375e+00 4.978764653205871582e-01 4.903434276580810547e+00 1.620393276214599609e+00 -1.473127603530883789e+00
2.438000000000000000e+03 7.568037414550781250e+01 1.934507560729980469e+01 1.034696772694587708e-01 4.735330104827880859e+00 1.451640009880065918e+00 -5.412388443946838379e-01
2.439000000000000000e+03 7.555835723876953125e+01 1.277163028717041016e+01 2.141859382390975952e-01 5.468851566314697266e+00 1.704911231994628906e+00 -9.505838751792907715e-01
2.440000000000000000e+03 7.438550567626953125e+01 1.552721214294433594e+01 2.338184565305709839e-01 4.752410888671875000e+00 1.495868802070617676e+00 -8.767510652542114258e-01
2.441000000000000000e+03 7.519701385498046875e+01 2.583395004272460938e+01 7.718892395496368408e-02 4.178829669952392578e+00 1.276805639266967773e+00 -3.398337066173553467e-01
2.442000000000000000e+03 7.244239044189453125e+01 2.668839836120605469e+01 1.666536182165145874e-01 3.688062667846679688e+00 1.156414866447448730e+00 -4.248690605163574219e-01
2.443000000000000000e+03 7.420146179199218750e+01 1.161826038360595703e+01 3.505011498928070068e-01 5.028414726257324219e+00 1.613674759864807129e+00 -1.196125388145446777e+00
2.444000000000000000e+03 7.445142364501953125e+01 1.807658195495605469e+01 1.833713501691818237e-01 4.562544822692871094e+00 1.423774838447570801e+00 -7.154952287673950195e-01
2.445000000000000000e+03 7.439421081542968750e+01 -2.435220527648925781e+01 3.508532047271728516e-01 5.193697929382324219e+00 1.663365364074707031e+00 1.118518948554992676e+00
2.446000000000000000e+03 7.403857421875000000e+01 -2.584883880615234375e+01 3.541665971279144287e-01 4.928184509277343750e+00 1.584705352783203125e+00 1.003933310508728027e+00
2.447000000000000000e+03 7.528036499023437500e+01 -1.790521812438964844e+01 4.902086853981018066e-01 6.389776229858398438e+00 2.063995599746704102e+00 1.788826465606689453e+00
2.448000000000000000e+03 6.969820404052734375e+01 3.491786575317382812e+01 1.879235357046127319e-01 3.185864210128784180e+00 1.012136340141296387e+00 -2.137500196695327759e-01
2.449000000000000000e+03 7.612935638427734375e+01 -2.050337600708007812e+01 2.806506454944610596e-01 6.648716926574707031e+00 2.078810214996337891e+00 1.309704899787902832e+00
2.450000000000000000e+03 7.544145202636718750e+01 3.174017190933227539e+00 4.606083035469055176e-01 6.684354305267333984e+00 2.143488883972167969e+00 -2.034422874450683594e+00
2.451000000000000000e+03 7.447680664062500000e+01 2.050072860717773438e+01 1.446717083454132080e-01 4.367884159088134766e+00 1.353766798973083496e+00 -5.871005058288574219e-01
2.452000000000000000e+03 7.435420989990234375e+01 1.423787784576416016e+01 2.671963572502136230e-01 4.863371849060058594e+00 1.539170503616333008e+00 -9.741693139076232910e-01
2.453000000000000000e+03 7.395576477050781250e+01 -2.727437210083007812e+01 3.191255331039428711e-01 4.796968936920166016e+00 1.534828424453735352e+00 8.908060789108276367e-01
2.454000000000000000e+03 7.176069641113281250e+01 3.178417968750000000e+01 1.471209228038787842e-01 3.484756231307983398e+00 1.089563131332397461e+00 -2.705227136611938477e-01
2.455000000000000000e+03 7.487801361083984375e+01 -2.163172912597656250e+01 3.954702615737915039e-01 5.694934844970703125e+00 1.827121615409851074e+00 1.354803085327148438e+00
2.456000000000000000e+03 6.923119068145751953e+00 3.265818405151367188e+01 6.524688005447387695e-02 -4.268371760845184326e-01 -1.084770932793617249e-01 1.689606308937072754e-01
2.457000000000000000e+03 5.571189880371093750e+00 -2.900288772583007812e+01 1.005105767399072647e-02 -1.732270568609237671e-01 -4.895279929041862488e-02 -9.121694415807723999e-02
2.458000000000000000e+03 7.322987365722656250e+01 7.805817127227783203e+00 6.049147248268127441e-01 4.654502868652343750e+00 1.577825307846069336e+00 -1.571820974349975586e+00
2.459000000000000000e+03 1.027226924896240234e+01 6.412925243377685547e+00 -2.211954124504700303e-04 1.126266317442059517e-03 2.715212758630514145e-04 8.059814717853441834e-05
2.460000000000000000e+03 7.519136810302734375e+01 -1.907898521423339844e+01 4.425774812698364258e-01 6.171772956848144531e+00 1.984305024147033691e+00 1.639671921730041504e+00
2.461000000000000000e+03 7.505448150634765625e+01 -2.033805465698242188e+01 4.234725236892700195e-01 5.938912868499755859e+00 1.908715605735778809e+00 1.489256143569946289e+00
2.462000000000000000e+03 5.490520000457763672e+00 2.712741661071777344e+01 -6.242490839213132858e-03 -2.859659790992736816e-01 -8.766254037618637085e-02 1.948981434106826782e-01
2.463000000000000000e+03 7.439304351806640625e+01 5.185337066650390625e+00 5.561857819557189941e-01 5.482158184051513672e+00 1.811503171920776367e+00 -1.851227164268493652e+00
2.464000000000000000e+03 4.235115051269531250e+00 -2.731067466735839844e+01 2.578002866357564926e-03 -1.427045762538909912e-01 -4.203797131776809692e-02 -8.020203560590744019e-02
2.465000000000000000e+03 6.896311759948730469e+00 -8.495826721191406250e+00 1.766982895787805319e-04 -1.364210038445889950e-04 1.208318280987441540e-05 -8.050903124967589974e-05
2.466000000000000000e+03 4.569174766540527344e+00 2.338108634948730469e+01 -5.686515942215919495e-02 -1.466059535741806030e-01 -6.104133278131484985e-02 1.387084871530532837e-01
2.467000000000000000e+03 1.086069488525390625e+01 2.269721412658691406e+01 -1.182629764080047607e-01 -4.235322773456573486e-01 -1.625385731458663940e-01 3.579079210758209229e-01
2.468000000000000000e+03 1.162424182891845703e+01 2.499491500854492188e+01 -5.720142740756273270e-03 -4.936194419860839844e-01 -1.498018801212310791e-01 3.282118141651153564e-01
2.469000000000000000e+03 7.640605926513671875e+01 -1.387471103668212891e+01 2.165479809045791626e-01 8.326486587524414062e+00 2.562910318374633789e+00 2.160747289657592773e+00
2.470000000000000000e+03 7.504994201660156250e+01 -1.619643402099609375e+01 5.400612950325012207e-01 6.219580650329589844e+00 2.027892589569091797e+00 2.021692037582397461e+00
2.471000000000000000e+03 5.827097892761230469e+00 -2.165932655334472656e+01 -4.888968542218208313e-02 -6.898367404937744141e-02 -3.536200895905494690e-02 -8.238508552312850952e-02
2.472000000000000000e+03 4.634140968322753906e+00 1.227016258239746094e+01 4.037009086459875107e-03 -2.732382854446768761e-03 3.913879336323589087e-04 2.439844101900234818e-04
2.473000000000000000e+03 4.303373813629150391e+00 -2.038596534729003906e+01 -3.383770585060119629e-02 -3.578364104032516479e-02 -2.088640443980693817e-02 -4.063050821423530579e-02
2.474000000000000000e+03 6.430998325347900391e+00 2.626867103576660156e+01 -1.583112403750419617e-02 -2.972671687602996826e-01 -9.392948448657989502e-02 2.195047885179519653e-01
2.475000000000000000e+03 5.608945846557617188e+00 -2.594031524658203125e+01 -3.062390256673097610e-03 -1.380499452352523804e-01 -4.233369976282119751e-02 -9.959874302148818970e-02
2.476000000000000000e+03 8.518517494201660156e+00 -6.612211227416992188e+00 1.011771892081014812e-04 -1.971795136341825128e-04 -2.880069951061159372e-05 8.198733848985284567e-05
2.477000000000000000e+03 5.114838123321533203e+00 -2.787456130981445312e+01 6.173215340822935104e-03 -1.567375659942626953e-01 -4.516930505633354187e-02 -8.984991908073425293e-02
2.478000000000000000e+03 4.236883163452148438e+00 2.061663627624511719e+01 -5.846722424030303955e-02 -5.579328164458274841e-02 -3.427815064787864685e-02 5.002842098474502563e-02
2.479000000000000000e+03 4.824238777160644531e+00 2.220285034179687500e+01 -9.246689081192016602e-02 -1.024709716439247131e-01 -5.848135799169540405e-02 1.190724372863769531e-01
2.480000000000000000e+03 7.236424922943115234e+00 -3.342478561401367188e+01 3.553769364953041077e-02 -2.231139093637466431e-01 -5.627286434173583984e-02 -8.189634978771209717e-02
2.481000000000000000e+03 9.746863365173339844e+00 -3.522722244262695312e+01 6.256271153688430786e-02 -2.358631640672683716e-01 -5.199013650417327881e-02 -8.121954649686813354e-02
2.482000000000000000e+03 1.129045772552490234e+01 -3.213404846191406250e+01 5.685851722955703735e-02 -2.249073982238769531e-01 -5.041466280817985535e-02 -1.154600307345390320e-01
2.483000000000000000e+03 7.305052280426025391e+00 2.118340682983398438e+01 -2.026935964822769165e-01 -1.129654347896575928e-01 -9.469770640134811401e-02 2.083739787340164185e-01
2.484000000000000000e+03 7.630249023437500000e+01 -1.173026657104492188e+01 -2.459285855293273926e-01 8.801703453063964844e+00 2.566732406616210938e+00 2.558344602584838867e+00
2.485000000000000000e+03 6.200646400451660156e+00 -2.716165161132812500e+01 4.581038374453783035e-03 -1.583760976791381836e-01 -4.613851755857467651e-02 -1.038398593664169312e-01
2.486000000000000000e+03 3.756625413894653320e+00 9.931929588317871094e+00 1.327376230619847775e-03 -3.195392200723290443e-04 3.023511089850217104e-04 -4.284569586161524057e-04
2.487000000000000000e+03 5.473296642303466797e+00 8.617218971252441406e+00 7.762077148072421551e-04 -2.154659887310117483e-04 1.682225265540182590e-04 3.700748202390968800e-04
2.488000000000000000e+03 3.825959920883178711e+00 7.633535385131835938e+00 3.040711453650146723e-04 1.636350789340212941e-04 1.403118658345192671e-04 7.317476411117240787e-05
2.489000000000000000e+03 7.663117218017578125e+01 -5.748273134231567383e-01 -1.940883994102478027e-01 9.231776237487792969e+00 2.711306333541870117e+00 -2.356415033340454102e+00
2.490000000000000000e+03 5.898482799530029297e+00 3.523948669433593750e+01 5.548787117004394531e-02 -4.474704265594482422e-01 -1.175947636365890503e-01 1.175991669297218323e-01
2.491000000000000000e+03 4.534090518951416016e+00 -6.418854236602783203e+00 8.378177881240844727e-06 2.722669159993529320e-05 1.068146139004966244e-05 -1.037812471622601151e-04
2.492000000000000000e+03 4.375555992126464844e+00 -5.501286983489990234e+00 1.508376772108022124e-05 8.633104152977466583e-05 3.042444404854904860e-05 9.607664105715230107e-05
2.493000000000000000e+03 1.447810077667236328e+01 2.244456481933593750e+01 -8.182924240827560425e-02 -6.330072879791259766e-01 -2.144509553909301758e-01 3.309737145900726318e-01
2.494000000000000000e+03 9.095389366149902344e+00 2.353626441955566406e+01 -9.043666720390319824e-02 -3.331976830959320068e-01 -1.270903050899505615e-01 3.073909878730773926e-01
2.495000000000000000e+03 1.838927650451660156e+01 -1.640151977539062500e+01 -1.910279542207717896e-01 -9.063095599412918091e-02 -8.449766784906387329e-02 -1.846091151237487793e-01
2.496000000000000000e+03 1.933120918273925781e+01 1.966422080993652344e+01 -1.781918853521347046e-01 -6.116707921028137207e-01 -2.369587868452072144e-01 2.856318950653076172e-01
2.497000000000000000e+03 1.676528739929199219e+01 2.073585128784179688e+01 -1.537964195013046265e-01 -6.798761487007141113e-01 -2.501017749309539795e-01 3.018555939197540283e-01
2.498000000000000000e+03 1.973952674865722656e+01 -1.398927879333496094e+01 -2.130061388015747070e-01 -4.917975515127182007e-02 -7.865576446056365967e-02 -1.842589229345321655e-01
2.499000000000000000e+03 1.793397712707519531e+01 -1.461032962799072266e+01 -1.985334157943725586e-01 -8.222201466560363770e-02 -8.422663062810897827e-02 -1.730753183364868164e-01
2.500000000000000000e+03 1.773766899108886719e+01 -1.770897102355957031e+01 -1.677512973546981812e-01 -1.135880276560783386e-01 -8.440180122852325439e-02 -1.801859289407730103e-01
2.501000000000000000e+03 2.348582077026367188e+01 6.036942005157470703e+00 -2.304985821247100830e-01 -3.297279179096221924e-01 -1.680679470300674438e-01 4.226825833320617676e-01
2.502000000000000000e+03 2.380514717102050781e+01 5.245053291320800781e+00 -2.191111445426940918e-01 -2.995050251483917236e-01 -1.555848568677902222e-01 4.099914729595184326e-01
2.503000000000000000e+03 2.236366271972656250e+01 2.311636447906494141e+00 -1.218623071908950806e-01 -2.432124912738800049e-01 -1.095224395394325256e-01 2.689554393291473389e-01
2.504000000000000000e+03 2.375354003906250000e+01 2.802932024002075195e+00 -1.759716868400573730e-01 -2.257002443075180054e-01 -1.205015778541564941e-01 3.305945694446563721e-01
2.505000000000000000e+03 1.904734992980957031e+01 -1.516651535034179688e+01 -2.030846774578094482e-01 -7.024951279163360596e-02 -8.200025558471679688e-02 -1.867540925741195679e-01
2.506000000000000000e+03 1.706074142456054688e+01 -1.911387634277343750e+01 -1.416056305170059204e-01 -1.361246705055236816e-01 -8.331909030675888062e-02 -1.758206188678741455e-01
2.507000000000000000e+03 2.263702011108398438e+01 1.086487579345703125e+01 -3.338936865329742432e-01 -4.515567123889923096e-01 -2.356351166963577271e-01 4.570985138416290283e-01
2.508000000000000000e+03 7.162068176269531250e+01 4.090803146362304688e+01 1.179994419217109680e-01 3.395447969436645508e+00 1.054034233093261719e+00 -3.543669730424880981e-02
2.509000000000000000e+03 2.321741104125976562e+01 7.047131061553955078e+00 -2.499354183673858643e-01 -3.636204898357391357e-01 -1.840667724609375000e-01 4.386047124862670898e-01
2.510000000000000000e+03 2.300624656677246094e+01 8.229619979858398438e+00 -2.778551578521728516e-01 -3.977490663528442383e-01 -2.026812732219696045e-01 4.540477395057678223e-01
2.511000000000000000e+03 7.571857452392578125e+01 -3.740095853805541992e+00 -8.547037243843078613e-01 6.977456569671630859e+00 1.836825847625732422e+00 -4.247240543365478516e+00
2.512000000000000000e+03 7.627304077148437500e+01 -3.635942220687866211e+00 -1.429103493690490723e+00 1.012145996093750000e+01 2.607707023620605469e+00 -4.432645797729492188e+00
2.513000000000000000e+03 7.484857940673828125e+01 -9.789549827575683594e+00 -3.804501593112945557e-01 4.744407176971435547e+00 1.309187054634094238e+00 3.035044908523559570e+00
2.514000000000000000e+03 7.585623168945312500e+01 -9.338031768798828125e+00 -9.187577962875366211e-01 7.719508171081542969e+00 2.040225028991699219e+00 4.092266559600830078e+00
2.515000000000000000e+03 7.745571136474609375e+01 -3.847820997238159180e+00 -2.812100410461425781e+00 1.554901313781738281e+01 3.821073770523071289e+00 -2.130446434020996094e+00
2.516000000000000000e+03 7.609859466552734375e+01 -8.997461318969726562e+00 -1.121498465538024902e+00 8.990393638610839844e+00 2.360668420791625977e+00 4.425284385681152344e+00
2.517000000000000000e+03 7.358581542968750000e+01 -2.928687334060668945e+00 -5.932398438453674316e-01 2.188409805297851562e+00 4.785509705543518066e-01 -1.795826315879821777e+00
2.518000000000000000e+03 7.519005584716796875e+01 -1.019430160522460938e+01 -4.326549470424652100e-01 5.996809482574462891e+00 1.669246315956115723e+00 3.149771690368652344e+00
2.519000000000000000e+03 7.698394012451171875e+01 -9.616462707519531250e+00 -1.834572672843933105e+00 1.246457290649414062e+01 3.189000129699707031e+00 2.873717308044433594e+00
2.520000000000000000e+03 7.673799896240234375e+01 -9.198746681213378906e+00 -1.906841754913330078e+00 1.214076423645019531e+01 3.070176839828491211e+00 3.619455337524414062e+00
2.521000000000000000e+03 7.241069793701171875e+01 -2.615792989730834961e+00 -8.448276519775390625e-01 1.299586057662963867e+00 1.364275217056274414e-01 -1.051139712333679199e+00
2.522000000000000000e+03 7.277684783935546875e+01 -3.216333866119384766e+00 -1.180356860160827637e+00 1.173070430755615234e+00 -2.185942372307181358e-03 -1.065155863761901855e+00
2.523000000000000000e+03 7.871385192871093750e+01 -4.440620899200439453e+00 -1.464203238487243652e+00 1.716135406494140625e+01 4.709145069122314453e+00 2.804531335830688477e+00
2.524000000000000000e+03 7.822660064697265625e+01 -4.143128395080566406e+00 -2.289099454879760742e+00 1.745836257934570312e+01 4.550778865814208984e+00 9.080775976181030273e-01
2.525000000000000000e+03 7.241777801513671875e+01 -2.084867238998413086e+00 -4.230994880199432373e-01 1.615300655364990234e+00 3.576603531837463379e-01 -1.246067643165588379e+00
2.526000000000000000e+03 7.390431976318359375e+01 -1.004960060119628906e+01 -3.900769650936126709e-01 2.952048301696777344e+00 7.685914039611816406e-01 2.185485601425170898e+00
2.527000000000000000e+03 7.896652221679687500e+01 -5.595630645751953125e+00 2.213807106018066406e+00 1.477618503570556641e+01 5.096997737884521484e+00 3.594529628753662109e+00
2.528000000000000000e+03 7.315532684326171875e+01 -1.112241840362548828e+01 -1.592772081494331360e-02 2.692464113235473633e+00 8.029608726501464844e-01 1.827806234359741211e+00
2.529000000000000000e+03 7.548189544677734375e+01 -1.327234649658203125e+01 2.909851670265197754e-01 6.930547714233398438e+00 2.166459798812866211e+00 2.405443429946899414e+00
2.530000000000000000e+03 2.437983894348144531e+01 9.194220900535583496e-01 -1.736304759979248047e-01 -1.587256640195846558e-01 -9.970684349536895752e-02 2.807008326053619385e-01
2.531000000000000000e+03 7.306819152832031250e+01 -2.194054126739501953e+00 -2.702986598014831543e-01 2.195878744125366211e+00 5.776740312576293945e-01 -1.693793058395385742e+00
2.532000000000000000e+03 2.366874504089355469e+01 -1.133119463920593262e+00 -1.298279911279678345e-01 -1.085702553391456604e-01 -7.151947915554046631e-02 1.832617968320846558e-01
2.533000000000000000e+03 2.679247093200683594e+01 -1.738280177116394043e+00 -2.487077862024307251e-01 -5.986190587282180786e-02 -9.257090836763381958e-02 2.322831302881240845e-01
2.534000000000000000e+03 2.505105018615722656e+01 -1.881508946418762207e+00 -1.766272932291030884e-01 -7.566024363040924072e-02 -7.568626105785369873e-02 1.913886964321136475e-01
2.535000000000000000e+03 7.175045776367187500e+01 -2.038002014160156250e+00 -6.590624451637268066e-01 1.150855422019958496e+00 1.475379019975662231e-01 -9.030159711837768555e-01
2.536000000000000000e+03 2.736547088623046875e+01 -2.099947214126586914e+00 -2.687948644161224365e-01 -4.966128990054130554e-02 -9.553685039281845093e-02 2.289198487997055054e-01
2.537000000000000000e+03 2.730757331848144531e+01 -1.260885596275329590e+00 -2.745109796524047852e-01 -6.518830358982086182e-02 -1.019097864627838135e-01 2.643061578273773193e-01
2.538000000000000000e+03 5.750870704650878906e+00 4.708744525909423828e+00 2.160446747438982129e-04 -2.466920705046504736e-04 -9.194215635943692178e-06 -5.736583989346399903e-05
2.539000000000000000e+03 4.855060577392578125e+00 5.355662822723388672e+00 1.852233690442517400e-04 -1.220916892634704709e-04 1.893950502562802285e-05 -6.949219823582097888e-05
2.540000000000000000e+03 2.403448104858398438e+01 -1.635214209556579590e+00 -1.394310295581817627e-01 -9.053589403629302979e-02 -6.899008154869079590e-02 1.746434122323989868e-01
2.541000000000000000e+03 8.205859184265136719e+00 5.999126434326171875e+00 -1.798731682356446981e-04 8.166729821823537350e-04 1.910399441840127110e-04 4.198451060801744461e-04
2.542000000000000000e+03 2.640656089782714844e+01 -1.229983687400817871e+00 -2.365098297595977783e-01 -7.563936710357666016e-02 -9.364476054906845093e-02 2.472402304410934448e-01
2.543000000000000000e+03 9.902026176452636719e+00 5.799970149993896484e+00 5.347283877199515700e-05 2.858859952539205551e-04 1.018076509353704751e-04 7.199618848972022533e-04
2.544000000000000000e+03 7.726376342773437500e+01 -1.045959377288818359e+01 -1.357115745544433594e+00 1.205522060394287109e+01 3.209431409835815430e+00 2.070119857788085938e+00
2.545000000000000000e+03 7.362422180175781250e+01 -1.554569602012634277e+00 7.922128587961196899e-02 3.349888324737548828e+00 1.028732895851135254e+00 -2.148684978485107422e+00
2.546000000000000000e+03 2.694765090942382812e+01 -9.116588234901428223e-01 -2.639842629432678223e-01 -7.311900705099105835e-02 -1.011309772729873657e-01 2.695867717266082764e-01
2.547000000000000000e+03 2.943028831481933594e+01 -2.211891174316406250e+00 -3.656867146492004395e-01 -2.867840789258480072e-02 -1.183095425367355347e-01 2.542506754398345947e-01
2.548000000000000000e+03 3.084137725830078125e+01 -2.185797452926635742e+00 -4.332159757614135742e-01 -2.012725174427032471e-02 -1.360029727220535278e-01 2.718025147914886475e-01
2.549000000000000000e+03 2.946641921997070312e+01 -1.524374008178710938e+00 -3.682055771350860596e-01 -3.747159987688064575e-02 -1.217031553387641907e-01 2.858661115169525146e-01
2.550000000000000000e+03 6.163311958312988281e+00 5.458063602447509766e+00 3.157614264637231827e-04 -3.849247586913406849e-04 -2.074899930448736995e-05 1.542818608868401498e-05
2.551000000000000000e+03 6.385147094726562500e+00 4.780106067657470703e+00 -1.541609381092712283e-04 5.189313669688999653e-04 1.094311301130801439e-04 1.207901368616148829e-04
2.552000000000000000e+03 2.777923011779785156e+01 -7.964891195297241211e-01 -3.004089593887329102e-01 -6.656359136104583740e-02 -1.100917607545852661e-01 2.941126227378845215e-01
2.553000000000000000e+03 3.016932868957519531e+01 -1.500921607017517090e+00 -3.990459144115447998e-01 -3.292847797274589539e-02 -1.295923143625259399e-01 2.966831624507904053e-01
2.554000000000000000e+03 3.302716064453125000e+01 -2.142049551010131836e+00 -5.457434654235839844e-01 -9.533754549920558929e-03 -1.665831655263900757e-01 2.932707369327545166e-01
2.555000000000000000e+03 3.234030532836914062e+01 -1.493947267532348633e+00 -5.024893879890441895e-01 -1.814936473965644836e-02 -1.561916321516036987e-01 3.207922875881195068e-01
2.556000000000000000e+03 3.165309524536132812e+01 -8.615197539329528809e-01 -4.626044631004333496e-01 -2.860538288950920105e-02 -1.473629474639892578e-01 3.436833322048187256e-01
2.557000000000000000e+03 4.542065048217773438e+01 -1.356858825683593750e+01 -8.385059833526611328e-01 -5.901715531945228577e-02 -2.692569494247436523e-01 -4.560508430004119873e-01
2.558000000000000000e+03 4.390176010131835938e+01 -1.127482891082763672e+01 -1.048539519309997559e+00 -3.236974030733108521e-02 -3.242727816104888916e-01 -3.473674952983856201e-01
2.559000000000000000e+03 4.242117309570312500e+01 -1.137968921661376953e+01 -9.678574204444885254e-01 -3.424870595335960388e-02 -3.006318509578704834e-01 -3.370063304901123047e-01
2.560000000000000000e+03 4.324095535278320312e+01 -1.210153675079345703e+01 -9.260393381118774414e-01 -3.988844901323318481e-02 -2.897783219814300537e-01 -3.779152035713195801e-01
2.561000000000000000e+03 4.758584213256835938e+01 -1.202572822570800781e+01 -1.128238081932067871e+00 -4.569112882018089294e-02 -3.521787822246551514e-01 -4.258016347885131836e-01
2.562000000000000000e+03 4.683313751220703125e+01 -1.121795845031738281e+01 -1.203928947448730469e+00 -3.448357805609703064e-02 -3.715237379074096680e-01 -3.779006004333496094e-01
2.563000000000000000e+03 3.162353706359863281e+01 -1.512075185775756836e+00 -4.684664309024810791e-01 -2.182017825543880463e-02 -1.470859795808792114e-01 3.129549622535705566e-01
2.564000000000000000e+03 4.741666793823242188e+01 -1.370182895660400391e+01 -8.894786238670349121e-01 -6.242112815380096436e-02 -2.855699062347412109e-01 -4.810057282447814941e-01
2.565000000000000000e+03 4.831262207031250000e+01 -1.121723556518554688e+01 -1.277999520301818848e+00 -3.585989028215408325e-02 -3.941578269004821777e-01 -3.965651690959930420e-01
2.566000000000000000e+03 4.339499664306640625e+01 -1.286469936370849609e+01 -8.494480848312377930e-01 -5.071164295077323914e-02 -2.700479030609130859e-01 -4.108310043811798096e-01
2.567000000000000000e+03 4.011563110351562500e+01 -1.142579269409179688e+01 -8.603110313415527344e-01 -3.650652989745140076e-02 -2.690452635288238525e-01 -3.128814697265625000e-01
2.568000000000000000e+03 4.090322494506835938e+01 -1.222370624542236328e+01 -8.214315772056579590e-01 -4.497203603386878967e-02 -2.599210739135742188e-01 -3.556797504425048828e-01
2.569000000000000000e+03 4.983012390136718750e+01 -1.191801643371582031e+01 -1.232879281044006348e+00 -4.152374714612960815e-02 -3.823209106922149658e-01 -4.478548169136047363e-01
2.570000000000000000e+03 5.058598327636718750e+01 -1.190524959564208984e+01 -1.271907448768615723e+00 -4.026271775364875793e-02 -3.936510682106018066e-01 -4.552916884422302246e-01
2.571000000000000000e+03 5.285057449340820312e+01 -1.192812633514404297e+01 -1.363188147544860840e+00 -4.484301060438156128e-02 -4.224093556404113770e-01 -4.768285155296325684e-01
2.572000000000000000e+03 5.131554412841796875e+01 -1.116647243499755859e+01 -1.443455338478088379e+00 -3.423918411135673523e-02 -4.433083534240722656e-01 -4.280822277069091797e-01
2.573000000000000000e+03 3.677494812011718750e+01 -2.013532638549804688e+00 -7.474162578582763672e-01 -3.188716713339090347e-03 -2.251815050840377808e-01 3.220070302486419678e-01
2.574000000000000000e+03 3.530839157104492188e+01 -1.339422225952148438e+00 -6.459708213806152344e-01 -8.430619724094867706e-03 -1.963204443454742432e-01 3.500382602214813232e-01
2.575000000000000000e+03 5.359878921508789062e+01 -1.189691543579101562e+01 -1.394175291061401367e+00 -4.276844859123229980e-02 -4.310831129550933838e-01 -4.839471876621246338e-01
2.576000000000000000e+03 5.281155776977539062e+01 -1.115603637695312500e+01 -1.521631956100463867e+00 -3.690817579627037048e-02 -4.675620496273040771e-01 -4.441354274749755859e-01
2.577000000000000000e+03 4.402207946777343750e+01 -1.273071575164794922e+01 -8.970939517021179199e-01 -4.852630570530891418e-02 -2.836860716342926025e-01 -4.149136245250701904e-01
2.578000000000000000e+03 3.935406875610351562e+01 -1.222822189331054688e+01 -7.639931440353393555e-01 -4.654844477772712708e-02 -2.431624829769134521e-01 -3.355213403701782227e-01
2.579000000000000000e+03 3.785977554321289062e+01 -1.222216320037841797e+01 -7.093701958656311035e-01 -4.478611797094345093e-02 -2.262468934059143066e-01 -3.190438747406005859e-01
2.580000000000000000e+03 5.578741836547851562e+01 -1.109567260742187500e+01 -1.678426146507263184e+00 -4.081960022449493408e-02 -5.157737135887145996e-01 -4.679365456104278564e-01
2.581000000000000000e+03 5.726322555541992188e+01 -1.248952960968017578e+01 -1.330271244049072266e+00 -4.970540106296539307e-02 -4.139929711818695068e-01 -5.137144327163696289e-01
2.582000000000000000e+03 5.800642395019531250e+01 -1.181909656524658203e+01 -1.540253281593322754e+00 -4.725716635584831238e-02 -4.762531518936157227e-01 -5.040998458862304688e-01
2.583000000000000000e+03 5.727584838867187500e+01 -1.108684635162353516e+01 -1.742995500564575195e+00 -4.373247548937797546e-02 -5.360183715820312500e-01 -4.809274673461914062e-01
2.584000000000000000e+03 6.322151184082031250e+01 -1.094874382019042969e+00 -1.620429396629333496e+00 -8.877226151525974274e-03 -4.887920022010803223e-01 4.000858068466186523e-01
2.585000000000000000e+03 5.947405624389648438e+01 -1.187762928009033203e+01 -1.545997142791748047e+00 -4.211690276861190796e-02 -4.764342308044433594e-01 -5.030665993690490723e-01
2.586000000000000000e+03 5.875774765014648438e+01 -1.109937953948974609e+01 -1.794900298118591309e+00 -4.341119527816772461e-02 -5.514934659004211426e-01 -4.892140626907348633e-01
2.587000000000000000e+03 5.433880996704101562e+01 -1.185903739929199219e+01 -1.432035326957702637e+00 -4.174639657139778137e-02 -4.421345293521881104e-01 -4.873212277889251709e-01
2.588000000000000000e+03 6.324320220947265625e+01 -1.180049324035644531e+01 -1.488538503646850586e+00 -3.358970163390040398e-03 -4.475692510604858398e-01 -4.323316514492034912e-01
2.589000000000000000e+03 6.399930191040039062e+01 -1.179415702819824219e+01 -1.449999809265136719e+00 1.275381445884704590e-02 -4.311737716197967529e-01 -4.042569100856781006e-01
2.590000000000000000e+03 5.795994186401367188e+01 -1.254777336120605469e+01 -1.324328780174255371e+00 -4.263856261968612671e-02 -4.100901782512664795e-01 -5.113071799278259277e-01
2.591000000000000000e+03 3.752946853637695312e+01 -1.992205381393432617e+00 -7.896324992179870605e-01 -3.293625777587294579e-03 -2.378778308629989624e-01 3.269663751125335693e-01
2.592000000000000000e+03 3.455653381347656250e+01 -1.363420009613037109e+00 -6.089916825294494629e-01 -1.013375911861658096e-02 -1.857376247644424438e-01 3.436294794082641602e-01
2.593000000000000000e+03 5.507503128051757812e+01 -1.182774829864501953e+01 -1.465207219123840332e+00 -4.219418391585350037e-02 -4.522204101085662842e-01 -4.902573227882385254e-01
2.594000000000000000e+03 3.560116577148437500e+01 -1.149245929718017578e+01 -6.702710986137390137e-01 -3.660068288445472717e-02 -2.120615392923355103e-01 -2.670161128044128418e-01
2.595000000000000000e+03 6.399703216552734375e+01 -1.110587596893310547e+00 -1.576905965805053711e+00 1.508608832955360413e-02 -4.685459434986114502e-01 3.704039156436920166e-01
2.596000000000000000e+03 6.248651123046875000e+01 -1.180805587768554688e+01 -1.519568800926208496e+00 -6.609300151467323303e-03 -4.578534066677093506e-01 -4.541559815406799316e-01
2.597000000000000000e+03 6.555550384521484375e+01 -1.154837369918823242e+00 -1.472180128097534180e+00 6.313891708850860596e-02 -4.227123558521270752e-01 2.751514315605163574e-01
2.598000000000000000e+03 6.022165679931640625e+01 -1.188378620147705078e+01 -1.539966344833374023e+00 -3.986154124140739441e-02 -4.739483892917633057e-01 -4.953254461288452148e-01
2.599000000000000000e+03 6.097151565551757812e+01 -1.186535835266113281e+01 -1.534165501594543457e+00 -3.221660852432250977e-02 -4.699146449565887451e-01 -4.910265803337097168e-01
2.600000000000000000e+03 6.977118682861328125e+01 -1.143946266174316406e+01 -7.428752183914184570e-01 6.053690910339355469e-01 -4.125184193253517151e-02 3.491753637790679932e-01
2.601000000000000000e+03 6.911116790771484375e+01 -1.145392322540283203e+01 -9.158489704132080078e-01 4.387412369251251221e-01 -1.431323289871215820e-01 1.661987453699111938e-01
2.602000000000000000e+03 3.457152938842773438e+01 -6.278511285781860352e-01 -5.919464826583862305e-01 -1.495342515408992767e-02 -1.820699721574783325e-01 3.788970708847045898e-01
2.603000000000000000e+03 6.085897827148437500e+01 -1.738089799880981445e+00 -1.951601743698120117e+00 -3.564995899796485901e-02 -5.961755514144897461e-01 4.561532735824584961e-01
2.604000000000000000e+03 5.786112213134765625e+01 -1.725001335144042969e+00 -1.881849646568298340e+00 -4.301159456372261047e-02 -5.774583816528320312e-01 4.549382030963897705e-01
2.605000000000000000e+03 5.794304275512695312e+01 -2.148887515068054199e-01 -1.421407461166381836e+00 -4.511434212327003479e-02 -4.399565458297729492e-01 4.731842875480651855e-01
2.606000000000000000e+03 3.485809326171875000e+01 -1.149932861328125000e+01 -6.407632231712341309e-01 -3.559042140841484070e-02 -2.029060870409011841e-01 -2.609167397022247314e-01
2.607000000000000000e+03 3.710131835937500000e+01 -1.298943614959716797e+01 -6.286504864692687988e-01 -5.378155037760734558e-02 -2.047296166419982910e-01 -3.368751108646392822e-01
2.608000000000000000e+03 5.942433547973632812e+01 -9.970220327377319336e-01 -1.667775154113769531e+00 -3.678110614418983459e-02 -5.113669037818908691e-01 4.674625992774963379e-01
2.609000000000000000e+03 6.160938644409179688e+01 -1.745616078376770020e+00 -1.953089952468872070e+00 -3.152144700288772583e-02 -5.953834056854248047e-01 4.487557709217071533e-01
2.610000000000000000e+03 6.624969482421875000e+01 -1.097560787200927734e+01 -1.705909132957458496e+00 5.628345906734466553e-02 -4.948877096176147461e-01 -3.391850292682647705e-01
2.611000000000000000e+03 5.866603851318359375e+01 -9.906504750251770020e-01 -1.663032174110412598e+00 -4.163020476698875427e-02 -5.113987326622009277e-01 4.723146259784698486e-01
2.612000000000000000e+03 6.626583862304687500e+01 -1.168250370025634766e+01 -1.291429519653320312e+00 1.187764331698417664e-01 -3.517959415912628174e-01 -2.585310339927673340e-01
2.613000000000000000e+03 6.245050430297851562e+01 -1.070665121078491211e+00 -1.645012259483337402e+00 -1.447978708893060684e-02 -4.978476166725158691e-01 4.177009165287017822e-01
2.614000000000000000e+03 5.558868789672851562e+01 -1.731501340866088867e+00 -1.794223189353942871e+00 -3.890373557806015015e-02 -5.499380826950073242e-01 4.408842325210571289e-01
2.615000000000000000e+03 6.168091964721679688e+01 -1.042484045028686523e+00 -1.661491394042968750e+00 -2.016206644475460052e-02 -5.044960379600524902e-01 4.389415085315704346e-01
2.616000000000000000e+03 5.413712310791015625e+01 -1.040877819061279297e+00 -1.564142942428588867e+00 -4.106419160962104797e-02 -4.815621376037597656e-01 4.597364664077758789e-01
2.617000000000000000e+03 5.268999099731445312e+00 -5.343769550323486328e+00 3.594452380184520734e-07 8.299392902699764818e-06 2.597651473479345441e-06 -9.823967411648482084e-05
2.618000000000000000e+03 6.475604248046875000e+01 -1.177467155456542969e+01 -1.402430653572082520e+00 3.664909675717353821e-02 -4.097344577312469482e-01 -3.656053841114044189e-01
2.619000000000000000e+03 6.551253509521484375e+01 -1.173570346832275391e+01 -1.344309449195861816e+00 7.394475489854812622e-02 -3.811093866825103760e-01 -3.177292943000793457e-01
2.620000000000000000e+03 5.338174819946289062e+01 -1.040567398071289062e+00 -1.535182595252990723e+00 -3.799014538526535034e-02 -4.719518423080444336e-01 4.558915197849273682e-01
2.621000000000000000e+03 5.716005706787109375e+01 -9.970948100090026855e-01 -1.641261816024780273e+00 -4.676723107695579529e-02 -5.064086914062500000e-01 4.701675176620483398e-01
2.622000000000000000e+03 5.639381027221679688e+01 -1.004283785820007324e+00 -1.626266479492187500e+00 -4.344928637146949768e-02 -5.009147524833679199e-01 4.697774648666381836e-01
2.623000000000000000e+03 5.183113861083984375e+01 -1.746164679527282715e+00 -1.611535072326660156e+00 -3.048293478786945343e-02 -4.926053881645202637e-01 4.140392243862152100e-01
2.624000000000000000e+03 5.034951782226562500e+01 -1.000101685523986816e+00 -1.397649884223937988e+00 -3.141631186008453369e-02 -4.287198483943939209e-01 4.433772265911102295e-01
2.625000000000000000e+03 5.563154983520507812e+01 -1.015164136886596680e+00 -1.606978535652160645e+00 -4.390800371766090393e-02 -4.952659606933593750e-01 4.673493504524230957e-01
2.626000000000000000e+03 4.955583190917968750e+01 -1.744670510292053223e+00 -1.483420491218566895e+00 -2.597995474934577942e-02 -4.528201222419738770e-01 4.003674387931823730e-01
2.627000000000000000e+03 3.979904174804687500e+01 -1.907860159873962402e+00 -9.182782769203186035e-01 -5.382771138101816177e-03 -2.770982980728149414e-01 3.408402204513549805e-01
2.628000000000000000e+03 3.833589935302734375e+01 -1.261436700820922852e+00 -7.991359829902648926e-01 -7.192619610577821732e-03 -2.418985813856124878e-01 3.709297478199005127e-01
2.629000000000000000e+03 4.054857635498046875e+01 -1.878030896186828613e+00 -9.602667689323425293e-01 -6.294837221503257751e-03 -2.899684607982635498e-01 3.459857702255249023e-01
2.630000000000000000e+03 3.985049057006835938e+01 -1.164005279541015625e+00 -8.741028308868408203e-01 -7.982028648257255554e-03 -2.646254599094390869e-01 3.830166757106781006e-01
2.631000000000000000e+03 7.039907073974609375e+01 -1.148410320281982422e+01 -5.526477694511413574e-01 8.492215275764465332e-01 8.897212147712707520e-02 5.715252757072448730e-01
2.632000000000000000e+03 7.115144348144531250e+01 -1.094197559356689453e+01 -6.599772572517395020e-01 9.838286638259887695e-01 9.715543687343597412e-02 7.150771617889404297e-01
2.633000000000000000e+03 5.262347412109375000e+01 -1.030674934387207031e+00 -1.502950191497802734e+00 -3.690054640173912048e-02 -4.619552493095397949e-01 4.528261423110961914e-01
2.634000000000000000e+03 4.811082839965820312e+01 -1.050743222236633301e+00 -1.297045946121215820e+00 -2.674862369894981384e-02 -3.971383571624755859e-01 4.297934174537658691e-01
2.635000000000000000e+03 4.736989974975585938e+01 -1.088799357414245605e+00 -1.264594793319702148e+00 -2.509428188204765320e-02 -3.869067132472991943e-01 4.242860674858093262e-01
2.636000000000000000e+03 4.283150100708007812e+01 -1.838115453720092773e+00 -1.093113303184509277e+00 -1.114799827337265015e-02 -3.312783837318420410e-01 3.575889170169830322e-01
2.637000000000000000e+03 4.590116882324218750e+01 -1.152798771858215332e+00 -1.192853450775146484e+00 -2.134915068745613098e-02 -3.642607927322387695e-01 4.127291440963745117e-01
2.638000000000000000e+03 4.291932296752929688e+01 -1.105574965476989746e+00 -1.029713988304138184e+00 -1.432430930435657501e-02 -3.132115006446838379e-01 3.996366560459136963e-01
2.639000000000000000e+03 5.111814498901367188e+01 -1.011369705200195312e+00 -1.435424089431762695e+00 -3.251748159527778625e-02 -4.403824508190155029e-01 4.464775919914245605e-01
2.640000000000000000e+03 3.606675720214843750e+01 -1.332471609115600586e+00 -6.839572191238403320e-01 -7.136042229831218719e-03 -2.073279768228530884e-01 3.548145592212677002e-01
2.641000000000000000e+03 3.710986709594726562e+01 -1.222434616088867188e+01 -6.795271039009094238e-01 -4.371050745248794556e-02 -2.169712781906127930e-01 -3.113602101802825928e-01
2.642000000000000000e+03 3.335903930664062500e+01 -1.153663253784179688e+01 -5.814522504806518555e-01 -3.366155549883842468e-02 -1.845341324806213379e-01 -2.475470155477523804e-01
2.643000000000000000e+03 3.413367843627929688e+01 -1.223997879028320312e+01 -5.763310194015502930e-01 -4.166344180703163147e-02 -1.853983402252197266e-01 -2.808317840099334717e-01
2.644000000000000000e+03 3.258697891235351562e+01 -1.159671497344970703e+01 -5.502796769142150879e-01 -3.348896279931068420e-02 -1.751306056976318359e-01 -2.426959723234176636e-01
2.645000000000000000e+03 3.339850616455078125e+01 -1.226371097564697266e+01 -5.462382435798645020e-01 -4.175749421119689941e-02 -1.763987243175506592e-01 -2.742292284965515137e-01
2.646000000000000000e+03 4.958528518676757812e+01 -9.970369338989257812e-01 -1.362249851226806641e+00 -3.029347769916057587e-02 -4.177629947662353516e-01 4.395232200622558594e-01
2.647000000000000000e+03 3.909344863891601562e+01 -1.215841889381408691e+00 -8.367063999176025391e-01 -7.343282457441091537e-03 -2.532148957252502441e-01 3.770473003387451172e-01
2.648000000000000000e+03 7.592884826660156250e+01 1.246447086334228516e+00 2.894227504730224609e-01 7.543393135070800781e+00 2.349844694137573242e+00 -2.259087085723876953e+00
2.649000000000000000e+03 7.569174194335937500e+01 -1.068258762359619141e+00 -1.272901743650436401e-01 7.427611351013183594e+00 2.190096378326416016e+00 -2.760356187820434570e+00
2.650000000000000000e+03 4.138061523437500000e+01 -1.105399489402770996e+00 -9.497414827346801758e-01 -1.126590650528669357e-02 -2.883022129535675049e-01 3.926675915718078613e-01
2.651000000000000000e+03 4.663100051879882812e+01 -1.125907659530639648e+00 -1.228825449943542480e+00 -2.293208241462707520e-02 -3.755272328853607178e-01 4.190460145473480225e-01
2.652000000000000000e+03 4.517505264282226562e+01 -1.155960798263549805e+00 -1.155291795730590820e+00 -1.970557309687137604e-02 -3.524991869926452637e-01 4.092742204666137695e-01
2.653000000000000000e+03 4.443729400634765625e+01 -1.139742016792297363e+00 -1.113194346427917480e+00 -1.902372948825359344e-02 -3.396654129028320312e-01 4.054526090621948242e-01
2.654000000000000000e+03 4.368283081054687500e+01 -1.119477272033691406e+00 -1.072931170463562012e+00 -1.714062318205833435e-02 -3.270215392112731934e-01 4.021232426166534424e-01
2.655000000000000000e+03 3.635576248168945312e+01 -1.223767757415771484e+01 -6.523143053054809570e-01 -4.456327110528945923e-02 -2.090632617473602295e-01 -3.027806878089904785e-01
2.656000000000000000e+03 6.700721740722656250e+01 -1.162210273742675781e+01 -1.217765092849731445e+00 1.778419613838195801e-01 -3.119769096374511719e-01 -1.762494891881942749e-01
2.657000000000000000e+03 6.772681427001953125e+01 -1.156011486053466797e+01 -1.138220310211181641e+00 2.404577136039733887e-01 -2.693288028240203857e-01 -8.781436085700988770e-02
2.658000000000000000e+03 6.685304260253906250e+01 -1.359536528587341309e+00 -1.424314737319946289e+00 1.111697703599929810e-01 -3.939434885978698730e-01 1.915969401597976685e-01
2.659000000000000000e+03 3.020719337463378906e+01 -1.172325038909912109e+01 -4.641015529632568359e-01 -2.861292473971843719e-02 -1.478143483400344849e-01 -2.276000827550888062e-01
2.660000000000000000e+03 6.260790824890136719e+00 -6.380359172821044922e+00 -5.500793122337199748e-05 1.882266806205734611e-04 3.996562372776679695e-05 1.152752975031035021e-05
2.661000000000000000e+03 3.018150520324707031e+01 -1.251688766479492188e+01 -4.357546567916870117e-01 -3.604925796389579773e-02 -1.415411680936813354e-01 -2.538963556289672852e-01
2.662000000000000000e+03 1.062099456787109375e+01 5.730633735656738281e+00 7.584304694319143891e-05 -6.469597574323415756e-04 -1.713350211502984166e-04 -7.880988414399325848e-04
2.663000000000000000e+03 3.183607673645019531e+01 -1.248229026794433594e+01 -4.889456927776336670e-01 -3.931417688727378845e-02 -1.584779620170593262e-01 -2.643645405769348145e-01
2.664000000000000000e+03 6.753145599365234375e+01 -1.227801084518432617e+00 -1.232022762298583984e+00 1.983169913291931152e-01 -3.101117610931396484e-01 7.774955779314041138e-02
2.665000000000000000e+03 7.017365264892578125e+01 -1.687803864479064941e+00 -9.079691171646118164e-01 6.177365779876708984e-01 -8.706975728273391724e-02 -4.052908718585968018e-01
2.666000000000000000e+03 6.860278320312500000e+01 -1.551410079002380371e+00 -1.198315978050231934e+00 2.818007171154022217e-01 -2.749545574188232422e-01 -4.867313429713249207e-02
2.667000000000000000e+03 2.684778404235839844e+01 -1.176918792724609375e+01 -3.574110865592956543e-01 -1.861348003149032593e-02 -1.128073632717132568e-01 -2.055403739213943481e-01
2.668000000000000000e+03 7.218314361572265625e+01 -1.134811592102050781e+01 -1.632988750934600830e-01 1.737487196922302246e+00 4.722564816474914551e-01 1.311719298362731934e+00
2.669000000000000000e+03 2.597130012512207031e+01 -1.175269985198974609e+01 -3.323840200901031494e-01 -1.531396713107824326e-02 -1.043093949556350708e-01 -1.981667578220367432e-01
2.670000000000000000e+03 2.676612663269042969e+01 -1.256253910064697266e+01 -3.432086110115051270e-01 -2.433781325817108154e-02 -1.102639287710189819e-01 -2.273213267326354980e-01
2.671000000000000000e+03 6.854795074462890625e+01 -2.865077182650566101e-02 -4.115400314331054688e-01 6.160227060317993164e-01 6.134480237960815430e-02 -3.555782139301300049e-01
2.672000000000000000e+03 2.934647369384765625e+01 -1.255390739440917969e+01 -4.091669917106628418e-01 -3.282003849744796753e-02 -1.325961053371429443e-01 -2.455847412347793579e-01
2.673000000000000000e+03 2.764485549926757812e+01 -1.258580970764160156e+01 -3.660924732685089111e-01 -2.670276351273059845e-02 -1.178385764360427856e-01 -2.335638701915740967e-01
2.674000000000000000e+03 2.850487709045410156e+01 -1.259994411468505859e+01 -3.879743516445159912e-01 -3.068910911679267883e-02 -1.255990415811538696e-01 -2.399229258298873901e-01
2.675000000000000000e+03 2.367954254150390625e+01 -1.132260036468505859e+01 -2.750902473926544189e-01 -7.230616640299558640e-03 -8.469626307487487793e-02 -1.725537478923797607e-01
2.676000000000000000e+03 7.089989471435546875e+01 -1.417780995368957520e+00 -5.127205848693847656e-01 9.881317019462585449e-01 1.426233351230621338e-01 -7.526963949203491211e-01
2.677000000000000000e+03 2.014919281005859375e+01 -1.570158100128173828e+01 -2.060783654451370239e-01 -6.413583457469940186e-02 -8.106426149606704712e-02 -2.007289826869964600e-01
2.678000000000000000e+03 2.486679649353027344e+01 -1.258281230926513672e+01 -2.962959408760070801e-01 -1.871705614030361176e-02 -9.450390189886093140e-02 -2.104389220476150513e-01
2.679000000000000000e+03 2.020966148376464844e+01 -1.286798858642578125e+01 -2.148227244615554810e-01 -3.402656316757202148e-02 -7.465478777885437012e-02 -1.751935929059982300e-01
2.680000000000000000e+03 2.290449333190917969e+01 -1.184056854248046875e+01 -2.584109902381896973e-01 -1.129444222897291183e-02 -8.091162890195846558e-02 -1.786124259233474731e-01
2.681000000000000000e+03 2.224527931213378906e+01 -1.123503017425537109e+01 -2.392372936010360718e-01 -8.681259118020534515e-03 -7.437556236982345581e-02 -1.595407575368881226e-01
2.682000000000000000e+03 2.220699310302734375e+01 -1.194041442871093750e+01 -2.434567809104919434e-01 -1.451732311397790909e-02 -7.739222794771194458e-02 -1.751829385757446289e-01
2.683000000000000000e+03 7.564604949951171875e+01 -1.220248889923095703e+01 6.686735898256301880e-02 7.346821784973144531e+00 2.224106788635253906e+00 2.555613994598388672e+00
2.684000000000000000e+03 1.104246807098388672e+01 6.758401393890380859e+00 4.308219649828970432e-05 -9.531991672702133656e-04 -2.730350825004279613e-04 -5.977325490675866604e-04
2.685000000000000000e+03 7.706921577453613281e+00 9.642008781433105469e+00 -7.265251770149916410e-05 1.235324307344853878e-03 3.488015208858996630e-04 -1.678631524555385113e-04
2.686000000000000000e+03 8.197409629821777344e+00 6.895176887512207031e+00 2.879782696254551411e-04 -1.989717420656234026e-04 2.670195135578978807e-05 -6.394669180735945702e-04
2.687000000000000000e+03 7.792774200439453125e+01 -9.763490676879882812e+00 -1.842274188995361328e+00 1.446163558959960938e+01 3.785808563232421875e+00 7.098407745361328125e-01
2.688000000000000000e+03 7.728229522705078125e+01 -9.353827476501464844e+00 -2.316773891448974609e+00 1.433447074890136719e+01 3.605309009552001953e+00 2.216330766677856445e+00
2.689000000000000000e+03 7.439496612548828125e+01 -1.650179386138916016e+00 5.186847224831581116e-02 4.609994888305664062e+00 1.398559093475341797e+00 -2.496365070343017578e+00
2.690000000000000000e+03 7.671121978759765625e+01 -1.008703041076660156e+01 -1.397699236869812012e+00 1.087554740905761719e+01 2.843354463577270508e+00 3.040586948394775391e+00
2.691000000000000000e+03 6.823926925659179688e+00 1.048555469512939453e+01 9.854527888819575310e-04 1.395405161019880325e-05 2.998220734298229218e-04 1.910192542709410191e-03
2.692000000000000000e+03 2.203951072692871094e+01 3.959206044673919678e-01 -8.222721517086029053e-02 -1.725074052810668945e-01 -7.642038911581039429e-02 1.814166456460952759e-01
2.693000000000000000e+03 7.329247283935546875e+01 -1.172102546691894531e+01 2.069795280694961548e-01 3.190458536148071289e+00 1.019231438636779785e+00 2.001707077026367188e+00
2.694000000000000000e+03 7.613892364501953125e+01 -1.296118927001953125e+01 1.445582211017608643e-01 8.138824462890625000e+00 2.485014915466308594e+00 2.336716651916503906e+00
2.695000000000000000e+03 7.574362182617187500e+01 2.182002067565917969e+00 4.094065725803375244e-01 7.177878856658935547e+00 2.276185750961303711e+00 -2.146646499633789062e+00
2.696000000000000000e+03 7.517132568359375000e+01 -1.412003707885742188e+01 4.144573807716369629e-01 6.365906238555908203e+00 2.034109115600585938e+00 2.363625049591064453e+00
2.697000000000000000e+03 7.558860778808593750e+01 -1.455181312561035156e+01 3.751194775104522705e-01 6.917464256286621094e+00 2.187775135040283203e+00 2.238502979278564453e+00
2.698000000000000000e+03 2.432752609252929688e+01 7.417575359344482422e+00 -2.770640254020690918e-01 -3.142298460006713867e-01 -1.773881614208221436e-01 4.656629562377929688e-01
2.699000000000000000e+03 2.197426033020019531e+01 1.784932708740234375e+01 -2.239325642585754395e-01 -5.010177493095397949e-01 -2.174851000308990479e-01 3.170854747295379639e-01
2.700000000000000000e+03 2.240855216979980469e+01 -1.645352935791015625e+01 -2.098213434219360352e-01 -6.285743415355682373e-02 -8.180363476276397705e-02 -2.356056869029998779e-01
2.701000000000000000e+03 6.321415901184082031e+00 2.106232261657714844e+01 -1.512954831123352051e-01 -7.544683665037155151e-02 -6.802269816398620605e-02 1.227203011512756348e-01
2.702000000000000000e+03 2.326070213317871094e+01 2.038813591003417969e+00 -1.492784768342971802e-01 -2.115470319986343384e-01 -1.082476526498794556e-01 2.877648174762725830e-01
2.703000000000000000e+03 9.751627922058105469e+00 7.172554016113281250e+00 4.718911950476467609e-04 -1.177656929939985275e-03 -2.117297262884676456e-04 -2.328205591766163707e-04
2.704000000000000000e+03 6.845963287353515625e+01 -2.582879829406738281e+01 7.338391542434692383e-01 2.856553554534912109e+00 1.077117800712585449e+00 9.302098751068115234e-01
2.705000000000000000e+03 6.987808990478515625e+01 -3.254385375976562500e+01 4.936556816101074219e-01 3.472315549850463867e+00 1.189791440963745117e+00 6.124584674835205078e-01
2.706000000000000000e+03 7.188613128662109375e+01 -3.331155395507812500e+01 3.531679809093475342e-01 3.963131904602050781e+00 1.294889926910400391e+00 5.352919101715087891e-01
2.707000000000000000e+03 7.530913543701171875e+01 -1.691776847839355469e+01 4.843598008155822754e-01 6.427680969238281250e+00 2.073612213134765625e+00 1.893692731857299805e+00
2.708000000000000000e+03 7.159560394287109375e+01 -1.872305870056152344e+01 7.932441234588623047e-01 3.535338163375854492e+00 1.298574686050415039e+00 1.515742301940917969e+00
2.709000000000000000e+03 7.355311584472656250e+01 -2.266283988952636719e+01 4.910362958908081055e-01 4.900760173797607422e+00 1.617538928985595703e+00 1.336335301399230957e+00
2.710000000000000000e+03 8.843051910400390625e+00 2.913189315795898438e+01 5.541871488094329834e-02 -4.211152791976928711e-01 -1.097089722752571106e-01 2.390149384737014771e-01
2.711000000000000000e+03 1.119300079345703125e+01 3.233413696289062500e+01 1.309819519519805908e-01 -4.892031848430633545e-01 -1.074663624167442322e-01 2.053030729293823242e-01
2.712000000000000000e+03 7.112274932861328125e+01 1.002249431610107422e+01 6.570367813110351562e-01 3.589969158172607422e+00 1.274101734161376953e+00 -1.365673899650573730e+00
2.713000000000000000e+03 7.239646148681640625e+01 9.492495536804199219e+00 5.830047130584716797e-01 4.177381515502929688e+00 1.428115844726562500e+00 -1.437204122543334961e+00
2.714000000000000000e+03 7.196041107177734375e+01 1.699277114868164062e+01 3.671447336673736572e-01 3.955940723419189453e+00 1.296925663948059082e+00 -9.113430976867675781e-01
2.715000000000000000e+03 7.313948822021484375e+01 1.563748741149902344e+01 3.132753372192382812e-01 4.365266323089599609e+00 1.403562426567077637e+00 -9.617086648941040039e-01
2.716000000000000000e+03 7.386131286621093750e+01 2.554244613647460938e+01 1.191231533885002136e-01 3.982289552688598633e+00 1.230423808097839355e+00 -4.148254394531250000e-01
2.717000000000000000e+03 7.410551452636718750e+01 3.604429006576538086e+00 6.262532472610473633e-01 5.195384025573730469e+00 1.746491193771362305e+00 -2.013040781021118164e+00
2.718000000000000000e+03 7.114009094238281250e+01 2.656078720092773438e+01 2.171023041009902954e-01 3.483288526535034180e+00 1.110117197036743164e+00 -4.685314893722534180e-01
2.719000000000000000e+03 7.108553314208984375e+01 2.814220237731933594e+01 1.949531584978103638e-01 3.451179981231689453e+00 1.093839883804321289e+00 -4.193028509616851807e-01
2.720000000000000000e+03 7.450534820556640625e+01 1.929898071289062500e+01 1.671248823404312134e-01 4.474963665008544922e+00 1.392626643180847168e+00 -6.512201428413391113e-01
2.721000000000000000e+03 7.181906890869140625e+01 -2.681806182861328125e+01 4.939838647842407227e-01 4.084850788116455078e+00 1.373650431632995605e+00 9.965800642967224121e-01
2.722000000000000000e+03 9.403906822204589844e+00 3.354675292968750000e+01 1.154128164052963257e-01 -4.697823524475097656e-01 -1.063108593225479126e-01 1.728566586971282959e-01
2.723000000000000000e+03 7.453700256347656250e+01 -1.557789421081542969e+01 6.406204700469970703e-01 5.785410881042480469e+00 1.927809476852416992e+00 2.093597888946533203e+00
2.724000000000000000e+03 7.429907989501953125e+01 1.294190883636474609e+01 3.008054792881011963e-01 4.950208663940429688e+00 1.575304150581359863e+00 -1.069983482360839844e+00
2.725000000000000000e+03 7.272853088378906250e+01 1.067329120635986328e+01 5.216842293739318848e-01 4.341967582702636719e+00 1.459095597267150879e+00 -1.345850586891174316e+00
2.726000000000000000e+03 4.427402973175048828e+00 2.762131500244140625e+01 8.796564652584493160e-04 -2.755624055862426758e-01 -8.240482211112976074e-02 1.626095324754714966e-01
2.727000000000000000e+03 7.399636840820312500e+01 -2.014339065551757812e+01 5.436022877693176270e-01 5.211842536926269531e+00 1.726633429527282715e+00 1.574357271194458008e+00
2.728000000000000000e+03 1.011796951293945312e+01 2.047805595397949219e+01 -2.972075939178466797e-01 -3.136227726936340332e-01 -1.832491159439086914e-01 3.679240345954895020e-01
2.729000000000000000e+03 7.182835578918457031e+00 -2.390580940246582031e+01 -2.778129279613494873e-02 -1.271676272153854370e-01 -4.648467525839805603e-02 -1.189469024538993835e-01
2.730000000000000000e+03 7.357408142089843750e+01 6.058991909027099609e+00 6.308345198631286621e-01 4.896365165710449219e+00 1.658159971237182617e+00 -1.762043595314025879e+00
2.731000000000000000e+03 4.792777538299560547e+00 -7.381934165954589844e+00 6.976447912165895104e-05 1.110371158574707806e-04 5.424047776614315808e-05 9.233581658918410540e-05
2.732000000000000000e+03 8.603650093078613281e+00 2.760029792785644531e+01 2.504719980061054230e-02 -3.943838179111480713e-01 -1.108009889721870422e-01 2.561109364032745361e-01
2.733000000000000000e+03 6.461839675903320312e+00 2.849290084838867188e+01 1.831100694835186005e-02 -3.512900173664093018e-01 -9.989370405673980713e-02 2.132913470268249512e-01
2.734000000000000000e+03 7.349839019775390625e+01 4.422430992126464844e+00 6.768987178802490234e-01 4.727899074554443359e+00 1.621439337730407715e+00 -1.909930109977722168e+00
2.735000000000000000e+03 7.376932525634765625e+01 -2.138856697082519531e+01 5.324249863624572754e-01 5.064462661743164062e+00 1.679066300392150879e+00 1.445297122001647949e+00
2.736000000000000000e+03 7.860164642333984375e+00 8.158544540405273438e+00 5.096715176478028297e-05 7.286658510565757751e-04 2.338899066671729088e-04 -3.342685231473296881e-04
2.737000000000000000e+03 5.709892749786376953e+00 6.024999141693115234e+00 1.274105452466756105e-04 3.236320044379681349e-04 1.353127590846270323e-04 -1.994200283661484718e-04
2.738000000000000000e+03 7.367654800415039062e+00 7.401464462280273438e+00 2.421155950287356973e-04 4.793318112206179649e-06 7.407267548842355609e-05 6.898986757732927799e-04
2.739000000000000000e+03 2.408680725097656250e+01 9.858425140380859375e+00 -3.130337893962860107e-01 -3.556635081768035889e-01 -2.006091922521591187e-01 4.733505547046661377e-01
2.740000000000000000e+03 5.439582347869873047e+00 -6.211736679077148438e+00 6.585429946426302195e-05 4.681886639446020126e-05 3.380194903002120554e-05 1.049897473421879113e-04
2.741000000000000000e+03 8.863037109375000000e+00 -2.162956809997558594e+01 -5.846336856484413147e-02 -1.437890827655792236e-01 -6.067573651671409607e-02 -1.407815665006637573e-01
2.742000000000000000e+03 2.136968040466308594e+01 -1.200543403625488281e+01 -2.274186313152313232e-01 -1.811196655035018921e-02 -7.365917414426803589e-02 -1.689684838056564331e-01
2.743000000000000000e+03 2.272893142700195312e+01 -1.327450370788574219e+01 -2.526158094406127930e-01 -2.382850088179111481e-02 -8.293329179286956787e-02 -2.043483853340148926e-01
2.744000000000000000e+03 1.262334251403808594e+01 -2.346562957763671875e+01 -2.679168805480003357e-02 -1.948544085025787354e-01 -6.649383157491683960e-02 -1.551065444946289062e-01
2.745000000000000000e+03 1.353912353515625000e+01 -2.184073829650878906e+01 -6.428173184394836426e-02 -1.905755102634429932e-01 -7.645717263221740723e-02 -1.501427888870239258e-01
2.746000000000000000e+03 6.702370452880859375e+01 2.944434165954589844e+01 3.230169117450714111e-01 2.813438415527343750e+00 9.409366250038146973e-01 -4.016271531581878662e-01
2.747000000000000000e+03 1.850229454040527344e+01 -1.963818550109863281e+01 -1.303073316812515259e-01 -1.284397244453430176e-01 -7.762411981821060181e-02 -1.915445327758789062e-01
2.748000000000000000e+03 1.210659217834472656e+01 2.339437866210937500e+01 -6.254250556230545044e-02 -5.287414193153381348e-01 -1.773851811885833740e-01 3.524917662143707275e-01
2.749000000000000000e+03 2.512673568725585938e+01 1.434514904022216797e+01 -2.691212594509124756e-01 -3.366932570934295654e-01 -1.817443519830703735e-01 4.125878810882568359e-01
2.750000000000000000e+03 2.083255767822265625e+01 -1.459535598754882812e+01 -2.202797532081604004e-01 -4.620419442653656006e-02 -7.994518429040908813e-02 -2.007430642843246460e-01
2.751000000000000000e+03 2.499501037597656250e+01 4.241371154785156250e+00 -2.323877662420272827e-01 -2.331043779850006104e-01 -1.396476477384567261e-01 4.097137153148651123e-01
2.752000000000000000e+03 8.208266258239746094e+00 -3.210496520996093750e+01 3.720988705754280090e-02 -2.143569588661193848e-01 -5.314411967992782593e-02 -1.001029908657073975e-01
2.753000000000000000e+03 1.534765815734863281e+01 2.389190864562988281e+01 1.553284702822566032e-03 -6.214120984077453613e-01 -1.859576404094696045e-01 2.988031804561614990e-01
2.754000000000000000e+03 1.624759101867675781e+01 -2.064913940429687500e+01 -1.012920588254928589e-01 -1.609258502721786499e-01 -7.866537570953369141e-02 -1.680403649806976318e-01
2.755000000000000000e+03 1.798901939392089844e+01 -2.121864700317382812e+01 -8.970502018928527832e-02 -1.527924835681915283e-01 -7.274925708770751953e-02 -1.890588551759719849e-01
2.756000000000000000e+03 2.242944526672363281e+01 1.224526023864746094e+01 -3.502934575080871582e-01 -4.689430296421051025e-01 -2.457709461450576782e-01 4.405300915241241455e-01
2.757000000000000000e+03 6.700794696807861328e+00 2.228100776672363281e+01 -1.268254667520523071e-01 -1.622261703014373779e-01 -8.671548962593078613e-02 2.039014548063278198e-01
2.758000000000000000e+03 7.338650512695312500e+01 1.932530593872070312e+01 2.187761664390563965e-01 4.198544025421142578e+00 1.325196027755737305e+00 -7.201718091964721680e-01
2.759000000000000000e+03 1.125444412231445312e+01 -2.471722221374511719e+01 -1.025505363941192627e-02 -1.894860118627548218e-01 -5.992231890559196472e-02 -1.474200189113616943e-01
2.760000000000000000e+03 7.283309173583984375e+01 2.925430107116699219e+01 1.274194121360778809e-01 3.687608957290649414e+00 1.144508600234985352e+00 -3.187473118305206299e-01
2.761000000000000000e+03 7.669067382812500000e+01 -2.365886211395263672e+00 -9.131054878234863281e-01 1.054730796813964844e+01 2.890260696411132812e+00 -2.729497194290161133e+00
2.762000000000000000e+03 7.587537384033203125e+01 -8.752526283264160156e+00 -8.401778340339660645e-01 7.698554992675781250e+00 2.057513236999511719e+00 4.572499752044677734e+00
2.763000000000000000e+03 7.448431396484375000e+01 -1.054601573944091797e+01 -1.548919528722763062e-01 4.257745265960693359e+00 1.230856060981750488e+00 2.644732952117919922e+00
2.764000000000000000e+03 7.636808776855468750e+01 -1.062731552124023438e+01 -9.164803028106689453e-01 9.487996101379394531e+00 2.571454524993896484e+00 2.957916975021362305e+00
2.765000000000000000e+03 2.464443397521972656e+01 1.290127187967300415e-01 -1.830187141895294189e-01 -1.326824277639389038e-01 -9.471034258604049683e-02 2.643705606460571289e-01
2.766000000000000000e+03 7.241435241699218750e+01 -1.482818841934204102e+00 -8.536508679389953613e-02 1.952411293983459473e+00 5.601138472557067871e-01 -1.449485659599304199e+00
2.767000000000000000e+03 7.628357696533203125e+01 -2.903280973434448242e+00 -1.257972121238708496e+00 9.723835945129394531e+00 2.539758920669555664e+00 -3.231207132339477539e+00
2.768000000000000000e+03 2.509580993652343750e+01 -3.596617281436920166e-01 -1.937106698751449585e-01 -1.133297160267829895e-01 -9.211211651563644409e-02 2.551780939102172852e-01
2.769000000000000000e+03 7.592449951171875000e+01 -3.339002609252929688e+00 -9.830107688903808594e-01 8.302604675292968750e+00 2.195878267288208008e+00 -3.978899002075195312e+00
2.770000000000000000e+03 7.366121673583984375e+01 -2.364470005035400391e+00 -2.133023589849472046e-01 2.780529260635375977e+00 7.701680660247802734e-01 -2.041541814804077148e+00
2.771000000000000000e+03 7.514350891113281250e+01 -3.443171501159667969e+00 -5.520108938217163086e-01 5.374163150787353516e+00 1.446645736694335938e+00 -3.463959932327270508e+00
2.772000000000000000e+03 2.610829544067382812e+01 -6.819172501564025879e-01 -2.296469360589981079e-01 -9.093214571475982666e-02 -9.617372602224349976e-02 2.635480761528015137e-01
2.773000000000000000e+03 2.576049232482910156e+01 -1.546505570411682129e+00 -2.104691416025161743e-01 -7.589595764875411987e-02 -8.590953052043914795e-02 2.228813618421554565e-01
2.774000000000000000e+03 9.092367172241210938e+00 5.941080093383789062e+00 2.063107967842370272e-04 -5.219078157097101212e-04 -9.467911149840801954e-05 -6.283792317844927311e-04
2.775000000000000000e+03 7.491344451904296875e+01 -1.069629096984863281e+01 -2.099211663007736206e-01 5.451488494873046875e+00 1.572470307350158691e+00 2.841660976409912109e+00
2.776000000000000000e+03 7.672951507568359375e+01 -3.345930576324462891e+00 -1.994901537895202637e+00 1.204461765289306641e+01 3.014914751052856445e+00 -3.405115365982055664e+00
2.777000000000000000e+03 2.472354125976562500e+01 -1.305407404899597168e+00 -1.688772439956665039e-01 -9.554282575845718384e-02 -7.932602614164352417e-02 2.079888582229614258e-01
2.778000000000000000e+03 2.770834922790527344e+01 -1.568597793579101562e+00 -2.889176905155181885e-01 -5.616869032382965088e-02 -1.035259142518043518e-01 2.596127986907958984e-01
2.779000000000000000e+03 7.280834197998046875e+01 -1.185301971435546875e+01 1.763463914394378662e-01 2.570666074752807617e+00 8.241037130355834961e-01 1.720264196395874023e+00
2.780000000000000000e+03 7.599996948242187500e+01 3.878898024559020996e-01 1.494993418455123901e-01 7.826899051666259766e+00 2.392919540405273438e+00 -2.375146627426147461e+00
2.781000000000000000e+03 2.834363555908203125e+01 -3.853827714920043945e-01 -3.251202106475830078e-01 -6.643521785736083984e-02 -1.174666285514831543e-01 3.208408951759338379e-01
2.782000000000000000e+03 2.730093193054199219e+01 -5.079283118247985840e-01 -2.843711376190185547e-01 -7.840423285961151123e-02 -1.088326126337051392e-01 3.003432154655456543e-01
2.783000000000000000e+03 6.258820056915283203e+00 6.420426845550537109e+00 2.894711797125637531e-04 -3.071207029279321432e-04 -5.294858056004159153e-06 1.309763902099803090e-04
2.784000000000000000e+03 7.402661895751953125e+01 -1.062429523468017578e+01 -1.197562664747238159e-01 3.638771295547485352e+00 1.055704474449157715e+00 2.445152997970581055e+00
2.785000000000000000e+03 7.458932495117187500e+01 -1.110478210449218750e+01 -2.843008190393447876e-02 4.909366130828857422e+00 1.464280843734741211e+00 2.586341381072998047e+00
2.786000000000000000e+03 3.089472007751464844e+01 -1.505959272384643555e+00 -4.333025217056274414e-01 -2.726326882839202881e-02 -1.381697356700897217e-01 3.059570193290710449e-01
2.787000000000000000e+03 2.943245506286621094e+01 -7.857894897460937500e-01 -3.660202026367187500e-01 -4.872369766235351562e-02 -1.244231760501861572e-01 3.189982771873474121e-01
2.788000000000000000e+03 7.592508697509765625e+01 -3.953848779201507568e-01 9.719877503812313080e-03 7.805332183837890625e+00 2.344515562057495117e+00 -2.521701574325561523e+00
2.789000000000000000e+03 7.494807434082031250e+01 -1.358868885040283203e+01 4.012399911880493164e-01 6.080384254455566406e+00 1.944487214088439941e+00 2.352283000946044922e+00
2.790000000000000000e+03 2.870228195190429688e+01 -9.394221305847167969e-01 -3.368338346481323242e-01 -5.358023196458816528e-02 -1.171242222189903259e-01 3.032078146934509277e-01
2.791000000000000000e+03 7.491584777832031250e+01 1.890251278877258301e+00 4.918450415134429932e-01 6.066014289855957031e+00 1.967357754707336426e+00 -2.229382038116455078e+00
2.792000000000000000e+03 3.100702095031738281e+01 -1.525108665227890015e-01 -4.308681190013885498e-01 -4.048119112849235535e-02 -1.414047926664352417e-01 3.646639883518218994e-01
2.793000000000000000e+03 3.306037902832031250e+01 -1.452068209648132324e+00 -5.378827452659606934e-01 -1.429491583257913589e-02 -1.656533032655715942e-01 3.289778828620910645e-01
2.794000000000000000e+03 4.469863128662109375e+01 -1.276494598388671875e+01 -9.231727123260498047e-01 -5.103468522429466248e-02 -2.922622263431549072e-01 -4.188140034675598145e-01
2.795000000000000000e+03 4.396051406860351562e+01 -1.201958465576171875e+01 -9.703032374382019043e-01 -4.221545532345771790e-02 -3.037556111812591553e-01 -3.820947706699371338e-01
2.796000000000000000e+03 7.008089542388916016e+00 -6.957681179046630859e+00 1.224070292664691806e-04 -1.231228961842134595e-04 -2.147595949963942985e-07 -1.111503843276295811e-05
2.797000000000000000e+03 7.639858245849609375e+00 -6.114049434661865234e+00 -6.896862760186195374e-05 2.040752442553639412e-04 4.053198426845483482e-05 1.856953349488321692e-05
2.798000000000000000e+03 4.683724212646484375e+01 -1.199767971038818359e+01 -1.095037579536437988e+00 -4.480570927262306213e-02 -3.419529795646667480e-01 -4.150992035865783691e-01
2.799000000000000000e+03 4.987825012207031250e+01 -1.263420295715332031e+01 -1.114047288894653320e+00 -5.131423100829124451e-02 -3.496084511280059814e-01 -4.756413698196411133e-01
2.800000000000000000e+03 4.469195175170898438e+01 -1.360747337341308594e+01 -8.098701834678649902e-01 -5.873914062976837158e-02 -2.605828046798706055e-01 -4.503524303436279297e-01
2.801000000000000000e+03 4.608398437500000000e+01 -1.274522209167480469e+01 -9.674867391586303711e-01 -5.338280647993087769e-02 -3.062608540058135986e-01 -4.335292577743530273e-01
2.802000000000000000e+03 5.060305404663085938e+01 -1.262676525115966797e+01 -1.139188528060913086e+00 -4.620018228888511658e-02 -3.556166291236877441e-01 -4.844298660755157471e-01
2.803000000000000000e+03 4.388928604125976562e+01 -1.337842655181884766e+01 -8.106992840766906738e-01 -5.898946151137351990e-02 -2.609066367149353027e-01 -4.336138367652893066e-01
2.804000000000000000e+03 3.304798126220703125e+01 -7.553108334541320801e-01 -5.244366526603698730e-01 -2.059157751500606537e-02 -1.635084599256515503e-01 3.605924844741821289e-01
2.805000000000000000e+03 3.379988479614257812e+01 -6.882732510566711426e-01 -5.567624568939208984e-01 -1.731650717556476593e-02 -1.722236871719360352e-01 3.709242343902587891e-01
2.806000000000000000e+03 4.609875488281250000e+01 -1.197844219207763672e+01 -1.067070960998535156e+00 -4.322089999914169312e-02 -3.330875337123870850e-01 -4.039766192436218262e-01
2.807000000000000000e+03 4.680731964111328125e+01 -1.279196929931640625e+01 -9.889412522315979004e-01 -5.588368326425552368e-02 -3.134474754333496094e-01 -4.452799856662750244e-01
2.808000000000000000e+03 4.249802398681640625e+01 -1.220317649841308594e+01 -8.912762403488159180e-01 -4.556674510240554810e-02 -2.810528874397277832e-01 -3.710235953330993652e-01
2.809000000000000000e+03 4.089924621582031250e+01 -1.302108764648437500e+01 -7.482367753982543945e-01 -5.534391850233078003e-02 -2.410742193460464478e-01 -3.827891349792480469e-01
2.810000000000000000e+03 4.011436462402343750e+01 -1.222540473937988281e+01 -7.921739220619201660e-01 -4.576593637466430664e-02 -2.513819634914398193e-01 -3.452202677726745605e-01
2.811000000000000000e+03 5.212064361572265625e+01 -1.275410652160644531e+01 -1.171743750572204590e+00 -5.281131714582443237e-02 -3.673665225505828857e-01 -4.976267814636230469e-01
2.812000000000000000e+03 4.907973861694335938e+01 -1.196938610076904297e+01 -1.193450689315795898e+00 -4.316569119691848755e-02 -3.709849119186401367e-01 -4.397520124912261963e-01
2.813000000000000000e+03 3.929693603515625000e+01 -1.400696277618408203e+01 -6.195428371429443359e-01 -6.773513555526733398e-02 -2.061834037303924561e-01 -3.952043950557708740e-01
2.814000000000000000e+03 5.290447235107421875e+01 -1.273058032989501953e+01 -1.193543791770935059e+00 -4.913763701915740967e-02 -3.728044331073760986e-01 -5.048620700836181641e-01
2.815000000000000000e+03 5.209655380249023438e+01 -1.194055271148681641e+01 -1.329845428466796875e+00 -4.442213103175163269e-02 -4.122802615165710449e-01 -4.730148613452911377e-01
2.816000000000000000e+03 5.127098083496093750e+01 -1.354385566711425781e+01 -9.954603910446166992e-01 -5.462464690208435059e-02 -3.150255084037780762e-01 -5.125770568847656250e-01
2.817000000000000000e+03 4.758151245117187500e+01 -1.289704895019531250e+01 -1.001091480255126953e+00 -5.591743811964988708e-02 -3.171026706695556641e-01 -4.577426910400390625e-01
2.818000000000000000e+03 3.682765197753906250e+01 -1.323084831237792969e+00 -7.227606773376464844e-01 -6.762476637959480286e-03 -2.188569456338882446e-01 3.598892390727996826e-01
2.819000000000000000e+03 3.456372451782226562e+01 1.430145502090454102e-01 -5.691379904747009277e-01 -2.063295058906078339e-02 -1.769312918186187744e-01 4.128139019012451172e-01
2.820000000000000000e+03 5.654133987426757812e+01 -1.179682350158691406e+01 -1.513939261436462402e+00 -4.936027154326438904e-02 -4.689898788928985596e-01 -4.999694526195526123e-01
2.821000000000000000e+03 5.866691589355468750e+01 -1.263439083099365234e+01 -1.297640681266784668e+00 -4.633882269263267517e-02 -4.031938314437866211e-01 -5.071152448654174805e-01
2.822000000000000000e+03 5.727687072753906250e+01 -1.179736900329589844e+01 -1.535119533538818359e+00 -4.552732408046722412e-02 -4.741940498352050781e-01 -5.018782019615173340e-01
2.823000000000000000e+03 5.723428726196289062e+01 -1.313182926177978516e+01 -1.177503705024719238e+00 -5.300436541438102722e-02 -3.691524267196655273e-01 -5.116698145866394043e-01
2.824000000000000000e+03 5.583533859252929688e+01 -1.251851272583007812e+01 -1.316373229026794434e+00 -4.989639297127723694e-02 -4.098808765411376953e-01 -5.120996236801147461e-01
2.825000000000000000e+03 3.783646011352539062e+01 -1.301105594635009766e+01 -6.492863297462463379e-01 -5.279196053743362427e-02 -2.106234878301620483e-01 -3.468082845211029053e-01
2.826000000000000000e+03 6.322587585449218750e+01 -1.255820274353027344e+01 -1.169113874435424805e+00 2.968068793416023254e-02 -3.418299257755279541e-01 -3.872475624084472656e-01
2.827000000000000000e+03 6.399600601196289062e+01 -1.256171607971191406e+01 -1.103379011154174805e+00 5.548785254359245300e-02 -3.143673241138458252e-01 -3.406729996204376221e-01
2.828000000000000000e+03 6.404904174804687500e+01 -4.503860771656036377e-01 -1.280356168746948242e+00 5.523999780416488647e-02 -3.675348758697509766e-01 3.158734440803527832e-01
2.829000000000000000e+03 5.366907882690429688e+01 -1.267367362976074219e+01 -1.227604985237121582e+00 -5.079336464405059814e-02 -3.835195302963256836e-01 -5.067203044891357422e-01
2.830000000000000000e+03 5.440057373046875000e+01 -1.259473133087158203e+01 -1.257824420928955078e+00 -4.445036128163337708e-02 -3.906824290752410889e-01 -5.115155577659606934e-01
2.831000000000000000e+03 5.511762237548828125e+01 -1.254187202453613281e+01 -1.290702581405639648e+00 -4.430754855275154114e-02 -4.005030393600463867e-01 -5.106536746025085449e-01
2.832000000000000000e+03 5.941983795166015625e+01 -1.268767547607421875e+01 -1.269572257995605469e+00 -3.099562413990497589e-02 -3.901703655719757080e-01 -5.016754269599914551e-01
2.833000000000000000e+03 6.172729492187500000e+01 -1.183180332183837891e+01 -1.536296010017395020e+00 -1.737658306956291199e-02 -4.661017954349517822e-01 -4.790212810039520264e-01
2.834000000000000000e+03 6.247501373291015625e+01 -1.254155063629150391e+01 -1.210983991622924805e+00 2.013610303401947021e-02 -3.572543561458587646e-01 -4.256262183189392090e-01
2.835000000000000000e+03 6.483715057373046875e+01 -4.074454903602600098e-01 -1.170210957527160645e+00 8.778741210699081421e-02 -3.247270584106445312e-01 2.502956986427307129e-01
2.836000000000000000e+03 3.560068511962890625e+01 -1.225929927825927734e+01 -6.237019896507263184e-01 -4.359487444162368774e-02 -2.001890540122985840e-01 -2.959773540496826172e-01
2.837000000000000000e+03 3.776585006713867188e+01 -1.383398056030273438e+01 -5.870610475540161133e-01 -6.466725468635559082e-02 -1.955184787511825562e-01 -3.688492476940155029e-01
2.838000000000000000e+03 3.758071899414062500e+01 -1.298124551773071289e+00 -7.613223791122436523e-01 -6.845265626907348633e-03 -2.304503023624420166e-01 3.650765120983123779e-01
2.839000000000000000e+03 6.908953857421875000e+01 -1.210973453521728516e+01 -5.425027012825012207e-01 6.080254316329956055e-01 1.965681277215480804e-02 3.184872269630432129e-01
2.840000000000000000e+03 6.971347808837890625e+01 -1.206578922271728516e+01 -4.299748539924621582e-01 7.869247198104858398e-01 1.070849597454071045e-01 4.920031428337097168e-01
2.841000000000000000e+03 5.717831420898437500e+01 -2.320003956556320190e-01 -1.425890803337097168e+00 -4.261907190084457397e-02 -4.405529797077178955e-01 4.801494777202606201e-01
2.842000000000000000e+03 6.017607116699218750e+01 -1.002698183059692383e+00 -1.668221116065979004e+00 -3.327851742506027222e-02 -5.104498863220214844e-01 4.620307087898254395e-01
2.843000000000000000e+03 5.946523666381835938e+01 -2.260435223579406738e-01 -1.406192898750305176e+00 -2.677327208220958710e-02 -4.298898577690124512e-01 4.642445147037506104e-01
2.844000000000000000e+03 6.092283248901367188e+01 -1.017102599143981934e+00 -1.663447380065917969e+00 -2.617239579558372498e-02 -5.068859457969665527e-01 4.523756206035614014e-01
2.845000000000000000e+03 6.098640823364257812e+01 -2.764402031898498535e-01 -1.384959816932678223e+00 -1.234459504485130310e-02 -4.191913008689880371e-01 4.312794804573059082e-01
2.846000000000000000e+03 6.476985931396484375e+01 -1.253339767456054688e+01 -1.036196231842041016e+00 8.996596932411193848e-02 -2.838690578937530518e-01 -2.896494865417480469e-01
2.847000000000000000e+03 6.328574752807617188e+01 -4.253726005554199219e-01 -1.332085609436035156e+00 1.620448194444179535e-02 -3.947643339633941650e-01 3.552547395229339600e-01
2.848000000000000000e+03 6.406549835205078125e+01 1.743923872709274292e-01 -1.035304307937622070e+00 8.184988796710968018e-02 -2.860363125801086426e-01 2.704042792320251465e-01
2.849000000000000000e+03 6.553856658935546875e+01 -1.247177982330322266e+01 -9.807415008544921875e-01 1.377426981925964355e-01 -2.528996467590332031e-01 -2.319538146257400513e-01
2.850000000000000000e+03 5.414930725097656250e+01 -3.151372373104095459e-01 -1.398340344429016113e+00 -4.218802228569984436e-02 -4.321585297584533691e-01 4.810268282890319824e-01
2.851000000000000000e+03 5.488241577148437500e+01 -1.029337406158447266e+00 -1.586862206459045410e+00 -4.177713394165039062e-02 -4.885917901992797852e-01 4.635897874832153320e-01
2.852000000000000000e+03 6.019713211059570312e+01 -1.270474815368652344e+01 -1.258179545402526855e+00 -2.456140518188476562e-02 -3.848222792148590088e-01 -4.849794507026672363e-01
2.853000000000000000e+03 6.096953201293945312e+01 -1.266164302825927734e+01 -1.250049829483032227e+00 -1.916855014860630035e-02 -3.807655274868011475e-01 -4.652591049671173096e-01
2.854000000000000000e+03 5.640510940551757812e+01 -2.542669475078582764e-01 -1.422649264335632324e+00 -4.434057325124740601e-02 -4.400969743728637695e-01 4.834909737110137939e-01
2.855000000000000000e+03 5.795222473144531250e+01 6.333168148994445801e-01 -1.183760166168212891e+00 -3.341250121593475342e-02 -3.651517927646636963e-01 4.682869911193847656e-01
2.856000000000000000e+03 6.624726104736328125e+01 -1.301017284393310547e+00 -1.458971261978149414e+00 1.085697486996650696e-01 -4.051204323768615723e-01 2.381716668605804443e-01
2.857000000000000000e+03 7.098338317871093750e+01 -1.159749984741210938e+01 -3.482455909252166748e-01 1.183861851692199707e+00 2.506848573684692383e-01 8.164325356483459473e-01
2.858000000000000000e+03 5.112995910644531250e+01 -2.418630868196487427e-01 -1.292432427406311035e+00 -3.461397066712379456e-02 -3.981139361858367920e-01 4.763682484626770020e-01
2.859000000000000000e+03 3.485900115966796875e+01 -1.226296520233154297e+01 -5.996327400207519531e-01 -4.435641318559646606e-02 -1.931967437267303467e-01 -2.872656881809234619e-01
2.860000000000000000e+03 5.189262008666992188e+01 -2.710437774658203125e-01 -1.323818445205688477e+00 -3.752585500478744507e-02 -4.084032773971557617e-01 4.780960083007812500e-01
2.861000000000000000e+03 3.909580612182617188e+01 -4.733078181743621826e-01 -7.920082807540893555e-01 -1.177185028791427612e-02 -2.411340475082397461e-01 4.138520658016204834e-01
2.862000000000000000e+03 3.903514480590820312e+01 2.837621569633483887e-01 -7.455181479454040527e-01 -1.687431521713733673e-02 -2.287177443504333496e-01 4.438025653362274170e-01
2.863000000000000000e+03 4.061285781860351562e+01 -1.122371673583984375e+00 -9.112362265586853027e-01 -1.001551281660795212e-02 -2.763755321502685547e-01 3.877100050449371338e-01
2.864000000000000000e+03 5.264886093139648438e+01 -2.959242165088653564e-01 -1.352185249328613281e+00 -3.934650123119354248e-02 -4.174595475196838379e-01 4.790072739124298096e-01
2.865000000000000000e+03 4.524386215209960938e+01 -4.690283536911010742e-01 -1.077806711196899414e+00 -2.354417927563190460e-02 -3.304052650928497314e-01 4.422959685325622559e-01
2.866000000000000000e+03 3.346191787719726562e+01 -1.293351173400878906e+01 -5.183089971542358398e-01 -4.817038774490356445e-02 -1.699438095092773438e-01 -2.944159209728240967e-01
2.867000000000000000e+03 5.190608978271484375e+01 5.066404938697814941e-01 -1.176131725311279297e+00 -3.943831101059913635e-02 -3.646709918975830078e-01 4.996494054794311523e-01
2.868000000000000000e+03 6.630570983886718750e+01 -3.207063674926757812e-01 -9.395498633384704590e-01 2.024105787277221680e-01 -2.211417853832244873e-01 9.460079669952392578e-02
2.869000000000000000e+03 4.957272338867187500e+01 -1.885238736867904663e-01 -1.229268908500671387e+00 -3.384143114089965820e-02 -3.789331018924713135e-01 4.748901426792144775e-01
2.870000000000000000e+03 4.143629837036132812e+01 -2.895562052726745605e-01 -8.897498846054077148e-01 -1.540164090692996979e-02 -2.715454399585723877e-01 4.313428997993469238e-01
2.871000000000000000e+03 4.311418533325195312e+01 4.156370460987091064e-01 -8.996509909629821777e-01 -2.225744538009166718e-02 -2.765725255012512207e-01 4.710718393325805664e-01
2.872000000000000000e+03 6.842675781250000000e+01 -1.150138854980468750e+01 -1.037443399429321289e+00 3.309240341186523438e-01 -2.119558155536651611e-01 3.073019161820411682e-02
2.873000000000000000e+03 3.410290145874023438e+01 -1.296882820129394531e+01 -5.357986092567443848e-01 -4.972734674811363220e-02 -1.756577938795089722e-01 -3.039365410804748535e-01
2.874000000000000000e+03 5.034958267211914062e+01 -2.071080356836318970e-01 -1.261880159378051758e+00 -3.394436836242675781e-02 -3.887473642826080322e-01 4.762303531169891357e-01
2.875000000000000000e+03 3.636420822143554688e+01 -1.299660205841064453e+01 -6.020669937133789062e-01 -5.180458351969718933e-02 -1.961614787578582764e-01 -3.290286362171173096e-01
2.876000000000000000e+03 3.986423873901367188e+01 -3.893108963966369629e-01 -8.228703737258911133e-01 -1.133521180599927902e-02 -2.502616643905639648e-01 4.221107363700866699e-01
2.877000000000000000e+03 4.735857391357421875e+01 -3.528521955013275146e-01 -1.163457512855529785e+00 -2.682239562273025513e-02 -3.570839762687683105e-01 4.595011174678802490e-01
2.878000000000000000e+03 4.593696594238281250e+01 -4.820988178253173828e-01 -1.112201094627380371e+00 -2.539712935686111450e-02 -3.412794768810272217e-01 4.470882117748260498e-01
2.879000000000000000e+03 4.378329849243164062e+01 -3.825068175792694092e-01 -1.004358410835266113e+00 -2.023093961179256439e-02 -3.073768019676208496e-01 4.404636621475219727e-01
2.880000000000000000e+03 4.249179840087890625e+01 1.322715401649475098e+00 -8.007487654685974121e-01 -2.447139658033847809e-02 -2.475660592317581177e-01 4.986617863178253174e-01
2.881000000000000000e+03 6.662788391113281250e+01 -8.486760258674621582e-01 -1.141209840774536133e+00 1.567162573337554932e-01 -2.953480780124664307e-01 1.372916251420974731e-01
2.882000000000000000e+03 3.263245773315429688e+01 -1.236956119537353516e+01 -5.162176489830017090e-01 -4.058123752474784851e-02 -1.670396625995635986e-01 -2.687161564826965332e-01
2.883000000000000000e+03 6.629841613769531250e+01 -1.239638423919677734e+01 -9.065101742744445801e-01 2.091997414827346802e-01 -2.091931402683258057e-01 -1.528905630111694336e-01
2.884000000000000000e+03 6.703982543945312500e+01 -1.232337665557861328e+01 -8.340584039688110352e-01 2.796640694141387939e-01 -1.663182973861694336e-01 -6.171908974647521973e-02
2.885000000000000000e+03 3.012955665588378906e+01 -1.326988124847412109e+01 -4.101129472255706787e-01 -4.185526818037033081e-02 -1.355904638767242432e-01 -2.723620235919952393e-01
2.886000000000000000e+03 3.097799110412597656e+01 -1.342000770568847656e+01 -4.252916276454925537e-01 -4.671371728181838989e-02 -1.416016072034835815e-01 -2.845251560211181641e-01
2.887000000000000000e+03 6.774914550781250000e+01 -1.225425720214843750e+01 -7.422748208045959473e-01 3.686037957668304443e-01 -1.121013090014457703e-01 5.138028785586357117e-02
2.888000000000000000e+03 3.274913787841796875e+01 -1.313327980041503906e+01 -4.883039295673370361e-01 -4.781533777713775635e-02 -1.608357727527618408e-01 -2.949184477329254150e-01
2.889000000000000000e+03 7.084111785888671875e+01 -1.220374774932861328e+01 -8.847111463546752930e-02 1.316263794898986816e+00 3.683378100395202637e-01 8.995220661163330078e-01
2.890000000000000000e+03 6.923213958740234375e+01 -1.264730811119079590e+00 -8.795909881591796875e-01 4.867228567600250244e-01 -1.178604438900947571e-01 -2.691741287708282471e-01
2.891000000000000000e+03 6.727291870117187500e+01 -5.716881752014160156e-01 -8.713985085487365723e-01 2.813380956649780273e-01 -1.770181208848953247e-01 -1.231003832072019577e-02
2.892000000000000000e+03 2.936124229431152344e+01 -1.335606670379638672e+01 -3.855706453323364258e-01 -4.079180583357810974e-02 -1.279087364673614502e-01 -2.670680582523345947e-01
2.893000000000000000e+03 2.672660255432128906e+01 -1.330546092987060547e+01 -3.286941051483154297e-01 -2.979285642504692078e-02 -1.075460910797119141e-01 -2.423247545957565308e-01
2.894000000000000000e+03 2.848154640197753906e+01 -1.348822307586669922e+01 -3.631890416145324707e-01 -3.772147372364997864e-02 -1.202731579542160034e-01 -2.621413767337799072e-01
2.895000000000000000e+03 2.347477340698242188e+01 -1.193008041381835938e+01 -2.710484564304351807e-01 -1.117874495685100555e-02 -8.466816693544387817e-02 -1.849559843540191650e-01
2.896000000000000000e+03 6.988672637939453125e+01 -9.733448624610900879e-01 -5.519726872444152832e-01 7.376621961593627930e-01 5.570686608552932739e-02 -5.065019726753234863e-01
2.897000000000000000e+03 2.583988952636718750e+01 -1.261722850799560547e+01 -3.167943060398101807e-01 -2.191071398556232452e-02 -1.016115099191665649e-01 -2.200917154550552368e-01
2.898000000000000000e+03 2.754866027832031250e+01 -1.341439819335937500e+01 -3.433682620525360107e-01 -3.366679325699806213e-02 -1.131105199456214905e-01 -2.524301707744598389e-01
2.899000000000000000e+03 7.167470550537109375e+01 -1.349720358848571777e+00 -2.352935075759887695e-01 1.454666256904602051e+00 3.658118546009063721e-01 -1.090137243270874023e+00
2.900000000000000000e+03 7.056774902343750000e+01 -6.345918774604797363e-01 -2.021164596080780029e-01 1.142959833145141602e+00 2.822529971599578857e-01 -8.407515287399291992e-01
2.901000000000000000e+03 6.951119232177734375e+01 -3.070541024208068848e-01 -3.043574392795562744e-01 8.248040080070495605e-01 1.561339646577835083e-01 -5.711500048637390137e-01
2.902000000000000000e+03 2.331422233581542969e+01 -6.299436092376708984e-01 -1.214751824736595154e-01 -1.268984526395797729e-01 -7.451208680868148804e-02 1.916529536247253418e-01
2.903000000000000000e+03 2.455760765075683594e+01 -1.348645687103271484e+01 -2.815868556499481201e-01 -2.628687769174575806e-02 -9.236212074756622314e-02 -2.249050587415695190e-01
2.904000000000000000e+03 2.136991882324218750e+01 -1.291739749908447266e+01 -2.313540875911712646e-01 -2.610187605023384094e-02 -7.723678648471832275e-02 -1.858382076025009155e-01
2.905000000000000000e+03 6.897208213806152344e+00 6.752283573150634766e+00 5.413194958236999810e-05 5.662846378982067108e-04 1.861249766079708934e-04 -3.062941832467913628e-04
2.906000000000000000e+03 7.034023761749267578e+00 8.867945671081542969e+00 4.880018532276153564e-04 -1.222253467858536169e-05 1.427337992936372757e-04 9.069734369404613972e-04
2.907000000000000000e+03 2.182293319702148438e+01 -1.381725978851318359e+01 -2.374031245708465576e-01 -3.194105997681617737e-02 -8.080326020717620850e-02 -2.028552293777465820e-01
2.908000000000000000e+03 7.537695312500000000e+01 -1.105753326416015625e+01 -2.245074957609176636e-01 6.794686794281005859e+00 1.971053838729858398e+00 2.894121646881103516e+00
2.909000000000000000e+03 7.358858489990234375e+01 -1.253789520263671875e+01 3.993943631649017334e-01 4.031862258911132812e+00 1.329377055168151855e+00 2.120945453643798828e+00
2.910000000000000000e+03 7.516075134277343750e+01 1.079014182090759277e+00 4.105847477912902832e-01 6.411318778991699219e+00 2.046571016311645508e+00 -2.344782829284667969e+00
2.911000000000000000e+03 7.532163238525390625e+01 3.567764759063720703e-01 2.403037846088409424e-01 6.635124206542968750e+00 2.062628269195556641e+00 -2.480017662048339844e+00
2.912000000000000000e+03 7.462624359130859375e+01 -1.444680881500244141e+01 5.134956836700439453e-01 5.677946567535400391e+00 1.857432603836059570e+00 2.233753204345703125e+00
2.913000000000000000e+03 7.513007354736328125e+01 -1.508227539062500000e+01 5.009263753890991211e-01 6.391827106475830078e+00 2.067826032638549805e+00 2.190326452255249023e+00
2.914000000000000000e+03 2.397887229919433594e+01 1.120839595794677734e+01 -3.259403705596923828e-01 -3.701233863830566406e-01 -2.088191211223602295e-01 4.600625038146972656e-01
2.915000000000000000e+03 2.282341194152832031e+01 9.517320632934570312e+00 -3.076713383197784424e-01 -4.264748394489288330e-01 -2.202438414096832275e-01 4.589681625366210938e-01
2.916000000000000000e+03 2.401285743713378906e+01 -3.005324602127075195e-01 -1.500583738088607788e-01 -1.303980946540832520e-01 -8.413694053888320923e-02 2.251172959804534912e-01
2.917000000000000000e+03 2.358903884887695312e+01 5.972919464111328125e-01 -1.436409503221511841e-01 -1.635348796844482422e-01 -9.215275198221206665e-02 2.497028857469558716e-01
2.918000000000000000e+03 2.302676582336425781e+01 -8.799704909324645996e-02 -1.148014515638351440e-01 -1.484605669975280762e-01 -7.897860556840896606e-02 2.019605785608291626e-01
2.919000000000000000e+03 7.302494812011718750e+01 1.316843605041503906e+01 3.972889780998229980e-01 4.437281131744384766e+00 1.450371026992797852e+00 -1.143410444259643555e+00
2.920000000000000000e+03 7.308870697021484375e+01 1.439930534362792969e+01 3.504590690135955811e-01 4.401512622833251953e+00 1.425591468811035156e+00 -1.041025519371032715e+00
2.921000000000000000e+03 6.093480587005615234e+00 7.192668437957763672e+00 3.319739189464598894e-04 1.109536533476784825e-04 1.328782818745821714e-04 4.560601955745369196e-04
2.922000000000000000e+03 4.863579273223876953e+00 6.327685356140136719e+00 1.494123716838657856e-04 1.072379891411401331e-04 7.699510751990601420e-05 2.089653717121109366e-04
2.923000000000000000e+03 7.259899139404296875e+01 -2.111075401306152344e+01 6.538330316543579102e-01 4.364323616027832031e+00 1.505447030067443848e+00 1.463419795036315918e+00
2.924000000000000000e+03 6.959716033935546875e+01 -2.474260902404785156e+01 7.144472002983093262e-01 3.179325103759765625e+00 1.168131709098815918e+00 1.063150525093078613e+00
2.925000000000000000e+03 2.449584770202636719e+01 6.392913818359375000e+00 -2.615127563476562500e-01 -2.888527512550354004e-01 -1.651096493005752563e-01 4.518016874790191650e-01
2.926000000000000000e+03 2.419282913208007812e+01 8.581536293029785156e+00 -2.953932583332061768e-01 -3.352827727794647217e-01 -1.892028152942657471e-01 4.726558625698089600e-01
2.927000000000000000e+03 1.958139228820800781e+01 -1.690416908264160156e+01 -1.869473606348037720e-01 -8.377465605735778809e-02 -8.121660351753234863e-02 -1.993705630302429199e-01
2.928000000000000000e+03 2.124282455444335938e+01 -1.616642761230468750e+01 -2.074574977159500122e-01 -6.190444529056549072e-02 -8.080858737230300903e-02 -2.169293016195297241e-01
2.929000000000000000e+03 2.436321067810058594e+01 3.526637315750122070e+00 -2.038204669952392578e-01 -2.316051870584487915e-01 -1.306276917457580566e-01 3.717305660247802734e-01
2.930000000000000000e+03 1.904060935974121094e+01 -1.820642280578613281e+01 -1.633728444576263428e-01 -1.050502285361289978e-01 -8.052691817283630371e-02 -1.975454837083816528e-01
2.931000000000000000e+03 2.002255249023437500e+01 -1.998122787475585938e+01 -1.236949339509010315e-01 -1.227196380496025085e-01 -7.392437011003494263e-02 -2.143734544515609741e-01
2.932000000000000000e+03 7.451567077636718750e+01 -1.677982711791992188e+01 6.052195429801940918e-01 5.634922504425048828e+00 1.872042655944824219e+00 1.944919347763061523e+00
2.933000000000000000e+03 7.328399658203125000e+01 -1.762965774536132812e+01 7.074964642524719238e-01 4.638690948486328125e+00 1.603856205940246582e+00 1.818523168563842773e+00
2.934000000000000000e+03 7.432560920715332031e+00 2.455972671508789062e+01 -6.119908764958381653e-02 -2.850904166698455811e-01 -1.038868501782417297e-01 2.534760236740112305e-01
2.935000000000000000e+03 7.154399871826171875e+01 -2.462501907348632812e+01 5.918416976928710938e-01 3.957357406616210938e+00 1.364759802818298340e+00 1.166686296463012695e+00
2.936000000000000000e+03 7.270646667480468750e+01 -2.541079711914062500e+01 4.683336317539215088e-01 4.433628082275390625e+00 1.470588564872741699e+00 1.079487323760986328e+00
2.937000000000000000e+03 7.414923095703125000e+01 2.292004394531250000e+01 1.330487430095672607e-01 4.166033744812011719e+00 1.289724826812744141e+00 -5.008499622344970703e-01
2.938000000000000000e+03 7.196292114257812500e+01 8.409994125366210938e+00 6.659021377563476562e-01 3.957869052886962891e+00 1.387131333351135254e+00 -1.514855504035949707e+00
2.939000000000000000e+03 7.205439758300781250e+01 1.816584014892578125e+01 3.159707486629486084e-01 3.940955877304077148e+00 1.277078032493591309e+00 -8.399699330329895020e-01
2.940000000000000000e+03 7.150653076171875000e+01 1.109338855743408203e+01 5.963306427001953125e-01 3.789529800415039062e+00 1.315758109092712402e+00 -1.307182908058166504e+00
2.941000000000000000e+03 2.514568138122558594e+01 3.069195985794067383e+00 -2.255851775407791138e-01 -1.960368901491165161e-01 -1.264866292476654053e-01 3.775408565998077393e-01
2.942000000000000000e+03 2.434526824951171875e+01 4.721412181854248047e+00 -2.258201092481613159e-01 -2.615742683410644531e-01 -1.462183147668838501e-01 4.090117812156677246e-01
2.943000000000000000e+03 7.321222686767578125e+01 -1.876521110534667969e+01 6.892638802528381348e-01 4.636033058166503906e+00 1.597589015960693359e+00 1.703259229660034180e+00
2.944000000000000000e+03 5.551486968994140625e+00 -2.474694633483886719e+01 -1.621045358479022980e-02 -1.182212904095649719e-01 -4.032952338457107544e-02 -9.727101027965545654e-02
2.945000000000000000e+03 7.457354736328125000e+01 2.747799634933471680e+00 5.872093439102172852e-01 5.684518814086914062e+00 1.881518483161926270e+00 -2.112447738647460938e+00
2.946000000000000000e+03 7.258383178710937500e+01 6.788014411926269531e+00 6.762368679046630859e-01 4.247168064117431641e+00 1.477021455764770508e+00 -1.651758313179016113e+00
2.947000000000000000e+03 7.274329376220703125e+01 5.178661823272705078e+00 7.037692070007324219e-01 4.196629047393798828e+00 1.470119476318359375e+00 -1.776461958885192871e+00
2.948000000000000000e+03 6.760985565185546875e+01 3.875753581523895264e-01 -4.060977101325988770e-01 5.004144906997680664e-01 2.829504385590553284e-02 -2.465393543243408203e-01
2.949000000000000000e+03 7.528804779052734375e+00 3.000290870666503906e+01 5.082449689507484436e-02 -4.044593572616577148e-01 -1.060904562473297119e-01 2.133800536394119263e-01
2.950000000000000000e+03 1.261994743347167969e+01 3.067805290222167969e+01 1.346568018198013306e-01 -5.098273754119873047e-01 -1.125511750578880310e-01 2.288750112056732178e-01
2.951000000000000000e+03 7.340344238281250000e+01 2.033204650878906250e+01 2.067932784557342529e-01 4.153663635253906250e+00 1.308137059211730957e+00 -6.584863066673278809e-01
2.952000000000000000e+03 7.253871154785156250e+01 1.984720420837402344e+01 2.576769292354583740e-01 3.971694707870483398e+00 1.268811464309692383e+00 -7.407280802726745605e-01
2.953000000000000000e+03 7.178260040283203125e+01 1.461393642425537109e+01 4.293636083602905273e-01 3.949885606765747070e+00 1.313774704933166504e+00 -1.082627296447753906e+00
2.954000000000000000e+03 7.171669769287109375e+01 1.344171619415283203e+01 4.802341461181640625e-01 3.942241907119750977e+00 1.326742768287658691e+00 -1.148566961288452148e+00
2.955000000000000000e+03 7.282769775390625000e+01 -2.781918525695800781e+01 3.946202397346496582e-01 4.409595489501953125e+00 1.441264748573303223e+00 9.022465944290161133e-01
2.956000000000000000e+03 6.948382568359375000e+01 -2.966235160827636719e+01 5.760442018508911133e-01 3.348310947418212891e+00 1.177306532859802246e+00 7.791076302528381348e-01
2.957000000000000000e+03 6.834351348876953125e+01 2.569534873962402344e+01 3.427094817161560059e-01 3.026818752288818359e+00 1.010858416557312012e+00 -5.518410205841064453e-01
2.958000000000000000e+03 7.310913848876953125e+01 2.138574790954589844e+01 1.950284540653228760e-01 4.038301944732666016e+00 1.269999027252197266e+00 -6.258193254470825195e-01
2.959000000000000000e+03 2.464045715332031250e+01 5.487817764282226562e+00 -2.478219568729400635e-01 -2.667583227157592773e-01 -1.543740779161453247e-01 4.356217980384826660e-01
2.960000000000000000e+03 2.550487518310546875e+01 6.593304634094238281e+00 -2.799963951110839844e-01 -2.558796107769012451e-01 -1.607628017663955688e-01 4.727610051631927490e-01
2.961000000000000000e+03 2.383644485473632812e+01 1.259301948547363281e+01 -3.262107074260711670e-01 -3.852054476737976074e-01 -2.134248465299606323e-01 4.399226903915405273e-01
2.962000000000000000e+03 2.220346069335937500e+01 1.363290596008300781e+01 -3.507434427738189697e-01 -4.858847558498382568e-01 -2.509884536266326904e-01 4.139095246791839600e-01
2.963000000000000000e+03 9.608863830566406250e+00 2.207519721984863281e+01 -1.688157767057418823e-01 -3.220042586326599121e-01 -1.472460180521011353e-01 3.261945545673370361e-01
2.964000000000000000e+03 1.032213783264160156e+01 2.418928337097167969e+01 -5.793626978993415833e-02 -4.196954965591430664e-01 -1.432895213365554810e-01 3.254109025001525879e-01
2.965000000000000000e+03 7.065023040771484375e+01 -2.582746315002441406e+01 6.135516166687011719e-01 3.627647638320922852e+00 1.272359728813171387e+00 1.059291839599609375e+00
2.966000000000000000e+03 1.861879920959472656e+01 2.151321601867675781e+01 -8.253231644630432129e-02 -6.229288578033447266e-01 -2.116383612155914307e-01 2.654118537902832031e-01
2.967000000000000000e+03 1.739446449279785156e+01 -2.494606590270996094e+01 -7.525710971094667912e-04 -1.965886205434799194e-01 -5.920235440135002136e-02 -1.842837631702423096e-01
2.968000000000000000e+03 8.566477775573730469e+00 -2.503493499755859375e+01 -1.111521758139133453e-02 -1.650267690420150757e-01 -5.284259468317031860e-02 -1.350094974040985107e-01
2.969000000000000000e+03 8.505808830261230469e+00 -3.019254875183105469e+01 3.120235726237297058e-02 -2.028162181377410889e-01 -5.148416012525558472e-02 -1.134657859802246094e-01
2.970000000000000000e+03 7.496219158172607422e+00 2.602826309204101562e+01 -1.804014295339584351e-02 -3.262728750705718994e-01 -1.032939106225967407e-01 2.507467567920684814e-01
2.971000000000000000e+03 8.658819198608398438e+00 2.484322738647460938e+01 -5.828697234392166138e-02 -3.395028710365295410e-01 -1.193369477987289429e-01 2.897662520408630371e-01
2.972000000000000000e+03 1.973194503784179688e+01 2.122459220886230469e+01 -8.212990313768386841e-02 -5.866265296936035156e-01 -2.006269395351409912e-01 2.633347511291503906e-01
2.973000000000000000e+03 7.171051025390625000e+01 1.916551589965820312e+01 3.114593923091888428e-01 3.811530828475952148e+00 1.236897110939025879e+00 -8.040365576744079590e-01
2.974000000000000000e+03 7.135023498535156250e+01 -3.547160339355468750e+01 3.405543565750122070e-01 3.785451889038085938e+00 1.237801909446716309e+00 3.984094560146331787e-01
2.975000000000000000e+03 2.042226409912109375e+01 -1.858209419250488281e+01 -1.584984660148620605e-01 -9.957379847764968872e-02 -7.742168009281158447e-02 -2.159424722194671631e-01
2.976000000000000000e+03 1.135494613647460938e+01 -2.250251388549804688e+01 -4.836845770478248596e-02 -1.829548627138137817e-01 -6.939699500799179077e-02 -1.472964137792587280e-01
2.977000000000000000e+03 1.036725044250488281e+01 -2.351499748229980469e+01 -2.444057166576385498e-02 -1.785763055086135864e-01 -6.090506538748741150e-02 -1.475843638181686401e-01
2.978000000000000000e+03 7.317328453063964844e+00 2.731875228881835938e+01 1.081991475075483322e-02 -3.509438633918762207e-01 -1.020371839404106140e-01 2.366520613431930542e-01
2.979000000000000000e+03 7.068847656250000000e+01 -2.818483161926269531e+01 5.369162559509277344e-01 3.679568290710449219e+00 1.264945387840270996e+00 8.904905915260314941e-01
2.980000000000000000e+03 6.987725734710693359e+00 -3.003912353515625000e+01 2.017692849040031433e-02 -1.929467767477035522e-01 -5.183095484972000122e-02 -1.016226187348365784e-01
2.981000000000000000e+03 7.133459472656250000e+01 2.986713027954101562e+01 1.732700914144515991e-01 3.456010818481445312e+00 1.088784337043762207e+00 -3.469190299510955811e-01
2.982000000000000000e+03 6.946372222900390625e+01 2.797510719299316406e+01 2.579746842384338379e-01 3.201505661010742188e+00 1.037844061851501465e+00 -4.443691074848175049e-01
2.983000000000000000e+03 2.490072822570800781e+01 -1.530929946899414062e+01 -2.565234899520874023e-01 -4.650581628084182739e-02 -9.090878814458847046e-02 -2.575444579124450684e-01
2.984000000000000000e+03 2.083233642578125000e+01 -1.731011962890625000e+01 -1.861389428377151489e-01 -7.980553805828094482e-02 -7.978334277868270874e-02 -2.182546705007553101e-01
2.985000000000000000e+03 8.655502319335937500e+00 2.612170600891113281e+01 -6.099936086684465408e-03 -3.718492984771728516e-01 -1.133847683668136597e-01 2.743988931179046631e-01
2.986000000000000000e+03 9.445239067077636719e+00 -3.322981643676757812e+01 5.106531456112861633e-02 -2.237701565027236938e-01 -5.181145295500755310e-02 -1.012974530458450317e-01
2.987000000000000000e+03 8.234438896179199219e+00 -2.807186126708984375e+01 1.535899192094802856e-02 -1.845625191926956177e-01 -5.076105892658233643e-02 -1.231870055198669434e-01
2.988000000000000000e+03 6.941035461425781250e+01 3.222878646850585938e+01 2.179982364177703857e-01 3.166350603103637695e+00 1.015304684638977051e+00 -3.085526525974273682e-01
2.989000000000000000e+03 7.421350097656250000e+01 -2.974429845809936523e+00 -3.734461069107055664e-01 3.293388843536376953e+00 8.759828209877014160e-01 -2.431662559509277344e+00
2.990000000000000000e+03 7.515780639648437500e+01 -2.678524971008300781e+00 -2.976955473423004150e-01 5.767791748046875000e+00 1.641028881072998047e+00 -3.132618904113769531e+00
2.991000000000000000e+03 7.553577423095703125e+01 -9.728798866271972656e+00 -6.746696829795837402e-01 6.850121974945068359e+00 1.852635741233825684e+00 3.715078830718994141e+00
2.992000000000000000e+03 7.474893951416015625e+01 -3.136790990829467773e+00 -4.332727789878845215e-01 4.366758346557617188e+00 1.180045604705810547e+00 -2.858723878860473633e+00
2.993000000000000000e+03 7.549862670898437500e+01 -3.072267532348632812e+00 -6.742652654647827148e-01 6.712604999542236328e+00 1.811501979827880859e+00 -3.617702245712280273e+00
2.994000000000000000e+03 2.456269836425781250e+01 2.382513284683227539e+00 -1.979137361049652100e-01 -1.929208785295486450e-01 -1.172503829002380371e-01 3.386529684066772461e-01
2.995000000000000000e+03 2.665953636169433594e+01 1.923296228051185608e-02 -2.548518180847167969e-01 -1.006213352084159851e-01 -1.066419407725334167e-01 3.057054877281188965e-01
2.996000000000000000e+03 2.542372512817382812e+01 -9.655357599258422852e-01 -2.012593597173690796e-01 -9.305398166179656982e-02 -8.829400688409805298e-02 2.382954955101013184e-01
2.997000000000000000e+03 2.588192749023437500e+01 -6.252122670412063599e-02 -2.233628630638122559e-01 -1.094171777367591858e-01 -9.983401000499725342e-02 2.833459079265594482e-01
2.998000000000000000e+03 7.307191467285156250e+01 -1.595039606094360352e+00 2.317898906767368317e-02 2.616800308227539062e+00 7.919937372207641602e-01 -1.819458007812500000e+00
2.999000000000000000e+03 7.249085235595703125e+01 -8.679771423339843750e-01 1.452151089906692505e-01 2.371922969818115234e+00 7.551414370536804199e-01 -1.629357576370239258e+00
3.000000000000000000e+03 7.535000610351562500e+01 -2.730796039104461670e-01 1.511289030313491821e-01 6.747979164123535156e+00 2.069732427597045898e+00 -2.575200319290161133e+00
3.001000000000000000e+03 7.358870697021484375e+01 -1.096194148063659668e+00 1.933067739009857178e-01 3.533498048782348633e+00 1.118041396141052246e+00 -2.107811450958251953e+00
3.002000000000000000e+03 3.026153755187988281e+01 -5.948244035243988037e-02 -4.007079005241394043e-01 -4.829149320721626282e-02 -1.346998214721679688e-01 3.606279492378234863e-01
3.003000000000000000e+03 7.312036895751953125e+01 -1.223759174346923828e+01 3.724931478500366211e-01 3.279251575469970703e+00 1.095523357391357422e+00 1.982677102088928223e+00
3.004000000000000000e+03 3.093603897094726562e+01 -8.294776082038879395e-01 -4.314094781875610352e-01 -3.418426960706710815e-02 -1.396781206130981445e-01 3.361591994762420654e-01
3.005000000000000000e+03 2.813007736206054688e+01 2.181329965591430664e+00 -3.150490820407867432e-01 -1.121787503361701965e-01 -1.281683444976806641e-01 4.065519273281097412e-01
3.006000000000000000e+03 3.019699287414550781e+01 -7.904360294342041016e-01 -3.998304903507232666e-01 -4.147290438413619995e-02 -1.323910206556320190e-01 3.298173844814300537e-01
3.007000000000000000e+03 7.180356597900390625e+01 -6.351123452186584473e-01 6.071733310818672180e-02 1.841414570808410645e+00 5.706395506858825684e-01 -1.323465228080749512e+00
3.008000000000000000e+03 3.234374237060546875e+01 -8.300244212150573730e-01 -4.957703649997711182e-01 -2.367910742759704590e-02 -1.558348387479782104e-01 3.517435789108276367e-01
3.009000000000000000e+03 3.187957954406738281e+01 2.831695973873138428e-01 -4.613038897514343262e-01 -3.761994093656539917e-02 -1.496771425008773804e-01 3.938485682010650635e-01
3.010000000000000000e+03 7.265129089355468750e+01 -1.133782005310058594e+01 -5.349709093570709229e-02 2.259442806243896484e+00 6.617836952209472656e-01 1.557199239730834961e+00
3.011000000000000000e+03 7.239735412597656250e+01 -1.219648551940917969e+01 2.308462560176849365e-01 2.396713733673095703e+00 7.882679700851440430e-01 1.612610459327697754e+00
3.012000000000000000e+03 3.296718215942382812e+01 -3.474801033735275269e-02 -5.077069997787475586e-01 -2.762679010629653931e-02 -1.606001257896423340e-01 3.903696238994598389e-01
3.013000000000000000e+03 4.670993041992187500e+01 -1.358433246612548828e+01 -8.944719433784484863e-01 -6.290273368358612061e-02 -2.872124016284942627e-01 -4.704762101173400879e-01
3.014000000000000000e+03 4.174369430541992188e+01 -1.310823535919189453e+01 -7.682822346687316895e-01 -5.577802285552024841e-02 -2.472180724143981934e-01 -3.983624577522277832e-01
3.015000000000000000e+03 4.604917907714843750e+01 -1.349034595489501953e+01 -8.791256546974182129e-01 -6.197019293904304504e-02 -2.823287546634674072e-01 -4.636634886264801025e-01
3.016000000000000000e+03 4.934103012084960938e+01 -1.351226806640625000e+01 -9.657140374183654785e-01 -6.124553829431533813e-02 -3.080878853797912598e-01 -4.937365353107452393e-01
3.017000000000000000e+03 4.286718750000000000e+01 -1.399461078643798828e+01 -7.240740656852722168e-01 -6.464429944753646851e-02 -2.366155087947845459e-01 -4.374948441982269287e-01
3.018000000000000000e+03 4.010462570190429688e+01 -1.304356479644775391e+01 -7.228830456733703613e-01 -5.611529946327209473e-02 -2.336995154619216919e-01 -3.725298047065734863e-01
3.019000000000000000e+03 4.013468933105468750e+01 -1.387217807769775391e+01 -6.559525728225708008e-01 -6.447087228298187256e-02 -2.161270231008529663e-01 -4.028476774692535400e-01
3.020000000000000000e+03 3.533916854858398438e+01 -6.122474670410156250e-01 -6.242064833641052246e-01 -1.320097409188747406e-02 -1.912222504615783691e-01 3.842644393444061279e-01
3.021000000000000000e+03 4.997158050537109375e+01 -1.328657913208007812e+01 -1.012129783630371094e+00 -5.717682093381881714e-02 -3.207919597625732422e-01 -4.933644235134124756e-01
3.022000000000000000e+03 5.212189102172851562e+01 -1.364556789398193359e+01 -9.955502152442932129e-01 -5.815903842449188232e-02 -3.161127865314483643e-01 -5.193087458610534668e-01
3.023000000000000000e+03 4.538708114624023438e+01 -1.275365924835205078e+01 -9.417365193367004395e-01 -4.915788769721984863e-02 -2.972683310508728027e-01 -4.251298308372497559e-01
3.024000000000000000e+03 4.915187072753906250e+01 -1.274788761138916016e+01 -1.072633624076843262e+00 -5.279101803898811340e-02 -3.376273810863494873e-01 -4.693780243396759033e-01
3.025000000000000000e+03 4.901562118530273438e+01 -1.464169502258300781e+01 -7.703455686569213867e-01 -7.228183001279830933e-02 -2.527882158756256104e-01 -5.185881853103637695e-01
3.026000000000000000e+03 4.263989639282226562e+01 -1.310804843902587891e+01 -7.990305423736572266e-01 -5.535368993878364563e-02 -2.563152611255645752e-01 -4.085780382156372070e-01
3.027000000000000000e+03 4.087586975097656250e+01 -1.375175189971923828e+01 -6.920082569122314453e-01 -6.341855973005294800e-02 -2.266280353069305420e-01 -4.057278633117675781e-01
3.028000000000000000e+03 3.933398056030273438e+01 -1.307183647155761719e+01 -6.981652379035949707e-01 -5.540734156966209412e-02 -2.260717749595642090e-01 -3.650542795658111572e-01
3.029000000000000000e+03 4.838666534423828125e+01 -1.289449310302734375e+01 -1.025947809219360352e+00 -5.387895554304122925e-02 -3.239480257034301758e-01 -4.661798179149627686e-01
3.030000000000000000e+03 5.298478317260742188e+01 -1.355826473236083984e+01 -1.023567199707031250e+00 -5.529015138745307922e-02 -3.236572146415710449e-01 -5.220503807067871094e-01
3.031000000000000000e+03 3.615204238891601562e+01 2.044001966714859009e-02 -6.387292146682739258e-01 -1.523132529109716415e-02 -1.961881518363952637e-01 4.189731776714324951e-01
3.032000000000000000e+03 5.134830093383789062e+01 -1.270721530914306641e+01 -1.158870697021484375e+00 -5.019789561629295349e-02 -3.627205789089202881e-01 -4.929500520229339600e-01
3.033000000000000000e+03 5.056682968139648438e+01 -1.329456424713134766e+01 -1.024232625961303711e+00 -5.493586137890815735e-02 -3.237505257129669189e-01 -5.018824934959411621e-01
3.034000000000000000e+03 3.705987930297851562e+01 -1.377617549896240234e+01 -5.732303857803344727e-01 -6.180936843156814575e-02 -1.905119270086288452e-01 -3.601170182228088379e-01
3.035000000000000000e+03 5.850725555419921875e+01 -1.346572494506835938e+01 -1.059977412223815918e+00 -3.784200921654701233e-02 -3.293458223342895508e-01 -4.969218373298645020e-01
3.036000000000000000e+03 5.932846832275390625e+01 -1.352364635467529297e+01 -1.011226415634155273e+00 -1.837907545268535614e-02 -3.088816404342651367e-01 -4.760370254516601562e-01
3.037000000000000000e+03 6.317045974731445312e+01 -1.335420703887939453e+01 -8.504150509834289551e-01 7.922446727752685547e-02 -2.313571721315383911e-01 -3.322387039661407471e-01
3.038000000000000000e+03 6.399637222290039062e+01 -1.336389732360839844e+01 -7.786680459976196289e-01 1.177999302744865417e-01 -1.982604265213012695e-01 -2.661650776863098145e-01
3.039000000000000000e+03 5.655105590820312500e+01 -1.249228954315185547e+01 -1.332375884056091309e+00 -5.206263065338134766e-02 -4.153315424919128418e-01 -5.080035924911499023e-01
3.040000000000000000e+03 5.658021545410156250e+01 -1.317408466339111328e+01 -1.159110069274902344e+00 -4.745793715119361877e-02 -3.619703948497772217e-01 -5.200701355934143066e-01
3.041000000000000000e+03 6.243058776855468750e+01 -1.326259422302246094e+01 -9.368761777877807617e-01 5.092934891581535339e-02 -2.657840549945831299e-01 -3.789610862731933594e-01
3.042000000000000000e+03 3.685697555541992188e+01 -6.479354500770568848e-01 -6.971256732940673828e-01 -1.027528848499059677e-02 -2.122202962636947632e-01 3.936252593994140625e-01
3.043000000000000000e+03 3.627668762207031250e+01 6.063176393508911133e-01 -6.221051812171936035e-01 -1.892414689064025879e-02 -1.923087984323501587e-01 4.408973753452301025e-01
3.044000000000000000e+03 5.667097854614257812e+01 -1.383538913726806641e+01 -9.834206104278564453e-01 -4.495120048522949219e-02 -3.085115253925323486e-01 -5.137786269187927246e-01
3.045000000000000000e+03 3.560494613647460938e+01 -1.305001926422119141e+01 -5.768603086471557617e-01 -5.340219661593437195e-02 -1.890787482261657715e-01 -3.209863007068634033e-01
3.046000000000000000e+03 6.589500427246093750e+01 1.720667779445648193e-01 -7.748153805732727051e-01 2.240915745496749878e-01 -1.652171313762664795e-01 6.476286798715591431e-02
3.047000000000000000e+03 6.267339324951171875e+01 9.805086851119995117e-01 -8.318092226982116699e-01 9.104612469673156738e-02 -2.222289144992828369e-01 2.797114253044128418e-01
3.048000000000000000e+03 5.451388168334960938e+01 -1.331965446472167969e+01 -1.096099257469177246e+00 -4.414941370487213135e-02 -3.420746028423309326e-01 -5.233588814735412598e-01
3.049000000000000000e+03 6.175210571289062500e+01 -3.388475179672241211e-01 -1.369421720504760742e+00 1.223027706146240234e-03 -4.104596078395843506e-01 4.118004143238067627e-01
3.050000000000000000e+03 6.480416107177734375e+01 -1.332475376129150391e+01 -7.182494401931762695e-01 1.597158908843994141e-01 -1.675600707530975342e-01 -1.998631507158279419e-01
3.051000000000000000e+03 5.872344970703125000e+01 6.244110465049743652e-01 -1.173972010612487793e+00 -2.848547324538230896e-02 -3.607372343540191650e-01 4.521556794643402100e-01
3.052000000000000000e+03 5.794660186767578125e+01 1.596364378929138184e+00 -9.167426228523254395e-01 -1.618630066514015198e-02 -2.798786759376525879e-01 4.375573396682739258e-01
3.053000000000000000e+03 5.869935226440429688e+01 -2.133224159479141235e-01 -1.409395575523376465e+00 -3.838631510734558105e-02 -4.343345761299133301e-01 4.716668426990509033e-01
3.054000000000000000e+03 7.624720764160156250e+01 -9.699047088623046875e+00 -1.239648103713989258e+00 9.516469955444335938e+00 2.483046531677246094e+00 3.702931880950927734e+00
3.055000000000000000e+03 5.949543380737304688e+01 5.750581026077270508e-01 -1.144365429878234863e+00 -7.396269589662551880e-03 -3.455285131931304932e-01 4.344102144241333008e-01
3.056000000000000000e+03 6.911087036132812500e+01 -1.277687072753906250e+01 -2.239318341016769409e-01 8.113453984260559082e-01 1.762240678071975708e-01 4.691420197486877441e-01
3.057000000000000000e+03 6.184318923950195312e+01 3.475336730480194092e-01 -1.107764124870300293e+00 2.261463552713394165e-02 -3.255448639392852783e-01 3.768506944179534912e-01
3.058000000000000000e+03 3.481970596313476562e+01 -1.308236694335937500e+01 -5.529364347457885742e-01 -5.196836963295936584e-02 -1.814714521169662476e-01 -3.138976991176605225e-01
3.059000000000000000e+03 3.666100311279296875e+01 -1.438444042205810547e+01 -5.246036648750305176e-01 -6.855132430791854858e-02 -1.779465079307556152e-01 -3.731936514377593994e-01
3.060000000000000000e+03 6.172939682006835938e+01 -1.257508850097656250e+01 -1.230633139610290527e+00 3.294928465038537979e-03 -3.682014346122741699e-01 -4.482179880142211914e-01
3.061000000000000000e+03 6.177511978149414062e+01 -1.327835559844970703e+01 -9.896654486656188965e-01 2.330414205789566040e-02 -2.899084091186523438e-01 -4.106039404869079590e-01
3.062000000000000000e+03 6.559045410156250000e+01 -1.321878147125244141e+01 -6.461859345436096191e-01 2.346894443035125732e-01 -1.234489455819129944e-01 -1.197471991181373596e-01
3.063000000000000000e+03 6.260462188720703125e+01 2.962801456451416016e-01 -1.084529280662536621e+00 4.284853860735893250e-02 -3.125042319297790527e-01 3.478732705116271973e-01
3.064000000000000000e+03 6.017852783203125000e+01 -1.359337425231933594e+01 -9.492426514625549316e-01 -1.046053017489612103e-03 -2.850866019725799561e-01 -4.542042315006256104e-01
3.065000000000000000e+03 6.102872085571289062e+01 -1.351594448089599609e+01 -9.443104267120361328e-01 1.368167251348495483e-02 -2.791886329650878906e-01 -4.323568344116210938e-01
3.066000000000000000e+03 6.335975265502929688e+01 2.536992132663726807e-01 -1.059127092361450195e+00 6.292426586151123047e-02 -2.988608479499816895e-01 3.023397922515869141e-01
3.067000000000000000e+03 5.487429046630859375e+01 4.465334117412567139e-01 -1.238398194313049316e+00 -4.291292279958724976e-02 -3.843933343887329102e-01 4.930143356323242188e-01
3.068000000000000000e+03 5.489158630371093750e+01 -3.014710247516632080e-01 -1.410778760910034180e+00 -4.505782574415206909e-02 -4.367509782314300537e-01 4.823300242424011230e-01
3.069000000000000000e+03 5.716293334960937500e+01 5.859643816947937012e-01 -1.198280692100524902e+00 -3.605462983250617981e-02 -3.703005909919738770e-01 4.781538248062133789e-01
3.070000000000000000e+03 5.340288925170898438e+01 -3.131802678108215332e-01 -1.379006862640380859e+00 -4.115016758441925049e-02 -4.260471165180206299e-01 4.806240499019622803e-01
3.071000000000000000e+03 5.637696838378906250e+01 5.311635136604309082e-01 -1.219155788421630859e+00 -4.104397818446159363e-02 -3.780599236488342285e-01 4.847058951854705811e-01
3.072000000000000000e+03 6.561933898925781250e+01 -4.377996027469635010e-01 -1.092122077941894531e+00 1.272267997264862061e-01 -2.894685566425323486e-01 1.955986917018890381e-01
3.073000000000000000e+03 6.471256256103515625e+01 2.614386677742004395e-01 -8.907366394996643066e-01 1.501066833734512329e-01 -2.221889793872833252e-01 1.798553615808486938e-01
3.074000000000000000e+03 3.759675979614257812e+01 -6.102245450019836426e-01 -7.307599782943725586e-01 -1.026695594191551208e-02 -2.223080843687057495e-01 3.989506363868713379e-01
3.075000000000000000e+03 5.033732986450195312e+01 6.497082710266113281e-01 -1.111586093902587891e+00 -3.350666537880897522e-02 -3.435278236865997314e-01 5.020751357078552246e-01
3.076000000000000000e+03 3.834020996093750000e+01 -5.469572544097900391e-01 -7.619941830635070801e-01 -1.122149173170328140e-02 -2.319646924734115601e-01 4.055287241935729980e-01
3.077000000000000000e+03 3.686450576782226562e+01 -9.578451514244079590e-03 -6.706897616386413574e-01 -1.418619696050882339e-02 -2.054627984762191772e-01 4.219837486743927002e-01
3.078000000000000000e+03 6.635141754150390625e+01 -1.311024379730224609e+01 -5.750358700752258301e-01 3.034319579601287842e-01 -8.148118108510971069e-02 -3.644152730703353882e-02
3.079000000000000000e+03 4.799696350097656250e+01 5.643931031227111816e-01 -1.057955980300903320e+00 -3.157336264848709106e-02 -3.268588185310363770e-01 4.965507090091705322e-01
3.080000000000000000e+03 4.874700164794921875e+01 6.813841462135314941e-01 -1.069655895233154297e+00 -3.622464463114738464e-02 -3.317641615867614746e-01 5.011122226715087891e-01
3.081000000000000000e+03 4.882471466064453125e+01 -2.144286185503005981e-01 -1.204094886779785156e+00 -3.289048746228218079e-02 -3.710956275463104248e-01 4.701311588287353516e-01
3.082000000000000000e+03 4.726690292358398438e+01 4.214790761470794678e-01 -1.051117062568664551e+00 -3.185524418950080872e-02 -3.248916864395141602e-01 4.881613850593566895e-01
3.083000000000000000e+03 4.232254791259765625e+01 5.057322382926940918e-01 -8.602457046508789062e-01 -2.084149792790412903e-02 -2.643261551856994629e-01 4.717165529727935791e-01
3.084000000000000000e+03 3.800325775146484375e+01 -1.460052776336669922e+01 -5.416386127471923828e-01 -7.304765284061431885e-02 -1.844058781862258911e-01 -3.950487673282623291e-01
3.085000000000000000e+03 4.453321456909179688e+01 -4.189356565475463867e-01 -1.044951438903808594e+00 -2.304592169821262360e-02 -3.203992247581481934e-01 4.407220780849456787e-01
3.086000000000000000e+03 4.593269348144531250e+01 1.555057317018508911e-01 -1.041250586509704590e+00 -2.952639199793338776e-02 -3.212330937385559082e-01 4.736524820327758789e-01
3.087000000000000000e+03 5.113794708251953125e+01 5.679116845130920410e-01 -1.147194862365722656e+00 -3.657925501465797424e-02 -3.551322221755981445e-01 5.001901984214782715e-01
3.088000000000000000e+03 4.778565216064453125e+01 1.466729164123535156e+00 -9.250091910362243652e-01 -3.547324985265731812e-02 -2.881447374820709229e-01 5.184029340744018555e-01
3.089000000000000000e+03 3.302613449096679688e+01 -1.383366966247558594e+01 -4.612510800361633301e-01 -5.643863603472709656e-02 -1.553069055080413818e-01 -3.186373114585876465e-01
3.090000000000000000e+03 4.952631759643554688e+01 7.130991816520690918e-01 -1.085668206214904785e+00 -3.632035478949546814e-02 -3.365965783596038818e-01 5.033606886863708496e-01
3.091000000000000000e+03 6.842957305908203125e+01 -1.218169116973876953e+01 -6.482148170471191406e-01 4.704391956329345703e-01 -5.333268269896507263e-02 1.685646325349807739e-01
3.092000000000000000e+03 7.311464691162109375e+01 -1.659121894836425781e+01 7.268536686897277832e-01 4.389733314514160156e+00 1.534976124763488770e+00 1.850935339927673340e+00
3.093000000000000000e+03 4.061917495727539062e+01 5.850197076797485352e-01 -7.862327694892883301e-01 -1.695971935987472534e-02 -2.409577369689941406e-01 4.668442904949188232e-01
3.094000000000000000e+03 4.064725112915039062e+01 -3.120549619197845459e-01 -8.564398884773254395e-01 -1.290406007319688797e-02 -2.608031928539276123e-01 4.282593429088592529e-01
3.095000000000000000e+03 4.663978958129882812e+01 -4.293360114097595215e-01 -1.140381693840026855e+00 -2.768713794648647308e-02 -3.504206538200378418e-01 4.535360336303710938e-01
3.096000000000000000e+03 3.407048797607421875e+01 -1.410881423950195312e+01 -4.782626032829284668e-01 -6.066764146089553833e-02 -1.616790741682052612e-01 -3.349587023258209229e-01
3.097000000000000000e+03 4.395807266235351562e+01 1.110725760459899902e+00 -8.661402463912963867e-01 -2.538700029253959656e-02 -2.674581706523895264e-01 4.989225864410400391e-01
3.098000000000000000e+03 4.466231918334960938e+01 3.495742082595825195e-01 -9.656282067298889160e-01 -2.731344662606716156e-02 -2.978824973106384277e-01 4.743831157684326172e-01
3.099000000000000000e+03 7.066127014160156250e+01 -1.271831703186035156e+01 6.841279566287994385e-02 1.398543000221252441e+00 4.400867521762847900e-01 9.650683999061584473e-01
3.100000000000000000e+03 3.190295028686523438e+01 -1.337886142730712891e+01 -4.494295418262481689e-01 -4.824174195528030396e-02 -1.493013948202133179e-01 -2.932972013950347900e-01
3.101000000000000000e+03 6.708893585205078125e+01 -1.303587532043457031e+01 -4.793210327625274658e-01 4.127649068832397461e-01 -1.996683143079280853e-02 6.917697191238403320e-02
3.102000000000000000e+03 6.779128265380859375e+01 -1.298330593109130859e+01 -3.920479416847229004e-01 5.204611420631408691e-01 3.852395340800285339e-02 1.928625851869583130e-01
3.103000000000000000e+03 3.001006317138671875e+01 -1.566189193725585938e+01 -3.215233683586120605e-01 -6.657003611326217651e-02 -1.164280250668525696e-01 -3.252504765987396240e-01
3.104000000000000000e+03 6.693857574462890625e+01 5.295090377330780029e-02 -6.659798026084899902e-01 3.280361890792846680e-01 -1.013830825686454773e-01 -6.744793057441711426e-02
3.105000000000000000e+03 6.889312744140625000e+01 -6.424241662025451660e-01 -6.086297631263732910e-01 5.701996088027954102e-01 -1.152905914932489395e-02 -3.134755492210388184e-01
3.106000000000000000e+03 2.731212425231933594e+01 -1.429205799102783203e+01 -3.175719976425170898e-01 -4.066705703735351562e-02 -1.074717193841934204e-01 -2.672344446182250977e-01
3.107000000000000000e+03 2.980003929138183594e+01 -1.392915439605712891e+01 -3.783770203590393066e-01 -4.748139902949333191e-02 -1.277575194835662842e-01 -2.831804752349853516e-01
3.108000000000000000e+03 7.598987579345703125e+01 -2.017889976501464844e+00 -5.371087193489074707e-01 8.273493766784667969e+00 2.320915699005126953e+00 -3.009976625442504883e+00
3.109000000000000000e+03 7.333475494384765625e+01 3.019505023956298828e+00 6.923500895500183105e-01 4.421814918518066406e+00 1.534249424934387207e+00 -1.983497262001037598e+00
3.110000000000000000e+03 2.832307243347167969e+01 -1.444729614257812500e+01 -3.321846127510070801e-01 -4.633272811770439148e-02 -1.135552003979682922e-01 -2.805915474891662598e-01
3.111000000000000000e+03 6.792372894287109375e+01 -3.029285073280334473e-01 -6.466901898384094238e-01 4.167281389236450195e-01 -6.898861378431320190e-02 -1.689202338457107544e-01
3.112000000000000000e+03 2.596077728271484375e+01 -1.342548370361328125e+01 -3.074912428855895996e-01 -2.903007529675960541e-02 -1.009564027190208435e-01 -2.381237596273422241e-01
3.113000000000000000e+03 2.304091453552246094e+01 -1.234034442901611328e+01 -2.631506919860839844e-01 -1.454175449907779694e-02 -8.330772817134857178e-02 -1.905074268579483032e-01
3.114000000000000000e+03 2.243492698669433594e+01 -1.463241863250732422e+01 -2.379379421472549438e-01 -3.950089961290359497e-02 -8.323165029287338257e-02 -2.199672609567642212e-01
3.115000000000000000e+03 2.528947448730468750e+01 -1.393169116973876953e+01 -2.871837913990020752e-01 -3.152791410684585571e-02 -9.561350941658020020e-02 -2.384661585092544556e-01
3.116000000000000000e+03 2.648480415344238281e+01 -1.398865509033203125e+01 -3.080624938011169434e-01 -3.646970167756080627e-02 -1.033596545457839966e-01 -2.557977139949798584e-01
3.117000000000000000e+03 7.162805938720703125e+01 3.947294056415557861e-01 3.501222431659698486e-01 2.177602052688598633e+00 7.583172917366027832e-01 -1.451248526573181152e+00
3.118000000000000000e+03 7.115979003906250000e+01 -1.644713282585144043e-01 9.945578873157501221e-02 1.612095594406127930e+00 5.134654045104980469e-01 -1.154841423034667969e+00
3.119000000000000000e+03 7.009262084960937500e+01 1.048753112554550171e-01 -9.770722826942801476e-04 1.194758176803588867e+00 3.581343293190002441e-01 -8.467187285423278809e-01
3.120000000000000000e+03 2.453600311279296875e+01 -1.433063602447509766e+01 -2.695069611072540283e-01 -3.458096832036972046e-02 -9.122637659311294556e-02 -2.379029989242553711e-01
3.121000000000000000e+03 7.453532409667968750e+01 -1.220510005950927734e+01 3.042823970317840576e-01 5.231720924377441406e+00 1.660801053047180176e+00 2.439418315887451172e+00
3.122000000000000000e+03 7.407230377197265625e+00 5.921597480773925781e+00 4.372255934868007898e-04 -6.655895849689841270e-04 -6.850920181022956967e-05 -1.284476820728741586e-05
3.123000000000000000e+03 8.982665061950683594e+00 6.832009315490722656e+00 -2.562538720667362213e-04 1.233537914231419563e-03 2.931852068286389112e-04 4.115755436941981316e-04
3.124000000000000000e+03 7.416951751708984375e+01 1.537465691566467285e+00 5.672412514686584473e-01 5.091070175170898438e+00 1.697493314743041992e+00 -2.204786777496337891e+00
3.125000000000000000e+03 2.233243179321289062e+01 -1.262990665435791016e+01 -2.491082847118377686e-01 -1.928372308611869812e-02 -8.051760494709014893e-02 -1.910103112459182739e-01
3.126000000000000000e+03 2.169180107116699219e+01 -1.521359252929687500e+01 -2.238547354936599731e-01 -4.827412590384483337e-02 -8.163865655660629272e-02 -2.162649929523468018e-01
3.127000000000000000e+03 2.353650856018066406e+01 -1.350872993469238281e+01 -2.646207809448242188e-01 -2.483823522925376892e-02 -8.683770895004272461e-02 -2.141129374504089355e-01
3.128000000000000000e+03 7.138478851318359375e+01 -1.241130828857421875e+01 1.266348510980606079e-01 1.752439737319946289e+00 5.637223720550537109e-01 1.186396121978759766e+00
3.129000000000000000e+03 5.265949630737304688e+01 4.640975892543792725e-01 -1.202744483947753906e+00 -3.991953283548355103e-02 -3.727992177009582520e-01 4.992717802524566650e-01
3.130000000000000000e+03 2.737200736999511719e+01 4.226088151335716248e-02 -2.885001897811889648e-01 -8.689324557781219482e-02 -1.126180291175842285e-01 3.222898542881011963e-01
3.131000000000000000e+03 2.572443580627441406e+01 3.818035125732421875e+00 -2.509984970092773438e-01 -1.959855705499649048e-01 -1.340952217578887939e-01 4.134334027767181396e-01
3.132000000000000000e+03 7.308789062500000000e+01 -1.478117942810058594e+01 6.709691882133483887e-01 4.087766647338867188e+00 1.427620768547058105e+00 1.901912331581115723e+00
3.133000000000000000e+03 7.273550415039062500e+01 3.711190938949584961e+00 7.132071852684020996e-01 3.979005575180053711e+00 1.407663822174072266e+00 -1.855003237724304199e+00
3.134000000000000000e+03 7.380565643310546875e+01 2.286769151687622070e+00 6.320171356201171875e-01 4.759114742279052734e+00 1.617339491844177246e+00 -2.094747781753540039e+00
3.135000000000000000e+03 4.657173919677734375e+01 2.776735126972198486e-01 -1.048903226852416992e+00 -3.000134602189064026e-02 -3.236713707447052002e-01 4.791682660579681396e-01
3.136000000000000000e+03 2.366659545898437500e+01 -1.546025466918945312e+01 -2.356987744569778442e-01 -4.978740215301513672e-02 -8.564585447311401367e-02 -2.441043257713317871e-01
3.137000000000000000e+03 6.022991943359375000e+01 -2.371552437543869019e-01 -1.395088076591491699e+00 -1.880920492112636566e-02 -4.241691827774047852e-01 4.468977153301239014e-01
3.138000000000000000e+03 6.470698833465576172e+00 8.037646293640136719e+00 3.983092901762574911e-04 1.231651258422061801e-04 1.564423291711136699e-04 -2.073941432172432542e-04
3.139000000000000000e+03 7.507941436767578125e+01 -1.269271850585937500e+01 2.792434096336364746e-01 6.207641124725341797e+00 1.946065306663513184e+00 2.471464872360229492e+00
3.140000000000000000e+03 7.503473663330078125e+01 -1.161619758605957031e+01 6.288971006870269775e-02 6.014086723327636719e+00 1.823092937469482422e+00 2.690070152282714844e+00
3.141000000000000000e+03 7.151438903808593750e+01 7.424456119537353516e+00 7.381158471107482910e-01 3.694548130035400391e+00 1.329799175262451172e+00 -1.529877901077270508e+00
3.142000000000000000e+03 7.029153442382812500e+01 7.714814662933349609e+00 7.745317220687866211e-01 2.999914169311523438e+00 1.132333755493164062e+00 -1.395010113716125488e+00
3.143000000000000000e+03 2.368991088867187500e+01 1.347137093544006348e-01 -1.452290415763854980e-01 -1.475207358598709106e-01 -8.782493323087692261e-02 2.357679754495620728e-01
3.144000000000000000e+03 2.406919479370117188e+01 1.745767831802368164e+00 -1.765433549880981445e-01 -1.858583986759185791e-01 -1.087205260992050171e-01 3.044429421424865723e-01
3.145000000000000000e+03 2.594669151306152344e+01 2.608021974563598633e+00 -2.471564263105392456e-01 -1.651427894830703735e-01 -1.236897632479667664e-01 3.795375823974609375e-01
3.146000000000000000e+03 7.220018005371093750e+01 -2.350993347167968750e+01 5.779835581779479980e-01 4.234102249145507812e+00 1.443625688552856445e+00 1.233732461929321289e+00
3.147000000000000000e+03 6.969052124023437500e+01 -2.069143676757812500e+01 8.287054896354675293e-01 2.825845241546630859e+00 1.096365213394165039e+00 1.241592884063720703e+00
3.148000000000000000e+03 7.103919219970703125e+01 1.833959388732910156e+01 3.666504025459289551e-01 3.643561363220214844e+00 1.203063488006591797e+00 -8.727664351463317871e-01
3.149000000000000000e+03 7.187795257568359375e+01 1.578839302062988281e+01 3.902883231639862061e-01 3.934896230697631836e+00 1.297555327415466309e+00 -9.998500347137451172e-01
3.150000000000000000e+03 2.560450744628906250e+01 5.581922054290771484e+00 -2.685904502868652344e-01 -2.355940341949462891e-01 -1.512553393840789795e-01 4.551625549793243408e-01
3.151000000000000000e+03 7.044608306884765625e+01 1.153712940216064453e+01 6.411595940589904785e-01 3.393913745880126953e+00 1.210521936416625977e+00 -1.253921031951904297e+00
3.152000000000000000e+03 7.058451080322265625e+01 8.946994781494140625e+00 7.111474871635437012e-01 3.246249675750732422e+00 1.187219142913818359e+00 -1.374245047569274902e+00
3.153000000000000000e+03 7.028674316406250000e+01 -1.439264965057373047e+01 4.717163741588592529e-01 1.776086568832397461e+00 6.743408441543579102e-01 1.110319375991821289e+00
3.154000000000000000e+03 9.647226333618164062e+00 2.552427101135253906e+01 -1.583463326096534729e-02 -4.034564495086669922e-01 -1.257873326539993286e-01 3.002290427684783936e-01
3.155000000000000000e+03 7.054048156738281250e+01 -1.501144504547119141e+01 5.925186872482299805e-01 2.053932666778564453e+00 7.939354181289672852e-01 1.199566960334777832e+00
3.156000000000000000e+03 7.297801971435546875e+01 -1.990069198608398438e+01 6.590989232063293457e-01 4.521506309509277344e+00 1.554181575775146484e+00 1.590152025222778320e+00
3.157000000000000000e+03 7.053789520263671875e+01 1.247980213165283203e+01 5.998667478561401367e-01 3.439508438110351562e+00 1.211812496185302734e+00 -1.200813055038452148e+00
3.158000000000000000e+03 7.184172058105468750e+01 5.889754772186279297e+00 7.511174678802490234e-01 3.663302421569824219e+00 1.324325919151306152e+00 -1.628648757934570312e+00
3.159000000000000000e+03 6.526653766632080078e+00 -2.522836875915527344e+01 -1.141824014484882355e-02 -1.383550167083740234e-01 -4.493197798728942871e-02 -1.120248213410377502e-01
3.160000000000000000e+03 7.205251312255859375e+01 -1.950409507751464844e+01 7.452666163444519043e-01 3.935462713241577148e+00 1.404218792915344238e+00 1.562263488769531250e+00
3.161000000000000000e+03 7.062393951416015625e+01 1.599660968780517578e+01 4.669950008392333984e-01 3.585775852203369141e+00 1.215831279754638672e+00 -9.783061742782592773e-01
3.162000000000000000e+03 1.407076072692871094e+01 2.477493667602539062e+01 2.227884531021118164e-02 -5.848451852798461914e-01 -1.687698960304260254e-01 3.103437423706054688e-01
3.163000000000000000e+03 9.872794151306152344e+00 2.805593681335449219e+01 5.079533159732818604e-02 -4.403477311134338379e-01 -1.168657168745994568e-01 2.675255239009857178e-01
3.164000000000000000e+03 1.110547828674316406e+01 2.926360321044921875e+01 9.130904823541641235e-02 -4.814440310001373291e-01 -1.170404925942420959e-01 2.550083696842193604e-01
3.165000000000000000e+03 9.900314331054687500e+00 3.063590621948242188e+01 8.989185094833374023e-02 -4.579812884330749512e-01 -1.104268357157707214e-01 2.258276045322418213e-01
3.166000000000000000e+03 6.808318328857421875e+01 -3.130561065673828125e+01 6.124309897422790527e-01 3.007905244827270508e+00 1.086100816726684570e+00 6.493544578552246094e-01
3.167000000000000000e+03 7.093971252441406250e+01 -3.071243667602539062e+01 4.594475626945495605e-01 3.760924816131591797e+00 1.266111731529235840e+00 7.282931804656982422e-01
3.168000000000000000e+03 7.064085388183593750e+01 -2.165522575378417969e+01 7.532016038894653320e-01 3.381962537765502930e+00 1.240549206733703613e+00 1.297655820846557617e+00
3.169000000000000000e+03 7.142396545410156250e+01 -2.270065307617187500e+01 6.875324845314025879e-01 3.813905239105224609e+00 1.350431323051452637e+00 1.304567694664001465e+00
3.170000000000000000e+03 2.647076606750488281e+01 7.747432708740234375e+00 -2.989823818206787109e-01 -2.349358350038528442e-01 -1.601754724979400635e-01 4.941206574440002441e-01
3.171000000000000000e+03 2.538296127319335938e+01 8.804240226745605469e+00 -3.024042844772338867e-01 -2.844269275665283203e-01 -1.760493665933609009e-01 4.868938624858856201e-01
3.172000000000000000e+03 7.012445068359375000e+01 2.112018013000488281e+01 3.541022241115570068e-01 3.398104906082153320e+00 1.125662088394165039e+00 -7.337637543678283691e-01
3.173000000000000000e+03 7.082904815673828125e+01 6.639266014099121094e+00 7.558087110519409180e-01 3.131914377212524414e+00 1.166316866874694824e+00 -1.466368675231933594e+00
3.174000000000000000e+03 7.005958557128906250e+01 2.489833068847656250e+01 2.808050513267517090e-01 3.351450681686401367e+00 1.089676737785339355e+00 -5.647408962249755859e-01
3.175000000000000000e+03 2.185678291320800781e+01 1.640251159667968750e+01 -2.834126353263854980e-01 -5.058275461196899414e-01 -2.367720603942871094e-01 3.502877652645111084e-01
3.176000000000000000e+03 9.795430183410644531e+00 -2.776665496826171875e+01 1.793098822236061096e-02 -1.922602653503417969e-01 -5.229878425598144531e-02 -1.344349533319473267e-01
3.177000000000000000e+03 1.959951782226562500e+01 2.258751678466796875e+01 -1.315105427056550980e-02 -5.857979655265808105e-01 -1.796847134828567505e-01 2.465971708297729492e-01
3.178000000000000000e+03 2.083317947387695312e+01 1.954978752136230469e+01 -1.686325073242187500e-01 -5.576246976852416992e-01 -2.178771644830703735e-01 2.763055264949798584e-01
3.179000000000000000e+03 1.004213142395019531e+01 -2.603989219665527344e+01 3.105339827015995979e-03 -1.857375949621200562e-01 -5.478967726230621338e-02 -1.402289122343063354e-01
3.180000000000000000e+03 2.368881416320800781e+01 -1.656883811950683594e+01 -2.166505455970764160e-01 -6.251300871372222900e-02 -8.374907076358795166e-02 -2.518419325351715088e-01
3.181000000000000000e+03 7.071836090087890625e+01 1.719939422607421875e+01 4.271870255470275879e-01 3.606317520141601562e+00 1.210051417350769043e+00 -9.318039417266845703e-01
3.182000000000000000e+03 6.996931457519531250e+01 1.069563961029052734e+01 6.950507164001464844e-01 3.178215503692626953e+00 1.161979913711547852e+00 -1.267111420631408691e+00
3.183000000000000000e+03 6.829875946044921875e+01 1.080907058715820312e+01 7.342084050178527832e-01 2.535417318344116211e+00 9.808877110481262207e-01 -1.088174581527709961e+00
3.184000000000000000e+03 2.540661239624023438e+01 1.146696186065673828e+01 -3.062389194965362549e-01 -3.062033057212829590e-01 -1.837326735258102417e-01 4.681776762008666992e-01
3.185000000000000000e+03 1.762605667114257812e+01 2.224841880798339844e+01 -5.444721132516860962e-02 -6.358975768089294434e-01 -2.071034312248229980e-01 2.716571986675262451e-01
3.186000000000000000e+03 1.627609825134277344e+01 2.546984481811523438e+01 7.279051840305328369e-02 -5.960936546325683594e-01 -1.569909304380416870e-01 2.683352530002593994e-01
3.187000000000000000e+03 1.949735069274902344e+01 -2.324147033691406250e+01 -4.411768913269042969e-02 -1.679587364196777344e-01 -6.362292915582656860e-02 -2.092918008565902710e-01
3.188000000000000000e+03 1.967873001098632812e+01 -2.152129745483398438e+01 -8.412940055131912231e-02 -1.460463404655456543e-01 -6.905272603034973145e-02 -2.101447433233261108e-01
3.189000000000000000e+03 1.206339836120605469e+01 2.767120933532714844e+01 7.873265445232391357e-02 -5.040969848632812500e-01 -1.276092976331710815e-01 2.800044119358062744e-01
3.190000000000000000e+03 2.153747940063476562e+01 -2.020683097839355469e+01 -1.202929019927978516e-01 -1.183467507362365723e-01 -7.159189879894256592e-02 -2.366803884506225586e-01
3.191000000000000000e+03 2.185091018676757812e+01 -1.884990882873535156e+01 -1.562521308660507202e-01 -9.737416356801986694e-02 -7.608788460493087769e-02 -2.387737780809402466e-01
3.192000000000000000e+03 7.950658321380615234e+00 -2.256313514709472656e+01 -4.778505861759185791e-02 -1.272295564413070679e-01 -5.250438302755355835e-02 -1.322107017040252686e-01
3.193000000000000000e+03 6.976561737060546875e+01 2.630360984802246094e+01 2.712559700012207031e-01 3.268975257873535156e+00 1.062069416046142578e+00 -5.147223472595214844e-01
3.194000000000000000e+03 7.123553466796875000e+01 2.351228332519531250e+01 2.618571817874908447e-01 3.565886974334716797e+00 1.148323297500610352e+00 -6.060543060302734375e-01
3.195000000000000000e+03 6.952849578857421875e+01 -2.707008743286132812e+01 6.436670422554016113e-01 3.293503046035766602e+00 1.181151032447814941e+00 9.312226176261901855e-01
3.196000000000000000e+03 1.022897911071777344e+01 3.546206283569335938e+01 1.383498758077621460e-01 -4.830488562583923340e-01 -1.034096926450729370e-01 1.382110565900802612e-01
3.197000000000000000e+03 7.421839141845703125e+01 -2.416100263595581055e+00 -1.858472377061843872e-01 3.732769012451171875e+00 1.064076542854309082e+00 -2.533558368682861328e+00
3.198000000000000000e+03 7.445963287353515625e+01 7.980422377586364746e-01 4.467571675777435303e-01 5.345814704895019531e+00 1.737771511077880859e+00 -2.312591552734375000e+00
3.199000000000000000e+03 7.393405914306640625e+01 -1.970738172531127930e+00 -2.366765961050987244e-02 3.614510536193847656e+00 1.077252864837646484e+00 -2.319589376449584961e+00
3.200000000000000000e+03 7.533535766601562500e+01 -1.651654481887817383e+00 -1.332204192876815796e-01 6.679893016815185547e+00 1.964001774787902832e+00 -2.934774160385131836e+00
3.201000000000000000e+03 7.399636840820312500e+01 -1.280559062957763672e+00 1.371553093194961548e-01 4.132272243499755859e+00 1.280828237533569336e+00 -2.374777555465698242e+00
3.202000000000000000e+03 3.815949630737304688e+01 9.015184640884399414e-01 -6.772235631942749023e-01 -1.795655302703380585e-02 -2.085540443658828735e-01 4.651812314987182617e-01
3.203000000000000000e+03 3.980860519409179688e+01 4.019561409950256348e-01 -7.651304006576538086e-01 -1.682628132402896881e-02 -2.345870137214660645e-01 4.545530676841735840e-01
3.204000000000000000e+03 6.090515136718750000e+01 1.757361412048339844e+00 -7.430178523063659668e-01 5.310276523232460022e-02 -2.069745212793350220e-01 3.291298151016235352e-01
3.205000000000000000e+03 2.805110931396484375e+01 1.583201289176940918e-01 -3.133293390274047852e-01 -7.915604859590530396e-02 -1.177456155419349670e-01 3.372663259506225586e-01
3.206000000000000000e+03 2.725576210021972656e+01 6.165501475334167480e-01 -2.830295562744140625e-01 -1.008979976177215576e-01 -1.151782646775245667e-01 3.405918180942535400e-01
3.207000000000000000e+03 2.871430778503417969e+01 1.533650457859039307e-01 -3.392602503299713135e-01 -6.873217225074768066e-02 -1.223977282643318176e-01 3.448866903781890869e-01
3.208000000000000000e+03 3.057409286499023438e+01 1.497193217277526855e+00 -3.968680202960968018e-01 -6.577230244874954224e-02 -1.387920975685119629e-01 4.211786091327667236e-01
3.209000000000000000e+03 4.323696517944335938e+01 1.175594091415405273e+00 -8.355731368064880371e-01 -2.609069086611270905e-02 -2.584991455078125000e-01 4.976350665092468262e-01
3.210000000000000000e+03 3.167794990539550781e+01 -2.535272836685180664e-01 -4.566383659839630127e-01 -3.488196432590484619e-02 -1.474560946226119995e-01 3.677611649036407471e-01
3.211000000000000000e+03 3.116413879394531250e+01 5.214357376098632812e-01 -4.289229214191436768e-01 -4.748607799410820007e-02 -1.429226994514465332e-01 3.956595659255981445e-01
3.212000000000000000e+03 7.213203430175781250e+01 -1.759958453476428986e-02 3.270370662212371826e-01 2.443925142288208008e+00 8.312886953353881836e-01 -1.587834000587463379e+00
3.213000000000000000e+03 5.413999938964843750e+01 4.318508207798004150e-01 -1.232183694839477539e+00 -4.272421449422836304e-02 -3.824723958969116211e-01 4.954068362712860107e-01
3.214000000000000000e+03 5.411734390258789062e+01 1.201987028121948242e+00 -1.071617007255554199e+00 -3.751394897699356079e-02 -3.327392935752868652e-01 5.022439956665039062e-01
3.215000000000000000e+03 4.402967834472656250e+01 -1.526513099670410156e+01 -6.136419177055358887e-01 -7.804863899946212769e-02 -2.075071632862091064e-01 -4.841456115245819092e-01
3.216000000000000000e+03 4.450195693969726562e+01 -1.447938060760498047e+01 -7.125908732414245605e-01 -7.075440883636474609e-02 -2.350035905838012695e-01 -4.685125350952148438e-01
3.217000000000000000e+03 4.156491851806640625e+01 -1.388980865478515625e+01 -6.967002749443054199e-01 -6.356685608625411987e-02 -2.280801385641098022e-01 -4.184772074222564697e-01
3.218000000000000000e+03 4.215829086303710938e+01 -1.447334480285644531e+01 -6.597841978073120117e-01 -7.111071050167083740e-02 -2.192684710025787354e-01 -4.414172172546386719e-01
3.219000000000000000e+03 4.794144439697265625e+01 -1.417945861816406250e+01 -8.313794732093811035e-01 -6.813257187604904175e-02 -2.698536217212677002e-01 -4.951876699924468994e-01
3.220000000000000000e+03 4.970203781127929688e+01 -1.423809719085693359e+01 -8.504197001457214355e-01 -6.631771475076675415e-02 -2.750212252140045166e-01 -5.160894393920898438e-01
3.221000000000000000e+03 5.027888870239257812e+01 -1.382160472869873047e+01 -9.338306784629821777e-01 -6.260044127702713013e-02 -2.989293336868286133e-01 -5.109980106353759766e-01
3.222000000000000000e+03 3.436365127563476562e+01 8.520936965942382812e-01 -5.423202514648437500e-01 -2.672527730464935303e-02 -1.707136631011962891e-01 4.378329813480377197e-01
3.223000000000000000e+03 4.656762695312500000e+01 -1.441334915161132812e+01 -7.618505358695983887e-01 -7.299202680587768555e-02 -2.504527568817138672e-01 -4.880530834197998047e-01
3.224000000000000000e+03 4.543659210205078125e+01 -1.503467655181884766e+01 -6.615446805953979492e-01 -7.413515448570251465e-02 -2.207039594650268555e-01 -4.936855435371398926e-01
3.225000000000000000e+03 5.147953033447265625e+01 -1.499045276641845703e+01 -7.466848492622375488e-01 -6.392212212085723877e-02 -2.431820780038833618e-01 -5.297399163246154785e-01
3.226000000000000000e+03 3.498257827758789062e+01 1.380061864852905273e+00 -5.481959581375122070e-01 -2.768915332853794098e-02 -1.727655231952667236e-01 4.586222469806671143e-01
3.227000000000000000e+03 3.567114639282226562e+01 -1.387647056579589844e+01 -5.328366756439208984e-01 -6.045464053750038147e-02 -1.779873967170715332e-01 -3.441538512706756592e-01
3.228000000000000000e+03 5.312705612182617188e+01 -1.439073181152343750e+01 -8.819127082824707031e-01 -6.237316876649856567e-02 -2.832857668399810791e-01 -5.335392951965332031e-01
3.229000000000000000e+03 4.861705398559570312e+01 -1.379054546356201172e+01 -9.002524018287658691e-01 -6.208668276667594910e-02 -2.887017130851745605e-01 -4.946344792842864990e-01
3.230000000000000000e+03 4.729808807373046875e+01 -1.444318771362304688e+01 -7.699602842330932617e-01 -7.127904891967773438e-02 -2.523718178272247314e-01 -4.942908883094787598e-01
3.231000000000000000e+03 5.923050308227539062e+01 -1.435876655578613281e+01 -7.918562889099121094e-01 -8.183363825082778931e-03 -2.400119006633758545e-01 -4.613723754882812500e-01
3.232000000000000000e+03 5.782175445556640625e+01 -1.326746273040771484e+01 -1.114023327827453613e+00 -3.618812933564186096e-02 -3.450634181499481201e-01 -5.062270164489746094e-01
3.233000000000000000e+03 5.838180923461914062e+01 -1.436869621276855469e+01 -8.092307448387145996e-01 -1.948699168860912323e-02 -2.486153095960617065e-01 -4.740038514137268066e-01
3.234000000000000000e+03 3.756535339355468750e+01 6.265190988779067993e-02 -6.980115771293640137e-01 -1.338347233831882477e-02 -2.134185135364532471e-01 4.288006126880645752e-01
3.235000000000000000e+03 3.564145660400390625e+01 8.877785205841064453e-01 -5.867089033126831055e-01 -2.228464558720588684e-02 -1.826980561017990112e-01 4.473851621150970459e-01
3.236000000000000000e+03 5.379861831665039062e+01 -1.348234844207763672e+01 -1.054657220840454102e+00 -5.377273261547088623e-02 -3.325289785861968994e-01 -5.258966088294982910e-01
3.237000000000000000e+03 5.492495346069335938e+01 -1.385401439666748047e+01 -9.776566624641418457e-01 -4.638507962226867676e-02 -3.072125017642974854e-01 -5.248388051986694336e-01
3.238000000000000000e+03 3.712518310546875000e+01 -1.511802291870117188e+01 -4.801898896694183350e-01 -7.853939384222030640e-02 -1.676187813282012939e-01 -3.965522944927215576e-01
3.239000000000000000e+03 6.206446456909179688e+01 -1.384165859222412109e+01 -7.774338722229003906e-01 6.063262745738029480e-02 -2.150403708219528198e-01 -3.562987148761749268e-01
3.240000000000000000e+03 6.399597930908203125e+01 -1.422846698760986328e+01 -4.768611788749694824e-01 1.985069066286087036e-01 -8.350628614425659180e-02 -1.682755798101425171e-01
3.241000000000000000e+03 5.586628341674804688e+01 -1.324739837646484375e+01 -1.131996870040893555e+00 -4.878249019384384155e-02 -3.542338013648986816e-01 -5.227966308593750000e-01
3.242000000000000000e+03 5.673497390747070312e+01 -1.453716087341308594e+01 -8.180651068687438965e-01 -3.494929522275924683e-02 -2.559043169021606445e-01 -5.000093579292297363e-01
3.243000000000000000e+03 5.999557113647460938e+01 -1.444475555419921875e+01 -7.261621356010437012e-01 2.157650142908096313e-02 -2.113756984472274780e-01 -4.264681339263916016e-01
3.244000000000000000e+03 6.487906646728515625e+01 -1.418204116821289062e+01 -3.882370293140411377e-01 2.700168788433074951e-01 -3.546603769063949585e-02 -8.324015885591506958e-02
3.245000000000000000e+03 5.550230407714843750e+01 -1.425703907012939453e+01 -8.892727494239807129e-01 -3.986655920743942261e-02 -2.787417769432067871e-01 -5.247492790222167969e-01
3.246000000000000000e+03 6.189786148071289062e+01 1.524607896804809570e+00 -7.110216021537780762e-01 9.110259264707565308e-02 -1.859757006168365479e-01 2.800378799438476562e-01
3.247000000000000000e+03 3.485438537597656250e+01 -1.397615718841552734e+01 -5.053663849830627441e-01 -6.110283359885215759e-02 -1.699407696723937988e-01 -3.388006687164306641e-01
3.248000000000000000e+03 3.586221313476562500e+01 -1.472827529907226562e+01 -4.779618382453918457e-01 -7.254312187433242798e-02 -1.651514917612075806e-01 -3.727154135704040527e-01
3.249000000000000000e+03 3.828718185424804688e+01 1.727952808141708374e-01 -7.230056524276733398e-01 -1.444333046674728394e-02 -2.212346792221069336e-01 4.360835552215576172e-01
3.250000000000000000e+03 3.617465209960937500e+01 1.474590063095092773e+00 -5.811353921890258789e-01 -2.550226822495460510e-02 -1.819912940263748169e-01 4.724401533603668213e-01
3.251000000000000000e+03 5.669891357421875000e+01 -1.537672424316406250e+01 -6.195933818817138672e-01 -1.611645147204399109e-02 -1.907129436731338501e-01 -4.842756092548370361e-01
3.252000000000000000e+03 5.917753982543945312e+01 2.523072481155395508e+00 -6.395464539527893066e-01 4.087382927536964417e-02 -1.796017736196517944e-01 3.626400828361511230e-01
3.253000000000000000e+03 6.323947906494140625e+01 -1.598292541503906250e+01 -4.266406223177909851e-02 3.357260823249816895e-01 8.791860193014144897e-02 -6.209705770015716553e-02
3.254000000000000000e+03 5.388327407836914062e+01 -1.427698802947998047e+01 -8.985939621925354004e-01 -5.009458586573600769e-02 -2.846065759658813477e-01 -5.334281921386718750e-01
3.255000000000000000e+03 5.709555816650390625e+01 1.439537525177001953e+00 -9.853652119636535645e-01 -2.288175746798515320e-02 -3.024740815162658691e-01 4.595937132835388184e-01
3.256000000000000000e+03 6.569501495361328125e+01 -1.396300506591796875e+01 -3.564639091491699219e-01 3.406120538711547852e-01 -4.755560774356126785e-03 -5.207201931625604630e-03
3.257000000000000000e+03 6.067461013793945312e+01 -1.495012855529785156e+01 -5.620104074478149414e-01 6.586784124374389648e-02 -1.488427668809890747e-01 -3.652270138263702393e-01
3.258000000000000000e+03 6.195510482788085938e+01 9.678482413291931152e-01 -9.092189073562622070e-01 5.121227353811264038e-02 -2.574020028114318848e-01 3.266236186027526855e-01
3.259000000000000000e+03 5.483253479003906250e+01 1.222160339355468750e+00 -1.067198514938354492e+00 -3.787192702293395996e-02 -3.315211534500122070e-01 4.951252639293670654e-01
3.260000000000000000e+03 6.349269485473632812e+01 9.772255420684814453e-01 -7.414872050285339355e-01 1.302792280912399292e-01 -1.833623945713043213e-01 2.180254310369491577e-01
3.261000000000000000e+03 6.597335052490234375e+01 1.232583761215209961e+00 -3.443965315818786621e-01 3.954871296882629395e-01 1.532717980444431305e-02 -1.115847826004028320e-01
3.262000000000000000e+03 6.424753570556640625e+01 7.623970508575439453e-01 -7.287074923515319824e-01 1.664112061262130737e-01 -1.686888933181762695e-01 1.670045256614685059e-01
3.263000000000000000e+03 7.349918365478515625e+01 1.152604103088378906e+00 5.737128257751464844e-01 4.206561088562011719e+00 1.434082150459289551e+00 -2.087262392044067383e+00
3.264000000000000000e+03 5.036998367309570312e+01 1.543916344642639160e+00 -9.607176184654235840e-01 -3.459594771265983582e-02 -2.985940873622894287e-01 5.240814089775085449e-01
3.265000000000000000e+03 3.965815353393554688e+01 1.158635616302490234e+00 -7.188224792480468750e-01 -2.023033797740936279e-02 -2.217158377170562744e-01 4.784704446792602539e-01
3.266000000000000000e+03 6.642706298828125000e+01 -1.380000114440917969e+01 -3.038147985935211182e-01 4.162881374359130859e-01 3.374199941754341125e-02 8.362162113189697266e-02
3.267000000000000000e+03 4.388624191284179688e+01 3.691033422946929932e-01 -9.335605502128601074e-01 -2.364686317741870880e-02 -2.871622145175933838e-01 4.716639816761016846e-01
3.268000000000000000e+03 4.167658233642578125e+01 1.571504950523376465e+00 -7.512382268905639648e-01 -2.334265783429145813e-02 -2.323742657899856567e-01 5.056620240211486816e-01
3.269000000000000000e+03 5.117243957519531250e+01 1.404266715049743652e+00 -1.004810214042663574e+00 -3.478194773197174072e-02 -3.118776679039001465e-01 5.197277665138244629e-01
3.270000000000000000e+03 3.372809219360351562e+01 -1.349056911468505859e+01 -5.007894039154052734e-01 -5.364336073398590088e-02 -1.663298159837722778e-01 -3.165935873985290527e-01
3.271000000000000000e+03 3.406713485717773438e+01 -1.488603019714355469e+01 -4.304838776588439941e-01 -7.154333591461181641e-02 -1.506081670522689819e-01 -3.538238108158111572e-01
3.272000000000000000e+03 4.948450088500976562e+01 1.754005670547485352e+00 -9.155702590942382812e-01 -3.741924464702606201e-02 -2.858968675136566162e-01 5.252765417098999023e-01
3.273000000000000000e+03 4.147609710693359375e+01 6.329793930053710938e-01 -8.147990703582763672e-01 -1.946123130619525909e-02 -2.502780854701995850e-01 4.723227322101593018e-01
3.274000000000000000e+03 7.513887786865234375e+01 -7.589954137802124023e-01 1.402286738157272339e-01 6.303768157958984375e+00 1.933199048042297363e+00 -2.658520221710205078e+00
3.275000000000000000e+03 4.274024200439453125e+01 2.100081920623779297e+00 -7.359941005706787109e-01 -2.898120507597923279e-02 -2.294925898313522339e-01 5.251544117927551270e-01
3.276000000000000000e+03 6.846232604980468750e+01 -1.289835548400878906e+01 -3.055664896965026855e-01 6.423227787017822266e-01 1.010268852114677429e-01 3.240111470222473145e-01
3.277000000000000000e+03 7.222840881347656250e+01 -1.674574089050292969e+01 7.694829106330871582e-01 3.682638883590698242e+00 1.335636496543884277e+00 1.696354389190673828e+00
3.278000000000000000e+03 4.534247589111328125e+01 2.226423770189285278e-01 -1.004357933998107910e+00 -2.703123167157173157e-02 -3.094167411327362061e-01 4.737588167190551758e-01
3.279000000000000000e+03 7.111071014404296875e+01 -1.303628730773925781e+01 2.592972815036773682e-01 1.798456192016601562e+00 6.173260211944580078e-01 1.185650467872619629e+00
3.280000000000000000e+03 7.022629547119140625e+01 -1.260781192779541016e+01 -7.939124852418899536e-02 1.157350420951843262e+00 3.233877718448638916e-01 7.663686871528625488e-01
3.281000000000000000e+03 6.713161468505859375e+01 -1.374667453765869141e+01 -2.072062492370605469e-01 5.442503690719604492e-01 1.011132374405860901e-01 1.971827596426010132e-01
3.282000000000000000e+03 5.340419769287109375e+01 4.388295412063598633e-01 -1.220224618911743164e+00 -4.021209850907325745e-02 -3.781310021877288818e-01 4.963191747665405273e-01
3.283000000000000000e+03 3.214542388916015625e+01 -1.575109767913818359e+01 -3.488300144672393799e-01 -7.532180100679397583e-02 -1.272455453872680664e-01 -3.505741655826568604e-01
3.284000000000000000e+03 3.067084884643554688e+01 -1.427169227600097656e+01 -3.845125138759613037e-01 -5.462433770298957825e-02 -1.317410469055175781e-01 -3.023607730865478516e-01
3.285000000000000000e+03 6.966644287109375000e+01 -1.472506237030029297e+01 4.573577344417572021e-01 1.634176611900329590e+00 6.274603009223937988e-01 9.928120374679565430e-01
3.286000000000000000e+03 3.891240310668945312e+01 1.063870906829833984e+00 -6.993169784545898438e-01 -1.942700520157814026e-02 -2.156231850385665894e-01 4.742172062397003174e-01
3.287000000000000000e+03 7.560173034667968750e+01 -1.057084941864013672e+01 -5.508331060409545898e-01 7.363371372222900391e+00 2.043761491775512695e+00 3.258348226547241211e+00
3.288000000000000000e+03 7.211865234375000000e+01 3.031653404235839844e+00 7.296448349952697754e-01 3.383164644241333008e+00 1.233842849731445312e+00 -1.774843692779541016e+00
3.289000000000000000e+03 2.933120155334472656e+01 -1.466282081604003906e+01 -3.461351394653320312e-01 -5.249591916799545288e-02 -1.195893138647079468e-01 -2.967604398727416992e-01
3.290000000000000000e+03 3.078118133544921875e+01 -1.546252918243408203e+01 -3.436060547828674316e-01 -6.619279086589813232e-02 -1.229396462440490723e-01 -3.277173340320587158e-01
3.291000000000000000e+03 2.908676528930664062e+01 -1.554837322235107422e+01 -3.051257133483886719e-01 -6.357795745134353638e-02 -1.106111034750938416e-01 -3.118814229965209961e-01
3.292000000000000000e+03 6.135165786743164062e+01 1.166250944137573242e+00 -8.784329891204833984e-01 4.304751008749008179e-02 -2.506156563758850098e-01 3.477237820625305176e-01
3.293000000000000000e+03 6.029198074340820312e+01 5.817332267761230469e-01 -1.105756402015686035e+00 3.214336000382900238e-03 -3.307625949382781982e-01 4.130032360553741455e-01
3.294000000000000000e+03 3.019131278991699219e+01 -1.496432685852050781e+01 -3.503217697143554688e-01 -6.013280898332595825e-02 -1.231363713741302490e-01 -3.124255836009979248e-01
3.295000000000000000e+03 4.706245040893554688e+01 1.213129639625549316e+00 -9.423443078994750977e-01 -3.470331057906150818e-02 -2.931142747402191162e-01 5.108491778373718262e-01
3.296000000000000000e+03 2.512907981872558594e+01 -1.654771041870117188e+01 -2.283324152231216431e-01 -6.383477896451950073e-02 -8.765015751123428345e-02 -2.724737524986267090e-01
3.297000000000000000e+03 7.378529357910156250e+01 -1.359365272521972656e+01 5.182424187660217285e-01 4.516731262207031250e+00 1.510492086410522461e+00 2.137712240219116211e+00
3.298000000000000000e+03 7.462846374511718750e+01 -1.318134021759033203e+01 3.983320891857147217e-01 5.473976612091064453e+00 1.761692643165588379e+00 2.337252855300903320e+00
3.299000000000000000e+03 6.911543273925781250e+01 2.866756618022918701e-01 -1.219007894396781921e-01 9.136255383491516113e-01 2.375174313783645630e-01 -6.029133200645446777e-01
3.300000000000000000e+03 7.112142181396484375e+01 5.030526161193847656e+00 7.766023874282836914e-01 3.111471891403198242e+00 1.166422247886657715e+00 -1.561467051506042480e+00
3.301000000000000000e+03 7.066381072998046875e+01 5.061555504798889160e-01 2.018370032310485840e-01 1.568556785583496094e+00 5.311181545257568359e-01 -1.090581655502319336e+00
3.302000000000000000e+03 5.339872741699218750e+01 1.211828827857971191e+00 -1.061667561531066895e+00 -3.919078409671783447e-02 -3.302575051784515381e-01 5.075152516365051270e-01
3.303000000000000000e+03 2.257736396789550781e+01 -1.547925472259521484e+01 -2.284488826990127563e-01 -4.995426908135414124e-02 -8.352094888687133789e-02 -2.305817157030105591e-01
3.304000000000000000e+03 7.389300537109375000e+01 -1.185221481323242188e+01 2.448741495609283447e-01 4.152565956115722656e+00 1.319231986999511719e+00 2.283442258834838867e+00
3.305000000000000000e+03 2.589865684509277344e+01 -1.474996852874755859e+01 -2.811084091663360596e-01 -4.320107400417327881e-02 -9.729284048080444336e-02 -2.616095244884490967e-01
3.306000000000000000e+03 2.689248847961425781e+01 -1.530735492706298828e+01 -2.831442356109619141e-01 -5.140225216746330261e-02 -1.003639474511146545e-01 -2.800768613815307617e-01
3.307000000000000000e+03 4.032775878906250000e+01 1.415454387664794922e+00 -7.184727787971496582e-01 -2.088883332908153534e-02 -2.218084782361984253e-01 4.953580498695373535e-01
3.308000000000000000e+03 2.792424392700195312e+01 8.665735125541687012e-01 -3.073855936527252197e-01 -9.372680634260177612e-02 -1.203337237238883972e-01 3.598609864711761475e-01
3.309000000000000000e+03 7.345590209960937500e+01 -1.539032077789306641e+01 7.002554535865783691e-01 4.437688350677490234e+00 1.541383147239685059e+00 1.944026350975036621e+00
3.310000000000000000e+03 7.314479827880859375e+01 1.828152418136596680e+00 6.340812444686889648e-01 4.017195224761962891e+00 1.395382881164550781e+00 -1.990608334541320801e+00
3.311000000000000000e+03 6.960897064208984375e+01 6.786119341850280762e-01 8.330268412828445435e-02 1.160721778869628906e+00 3.732073605060577393e-01 -7.976312041282653809e-01
3.312000000000000000e+03 7.247124481201171875e+01 5.087884068489074707e-01 4.471817016601562500e-01 2.899320602416992188e+00 1.003950715065002441e+00 -1.748397588729858398e+00
3.313000000000000000e+03 2.959143447875976562e+01 8.027288913726806641e-01 -3.718095421791076660e-01 -6.779685616493225098e-02 -1.318819224834442139e-01 3.861720860004425049e-01
3.314000000000000000e+03 2.501812744140625000e+01 7.548702359199523926e-01 -2.009174823760986328e-01 -1.421951800584793091e-01 -1.029338017106056213e-01 2.948766648769378662e-01
3.315000000000000000e+03 2.648013496398925781e+01 6.732686996459960938e+00 -2.931410968303680420e-01 -2.225606590509414673e-01 -1.547105163335800171e-01 4.843966960906982422e-01
3.316000000000000000e+03 2.582643508911132812e+01 4.644670963287353516e+00 -2.631715536117553711e-01 -2.118577659130096436e-01 -1.425087898969650269e-01 4.383530020713806152e-01
3.317000000000000000e+03 6.643047332763671875e+01 1.924562573432922363e+00 -7.388760894536972046e-02 5.912520289421081543e-01 1.552093327045440674e-01 -2.870239317417144775e-01
3.318000000000000000e+03 7.199746704101562500e+01 4.367150783538818359e+00 7.588389515876770020e-01 3.544474124908447266e+00 1.290993928909301758e+00 -1.718305706977844238e+00
3.319000000000000000e+03 2.663619422912597656e+01 5.693423748016357422e-01 -2.606816887855529785e-01 -1.079685762524604797e-01 -1.105950772762298584e-01 3.241239488124847412e-01
3.320000000000000000e+03 3.223167419433593750e+01 -1.425527763366699219e+01 -4.185209274291992188e-01 -5.882978811860084534e-02 -1.432052105665206909e-01 -3.180820941925048828e-01
3.321000000000000000e+03 2.215534782409667969e+01 -1.759343910217285156e+01 -1.865791827440261841e-01 -7.789374887943267822e-02 -7.934188097715377808e-02 -2.370184659957885742e-01
3.322000000000000000e+03 6.964810180664062500e+01 1.228703117370605469e+01 6.542443037033081055e-01 3.135257005691528320e+00 1.136850357055664062e+00 -1.186610698699951172e+00
3.323000000000000000e+03 6.897951507568359375e+01 1.160875606536865234e+01 6.929572820663452148e-01 2.867201089859008789e+00 1.068047523498535156e+00 -1.154246687889099121e+00
3.324000000000000000e+03 2.682427215576171875e+01 4.905515193939208984e+00 -2.860516309738159180e-01 -1.879312545061111450e-01 -1.421948671340942383e-01 4.602595269680023193e-01
3.325000000000000000e+03 6.784232330322265625e+01 -2.240734672546386719e+01 8.241052627563476562e-01 2.313690662384033203e+00 9.413387775421142578e-01 9.636744260787963867e-01
3.326000000000000000e+03 7.055142211914062500e+01 -2.367958259582519531e+01 7.000170946121215820e-01 3.461250066757202148e+00 1.248380184173583984e+00 1.192308545112609863e+00
3.327000000000000000e+03 2.385438537597656250e+01 1.904499626159667969e+01 -1.369902044534683228e-01 -4.296267628669738770e-01 -1.699850857257843018e-01 3.028729856014251709e-01
3.328000000000000000e+03 6.854949188232421875e+01 -1.368865585327148438e+01 2.742698416113853455e-02 8.741543889045715332e-01 2.704744040966033936e-01 5.029132962226867676e-01
3.329000000000000000e+03 2.654666900634765625e+01 8.868493080139160156e+00 -3.035407960414886475e-01 -2.408988773822784424e-01 -1.633318960666656494e-01 4.957605004310607910e-01
3.330000000000000000e+03 7.005776977539062500e+01 1.893120002746582031e+01 4.043631553649902344e-01 3.395303249359130859e+00 1.139899969100952148e+00 -8.395828008651733398e-01
3.331000000000000000e+03 7.028855895996093750e+01 1.373056507110595703e+01 5.620837211608886719e-01 3.392934560775756836e+00 1.186505436897277832e+00 -1.118059158325195312e+00
3.332000000000000000e+03 6.796257781982421875e+01 2.082236099243164062e+01 4.618644714355468750e-01 2.929761886596679688e+00 1.017487883567810059e+00 -7.544924020767211914e-01
3.333000000000000000e+03 6.930448913574218750e+01 9.756947517395019531e+00 7.341039776802062988e-01 2.821810483932495117e+00 1.066774368286132812e+00 -1.231023907661437988e+00
3.334000000000000000e+03 7.145294189453125000e+01 -2.052449226379394531e+01 7.567929625511169434e-01 3.695508241653442383e+00 1.335690379142761230e+00 1.433173418045043945e+00
3.335000000000000000e+03 7.071708679199218750e+01 -1.784868621826171875e+01 8.105286955833435059e-01 2.919561147689819336e+00 1.119027018547058105e+00 1.422789812088012695e+00
3.336000000000000000e+03 7.236064147949218750e+01 -1.863291549682617188e+01 7.633315920829772949e-01 4.067374706268310547e+00 1.449211955070495605e+00 1.666373491287231445e+00
3.337000000000000000e+03 7.168379974365234375e+01 1.223899078369140625e+01 5.302609205245971680e-01 3.890901565551757812e+00 1.326348781585693359e+00 -1.223074436187744141e+00
3.338000000000000000e+03 6.711833190917968750e+01 -2.691242218017578125e+01 7.584549784660339355e-01 2.533610105514526367e+00 9.876195192337036133e-01 7.881157994270324707e-01
3.339000000000000000e+03 1.877103233337402344e+01 2.374390792846679688e+01 1.942011713981628418e-02 -5.942538976669311523e-01 -1.724501252174377441e-01 2.465076148509979248e-01
3.340000000000000000e+03 7.488018512725830078e+00 -2.636704063415527344e+01 1.024984987452626228e-03 -1.618144810199737549e-01 -4.823684692382812500e-02 -1.218380182981491089e-01
3.341000000000000000e+03 1.376932239532470703e+01 -2.481847190856933594e+01 -7.189948111772537231e-03 -2.018642127513885498e-01 -6.271624565124511719e-02 -1.571370214223861694e-01
3.342000000000000000e+03 1.688668823242187500e+01 -2.714184951782226562e+01 4.085925966501235962e-02 -2.154771685600280762e-01 -5.238537117838859558e-02 -1.720657199621200562e-01
3.343000000000000000e+03 7.041643524169921875e+01 -1.973075675964355469e+01 8.154892325401306152e-01 3.035436630249023438e+00 1.155277729034423828e+00 1.350324153900146484e+00
3.344000000000000000e+03 1.295273113250732422e+01 2.605069923400878906e+01 5.361251160502433777e-02 -5.410867333412170410e-01 -1.462422609329223633e-01 3.038658201694488525e-01
3.345000000000000000e+03 1.503208160400390625e+01 2.611470794677734375e+01 8.688545972108840942e-02 -5.802030563354492188e-01 -1.479952782392501831e-01 2.755676507949829102e-01
3.346000000000000000e+03 1.332744503021240234e+01 2.330716705322265625e+01 -4.802520200610160828e-02 -5.826034545898437500e-01 -1.891885995864868164e-01 3.379465937614440918e-01
3.347000000000000000e+03 6.994429016113281250e+01 2.356554985046386719e+01 3.137179017066955566e-01 3.337867975234985352e+00 1.095475792884826660e+00 -6.275559067726135254e-01
3.348000000000000000e+03 7.196601867675781250e+01 2.086339759826660156e+01 2.723798751831054688e-01 3.791575908660888672e+00 1.219186782836914062e+00 -7.098599672317504883e-01
3.349000000000000000e+03 6.664138793945312500e+01 -2.971484565734863281e+01 7.100951075553894043e-01 2.592776536941528320e+00 9.908615350723266602e-01 6.531344652175903320e-01
3.350000000000000000e+03 6.821021270751953125e+01 -2.836772537231445312e+01 6.741464138031005859e-01 2.934521436691284180e+00 1.082600355148315430e+00 7.975572347640991211e-01
3.351000000000000000e+03 2.539368057250976562e+01 1.008404254913330078e+01 -3.085727691650390625e-01 -2.934468984603881836e-01 -1.806059032678604126e-01 4.824102520942687988e-01
3.352000000000000000e+03 6.872723388671875000e+01 -3.470882034301757812e+01 5.161918401718139648e-01 3.202708005905151367e+00 1.115669965744018555e+00 4.790829122066497803e-01
3.353000000000000000e+03 2.690734481811523438e+01 1.317121601104736328e+01 -2.568220794200897217e-01 -2.611649930477142334e-01 -1.553961187601089478e-01 4.536502957344055176e-01
3.354000000000000000e+03 1.073502445220947266e+01 2.656539535522460938e+01 3.328552842140197754e-02 -4.612771868705749512e-01 -1.283974945545196533e-01 2.938425540924072266e-01
3.355000000000000000e+03 1.761261940002441406e+01 -2.297849655151367188e+01 -4.666077718138694763e-02 -1.736169755458831787e-01 -6.608332693576812744e-02 -1.891949921846389771e-01
3.356000000000000000e+03 6.752851104736328125e+01 -2.451202774047851562e+01 7.962334752082824707e-01 2.446207761764526367e+00 9.727324247360229492e-01 8.931190371513366699e-01
3.357000000000000000e+03 6.767277526855468750e+01 2.738958168029785156e+01 3.395310640335083008e-01 2.907764911651611328e+00 9.741887450218200684e-01 -4.863673746585845947e-01
3.358000000000000000e+03 7.125013732910156250e+01 2.506184196472167969e+01 2.338702380657196045e-01 3.525902032852172852e+00 1.127931714057922363e+00 -5.238853693008422852e-01
3.359000000000000000e+03 1.038521003723144531e+01 -2.987225341796875000e+01 3.870644047856330872e-02 -2.113867104053497314e-01 -5.180408060550689697e-02 -1.263711154460906982e-01
3.360000000000000000e+03 1.120697593688964844e+01 -2.721628570556640625e+01 1.805686019361019135e-02 -2.028325200080871582e-01 -5.543269962072372437e-02 -1.437480896711349487e-01
3.361000000000000000e+03 7.402502441406250000e+01 -3.773868942260742188e+01 1.620894968509674072e-01 4.349416732788085938e+00 1.353451967239379883e+00 2.034536302089691162e-01
3.362000000000000000e+03 7.118563079833984375e+01 -3.797063064575195312e+01 3.237451910972595215e-01 3.794337272644042969e+00 1.235424757003784180e+00 2.419548332691192627e-01
3.363000000000000000e+03 6.788097381591796875e+01 1.528383636474609375e+01 6.182538270950317383e-01 2.734828710556030273e+00 1.005924701690673828e+00 -9.545038938522338867e-01
3.364000000000000000e+03 7.481816101074218750e+01 -2.147964239120483398e+00 -2.082459777593612671e-01 5.216777324676513672e+00 1.502559423446655273e+00 -2.837764263153076172e+00
3.365000000000000000e+03 7.321572113037109375e+01 -4.585603475570678711e-01 3.036830723285675049e-01 3.339447021484375000e+00 1.092939019203186035e+00 -1.969334721565246582e+00
3.366000000000000000e+03 7.425427246093750000e+01 -8.363807797431945801e-01 2.178034335374832153e-01 4.698491096496582031e+00 1.474888324737548828e+00 -2.393208503723144531e+00
3.367000000000000000e+03 7.473967742919921875e+01 1.901610046625137329e-01 3.406722843647003174e-01 5.602552890777587891e+00 1.782967567443847656e+00 -2.425138711929321289e+00
3.368000000000000000e+03 2.874371147155761719e+01 9.289914369583129883e-01 -3.375772833824157715e-01 -8.301927149295806885e-02 -1.261789649724960327e-01 3.774601817131042480e-01
3.369000000000000000e+03 3.039376258850097656e+01 6.921199560165405273e-01 -3.981658220291137695e-01 -5.731354281306266785e-02 -1.366438120603561401e-01 3.899618387222290039e-01
3.370000000000000000e+03 3.662396240234375000e+01 1.030326366424560547e+00 -6.146826148033142090e-01 -2.165779098868370056e-02 -1.909021139144897461e-01 4.591293036937713623e-01
3.371000000000000000e+03 3.218285369873046875e+01 8.780948519706726074e-01 -4.616222679615020752e-01 -4.142102599143981934e-02 -1.509129852056503296e-01 4.184685051441192627e-01
3.372000000000000000e+03 2.971908569335937500e+01 1.588041901588439941e+00 -3.696694970130920410e-01 -7.691240310668945312e-02 -1.339745670557022095e-01 4.135138392448425293e-01
3.373000000000000000e+03 7.478518676757812500e+01 -1.203435063362121582e+00 1.073649600148200989e-01 5.395026206970214844e+00 1.650717377662658691e+00 -2.647646665573120117e+00
3.374000000000000000e+03 3.370309448242187500e+01 6.777520179748535156e-01 -5.230480432510375977e-01 -2.886820025742053986e-02 -1.655748635530471802e-01 4.215470850467681885e-01
3.375000000000000000e+03 2.736391448974609375e+01 2.796334743499755859e+00 -2.917836308479309082e-01 -1.380826532840728760e-01 -1.289598792791366577e-01 4.139211475849151611e-01
3.376000000000000000e+03 5.555390548706054688e+01 1.272433161735534668e+00 -1.053258776664733887e+00 -3.683772683143615723e-02 -3.270289301872253418e-01 4.882338941097259521e-01
3.377000000000000000e+03 5.266805267333984375e+01 1.251055359840393066e+00 -1.047770738601684570e+00 -3.812160715460777283e-02 -3.257676959037780762e-01 5.080463886260986328e-01
3.378000000000000000e+03 5.954025268554687500e+01 1.358958959579467773e+00 -9.264618158340454102e-01 8.477221243083477020e-03 -2.753953635692596436e-01 4.101600050926208496e-01
3.379000000000000000e+03 4.485747909545898438e+01 -1.594311332702636719e+01 -5.431373119354248047e-01 -8.503347635269165039e-02 -1.884512305259704590e-01 -5.011325478553771973e-01
3.380000000000000000e+03 4.582025909423828125e+01 -1.417620277404785156e+01 -7.820754647254943848e-01 -7.076817750930786133e-02 -2.558530867099761963e-01 -4.757887721061706543e-01
3.381000000000000000e+03 4.105081558227539062e+01 -1.438613033294677734e+01 -6.312996745109558105e-01 -7.020772248506546021e-02 -2.104522138833999634e-01 -4.296490252017974854e-01
3.382000000000000000e+03 4.272104263305664062e+01 -1.524141502380371094e+01 -5.913056135177612305e-01 -7.865751534700393677e-02 -2.009889334440231323e-01 -4.684368073940277100e-01
3.383000000000000000e+03 4.741817855834960938e+01 -1.533798313140869141e+01 -6.560268998146057129e-01 -7.903762906789779663e-02 -2.205193489789962769e-01 -5.111206173896789551e-01
3.384000000000000000e+03 4.337793350219726562e+01 -1.597475433349609375e+01 -5.183367133140563965e-01 -8.708571642637252808e-02 -1.816267371177673340e-01 -4.897209405899047852e-01
3.385000000000000000e+03 4.200009918212890625e+01 -1.584873104095458984e+01 -5.134288072586059570e-01 -8.907616883516311646e-02 -1.807514876127243042e-01 -4.705063700675964355e-01
3.386000000000000000e+03 4.032468795776367188e+01 -1.469424152374267578e+01 -5.918728709220886230e-01 -7.471576333045959473e-02 -1.999765932559967041e-01 -4.268671274185180664e-01
3.387000000000000000e+03 4.826631164550781250e+01 -1.503492832183837891e+01 -7.063778638839721680e-01 -7.709537446498870850e-02 -2.350419610738754272e-01 -5.149783492088317871e-01
3.388000000000000000e+03 4.147749710083007812e+01 -1.505935192108154297e+01 -5.813828110694885254e-01 -7.764932513236999512e-02 -1.977096349000930786e-01 -4.471639394760131836e-01
3.389000000000000000e+03 4.947524261474609375e+01 -1.547694110870361328e+01 -6.542713642120361328e-01 -7.666675746440887451e-02 -2.192814499139785767e-01 -5.282973051071166992e-01
3.390000000000000000e+03 5.077465057373046875e+01 -1.567940425872802734e+01 -6.274294257164001465e-01 -5.992018058896064758e-02 -2.062048763036727905e-01 -5.311175584793090820e-01
3.391000000000000000e+03 5.228431320190429688e+01 -1.454760169982910156e+01 -8.309715986251831055e-01 -5.942749604582786560e-02 -2.671197354793548584e-01 -5.324029326438903809e-01
3.392000000000000000e+03 3.761394882202148438e+01 -1.603084373474121094e+01 -4.220385849475860596e-01 -9.004494547843933105e-02 -1.536250561475753784e-01 -4.194312691688537598e-01
3.393000000000000000e+03 5.823271942138671875e+01 -1.521261024475097656e+01 -6.077436804771423340e-01 -5.829383153468370438e-03 -1.840719133615493774e-01 -4.527163803577423096e-01
3.394000000000000000e+03 5.258029174804687500e+01 -1.533796882629394531e+01 -6.788931488990783691e-01 -6.019048765301704407e-02 -2.217250913381576538e-01 -5.356069803237915039e-01
3.395000000000000000e+03 5.605878448486328125e+01 -1.452026367187500000e+01 -8.200520277023315430e-01 -3.359581902623176575e-02 -2.560943663120269775e-01 -5.158933401107788086e-01
3.396000000000000000e+03 5.751231002807617188e+01 -1.441428756713867188e+01 -8.361359238624572754e-01 -2.649137005209922791e-02 -2.587881684303283691e-01 -4.867269992828369141e-01
3.397000000000000000e+03 3.494618606567382812e+01 -1.494525623321533203e+01 -4.430156648159027100e-01 -7.362771779298782349e-02 -1.549930125474929810e-01 -3.646500110626220703e-01
3.398000000000000000e+03 3.619157409667968750e+01 -1.562672042846679688e+01 -4.254277348518371582e-01 -8.493612706661224365e-02 -1.531091630458831787e-01 -3.936254382133483887e-01
3.399000000000000000e+03 3.683748626708984375e+01 5.613253116607666016e-01 -6.460247635841369629e-01 -1.739629544317722321e-02 -1.990263164043426514e-01 4.431965947151184082e-01
3.400000000000000000e+03 3.637499237060546875e+01 2.511580705642700195e+00 -5.437819957733154297e-01 -3.203373029828071594e-02 -1.727447062730789185e-01 5.039718151092529297e-01
3.401000000000000000e+03 7.317698669433593750e+01 -1.315805721282958984e+01 4.692612886428833008e-01 3.665057182312011719e+00 1.240295529365539551e+00 1.988342046737670898e+00
3.402000000000000000e+03 6.249537658691406250e+01 -1.436938095092773438e+01 -5.903685688972473145e-01 1.164088249206542969e-01 -1.421879082918167114e-01 -2.919339835643768311e-01
3.403000000000000000e+03 5.749980545043945312e+01 -1.525548648834228516e+01 -6.172047853469848633e-01 -1.325015723705291748e-02 -1.891364753246307373e-01 -4.724424481391906738e-01
3.404000000000000000e+03 5.516044998168945312e+01 -1.324426078796386719e+01 -1.123262405395507812e+00 -4.662022367119789124e-02 -3.509647846221923828e-01 -5.240693092346191406e-01
3.405000000000000000e+03 5.610512924194335938e+01 2.979680299758911133e+00 -6.712206602096557617e-01 -4.724076017737388611e-03 -2.027834206819534302e-01 4.499761462211608887e-01
3.406000000000000000e+03 6.478274536132812500e+01 1.263677597045898438e+00 -5.004168152809143066e-01 2.561721801757812500e-01 -7.327339798212051392e-02 5.178773775696754456e-02
3.407000000000000000e+03 6.247438812255859375e+01 2.381692171096801758e+00 -4.105090796947479248e-01 1.902975589036941528e-01 -6.606345623731613159e-02 1.567134559154510498e-01
3.408000000000000000e+03 5.619071960449218750e+01 2.153834581375122070e+00 -8.483833074569702148e-01 -2.132974192500114441e-02 -2.609139084815979004e-01 4.660948812961578369e-01
3.409000000000000000e+03 5.677305984497070312e+01 2.973716259002685547e+00 -6.466300487518310547e-01 -1.023610704578459263e-03 -1.942961066961288452e-01 4.418018162250518799e-01
3.410000000000000000e+03 5.600136566162109375e+01 -1.391348171234130859e+01 -9.721495509147644043e-01 -4.543085768818855286e-02 -3.052741289138793945e-01 -5.148208737373352051e-01
3.411000000000000000e+03 3.793886184692382812e+01 1.620305538177490234e+00 -6.282380223274230957e-01 -2.401427924633026123e-02 -1.956757009029388428e-01 4.880024790763854980e-01
3.412000000000000000e+03 3.514737319946289062e+01 -1.599443149566650391e+01 -3.867946863174438477e-01 -8.682485669851303101e-02 -1.420858651399612427e-01 -3.866612315177917480e-01
3.413000000000000000e+03 6.334746170043945312e+01 2.564888477325439453e+00 -2.637953460216522217e-01 2.825090587139129639e-01 5.614121444523334503e-03 4.990324378013610840e-02
3.414000000000000000e+03 6.350399780273437500e+01 1.765191912651062012e+00 -4.874454140663146973e-01 2.082144767045974731e-01 -8.376927673816680908e-02 1.195988729596138000e-01
3.415000000000000000e+03 5.694457244873046875e+01 2.254497051239013672e+00 -8.136717677116394043e-01 -6.769039668142795563e-03 -2.461322396993637085e-01 4.491703808307647705e-01
3.416000000000000000e+03 5.630254364013671875e+01 1.340518236160278320e+00 -1.029866456985473633e+00 -3.316517174243927002e-02 -3.189094662666320801e-01 4.776257872581481934e-01
3.417000000000000000e+03 6.534396362304687500e+01 6.710985898971557617e-01 -6.743038892745971680e-01 2.215244621038436890e-01 -1.358338147401809692e-01 7.645093649625778198e-02
3.418000000000000000e+03 6.437837982177734375e+01 1.954201459884643555e+00 -3.369942307472229004e-01 3.068052828311920166e-01 -9.056683629751205444e-03 1.107485406100749969e-02
3.419000000000000000e+03 6.135183715820312500e+01 -1.431076526641845703e+01 -6.785895824432373047e-01 6.445440649986267090e-02 -1.842405498027801514e-01 -3.705263435840606689e-01
3.420000000000000000e+03 6.374880599975585938e+01 -1.511396312713623047e+01 -2.307842075824737549e-01 2.658824026584625244e-01 1.052945666015148163e-02 -9.923294931650161743e-02
3.421000000000000000e+03 6.190717697143554688e+01 -1.496329975128173828e+01 -4.549402296543121338e-01 1.304061114788055420e-01 -9.736023098230361938e-02 -2.808031737804412842e-01
3.422000000000000000e+03 6.449663543701171875e+01 -1.560258865356445312e+01 -3.135938569903373718e-02 3.948669731616973877e-01 1.090522706508636475e-01 3.197991475462913513e-02
3.423000000000000000e+03 3.745413589477539062e+01 7.168514132499694824e-01 -6.603014469146728516e-01 -1.840044558048248291e-02 -2.036105692386627197e-01 4.530968070030212402e-01
3.424000000000000000e+03 6.518985748291015625e+01 -1.502117061614990234e+01 -1.057710349559783936e-01 4.111438095569610596e-01 9.161183238029479980e-02 5.400886386632919312e-02
3.425000000000000000e+03 5.192707824707031250e+01 1.320720791816711426e+00 -1.034109830856323242e+00 -3.699764981865882874e-02 -3.213322162628173828e-01 5.130907297134399414e-01
3.426000000000000000e+03 5.027051925659179688e+01 3.646631240844726562e+00 -6.411658525466918945e-01 -2.267091348767280579e-02 -1.991510242223739624e-01 5.315077304840087891e-01
3.427000000000000000e+03 3.006994819641113281e+01 -1.654977989196777344e+01 -2.844026088714599609e-01 -7.689586281776428223e-02 -1.083895415067672729e-01 -3.347919583320617676e-01
3.428000000000000000e+03 2.805530929565429688e+01 -1.545205497741699219e+01 -2.918620407581329346e-01 -5.781289190053939819e-02 -1.049024760723114014e-01 -2.966108918190002441e-01
3.429000000000000000e+03 3.284007644653320312e+01 -1.500223922729492188e+01 -4.025147259235382080e-01 -6.833311915397644043e-02 -1.412543505430221558e-01 -3.419429659843444824e-01
3.430000000000000000e+03 4.813228988647460938e+01 2.804643869400024414e+00 -7.645488977432250977e-01 -3.616369888186454773e-02 -2.402137666940689087e-01 5.436649322509765625e-01
3.431000000000000000e+03 4.858918380737304688e+01 1.730183362960815430e+00 -9.070070385932922363e-01 -3.622223064303398132e-02 -2.829687893390655518e-01 5.248675942420959473e-01
3.432000000000000000e+03 4.087288284301757812e+01 2.073800086975097656e+00 -6.917244791984558105e-01 -2.417755313217639923e-02 -2.147706151008605957e-01 5.153381228446960449e-01
3.433000000000000000e+03 4.469141769409179688e+01 1.139883875846862793e+00 -8.894844055175781250e-01 -2.915712073445320129e-02 -2.755924761295318604e-01 4.996928870677947998e-01
3.434000000000000000e+03 4.339510345458984375e+01 1.931213617324829102e+00 -7.766268253326416016e-01 -2.760558575391769409e-02 -2.412697225809097290e-01 5.205487012863159180e-01
3.435000000000000000e+03 4.971588897705078125e+01 2.787564754486083984e+00 -7.808644175529479980e-01 -3.335498645901679993e-02 -2.442658245563507080e-01 5.350062251091003418e-01
3.436000000000000000e+03 5.052112960815429688e+01 2.380779027938842773e+00 -8.438481092453002930e-01 -3.385058045387268066e-02 -2.633095979690551758e-01 5.258467793464660645e-01
3.437000000000000000e+03 4.572143554687500000e+01 7.154037952423095703e-01 -9.622378945350646973e-01 -3.198685124516487122e-02 -2.982674241065979004e-01 4.907811582088470459e-01
3.438000000000000000e+03 4.399920654296875000e+01 1.819176673889160156e+00 -7.975932955741882324e-01 -2.864653803408145905e-02 -2.478719502687454224e-01 5.188923478126525879e-01
3.439000000000000000e+03 4.607756423950195312e+01 1.662143468856811523e+00 -8.688651323318481445e-01 -3.290608897805213928e-02 -2.705313563346862793e-01 5.216186046600341797e-01
3.440000000000000000e+03 4.455805587768554688e+01 1.883337855339050293e+00 -8.019340634346008301e-01 -2.729029580950737000e-02 -2.487673163414001465e-01 5.241968035697937012e-01
3.441000000000000000e+03 7.060770416259765625e+01 -1.349719905853271484e+01 3.200678229331970215e-01 1.678140759468078613e+00 5.994625687599182129e-01 1.087512969970703125e+00
3.442000000000000000e+03 6.921628570556640625e+01 -1.345388889312744141e+01 8.035111427307128906e-02 1.027580022811889648e+00 3.323793709278106689e-01 6.386327147483825684e-01
3.443000000000000000e+03 3.002677917480468750e+01 -1.766417312622070312e+01 -2.363007813692092896e-01 -9.164347499608993530e-02 -9.838327765464782715e-02 -3.451312482357025146e-01
3.444000000000000000e+03 3.311353302001953125e+01 1.415912628173828125e+00 -4.835765063762664795e-01 -3.900111839175224304e-02 -1.567732840776443481e-01 4.478697180747985840e-01
3.445000000000000000e+03 3.296466445922851562e+01 6.982245445251464844e-01 -4.957104623317718506e-01 -3.300023823976516724e-02 -1.586132198572158813e-01 4.181388616561889648e-01
3.446000000000000000e+03 6.825650024414062500e+01 5.864478945732116699e-01 -2.003452330827713013e-01 7.074221372604370117e-01 1.521230787038803101e-01 -4.288480877876281738e-01
3.447000000000000000e+03 6.784048461914062500e+01 -1.378653717041015625e+01 -6.070658564567565918e-02 7.216134071350097656e-01 1.982720345258712769e-01 3.588544428348541260e-01
3.448000000000000000e+03 6.773260498046875000e+01 -1.461083221435546875e+01 1.479853093624114990e-01 8.626800775527954102e-01 3.031996190547943115e-01 4.618143439292907715e-01
3.449000000000000000e+03 5.476733016967773438e+01 2.030793190002441406e+00 -9.005568623542785645e-01 -2.429599128663539886e-02 -2.774558663368225098e-01 4.921748042106628418e-01
3.450000000000000000e+03 6.737691497802734375e+01 -1.533081626892089844e+01 2.683829963207244873e-01 9.100709557533264160e-01 3.535361886024475098e-01 4.874509871006011963e-01
3.451000000000000000e+03 6.710221862792968750e+01 -1.439892768859863281e+01 -1.238869223743677139e-02 6.417826414108276367e-01 1.888181716203689575e-01 2.951943278312683105e-01
3.452000000000000000e+03 6.686959075927734375e+01 -1.592726516723632812e+01 3.434534370899200439e-01 9.031537771224975586e-01 3.739821612834930420e-01 4.692755341529846191e-01
3.453000000000000000e+03 7.257640838623046875e+01 1.391227483749389648e+00 6.145591139793395996e-01 3.347361564636230469e+00 1.188576221466064453e+00 -1.845524668693542480e+00
3.454000000000000000e+03 6.652649688720703125e+01 6.822649836540222168e-01 -4.709039330482482910e-01 3.712739050388336182e-01 -2.988900989294052124e-02 -1.020283848047256470e-01
3.455000000000000000e+03 2.901188659667968750e+01 -1.645501899719238281e+01 -2.763184607028961182e-01 -7.263321429491043091e-02 -1.046855002641677856e-01 -3.246918916702270508e-01
3.456000000000000000e+03 2.354828834533691406e+01 -1.777682113647460938e+01 -1.890872865915298462e-01 -7.913295179605484009e-02 -8.046606928110122681e-02 -2.585581541061401367e-01
3.457000000000000000e+03 2.878016662597656250e+01 2.875900983810424805e+00 -3.344801664352416992e-01 -1.113171055912971497e-01 -1.337391734123229980e-01 4.406733512878417969e-01
3.458000000000000000e+03 7.094176483154296875e+01 -1.403358268737792969e+01 4.757896661758422852e-01 2.059970855712890625e+00 7.607281804084777832e-01 1.255094647407531738e+00
3.459000000000000000e+03 7.039022827148437500e+01 1.168429136276245117e+00 3.364881277084350586e-01 1.688870191574096680e+00 6.076074838638305664e-01 -1.106619000434875488e+00
3.460000000000000000e+03 3.965023422241210938e+01 1.911446928977966309e+00 -6.578094959259033203e-01 -2.429470606148242950e-02 -2.046312540769577026e-01 5.096765160560607910e-01
3.461000000000000000e+03 6.164220809936523438e+01 2.150154590606689453e+00 -5.737266540527343750e-01 1.199756562709808350e-01 -1.361252963542938232e-01 2.543900907039642334e-01
3.462000000000000000e+03 4.193472671508789062e+01 3.512771844863891602e+00 -5.955445170402526855e-01 -2.781739272177219391e-02 -1.870085746049880981e-01 5.545116662979125977e-01
3.463000000000000000e+03 7.165380859375000000e+01 2.402569770812988281e+00 6.431272029876708984e-01 2.873244285583496094e+00 1.054911494255065918e+00 -1.621440529823303223e+00
3.464000000000000000e+03 7.269148254394531250e+01 2.454214096069335938e+00 6.817185878753662109e-01 3.720086574554443359e+00 1.320541501045227051e+00 -1.883603453636169434e+00
3.465000000000000000e+03 7.049029541015625000e+01 4.110421180725097656e+00 7.410070896148681641e-01 2.534549713134765625e+00 9.826670885086059570e-01 -1.409227252006530762e+00
3.466000000000000000e+03 6.876786041259765625e+01 8.187195062637329102e-01 -7.011118344962596893e-03 9.135167002677917480e-01 2.719516754150390625e-01 -6.008212566375732422e-01
3.467000000000000000e+03 5.879606628417968750e+01 1.570895314216613770e+00 -8.957369327545166016e-01 -1.910218852572143078e-03 -2.692941427230834961e-01 4.228729605674743652e-01
3.468000000000000000e+03 6.022278594970703125e+01 1.383775591850280762e+00 -8.758756518363952637e-01 2.858964726328849792e-02 -2.541857957839965820e-01 3.784071505069732666e-01
3.469000000000000000e+03 2.672848701477050781e+01 2.112815856933593750e+00 -2.688292264938354492e-01 -1.413075923919677734e-01 -1.230410411953926086e-01 3.820552825927734375e-01
3.470000000000000000e+03 3.358627319335937500e+01 -1.558408355712890625e+01 -3.903598189353942871e-01 -7.641310989856719971e-02 -1.400318741798400879e-01 -3.621146678924560547e-01
3.471000000000000000e+03 4.069805145263671875e+01 -1.552849960327148438e+01 -5.209652185440063477e-01 -8.469045162200927734e-02 -1.816966980695724487e-01 -4.467521011829376221e-01
3.472000000000000000e+03 4.540428161621093750e+01 1.351579904556274414e+00 -8.852505683898925781e-01 -3.389818966388702393e-02 -2.757446169853210449e-01 5.105640888214111328e-01
3.473000000000000000e+03 4.637545776367187500e+01 9.742504358291625977e-01 -9.493913650512695312e-01 -3.327380865812301636e-02 -2.947995662689208984e-01 5.021142959594726562e-01
3.474000000000000000e+03 2.412732887268066406e+01 4.552367925643920898e-01 -1.631766706705093384e-01 -1.532955020666122437e-01 -9.494165331125259399e-02 2.619314491748809814e-01
3.475000000000000000e+03 2.615903282165527344e+01 1.437399744987487793e+00 -2.458476573228836060e-01 -1.358550041913986206e-01 -1.145107969641685486e-01 3.436717391014099121e-01
3.476000000000000000e+03 6.985710906982421875e+01 3.239379882812500000e+00 6.251348853111267090e-01 1.992027044296264648e+00 7.851485610008239746e-01 -1.218414902687072754e+00
3.477000000000000000e+03 2.584051895141601562e+01 6.794784665107727051e-01 -2.290644049644470215e-01 -1.251765638589859009e-01 -1.062722876667976379e-01 3.096150457859039307e-01
3.478000000000000000e+03 2.688018226623535156e+01 1.072348713874816895e+00 -2.689537405967712402e-01 -1.150277331471443176e-01 -1.151944398880004883e-01 3.457698822021484375e-01
3.479000000000000000e+03 3.432205581665039062e+01 1.977826952934265137e+00 -5.027277469635009766e-01 -3.690217435359954834e-02 -1.618889719247817993e-01 4.736517369747161865e-01
3.480000000000000000e+03 7.120030975341796875e+01 9.059476256370544434e-01 4.222683012485504150e-01 2.050653934478759766e+00 7.418766617774963379e-01 -1.363755583763122559e+00
3.481000000000000000e+03 2.658137512207031250e+01 5.796132564544677734e+00 -2.885018885135650635e-01 -2.079070955514907837e-01 -1.489226967096328735e-01 4.746109545230865479e-01
3.482000000000000000e+03 5.516685867309570312e+01 -1.490609645843505859e+01 -7.592000365257263184e-01 -4.162859544157981873e-02 -2.402485907077789307e-01 -5.177779793739318848e-01
3.483000000000000000e+03 5.948135375976562500e+01 -1.505538272857666016e+01 -5.811880826950073242e-01 2.643413282930850983e-02 -1.664261817932128906e-01 -4.134935438632965088e-01
3.484000000000000000e+03 7.290998840332031250e+01 8.524544239044189453e-01 5.441181063652038574e-01 3.500965356826782227e+00 1.213525056838989258e+00 -1.945229649543762207e+00
3.485000000000000000e+03 5.845399856567382812e+01 3.168096065521240234e+00 -5.407111048698425293e-01 3.850151970982551575e-02 -1.506628841161727905e-01 3.614423573017120361e-01
3.486000000000000000e+03 2.119372749328613281e+01 2.131608390808105469e+01 -6.790286302566528320e-02 -5.354511141777038574e-01 -1.810061782598495483e-01 2.541647553443908691e-01
3.487000000000000000e+03 5.123102569580078125e+01 2.258521080017089844e+00 -8.591390848159790039e-01 -3.071006201207637787e-02 -2.669547498226165771e-01 5.249889492988586426e-01
3.488000000000000000e+03 2.365045928955078125e+01 1.398327350616455078e+01 -3.109498023986816406e-01 -4.010384976863861084e-01 -2.135964930057525635e-01 4.096825420856475830e-01
3.489000000000000000e+03 2.667752838134765625e+01 1.758894538879394531e+01 -1.308309286832809448e-01 -3.105147182941436768e-01 -1.324037015438079834e-01 3.547427356243133545e-01
3.490000000000000000e+03 6.866864776611328125e+01 -2.358727836608886719e+01 7.828518748283386230e-01 2.735033750534057617e+00 1.055365681648254395e+00 1.030051946640014648e+00
3.491000000000000000e+03 6.576336669921875000e+01 2.191895961761474609e+00 -9.039876610040664673e-02 5.115907192230224609e-01 1.263575851917266846e-01 -2.097574621438980103e-01
3.492000000000000000e+03 6.849670410156250000e+01 5.131306648254394531e+00 6.952596306800842285e-01 1.825961470603942871e+00 7.563663125038146973e-01 -1.055736064910888672e+00
3.493000000000000000e+03 6.601983642578125000e+01 1.824409294128417969e+01 5.799527168273925781e-01 2.452181339263916016e+00 9.096401929855346680e-01 -7.490837574005126953e-01
3.494000000000000000e+03 2.766741752624511719e+01 5.356255054473876953e+00 -3.065160512924194336e-01 -1.682383418083190918e-01 -1.424263119697570801e-01 4.807552397251129150e-01
3.495000000000000000e+03 2.502785110473632812e+01 -1.791449356079101562e+01 -1.935463100671768188e-01 -8.180344104766845703e-02 -8.260492980480194092e-02 -2.798916399478912354e-01
3.496000000000000000e+03 7.148818206787109375e+01 -1.772768211364746094e+01 7.787953019142150879e-01 3.270169973373413086e+00 1.214689612388610840e+00 1.535091400146484375e+00
3.497000000000000000e+03 6.966979217529296875e+01 -2.263594818115234375e+01 7.729175090789794922e-01 3.028558969497680664e+00 1.140442967414855957e+00 1.158069014549255371e+00
3.498000000000000000e+03 6.882157135009765625e+01 6.257883548736572266e+00 7.692519426345825195e-01 2.194205999374389648e+00 8.890373706817626953e-01 -1.177356839179992676e+00
3.499000000000000000e+03 2.740752983093261719e+01 6.804057598114013672e+00 -3.034020066261291504e-01 -1.953833699226379395e-01 -1.496356129646301270e-01 4.962334930896759033e-01
3.500000000000000000e+03 2.971143722534179688e+01 1.053517341613769531e+01 -2.651306688785552979e-01 -1.671403795480728149e-01 -1.296813189983367920e-01 5.104100704193115234e-01
3.501000000000000000e+03 2.660494041442871094e+01 1.469559097290039062e+01 -2.291453331708908081e-01 -2.882757484912872314e-01 -1.552263200283050537e-01 4.147101640701293945e-01
3.502000000000000000e+03 2.532001876831054688e+01 1.289874172210693359e+01 -2.956829369068145752e-01 -3.192921280860900879e-01 -1.844925135374069214e-01 4.424001574516296387e-01
3.503000000000000000e+03 6.901782226562500000e+01 2.436541938781738281e+01 3.402914702892303467e-01 3.137539625167846680e+00 1.043349266052246094e+00 -6.087358593940734863e-01
3.504000000000000000e+03 7.143922424316406250e+01 2.205509757995605469e+01 2.703293859958648682e-01 3.649378538131713867e+00 1.175912380218505859e+00 -6.605420708656311035e-01
3.505000000000000000e+03 7.093088531494140625e+01 2.005523490905761719e+01 3.328897058963775635e-01 3.605380773544311523e+00 1.181481122970581055e+00 -7.757098674774169922e-01
3.506000000000000000e+03 7.010096740722656250e+01 -1.824021911621093750e+01 8.139474987983703613e-01 2.631063699722290039e+00 1.033503413200378418e+00 1.294520258903503418e+00
3.507000000000000000e+03 7.080152130126953125e+01 -1.874628829956054688e+01 8.067919015884399414e-01 3.117169380187988281e+00 1.177188396453857422e+00 1.422440290451049805e+00
3.508000000000000000e+03 6.621171569824218750e+01 -2.538557624816894531e+01 8.065451979637145996e-01 2.136010885238647461e+00 8.827668428421020508e-01 7.406904697418212891e-01
3.509000000000000000e+03 1.379107475280761719e+01 -2.759128379821777344e+01 3.128563985228538513e-02 -2.147899270057678223e-01 -5.505128949880599976e-02 -1.538192927837371826e-01
3.510000000000000000e+03 1.247485828399658203e+01 -2.607908630371093750e+01 1.017724908888339996e-02 -2.034102529287338257e-01 -5.796990171074867249e-02 -1.510390639305114746e-01
3.511000000000000000e+03 1.220485305786132812e+01 -2.891380310058593750e+01 4.027672484517097473e-02 -2.150316536426544189e-01 -5.242647975683212280e-02 -1.421587318181991577e-01
3.512000000000000000e+03 1.548073959350585938e+01 2.759847259521484375e+01 1.271274387836456299e-01 -5.649244189262390137e-01 -1.313390880823135376e-01 2.535099387168884277e-01
3.513000000000000000e+03 1.353179264068603516e+01 2.878984260559082031e+01 1.278232038021087646e-01 -5.356565117835998535e-01 -1.223499998450279236e-01 2.561838328838348389e-01
3.514000000000000000e+03 2.845347023010253906e+01 1.126988124847412109e+01 -2.696601748466491699e-01 -2.050467580556869507e-01 -1.424120813608169556e-01 4.910632967948913574e-01
3.515000000000000000e+03 2.695696640014648438e+01 1.159610748291015625e+01 -2.847874462604522705e-01 -2.465479373931884766e-01 -1.594006121158599854e-01 4.770848751068115234e-01
3.516000000000000000e+03 6.590160369873046875e+01 2.635282325744628906e+01 4.186776280403137207e-01 2.623737812042236328e+00 9.127246737480163574e-01 -5.072692632675170898e-01
3.517000000000000000e+03 6.694897460937500000e+01 2.467965126037597656e+01 4.125593006610870361e-01 2.771976709365844727e+00 9.553608298301696777e-01 -5.805745124816894531e-01
3.518000000000000000e+03 6.828031158447265625e+01 8.997096061706542969e+00 7.655780911445617676e-01 2.384738445281982422e+00 9.450950026512145996e-01 -1.130054235458374023e+00
3.519000000000000000e+03 7.292424011230468750e+01 2.948759794235229492e-01 4.389677643775939941e-01 3.335283279418945312e+00 1.132275342941284180e+00 -1.917127966880798340e+00
3.520000000000000000e+03 7.268061828613281250e+01 -2.789883613586425781e-01 2.835283279418945312e-01 2.819613933563232422e+00 9.309426546096801758e-01 -1.795625329017639160e+00
3.521000000000000000e+03 7.341087341308593750e+01 1.072531342506408691e-01 4.037886559963226318e-01 3.718329191207885742e+00 1.236635327339172363e+00 -2.069638729095458984e+00
3.522000000000000000e+03 2.747232818603515625e+01 1.554365634918212891e+00 -2.928186058998107910e-01 -1.131167188286781311e-01 -1.217805966734886169e-01 3.755124509334564209e-01
3.523000000000000000e+03 6.592376708984375000e+01 -1.467353916168212891e+01 -1.116258203983306885e-01 4.651223421096801758e-01 1.060489565134048462e-01 1.212227791547775269e-01
3.524000000000000000e+03 3.759090805053710938e+01 2.289467573165893555e+00 -5.873042941093444824e-01 -2.813450060784816742e-02 -1.846316456794738770e-01 5.040759444236755371e-01
3.525000000000000000e+03 3.721358108520507812e+01 1.332751035690307617e+00 -6.206974983215332031e-01 -2.307901903986930847e-02 -1.931329518556594849e-01 4.734750390052795410e-01
3.526000000000000000e+03 3.945323562622070312e+01 -1.498867797851562500e+01 -5.455611944198608398e-01 -8.018708974123001099e-02 -1.877244859933853149e-01 -4.218374490737915039e-01
3.527000000000000000e+03 5.546331405639648438e+01 2.099781990051269531e+00 -8.782896399497985840e-01 -2.658923715353012085e-02 -2.714636623859405518e-01 4.782001674175262451e-01
3.528000000000000000e+03 3.097220802307128906e+01 2.320382356643676758e+00 -3.988610208034515381e-01 -7.056844234466552734e-02 -1.408288478851318359e-01 4.509480595588684082e-01
3.529000000000000000e+03 6.263582229614257812e+01 1.671698570251464844e+00 -6.174783110618591309e-01 1.347425729036331177e-01 -1.448207199573516846e-01 2.190435975790023804e-01
3.530000000000000000e+03 3.176747131347656250e+01 1.897672414779663086e+00 -4.323211908340454102e-01 -5.517790466547012329e-02 -1.462497264146804810e-01 4.459465146064758301e-01
3.531000000000000000e+03 4.644234848022460938e+01 -1.541058921813964844e+01 -6.354232430458068848e-01 -8.008804917335510254e-02 -2.146534025669097900e-01 -5.049919486045837402e-01
3.532000000000000000e+03 5.338554382324218750e+01 -1.619607162475585938e+01 -5.258244872093200684e-01 -4.183078184723854065e-02 -1.702965795993804932e-01 -5.229023694992065430e-01
3.533000000000000000e+03 5.197358322143554688e+01 -1.569069099426269531e+01 -6.276022195816040039e-01 -6.660600751638412476e-02 -2.082624584436416626e-01 -5.294135212898254395e-01
3.534000000000000000e+03 4.865841293334960938e+01 -1.596503734588623047e+01 -5.829474329948425293e-01 -8.290636539459228516e-02 -1.997561454772949219e-01 -5.283505916595458984e-01
3.535000000000000000e+03 3.292985916137695312e+01 2.043320655822753906e+00 -4.637635052204132080e-01 -4.650211706757545471e-02 -1.530796885490417480e-01 4.644880592823028564e-01
3.536000000000000000e+03 7.261740875244140625e+01 -1.362554168701171875e+01 5.164979100227355957e-01 3.232053518295288086e+00 1.124565482139587402e+00 1.827758312225341797e+00
3.537000000000000000e+03 7.193870544433593750e+01 -1.246552658081054688e+01 2.439739257097244263e-01 2.125134706497192383e+00 7.107325792312622070e-01 1.417271018028259277e+00
3.538000000000000000e+03 3.896751022338867188e+01 -1.633146476745605469e+01 -4.326053857803344727e-01 -9.679713100194931030e-02 -1.588207483291625977e-01 -4.430323243141174316e-01
3.539000000000000000e+03 7.272346496582031250e+01 -1.267664432525634766e+01 4.215703010559082031e-01 2.945022344589233398e+00 1.009977817535400391e+00 1.829311490058898926e+00
3.540000000000000000e+03 7.349119567871093750e+01 -1.430126476287841797e+01 5.826128125190734863e-01 4.319245815277099609e+00 1.470557570457458496e+00 2.044418573379516602e+00
3.541000000000000000e+03 5.888622665405273438e+01 -1.562072086334228516e+01 -4.901360273361206055e-01 2.805552072823047638e-02 -1.386241614818572998e-01 -4.111169874668121338e-01
3.542000000000000000e+03 6.333472061157226562e+01 -2.133710670471191406e+01 6.924296617507934570e-01 9.784924983978271484e-01 5.012766718864440918e-01 3.564530611038208008e-01
3.543000000000000000e+03 5.454026412963867188e+01 -1.445904159545898438e+01 -8.486846089363098145e-01 -3.914663195610046387e-02 -2.663493752479553223e-01 -5.283606052398681641e-01
3.544000000000000000e+03 5.736411666870117188e+01 -1.665789222717285156e+01 -3.227728009223937988e-01 3.183191642165184021e-02 -8.728226274251937866e-02 -4.163386523723602295e-01
3.545000000000000000e+03 3.683588027954101562e+01 1.913800597190856934e+00 -5.830883383750915527e-01 -2.656472660601139069e-02 -1.828959286212921143e-01 4.901517033576965332e-01
3.546000000000000000e+03 3.563398361206054688e+01 2.007525205612182617e+00 -5.452001094818115234e-01 -3.051531873643398285e-02 -1.727146357297897339e-01 4.846296012401580811e-01
3.547000000000000000e+03 5.773220062255859375e+01 2.520156621932983398e+00 -7.105655670166015625e-01 5.852053873240947723e-03 -2.114140540361404419e-01 4.113680720329284668e-01
3.548000000000000000e+03 5.732781600952148438e+01 3.208326101303100586e+00 -5.639349818229675293e-01 4.848771169781684875e-02 -1.546341925859451294e-01 3.943025469779968262e-01
3.549000000000000000e+03 5.410070037841796875e+01 -1.502313804626464844e+01 -7.251260876655578613e-01 -4.363650828599929810e-02 -2.306287735700607300e-01 -5.240584611892700195e-01
3.550000000000000000e+03 5.649282073974609375e+01 -1.637183952331542969e+01 -4.106952250003814697e-01 2.058137673884630203e-03 -1.225911229848861694e-01 -4.547089934349060059e-01
3.551000000000000000e+03 5.588475799560546875e+01 -1.523006534576416016e+01 -6.752161979675292969e-01 -2.384683862328529358e-02 -2.097188979387283325e-01 -5.000510811805725098e-01
3.552000000000000000e+03 6.253526687622070312e+01 -1.551645946502685547e+01 -2.333563566207885742e-01 2.089515924453735352e-01 -7.321432698518037796e-03 -1.840998083353042603e-01
3.553000000000000000e+03 6.273117446899414062e+01 4.768591880798339844e+00 1.176813766360282898e-01 4.468330144882202148e-01 1.693543195724487305e-01 -9.662009775638580322e-02
3.554000000000000000e+03 3.877904891967773438e+01 1.907352089881896973e+00 -6.372940540313720703e-01 -2.455933764576911926e-02 -1.985560208559036255e-01 5.033115744590759277e-01
3.555000000000000000e+03 3.665211868286132812e+01 -1.663054084777832031e+01 -3.712292313575744629e-01 -9.811781346797943115e-02 -1.408041119575500488e-01 -4.144898355007171631e-01
3.556000000000000000e+03 6.269714355468750000e+01 -1.689488601684570312e+01 9.470696002244949341e-02 3.624935746192932129e-01 1.371601670980453491e-01 -3.497726470232009888e-02
3.557000000000000000e+03 4.885920715332031250e+01 3.483670234680175781e+00 -6.822530031204223633e-01 -2.925802953541278839e-02 -2.134533077478408813e-01 5.423948764801025391e-01
3.558000000000000000e+03 5.196316528320312500e+01 2.199716329574584961e+00 -8.714893460273742676e-01 -2.998583018779754639e-02 -2.704425454139709473e-01 5.212998390197753906e-01
3.559000000000000000e+03 5.094956970214843750e+01 3.008397340774536133e+00 -7.433260083198547363e-01 -3.109197318553924561e-02 -2.323254048824310303e-01 5.247349739074707031e-01
3.560000000000000000e+03 4.360352325439453125e+01 2.717154502868652344e+00 -6.943862438201904297e-01 -2.665044367313385010e-02 -2.163109928369522095e-01 5.427635312080383301e-01
3.561000000000000000e+03 4.242971420288085938e+01 3.089543104171752930e+00 -6.579771637916564941e-01 -3.071260824799537659e-02 -2.066069394350051880e-01 5.407998561859130859e-01
3.562000000000000000e+03 2.806180763244628906e+01 3.489143133163452148e+00 -3.112712800502777100e-01 -1.353388428688049316e-01 -1.339830309152603149e-01 4.441514909267425537e-01
3.563000000000000000e+03 3.140649604797363281e+01 1.201076626777648926e+00 -4.274992346763610840e-01 -5.327805876731872559e-02 -1.442331820726394653e-01 4.215320050716400146e-01
3.564000000000000000e+03 4.419599914550781250e+01 2.492809534072875977e+00 -7.249042987823486328e-01 -3.069142065942287445e-02 -2.266787141561508179e-01 5.372828245162963867e-01
3.565000000000000000e+03 5.270047760009765625e+01 2.050277233123779297e+00 -9.043797850608825684e-01 -3.237872198224067688e-02 -2.810275554656982422e-01 5.130997300148010254e-01
3.566000000000000000e+03 4.300334548950195312e+01 2.830244541168212891e+00 -6.725829243659973145e-01 -3.470981866121292114e-02 -2.121878266334533691e-01 5.381133556365966797e-01
3.567000000000000000e+03 4.205496215820312500e+01 2.390418529510498047e+00 -6.920927166938781738e-01 -2.809472568333148956e-02 -2.160562276840209961e-01 5.275100469589233398e-01
3.568000000000000000e+03 5.336368942260742188e+01 -1.526564407348632812e+01 -6.942243576049804688e-01 -5.261073261499404907e-02 -2.240505367517471313e-01 -5.272091627120971680e-01
3.569000000000000000e+03 7.002960205078125000e+01 -1.382175636291503906e+01 3.090040981769561768e-01 1.516160488128662109e+00 5.475493669509887695e-01 9.507842659950256348e-01
3.570000000000000000e+03 6.942198181152343750e+01 -1.409967041015625000e+01 2.554655373096466064e-01 1.291351795196533203e+00 4.640451967716217041e-01 7.900049686431884766e-01
3.571000000000000000e+03 6.922867584228515625e+01 1.209907770156860352e+00 1.725256294012069702e-01 1.176725387573242188e+00 4.047753214836120605e-01 -7.801654934883117676e-01
3.572000000000000000e+03 2.801117134094238281e+01 -1.654643249511718750e+01 -2.558557391166687012e-01 -7.135581225156784058e-02 -9.816346317529678345e-02 -3.105651438236236572e-01
3.573000000000000000e+03 3.144085121154785156e+01 -1.762113952636718750e+01 -2.553495168685913086e-01 -9.582455456256866455e-02 -1.053522154688835144e-01 -3.632062673568725586e-01
3.574000000000000000e+03 6.840664672851562500e+01 -1.499278068542480469e+01 3.451527059078216553e-01 1.143763065338134766e+00 4.466747641563415527e-01 6.690941452980041504e-01
3.575000000000000000e+03 7.015643310546875000e+01 -1.602979850769042969e+01 6.751528978347778320e-01 2.160208225250244141e+00 8.506082892417907715e-01 1.223247647285461426e+00
3.576000000000000000e+03 4.067164230346679688e+01 3.539595842361450195e+00 -5.743273496627807617e-01 -3.028449229896068573e-02 -1.813835650682449341e-01 5.486801862716674805e-01
3.577000000000000000e+03 4.137651062011718750e+01 2.867203712463378906e+00 -6.438183784484863281e-01 -2.641721628606319427e-02 -2.010706663131713867e-01 5.371062159538269043e-01
3.578000000000000000e+03 6.941600799560546875e+01 -1.580143833160400391e+01 6.236912012100219727e-01 1.777753233909606934e+00 7.204333543777465820e-01 1.020280599594116211e+00
3.579000000000000000e+03 7.118254089355468750e+01 -1.469838523864746094e+01 5.951392054557800293e-01 2.446932554244995117e+00 9.126214981079101562e-01 1.409716486930847168e+00
3.580000000000000000e+03 6.130133438110351562e+01 -1.564522743225097656e+01 -3.134342432022094727e-01 1.498645395040512085e-01 -4.907091334462165833e-02 -2.748382389545440674e-01
3.581000000000000000e+03 6.541023254394531250e+01 1.678152680397033691e+00 -2.824249565601348877e-01 3.865447044372558594e-01 3.123592399060726166e-02 -9.263112396001815796e-02
3.582000000000000000e+03 6.777991485595703125e+01 1.503369092941284180e+00 1.028780173510313034e-02 7.921054959297180176e-01 2.407179921865463257e-01 -4.843434393405914307e-01
3.583000000000000000e+03 7.215542602539062500e+01 1.916087746620178223e+00 6.309629678726196289e-01 3.134333133697509766e+00 1.129588842391967773e+00 -1.753181457519531250e+00
3.584000000000000000e+03 7.208240509033203125e+01 9.213296175003051758e-01 5.067934989929199219e-01 2.738251924514770508e+00 9.735136032104492188e-01 -1.660225272178649902e+00
3.585000000000000000e+03 2.785703659057617188e+01 -2.033376121520996094e+01 -1.195604205131530762e-01 -1.229947060346603394e-01 -7.276653498411178589e-02 -3.288452327251434326e-01
3.586000000000000000e+03 4.626746368408203125e+01 2.686110973358154297e+00 -7.480984330177307129e-01 -3.223509341478347778e-02 -2.341000586748123169e-01 5.406913757324218750e-01
3.587000000000000000e+03 4.738675689697265625e+01 2.363765001296997070e+00 -8.095933794975280762e-01 -3.692315146327018738e-02 -2.539549469947814941e-01 5.353896617889404297e-01
3.588000000000000000e+03 3.382792282104492188e+01 1.313725948333740234e+00 -5.077108144760131836e-01 -3.448195382952690125e-02 -1.626578420400619507e-01 4.503581821918487549e-01
3.589000000000000000e+03 6.632822418212890625e+01 -1.531938552856445312e+01 1.257558614015579224e-01 6.615614295005798340e-01 2.361951917409896851e-01 2.853498458862304688e-01
3.590000000000000000e+03 5.340095138549804688e+01 1.994653940200805664e+00 -9.131591320037841797e-01 -3.870153799653053284e-02 -2.855581939220428467e-01 5.070926547050476074e-01
3.591000000000000000e+03 6.979776763916015625e+01 1.271623492240905762e+00 2.755151093006134033e-01 1.407818198204040527e+00 5.049999952316284180e-01 -9.535475373268127441e-01
3.592000000000000000e+03 5.780320358276367188e+01 -1.586365127563476562e+01 -4.626825749874114990e-01 1.054284349083900452e-02 -1.356419175863265991e-01 -4.352546930313110352e-01
3.593000000000000000e+03 5.943141555786132812e+01 -1.627460670471191406e+01 -2.920041084289550781e-01 8.978189527988433838e-02 -6.066666170954704285e-02 -3.420432806015014648e-01
3.594000000000000000e+03 6.879378509521484375e+01 1.762545108795166016e+00 2.383521795272827148e-01 1.141193628311157227e+00 4.138637185096740723e-01 -7.610912322998046875e-01
3.595000000000000000e+03 7.079735565185546875e+01 2.217426300048828125e+00 5.808571577072143555e-01 2.162637472152709961e+00 8.230483531951904297e-01 -1.385893702507019043e+00
3.596000000000000000e+03 7.125599670410156250e+01 1.852189660072326660e+00 5.717704296112060547e-01 2.358989715576171875e+00 8.792280554771423340e-01 -1.470836043357849121e+00
3.597000000000000000e+03 7.279869079589843750e+01 -1.574637222290039062e+01 7.174186110496520996e-01 3.976211309432983398e+00 1.408089041709899902e+00 1.853056430816650391e+00
3.598000000000000000e+03 7.233612060546875000e+01 -1.447299766540527344e+01 6.696907877922058105e-01 3.235460519790649414e+00 1.171545386314392090e+00 1.755768060684204102e+00
3.599000000000000000e+03 2.477328681945800781e+01 1.355086922645568848e+00 -2.000806927680969238e-01 -1.571314185857772827e-01 -1.071636304259300232e-01 3.082862794399261475e-01
3.600000000000000000e+03 5.143975448608398438e+01 -1.640765571594238281e+01 -5.146386027336120605e-01 -6.164881959557533264e-02 -1.728862226009368896e-01 -5.282419323921203613e-01
3.601000000000000000e+03 5.257456588745117188e+01 -1.606471824645996094e+01 -5.602057576179504395e-01 -6.324050575494766235e-02 -1.870338767766952515e-01 -5.276081562042236328e-01
3.602000000000000000e+03 6.006345367431640625e+01 -1.566831016540527344e+01 -3.965080678462982178e-01 8.693379908800125122e-02 -9.287227690219879150e-02 -3.463344573974609375e-01
3.603000000000000000e+03 5.984555053710937500e+01 2.013165235519409180e+00 -7.173069715499877930e-01 4.393197968602180481e-02 -2.020124942064285278e-01 3.583094477653503418e-01
3.604000000000000000e+03 7.218136596679687500e+01 -1.306212520599365234e+01 4.207662343978881836e-01 2.567501783370971680e+00 8.964803814888000488e-01 1.625670075416564941e+00
3.605000000000000000e+03 6.749263763427734375e+01 -1.656599044799804688e+01 5.256527066230773926e-01 1.218453526496887207e+00 5.232318639755249023e-01 6.651903390884399414e-01
3.606000000000000000e+03 5.839233016967773438e+01 -1.622947502136230469e+01 -3.634450435638427734e-01 4.338479414582252502e-02 -9.601807594299316406e-02 -3.913018107414245605e-01
3.607000000000000000e+03 2.657752799987792969e+01 3.392833709716796875e+00 -2.702657282352447510e-01 -1.690555214881896973e-01 -1.317963749170303345e-01 4.177351891994476318e-01
3.608000000000000000e+03 7.133040618896484375e+01 -1.679946136474609375e+01 7.962931990623474121e-01 3.037241935729980469e+00 1.150060534477233887e+00 1.544347643852233887e+00
3.609000000000000000e+03 7.208690643310546875e+01 -1.594502830505371094e+01 7.678344249725341797e-01 3.434746980667114258e+00 1.260774374008178711e+00 1.704589605331420898e+00
3.610000000000000000e+03 5.464922332763671875e+01 2.877752542495727539e+00 -7.148328423500061035e-01 -5.883516743779182434e-03 -2.162149101495742798e-01 4.772298038005828857e-01
3.611000000000000000e+03 3.851659011840820312e+01 -1.542495155334472656e+01 -4.881971478462219238e-01 -8.397971093654632568e-02 -1.716530621051788330e-01 -4.186235964298248291e-01
3.612000000000000000e+03 3.984125900268554688e+01 -1.594057464599609375e+01 -4.701495170593261719e-01 -9.131779521703720093e-02 -1.684401929378509521e-01 -4.443829357624053955e-01
3.613000000000000000e+03 6.882080078125000000e+01 -2.157592582702636719e+01 8.251688480377197266e-01 2.577230215072631836e+00 1.020719647407531738e+00 1.098693728446960449e+00
3.614000000000000000e+03 6.137630081176757812e+01 3.725488901138305664e+00 -2.086216658353805542e-01 2.155352979898452759e-01 2.074093557894229889e-03 1.381377428770065308e-01
3.615000000000000000e+03 3.553145980834960938e+01 -1.712454605102539062e+01 -3.228238523006439209e-01 -1.012205183506011963e-01 -1.272133141756057739e-01 -4.098217785358428955e-01
3.616000000000000000e+03 3.506050109863281250e+01 2.631690263748168945e+00 -5.044636130332946777e-01 -3.750429302453994751e-02 -1.625903695821762085e-01 4.989116489887237549e-01
3.617000000000000000e+03 3.244182968139648438e+01 1.534790515899658203e+00 -4.573389589786529541e-01 -4.642109945416450500e-02 -1.511280089616775513e-01 4.431583583354949951e-01
3.618000000000000000e+03 7.103073883056640625e+01 2.787317991256713867e+00 6.557279229164123535e-01 2.509008884429931641e+00 9.494211077690124512e-01 -1.477914810180664062e+00
3.619000000000000000e+03 2.633680152893066406e+01 1.616984367370605469e+01 -1.963246017694473267e-01 -3.099959492683410645e-01 -1.518961638212203979e-01 3.815200924873352051e-01
3.620000000000000000e+03 2.734603309631347656e+01 4.135822296142578125e+00 -2.941241562366485596e-01 -1.628848910331726074e-01 -1.371027231216430664e-01 4.500452578067779541e-01
3.621000000000000000e+03 3.408825302124023438e+01 -1.633681488037109375e+01 -3.494776189327239990e-01 -8.816493302583694458e-02 -1.312927752733230591e-01 -3.796602785587310791e-01
3.622000000000000000e+03 2.765874481201171875e+01 8.748376846313476562e+00 -3.009143173694610596e-01 -2.074722200632095337e-01 -1.525159627199172974e-01 5.062751173973083496e-01
3.623000000000000000e+03 6.548461151123046875e+01 -2.386589622497558594e+01 8.237550854682922363e-01 1.771568894386291504e+00 7.785971760749816895e-01 6.788654327392578125e-01
3.624000000000000000e+03 6.884554290771484375e+01 7.621341228485107422e+00 7.643000483512878418e-01 2.407050371170043945e+00 9.514051079750061035e-01 -1.196259021759033203e+00
3.625000000000000000e+03 6.711560821533203125e+01 -2.124353981018066406e+01 8.226197957992553711e-01 1.914081096649169922e+00 8.210102915763854980e-01 8.568394780158996582e-01
3.626000000000000000e+03 6.296435165405273438e+01 -2.680569267272949219e+01 8.262025713920593262e-01 1.487916707992553711e+00 6.942358016967773438e-01 4.385288655757904053e-01
3.627000000000000000e+03 6.553800964355468750e+01 -2.795285034179687500e+01 7.804759144783020020e-01 2.183306694030761719e+00 8.891347646713256836e-01 6.235470771789550781e-01
3.628000000000000000e+03 3.121005058288574219e+01 -1.636787414550781250e+01 -3.083135187625885010e-01 -7.966808974742889404e-02 -1.163944825530052185e-01 -3.467669785022735596e-01
3.629000000000000000e+03 3.304140472412109375e+01 -1.637244606018066406e+01 -3.310941755771636963e-01 -8.545663952827453613e-02 -1.249652504920959473e-01 -3.684710562229156494e-01
3.630000000000000000e+03 2.275590705871582031e+01 -2.184930610656738281e+01 -7.254489511251449585e-02 -1.402830183506011963e-01 -6.384837627410888672e-02 -2.568372189998626709e-01
3.631000000000000000e+03 2.446371841430664062e+01 -2.063948822021484375e+01 -1.138051971793174744e-01 -1.194772049784660339e-01 -6.998471915721893311e-02 -2.827811539173126221e-01
3.632000000000000000e+03 7.007690429687500000e+01 5.766928672790527344e+00 7.922812700271606445e-01 2.628777027130126953e+00 1.026317477226257324e+00 -1.382848143577575684e+00
3.633000000000000000e+03 6.884358215332031250e+01 -1.975342369079589844e+01 8.248188495635986328e-01 2.294729471206665039e+00 9.358645081520080566e-01 1.101314902305603027e+00
3.634000000000000000e+03 2.670366477966308594e+01 -1.662004852294921875e+01 -2.427465021610260010e-01 -6.739304214715957642e-02 -9.304185956716537476e-02 -2.944458127021789551e-01
3.635000000000000000e+03 6.939550018310546875e+01 1.750839805603027344e+01 4.842356145381927490e-01 3.201788663864135742e+00 1.105807304382324219e+00 -9.237459897994995117e-01
3.636000000000000000e+03 6.649303436279296875e+01 3.188396453857421875e+01 3.097079992294311523e-01 2.755654096603393555e+00 9.196086525917053223e-01 -3.148377835750579834e-01
3.637000000000000000e+03 6.673565673828125000e+01 -2.318063545227050781e+01 8.213652372360229492e-01 2.050582885742187500e+00 8.615844845771789551e-01 8.185213208198547363e-01
3.638000000000000000e+03 6.740979003906250000e+01 7.446940422058105469e+00 7.306739687919616699e-01 1.798062086105346680e+00 7.586208581924438477e-01 -9.676957726478576660e-01
3.639000000000000000e+03 2.317944335937500000e+01 1.654588699340820312e+01 -2.553728520870208740e-01 -4.363701045513153076e-01 -2.075228840112686157e-01 3.521867096424102783e-01
3.640000000000000000e+03 2.334824943542480469e+01 2.339449882507324219e+01 4.936209693551063538e-02 -4.665019512176513672e-01 -1.251419633626937866e-01 2.306375205516815186e-01
3.641000000000000000e+03 2.914390373229980469e+01 9.438235282897949219e+00 -2.886312901973724365e-01 -1.735547184944152832e-01 -1.386558115482330322e-01 5.150274634361267090e-01
3.642000000000000000e+03 1.875891113281250000e+01 2.663235855102539062e+01 1.357450783252716064e-01 -5.618593692779541016e-01 -1.278342902660369873e-01 2.263893783092498779e-01
3.643000000000000000e+03 6.909475708007812500e+01 2.219516754150390625e+01 3.710013926029205322e-01 3.186786413192749023e+00 1.067336320877075195e+00 -6.901040077209472656e-01
3.644000000000000000e+03 2.330326080322265625e+01 -1.906211853027343750e+01 -1.563090980052947998e-01 -9.680879116058349609e-02 -7.593536376953125000e-02 -2.602302134037017822e-01
3.645000000000000000e+03 2.325493431091308594e+01 -2.579052352905273438e+01 4.072764515876770020e-02 -1.944534778594970703e-01 -4.611775279045104980e-02 -2.437745779752731323e-01
3.646000000000000000e+03 7.157563781738281250e+01 -1.353605842590332031e+01 4.439650177955627441e-01 2.315105438232421875e+00 8.277211189270019531e-01 1.433370590209960938e+00
3.647000000000000000e+03 3.091253662109375000e+01 3.654267787933349609e+00 -3.799508512020111084e-01 -8.588509261608123779e-02 -1.397507935762405396e-01 4.867979884147644043e-01
3.648000000000000000e+03 3.651599502563476562e+01 4.275858402252197266e+00 -4.674969315528869629e-01 -4.096823930740356445e-02 -1.525395512580871582e-01 5.423749089241027832e-01
3.649000000000000000e+03 6.421839904785156250e+01 2.749611139297485352e+00 -1.371383070945739746e-01 3.844443857669830322e-01 7.419182360172271729e-02 -6.526911258697509766e-02
3.650000000000000000e+03 6.229368591308593750e+01 3.100454568862915039e+00 -2.379969656467437744e-01 2.475957572460174561e-01 2.879638923332095146e-03 1.054760217666625977e-01
3.651000000000000000e+03 6.648197937011718750e+01 -2.013986968994140625e+01 7.719595432281494141e-01 1.549736380577087402e+00 6.965087652206420898e-01 7.317772507667541504e-01
3.652000000000000000e+03 6.196790695190429688e+01 -1.630351257324218750e+01 -9.183652698993682861e-02 2.439956963062286377e-01 4.564775153994560242e-02 -1.572438478469848633e-01
3.653000000000000000e+03 5.613239669799804688e+01 -1.747308540344238281e+01 -2.082385271787643433e-01 3.728363662958145142e-02 -5.128646641969680786e-02 -4.264378249645233154e-01
3.654000000000000000e+03 6.350075912475585938e+01 -1.740158462524414062e+01 2.656293511390686035e-01 5.212465524673461914e-01 2.360627651214599609e-01 1.005132496356964111e-01
3.655000000000000000e+03 3.365408325195312500e+01 2.594844341278076172e+00 -4.674898386001586914e-01 -4.671135917305946350e-02 -1.542603671550750732e-01 4.845779240131378174e-01
3.656000000000000000e+03 6.394869232177734375e+01 -1.641938400268554688e+01 1.058604717254638672e-01 4.334388375282287598e-01 1.617897897958755493e-01 5.536033958196640015e-02
3.657000000000000000e+03 5.684135818481445312e+01 3.627632617950439453e+00 -5.062714219093322754e-01 4.207078367471694946e-02 -1.392601877450942993e-01 3.989496231079101562e-01
3.658000000000000000e+03 5.617266464233398438e+01 3.837096214294433594e+00 -5.027834773063659668e-01 1.007105316966772079e-02 -1.478137373924255371e-01 4.140332341194152832e-01
3.659000000000000000e+03 3.716050338745117188e+01 2.915432453155517578e+00 -5.456209778785705566e-01 -3.132286667823791504e-02 -1.730831563472747803e-01 5.208400487899780273e-01
3.660000000000000000e+03 3.590072250366210938e+01 3.172702550888061523e+00 -5.053233504295349121e-01 -3.728876262903213501e-02 -1.627836227416992188e-01 5.170748233795166016e-01
3.661000000000000000e+03 5.157091522216796875e+01 3.605446577072143555e+00 -6.469377279281616211e-01 -1.880296319723129272e-02 -1.997222155332565308e-01 5.148862004280090332e-01
3.662000000000000000e+03 5.780720138549804688e+01 3.771352052688598633e+00 -4.430941045284271240e-01 4.806916043162345886e-02 -1.185074821114540100e-01 3.480192422866821289e-01
3.663000000000000000e+03 4.338027191162109375e+01 3.477755308151245117e+00 -6.235125660896301270e-01 -3.367820754647254944e-02 -1.971572339534759521e-01 5.528801679611206055e-01
3.664000000000000000e+03 6.512120819091796875e+01 2.203134059906005859e+00 -1.686192452907562256e-01 4.220108985900878906e-01 7.601749151945114136e-02 -1.179024502635002136e-01
3.665000000000000000e+03 6.216249465942382812e+01 3.776906728744506836e+00 -1.302706599235534668e-01 2.776998579502105713e-01 4.422875866293907166e-02 5.700417235493659973e-02
3.666000000000000000e+03 5.216556549072265625e+01 3.001739978790283203e+00 -7.391679883003234863e-01 -2.559520304203033447e-02 -2.294289618730545044e-01 5.140991210937500000e-01
3.667000000000000000e+03 5.022501754760742188e+01 5.206856727600097656e+00 -4.373936355113983154e-01 -2.358775353059172630e-03 -1.319257169961929321e-01 5.153684020042419434e-01
3.668000000000000000e+03 4.263484954833984375e+01 3.811286926269531250e+00 -5.848841667175292969e-01 -3.077447600662708282e-02 -1.846975982189178467e-01 5.615623593330383301e-01
3.669000000000000000e+03 4.513071060180664062e+01 2.140636444091796875e+00 -8.007911443710327148e-01 -3.690581023693084717e-02 -2.513090968132019043e-01 5.283572077751159668e-01
3.670000000000000000e+03 4.672700119018554688e+01 1.983697652816772461e+00 -8.410083651542663574e-01 -3.386309370398521423e-02 -2.624614238739013672e-01 5.273610949516296387e-01
3.671000000000000000e+03 4.558391189575195312e+01 3.130734205245971680e+00 -6.881771683692932129e-01 -3.505156189203262329e-02 -2.169686257839202881e-01 5.497052073478698730e-01
3.672000000000000000e+03 7.081411743164062500e+01 -1.567288398742675781e+01 7.050213813781738281e-01 2.492662429809570312e+00 9.593051075935363770e-01 1.362540602684020996e+00
3.673000000000000000e+03 6.904652404785156250e+01 -1.506652069091796875e+01 4.339081346988677979e-01 1.441869854927062988e+00 5.627334117889404297e-01 8.283665776252746582e-01
3.674000000000000000e+03 6.953240966796875000e+01 -1.739847373962402344e+01 7.685768604278564453e-01 2.162834405899047852e+00 8.794233798980712891e-01 1.166242599487304688e+00
3.675000000000000000e+03 7.134291076660156250e+01 -1.537085723876953125e+01 7.245899438858032227e-01 2.748061656951904297e+00 1.041795492172241211e+00 1.511153817176818848e+00
3.676000000000000000e+03 6.833095550537109375e+01 1.185991168022155762e+00 8.931853808462619781e-03 8.471024632453918457e-01 2.568102777004241943e-01 -5.530743002891540527e-01
3.677000000000000000e+03 6.993459320068359375e+01 2.012219190597534180e+00 4.638533890247344971e-01 1.706211447715759277e+00 6.510194540023803711e-01 -1.086691617965698242e+00
3.678000000000000000e+03 5.340699768066406250e+01 2.800763130187988281e+00 -7.806969285011291504e-01 -2.815534546971321106e-02 -2.426556944847106934e-01 4.985340237617492676e-01
3.679000000000000000e+03 4.951964569091796875e+01 4.355024814605712891e+00 -5.591319203376770020e-01 -2.102535031735897064e-02 -1.740471720695495605e-01 5.353491306304931641e-01
3.680000000000000000e+03 5.428182601928710938e+01 -1.651989173889160156e+01 -4.508447945117950439e-01 -2.270671539008617401e-02 -1.420654505491256714e-01 -4.970870614051818848e-01
3.681000000000000000e+03 6.136745834350585938e+01 2.924734830856323242e+00 -3.814521431922912598e-01 1.544270515441894531e-01 -6.810752302408218384e-02 2.015924453735351562e-01
3.682000000000000000e+03 5.723743438720703125e+01 4.333312034606933594e+00 -3.369061350822448730e-01 9.739666432142257690e-02 -7.185283303260803223e-02 3.394165039062500000e-01
3.683000000000000000e+03 4.003560256958007812e+01 2.731521844863891602e+00 -6.183935999870300293e-01 -2.685800194740295410e-02 -1.935754716396331787e-01 5.291956067085266113e-01
3.684000000000000000e+03 6.953455352783203125e+01 -1.895725059509277344e+01 8.142421245574951172e-01 2.446541309356689453e+00 9.782350659370422363e-01 1.220634579658508301e+00
3.685000000000000000e+03 6.715047454833984375e+01 1.736802697181701660e+00 -2.187801897525787354e-02 6.779423952102661133e-01 1.968193203210830688e-01 -3.816596865653991699e-01
3.686000000000000000e+03 7.167777252197265625e+01 1.395260334014892578e+00 5.548474788665771484e-01 2.562005519866943359e+00 9.350559115409851074e-01 -1.561999678611755371e+00
3.687000000000000000e+03 2.820233726501464844e+01 5.977216720581054688e+00 -3.133709728717803955e-01 -1.647829860448837280e-01 -1.434461921453475952e-01 4.975891411304473877e-01
3.688000000000000000e+03 2.743226432800292969e+01 6.001100063323974609e+00 -3.018140792846679688e-01 -1.855935454368591309e-01 -1.462222933769226074e-01 4.865787029266357422e-01
3.689000000000000000e+03 6.723622131347656250e+01 1.054464221000671387e+00 -2.188534736633300781e-01 5.770332217216491699e-01 1.074539199471473694e-01 -3.041301071643829346e-01
3.690000000000000000e+03 5.473267364501953125e+01 -1.564412975311279297e+01 -6.078698039054870605e-01 -3.211203962564468384e-02 -1.919945478439331055e-01 -5.119982957839965820e-01
3.691000000000000000e+03 6.805877685546875000e+01 -1.583479118347167969e+01 4.613608717918395996e-01 1.215408444404602051e+00 5.030307769775390625e-01 7.090308666229248047e-01
3.692000000000000000e+03 6.065624237060546875e+01 -1.637921333312988281e+01 -1.861437112092971802e-01 1.469405591487884521e-01 -1.176094729453325272e-02 -2.642107307910919189e-01
3.693000000000000000e+03 5.404292678833007812e+01 2.768810749053955078e+00 -7.693448066711425781e-01 -2.595192007720470428e-02 -2.385890185832977295e-01 4.897320270538330078e-01
3.694000000000000000e+03 7.047579956054687500e+01 1.736049413681030273e+00 4.798297882080078125e-01 1.926102399826049805e+00 7.217796444892883301e-01 -1.243120789527893066e+00
3.695000000000000000e+03 6.572502899169921875e+01 -1.575524711608886719e+01 1.673510521650314331e-01 6.241493821144104004e-01 2.374501228332519531e-01 2.384210228919982910e-01
3.696000000000000000e+03 6.512377166748046875e+01 -1.625340843200683594e+01 2.010048776865005493e-01 5.950843691825866699e-01 2.388267666101455688e-01 1.952976584434509277e-01
3.697000000000000000e+03 5.539069747924804688e+01 3.916862726211547852e+00 -5.217106938362121582e-01 1.427195593714714050e-02 -1.522316187620162964e-01 4.281078577041625977e-01
3.698000000000000000e+03 5.813000869750976562e+01 -1.688917350769042969e+01 -2.304857522249221802e-01 6.676243990659713745e-02 -4.911699518561363220e-02 -3.774608671665191650e-01
3.699000000000000000e+03 7.253693389892578125e+01 -1.506312370300292969e+01 6.995885968208312988e-01 3.606727123260498047e+00 1.291894674301147461e+00 1.829905867576599121e+00
3.700000000000000000e+03 3.299603271484375000e+01 3.220330476760864258e+00 -4.358618557453155518e-01 -5.680900812149047852e-02 -1.478012651205062866e-01 4.968822002410888672e-01
3.701000000000000000e+03 7.038272857666015625e+01 -1.693111038208007812e+01 7.698577046394348145e-01 2.507338762283325195e+00 9.831589460372924805e-01 1.320614933967590332e+00
3.702000000000000000e+03 7.134187316894531250e+01 -1.601089668273925781e+01 7.453292012214660645e-01 2.892976760864257812e+00 1.091491818428039551e+00 1.522986054420471191e+00
3.703000000000000000e+03 5.880252075195312500e+01 -1.675062179565429688e+01 -2.324120104312896729e-01 7.679206877946853638e-02 -4.668598622083663940e-02 -3.542793393135070801e-01
3.704000000000000000e+03 5.988028717041015625e+01 3.351667642593383789e+00 -3.884635269641876221e-01 1.200392022728919983e-01 -8.052729070186614990e-02 2.618676126003265381e-01
3.705000000000000000e+03 6.414207458496093750e+01 8.723057746887207031e+00 6.456394791603088379e-01 1.179932236671447754e+00 5.476714968681335449e-01 -5.791575312614440918e-01
3.706000000000000000e+03 6.701214599609375000e+01 8.563324928283691406e+00 7.539082765579223633e-01 1.847603917121887207e+00 7.804536223411560059e-01 -9.537699222564697266e-01
3.707000000000000000e+03 5.226881408691406250e+01 4.225212097167968750e+00 -5.391100645065307617e-01 -7.342661730945110321e-03 -1.639358103275299072e-01 4.986049830913543701e-01
3.708000000000000000e+03 5.277076339721679688e+01 2.800672054290771484e+00 -7.770375609397888184e-01 -2.080187574028968811e-02 -2.393518388271331787e-01 5.113285779953002930e-01
3.709000000000000000e+03 2.964332771301269531e+01 7.876543998718261719e+00 -3.083479106426239014e-01 -1.482272744178771973e-01 -1.369725614786148071e-01 5.235919952392578125e-01
3.710000000000000000e+03 2.746514701843261719e+01 7.720088005065917969e+00 -3.048761188983917236e-01 -2.012951225042343140e-01 -1.518513709306716919e-01 5.029854774475097656e-01
3.711000000000000000e+03 6.601129150390625000e+01 3.670554637908935547e+00 2.761115729808807373e-01 8.140928149223327637e-01 3.270612955093383789e-01 -4.422557651996612549e-01
3.712000000000000000e+03 2.662417793273925781e+01 -1.814175224304199219e+01 -1.928873062133789062e-01 -8.882162719964981079e-02 -8.451268076896667480e-02 -3.045503795146942139e-01
3.713000000000000000e+03 3.988406753540039062e+01 4.324777603149414062e+00 -5.144674181938171387e-01 -3.412071242928504944e-02 -1.645764410495758057e-01 5.563114881515502930e-01
3.714000000000000000e+03 5.225614166259765625e+01 -1.690834999084472656e+01 -4.380602836608886719e-01 -6.217210367321968079e-02 -1.500697135925292969e-01 -5.215544700622558594e-01
3.715000000000000000e+03 4.023598861694335938e+01 -1.692477035522460938e+01 -3.879688382148742676e-01 -1.019328162074089050e-01 -1.469704955816268921e-01 -4.630228877067565918e-01
3.716000000000000000e+03 4.408142852783203125e+01 -1.671076583862304688e+01 -4.438183605670928955e-01 -9.090062230825424194e-02 -1.604156941175460815e-01 -5.009542703628540039e-01
3.717000000000000000e+03 2.870877265930175781e+01 -1.737101364135742188e+01 -2.359996438026428223e-01 -8.402725309133529663e-02 -9.600806981325149536e-02 -3.256887495517730713e-01
3.718000000000000000e+03 3.843058395385742188e+01 2.710009574890136719e+00 -5.859089493751525879e-01 -2.989539876580238342e-02 -1.847413033246994019e-01 5.205680727958679199e-01
3.719000000000000000e+03 2.302279472351074219e+01 -2.040887832641601562e+01 -1.166926547884941101e-01 -1.181989759206771851e-01 -7.046748697757720947e-02 -2.612803280353546143e-01
3.720000000000000000e+03 6.669297027587890625e+01 2.723763942718505859e+00 1.810384094715118408e-01 7.982823252677917480e-01 2.937962114810943604e-01 -4.441052973270416260e-01
3.721000000000000000e+03 6.954808044433593750e+01 4.709172725677490234e+00 7.141070961952209473e-01 2.161043643951416016e+00 8.625451922416687012e-01 -1.240662336349487305e+00
3.722000000000000000e+03 3.019670867919921875e+01 2.892531633377075195e+00 -3.711947202682495117e-01 -8.807553350925445557e-02 -1.377810835838317871e-01 4.581469595432281494e-01
3.723000000000000000e+03 6.797721862792968750e+01 1.265519237518310547e+01 6.849879622459411621e-01 2.595505714416503906e+00 9.841480851173400879e-01 -1.026607036590576172e+00
3.724000000000000000e+03 6.587905120849609375e+01 1.275519561767578125e+01 7.176605463027954102e-01 2.026910543441772461e+00 8.233713507652282715e-01 -8.337596654891967773e-01
3.725000000000000000e+03 5.641822433471679688e+01 4.814081668853759766e+00 -3.073408305644989014e-01 7.153900712728500366e-02 -7.074054330587387085e-02 3.468099832534790039e-01
3.726000000000000000e+03 6.888327026367187500e+01 1.354546356201171875e+01 6.406697034835815430e-01 2.928832769393920898e+00 1.070850729942321777e+00 -1.081768870353698730e+00
3.727000000000000000e+03 6.630255126953125000e+01 1.443044567108154297e+01 6.722319722175598145e-01 2.262583971023559570e+00 8.804448246955871582e-01 -8.765268325805664062e-01
3.728000000000000000e+03 5.004755020141601562e+01 -1.634902763366699219e+01 -5.324079990386962891e-01 -7.338210940361022949e-02 -1.817370206117630005e-01 -5.329517126083374023e-01
3.729000000000000000e+03 4.738697433471679688e+01 3.762439727783203125e+00 -6.350146532058715820e-01 -3.289340063929557800e-02 -2.003724277019500732e-01 5.513979792594909668e-01
3.730000000000000000e+03 6.608012390136718750e+01 -2.188492202758789062e+01 8.134728074073791504e-01 1.691746830940246582e+00 7.515658736228942871e-01 7.279467582702636719e-01
3.731000000000000000e+03 4.550102615356445312e+01 -1.683522224426269531e+01 -4.588825702667236328e-01 -8.816095441579818726e-02 -1.641130596399307251e-01 -5.107562541961669922e-01
3.732000000000000000e+03 4.920204162597656250e+01 -1.693285369873046875e+01 -4.617625772953033447e-01 -8.303643763065338135e-02 -1.634397059679031372e-01 -5.285502672195434570e-01
3.733000000000000000e+03 4.769145965576171875e+01 -1.644330215454101562e+01 -5.137223601341247559e-01 -8.732312172651290894e-02 -1.803136318922042847e-01 -5.260931849479675293e-01
3.734000000000000000e+03 5.191335678100585938e+01 -1.804580497741699219e+01 -2.406001240015029907e-01 -4.835173115134239197e-02 -8.668556064367294312e-02 -4.982087910175323486e-01
3.735000000000000000e+03 3.823789978027343750e+01 -1.696720886230468750e+01 -3.639943301677703857e-01 -1.026179194450378418e-01 -1.399836838245391846e-01 -4.424028396606445312e-01
3.736000000000000000e+03 6.811379241943359375e+01 -1.883604812622070312e+01 7.642118334770202637e-01 1.852041363716125488e+00 7.848759889602661133e-01 9.424905776977539062e-01
3.737000000000000000e+03 6.803395080566406250e+01 -2.052815628051757812e+01 8.310599923133850098e-01 2.115869283676147461e+00 8.840788006782531738e-01 9.865752458572387695e-01
3.738000000000000000e+03 6.814544677734375000e+01 4.157413482666015625e+00 5.745730400085449219e-01 1.492849349975585938e+00 6.202267408370971680e-01 -9.117801189422607422e-01
3.739000000000000000e+03 2.940382385253906250e+01 1.258912181854248047e+01 -2.302905768156051636e-01 -1.919390708208084106e-01 -1.266688853502273560e-01 4.810873270034790039e-01
3.740000000000000000e+03 2.904094123840332031e+01 7.079652786254882812e+00 -3.158709108829498291e-01 -1.544898897409439087e-01 -1.411082297563552856e-01 5.156452655792236328e-01
3.741000000000000000e+03 6.715776824951171875e+01 4.404735088348388672e+00 5.174539089202880859e-01 1.241707205772399902e+00 5.277483463287353516e-01 -7.343936562538146973e-01
3.742000000000000000e+03 6.333043670654296875e+01 -2.006688880920410156e+01 5.866749286651611328e-01 8.265877366065979004e-01 4.239788055419921875e-01 2.800190746784210205e-01
3.743000000000000000e+03 2.842330551147460938e+01 1.372878360748291016e+01 -2.225964516401290894e-01 -2.222204804420471191e-01 -1.334450840950012207e-01 4.539826214313507080e-01
3.744000000000000000e+03 3.428108215332031250e+01 -1.746660423278808594e+01 -2.912184298038482666e-01 -1.027112379670143127e-01 -1.181789040565490723e-01 -3.994251191616058350e-01
3.745000000000000000e+03 6.698100280761718750e+01 1.702781677246093750e+01 5.890163183212280273e-01 2.580328702926635742e+00 9.508035182952880859e-01 -8.497946262359619141e-01
3.746000000000000000e+03 1.749977874755859375e+01 2.977027702331542969e+01 1.936389654874801636e-01 -5.424335002899169922e-01 -1.046383604407310486e-01 2.097497284412384033e-01
3.747000000000000000e+03 2.042143440246582031e+01 2.533202552795410156e+01 1.021251380443572998e-01 -5.428404808044433594e-01 -1.322146058082580566e-01 2.236322611570358276e-01
3.748000000000000000e+03 2.421980857849121094e+01 -2.209926795959472656e+01 -6.337831169366836548e-02 -1.434704959392547607e-01 -6.205464527010917664e-02 -2.799308896064758301e-01
3.749000000000000000e+03 1.498297786712646484e+01 -2.610112190246582031e+01 1.824233122169971466e-02 -2.089993655681610107e-01 -5.722710862755775452e-02 -1.635139435529708862e-01
3.750000000000000000e+03 1.545721912384033203e+01 -2.921139717102050781e+01 6.193987280130386353e-02 -2.260584533214569092e-01 -4.923557490110397339e-02 -1.554081439971923828e-01
3.751000000000000000e+03 2.528559684753417969e+01 1.834049415588378906e+01 -1.359247565269470215e-01 -3.611440956592559814e-01 -1.491206586360931396e-01 3.285967111587524414e-01
3.752000000000000000e+03 2.433018875122070312e+01 1.708402633666992188e+01 -2.001986652612686157e-01 -3.901002109050750732e-01 -1.770896613597869873e-01 3.483060896396636963e-01
3.753000000000000000e+03 7.288087463378906250e+01 -1.421381664276123047e+01 6.311130523681640625e-01 3.684432506561279297e+00 1.294663667678833008e+00 1.922510266304016113e+00
3.754000000000000000e+03 6.815438842773437500e+01 2.183463573455810547e+00 2.530027627944946289e-01 1.051519274711608887e+00 3.913566172122955322e-01 -6.761397719383239746e-01
3.755000000000000000e+03 3.446378707885742188e+01 3.340626955032348633e+00 -4.644689857959747314e-01 -4.713354632258415222e-02 -1.534807682037353516e-01 5.116528868675231934e-01
3.756000000000000000e+03 4.657325363159179688e+01 4.701478481292724609e+00 -5.254631638526916504e-01 -3.331382945179939270e-02 -1.676330864429473877e-01 5.558746457099914551e-01
3.757000000000000000e+03 4.157275390625000000e+01 5.891551494598388672e+00 -4.109096527099609375e-01 -3.285760059952735901e-02 -1.331301778554916382e-01 5.744619369506835938e-01
3.758000000000000000e+03 4.142115020751953125e+01 4.248661518096923828e+00 -5.360547304153442383e-01 -3.178408741950988770e-02 -1.703516393899917603e-01 5.583092570304870605e-01
3.759000000000000000e+03 6.746404266357421875e+01 -1.798057556152343750e+01 6.702641248703002930e-01 1.479821681976318359e+00 6.450257301330566406e-01 7.749972939491271973e-01
3.760000000000000000e+03 5.805368423461914062e+01 4.629817008972167969e+00 -2.575369477272033691e-01 1.058399304747581482e-01 -4.550909996032714844e-02 2.851070165634155273e-01
3.761000000000000000e+03 5.311427688598632812e+01 -1.710693931579589844e+01 -3.804038763046264648e-01 -3.765603154897689819e-02 -1.254179626703262329e-01 -5.052963495254516602e-01
3.762000000000000000e+03 5.904771041870117188e+01 4.124151706695556641e+00 -2.852997779846191406e-01 1.314978152513504028e-01 -4.614058881998062134e-02 2.603386044502258301e-01
3.763000000000000000e+03 6.929179382324218750e+01 2.448345184326171875e+00 4.543872773647308350e-01 1.498625516891479492e+00 5.859038233757019043e-01 -9.860041141510009766e-01
3.764000000000000000e+03 6.882685089111328125e+01 -1.810894584655761719e+01 7.620742321014404297e-01 1.969730377197265625e+00 8.195413947105407715e-01 1.042682528495788574e+00
3.765000000000000000e+03 6.628312683105468750e+01 -1.645685195922851562e+01 3.790539801120758057e-01 8.699734807014465332e-01 3.747082352638244629e-01 4.178995788097381592e-01
3.766000000000000000e+03 3.545264053344726562e+01 3.937138080596923828e+00 -4.611227512359619141e-01 -4.532920569181442261e-02 -1.519355922937393188e-01 5.305173397064208984e-01
3.767000000000000000e+03 3.373430633544921875e+01 3.935746669769287109e+00 -4.327346682548522949e-01 -5.644878745079040527e-02 -1.467550396919250488e-01 5.173347592353820801e-01
3.768000000000000000e+03 6.883819580078125000e+01 -1.652095985412597656e+01 6.248910427093505859e-01 1.667679071426391602e+00 6.877710223197937012e-01 9.455242753028869629e-01
3.769000000000000000e+03 6.410882568359375000e+01 3.542592763900756836e+00 2.972771972417831421e-02 4.743193387985229492e-01 1.512141227722167969e-01 -1.375579386949539185e-01
3.770000000000000000e+03 6.506989288330078125e+01 2.891268491744995117e+00 -1.271668914705514908e-02 5.078100562095642090e-01 1.485280096530914307e-01 -1.906670182943344116e-01
3.771000000000000000e+03 5.910234069824218750e+01 -1.756541252136230469e+01 -5.499820411205291748e-02 1.499907523393630981e-01 2.849776297807693481e-02 -2.817638814449310303e-01
3.772000000000000000e+03 2.881637191772460938e+01 4.181972026824951172e+00 -3.280410468578338623e-01 -1.309610754251480103e-01 -1.377006322145462036e-01 4.736801683902740479e-01
3.773000000000000000e+03 5.993347549438476562e+01 -1.705027770996093750e+01 -9.580884873867034912e-02 1.606973111629486084e-01 1.946653798222541809e-02 -2.632674872875213623e-01
3.774000000000000000e+03 6.050400161743164062e+01 2.573856592178344727e+00 -5.365595221519470215e-01 9.137863665819168091e-02 -1.335542649030685425e-01 2.849835455417633057e-01
3.775000000000000000e+03 5.339678192138671875e+01 3.683806419372558594e+00 -5.946237444877624512e-01 -6.494757719337940216e-03 -1.803355515003204346e-01 4.870579838752746582e-01
3.776000000000000000e+03 5.418572235107421875e+01 3.532878875732421875e+00 -6.067615747451782227e-01 -9.519271552562713623e-03 -1.848842650651931763e-01 4.733935296535491943e-01
3.777000000000000000e+03 5.170011138916015625e+01 5.104015350341796875e+00 -4.223321974277496338e-01 4.040697123855352402e-03 -1.254874616861343384e-01 4.890228509902954102e-01
3.778000000000000000e+03 3.161908149719238281e+01 5.717783451080322266e+00 -3.560836613178253174e-01 -9.482114762067794800e-02 -1.352714449167251587e-01 5.269559621810913086e-01
3.779000000000000000e+03 4.655649185180664062e+01 -1.666425132751464844e+01 -4.806668758392333984e-01 -8.869574964046478271e-02 -1.708087921142578125e-01 -5.199167728424072266e-01
3.780000000000000000e+03 4.172991180419921875e+01 -1.736079597473144531e+01 -3.656348586082458496e-01 -1.061802878975868225e-01 -1.415445506572723389e-01 -4.843757152557373047e-01
3.781000000000000000e+03 2.984140777587890625e+01 -1.905234336853027344e+01 -1.823214441537857056e-01 -1.088079959154129028e-01 -8.733883500099182129e-02 -3.531620800495147705e-01
3.782000000000000000e+03 6.050189971923828125e+01 -1.795688438415527344e+01 1.070057973265647888e-01 2.542539536952972412e-01 1.083779260516166687e-01 -1.631527543067932129e-01
3.783000000000000000e+03 5.312205886840820312e+01 4.673753261566162109e+00 -4.491979181766510010e-01 1.277382113039493561e-02 -1.309272348880767822e-01 4.660437107086181641e-01
3.784000000000000000e+03 4.072109222412109375e+01 5.124975681304931641e+00 -4.635874927043914795e-01 -3.284839913249015808e-02 -1.489307731389999390e-01 5.681146383285522461e-01
3.785000000000000000e+03 3.023099327087402344e+01 4.279238224029541016e+00 -3.573684990406036377e-01 -1.035512313246726990e-01 -1.382759213447570801e-01 4.919304847717285156e-01
3.786000000000000000e+03 6.567184448242187500e+01 -1.694841194152832031e+01 3.954836130142211914e-01 8.242437243461608887e-01 3.659182190895080566e-01 3.725480437278747559e-01
3.787000000000000000e+03 6.778710937500000000e+01 3.288991212844848633e+00 4.291909337043762207e-01 1.190706849098205566e+00 4.859693348407745361e-01 -7.385207414627075195e-01
3.788000000000000000e+03 5.080128097534179688e+01 -1.730535507202148438e+01 -3.715368211269378662e-01 -5.674735829234123230e-02 -1.284852474927902222e-01 -5.228344798088073730e-01
3.789000000000000000e+03 5.539068603515625000e+01 4.795439243316650391e+00 -3.359122872352600098e-01 5.325719341635704041e-02 -8.479652553796768188e-02 3.941254317760467529e-01
3.790000000000000000e+03 4.509634017944335938e+01 -1.901069259643554688e+01 -2.144727408885955811e-01 -1.050172820687294006e-01 -9.584700316190719604e-02 -5.149418711662292480e-01
3.791000000000000000e+03 6.525988006591796875e+01 9.220481872558593750e+00 7.118549942970275879e-01 1.465666413307189941e+00 6.532564163208007812e-01 -7.402927279472351074e-01
3.792000000000000000e+03 6.580474853515625000e+01 8.220376968383789062e+00 6.968302726745605469e-01 1.476114273071289062e+00 6.518833637237548828e-01 -7.651998996734619141e-01
3.793000000000000000e+03 3.730915832519531250e+01 -1.775903701782226562e+01 -3.007526993751525879e-01 -1.127579435706138611e-01 -1.240531876683235168e-01 -4.378863871097564697e-01
3.794000000000000000e+03 6.749739074707031250e+01 6.354334354400634766e+00 7.081638574600219727e-01 1.687135696411132812e+00 7.185898423194885254e-01 -9.272564649581909180e-01
3.795000000000000000e+03 4.676863479614257812e+01 3.198268651962280273e+00 -7.024084925651550293e-01 -3.532242774963378906e-02 -2.213192880153656006e-01 5.525661706924438477e-01
3.796000000000000000e+03 4.590962219238281250e+01 3.929520606994628906e+00 -6.057720780372619629e-01 -3.644618764519691467e-02 -1.926654875278472900e-01 5.544253587722778320e-01
3.797000000000000000e+03 4.476206970214843750e+01 -1.743610763549804688e+01 -3.817452192306518555e-01 -9.613336622714996338e-02 -1.433635801076889038e-01 -5.093057155609130859e-01
3.798000000000000000e+03 6.626256561279296875e+01 6.312203407287597656e+00 6.219425201416015625e-01 1.291207432746887207e+00 5.739449858665466309e-01 -7.369523644447326660e-01
3.799000000000000000e+03 3.745075988769531250e+01 4.476111412048339844e+00 -4.754396378993988037e-01 -4.078599065542221069e-02 -1.548676937818527222e-01 5.442066788673400879e-01
3.800000000000000000e+03 2.965155792236328125e+01 6.377529144287109375e+00 -3.259420990943908691e-01 -1.368549764156341553e-01 -1.388391256332397461e-01 5.153948068618774414e-01
3.801000000000000000e+03 3.231364059448242188e+01 2.567331790924072266e+00 -4.330309629440307617e-01 -5.812925472855567932e-02 -1.473480612039566040e-01 4.737415313720703125e-01
3.802000000000000000e+03 3.916506958007812500e+01 3.440588235855102539e+00 -5.539413094520568848e-01 -3.269758075475692749e-02 -1.759916692972183228e-01 5.400318503379821777e-01
3.803000000000000000e+03 5.309943389892578125e+01 -1.807002830505371094e+01 -2.040547281503677368e-01 -2.136324532330036163e-02 -6.762539595365524292e-02 -4.819078743457794189e-01
3.804000000000000000e+03 6.319112396240234375e+01 3.328568935394287109e+00 -1.108922958374023438e-01 3.454985618591308594e-01 7.038187235593795776e-02 -7.677636109292507172e-03
3.805000000000000000e+03 6.059739685058593750e+01 4.154901981353759766e+00 -1.888574510812759399e-01 1.945373117923736572e-01 1.703957328572869301e-03 1.659837514162063599e-01
3.806000000000000000e+03 4.116999053955078125e+01 -1.641850471496582031e+01 -4.453969001770019531e-01 -9.650079160928726196e-02 -1.625692993402481079e-01 -4.676621854305267334e-01
3.807000000000000000e+03 3.079444122314453125e+01 9.782679557800292969e+00 -2.698516547679901123e-01 -1.389411091804504395e-01 -1.226378232240676880e-01 5.251709818840026855e-01
3.808000000000000000e+03 5.558782196044921875e+01 -1.608036994934082031e+01 -4.983741044998168945e-01 -1.237493474036455154e-02 -1.532247066497802734e-01 -4.833354949951171875e-01
3.809000000000000000e+03 5.814341735839843750e+01 -1.782731437683105469e+01 -8.095470070838928223e-02 1.102429330348968506e-01 8.786470629274845123e-03 -3.256563544273376465e-01
3.810000000000000000e+03 6.459604644775390625e+01 -1.683671188354492188e+01 2.422945201396942139e-01 5.733164548873901367e-01 2.446832805871963501e-01 1.781284511089324951e-01
3.811000000000000000e+03 6.672376251220703125e+01 -1.859511184692382812e+01 6.718066930770874023e-01 1.367982387542724609e+00 6.119367480278015137e-01 6.847760081291198730e-01
3.812000000000000000e+03 6.206005096435546875e+01 -1.788281822204589844e+01 2.225280702114105225e-01 4.030693471431732178e-01 1.876792311668395996e-01 -1.722687482833862305e-02
3.813000000000000000e+03 5.153054428100585938e+01 -1.941110992431640625e+01 -7.631217688322067261e-02 -3.163993731141090393e-02 -3.238563239574432373e-02 -4.690077602863311768e-01
3.814000000000000000e+03 4.806668472290039062e+01 4.382773399353027344e+00 -5.673972964286804199e-01 -2.753476239740848541e-02 -1.784796267747879028e-01 5.457000136375427246e-01
3.815000000000000000e+03 3.639909362792968750e+01 5.070313930511474609e+00 -4.279388189315795898e-01 -4.476056620478630066e-02 -1.418098062276840210e-01 5.542614459991455078e-01
3.816000000000000000e+03 3.678233337402343750e+01 3.562152862548828125e+00 -5.015793442726135254e-01 -3.903833776712417603e-02 -1.621853113174438477e-01 5.305821299552917480e-01
3.817000000000000000e+03 5.518488311767578125e+01 -1.703604888916015625e+01 -3.196779787540435791e-01 -3.023664932698011398e-03 -9.681048989295959473e-02 -4.721337258815765381e-01
3.818000000000000000e+03 5.380279541015625000e+01 -1.906600379943847656e+01 -5.447326973080635071e-02 1.550756394863128662e-02 -1.168971136212348938e-02 -4.407365918159484863e-01
3.819000000000000000e+03 6.546603393554687500e+01 1.696385192871093750e+01 6.404477357864379883e-01 2.258356571197509766e+00 8.696413040161132812e-01 -7.775870561599731445e-01
3.820000000000000000e+03 6.740451812744140625e+01 1.167878818511962891e+01 7.272254228591918945e-01 2.311169147491455078e+00 9.115183949470520020e-01 -1.011061429977416992e+00
3.821000000000000000e+03 3.289875411987304688e+01 -1.756218719482421875e+01 -2.720284759998321533e-01 -9.892378002405166626e-02 -1.112856715917587280e-01 -3.801901936531066895e-01
3.822000000000000000e+03 6.505810546875000000e+01 3.672477483749389648e+00 1.696260720491409302e-01 6.166083216667175293e-01 2.358703166246414185e-01 -2.846990823745727539e-01
3.823000000000000000e+03 6.371221160888671875e+01 7.320304393768310547e+00 5.193955898284912109e-01 8.973202109336853027e-01 4.250147640705108643e-01 -4.250790178775787354e-01
3.824000000000000000e+03 3.065649032592773438e+01 1.375504016876220703e+01 -1.666085124015808105e-01 -1.671985834836959839e-01 -1.001421287655830383e-01 4.673644304275512695e-01
3.825000000000000000e+03 4.497194671630859375e+01 4.751514911651611328e+00 -5.261130332946777344e-01 -2.966388873755931854e-02 -1.667330861091613770e-01 5.660107731819152832e-01
3.826000000000000000e+03 6.857809448242187500e+01 2.926381826400756836e+00 4.414152801036834717e-01 1.353062868118286133e+00 5.383434295654296875e-01 -8.684090375900268555e-01
3.827000000000000000e+03 6.904982757568359375e+01 3.764820098876953125e+00 6.311511993408203125e-01 1.746067285537719727e+00 7.131655216217041016e-01 -1.074424743652343750e+00
3.828000000000000000e+03 3.021006774902343750e+01 8.804387092590332031e+00 -2.935158610343933105e-01 -1.428506523370742798e-01 -1.309099644422531128e-01 5.267979502677917480e-01
3.829000000000000000e+03 2.829345512390136719e+01 6.768950939178466797e+00 -3.132137954235076904e-01 -1.684772223234176636e-01 -1.445073038339614868e-01 5.048561692237854004e-01
3.830000000000000000e+03 6.491467285156250000e+01 -2.242255210876464844e+01 7.923123240470886230e-01 1.460875511169433594e+00 6.759563684463500977e-01 5.881500840187072754e-01
3.831000000000000000e+03 6.248762130737304688e+01 -2.486117935180664062e+01 8.057222366333007812e-01 1.201455593109130859e+00 6.021533608436584473e-01 3.680079281330108643e-01
3.832000000000000000e+03 3.055371665954589844e+01 1.160326862335205078e+01 -2.366837412118911743e-01 -1.557812988758087158e-01 -1.177395135164260864e-01 5.039063692092895508e-01
3.833000000000000000e+03 3.056685256958007812e+01 1.628339958190917969e+01 -9.006138145923614502e-02 -1.875517815351486206e-01 -8.328395336866378784e-02 4.165040850639343262e-01
3.834000000000000000e+03 6.615831756591796875e+01 7.254015922546386719e+00 6.696192622184753418e-01 1.415260553359985352e+00 6.254639029502868652e-01 -7.725769877433776855e-01
3.835000000000000000e+03 2.870777702331542969e+01 8.419632911682128906e+00 -3.028483688831329346e-01 -1.757589131593704224e-01 -1.435821801424026489e-01 5.153661966323852539e-01
3.836000000000000000e+03 2.583190155029296875e+01 -2.093747329711914062e+01 -1.080476120114326477e-01 -1.249941959977149963e-01 -6.991253793239593506e-02 -3.023216724395751953e-01
3.837000000000000000e+03 2.824908828735351562e+01 -1.862855339050292969e+01 -1.894958466291427612e-01 -9.741565585136413574e-02 -8.607345074415206909e-02 -3.303166925907135010e-01
3.838000000000000000e+03 2.628529167175292969e+01 -1.964302253723144531e+01 -1.459776759147644043e-01 -1.083663403987884521e-01 -7.630320638418197632e-02 -3.035669624805450439e-01
3.839000000000000000e+03 6.570996856689453125e+01 2.064016723632812500e+01 5.359919071197509766e-01 2.473896741867065430e+00 9.029666185379028320e-01 -6.764608025550842285e-01
3.840000000000000000e+03 6.098054504394531250e+01 1.548725223541259766e+01 6.716839671134948730e-01 1.290911912918090820e+00 5.887787342071533203e-01 -4.500992000102996826e-01
3.841000000000000000e+03 2.579784584045410156e+01 -2.393421936035156250e+01 -2.953768474981188774e-03 -1.679399609565734863e-01 -5.126811936497688293e-02 -2.912152409553527832e-01
3.842000000000000000e+03 2.394297218322753906e+01 -2.381149864196777344e+01 -1.222573313862085342e-02 -1.672412008047103882e-01 -5.384008213877677917e-02 -2.697135210037231445e-01
3.843000000000000000e+03 2.971468353271484375e+01 -2.293445777893066406e+01 -1.902795024216175079e-02 -1.602781862020492554e-01 -5.379184335470199585e-02 -3.476006686687469482e-01
3.844000000000000000e+03 3.061882209777832031e+01 1.930873870849609375e+01 2.224254235625267029e-02 -2.035495340824127197e-01 -5.439209938049316406e-02 3.493041992187500000e-01
3.845000000000000000e+03 2.774158096313476562e+01 1.910422706604003906e+01 -5.827881023287773132e-02 -2.903240025043487549e-01 -1.045808419585227966e-01 3.282258510589599609e-01
3.846000000000000000e+03 6.340047836303710938e+01 9.700093269348144531e+00 6.473634243011474609e-01 1.146020531654357910e+00 5.380151867866516113e-01 -5.283198356628417969e-01
3.847000000000000000e+03 2.452933502197265625e+01 2.575687026977539062e+01 1.582224071025848389e-01 -4.349978268146514893e-01 -8.303263038396835327e-02 2.100170552730560303e-01
3.848000000000000000e+03 6.144258880615234375e+01 -2.961268234252929688e+01 8.406424522399902344e-01 1.410828471183776855e+00 6.754412651062011719e-01 3.198442459106445312e-01
3.849000000000000000e+03 6.639955139160156250e+01 -3.315160369873046875e+01 6.577000021934509277e-01 2.692122220993041992e+00 1.004946708679199219e+00 4.906177818775177002e-01
3.850000000000000000e+03 8.190860748291015625e+00 3.658030319213867188e+01 9.507305175065994263e-02 -4.711847901344299316e-01 -1.128335222601890564e-01 1.067361757159233093e-01
3.851000000000000000e+03 5.913375473022460938e+01 7.159392833709716797e+00 1.761092841625213623e-01 3.350988626480102539e-01 1.533624380826950073e-01 5.839072167873382568e-02
3.852000000000000000e+03 5.668211364746093750e+01 6.014680385589599609e+00 -1.198584735393524170e-01 1.326952576637268066e-01 3.851032815873622894e-03 2.904815971851348877e-01
3.853000000000000000e+03 5.101174926757812500e+01 6.033861637115478516e+00 -3.158294260501861572e-01 1.898012869060039520e-02 -8.905478566884994507e-02 4.843455851078033447e-01
3.854000000000000000e+03 7.442375183105468750e+01 -1.376705074310302734e+01 4.574921131134033203e-01 5.276620864868164062e+00 1.720233917236328125e+00 2.264339923858642578e+00
3.855000000000000000e+03 5.927752304077148438e+01 5.983481407165527344e+00 3.022767044603824615e-02 2.492076754570007324e-01 8.383060246706008911e-02 1.309752613306045532e-01
3.856000000000000000e+03 3.161215209960937500e+01 3.083790540695190430e+00 -4.052941203117370605e-01 -7.110812515020370483e-02 -1.429206728935241699e-01 4.802611470222473145e-01
3.857000000000000000e+03 5.464726257324218750e+01 -1.805294609069824219e+01 -1.724318563938140869e-01 4.379405640065670013e-03 -5.041573569178581238e-02 -4.506998062133789062e-01
3.858000000000000000e+03 6.130633544921875000e+01 -1.714469528198242188e+01 2.639770321547985077e-02 2.739996016025543213e-01 9.011919796466827393e-02 -1.510238349437713623e-01
3.859000000000000000e+03 6.815898895263671875e+01 -1.729044723510742188e+01 6.613941192626953125e-01 1.581461310386657715e+00 6.728566288948059082e-01 8.594388365745544434e-01
3.860000000000000000e+03 5.256000137329101562e+01 5.726187705993652344e+00 -3.123477101325988770e-01 3.140393272042274475e-02 -8.428313583135604858e-02 4.554457664489746094e-01
3.861000000000000000e+03 6.744838714599609375e+01 2.494753360748291016e+00 2.120542228221893311e-01 9.115095138549804688e-01 3.370691239833831787e-01 -5.635176897048950195e-01
3.862000000000000000e+03 5.712717437744140625e+01 -1.777010345458984375e+01 -1.258194148540496826e-01 7.187171280384063721e-02 -1.618430949747562408e-02 -3.740499019622802734e-01
3.863000000000000000e+03 5.950569534301757812e+01 -1.860646820068359375e+01 1.470893770456314087e-01 2.400437593460083008e-01 1.161399409174919128e-01 -1.921888142824172974e-01
3.864000000000000000e+03 3.231825637817382812e+01 3.806079387664794922e+00 -4.049682617187500000e-01 -7.068210095167160034e-02 -1.426951140165328979e-01 5.044383406639099121e-01
3.865000000000000000e+03 6.733590698242187500e+01 -1.952579879760742188e+01 7.663966417312622070e-01 1.711049914360046387e+00 7.432339787483215332e-01 8.378979563713073730e-01
3.866000000000000000e+03 6.433557891845703125e+01 -1.762042045593261719e+01 3.709903359413146973e-01 6.533195972442626953e-01 3.072929680347442627e-01 2.185691744089126587e-01
3.867000000000000000e+03 6.611378479003906250e+01 4.517830848693847656e+00 4.292849898338317871e-01 9.842315912246704102e-01 4.240549802780151367e-01 -5.521359443664550781e-01
3.868000000000000000e+03 6.590061187744140625e+01 2.882216453552246094e+00 1.018778979778289795e-01 6.456725597381591797e-01 2.242651432752609253e-01 -3.275149166584014893e-01
3.869000000000000000e+03 5.464046096801757812e+01 4.276946067810058594e+00 -4.714993238449096680e-01 1.812563277781009674e-02 -1.360121071338653564e-01 4.443628787994384766e-01
3.870000000000000000e+03 3.801551055908203125e+01 -1.911384582519531250e+01 -2.151430845260620117e-01 -1.274813562631607056e-01 -1.027873381972312927e-01 -4.538513422012329102e-01
3.871000000000000000e+03 5.552323150634765625e+01 6.378069400787353516e+00 -1.193861961364746094e-01 1.183077469468116760e-01 -3.235346521250903606e-04 3.242563307285308838e-01
3.872000000000000000e+03 3.790159988403320312e+01 3.303047895431518555e+00 -5.396967530250549316e-01 -3.202277421951293945e-02 -1.715158671140670776e-01 5.342191457748413086e-01
3.873000000000000000e+03 3.749735641479492188e+01 5.190148353576660156e+00 -4.405968785285949707e-01 -4.041767492890357971e-02 -1.443043649196624756e-01 5.624892711639404297e-01
3.874000000000000000e+03 6.124371719360351562e+01 -1.898643875122070312e+01 3.305110633373260498e-01 4.283725321292877197e-01 2.276650816202163696e-01 -1.652850396931171417e-02
3.875000000000000000e+03 4.554651641845703125e+01 -1.788825798034667969e+01 -3.359417319297790527e-01 -9.533688426017761230e-02 -1.293835788965225220e-01 -5.192199945449829102e-01
3.876000000000000000e+03 4.261069107055664062e+01 -1.667621803283691406e+01 -4.370679855346679688e-01 -9.702292829751968384e-02 -1.602272689342498779e-01 -4.868097305297851562e-01
3.877000000000000000e+03 6.188468551635742188e+01 4.331727981567382812e+00 -3.435902297496795654e-02 3.149595558643341064e-01 8.418016135692596436e-02 2.904460392892360687e-02
3.878000000000000000e+03 2.818505859375000000e+01 4.789376735687255859e+00 -3.141739666461944580e-01 -1.524392068386077881e-01 -1.399839520454406738e-01 4.776749610900878906e-01
3.879000000000000000e+03 2.949763870239257812e+01 3.553915023803710938e+00 -3.459751605987548828e-01 -1.094625741243362427e-01 -1.366313248872756958e-01 4.674970209598541260e-01
3.880000000000000000e+03 3.826068878173828125e+01 4.749444007873535156e+00 -4.705604314804077148e-01 -3.927063569426536560e-02 -1.529493182897567749e-01 5.551306605339050293e-01
3.881000000000000000e+03 5.348743820190429688e+01 6.276020050048828125e+00 -2.027948945760726929e-01 6.490819901227951050e-02 -4.136600717902183533e-02 4.054711759090423584e-01
3.882000000000000000e+03 5.401538467407226562e+01 5.147075176239013672e+00 -3.657534718513488770e-01 2.666544914245605469e-02 -1.017264053225517273e-01 4.333980381488800049e-01
3.883000000000000000e+03 6.379532241821289062e+01 5.178339958190917969e+00 2.962911128997802734e-01 6.493754386901855469e-01 2.836999595165252686e-01 -2.733213901519775391e-01
3.884000000000000000e+03 5.568243026733398438e+01 -1.865620231628417969e+01 -4.222740605473518372e-02 6.271574646234512329e-02 6.146502681076526642e-03 -3.932098448276519775e-01
3.885000000000000000e+03 6.510343933105468750e+01 6.252844810485839844e+00 5.254184603691101074e-01 1.019192576408386230e+00 4.633832871913909912e-01 -5.379816889762878418e-01
3.886000000000000000e+03 6.736720275878906250e+01 5.340415477752685547e+00 6.398628354072570801e-01 1.480573892593383789e+00 6.361309885978698730e-01 -8.502494096755981445e-01
3.887000000000000000e+03 5.385361099243164062e+01 -1.743390464782714844e+01 -2.847111523151397705e-01 -6.289592478424310684e-03 -8.730022609233856201e-02 -4.839906692504882812e-01
3.888000000000000000e+03 6.458009338378906250e+01 -1.857360839843750000e+01 4.971717298030853271e-01 8.331657648086547852e-01 3.991012275218963623e-01 3.338327109813690186e-01
3.889000000000000000e+03 3.302246856689453125e+01 -1.901870918273925781e+01 -1.946402341127395630e-01 -1.193498820066452026e-01 -9.419703483581542969e-02 -3.932828605175018311e-01
3.890000000000000000e+03 4.984922790527343750e+01 -1.804069519042968750e+01 -2.862646281719207764e-01 -7.376979291439056396e-02 -1.080103218555450439e-01 -5.142095685005187988e-01
3.891000000000000000e+03 4.659355163574218750e+01 -1.807688713073730469e+01 -3.119089305400848389e-01 -9.365999698638916016e-02 -1.216706782579421997e-01 -5.178024172782897949e-01
3.892000000000000000e+03 3.270848846435546875e+01 8.449498176574707031e+00 -2.913539111614227295e-01 -1.002798750996589661e-01 -1.174901351332664490e-01 5.443260073661804199e-01
3.893000000000000000e+03 3.989590454101562500e+01 5.956249237060546875e+00 -4.083922803401947021e-01 -3.699048236012458801e-02 -1.336148232221603394e-01 5.707586407661437988e-01
3.894000000000000000e+03 2.891024780273437500e+01 5.553717613220214844e+00 -3.239838182926177979e-01 -1.441605985164642334e-01 -1.404433250427246094e-01 4.994708597660064697e-01
3.895000000000000000e+03 3.048048782348632812e+01 7.172525405883789062e+00 -3.215374648571014404e-01 -1.250250190496444702e-01 -1.339687407016754150e-01 5.284935832023620605e-01
3.896000000000000000e+03 6.505553436279296875e+01 -1.739670181274414062e+01 4.089566767215728760e-01 7.818812131881713867e-01 3.572513759136199951e-01 3.191452622413635254e-01
3.897000000000000000e+03 4.410878753662109375e+01 4.073797702789306641e+00 -5.799344182014465332e-01 -3.254436701536178589e-02 -1.837436407804489136e-01 5.593247413635253906e-01
3.898000000000000000e+03 6.587477111816406250e+01 1.058395195007324219e+01 7.331482172012329102e-01 1.830463409423828125e+00 7.690834999084472656e-01 -8.451555371284484863e-01
3.899000000000000000e+03 5.827690887451171875e+01 -1.906442451477050781e+01 1.575764566659927368e-01 1.952063739299774170e-01 1.058348491787910461e-01 -2.424553185701370239e-01
3.900000000000000000e+03 4.892435073852539062e+01 -1.978805160522460938e+01 -1.095483228564262390e-01 -7.957080006599426270e-02 -5.673573538661003113e-02 -5.005852580070495605e-01
3.901000000000000000e+03 6.554309082031250000e+01 -2.067744064331054688e+01 7.573645114898681641e-01 1.384783148765563965e+00 6.426442861557006836e-01 6.126106977462768555e-01
3.902000000000000000e+03 3.164636039733886719e+01 4.401489257812500000e+00 -3.821116983890533447e-01 -8.358776569366455078e-02 -1.397098302841186523e-01 5.074937939643859863e-01
3.903000000000000000e+03 3.145137977600097656e+01 1.070559024810791016e+01 -2.417476475238800049e-01 -1.342325508594512939e-01 -1.127940639853477478e-01 5.204108357429504395e-01
3.904000000000000000e+03 3.760289001464843750e+01 6.168314456939697266e+00 -3.844142556190490723e-01 -4.410706087946891785e-02 -1.285564005374908447e-01 5.665400028228759766e-01
3.905000000000000000e+03 4.232826232910156250e+01 4.770489215850830078e+00 -5.041673779487609863e-01 -3.403040766716003418e-02 -1.614593416452407837e-01 5.659167170524597168e-01
3.906000000000000000e+03 2.956553077697753906e+01 4.921908855438232422e+00 -3.382893204689025879e-01 -1.233863681554794312e-01 -1.385027021169662476e-01 4.973595738410949707e-01
3.907000000000000000e+03 4.874922561645507812e+01 5.136301517486572266e+00 -4.659538865089416504e-01 -1.851415261626243591e-02 -1.453404128551483154e-01 5.344572663307189941e-01
3.908000000000000000e+03 4.873466491699218750e+01 -1.845287322998046875e+01 -2.470963299274444580e-01 -8.149086683988571167e-02 -9.857615828514099121e-02 -5.163347125053405762e-01
3.909000000000000000e+03 4.825616073608398438e+01 -1.745898628234863281e+01 -3.859146237373352051e-01 -8.794145286083221436e-02 -1.421568244695663452e-01 -5.234102010726928711e-01
3.910000000000000000e+03 3.944024658203125000e+01 -1.852416419982910156e+01 -2.604272067546844482e-01 -1.206200420856475830e-01 -1.143141761422157288e-01 -4.684002399444580078e-01
3.911000000000000000e+03 4.070072937011718750e+01 -1.799563217163085938e+01 -3.073323369026184082e-01 -1.135979443788528442e-01 -1.262790858745574951e-01 -4.788636565208435059e-01
3.912000000000000000e+03 3.119725036621093750e+01 8.092382431030273438e+00 -3.062064647674560547e-01 -1.197855696082115173e-01 -1.277976036071777344e-01 5.350133776664733887e-01
3.913000000000000000e+03 4.137242507934570312e+01 -1.913166236877441406e+01 -2.158304303884506226e-01 -1.226096451282501221e-01 -1.015320196747779846e-01 -4.878878295421600342e-01
3.914000000000000000e+03 3.917222213745117188e+01 -1.729748916625976562e+01 -3.487429320812225342e-01 -1.082945987582206726e-01 -1.371112614870071411e-01 -4.527771770954132080e-01
3.915000000000000000e+03 6.681164550781250000e+01 2.201894950866699219e+01 4.760467112064361572e-01 2.708624124526977539e+00 9.554012417793273926e-01 -6.736950278282165527e-01
3.916000000000000000e+03 6.472467803955078125e+01 1.922574043273925781e+01 5.925560593605041504e-01 2.228578805923461914e+00 8.463404774665832520e-01 -6.874148249626159668e-01
3.917000000000000000e+03 6.391901016235351562e+01 1.778177261352539062e+01 6.504744887351989746e-01 1.960896253585815430e+00 7.834112048149108887e-01 -6.680374741554260254e-01
3.918000000000000000e+03 6.238553237915039062e+01 -3.231253433227539062e+01 8.240289688110351562e-01 1.712131261825561523e+00 7.608481049537658691e-01 3.270947039127349854e-01
3.919000000000000000e+03 6.487930297851562500e+01 1.556461429595947266e+01 6.798824667930603027e-01 2.034968614578247070e+00 8.144553303718566895e-01 -7.613942027091979980e-01
3.920000000000000000e+03 6.519535827636718750e+01 1.197426986694335938e+01 7.366256713867187500e-01 1.775099158287048340e+00 7.535174489021301270e-01 -7.957739830017089844e-01
3.921000000000000000e+03 2.948482322692871094e+01 1.486826133728027344e+01 -1.599638015031814575e-01 -2.025930583477020264e-01 -1.087670624256134033e-01 4.359785020351409912e-01
3.922000000000000000e+03 3.189913940429687500e+01 1.491479396820068359e+01 -1.074374988675117493e-01 -1.491624861955642700e-01 -7.697999477386474609e-02 4.531302452087402344e-01
3.923000000000000000e+03 2.449907684326171875e+01 2.069566345214843750e+01 -4.179172590374946594e-02 -4.156029522418975830e-01 -1.372184008359909058e-01 2.744164168834686279e-01
3.924000000000000000e+03 3.455435180664062500e+01 -1.878463745117187500e+01 -2.164766937494277954e-01 -1.201623082160949707e-01 -1.009917035698890686e-01 -4.112197160720825195e-01
3.925000000000000000e+03 6.076707458496093750e+01 -2.509440803527832031e+01 7.779384851455688477e-01 9.337801337242126465e-01 5.135155916213989258e-01 2.353468239307403564e-01
3.926000000000000000e+03 6.100874328613281250e+01 -2.721305656433105469e+01 8.211838006973266602e-01 1.137522935867309570e+00 5.876120328903198242e-01 2.735723257064819336e-01
3.927000000000000000e+03 3.146767425537109375e+01 -2.078714752197265625e+01 -1.047919020056724548e-01 -1.373365968465805054e-01 -7.263854891061782837e-02 -3.784320652484893799e-01
3.928000000000000000e+03 3.143853187561035156e+01 -1.911922073364257812e+01 -1.829455792903900146e-01 -1.150251999497413635e-01 -8.939123153686523438e-02 -3.738262355327606201e-01
3.929000000000000000e+03 2.614859390258789062e+01 2.001007461547851562e+01 -4.397489875555038452e-02 -3.419055640697479248e-01 -1.157641410827636719e-01 3.043898642063140869e-01
3.930000000000000000e+03 2.520128822326660156e+01 2.249710845947265625e+01 3.706689924001693726e-02 -4.017560482025146484e-01 -1.094067469239234924e-01 2.460565567016601562e-01
3.931000000000000000e+03 6.627017211914062500e+01 3.473065185546875000e+01 2.985976040363311768e-01 2.743364572525024414e+00 9.125886559486389160e-01 -2.407874614000320435e-01
3.932000000000000000e+03 6.711777496337890625e+01 4.097080612182617188e+01 2.435791045427322388e-01 2.848518610000610352e+00 9.276292920112609863e-01 -4.181027784943580627e-02
3.933000000000000000e+03 1.224900054931640625e+01 -3.451613616943359375e+01 8.008996397256851196e-02 -2.408692538738250732e-01 -4.823378846049308777e-02 -1.001479402184486389e-01
3.934000000000000000e+03 2.567836570739746094e+01 -2.221081733703613281e+01 -5.735912173986434937e-02 -1.457065790891647339e-01 -6.091970950365066528e-02 -3.003582358360290527e-01
3.935000000000000000e+03 2.775847816467285156e+01 -2.348352432250976562e+01 -1.355425547808408737e-02 -1.633890569210052490e-01 -5.308299139142036438e-02 -3.213866055011749268e-01
3.936000000000000000e+03 1.270394992828369141e+01 3.442052459716796875e+01 1.779973357915878296e-01 -5.050076246261596680e-01 -9.810309112071990967e-02 1.619218736886978149e-01
3.937000000000000000e+03 1.704917144775390625e+01 2.736178779602050781e+01 1.413343548774719238e-01 -5.687103867530822754e-01 -1.282128095626831055e-01 2.364409863948822021e-01
3.938000000000000000e+03 7.404139709472656250e+01 -1.488159656524658203e+01 6.049699783325195312e-01 5.052356243133544922e+00 1.697197914123535156e+00 2.094868421554565430e+00
3.939000000000000000e+03 5.188586425781250000e+01 6.802999496459960938e+00 -1.990112513303756714e-01 4.746776819229125977e-02 -4.546304419636726379e-02 4.382324814796447754e-01
3.940000000000000000e+03 3.241307067871093750e+01 5.195186614990234375e+00 -3.769522905349731445e-01 -8.107594400644302368e-02 -1.374084800481796265e-01 5.265036821365356445e-01
3.941000000000000000e+03 6.618022918701171875e+01 -1.773605537414550781e+01 5.541282892227172852e-01 1.076309561729431152e+00 4.891313314437866211e-01 5.281692147254943848e-01
3.942000000000000000e+03 6.685887908935546875e+01 -1.719256973266601562e+01 5.487872958183288574e-01 1.155877113342285156e+00 5.113993287086486816e-01 6.074172854423522949e-01
3.943000000000000000e+03 3.521828842163085938e+01 4.849503040313720703e+00 -4.230868518352508545e-01 -5.316530168056488037e-02 -1.428756415843963623e-01 5.425961613655090332e-01
3.944000000000000000e+03 3.405859756469726562e+01 5.850214004516601562e+00 -3.760879933834075928e-01 -6.790813058614730835e-02 -1.331988424062728882e-01 5.471569895744323730e-01
3.945000000000000000e+03 6.300936508178710938e+01 4.067525863647460938e+00 1.569097489118576050e-02 4.155575633049011230e-01 1.293745636940002441e-01 -5.898257717490196228e-02
3.946000000000000000e+03 6.398351669311523438e+01 4.348106384277343750e+00 1.762990206480026245e-01 5.574715733528137207e-01 2.201311886310577393e-01 -2.136040329933166504e-01
3.947000000000000000e+03 3.630201339721679688e+01 6.743148803710937500e+00 -3.623033165931701660e-01 -5.504340305924415588e-02 -1.252040117979049683e-01 5.653319954872131348e-01
3.948000000000000000e+03 3.522095108032226562e+01 5.818566322326660156e+00 -3.881912231445312500e-01 -5.759981274604797363e-02 -1.337373107671737671e-01 5.525607466697692871e-01
3.949000000000000000e+03 6.360560226440429688e+01 -2.281568527221679688e+01 7.662655115127563477e-01 1.200640559196472168e+00 5.900717973709106445e-01 4.422104656696319580e-01
3.950000000000000000e+03 6.226758956909179688e+01 -1.974406242370605469e+01 4.831713438034057617e-01 6.313918232917785645e-01 3.343689441680908203e-01 1.384538263082504272e-01
3.951000000000000000e+03 6.294456481933593750e+01 -1.849864959716796875e+01 3.722995519638061523e-01 5.652335286140441895e-01 2.812599241733551025e-01 1.227857246994972229e-01
3.952000000000000000e+03 3.095706748962402344e+01 5.013362407684326172e+00 -3.603426218032836914e-01 -9.806658327579498291e-02 -1.375227570533752441e-01 5.130438804626464844e-01
3.953000000000000000e+03 5.283966827392578125e+01 7.485176086425781250e+00 -9.089627861976623535e-02 9.261362254619598389e-02 5.152032244950532913e-04 3.828006684780120850e-01
3.954000000000000000e+03 6.179853820800781250e+01 6.133041381835937500e+00 2.613425552845001221e-01 5.000274181365966797e-01 2.284109890460968018e-01 -1.179412826895713806e-01
3.955000000000000000e+03 5.981769180297851562e+01 4.948509216308593750e+00 -9.201452881097793579e-02 2.125634849071502686e-01 3.616468608379364014e-02 1.610151529312133789e-01
3.956000000000000000e+03 5.644960784912109375e+01 -2.058803749084472656e+01 2.520972490310668945e-01 1.839021295309066772e-01 1.307998150587081909e-01 -2.658230960369110107e-01
3.957000000000000000e+03 6.010571670532226562e+01 -1.983688735961914062e+01 3.578850626945495605e-01 3.890291750431060791e-01 2.240742743015289307e-01 -6.029168888926506042e-02
3.958000000000000000e+03 5.493469238281250000e+01 5.642668724060058594e+00 -2.494886815547943115e-01 7.164253294467926025e-02 -5.335384234786033630e-02 3.795462846755981445e-01
3.959000000000000000e+03 5.692741394042968750e+01 -1.909107398986816406e+01 8.611988276243209839e-02 1.358324736356735229e-01 6.658570468425750732e-02 -3.141443729400634766e-01
3.960000000000000000e+03 5.449974060058593750e+01 6.572661876678466797e+00 -1.314240843057632446e-01 9.697777777910232544e-02 -1.033389102667570114e-02 3.578760921955108643e-01
3.961000000000000000e+03 6.692771911621093750e+01 3.537185430526733398e+00 3.576250076293945312e-01 1.004237890243530273e+00 4.085588455200195312e-01 -5.961863398551940918e-01
3.962000000000000000e+03 6.592350769042968750e+01 -1.912470436096191406e+01 6.589292287826538086e-01 1.238336801528930664e+00 5.691798329353332520e-01 5.893307328224182129e-01
3.963000000000000000e+03 6.504000091552734375e+01 4.507510185241699219e+00 3.120568096637725830e-01 7.435890436172485352e-01 3.166937530040740967e-01 -3.751203119754791260e-01
3.964000000000000000e+03 6.507170867919921875e+01 -1.958100509643554688e+01 6.614755988121032715e-01 1.109782099723815918e+00 5.313773155212402344e-01 4.909575283527374268e-01
3.965000000000000000e+03 6.376042938232421875e+01 -1.911703872680664062e+01 5.001001358032226562e-01 7.743920683860778809e-01 3.823476731777191162e-01 2.659040391445159912e-01
3.966000000000000000e+03 3.912485504150390625e+01 5.220345497131347656e+00 -4.537269175052642822e-01 -3.903495892882347107e-02 -1.478285640478134155e-01 5.643597245216369629e-01
3.967000000000000000e+03 6.421659088134765625e+01 -1.998569869995117188e+01 6.490963697433471680e-01 9.925478100776672363e-01 4.924932420253753662e-01 4.016561210155487061e-01
3.968000000000000000e+03 6.620491027832031250e+01 5.400322437286376953e+00 5.517169833183288574e-01 1.153071880340576172e+00 5.114366412162780762e-01 -6.523932218551635742e-01
3.969000000000000000e+03 6.508272552490234375e+01 7.037176132202148438e+00 6.013957262039184570e-01 1.149597764015197754e+00 5.252980589866638184e-01 -6.026442050933837891e-01
3.970000000000000000e+03 5.909474945068359375e+01 -2.158948516845703125e+01 4.912203252315521240e-01 4.424846768379211426e-01 2.801114916801452637e-01 -4.523466527462005615e-02
3.971000000000000000e+03 4.328439712524414062e+01 5.255934238433837891e+00 -4.670963287353515625e-01 -3.072449006140232086e-02 -1.493462473154067993e-01 5.715912580490112305e-01
3.972000000000000000e+03 4.732879257202148438e+01 5.279654502868652344e+00 -4.624747335910797119e-01 -2.115048281848430634e-02 -1.450875699520111084e-01 5.483353137969970703e-01
3.973000000000000000e+03 4.504868316650390625e+01 6.316327095031738281e+00 -3.729256987571716309e-01 -2.241165377199649811e-02 -1.186012029647827148e-01 5.574319958686828613e-01
3.974000000000000000e+03 5.070785140991210938e+01 -2.057875823974609375e+01 6.258437037467956543e-02 -2.012669481337070465e-02 1.273730210959911346e-02 -4.498848319053649902e-01
3.975000000000000000e+03 3.107391166687011719e+01 6.375487804412841797e+00 -3.362870812416076660e-01 -1.096769422292709351e-01 -1.337892115116119385e-01 5.285776257514953613e-01
3.976000000000000000e+03 3.030553627014160156e+01 5.679040908813476562e+00 -3.400837481021881104e-01 -1.169315576553344727e-01 -1.371045857667922974e-01 5.154162049293518066e-01
3.977000000000000000e+03 3.885766220092773438e+01 6.330634593963623047e+00 -3.857347071170806885e-01 -4.280841723084449768e-02 -1.285629421472549438e-01 5.694220066070556641e-01
3.978000000000000000e+03 5.283387374877929688e+01 -2.027185630798339844e+01 6.095946207642555237e-02 3.553388174623250961e-03 1.935385540127754211e-02 -4.275435209274291992e-01
3.979000000000000000e+03 5.023471450805664062e+01 -1.934312820434570312e+01 -1.268197745084762573e-01 -5.456273257732391357e-02 -5.441475287079811096e-02 -4.971727132797241211e-01
3.980000000000000000e+03 3.599136352539062500e+01 -1.836272811889648438e+01 -2.505283057689666748e-01 -1.174470707774162292e-01 -1.103926151990890503e-01 -4.279785156250000000e-01
3.981000000000000000e+03 4.626663589477539062e+01 -1.952475357055664062e+01 -1.492187231779098511e-01 -8.951020985841751099e-02 -7.161867618560791016e-02 -5.111374855041503906e-01
3.982000000000000000e+03 4.756843566894531250e+01 -1.985510826110839844e+01 -1.137931197881698608e-01 -8.984112739562988281e-02 -6.109027564525604248e-02 -5.019873380661010742e-01
3.983000000000000000e+03 3.183391189575195312e+01 9.106998443603515625e+00 -2.804487943649291992e-01 -1.147883683443069458e-01 -1.185711473226547241e-01 5.368182063102722168e-01
3.984000000000000000e+03 4.944224929809570312e+01 6.023049831390380859e+00 -3.521609604358673096e-01 -1.497067976742982864e-03 -1.060974150896072388e-01 5.184768438339233398e-01
3.985000000000000000e+03 4.798606872558593750e+01 5.883553981781005859e+00 -3.864602446556091309e-01 -1.203309651464223862e-02 -1.195480003952980042e-01 5.401011109352111816e-01
3.986000000000000000e+03 3.220306396484375000e+01 7.500747680664062500e+00 -3.197530210018157959e-01 -1.003050655126571655e-01 -1.260174214839935303e-01 5.418696999549865723e-01
3.987000000000000000e+03 3.492808532714843750e+01 -2.024945068359375000e+01 -1.350689083337783813e-01 -1.391949355602264404e-01 -8.227915316820144653e-02 -4.209541678428649902e-01
3.988000000000000000e+03 3.543403625488281250e+01 7.681723594665527344e+00 -3.124314844608306885e-01 -6.628231704235076904e-02 -1.136141419410705566e-01 5.613036155700683594e-01
3.989000000000000000e+03 6.469688415527343750e+01 7.835662364959716797e+00 6.250967383384704590e-01 1.164587974548339844e+00 5.369054079055786133e-01 -6.081572175025939941e-01
3.990000000000000000e+03 5.802981185913085938e+01 5.843468189239501953e+00 -7.074598222970962524e-02 1.768137961626052856e-01 3.182034566998481750e-02 2.200731635093688965e-01
3.991000000000000000e+03 5.683461761474609375e+01 7.334282875061035156e+00 7.853092253208160400e-02 2.241127043962478638e-01 9.079308807849884033e-02 2.058432698249816895e-01
3.992000000000000000e+03 4.418198394775390625e+01 5.821315765380859375e+00 -4.186766743659973145e-01 -2.931365370750427246e-02 -1.343970894813537598e-01 5.680546164512634277e-01
3.993000000000000000e+03 6.230844879150390625e+01 5.443428039550781250e+00 1.984313428401947021e-01 4.699280560016632080e-01 2.005078196525573730e-01 -1.068853512406349182e-01
3.994000000000000000e+03 6.137153244018554688e+01 4.876442432403564453e+00 2.741424180567264557e-02 3.329952061176300049e-01 1.081228330731391907e-01 2.691774815320968628e-02
3.995000000000000000e+03 1.532912731170654297e+01 2.961468887329101562e+01 1.720808893442153931e-01 -5.442426800727844238e-01 -1.116485372185707092e-01 2.299253046512603760e-01
3.996000000000000000e+03 3.323805618286132812e+01 -2.058582878112792969e+01 -1.143776103854179382e-01 -1.392699331045150757e-01 -7.609426230192184448e-02 -4.008330702781677246e-01
3.997000000000000000e+03 6.398682785034179688e+01 1.428089046478271484e+01 6.950650215148925781e-01 1.728132843971252441e+00 7.269593477249145508e-01 -6.864428520202636719e-01
3.998000000000000000e+03 6.284967422485351562e+01 1.171439361572265625e+01 6.846772432327270508e-01 1.259275436401367188e+00 5.831857919692993164e-01 -5.517060756683349609e-01
3.999000000000000000e+03 6.190896606445312500e+01 1.352672767639160156e+01 6.782319545745849609e-01 1.277985334396362305e+00 5.868651866912841797e-01 -5.021145939826965332e-01
4.000000000000000000e+03 4.411071395874023438e+01 -1.832668304443359375e+01 -2.902956008911132812e-01 -1.029723212122917175e-01 -1.179803833365440369e-01 -5.090541839599609375e-01
4.001000000000000000e+03 6.450189208984375000e+01 -2.111278533935546875e+01 7.342881560325622559e-01 1.193952083587646484e+00 5.784720778465270996e-01 4.905091524124145508e-01
4.002000000000000000e+03 6.332457351684570312e+01 2.027497100830078125e+01 6.044083237648010254e-01 2.008780002593994141e+00 7.839565277099609375e-01 -5.926228761672973633e-01
4.003000000000000000e+03 2.917878150939941406e+01 1.775361061096191406e+01 -7.486284524202346802e-02 -2.360530644655227661e-01 -9.327477216720581055e-02 3.735307157039642334e-01
4.004000000000000000e+03 4.769807815551757812e+01 -1.838919258117675781e+01 -2.759166061878204346e-01 -9.262461960315704346e-02 -1.105623692274093628e-01 -5.182437300682067871e-01
4.005000000000000000e+03 5.419580459594726562e+01 -2.127950668334960938e+01 2.318980693817138672e-01 1.054869517683982849e-01 1.012155041098594666e-01 -3.512921035289764404e-01
4.006000000000000000e+03 4.439140319824218750e+01 -2.022318649291992188e+01 -1.027834489941596985e-01 -1.119262501597404480e-01 -6.441290676593780518e-02 -5.006477832794189453e-01
4.007000000000000000e+03 4.330331420898437500e+01 -1.751552200317382812e+01 -3.621446490287780762e-01 -1.020493581891059875e-01 -1.392581909894943237e-01 -4.985530972480773926e-01
4.008000000000000000e+03 6.438781738281250000e+01 2.187024688720703125e+01 5.467898249626159668e-01 2.266937255859375000e+00 8.441181182861328125e-01 -6.057403087615966797e-01
4.009000000000000000e+03 2.889551734924316406e+01 2.101445388793945312e+01 4.679931327700614929e-02 -2.701115906238555908e-01 -6.699368357658386230e-02 2.981487810611724854e-01
4.010000000000000000e+03 6.063645935058593750e+01 -2.319136238098144531e+01 6.925610899925231934e-01 7.663295865058898926e-01 4.376671910285949707e-01 1.633533388376235962e-01
4.011000000000000000e+03 6.329025650024414062e+01 1.301194000244140625e+01 6.923912167549133301e-01 1.493353128433227539e+00 6.557232737541198730e-01 -6.225671172142028809e-01
4.012000000000000000e+03 6.515846252441406250e+01 1.353069210052490234e+01 6.998143792152404785e-01 1.874453425407409668e+00 7.722803354263305664e-01 -7.910205125808715820e-01
4.013000000000000000e+03 4.329556655883789062e+01 -1.930290031433105469e+01 -1.963909864425659180e-01 -1.155131459236145020e-01 -9.357123821973800659e-02 -5.034354329109191895e-01
4.014000000000000000e+03 2.573861885070800781e+01 -2.614104080200195312e+01 7.214055210351943970e-02 -1.988373994827270508e-01 -3.800905123353004456e-02 -2.744820713996887207e-01
4.015000000000000000e+03 2.244548797607421875e+01 -2.335291290283203125e+01 -2.552245557308197021e-02 -1.641390174627304077e-01 -5.689844116568565369e-02 -2.503771185874938965e-01
4.016000000000000000e+03 1.965117454528808594e+01 -2.527824592590332031e+01 1.036088913679122925e-02 -1.921922415494918823e-01 -5.454940348863601685e-02 -2.078687846660614014e-01
4.017000000000000000e+03 1.950970458984375000e+01 -2.777714347839355469e+01 6.443469971418380737e-02 -2.182778865098953247e-01 -4.615295678377151489e-02 -1.924811154603958130e-01
4.018000000000000000e+03 2.222960090637207031e+01 2.753712654113769531e+01 1.847001016139984131e-01 -4.900961518287658691e-01 -9.161882102489471436e-02 1.935847848653793335e-01
4.019000000000000000e+03 3.307653427124023438e+01 4.533288478851318359e+00 -3.996329605579376221e-01 -6.809381395578384399e-02 -1.403180360794067383e-01 5.236641168594360352e-01
4.020000000000000000e+03 3.294896697998046875e+01 6.126794815063476562e+00 -3.600796461105346680e-01 -8.024163544178009033e-02 -1.320963799953460693e-01 5.410953760147094727e-01
4.021000000000000000e+03 6.336523818969726562e+01 5.979492187500000000e+00 3.609417974948883057e-01 6.910364031791687012e-01 3.155934512615203857e-01 -2.897578775882720947e-01
4.022000000000000000e+03 6.543786621093750000e+01 -1.819878768920898438e+01 5.385791063308715820e-01 9.680138230323791504e-01 4.519778788089752197e-01 4.420990049839019775e-01
4.023000000000000000e+03 3.403678131103515625e+01 4.820000171661376953e+00 -4.100804328918457031e-01 -6.115262210369110107e-02 -1.413699090480804443e-01 5.337958335876464844e-01
4.024000000000000000e+03 6.216779708862304688e+01 -2.305620193481445312e+01 7.366951704025268555e-01 9.636602401733398438e-01 5.101066231727600098e-01 3.009887635707855225e-01
4.025000000000000000e+03 5.258533859252929688e+01 1.080125713348388672e+01 2.113730311393737793e-01 2.196428328752517700e-01 1.293047666549682617e-01 2.661781609058380127e-01
4.026000000000000000e+03 3.425372314453125000e+01 6.861222267150878906e+00 -3.429981470108032227e-01 -7.273160666227340698e-02 -1.247189268469810486e-01 5.542528629302978516e-01
4.027000000000000000e+03 5.874742126464843750e+01 -2.031211280822753906e+01 3.279021978378295898e-01 3.116506934165954590e-01 1.918658763170242310e-01 -1.432254910469055176e-01
4.028000000000000000e+03 5.686878967285156250e+01 -2.473124313354492188e+01 6.318418979644775391e-01 4.566697776317596436e-01 3.265535235404968262e-01 -6.962905824184417725e-02
4.029000000000000000e+03 5.020798873901367188e+01 6.969098567962646484e+00 -2.313355654478073120e-01 3.372733667492866516e-02 -5.928247049450874329e-02 4.791918694972991943e-01
4.030000000000000000e+03 5.503152084350585938e+01 -1.991794586181640625e+01 1.028975844383239746e-01 8.283682912588119507e-02 5.572032555937767029e-02 -3.629199862480163574e-01
4.031000000000000000e+03 4.924914550781250000e+01 -2.148452186584472656e+01 1.039676293730735779e-01 -4.771343991160392761e-02 1.687625609338283539e-02 -4.514470100402832031e-01
4.032000000000000000e+03 6.199644851684570312e+01 -2.131386947631835938e+01 6.094793081283569336e-01 7.515667676925659180e-01 4.083138108253479004e-01 1.983705163002014160e-01
4.033000000000000000e+03 6.499910736083984375e+01 5.389440059661865234e+00 4.352838695049285889e-01 8.702244758605957031e-01 3.916525244712829590e-01 -4.612299203872680664e-01
4.034000000000000000e+03 6.277140426635742188e+01 6.718827724456787109e+00 3.990190923213958740e-01 6.916368007659912109e-01 3.271967768669128418e-01 -2.646356523036956787e-01
4.035000000000000000e+03 6.220748519897460938e+01 7.428331375122070312e+00 4.231263101100921631e-01 6.845829486846923828e-01 3.323127627372741699e-01 -2.511161565780639648e-01
4.036000000000000000e+03 6.425706481933593750e+01 6.588285446166992188e+00 5.008859038352966309e-01 8.850865364074707031e-01 4.157917201519012451e-01 -4.512788653373718262e-01
4.037000000000000000e+03 6.462672424316406250e+01 1.032823371887207031e+01 7.197253704071044922e-01 1.467159152030944824e+00 6.560653448104858398e-01 -7.012612223625183105e-01
4.038000000000000000e+03 3.323070526123046875e+01 7.110649585723876953e+00 -3.311861753463745117e-01 -8.404838293790817261e-02 -1.245703697204589844e-01 5.493671298027038574e-01
4.039000000000000000e+03 3.195068740844726562e+01 6.525670051574707031e+00 -3.402756750583648682e-01 -9.831243008375167847e-02 -1.315764337778091431e-01 5.362206101417541504e-01
4.040000000000000000e+03 3.175067901611328125e+01 1.253405284881591797e+01 -1.908043026924133301e-01 -1.372858732938766479e-01 -9.842704981565475464e-02 4.970324039459228516e-01
4.041000000000000000e+03 3.235005187988281250e+01 1.013834381103515625e+01 -2.505902349948883057e-01 -1.120471060276031494e-01 -1.087912023067474365e-01 5.338723063468933105e-01
4.042000000000000000e+03 4.242242431640625000e+01 -1.833098411560058594e+01 -2.855587005615234375e-01 -1.112718805670738220e-01 -1.190491765737533569e-01 -4.957289993762969971e-01
4.043000000000000000e+03 3.305908203125000000e+01 1.351278114318847656e+01 -1.324221044778823853e-01 -1.197648346424102783e-01 -7.565608620643615723e-02 4.868768453598022461e-01
4.044000000000000000e+03 6.089909362792968750e+01 1.953973770141601562e+01 6.426200866699218750e-01 1.561124682426452637e+00 6.611234545707702637e-01 -4.651259481906890869e-01
4.045000000000000000e+03 3.652289581298828125e+01 -1.976027679443359375e+01 -1.666737943887710571e-01 -1.343763917684555054e-01 -9.031505137681961060e-02 -4.385072290897369385e-01
4.046000000000000000e+03 3.723300170898437500e+01 7.103412151336669922e+00 -3.377957344055175781e-01 -4.853590950369834900e-02 -1.158994957804679871e-01 5.686143636703491211e-01
4.047000000000000000e+03 4.457256698608398438e+01 7.442863941192626953e+00 -2.892903089523315430e-01 -1.842375472187995911e-02 -9.231422096490859985e-02 5.531482696533203125e-01
4.048000000000000000e+03 4.238273239135742188e+01 9.950790405273437500e+00 -1.374184191226959229e-01 -1.376095227897167206e-02 -4.535381123423576355e-02 5.337888002395629883e-01
4.049000000000000000e+03 6.313607025146484375e+01 8.092428207397460938e+00 5.422514677047729492e-01 9.026813507080078125e-01 4.334798753261566162e-01 -3.998084962368011475e-01
4.050000000000000000e+03 4.757651901245117188e+01 7.439607143402099609e+00 -2.451764643192291260e-01 4.229747690260410309e-03 -7.228401303291320801e-02 5.178745985031127930e-01
4.051000000000000000e+03 6.080907058715820312e+01 5.562955856323242188e+00 9.435213357210159302e-02 3.408930599689483643e-01 1.305735558271408081e-01 3.103565797209739685e-02
4.052000000000000000e+03 3.048487281799316406e+01 2.289636039733886719e+01 1.427257061004638672e-01 -2.323002368211746216e-01 -2.687236294150352478e-02 2.729905247688293457e-01
4.053000000000000000e+03 4.058351898193359375e+01 7.022747039794921875e+00 -3.372133374214172363e-01 -3.713300451636314392e-02 -1.123039051890373230e-01 5.700985193252563477e-01
4.054000000000000000e+03 5.814981079101562500e+01 8.609968185424804688e+00 2.887811660766601562e-01 3.948383033275604248e-01 2.050858438014984131e-01 4.087699204683303833e-02
4.055000000000000000e+03 5.556061553955078125e+01 1.001320648193359375e+01 2.778056263923645020e-01 3.163559436798095703e-01 1.782484799623489380e-01 1.460756063461303711e-01
4.056000000000000000e+03 5.371042633056640625e+01 8.172640800476074219e+00 9.412351995706558228e-03 1.383548080921173096e-01 4.433014988899230957e-02 3.298899829387664795e-01
4.057000000000000000e+03 5.456713104248046875e+01 7.590178012847900391e+00 -2.492891065776348114e-02 1.360622793436050415e-01 3.334001079201698303e-02 3.155093193054199219e-01
4.058000000000000000e+03 6.165433120727539062e+01 1.705842018127441406e+01 6.661286354064941406e-01 1.518956422805786133e+00 6.555255055427551270e-01 -5.148006081581115723e-01
4.059000000000000000e+03 6.041173553466796875e+01 1.400175380706787109e+01 6.539030671119689941e-01 1.084976911544799805e+00 5.216640233993530273e-01 -3.741015493869781494e-01
4.060000000000000000e+03 3.444077682495117188e+01 7.819444656372070312e+00 -3.095850050449371338e-01 -7.596825808286666870e-02 -1.156659796833992004e-01 5.567567348480224609e-01
4.061000000000000000e+03 4.012369155883789062e+01 -1.989737701416015625e+01 -1.550158858299255371e-01 -1.330748498439788818e-01 -8.642721921205520630e-02 -4.750367105007171631e-01
4.062000000000000000e+03 4.227192687988281250e+01 -2.030432510375976562e+01 -1.140866801142692566e-01 -1.277723163366317749e-01 -7.255769520998001099e-02 -4.905284047126770020e-01
4.063000000000000000e+03 6.322074890136718750e+01 1.633713531494140625e+01 6.721946597099304199e-01 1.739882946014404297e+00 7.236232757568359375e-01 -6.155197620391845703e-01
4.064000000000000000e+03 2.829743957519531250e+01 -2.595928955078125000e+01 8.730672299861907959e-02 -1.983343809843063354e-01 -3.330829739570617676e-02 -3.092798590660095215e-01
4.065000000000000000e+03 3.203385925292968750e+01 1.762479782104492188e+01 -1.138177700340747833e-02 -1.599926948547363281e-01 -5.141234025359153748e-02 3.938857913017272949e-01
4.066000000000000000e+03 4.574509429931640625e+01 -2.103216934204101562e+01 -8.517515845596790314e-03 -9.898897260427474976e-02 -3.225194662809371948e-02 -4.903002381324768066e-01
4.067000000000000000e+03 4.743860244750976562e+01 -2.166508865356445312e+01 8.135843276977539062e-02 -7.277689129114151001e-02 2.574462909251451492e-03 -4.724969267845153809e-01
4.068000000000000000e+03 6.294005966186523438e+01 2.318182563781738281e+01 5.537021756172180176e-01 2.078023433685302734e+00 7.895176410675048828e-01 -5.185953974723815918e-01
4.069000000000000000e+03 3.357330322265625000e+01 -2.229498100280761719e+01 -2.987743169069290161e-02 -1.613206863403320312e-01 -5.735943466424942017e-02 -4.020668864250183105e-01
4.070000000000000000e+03 3.712579727172851562e+01 -2.133587455749511719e+01 -6.898585706949234009e-02 -1.516406685113906860e-01 -6.618795543909072876e-02 -4.437013566493988037e-01
4.071000000000000000e+03 2.250212478637695312e+01 -2.819526672363281250e+01 9.515714645385742188e-02 -2.199165374040603638e-01 -3.742781654000282288e-02 -2.202502042055130005e-01
4.072000000000000000e+03 2.961120033264160156e+01 -2.082227134704589844e+01 -1.052845865488052368e-01 -1.322696954011917114e-01 -7.126628607511520386e-02 -3.535261154174804688e-01
4.073000000000000000e+03 3.870090866088867188e+01 -2.064480590820312500e+01 -1.051405146718025208e-01 -1.431036144495010376e-01 -7.447323948144912720e-02 -4.619517624378204346e-01
4.074000000000000000e+03 5.828094863891601562e+01 1.147595691680908203e+01 4.967716038227081299e-01 6.321009993553161621e-01 3.386617898941040039e-01 -1.132382974028587341e-01
4.075000000000000000e+03 1.341875457763671875e+01 -3.086824226379394531e+01 6.604688614606857300e-02 -2.298935949802398682e-01 -4.915401339530944824e-02 -1.334008723497390747e-01
4.076000000000000000e+03 2.696626281738281250e+01 2.192155838012695312e+01 5.244676396250724792e-02 -3.290678858757019043e-01 -8.298633247613906860e-02 2.732424139976501465e-01
4.077000000000000000e+03 2.651219367980957031e+01 2.797116851806640625e+01 2.491579353809356689e-01 -3.711382448673248291e-01 -3.659409284591674805e-02 1.829909682273864746e-01
4.078000000000000000e+03 3.350162887573242188e+01 7.995943069458007812e+00 -3.069306612014770508e-01 -8.747390657663345337e-02 -1.183213666081428528e-01 5.502533912658691406e-01
4.079000000000000000e+03 6.130033493041992188e+01 6.827797889709472656e+00 3.050959706306457520e-01 5.131974816322326660e-01 2.454880475997924805e-01 -1.196439042687416077e-01
4.080000000000000000e+03 3.637228393554687500e+01 5.927393913269042969e+00 -3.915547430515289307e-01 -5.215245485305786133e-02 -1.331121623516082764e-01 5.581177473068237305e-01
4.081000000000000000e+03 5.206084442138671875e+01 8.735417366027832031e+00 9.321820922195911407e-03 1.165137663483619690e-01 3.775067627429962158e-02 3.679394721984863281e-01
4.082000000000000000e+03 6.084656143188476562e+01 7.483826637268066406e+00 3.352842032909393311e-01 5.193415284156799316e-01 2.563877105712890625e-01 -1.196097135543823242e-01
4.083000000000000000e+03 5.177243804931640625e+01 -2.168092536926269531e+01 1.853039413690567017e-01 8.251791819930076599e-03 5.806671828031539917e-02 -4.059962332248687744e-01
4.084000000000000000e+03 5.011413955688476562e+01 9.066287994384765625e+00 -1.808002963662147522e-02 8.524845540523529053e-02 2.015052922070026398e-02 4.185136258602142334e-01
4.085000000000000000e+03 3.924303054809570312e+01 7.728721141815185547e+00 -3.020758628845214844e-01 -4.083361104130744934e-02 -1.028728485107421875e-01 5.690688490867614746e-01
4.086000000000000000e+03 4.826640319824218750e+01 8.542849540710449219e+00 -1.210006326436996460e-01 3.223440423607826233e-02 -2.662986889481544495e-02 4.848005175590515137e-01
4.087000000000000000e+03 4.669082260131835938e+01 8.180311203002929688e+00 -1.930604577064514160e-01 8.786941878497600555e-03 -5.528205633163452148e-02 5.216900110244750977e-01
4.088000000000000000e+03 3.460958862304687500e+01 9.757457733154296875e+00 -2.395525425672531128e-01 -8.143672347068786621e-02 -9.629677981138229370e-02 5.450987815856933594e-01
4.089000000000000000e+03 4.726010894775390625e+01 9.049679756164550781e+00 -9.956759214401245117e-02 3.234656900167465210e-02 -2.016630768775939941e-02 4.911224544048309326e-01
4.090000000000000000e+03 4.370949554443359375e+01 1.020843315124511719e+01 -9.672354906797409058e-02 1.396368024870753288e-03 -2.859815582633018494e-02 5.145607590675354004e-01
4.091000000000000000e+03 3.363397216796875000e+01 1.117898941040039062e+01 -2.035688161849975586e-01 -1.013411805033683777e-01 -9.147299826145172119e-02 5.254551768302917480e-01
4.092000000000000000e+03 3.786255645751953125e+01 1.096637058258056641e+01 -1.543206125497817993e-01 -5.015037581324577332e-02 -6.134129688143730164e-02 5.390785336494445801e-01
4.093000000000000000e+03 5.491472244262695312e+01 -2.386053466796875000e+01 5.046739578247070312e-01 2.656037211418151855e-01 2.310833036899566650e-01 -2.094549983739852905e-01
4.094000000000000000e+03 4.162653350830078125e+01 7.910830020904541016e+00 -2.775834798812866211e-01 -2.916426025331020355e-02 -9.202431887388229370e-02 5.634030699729919434e-01
4.095000000000000000e+03 4.350556564331054688e+01 7.043594360351562500e+00 -3.272250592708587646e-01 -2.436637319624423981e-02 -1.054774299263954163e-01 5.610647201538085938e-01
4.096000000000000000e+03 6.243309783935546875e+01 8.863020896911621094e+00 5.488960146903991699e-01 8.709731698036193848e-01 4.259607493877410889e-01 -3.709113895893096924e-01
4.097000000000000000e+03 6.010173797607421875e+01 1.774822998046875000e+01 6.525983214378356934e-01 1.326450824737548828e+00 5.937147140502929688e-01 -4.051786065101623535e-01
4.098000000000000000e+03 5.123844146728515625e+01 1.012123107910156250e+01 1.007018610835075378e-01 1.446770578622817993e-01 7.361367344856262207e-02 3.492616117000579834e-01
4.099000000000000000e+03 4.408879852294921875e+01 8.749399185180664062e+00 -1.863675266504287720e-01 -1.192294713109731674e-02 -5.948714166879653931e-02 5.398100018501281738e-01
4.100000000000000000e+03 5.459337234497070312e+01 8.608132362365722656e+00 1.058752313256263733e-01 1.917411386966705322e-01 8.928491175174713135e-02 2.670775651931762695e-01
4.101000000000000000e+03 6.052718353271484375e+01 -2.139217948913574219e+01 5.384858846664428711e-01 5.749900937080383301e-01 3.340427875518798828e-01 6.676838546991348267e-02
4.102000000000000000e+03 4.341921997070312500e+01 -2.147883415222167969e+01 -4.923507571220397949e-03 -1.243113279342651367e-01 -3.877045214176177979e-02 -4.869664609432220459e-01
4.103000000000000000e+03 6.023637771606445312e+01 7.953892230987548828e+00 3.446905314922332764e-01 5.020749568939208984e-01 2.540296316146850586e-01 -9.733499586582183838e-02
4.104000000000000000e+03 6.140939331054687500e+01 1.222705554962158203e+01 6.459952592849731445e-01 1.063734889030456543e+00 5.129190683364868164e-01 -4.166369438171386719e-01
4.105000000000000000e+03 3.327247238159179688e+01 1.602883529663085938e+01 -4.054866358637809753e-02 -1.264215260744094849e-01 -5.009105429053306580e-02 4.363192319869995117e-01
4.106000000000000000e+03 5.571138000488281250e+01 -2.217380142211914062e+01 3.845893144607543945e-01 2.334236949682235718e-01 1.854038983583450317e-01 -2.320168167352676392e-01
4.107000000000000000e+03 3.599173355102539062e+01 -2.373296165466308594e+01 6.138727813959121704e-02 -1.754099130630493164e-01 -3.420679271221160889e-02 -4.141016304492950439e-01
4.108000000000000000e+03 5.540072631835937500e+01 1.147919464111328125e+01 3.698760271072387695e-01 3.934417665004730225e-01 2.289953380823135376e-01 8.978590369224548340e-02
4.109000000000000000e+03 3.222822570800781250e+01 2.076275253295898438e+01 1.041277870535850525e-01 -1.684747189283370972e-01 -1.930407993495464325e-02 3.269375562667846680e-01
4.110000000000000000e+03 6.126951217651367188e+01 2.457285690307617188e+01 5.655485391616821289e-01 1.855652332305908203e+00 7.263602614402770996e-01 -4.186959564685821533e-01
4.111000000000000000e+03 6.016910552978515625e+01 2.242163848876953125e+01 6.130949258804321289e-01 1.607267260551452637e+00 6.661086678504943848e-01 -4.128866791725158691e-01
4.112000000000000000e+03 5.781002807617187500e+01 -2.126101112365722656e+01 3.829387128353118896e-01 3.053732216358184814e-01 2.064935863018035889e-01 -1.565780788660049438e-01
4.113000000000000000e+03 2.155811500549316406e+01 -2.471135139465332031e+01 6.725810933858156204e-03 -1.836603730916976929e-01 -5.308036878705024719e-02 -2.293032258749008179e-01
4.114000000000000000e+03 2.548065948486328125e+01 -2.867225074768066406e+01 1.364594548940658569e-01 -2.266711741685867310e-01 -2.706351317465305328e-02 -2.459688335657119751e-01
4.115000000000000000e+03 3.035918998718261719e+01 -2.516501045227050781e+01 8.192390203475952148e-02 -1.899563968181610107e-01 -3.240974992513656616e-02 -3.397394120693206787e-01
4.116000000000000000e+03 7.039591217041015625e+01 2.657069206237792969e+00 6.179283857345581055e-01 2.143274068832397461e+00 8.283607363700866699e-01 -1.288592100143432617e+00
4.117000000000000000e+03 6.096702957153320312e+01 1.105623626708984375e+01 5.928546190261840820e-01 9.023097157478332520e-01 4.485493004322052002e-01 -3.314736783504486084e-01
4.118000000000000000e+03 6.158803939819335938e+01 8.107214927673339844e+00 4.367395341396331787e-01 6.697505116462707520e-01 3.319470286369323730e-01 -2.308897227048873901e-01
4.119000000000000000e+03 5.996537399291992188e+01 1.262941646575927734e+01 6.080776453018188477e-01 9.128425121307373047e-01 4.562760591506958008e-01 -2.987785935401916504e-01
4.120000000000000000e+03 4.097232055664062500e+01 9.573912620544433594e+00 -1.852809935808181763e-01 -2.712381072342395782e-02 -6.372144073247909546e-02 5.475012063980102539e-01
4.121000000000000000e+03 3.521731185913085938e+01 1.146114063262939453e+01 -1.709859371185302734e-01 -8.011376112699508667e-02 -7.532990723848342896e-02 5.289205312728881836e-01
4.122000000000000000e+03 3.805377197265625000e+01 9.489732742309570312e+00 -2.216508090496063232e-01 -4.964531958103179932e-02 -8.138883858919143677e-02 5.553894042968750000e-01
4.123000000000000000e+03 4.059228897094726562e+01 -2.392847251892089844e+01 1.348265260457992554e-01 -1.568982452154159546e-01 -6.621514447033405304e-03 -4.460001289844512939e-01
4.124000000000000000e+03 4.355424880981445312e+01 -2.417564392089843750e+01 2.042317092418670654e-01 -1.227598488330841064e-01 2.444155886769294739e-02 -4.505099356174468994e-01
4.125000000000000000e+03 4.928548049926757812e+01 7.842666625976562500e+00 -1.674538850784301758e-01 3.173552453517913818e-02 -4.071550816297531128e-02 4.780034124851226807e-01
4.126000000000000000e+03 5.107923507690429688e+01 7.911923885345458984e+00 -1.000890731811523438e-01 7.014979422092437744e-02 -8.981783874332904816e-03 4.256293773651123047e-01
4.127000000000000000e+03 6.154503631591796875e+01 9.534926414489746094e+00 5.419980883598327637e-01 8.187000751495361328e-01 4.082094430923461914e-01 -3.202013671398162842e-01
4.128000000000000000e+03 4.668935775756835938e+01 -2.366891479492187500e+01 2.315809279680252075e-01 -7.329713553190231323e-02 4.748513922095298767e-02 -4.360414147377014160e-01
4.129000000000000000e+03 3.351134872436523438e+01 8.871213912963867188e+00 -2.772970795631408691e-01 -9.340179711580276489e-02 -1.112096607685089111e-01 5.468152761459350586e-01
4.130000000000000000e+03 5.687790298461914062e+01 1.006827735900878906e+01 3.411658406257629395e-01 3.984687328338623047e-01 2.218903750181198120e-01 5.864833295345306396e-02
4.131000000000000000e+03 4.629125595092773438e+01 9.183839797973632812e+00 -1.110660135746002197e-01 1.708912663161754608e-02 -2.819306775927543640e-02 5.034295320510864258e-01
4.132000000000000000e+03 5.823576736450195312e+01 1.004870128631591797e+01 4.096596240997314453e-01 5.136928558349609375e-01 2.770057320594787598e-01 -4.323274642229080200e-02
4.133000000000000000e+03 5.938636398315429688e+01 1.602822303771972656e+01 6.483394503593444824e-01 1.099352717399597168e+00 5.243076086044311523e-01 -3.347276449203491211e-01
4.134000000000000000e+03 3.422442626953125000e+01 1.233214282989501953e+01 -1.565941572189331055e-01 -9.652244299650192261e-02 -7.593498378992080688e-02 5.120981335639953613e-01
4.135000000000000000e+03 5.035011672973632812e+01 -2.321037101745605469e+01 2.935785353183746338e-01 6.090242881327867508e-03 8.990063518285751343e-02 -3.855175971984863281e-01
4.136000000000000000e+03 5.688941192626953125e+01 8.674660682678222656e+00 2.238214761018753052e-01 3.122695088386535645e-01 1.608272939920425415e-01 1.258959174156188965e-01
4.137000000000000000e+03 6.054835891723632812e+01 1.003727531433105469e+01 5.396893620491027832e-01 7.598868012428283691e-01 3.898728489875793457e-01 -2.483886927366256714e-01
4.138000000000000000e+03 3.529021835327148438e+01 6.749917984008789062e+00 -3.518875241279602051e-01 -6.191152706742286682e-02 -1.241397112607955933e-01 5.602836608886718750e-01
4.139000000000000000e+03 3.641540527343750000e+01 7.532246112823486328e+00 -3.112399578094482422e-01 -5.739574134349822998e-02 -1.105907037854194641e-01 5.656086206436157227e-01
4.140000000000000000e+03 5.486059188842773438e+01 -2.717792320251464844e+01 6.815724372863769531e-01 3.849400281906127930e-01 3.199537396430969238e-01 -1.234484538435935974e-01
4.141000000000000000e+03 3.478929519653320312e+01 1.703951835632324219e+01 2.981465868651866913e-02 -9.572421759366989136e-02 -1.977286674082279205e-02 4.174522459506988525e-01
4.142000000000000000e+03 3.535233688354492188e+01 1.320955944061279297e+01 -1.001366674900054932e-01 -8.269067853689193726e-02 -5.484820529818534851e-02 4.977633655071258545e-01
4.143000000000000000e+03 6.242176437377929688e+01 1.866542243957519531e+01 6.423316001892089844e-01 1.756225943565368652e+00 7.195672392845153809e-01 -5.544968247413635254e-01
4.144000000000000000e+03 5.639691925048828125e+01 1.733884429931640625e+01 5.921024680137634277e-01 8.412912487983703613e-01 4.300181269645690918e-01 -1.610941588878631592e-01
4.145000000000000000e+03 3.361922454833984375e+01 1.882757568359375000e+01 6.970684230327606201e-02 -1.278185546398162842e-01 -1.743351481854915619e-02 3.726903200149536133e-01
4.146000000000000000e+03 3.785872268676757812e+01 -2.307656097412109375e+01 4.505387693643569946e-02 -1.661222875118255615e-01 -3.632052242755889893e-02 -4.379193484783172607e-01
4.147000000000000000e+03 5.732969284057617188e+01 -2.285563659667968750e+01 5.077788829803466797e-01 3.662852942943572998e-01 2.622192502021789551e-01 -1.146956980228424072e-01
4.148000000000000000e+03 5.964129257202148438e+01 1.134658622741699219e+01 5.438607931137084961e-01 7.548657059669494629e-01 3.896179795265197754e-01 -2.187499701976776123e-01
4.149000000000000000e+03 4.215075302124023438e+01 -2.273504829406738281e+01 7.331102341413497925e-02 -1.396079659461975098e-01 -1.988908275961875916e-02 -4.662177264690399170e-01
4.150000000000000000e+03 4.868104171752929688e+01 -2.501258659362792969e+01 3.823466897010803223e-01 5.580612923949956894e-03 1.163781881332397461e-01 -3.704028427600860596e-01
4.151000000000000000e+03 4.887416458129882812e+01 9.868570327758789062e+00 9.749737568199634552e-03 8.309698104858398438e-02 2.785401418805122375e-02 4.301890134811401367e-01
4.152000000000000000e+03 3.616757583618164062e+01 1.198896312713623047e+01 -1.378913372755050659e-01 -6.873226165771484375e-02 -6.198707967996597290e-02 5.226328372955322266e-01
4.153000000000000000e+03 4.498144149780273438e+01 1.035755443572998047e+01 -6.168364360928535461e-02 1.875194720923900604e-02 -1.287950947880744934e-02 4.952450692653656006e-01
4.154000000000000000e+03 4.623679733276367188e+01 1.038136768341064453e+01 -3.061019256711006165e-02 3.549878299236297607e-02 1.466577406972646713e-03 4.745868146419525146e-01
4.155000000000000000e+03 6.277056121826171875e+01 2.667704582214355469e+01 5.005601048469543457e-01 2.164696216583251953e+00 7.995768785476684570e-01 -4.313104748725891113e-01
4.156000000000000000e+03 2.856258964538574219e+01 -2.876737594604492188e+01 1.803913414478302002e-01 -2.287482023239135742e-01 -1.450705993920564651e-02 -2.783824801445007324e-01
4.157000000000000000e+03 3.198666954040527344e+01 -2.639260292053222656e+01 1.402866393327713013e-01 -2.031459808349609375e-01 -1.885780133306980133e-02 -3.421395123004913330e-01
4.158000000000000000e+03 5.773831176757812500e+01 1.658755683898925781e+01 6.193516850471496582e-01 9.381936788558959961e-01 4.672636091709136963e-01 -2.280315756797790527e-01
4.159000000000000000e+03 5.685661697387695312e+01 1.153407764434814453e+01 4.409125447273254395e-01 5.061457157135009766e-01 2.841174900531768799e-01 -9.688051417469978333e-03
4.160000000000000000e+03 6.082398986816406250e+01 8.700139045715332031e+00 4.344078004360198975e-01 6.292175054550170898e-01 3.190875947475433350e-01 -1.917854994535446167e-01
4.161000000000000000e+03 5.848004150390625000e+01 1.291641139984130859e+01 5.643165707588195801e-01 7.618611454963684082e-01 3.978533148765563965e-01 -1.811684370040893555e-01
4.162000000000000000e+03 3.454893875122070312e+01 8.778364181518554688e+00 -2.743001878261566162e-01 -8.000508695840835571e-02 -1.062915846705436707e-01 5.523601174354553223e-01
4.163000000000000000e+03 4.346257781982421875e+01 1.182499122619628906e+01 -7.608458399772644043e-03 1.866037771105766296e-02 3.315575653687119484e-03 4.831036031246185303e-01
4.164000000000000000e+03 3.919835281372070312e+01 1.116237640380859375e+01 -1.202510073781013489e-01 -3.477755934000015259e-02 -4.650856927037239075e-02 5.312171578407287598e-01
4.165000000000000000e+03 4.486082458496093750e+01 1.184949970245361328e+01 2.628492936491966248e-02 3.803113475441932678e-02 1.929481886327266693e-02 4.633383154869079590e-01
4.166000000000000000e+03 3.682233047485351562e+01 9.550221443176269531e+00 -2.301559299230575562e-01 -5.804818496108055115e-02 -8.646123111248016357e-02 5.542703866958618164e-01
4.167000000000000000e+03 5.058008956909179688e+01 1.177141571044921875e+01 1.986669450998306274e-01 1.882000565528869629e-01 1.160601004958152771e-01 3.174770474433898926e-01
4.168000000000000000e+03 4.762482452392578125e+01 1.154604911804199219e+01 7.863529026508331299e-02 8.858822286128997803e-02 5.016705393791198730e-02 4.151859283447265625e-01
4.169000000000000000e+03 4.190082550048828125e+01 -2.567682838439941406e+01 2.746460437774658203e-01 -1.505226939916610718e-01 3.723700344562530518e-02 -4.173021614551544189e-01
4.170000000000000000e+03 4.707965850830078125e+01 -2.704272460937500000e+01 4.766710400581359863e-01 -1.214781031012535095e-02 1.393569707870483398e-01 -3.419771492481231689e-01
4.171000000000000000e+03 5.691979598999023438e+01 1.310178089141845703e+01 5.145724415779113770e-01 6.224026083946228027e-01 3.410924971103668213e-01 -7.876511663198471069e-02
4.172000000000000000e+03 5.527920150756835938e+01 1.311253929138183594e+01 4.557415843009948730e-01 4.914296567440032959e-01 2.841513752937316895e-01 2.725943364202976227e-02
4.173000000000000000e+03 5.883326339721679688e+01 1.442496490478515625e+01 6.181457042694091797e-01 9.227985143661499023e-01 4.622832536697387695e-01 -2.629150152206420898e-01
4.174000000000000000e+03 3.537182235717773438e+01 1.988397598266601562e+01 1.460499912500381470e-01 -8.346639573574066162e-02 1.877507753670215607e-02 3.516146242618560791e-01
4.175000000000000000e+03 3.666688537597656250e+01 1.391289806365966797e+01 -4.650747030973434448e-02 -6.198414787650108337e-02 -3.254748508334159851e-02 4.854622483253479004e-01
4.176000000000000000e+03 3.436718750000000000e+01 1.453841686248779297e+01 -6.950177252292633057e-02 -1.000475734472274780e-01 -5.086480081081390381e-02 4.723322689533233643e-01
4.177000000000000000e+03 4.352148818969726562e+01 -2.750146484375000000e+01 4.170185029506683350e-01 -1.077777445316314697e-01 9.277222305536270142e-02 -3.704580664634704590e-01
4.178000000000000000e+03 3.439173889160156250e+01 -2.632302093505859375e+01 1.722475290298461914e-01 -2.006283998489379883e-01 -8.514259941875934601e-03 -3.638754487037658691e-01
4.179000000000000000e+03 3.669315338134765625e+01 -2.578781700134277344e+01 1.802788972854614258e-01 -1.912055909633636475e-01 -3.278008429333567619e-03 -3.923643231391906738e-01
4.180000000000000000e+03 5.429730224609375000e+01 9.810433387756347656e+00 1.998265087604522705e-01 2.386180460453033447e-01 1.315333694219589233e-01 2.233478575944900513e-01
4.181000000000000000e+03 4.751715850830078125e+01 1.021864414215087891e+01 -3.326069563627243042e-03 5.825706198811531067e-02 1.647929847240447998e-02 4.539991021156311035e-01
4.182000000000000000e+03 3.946889877319335938e+01 9.404363632202148438e+00 -2.106378972530364990e-01 -3.718562051653862000e-02 -7.434705644845962524e-02 5.555067062377929688e-01
4.183000000000000000e+03 4.060573959350585938e+01 1.140145778656005859e+01 -8.385556191205978394e-02 -1.796167157590389252e-02 -3.054516948759555817e-02 5.202853679656982422e-01
4.184000000000000000e+03 4.907767105102539062e+01 1.142387008666992188e+01 1.241414025425910950e-01 1.254478245973587036e-01 7.487677037715911865e-02 3.788995742797851562e-01
4.185000000000000000e+03 3.206743240356445312e+01 -2.448504829406738281e+01 6.018542498350143433e-02 -1.832554638385772705e-01 -3.692101314663887024e-02 -3.709595799446105957e-01
4.186000000000000000e+03 5.603738021850585938e+01 2.407886314392089844e+01 6.105185747146606445e-01 1.160707831382751465e+00 5.313678979873657227e-01 -2.090644985437393188e-01
4.187000000000000000e+03 5.712883758544921875e+01 1.480349349975585938e+01 5.772339105606079102e-01 7.581777572631835938e-01 4.006235003471374512e-01 -1.452616006135940552e-01
4.188000000000000000e+03 5.207075119018554688e+01 1.244300270080566406e+01 2.965743243694305420e-01 2.688945531845092773e-01 1.696406602859497070e-01 2.283524721860885620e-01
4.189000000000000000e+03 4.514012527465820312e+01 1.542142391204833984e+01 2.265184968709945679e-01 1.141722872853279114e-01 1.022072359919548035e-01 3.595069646835327148e-01
4.190000000000000000e+03 4.173850250244140625e+01 1.348322582244873047e+01 4.666956141591072083e-02 1.588900946080684662e-02 1.876757107675075531e-02 4.664072990417480469e-01
4.191000000000000000e+03 3.565800857543945312e+01 1.058408737182617188e+01 -1.996099203824996948e-01 -7.134124636650085449e-02 -8.128535002470016479e-02 5.415485501289367676e-01
4.192000000000000000e+03 5.327762222290039062e+01 1.481418418884277344e+01 4.519344270229339600e-01 4.481496214866638184e-01 2.700252234935760498e-01 8.623954653739929199e-02
4.193000000000000000e+03 5.362769699096679688e+01 1.290480709075927734e+01 3.771604895591735840e-01 3.691627681255340576e-01 2.238969653844833374e-01 1.362815052270889282e-01
4.194000000000000000e+03 5.209296035766601562e+01 -2.604306030273437500e+01 5.504118204116821289e-01 1.560002416372299194e-01 2.119236141443252563e-01 -2.508128881454467773e-01
4.195000000000000000e+03 3.666589355468750000e+01 1.076362419128417969e+01 -1.795709431171417236e-01 -6.229998171329498291e-02 -7.256127893924713135e-02 5.408993363380432129e-01
4.196000000000000000e+03 5.710158920288085938e+01 1.906882286071777344e+01 6.272051334381103516e-01 1.026107668876647949e+00 4.959938228130340576e-01 -2.457641661167144775e-01
4.197000000000000000e+03 4.624114608764648438e+01 1.173686695098876953e+01 5.340021476149559021e-02 6.093967333436012268e-02 3.430196642875671387e-02 4.422250390052795410e-01
4.198000000000000000e+03 4.488693618774414062e+01 1.352141094207763672e+01 1.178886517882347107e-01 6.722295284271240234e-02 5.553348362445831299e-02 4.215140044689178467e-01
4.199000000000000000e+03 3.824384307861328125e+01 1.871946525573730469e+01 1.742922812700271606e-01 -1.313450001180171967e-02 4.834733530879020691e-02 3.692326247692108154e-01
4.200000000000000000e+03 3.954128265380859375e+01 -2.224254226684570312e+01 7.837940007448196411e-03 -1.539419442415237427e-01 -4.383119940757751465e-02 -4.582658708095550537e-01
4.201000000000000000e+03 3.173951721191406250e+01 -2.883580589294433594e+01 2.312140315771102905e-01 -2.262974977493286133e-01 1.474960939958691597e-03 -3.078744411468505859e-01
4.202000000000000000e+03 3.481194686889648438e+01 -2.874066162109375000e+01 2.812012732028961182e-01 -2.166958749294281006e-01 1.935162022709846497e-02 -3.316854536533355713e-01
4.203000000000000000e+03 4.635567092895507812e+01 1.320746612548828125e+01 1.432877033948898315e-01 9.635085612535476685e-02 7.189156860113143921e-02 3.985312283039093018e-01
4.204000000000000000e+03 3.217552566528320312e+01 -3.490749359130859375e+01 4.036803543567657471e-01 -2.660035789012908936e-01 4.130303487181663513e-02 -1.809214949607849121e-01
4.205000000000000000e+03 5.148639297485351562e+01 1.436845016479492188e+01 3.744349479675292969e-01 3.341304063796997070e-01 2.125696092844009399e-01 1.836758255958557129e-01
4.206000000000000000e+03 5.525013351440429688e+01 1.489800643920898438e+01 5.273477435111999512e-01 6.042283177375793457e-01 3.394728302955627441e-01 -3.703866153955459595e-02
4.207000000000000000e+03 3.873788833618164062e+01 1.284564113616943359e+01 -5.048319697380065918e-02 -3.401886299252510071e-02 -2.535061724483966827e-02 5.010624527931213379e-01
4.208000000000000000e+03 4.806811141967773438e+01 1.397301959991455078e+01 2.446738630533218384e-01 1.686246693134307861e-01 1.239895597100257874e-01 3.234755396842956543e-01
4.209000000000000000e+03 5.932413864135742188e+01 2.036828041076660156e+01 6.319058537483215332e-01 1.388937830924987793e+00 6.062530875205993652e-01 -3.702963888645172119e-01
4.210000000000000000e+03 5.025943374633789062e+01 -2.672087860107421875e+01 5.294978022575378418e-01 9.529426693916320801e-02 1.874376237392425537e-01 -2.832285463809967041e-01
4.211000000000000000e+03 5.377169418334960938e+01 -2.533383560180664062e+01 5.681121945381164551e-01 2.438807785511016846e-01 2.435978949069976807e-01 -2.124947458505630493e-01
4.212000000000000000e+03 5.672763824462890625e+01 -2.687524032592773438e+01 7.296825051307678223e-01 5.993694067001342773e-01 3.987155854701995850e-01 -1.136487070471048355e-02
4.213000000000000000e+03 3.644642639160156250e+01 1.794117355346679688e+01 1.024722903966903687e-01 -6.026156246662139893e-02 1.266321819275617599e-02 3.943217694759368896e-01
4.214000000000000000e+03 3.730610656738281250e+01 2.080857086181640625e+01 2.225575745105743408e-01 -2.858966775238513947e-02 5.819037184119224548e-02 3.227345049381256104e-01
4.215000000000000000e+03 3.757438659667968750e+01 -2.807644653320312500e+01 3.038001656532287598e-01 -1.990808844566345215e-01 3.141578659415245056e-02 -3.545811176300048828e-01
4.216000000000000000e+03 5.396356582641601562e+01 1.124975395202636719e+01 2.979423403739929199e-01 2.978821992874145508e-01 1.787473559379577637e-01 1.815022528171539307e-01
4.217000000000000000e+03 5.167967987060546875e+01 1.778526306152343750e+01 5.005148053169250488e-01 4.973467290401458740e-01 2.993584573268890381e-01 7.532221823930740356e-02
4.218000000000000000e+03 4.719432830810546875e+01 1.908630752563476562e+01 4.156922996044158936e-01 2.900010645389556885e-01 2.117080092430114746e-01 2.011659443378448486e-01
4.219000000000000000e+03 3.811870193481445312e+01 1.449202728271484375e+01 7.169435732066631317e-03 -3.725990653038024902e-02 -9.027141146361827850e-03 4.687924087047576904e-01
4.220000000000000000e+03 4.882645797729492188e+01 1.784887313842773438e+01 4.193800985813140869e-01 3.270632922649383545e-01 2.239330112934112549e-01 1.870326250791549683e-01
4.221000000000000000e+03 4.904734802246093750e+01 1.503723526000976562e+01 3.224190771579742432e-01 2.346952110528945923e-01 1.671342849731445312e-01 2.660566866397857666e-01
4.222000000000000000e+03 5.512466812133789062e+01 1.652417945861816406e+01 5.622645020484924316e-01 6.798996925354003906e-01 3.726492524147033691e-01 -7.152695208787918091e-02
4.223000000000000000e+03 4.765239715576171875e+01 1.625404548645019531e+01 3.338246643543243408e-01 2.215708345174789429e-01 1.666186600923538208e-01 2.709710896015167236e-01
4.224000000000000000e+03 4.678436279296875000e+01 1.473328876495361328e+01 2.451121658086776733e-01 1.477551758289337158e-01 1.178601980209350586e-01 3.407806754112243652e-01
4.225000000000000000e+03 5.099140930175781250e+01 -2.865734672546386719e+01 6.635057926177978516e-01 2.079529464244842529e-01 2.614376246929168701e-01 -2.090629488229751587e-01
4.226000000000000000e+03 5.304635620117187500e+01 -2.812046623229980469e+01 6.688461303710937500e-01 2.772763371467590332e-01 2.838367521762847900e-01 -1.612989157438278198e-01
4.227000000000000000e+03 3.904255676269531250e+01 1.679290199279785156e+01 1.206643208861351013e-01 -6.797544192522764206e-03 3.416003286838531494e-02 4.098665714263916016e-01
4.228000000000000000e+03 3.409922790527343750e+01 2.201875686645507812e+01 1.860137730836868286e-01 -1.200962066650390625e-01 1.977526769042015076e-02 3.008417487144470215e-01
4.229000000000000000e+03 5.627357864379882812e+01 -2.905807685852050781e+01 8.013939261436462402e-01 6.643337607383728027e-01 4.397183060646057129e-01 1.989772357046604156e-02
4.230000000000000000e+03 5.283572006225585938e+01 1.913857650756835938e+01 5.517354011535644531e-01 6.443200111389160156e-01 3.588166236877441406e-01 -1.459340471774339676e-02
4.231000000000000000e+03 3.992989349365234375e+01 -2.700609779357910156e+01 3.049141168594360352e-01 -1.747868061065673828e-01 3.903819620609283447e-02 -3.846143484115600586e-01
4.232000000000000000e+03 3.877180099487304688e+01 -2.496722030639648438e+01 1.694718003273010254e-01 -1.766427159309387207e-01 -2.151278546079993248e-03 -4.191263914108276367e-01
4.233000000000000000e+03 5.335409164428710938e+01 1.670814704895019531e+01 5.153147578239440918e-01 5.455922484397888184e-01 3.182720839977264404e-01 2.185604348778724670e-02
4.234000000000000000e+03 5.523587799072265625e+01 1.791829872131347656e+01 5.667197704315185547e-01 7.693991661071777344e-01 4.008356630802154541e-01 -1.015433222055435181e-01
4.235000000000000000e+03 4.279875564575195312e+01 1.775899314880371094e+01 2.557761073112487793e-01 9.829313308000564575e-02 1.062207743525505066e-01 3.392431735992431641e-01
4.236000000000000000e+03 5.587764358520507812e+01 2.153005409240722656e+01 6.240977048873901367e-01 1.029872536659240723e+00 4.961910545825958252e-01 -2.021671831607818604e-01
4.237000000000000000e+03 4.015439605712890625e+01 1.935059547424316406e+01 2.459232658147811890e-01 4.290247708559036255e-02 8.664771914482116699e-02 3.351644873619079590e-01
4.238000000000000000e+03 4.898550415039062500e+01 -2.829136466979980469e+01 5.922105908393859863e-01 7.668322324752807617e-02 2.006681561470031738e-01 -2.855050861835479736e-01
4.239000000000000000e+03 4.147247695922851562e+01 -2.926731491088867188e+01 4.411606490612030029e-01 -1.546291559934616089e-01 8.595944195985794067e-02 -3.348786532878875732e-01
4.240000000000000000e+03 4.522691345214843750e+01 -2.561552810668945312e+01 3.517530858516693115e-01 -7.578033208847045898e-02 8.279182761907577515e-02 -4.025445580482482910e-01
4.241000000000000000e+03 4.833286666870117188e+01 2.119084930419921875e+01 4.896508157253265381e-01 4.174480736255645752e-01 2.721296846866607666e-01 1.150737553834915161e-01
4.242000000000000000e+03 4.598834228515625000e+01 1.728398132324218750e+01 3.211467862129211426e-01 1.837254464626312256e-01 1.514616757631301880e-01 2.866614460945129395e-01
4.243000000000000000e+03 4.332343292236328125e+01 1.362507438659667969e+01 8.686412870883941650e-02 4.043238237500190735e-02 3.818895295262336731e-02 4.424871802330017090e-01
4.244000000000000000e+03 3.856826782226562500e+01 2.398321533203125000e+01 3.431352674961090088e-01 3.220212832093238831e-02 1.126012131571769714e-01 2.423856407403945923e-01
4.245000000000000000e+03 4.138673400878906250e+01 1.537936019897460938e+01 1.208648756146430969e-01 2.977515012025833130e-02 4.519200697541236877e-02 4.218778014183044434e-01
4.246000000000000000e+03 4.555020141601562500e+01 -2.929147911071777344e+01 5.557684302330017090e-01 -2.826062403619289398e-02 1.582523435354232788e-01 -3.088629245758056641e-01
4.247000000000000000e+03 5.416276931762695312e+01 1.964653015136718750e+01 5.697513222694396973e-01 7.865667343139648438e-01 4.068954288959503174e-01 -8.294023573398590088e-02
4.248000000000000000e+03 5.563533020019531250e+01 1.951489257812500000e+01 6.026219129562377930e-01 8.952412009239196777e-01 4.493589401245117188e-01 -1.564509719610214233e-01
4.249000000000000000e+03 4.385705947875976562e+01 2.228927803039550781e+01 4.151000678539276123e-01 2.187213599681854248e-01 1.901464313268661499e-01 2.091062068939208984e-01
4.250000000000000000e+03 4.019751358032226562e+01 1.319854927062988281e+01 -4.089783877134323120e-03 -1.167937368154525757e-02 -4.730747547000646591e-03 4.856271743774414062e-01
4.251000000000000000e+03 5.158369827270507812e+01 2.336848640441894531e+01 5.708360671997070312e-01 6.859071850776672363e-01 3.770229816436767578e-01 -2.330968528985977173e-02
4.252000000000000000e+03 5.398642349243164062e+01 2.147886848449707031e+01 6.024079918861389160e-01 8.698930740356445312e-01 4.416903257369995117e-01 -1.062453687191009521e-01
4.253000000000000000e+03 4.718308258056640625e+01 -3.359348678588867188e+01 7.401817440986633301e-01 7.417522370815277100e-02 2.443070858716964722e-01 -1.794009804725646973e-01
4.254000000000000000e+03 5.142514801025390625e+01 -3.405108642578125000e+01 8.365696072578430176e-01 3.700098097324371338e-01 3.619738221168518066e-01 -9.390257298946380615e-02
4.255000000000000000e+03 4.203671264648437500e+01 1.165802764892578125e+01 -4.776214063167572021e-02 -1.860931166447699070e-03 -1.488692127168178558e-02 5.018131136894226074e-01
4.256000000000000000e+03 4.085401916503906250e+01 1.731609916687011719e+01 1.856973022222518921e-01 3.794991225004196167e-02 6.709416210651397705e-02 3.823915421962738037e-01
4.257000000000000000e+03 4.159376144409179688e+01 2.208153343200683594e+01 3.564311265945434570e-01 1.273290663957595825e-01 1.451280564069747925e-01 2.497088015079498291e-01
4.258000000000000000e+03 4.209677886962890625e+01 1.985130500793457031e+01 3.115840554237365723e-01 1.152259856462478638e-01 1.280430108308792114e-01 2.950983047485351562e-01
4.259000000000000000e+03 4.611885833740234375e+01 2.200851058959960938e+01 4.563938081264495850e-01 3.261827528476715088e-01 2.347729653120040894e-01 1.618079394102096558e-01
4.260000000000000000e+03 5.017679214477539062e+01 1.965577125549316406e+01 5.033110380172729492e-01 4.684942960739135742e-01 2.915416061878204346e-01 9.071236848831176758e-02
4.261000000000000000e+03 5.195210647583007812e+01 2.096622657775878906e+01 5.598630905151367188e-01 6.459773778915405273e-01 3.617521524429321289e-01 -2.545613562688231468e-03
4.262000000000000000e+03 4.916701507568359375e+01 2.381805992126464844e+01 5.441144704818725586e-01 5.519244074821472168e-01 3.288116455078125000e-01 4.148463532328605652e-02
4.263000000000000000e+03 4.058677673339843750e+01 2.728896903991699219e+01 4.547907114028930664e-01 1.431107819080352783e-01 1.793704479932785034e-01 1.617966145277023315e-01
4.264000000000000000e+03 4.112495803833007812e+01 2.454373168945312500e+01 4.073939919471740723e-01 1.406853795051574707e-01 1.644238084554672241e-01 2.068987339735031128e-01
4.265000000000000000e+03 4.653713607788085938e+01 2.448271751403808594e+01 5.096758604049682617e-01 4.038837850093841553e-01 2.740679085254669189e-01 1.071633622050285339e-01
4.266000000000000000e+03 4.372364807128906250e+01 2.750966835021972656e+01 5.085540413856506348e-01 3.124313652515411377e-01 2.462956309318542480e-01 1.171625480055809021e-01
4.267000000000000000e+03 5.245706176757812500e+01 2.570220947265625000e+01 5.977235436439514160e-01 8.784173130989074707e-01 4.428422451019287109e-01 -9.119839221239089966e-02
4.268000000000000000e+03 6.338992309570312500e+01 3.085300827026367188e+01 4.212669134140014648e-01 2.285121917724609375e+00 8.119166493415832520e-01 -3.275921642780303955e-01
4.269000000000000000e+03 6.474243927001953125e+01 2.836977195739746094e+01 4.227222204208374023e-01 2.459733009338378906e+00 8.647365570068359375e-01 -4.282549321651458740e-01
4.270000000000000000e+03 5.927047729492187500e+01 2.592911720275878906e+01 5.793647170066833496e-01 1.624788403511047363e+00 6.612459421157836914e-01 -3.400124013423919678e-01
4.271000000000000000e+03 6.425782775878906250e+01 -3.525586318969726562e+01 7.241810560226440430e-01 2.240690946578979492e+00 8.894615769386291504e-01 3.025671839714050293e-01
4.272000000000000000e+03 5.376645278930664062e+01 2.383280563354492188e+01 6.020649671554565430e-01 9.413724541664123535e-01 4.630312323570251465e-01 -1.209529936313629150e-01
4.273000000000000000e+03 2.399691009521484375e+01 3.033050346374511719e+01 2.726640105247497559e-01 -4.398750960826873779e-01 -5.016332492232322693e-02 1.591782569885253906e-01
4.274000000000000000e+03 5.925705718994140625e+01 -3.310143661499023438e+01 8.613547682762145996e-01 1.232989549636840820e+00 6.283033490180969238e-01 1.861643493175506592e-01
4.275000000000000000e+03 5.876892089843750000e+01 -2.988711166381835938e+01 8.405632972717285156e-01 9.788747429847717285e-01 5.458313822746276855e-01 1.596139371395111084e-01
4.276000000000000000e+03 2.816566276550292969e+01 -3.488366699218750000e+01 3.169109225273132324e-01 -2.744690179824829102e-01 1.273257564753293991e-02 -1.632179915904998779e-01
4.277000000000000000e+03 3.193270492553710938e+01 -3.183108901977539062e+01 3.304902911186218262e-01 -2.500319480895996094e-01 2.413750253617763519e-02 -2.477240562438964844e-01
4.278000000000000000e+03 2.195011711120605469e+01 -3.096441078186035156e+01 1.459659039974212646e-01 -2.457521259784698486e-01 -2.993586659431457520e-02 -1.851666420698165894e-01
4.279000000000000000e+03 1.635567474365234375e+01 -3.541948318481445312e+01 1.321550607681274414e-01 -2.574775218963623047e-01 -3.759673610329627991e-02 -9.840808808803558350e-02
4.280000000000000000e+03 2.100187492370605469e+01 -3.387760925292968750e+01 1.782601624727249146e-01 -2.619585692882537842e-01 -2.510952204465866089e-02 -1.435648500919342041e-01
4.281000000000000000e+03 8.281127929687500000e+00 -4.092361450195312500e+01 4.720441624522209167e-02 -2.486290335655212402e-01 -6.042738631367683411e-02 -1.606404967606067657e-02
4.282000000000000000e+03 3.653260421752929688e+01 2.960067558288574219e+01 4.310885667800903320e-01 -1.967860199511051178e-02 1.234229877591133118e-01 1.556253433227539062e-01
4.283000000000000000e+03 3.259648132324218750e+01 2.439271926879882812e+01 2.353287190198898315e-01 -1.688004136085510254e-01 1.995849236845970154e-02 2.510307729244232178e-01
4.284000000000000000e+03 3.088035774230957031e+01 2.706726074218750000e+01 2.823308110237121582e-01 -2.276752442121505737e-01 1.639667339622974396e-02 2.010181099176406860e-01
4.285000000000000000e+03 3.495975112915039062e+01 2.565328979492187500e+01 3.149636387825012207e-01 -9.022898972034454346e-02 6.742039322853088379e-02 2.264769673347473145e-01
4.286000000000000000e+03 2.884226036071777344e+01 3.003686332702636719e+01 3.319916129112243652e-01 -2.949012517929077148e-01 1.112711057066917419e-02 1.595255136489868164e-01
4.287000000000000000e+03 4.683388519287109375e+01 -3.707888031005859375e+01 7.969653010368347168e-01 9.178341925144195557e-02 2.666246294975280762e-01 -1.134287565946578979e-01
4.288000000000000000e+03 5.546076202392578125e+01 -3.369448089599609375e+01 8.715043663978576660e-01 7.825710177421569824e-01 4.962226152420043945e-01 2.575352974236011505e-02
4.289000000000000000e+03 5.122306442260742188e+01 -3.108830451965332031e+01 7.577822804450988770e-01 2.917016446590423584e-01 3.148451745510101318e-01 -1.554058492183685303e-01
4.290000000000000000e+03 4.368352890014648438e+01 -3.180941200256347656e+01 6.068567633628845215e-01 -7.942662388086318970e-02 1.582290381193161011e-01 -2.611542642116546631e-01
4.291000000000000000e+03 1.304947376251220703e+01 -3.732961273193359375e+01 1.038377732038497925e-01 -2.524491250514984131e-01 -4.458340629935264587e-02 -6.841991096735000610e-02
4.292000000000000000e+03 2.350866127014160156e+01 -3.774467086791992188e+01 2.609619498252868652e-01 -2.839847505092620850e-01 -6.906843744218349457e-03 -8.696065843105316162e-02
4.293000000000000000e+03 4.179975891113281250e+01 -3.719671630859375000e+01 6.884489059448242188e-01 -1.125906035304069519e-01 1.727574914693832397e-01 -1.359665393829345703e-01
4.294000000000000000e+03 3.697219085693359375e+01 -3.773039627075195312e+01 5.634880661964416504e-01 -2.292177528142929077e-01 1.002810895442962646e-01 -1.261138767004013062e-01
4.295000000000000000e+03 6.083501815795898438e+01 -3.672405242919921875e+01 8.149439692497253418e-01 1.671016693115234375e+00 7.457882165908813477e-01 1.708899736404418945e-01
4.296000000000000000e+03 5.636672592163085938e+01 -3.721672439575195312e+01 8.985320329666137695e-01 9.816257357597351074e-01 5.640473365783691406e-01 3.562166169285774231e-02
4.297000000000000000e+03 6.221042251586914062e+01 3.752839279174804688e+01 3.988922238349914551e-01 2.223838090896606445e+00 7.868191003799438477e-01 -1.335550546646118164e-01
4.298000000000000000e+03 5.259972381591796875e+01 3.691030120849609375e+01 5.792741775512695312e-01 1.147813558578491211e+00 5.181263089179992676e-01 -6.285011768341064453e-02
4.299000000000000000e+03 3.842577743530273438e+01 3.710742568969726562e+01 5.488860011100769043e-01 9.822782874107360840e-02 1.941341608762741089e-01 4.892385751008987427e-02
4.300000000000000000e+03 4.300585174560546875e+01 3.729215240478515625e+01 5.836395621299743652e-01 3.720487356185913086e-01 2.867065072059631348e-01 2.908002398908138275e-02
4.301000000000000000e+03 3.393011856079101562e+01 3.659543991088867188e+01 4.929015338420867920e-01 -1.080454662442207336e-01 1.154568195343017578e-01 6.721931695938110352e-02
4.302000000000000000e+03 2.221251106262207031e+01 3.571677780151367188e+01 3.394565582275390625e-01 -4.502846002578735352e-01 -3.324841707944869995e-02 9.967342764139175415e-02
4.303000000000000000e+03 1.344184017181396484e+01 3.729986572265625000e+01 1.946184486150741577e-01 -5.028224587440490723e-01 -9.246120601892471313e-02 1.051139608025550842e-01
4.304000000000000000e+03 3.993685150146484375e+01 3.030983924865722656e+01 4.911936521530151367e-01 1.408982574939727783e-01 1.896275728940963745e-01 1.201376020908355713e-01
4.305000000000000000e+03 5.675819396972656250e+01 2.703922462463378906e+01 5.843107104301452637e-01 1.378310084342956543e+00 5.887862443923950195e-01 -2.333400994539260864e-01
4.306000000000000000e+03 5.888203048706054688e+01 -2.725164794921875000e+01 7.979825735092163086e-01 8.237560391426086426e-01 4.865216016769409180e-01 1.461651325225830078e-01
4.307000000000000000e+03 1.843625068664550781e+01 -3.285487747192382812e+01 1.407927125692367554e-01 -2.540382742881774902e-01 -3.397367149591445923e-02 -1.412594765424728394e-01
4.308000000000000000e+03 1.920211410522460938e+01 -3.042966270446777344e+01 1.085250452160835266e-01 -2.374937832355499268e-01 -3.869062289595603943e-02 -1.705682128667831421e-01
4.309000000000000000e+03 4.687637710571289062e+01 2.730855369567871094e+01 5.506475567817687988e-01 4.938213527202606201e-01 3.133406639099121094e-01 4.954695329070091248e-02
4.310000000000000000e+03 3.630378723144531250e+01 -3.458328247070312500e+01 5.002058744430541992e-01 -2.279523015022277832e-01 8.167607337236404419e-02 -2.015802264213562012e-01
4.311000000000000000e+03 5.821271133422851562e+01 3.010889816284179688e+01 5.403108596801757812e-01 1.658115386962890625e+00 6.595278382301330566e-01 -2.518142163753509521e-01
4.312000000000000000e+03 4.331842041015625000e+01 3.387074279785156250e+01 5.682687163352966309e-01 3.621324598789215088e-01 2.791203558444976807e-01 4.560134932398796082e-02
4.313000000000000000e+03 5.389755630493164062e+01 2.834395217895507812e+01 5.943202376365661621e-01 1.084136128425598145e+00 5.035368800163269043e-01 -1.223732978105545044e-01
4.314000000000000000e+03 4.769504165649414062e+01 3.722062301635742188e+01 5.999474525451660156e-01 6.932834386825561523e-01 3.879692852497100830e-01 -4.747424740344285965e-03
4.315000000000000000e+03 5.832045364379882812e+01 3.335736083984375000e+01 5.158157348632812500e-01 1.692788720130920410e+00 6.625813245773315430e-01 -1.949771791696548462e-01
4.316000000000000000e+03 2.787368392944335938e+01 -3.799969100952148438e+01 3.510253429412841797e-01 -2.905280888080596924e-01 1.814918220043182373e-02 -9.600173681974411011e-02
4.317000000000000000e+03 4.756912994384765625e+01 3.374822616577148438e+01 5.890053510665893555e-01 6.619448661804199219e-01 3.752850592136383057e-01 5.472593940794467926e-03
4.318000000000000000e+03 3.526210784912109375e+01 3.292037582397460938e+01 4.637634754180908203e-01 -6.531086564064025879e-02 1.195357814431190491e-01 1.103904247283935547e-01
4.319000000000000000e+03 5.174271011352539062e+01 -3.733924102783203125e+01 8.906210660934448242e-01 4.559823572635650635e-01 4.039810299873352051e-01 -4.382582008838653564e-02
4.320000000000000000e+03 2.613269424438476562e+01 3.333118820190429688e+01 3.570204377174377441e-01 -3.752786219120025635e-01 -5.477451253682374954e-03 1.176188513636589050e-01
4.321000000000000000e+03 3.763019561767578125e+01 2.664407157897949219e+01 3.880760967731475830e-01 1.284185517579317093e-02 1.202753931283950806e-01 1.963881999254226685e-01
4.322000000000000000e+03 5.539685821533203125e+01 3.156461143493652344e+01 5.674068331718444824e-01 1.334165692329406738e+00 5.704717636108398438e-01 -1.376588195562362671e-01
4.323000000000000000e+03 1.770057487487792969e+01 -7.696913242340087891e+00 -1.816302351653575897e-02 -1.929053291678428650e-02 -1.123606692999601364e-02 -1.962019316852092743e-02
4.324000000000000000e+03 1.860258102416992188e+01 -3.500476121902465820e+00 -3.584773512557148933e-04 1.144429668784141541e-02 3.325745929032564163e-03 1.400221721269190311e-03
4.325000000000000000e+03 7.465248107910156250e+01 -4.691727638244628906e+00 -1.579037666320800781e+00 1.629706978797912598e+00 1.520078908652067184e-02 -1.870221138000488281e+00
4.326000000000000000e+03 7.519969940185546875e+01 -4.538543701171875000e+00 -9.119358062744140625e-01 3.279255151748657227e+00 7.101957798004150391e-01 -3.224190235137939453e+00
4.327000000000000000e+03 7.621971893310546875e+01 -4.491254329681396484e+00 -9.796874523162841797e-01 9.270412445068359375e+00 2.487217426300048828e+00 -5.780191421508789062e+00
4.328000000000000000e+03 7.682305908203125000e+01 -4.785063266754150391e+00 -2.132054567337036133e+00 1.564646530151367188e+01 4.054323196411132812e+00 -6.215216636657714844e+00
4.329000000000000000e+03 7.818048095703125000e+01 -4.703182697296142578e+00 -2.087939977645874023e+00 1.957588386535644531e+01 5.246383190155029297e+00 1.848378419876098633e+00
4.330000000000000000e+03 7.855364990234375000e+01 -7.818531036376953125e+00 -9.759332537651062012e-01 1.786244964599609375e+01 5.065954685211181641e+00 -3.204688549041748047e+00
4.331000000000000000e+03 7.815865325927734375e+01 -8.378065109252929688e+00 -2.534960746765136719e+00 1.846973991394042969e+01 4.780433654785156250e+00 -1.133896946907043457e+00
4.332000000000000000e+03 7.645227050781250000e+01 -8.048150062561035156e+00 -1.152984857559204102e+00 1.161179828643798828e+01 3.137644052505493164e+00 6.296815872192382812e+00
4.333000000000000000e+03 7.624975585937500000e+01 -8.089877128601074219e+00 -7.633321881294250488e-01 9.471389770507812500e+00 2.612417221069335938e+00 5.942980289459228516e+00
4.334000000000000000e+03 7.582421875000000000e+01 -8.052213668823242188e+00 -4.071280956268310547e-01 5.695456981658935547e+00 1.586498618125915527e+00 4.884570598602294922e+00
4.335000000000000000e+03 7.472451019287109375e+01 -8.542414665222167969e+00 -9.659572839736938477e-01 2.561397314071655273e+00 4.786320030689239502e-01 2.560146331787109375e+00
4.336000000000000000e+03 7.411786651611328125e+01 -8.066304206848144531e+00 -2.382293701171875000e+00 7.861994504928588867e-01 -4.788282811641693115e-01 1.102463245391845703e+00
4.337000000000000000e+03 1.297271966934204102e+00 2.746396780014038086e+00 -2.200928065576590598e-06 5.302701902110129595e-05 1.524782783235423267e-05 -4.642913700081408024e-05
4.338000000000000000e+03 1.824432563781738281e+01 -7.706376075744628906e+00 -4.001951962709426880e-02 -1.991505734622478485e-02 -1.798037253320217133e-02 -3.143458440899848938e-02
4.339000000000000000e+03 1.792057418823242188e+01 -7.132986545562744141e+00 -1.703421294223517179e-04 2.230964833870530128e-03 6.181867793202400208e-04 -3.280261065810918808e-03
4.340000000000000000e+03 7.788575744628906250e+01 3.534645462036132812e+01 9.226270020008087158e-03 4.066693305969238281e+00 1.222775816917419434e+00 -6.668913364410400391e-02
4.341000000000000000e+03 2.509540081024169922e+00 2.735203504562377930e+00 1.696974504739046097e-05 -8.210105443140491843e-05 -1.953939317900221795e-05 -6.359065992000978440e-06
4.342000000000000000e+03 1.785058021545410156e+01 -7.171487808227539062e+00 4.910541698336601257e-03 5.396069493144750595e-03 3.091983497142791748e-03 -5.386209115386009216e-03
4.343000000000000000e+03 9.749594688415527344e+00 -2.099583435058593750e+01 -8.503319323062896729e-02 -1.557493060827255249e-01 -7.223474979400634766e-02 -1.416830271482467651e-01
4.344000000000000000e+03 7.446002960205078125e+01 3.507656860351562500e+01 6.182871013879776001e-02 3.738023996353149414e+00 1.139955878257751465e+00 -1.332826465368270874e-01
4.345000000000000000e+03 7.926674652099609375e+01 -5.390960216522216797e+00 1.156434297561645508e+00 1.316206264495849609e+01 4.295548915863037109e+00 2.832027196884155273e+00
4.346000000000000000e+03 7.880076599121093750e+01 -5.353262424468994141e+00 1.604014515876770020e+00 1.609693908691406250e+01 5.310286045074462891e+00 3.602753639221191406e+00
4.347000000000000000e+03 7.600103759765625000e+01 -8.449059486389160156e+00 -8.265047073364257812e-01 8.003871917724609375e+00 2.153210163116455078e+00 5.064711570739746094e+00
4.348000000000000000e+03 7.624375152587890625e+01 -8.655147552490234375e+00 -1.273236870765686035e+00 9.957237243652343750e+00 2.605200052261352539e+00 5.014420986175537109e+00
4.349000000000000000e+03 7.569205474853515625e+01 -4.335989952087402344e+00 -6.171314120292663574e-01 6.116945743560791016e+00 1.649944305419921875e+00 -4.614917278289794922e+00
4.350000000000000000e+03 7.476423645019531250e+01 -4.129861354827880859e+00 -7.936766147613525391e-01 2.868895292282104492e+00 6.225655674934387207e-01 -2.665899515151977539e+00
4.351000000000000000e+03 7.913232421875000000e+01 -7.286670684814453125e+00 1.547392487525939941e+00 1.384245491027832031e+01 4.616954326629638672e+00 -3.005500793457031250e+00
4.352000000000000000e+03 7.838266754150390625e+01 -9.277473449707031250e+00 -1.989914417266845703e+00 1.567987632751464844e+01 4.106988430023193359e+00 -6.649168133735656738e-01
4.353000000000000000e+03 7.628926086425781250e+01 -3.994474172592163086e+00 -1.491186499595642090e+00 1.028327083587646484e+01 2.637625217437744141e+00 -4.738558769226074219e+00
4.354000000000000000e+03 7.697630310058593750e+01 -3.901739597320556641e+00 -2.531251668930053711e+00 1.432732963562011719e+01 3.538823366165161133e+00 -3.687079429626464844e+00
4.355000000000000000e+03 7.910989379882812500e+01 -4.360593795776367188e+00 -8.944233655929565430e-01 1.478566932678222656e+01 4.167373657226562500e+00 2.719769239425659180e+00
4.356000000000000000e+03 7.839295959472656250e+01 -4.499740123748779297e+00 -1.816135406494140625e+00 1.764621925354003906e+01 4.749024868011474609e+00 2.379523515701293945e+00
4.357000000000000000e+03 7.779190826416015625e+01 -3.415296316146850586e+00 -2.639039993286132812e+00 1.536242675781250000e+01 3.817016124725341797e+00 -1.046008348464965820e+00
4.358000000000000000e+03 7.361294555664062500e+01 -8.974464416503906250e+00 -1.355771183967590332e+00 1.381332278251647949e+00 7.668310776352882385e-03 1.373027682304382324e+00
4.359000000000000000e+03 7.660570526123046875e+01 -8.597704887390136719e+00 -2.000342845916748047e+00 1.255855464935302734e+01 3.167463541030883789e+00 4.886336803436279297e+00
4.360000000000000000e+03 7.686248779296875000e+01 -8.576320648193359375e+00 -2.399105787277221680e+00 1.423469543457031250e+01 3.550676822662353516e+00 4.299370288848876953e+00
4.361000000000000000e+03 7.691230773925781250e+01 -8.183983802795410156e+00 -2.607551097869873047e+00 1.604899978637695312e+01 4.032434463500976562e+00 5.267311573028564453e+00
4.362000000000000000e+03 7.709258270263671875e+01 -8.385085105895996094e+00 -2.997258186340332031e+00 1.684353256225585938e+01 4.153882026672363281e+00 3.799052238464355469e+00
4.363000000000000000e+03 1.934038758277893066e+00 3.702433013916015625e+01 5.666650366038084030e-03 -4.887706041336059570e-01 -1.449311822652816772e-01 3.131427243351936340e-02
4.364000000000000000e+03 4.988475799560546875e+00 -3.181003379821777344e+01 1.568395830690860748e-02 -2.008014917373657227e-01 -5.553526058793067932e-02 -7.352139055728912354e-02
4.365000000000000000e+03 4.319814682006835938e+00 -1.404211616516113281e+01 3.293883521109819412e-03 -5.323665682226419449e-03 -6.089346716180443764e-04 -6.311779143288731575e-04
4.366000000000000000e+03 1.561167716979980469e+01 2.156773185729980469e+01 -1.148165315389633179e-01 -6.704290509223937988e-01 -2.355736792087554932e-01 3.190984129905700684e-01
4.367000000000000000e+03 7.590022277832031250e+01 3.453673171997070312e+01 2.361196465790271759e-02 3.929449796676635742e+00 1.185918450355529785e+00 -1.152220219373703003e-01
4.368000000000000000e+03 8.096173286437988281e+00 -3.465705108642578125e+01 4.539721831679344177e-02 -2.299560159444808960e-01 -5.536764115095138550e-02 -7.486221939325332642e-02
4.369000000000000000e+03 7.486237335205078125e+01 -3.777887105941772461e+00 -7.049061059951782227e-01 3.761324405670166016e+00 9.169254899024963379e-01 -2.967999935150146484e+00
4.370000000000000000e+03 7.602513885498046875e+01 -3.876744270324707031e+00 -1.128722190856933594e+00 8.452219009399414062e+00 2.197049140930175781e+00 -4.495347499847412109e+00
4.371000000000000000e+03 7.704138946533203125e+01 -8.949928283691406250e+00 -2.527322530746459961e+00 1.443342685699462891e+01 3.571831226348876953e+00 3.201444149017333984e+00
4.372000000000000000e+03 6.050941944122314453e+00 -3.360547304153442383e+00 -4.582067560932046035e-07 -1.643869291001465172e-05 -5.069069629826117307e-06 -7.767573697492480278e-05
4.373000000000000000e+03 7.739832305908203125e+01 -9.824834823608398438e+00 -1.799472808837890625e+00 1.337809371948242188e+01 3.473586082458496094e+00 1.887702107429504395e+00
4.374000000000000000e+03 5.375484943389892578e+00 -3.299985504150390625e+01 1.920302771031856537e-02 -2.133684009313583374e-01 -5.824961140751838684e-02 -7.125107198953628540e-02
4.375000000000000000e+03 9.672524452209472656e+00 -2.255180168151855469e+01 -5.054585263133049011e-02 -1.607257872819900513e-01 -6.338149309158325195e-02 -1.451287865638732910e-01
4.376000000000000000e+03 3.345700025558471680e+00 4.628148555755615234e+00 8.012091711862012744e-05 -1.521954836789518595e-04 -2.162237069569528103e-05 2.236625587102025747e-04
4.377000000000000000e+03 7.566291046142578125e+01 -8.959186553955078125e+00 -7.710061669349670410e-01 6.543745517730712891e+00 1.731821775436401367e+00 4.173240661621093750e+00
4.378000000000000000e+03 2.290985298156738281e+01 3.243369817733764648e+00 -1.524263024330139160e-01 -2.604682147502899170e-01 -1.238683536648750305e-01 3.163751065731048584e-01
4.379000000000000000e+03 7.195123291015625000e+01 -3.455121755599975586e+00 -1.875310063362121582e+00 5.327660441398620605e-01 -4.027632176876068115e-01 -4.002413451671600342e-01
4.380000000000000000e+03 7.144809722900390625e+01 -3.110874891281127930e+00 -1.662922024726867676e+00 5.223134160041809082e-01 -3.421826064586639404e-01 -3.638652861118316650e-01
4.381000000000000000e+03 5.835340023040771484e+00 -3.016623687744140625e+01 1.361187640577554703e-02 -1.841846257448196411e-01 -5.117182433605194092e-02 -8.991913497447967529e-02
4.382000000000000000e+03 6.804133892059326172e+00 -2.854410552978515625e+01 1.459774281829595566e-02 -1.776797771453857422e-01 -4.892461374402046204e-02 -1.067098528146743774e-01
4.383000000000000000e+03 7.442916870117187500e+01 -9.978670120239257812e+00 -3.237531781196594238e-01 3.839365720748901367e+00 1.054683685302734375e+00 2.667681932449340820e+00
4.384000000000000000e+03 7.573228454589843750e+01 -2.603161334991455078e+00 -6.159464716911315918e-01 7.676190853118896484e+00 2.118073225021362305e+00 -3.305422782897949219e+00
4.385000000000000000e+03 7.236516571044921875e+01 -3.043399572372436523e+00 -1.136703133583068848e+00 1.028450965881347656e+00 -3.247563540935516357e-02 -8.769501447677612305e-01
4.386000000000000000e+03 2.296438789367675781e+01 1.266621947288513184e+00 -1.292169690132141113e-01 -1.938411146402359009e-01 -9.691742062568664551e-02 2.531864643096923828e-01
4.387000000000000000e+03 2.241593742370605469e+01 -9.798560142517089844e+00 -2.246695607900619507e-01 7.468146504834294319e-04 -6.717682629823684692e-02 -1.208608672022819519e-01
4.388000000000000000e+03 2.235449218750000000e+01 1.941133689880371094e+01 -1.406280994415283203e-01 -4.913975000381469727e-01 -1.896076798439025879e-01 2.856863141059875488e-01
4.389000000000000000e+03 2.330066299438476562e+01 1.769228172302246094e+01 -1.945099979639053345e-01 -4.408504366874694824e-01 -1.906081289052963257e-01 3.243243396282196045e-01
4.390000000000000000e+03 1.416518306732177734e+01 2.714428138732910156e+01 1.022810190916061401e-01 -5.568458437919616699e-01 -1.363694518804550171e-01 2.749177217483520508e-01
4.391000000000000000e+03 9.151249885559082031e+00 -2.354906272888183594e+01 -2.605232410132884979e-02 -1.635888069868087769e-01 -5.689234286546707153e-02 -1.405427306890487671e-01
4.392000000000000000e+03 5.849188327789306641e+00 -2.332462501525878906e+01 -2.981790527701377869e-02 -9.834331274032592773e-02 -3.844836726784706116e-02 -9.712700545787811279e-02
4.393000000000000000e+03 5.669396877288818359e+00 -6.992895603179931641e+00 7.660216215299442410e-05 3.756394562515197322e-06 2.410756678727921098e-05 -5.972375220153480768e-05
4.394000000000000000e+03 7.240615844726562500e+01 2.804437255859375000e+01 1.584805995225906372e-01 3.634001016616821289e+00 1.137744545936584473e+00 -3.751561641693115234e-01
4.395000000000000000e+03 6.054742336273193359e+00 -5.007894515991210938e+00 -6.166374078020453453e-05 1.603223208803683519e-04 2.959757512144278735e-05 8.868581790011376143e-05
4.396000000000000000e+03 7.282225036621093750e+01 2.255555152893066406e+01 2.002882659435272217e-01 3.925506830215454102e+00 1.237738609313964844e+00 -5.844339728355407715e-01
4.397000000000000000e+03 7.241995239257812500e+01 -1.088327503204345703e+01 -3.085322082042694092e-01 1.735827326774597168e+00 4.281885325908660889e-01 1.316386222839355469e+00
4.398000000000000000e+03 2.487964439392089844e+01 1.583541965484619141e+01 -2.337950319051742554e-01 -3.564855158329010010e-01 -1.770841628313064575e-01 3.763625025749206543e-01
4.399000000000000000e+03 2.342416000366210938e+01 1.533234977722167969e+01 -2.848348915576934814e-01 -4.241045117378234863e-01 -2.126818150281906128e-01 3.767973482608795166e-01
4.400000000000000000e+03 2.374047851562500000e+01 1.145510554313659668e+00 -1.556090116500854492e-01 -1.752480864524841309e-01 -9.925712645053863525e-02 2.701628506183624268e-01
4.401000000000000000e+03 7.405207061767578125e+01 -1.119032478332519531e+01 8.310692012310028076e-02 4.070425987243652344e+00 1.246059894561767578e+00 2.392253875732421875e+00
4.402000000000000000e+03 7.110176086425781250e+01 -3.333627462387084961e+00 -2.063297271728515625e+00 3.137420117855072021e-01 -5.248665809631347656e-01 -1.263357549905776978e-01
4.403000000000000000e+03 5.043040275573730469e+00 7.474068164825439453e+00 4.382601182442158461e-04 -1.031915089697577059e-04 1.005205849651247263e-04 -2.533083024900406599e-04
4.404000000000000000e+03 7.442578887939453125e+01 -2.584004700183868408e-01 3.295648992061614990e-01 5.034901142120361328e+00 1.609339833259582520e+00 -2.406831026077270508e+00
4.405000000000000000e+03 7.151541900634765625e+01 -1.175199413299560547e+01 -1.441646665334701538e-01 1.496963143348693848e+00 4.058395326137542725e-01 1.083094120025634766e+00
4.406000000000000000e+03 6.182290649414062500e+01 2.135355377197265625e+01 6.064559817314147949e-01 1.808010458946228027e+00 7.243399620056152344e-01 -4.938824772834777832e-01
4.407000000000000000e+03 7.308537292480468750e+01 -1.013165116310119629e+00 1.764606684446334839e-01 2.964312076568603516e+00 9.422318339347839355e-01 -1.897485971450805664e+00
4.408000000000000000e+03 4.984655761718750000e+01 2.669232177734375000e+01 5.846759080886840820e-01 6.986410021781921387e-01 3.849950730800628662e-01 -1.578130945563316345e-02
4.409000000000000000e+03 5.454099655151367188e+00 2.953735160827636719e+01 2.332947403192520142e-02 -3.466646969318389893e-01 -9.700056165456771851e-02 1.806493848562240601e-01
4.410000000000000000e+03 7.488932800292968750e+01 -3.222247660160064697e-01 2.351193577051162720e-01 5.803147792816162109e+00 1.811480164527893066e+00 -2.599818229675292969e+00
4.411000000000000000e+03 7.373051452636718750e+01 -6.198683381080627441e-01 2.931726276874542236e-01 3.907041072845458984e+00 1.260064125061035156e+00 -2.207257032394409180e+00
4.412000000000000000e+03 7.412881469726562500e+01 -1.286804199218750000e+01 4.039363265037536621e-01 4.736700057983398438e+00 1.542190909385681152e+00 2.309628963470458984e+00
4.413000000000000000e+03 6.796476745605468750e+01 2.329931259155273438e+01 3.991004526615142822e-01 2.952151536941528320e+00 1.005375623703002930e+00 -6.400097012519836426e-01
4.414000000000000000e+03 7.039166259765625000e+01 1.492354297637939453e+01 5.036037564277648926e-01 3.436703681945800781e+00 1.182092308998107910e+00 -1.046408414840698242e+00
4.415000000000000000e+03 7.201850128173828125e+01 -1.189086055755615234e+01 1.028983946889638901e-02 1.872896909713745117e+00 5.649560093879699707e-01 1.330542325973510742e+00
4.416000000000000000e+03 7.382292938232421875e+01 5.125936269760131836e-01 4.766602814197540283e-01 4.416447162628173828e+00 1.467932224273681641e+00 -2.226891279220581055e+00
4.417000000000000000e+03 2.701503753662109375e+01 -2.172079849243164062e+01 -7.532048225402832031e-02 -1.392405927181243896e-01 -6.436832249164581299e-02 -3.178884387016296387e-01
4.418000000000000000e+03 7.029550170898437500e+01 -1.208402729034423828e+01 -2.749584913253784180e-01 1.013488173484802246e+00 2.215589135885238647e-01 6.871128082275390625e-01
4.419000000000000000e+03 7.390306091308593750e+01 -7.261631637811660767e-02 3.686141371726989746e-01 4.410766124725341797e+00 1.433814167976379395e+00 -2.265900373458862305e+00
4.420000000000000000e+03 2.477501487731933594e+01 -1.928457450866699219e+01 -1.543048620223999023e-01 -1.011965200304985046e-01 -7.665041089057922363e-02 -2.828366160392761230e-01
4.421000000000000000e+03 6.970853424072265625e+01 -1.267007923126220703e+01 -1.375243812799453735e-01 9.720903635025024414e-01 2.503697872161865234e-01 6.271039247512817383e-01
4.422000000000000000e+03 7.202278137207031250e+01 -1.402176380157470703e+01 5.694307684898376465e-01 2.814630985260009766e+00 1.015218496322631836e+00 1.628917217254638672e+00
4.423000000000000000e+03 7.234539031982421875e+01 -1.766533660888671875e+01 7.497687339782714844e-01 3.894690752029418945e+00 1.393337845802307129e+00 1.682909607887268066e+00
4.424000000000000000e+03 6.904177856445312500e+01 1.977129173278808594e+01 4.330918788909912109e-01 3.157782077789306641e+00 1.077262163162231445e+00 -8.024680018424987793e-01
4.425000000000000000e+03 2.836199378967285156e+01 7.553750038146972656e+00 -3.074784576892852783e-01 -1.775098443031311035e-01 -1.454964876174926758e-01 5.119147300720214844e-01
4.426000000000000000e+03 2.890861701965332031e+01 1.700775861740112305e+00 -3.381411135196685791e-01 -9.269567579030990601e-02 -1.292510330677032471e-01 4.028311669826507568e-01
4.427000000000000000e+03 2.946263313293457031e+01 2.282955646514892578e+00 -3.555950820446014404e-01 -9.189165383577346802e-02 -1.342460215091705322e-01 4.322612285614013672e-01
4.428000000000000000e+03 6.252782821655273438e+01 1.492029285430908203e+01 6.902427673339843750e-01 1.521803379058837891e+00 6.636138558387756348e-01 -5.721550583839416504e-01
4.429000000000000000e+03 4.556386566162109375e+01 2.000432968139648438e+01 4.026632010936737061e-01 2.474631071090698242e-01 1.950378865003585815e-01 2.196523696184158325e-01
4.430000000000000000e+03 6.812881469726562500e+01 1.827069282531738281e+01 5.230416655540466309e-01 2.901390075683593750e+00 1.027329564094543457e+00 -8.666220307350158691e-01
4.431000000000000000e+03 7.180812072753906250e+01 -1.458184337615966797e+01 6.522114276885986328e-01 2.790191888809204102e+00 1.032721042633056641e+00 1.600615382194519043e+00
4.432000000000000000e+03 7.194104003906250000e+01 -1.524606990814208984e+01 6.994555592536926270e-01 3.083874940872192383e+00 1.134999155998229980e+00 1.657971858978271484e+00
4.433000000000000000e+03 6.641392517089843750e+01 9.614512443542480469e+00 7.458369135856628418e-01 1.848453402519226074e+00 7.782871127128601074e-01 -8.997474312782287598e-01
4.434000000000000000e+03 4.453521347045898438e+01 1.854198074340820312e+01 3.231577277183532715e-01 1.654040664434432983e-01 1.465685367584228516e-01 2.891654670238494873e-01
4.435000000000000000e+03 6.938889312744140625e+01 1.591954898834228516e+01 5.404738187789916992e-01 3.187171697616577148e+00 1.118293642997741699e+00 -9.879364967346191406e-01
4.436000000000000000e+03 5.392281723022460938e+01 1.822434616088867188e+01 5.628605484962463379e-01 6.898748278617858887e-01 3.758206069469451904e-01 -5.112424120306968689e-02
4.437000000000000000e+03 2.819880294799804688e+01 -1.675347089767456055e+00 -3.100211024284362793e-01 -4.867154732346534729e-02 -1.076077967882156372e-01 2.632862627506256104e-01
4.438000000000000000e+03 4.391664886474609375e+01 2.023834037780761719e+01 3.603083491325378418e-01 1.800664961338043213e-01 1.621124446392059326e-01 2.549900710582733154e-01
4.439000000000000000e+03 6.683752441406250000e+01 1.315018844604492188e+01 7.058470249176025391e-01 2.333090305328369141e+00 9.116812348365783691e-01 -9.312257766723632812e-01
4.440000000000000000e+03 6.596255493164062500e+01 1.144906330108642578e+01 7.364982366561889648e-01 1.937241196632385254e+00 8.021218180656433105e-01 -8.582944869995117188e-01
4.441000000000000000e+03 6.422514343261718750e+01 1.149483394622802734e+01 7.104550004005432129e-01 1.508188247680664062e+00 6.655929684638977051e-01 -6.723335981369018555e-01
4.442000000000000000e+03 6.442432403564453125e+01 1.255549526214599609e+01 7.074363827705383301e-01 1.637053251266479492e+00 7.033469080924987793e-01 -7.060845494270324707e-01
4.443000000000000000e+03 7.032218170166015625e+01 -1.305367660522460938e+01 1.369677037000656128e-01 1.381786227226257324e+00 4.556261897087097168e-01 9.079388380050659180e-01
4.444000000000000000e+03 3.240227508544921875e+01 1.128602123260498047e+01 -2.130339592695236206e-01 -1.192120388150215149e-01 -9.967380017042160034e-02 5.194467902183532715e-01
4.445000000000000000e+03 6.654252624511718750e+01 1.222193145751953125e+01 7.226995825767517090e-01 2.180397033691406250e+00 8.709290027618408203e-01 -9.208338260650634766e-01
4.446000000000000000e+03 7.085864257812500000e+01 1.400398612022399902e+00 4.774545431137084961e-01 1.966435432434082031e+00 7.331669926643371582e-01 -1.327872753143310547e+00
4.447000000000000000e+03 6.981365203857421875e+01 -1.325554561614990234e+01 1.063697412610054016e-01 1.209951639175415039e+00 3.948963880538940430e-01 7.671001553535461426e-01
4.448000000000000000e+03 6.230470275878906250e+01 1.053019046783447266e+01 6.422361135482788086e-01 1.048544883728027344e+00 5.072343349456787109e-01 -4.524711966514587402e-01
4.449000000000000000e+03 3.968933868408203125e+01 1.498043346405029297e+01 6.400904804468154907e-02 -7.421731017529964447e-03 1.697619445621967316e-02 4.488118290901184082e-01
4.450000000000000000e+03 4.765419769287109375e+01 1.286267948150634766e+01 1.680441051721572876e-01 1.174280941486358643e-01 8.564165979623794556e-02 3.776569366455078125e-01
4.451000000000000000e+03 6.880292510986328125e+01 -1.439245033264160156e+01 2.431192398071289062e-01 1.116413474082946777e+00 4.078598022460937500e-01 6.774471402168273926e-01
4.452000000000000000e+03 3.347087097167968750e+01 9.924949645996093750e+00 -2.492035925388336182e-01 -9.941691160202026367e-02 -1.045861542224884033e-01 5.392068624496459961e-01
4.453000000000000000e+03 6.994814300537109375e+01 -1.533619785308837891e+01 6.100122332572937012e-01 1.827676534652709961e+00 7.313066720962524414e-01 1.133054971694946289e+00
4.454000000000000000e+03 3.227745819091796875e+01 -1.779189109802246094e-01 -4.824163615703582764e-01 -3.055067546665668488e-02 -1.538901180028915405e-01 3.796084821224212646e-01
4.455000000000000000e+03 3.473645019531250000e+01 1.071867179870605469e+01 -2.053931504487991333e-01 -8.263366669416427612e-02 -8.640804141759872437e-02 5.354816913604736328e-01
4.456000000000000000e+03 4.880173110961914062e+01 1.291258430480957031e+01 2.164898812770843506e-01 1.623775511980056763e-01 1.136602237820625305e-01 3.360326290130615234e-01
4.457000000000000000e+03 5.948466491699218750e+01 1.013512039184570312e+01 4.785332977771759033e-01 6.293449997901916504e-01 3.323634862899780273e-01 -1.461006850004196167e-01
4.458000000000000000e+03 5.992780303955078125e+01 9.253623962402343750e+00 4.291291236877441406e-01 5.971894860267639160e-01 3.078955709934234619e-01 -1.366708874702453613e-01
4.459000000000000000e+03 5.931682968139648438e+01 8.339771270751953125e+00 3.345149159431457520e-01 4.600506722927093506e-01 2.383696734905242920e-01 -3.672086447477340698e-02
4.460000000000000000e+03 3.344416809082031250e+01 -1.445321655273437500e+01 -4.365180730819702148e-01 -6.487189233303070068e-02 -1.504169851541519165e-01 -3.341777920722961426e-01
4.461000000000000000e+03 6.653807830810546875e+01 -1.442193508148193359e+01 -1.024098247289657593e-01 5.382986664772033691e-01 1.307666599750518799e-01 1.822619140148162842e-01
4.462000000000000000e+03 3.569229507446289062e+01 9.611496925354003906e+00 -2.347991913557052612e-01 -6.843653321266174316e-02 -9.097071737051010132e-02 5.490959286689758301e-01
4.463000000000000000e+03 6.683808135986328125e+01 -1.490605163574218750e+01 9.975919127464294434e-02 6.915685534477233887e-01 2.373983263969421387e-01 3.230049312114715576e-01
4.464000000000000000e+03 6.007979202270507812e+01 7.174908638000488281e+00 2.452578693628311157e-01 4.198264777660369873e-01 1.995252966880798340e-01 -2.859895303845405579e-02
4.465000000000000000e+03 6.034375381469726562e+01 6.355640888214111328e+00 1.659439951181411743e-01 3.715895116329193115e-01 1.612600535154342651e-01 1.068030484020709991e-02
4.466000000000000000e+03 3.560078811645507812e+01 8.632714271545410156e+00 -2.721312046051025391e-01 -6.668630987405776978e-02 -1.016452535986900330e-01 5.568131804466247559e-01
4.467000000000000000e+03 5.802015304565429688e+01 7.218700885772705078e+00 1.292237341403961182e-01 2.733664214611053467e-01 1.207770481705665588e-01 1.350097954273223877e-01
4.468000000000000000e+03 5.408471679687500000e+01 1.986714005470275879e+00 -9.082237482070922852e-01 -2.965359389781951904e-02 -2.813631892204284668e-01 5.046017765998840332e-01
4.469000000000000000e+03 4.524361419677734375e+01 8.994428634643554688e+00 -1.441017091274261475e-01 3.656177781522274017e-03 -4.213365912437438965e-02 5.201991796493530273e-01
4.470000000000000000e+03 3.787066268920898438e+01 8.101275444030761719e+00 -2.878701984882354736e-01 -4.821060970425605774e-02 -1.008242443203926086e-01 5.657331943511962891e-01
4.471000000000000000e+03 3.760014343261718750e+01 3.843298196792602539e+00 -4.964733719825744629e-01 -3.751996904611587524e-02 -1.601980030536651611e-01 5.413679480552673340e-01
4.472000000000000000e+03 3.836915969848632812e+01 3.901998996734619141e+00 -5.114365816116333008e-01 -3.436838835477828979e-02 -1.637414991855621338e-01 5.460765957832336426e-01
4.473000000000000000e+03 4.569967269897460938e+01 7.726888656616210938e+00 -2.462057620286941528e-01 -8.309095166623592377e-03 -7.635445147752761841e-02 5.413853526115417480e-01
4.474000000000000000e+03 5.093428802490234375e+01 4.401379585266113281e+00 -5.353040695190429688e-01 -1.210323534905910492e-02 -1.642221808433532715e-01 5.160203576087951660e-01
4.475000000000000000e+03 4.602165985107421875e+01 6.487613677978515625e+00 -3.504524827003479004e-01 -1.554390322417020798e-02 -1.097989156842231750e-01 5.484879016876220703e-01
4.476000000000000000e+03 4.574299240112304688e+01 2.361702680587768555e+00 -7.864243388175964355e-01 -3.606646507978439331e-02 -2.467472404241561890e-01 5.327767133712768555e-01
4.477000000000000000e+03 4.476636505126953125e+01 3.035737514495849609e+00 -6.886408329010009766e-01 -3.278850764036178589e-02 -2.164288014173507690e-01 5.494467020034790039e-01
4.478000000000000000e+03 5.534603118896484375e+01 3.008561849594116211e+00 -6.823481917381286621e-01 -1.137980725616216660e-02 -2.081183940172195435e-01 4.659802019596099854e-01
4.479000000000000000e+03 4.570848846435546875e+01 5.493225574493408203e+00 -4.486769139766693115e-01 -2.449163608253002167e-02 -1.419505625963211060e-01 5.647029280662536621e-01
4.480000000000000000e+03 4.708859252929687500e+01 6.337337493896484375e+00 -3.522714674472808838e-01 -1.608841307461261749e-02 -1.105079650878906250e-01 5.442923903465270996e-01
4.481000000000000000e+03 5.266904449462890625e+01 3.477730751037597656e+00 -6.399146318435668945e-01 -1.399115379899740219e-02 -1.961717456579208374e-01 4.996160268783569336e-01
4.482000000000000000e+03 1.488040065765380859e+01 1.046121835708618164e+00 2.170409425161778927e-04 2.921834238804876804e-04 1.527673011878505349e-04 -3.216852519472013228e-06
4.483000000000000000e+03 1.433596038818359375e+01 8.109902739524841309e-01 1.581698306836187840e-04 -9.709330333862453699e-05 1.832295674830675125e-05 1.766228815540671349e-04
4.484000000000000000e+03 1.339948463439941406e+01 9.943951964378356934e-01 7.097433990566059947e-05 -2.390925510553643107e-05 1.411952598573407158e-05 -1.868950675998348743e-05
4.485000000000000000e+03 1.399857616424560547e+01 1.078236818313598633e+00 -9.262446837965399027e-05 -1.255160605069249868e-04 -6.544216012116521597e-05 -3.794268559431657195e-05
4.486000000000000000e+03 1.342517852783203125e+01 2.516243755817413330e-01 -1.092927959689404815e-05 2.257182495668530464e-05 3.492763880785787478e-06 2.361147608098690398e-06
4.487000000000000000e+03 1.503903388977050781e+01 3.840551078319549561e-01 -1.574565430928487331e-05 -2.941710044979117811e-05 -1.354882624582387507e-05 -2.667204353201668710e-05
4.488000000000000000e+03 1.424006271362304688e+01 2.423980534076690674e-01 -2.076211421808693558e-05 1.184733719128416851e-05 -2.674433289939770475e-06 1.517733653599862009e-05
4.489000000000000000e+03 1.447602939605712891e+01 1.142013788223266602e+00 1.008690160233527422e-04 -3.997531530330888927e-05 1.826810876082163304e-05 1.380101184622617438e-05
4.490000000000000000e+03 1.113503360748291016e+01 3.384475409984588623e-01 -6.436835246859118342e-05 -1.105107439798302948e-04 -5.246372893452644348e-05 9.689237231214065105e-06
4.491000000000000000e+03 1.115649890899658203e+01 1.078244447708129883e+00 -1.019358605844900012e-04 7.380997703876346350e-05 -8.437765245616901666e-06 -1.059856294887140393e-04
4.492000000000000000e+03 1.038435840606689453e+01 3.729175329208374023e-01 -1.141763204941526055e-04 1.101731613744050264e-04 -1.200946599055896513e-06 -4.111617090529762208e-05
4.493000000000000000e+03 1.188578510284423828e+01 3.038018345832824707e-01 -4.844395880354568362e-05 1.026704558171331882e-04 1.626794801268260926e-05 -2.955830495920963585e-05
4.494000000000000000e+03 1.263660717010498047e+01 2.689834535121917725e-01 -4.587361672747647390e-06 -8.043964771786704659e-05 -2.550810131651815027e-05 -2.689622760954080150e-06
4.495000000000000000e+03 1.266393947601318359e+01 1.008509635925292969e+00 -5.501502164406701922e-05 1.853194589784834534e-05 -1.094492290576454252e-05 -7.485490641556680202e-05
4.496000000000000000e+03 1.040289020538330078e+01 1.112849831581115723e+00 -2.924444197560660541e-05 -5.741939821746200323e-05 -2.599915205792058259e-05 7.472035940736532211e-05
4.497000000000000000e+03 1.191018390655517578e+01 1.043463349342346191e+00 -2.407163265161216259e-05 -4.610861651599407196e-05 -2.105407475028187037e-05 1.340715880360221490e-05
4.498000000000000000e+03 9.630480766296386719e+00 3.871794641017913818e-01 -1.136592400143854320e-04 -7.954647298902273178e-05 -5.796171171823516488e-05 3.618366463342681527e-05
4.499000000000000000e+03 8.873666763305664062e+00 3.829238712787628174e-01 -1.552342146169394255e-04 3.235808981116861105e-05 -3.686283889692276716e-05 -6.298069638432934880e-05
4.500000000000000000e+03 9.660673141479492188e+00 1.127179503440856934e+00 -1.305594050791114569e-04 3.266026396886445582e-05 -2.936974124168045819e-05 -1.649390760576352477e-04
4.501000000000000000e+03 8.116720199584960938e+00 3.805542886257171631e-01 -1.439595507690683007e-04 2.747951475612353534e-05 -3.494401244097389281e-05 5.664482523570768535e-05
4.502000000000000000e+03 7.360193252563476562e+00 3.795430362224578857e-01 -1.793765550246462226e-04 -7.944954995764419436e-05 -7.764783367747440934e-05 -6.932267569936811924e-05
4.503000000000000000e+03 5.847065925598144531e+00 3.768712580204010010e-01 -1.743540196912363172e-04 -1.527807762613520026e-04 -9.814043733058497310e-05 -6.785173172829672694e-05
4.504000000000000000e+03 5.091114044189453125e+00 3.758820295333862305e-01 -1.188151800306513906e-04 1.694737875368446112e-04 1.519758279755478725e-05 8.366466499865055084e-05
4.505000000000000000e+03 3.579006433486938477e+00 3.681437373161315918e-01 -6.769994797650724649e-05 1.523229148006066680e-04 2.538688931963406503e-05 8.240332681452855468e-05
4.506000000000000000e+03 2.823871612548828125e+00 3.614119887351989746e-01 -7.721268775640055537e-05 -1.264041493413969874e-04 -6.108505476731806993e-05 -4.850834011449478567e-05
4.507000000000000000e+03 2.070111274719238281e+00 3.578882515430450439e-01 -1.237577180290827528e-05 9.251122537534683943e-05 2.404063707217574120e-05 6.482264871010556817e-05
4.508000000000000000e+03 2.362852334976196289e+00 1.097888231277465820e+00 -4.623127097147516906e-05 -5.846798012498766184e-05 -3.140977423754520714e-05 -2.068702269752975553e-05
4.509000000000000000e+03 1.328713655471801758e+00 3.659794926643371582e-01 -2.566362309153191745e-05 -6.384552398230880499e-05 -2.685274557734373957e-05 -3.639628630480729043e-05
4.510000000000000000e+03 1.647709608078002930e+00 1.105979442596435547e+00 -1.979594526346772909e-05 1.831657573347911239e-05 -4.438108760496106697e-07 7.690299389651045203e-05
4.511000000000000000e+03 6.516475677490234375e-01 3.939257264137268066e-01 -9.210800271830521524e-06 2.083689105347730219e-05 3.487826916170888580e-06 2.262280577269848436e-05
4.512000000000000000e+03 3.489431142807006836e-01 9.570703506469726562e-01 -1.418621468474157155e-05 -2.677423083241592394e-07 -4.336186975706368685e-06 2.114300514222122729e-05
4.513000000000000000e+03 3.090358018875122070e+00 1.101411938667297363e+00 -5.007108848076313734e-05 7.900744094513356686e-05 8.680905921210069209e-06 1.053111700457520783e-04
4.514000000000000000e+03 3.819237709045410156e+00 1.108143687248229980e+00 -8.971838542493060231e-05 -9.120149479713290930e-05 -5.427596624940633774e-05 -4.702173464465886354e-05
4.515000000000000000e+03 4.335169315338134766e+00 3.733847737312316895e-01 -1.367343502352014184e-04 -1.655568921705707908e-04 -9.068737563211470842e-05 -6.165185186546295881e-05
4.516000000000000000e+03 6.008533000946044922e+00 1.116871237754821777e+00 -8.894630445865914226e-05 1.145983333117328584e-04 7.695607564528472722e-06 1.421742490492761135e-04
4.517000000000000000e+03 6.603851795196533203e+00 3.786112964153289795e-01 -1.477122714277356863e-04 1.272847584914416075e-04 -6.128255790827097371e-06 7.259702397277578712e-05
4.518000000000000000e+03 8.930113792419433594e+00 1.122923851013183594e+00 -6.754186324542388320e-05 7.328773335757432505e-06 -1.806392538128420711e-05 1.337903959210962057e-04
4.519000000000000000e+03 8.199422836303710938e+00 1.120554327964782715e+00 -1.470094284741207957e-04 -3.034980727534275502e-05 -5.320776836015284061e-05 -1.758652506396174431e-04
4.520000000000000000e+03 7.469150543212890625e+00 1.119543075561523438e+00 -8.740137127460911870e-05 7.632915367139503360e-05 -3.321665417388430797e-06 1.502860104665160179e-04
4.521000000000000000e+03 6.739063739776611328e+00 1.118611335754394531e+00 -1.478880731156095862e-04 -8.338733459822833538e-05 -6.938262231415137649e-05 -1.410219265380874276e-04
4.522000000000000000e+03 5.278835773468017578e+00 1.115882039070129395e+00 -1.315521076321601868e-04 -1.005261947284452617e-04 -6.962349289096891880e-05 -8.981241990113630891e-05
4.523000000000000000e+03 4.549146175384521484e+00 1.113384723663330078e+00 -7.284646562766283751e-05 1.107810021494515240e-04 1.138036077463766560e-05 1.296728878514841199e-04
4.524000000000000000e+03 9.968983530998229980e-01 1.133925795555114746e+00 2.086438325932249427e-05 -3.367026511114090681e-05 -3.841764282697113231e-06 -4.039092891616746783e-05
4.525000000000000000e+03 7.947246074676513672e+00 -3.790149092674255371e-01 -3.441646913415752351e-05 4.128940418013371527e-05 2.061879740722361021e-06 1.065097330865683034e-05
4.526000000000000000e+03 8.798082351684570312e+00 -1.121163964271545410e+00 -1.870423875516280532e-05 3.496819408610463142e-05 4.879187144979368895e-06 3.528415982145816088e-05
4.527000000000000000e+03 9.582462310791015625e+00 -3.862577378749847412e-01 -1.947455893969163299e-05 4.944367174175567925e-05 8.990733476821333170e-06 1.055631400959100574e-05
4.528000000000000000e+03 7.128131389617919922e+00 -3.778152763843536377e-01 -4.211250416119582951e-05 -3.240802107029594481e-05 -2.235615829704329371e-05 -6.248541012610075995e-06
4.529000000000000000e+03 6.302709579467773438e+00 -3.771458566188812256e-01 -4.558679574984125793e-05 2.326295543753076345e-05 -6.697152002743678167e-06 1.121821333072148263e-05
4.530000000000000000e+03 5.439445972442626953e+00 -3.834656774997711182e-01 -3.973943967139348388e-05 -8.290895493701100349e-06 -1.440910091332625598e-05 -1.731005431793164462e-05
4.531000000000000000e+03 4.549984931945800781e+00 -3.402172923088073730e-01 -2.437512375763617456e-05 -2.047505404334515333e-06 -7.926788384793326259e-06 9.208638402924407274e-06
4.532000000000000000e+03 4.365737915039062500e+00 -8.721476197242736816e-01 -9.079342999029904604e-05 9.078446964849717915e-06 -2.451449654472526163e-05 -3.603593722800724208e-05
4.533000000000000000e+03 2.784216165542602539e+00 -7.810403704643249512e-01 -3.536538861226290464e-05 1.137686103902524337e-05 -7.196557817223947495e-06 -4.871077180723659694e-05
4.534000000000000000e+03 1.180924773216247559e+00 -3.613742887973785400e-01 1.412933579558739439e-05 -6.458717962232185528e-06 2.301185304531827569e-06 7.775654012220911682e-06
4.535000000000000000e+03 4.100910127162933350e-01 -5.529776215553283691e-01 -2.731748963924474083e-06 -7.299736921595467720e-07 -1.038516757034813054e-06 -2.748287215581513010e-06
4.536000000000000000e+03 7.475960254669189453e-01 -1.101374268531799316e+00 -5.569628410739824176e-05 1.386534859193488955e-05 -1.254928065463900566e-05 -1.059678015735698864e-05
4.537000000000000000e+03 9.582078933715820312e+00 -1.126257777214050293e+00 -1.789271118468604982e-05 -3.836648465949110687e-05 -1.687775875325314701e-05 -1.266043273062678054e-05
4.538000000000000000e+03 8.013586997985839844e+00 -1.119014978408813477e+00 -2.903875065385363996e-05 -2.839362423401325941e-05 -1.722971137496642768e-05 -1.990131750062573701e-05
4.539000000000000000e+03 7.227835178375244141e+00 -1.117815256118774414e+00 -3.041980198759119958e-05 2.634154589031822979e-05 -1.223476829181890935e-06 3.558539901860058308e-05
4.540000000000000000e+03 6.435775756835937500e+00 -1.117145895957946777e+00 -2.545310053392313421e-05 -1.348319983662804589e-05 -1.168089056591270491e-05 -3.122459384030662477e-05
4.541000000000000000e+03 5.605874538421630859e+00 -1.123465657234191895e+00 -5.501634223037399352e-05 1.253185746463714167e-05 -1.274534588446840644e-05 3.568679312593303621e-05
4.542000000000000000e+03 4.870606899261474609e+00 -1.221678614616394043e+00 2.436375507386401296e-05 1.154309757112059742e-06 7.655418812646530569e-06 -4.209267353871837258e-05
4.543000000000000000e+03 4.215381145477294922e+00 -1.291930317878723145e+00 -4.396652457216987386e-06 -1.309645358560374007e-05 -5.247931767371483147e-06 4.551755046122707427e-05
4.544000000000000000e+03 3.483533143997192383e+00 -1.264367222785949707e+00 -5.895343201700598001e-05 1.161287946160882711e-05 -1.420216540282126516e-05 -8.118716505123302341e-05
4.545000000000000000e+03 2.720056772232055664e+00 -1.259521603584289551e+00 1.963732211152091622e-05 -1.214445546793285757e-06 5.526862878468818963e-06 5.306275488692335784e-05
4.546000000000000000e+03 1.356012225151062012e+00 -1.203287243843078613e+00 8.221605094149708748e-05 -1.868274921434931457e-05 1.905999124574009329e-05 8.119452104438096285e-06
4.547000000000000000e+03 1.973117947578430176e+00 -8.476541042327880859e-01 -2.769768070720601827e-05 -7.119041129044489935e-06 -1.044501641445094720e-05 3.239622310502454638e-05
4.548000000000000000e+03 8.765102386474609375e+00 -3.811639845371246338e-01 -3.013075729541014880e-05 -4.686356987804174423e-05 -2.309829687874298543e-05 -4.289250682631973177e-06
4.549000000000000000e+03 3.694828748703002930e+00 -2.827752828598022461e-01 -3.481950261630117893e-05 8.749003086450102273e-07 -1.018338116409722716e-05 -1.149584295490058139e-05
4.550000000000000000e+03 2.863922595977783203e+00 -2.815187871456146240e-01 -1.280824290006421506e-05 2.870004209398757666e-06 -2.981471652674372308e-06 6.614178346353583038e-06
4.551000000000000000e+03 1.994147539138793945e+00 -3.323310017585754395e-01 -1.213033738167723641e-05 -3.948772700823610649e-06 -4.823732979275519028e-06 -1.717641316645313054e-05
4.552000000000000000e+03 1.978801369667053223e+00 -1.275323033332824707e+00 -5.588339990936219692e-05 -1.124642494687577710e-05 -2.013894845731556416e-05 -6.665031105512753129e-05
4.553000000000000000e+03 3.578665971755981445e+00 -7.871425151824951172e-01 -1.577126568008679897e-06 -2.341611661904607899e-06 -1.175621491711353883e-06 3.030712105100974441e-05
4.554000000000000000e+03 1.511178874969482422e+01 -1.151870131492614746e+00 -9.461307854508049786e-06 -1.046045781549764797e-05 -5.976529791951179504e-06 -5.449882792163407430e-06
4.555000000000000000e+03 1.328532791137695312e+01 -1.267471551895141602e+00 7.017113603069446981e-06 1.703088310023304075e-05 7.214398920041276142e-06 1.319914827035972849e-05
4.556000000000000000e+03 1.480503654479980469e+01 -5.744030475616455078e-01 9.429690180695615709e-06 -3.426728198974160478e-06 1.800888639991171658e-06 3.661293249024311081e-06
4.557000000000000000e+03 1.453040313720703125e+01 -1.313965797424316406e+00 -1.231683290825458243e-05 2.072144525300245732e-05 2.521383976272772998e-06 5.155800408829236403e-06
4.558000000000000000e+03 1.393833351135253906e+01 -1.278923630714416504e+00 -7.244083235491416417e-07 -1.417048315488500521e-05 -4.468467523111030459e-06 -1.017463546304497868e-05
4.559000000000000000e+03 1.336329460144042969e+01 -5.279909372329711914e-01 -2.273616928505362011e-06 -2.808541285048704594e-05 -9.107709047384560108e-06 -6.966421551624080166e-06
4.560000000000000000e+03 1.411463356018066406e+01 -5.394020080566406250e-01 2.227372078777989373e-06 2.033528471656609327e-05 6.768796993128489703e-06 5.950782906438689679e-06
4.561000000000000000e+03 1.111242771148681641e+01 -4.403275847434997559e-01 -6.779875548090785742e-06 4.601741966325789690e-05 1.177126341644907370e-05 7.541194008808815852e-06
4.562000000000000000e+03 1.260764503479003906e+01 -5.095726251602172852e-01 2.692391262826276943e-06 3.197760815965011716e-05 1.040099959936924279e-05 6.194092748046386987e-06
4.563000000000000000e+03 1.185993289947509766e+01 -4.741277396678924561e-01 -5.226889697951264679e-06 -3.978548556915484369e-05 -1.350371348962653428e-05 -1.862451085798966233e-06
4.564000000000000000e+03 1.109096240997314453e+01 -1.180124521255493164e+00 -8.093203177850227803e-06 -4.325113695813342929e-05 -1.540330231364350766e-05 -4.683246061176760122e-06
4.565000000000000000e+03 1.036482620239257812e+01 -4.067706167697906494e-01 -1.460134171793470159e-05 -5.222130857873708010e-05 -2.004679481615312397e-05 -2.498081130397622474e-06
4.566000000000000000e+03 1.034629440307617188e+01 -1.146702885627746582e+00 -1.037344554788433015e-05 4.104986510355956852e-05 9.202926776197273284e-06 2.690896872081793845e-05
4.567000000000000000e+03 1.258031177520751953e+01 -1.249099493026733398e+00 -1.018730927171418443e-05 -2.854005106200929731e-05 -1.161820819106651470e-05 -6.796426532673649490e-06
4.568000000000000000e+03 1.183553314208984375e+01 -1.213789224624633789e+00 1.651446382311405614e-06 3.311090404167771339e-05 1.042870462697464973e-05 1.446643364033661783e-05
4.569000000000000000e+03 7.701587677001953125e+01 -6.406661987304687500e+00 3.135365676879882812e+01 7.010890960693359375e+00 1.150936412811279297e+01 1.324816131591796875e+01
4.570000000000000000e+03 7.701976013183593750e+01 -6.425738811492919922e+00 2.821693992614746094e+01 2.065930366516113281e+01 1.466287326812744141e+01 2.558332633972167969e+01
4.571000000000000000e+03 7.702728271484375000e+01 -6.443694591522216797e+00 2.543855285644531250e+01 3.380244827270507812e+01 1.777230072021484375e+01 2.987737274169921875e+01
4.572000000000000000e+03 7.703815460205078125e+01 -6.459842205047607422e+00 2.114184951782226562e+01 4.754269790649414062e+01 2.060536384582519531e+01 3.104454612731933594e+01
4.573000000000000000e+03 7.705196380615234375e+01 -6.473564147949218750e+00 1.724842834472656250e+01 5.995034790039062500e+01 2.315963363647460938e+01 2.893890762329101562e+01
4.574000000000000000e+03 7.706818389892578125e+01 -6.484334468841552734e+00 1.365280055999755859e+01 7.057345581054687500e+01 2.526787567138671875e+01 2.408108901977539062e+01
4.575000000000000000e+03 7.708618927001953125e+01 -6.491741657257080078e+00 1.184954261779785156e+01 7.826718139648437500e+01 2.703501892089843750e+01 1.724971580505371094e+01
4.576000000000000000e+03 7.710528564453125000e+01 -6.495501995086669922e+00 1.181250667572021484e+01 8.252226257324218750e+01 2.830043029785156250e+01 9.245761871337890625e+00
4.577000000000000000e+03 7.712475585937500000e+01 -6.495471954345703125e+00 1.425461864471435547e+01 8.332358551025390625e+01 2.927346229553222656e+01 1.396840214729309082e+00
4.578000000000000000e+03 7.714384460449218750e+01 -6.491652011871337891e+00 1.830138969421386719e+01 8.082524108886718750e+01 2.973798942565917969e+01 -5.392956256866455078e+00
4.579000000000000000e+03 7.716182708740234375e+01 -6.484189033508300781e+00 2.419983291625976562e+01 7.631225585937500000e+01 3.015362739562988281e+01 -1.011108970642089844e+01
4.580000000000000000e+03 7.717800903320312500e+01 -6.473368167877197266e+00 3.007667922973632812e+01 7.013991546630859375e+01 3.006497955322265625e+01 -1.263513088226318359e+01
4.581000000000000000e+03 7.719178009033203125e+01 -6.459603786468505859e+00 3.626551437377929688e+01 6.432694244384765625e+01 3.017773628234863281e+01 -1.255165481567382812e+01
4.582000000000000000e+03 7.720260620117187500e+01 -6.443422317504882812e+00 4.090691757202148438e+01 5.863123703002929688e+01 2.986144638061523438e+01 -1.064524555206298828e+01
4.583000000000000000e+03 7.721006774902343750e+01 -6.425443172454833984e+00 4.468557739257812500e+01 5.514729309082031250e+01 2.994986152648925781e+01 -6.949440479278564453e+00
4.584000000000000000e+03 7.721389770507812500e+01 -6.406354427337646484e+00 4.634862518310546875e+01 5.271308517456054688e+01 2.971851348876953125e+01 -2.449346780776977539e+00
4.585000000000000000e+03 7.721392822265625000e+01 -6.386886119842529297e+00 4.642232513427734375e+01 5.282591629028320312e+01 2.977447319030761719e+01 2.347286224365234375e+00
4.586000000000000000e+03 7.721017456054687500e+01 -6.367784023284912109e+00 4.468867874145507812e+01 5.500814437866210938e+01 2.990904617309570312e+01 6.892477989196777344e+00
4.587000000000000000e+03 7.720277404785156250e+01 -6.349778175354003906e+00 4.102266311645507812e+01 5.859082031250000000e+01 2.988404464721679688e+01 1.057563781738281250e+01
4.588000000000000000e+03 7.719200134277343750e+01 -6.333558082580566406e+00 3.638829040527343750e+01 6.421065521240234375e+01 3.017968368530273438e+01 1.252356147766113281e+01
4.589000000000000000e+03 7.717828369140625000e+01 -6.319745063781738281e+00 3.017779159545898438e+01 7.007568359375000000e+01 3.007604408264160156e+01 1.264538288116455078e+01
4.590000000000000000e+03 7.716213989257812500e+01 -6.308866500854492188e+00 2.435185050964355469e+01 7.618920135498046875e+01 3.016231346130371094e+01 1.019626426696777344e+01
4.591000000000000000e+03 7.714418792724609375e+01 -6.301339149475097656e+00 1.845259475708007812e+01 8.082044982910156250e+01 2.978191184997558594e+01 5.459085941314697266e+00
4.592000000000000000e+03 7.712510681152343750e+01 -6.297451496124267578e+00 1.432809829711914062e+01 8.332359313964843750e+01 2.929550743103027344e+01 -1.251610636711120605e+00
4.593000000000000000e+03 7.710564422607421875e+01 -6.297351837158203125e+00 1.193756866455078125e+01 8.262702178955078125e+01 2.836937713623046875e+01 -9.130929946899414062e+00
4.594000000000000000e+03 7.708652496337890625e+01 -6.301044464111328125e+00 1.184845542907714844e+01 7.841255187988281250e+01 2.707830047607421875e+01 -1.713215827941894531e+01
4.595000000000000000e+03 7.706849670410156250e+01 -6.308387756347656250e+00 1.377549934387207031e+01 7.083152008056640625e+01 2.538210487365722656e+01 -2.398776817321777344e+01
4.596000000000000000e+03 7.705223846435546875e+01 -6.319100379943847656e+00 1.728985404968261719e+01 6.015181350708007812e+01 2.323250007629394531e+01 -2.893866157531738281e+01
4.597000000000000000e+03 7.703838348388671875e+01 -6.332772731781005859e+00 2.121439361572265625e+01 4.785585403442382812e+01 2.072107505798339844e+01 -3.107390213012695312e+01
4.598000000000000000e+03 7.702745056152343750e+01 -6.348881721496582031e+00 2.564748382568359375e+01 3.405928039550781250e+01 1.791202926635742188e+01 -2.992540931701660156e+01
4.599000000000000000e+03 7.701985931396484375e+01 -6.366810798645019531e+00 2.844484710693359375e+01 2.084774017333984375e+01 1.478777599334716797e+01 -2.569208335876464844e+01
4.600000000000000000e+03 7.701590728759765625e+01 -6.385873317718505859e+00 3.166400527954101562e+01 7.017214298248291016e+00 1.160436630249023438e+01 -1.338054943084716797e+01
