# el_label, x, y, sXX, sYY, sZZ, sXY
1.000000000000000000e+00 3.782113647460937500e+01 -6.661319255828857422e+00 -3.340028762817382812e+00 -2.759479999542236328e+00 -1.829852581024169922e+00 -2.670673608779907227e+00
2.000000000000000000e+00 3.762385940551757812e+01 -6.687755107879638672e+00 5.661454796791076660e-01 1.069692015647888184e+00 4.907512664794921875e-01 7.711194753646850586e-01
3.000000000000000000e+00 3.742658233642578125e+01 -6.714191436767578125e+00 -6.963183879852294922e-01 -4.578223824501037598e-01 -3.462422192096710205e-01 2.768368832767009735e-02
4.000000000000000000e+00 3.722930526733398438e+01 -6.740627765655517578e+00 -1.109553217887878418e+00 2.603753209114074707e-01 -2.547533512115478516e-01 1.853738576173782349e-01
5.000000000000000000e+00 3.783451843261718750e+01 -6.718169689178466797e+00 1.150103187561035156e+01 -2.276700973510742188e+00 2.767299175262451172e+00 2.469376564025878906e+00
6.000000000000000000e+00 3.764616394042968750e+01 -6.782506942749023438e+00 4.385045528411865234e+00 4.913866817951202393e-01 1.462929606437683105e+00 1.525050044059753418e+00
7.000000000000000000e+00 3.745780563354492188e+01 -6.846843719482421875e+00 4.080031394958496094e+00 9.325653314590454102e-01 1.503779053688049316e+00 2.274051666259765625e+00
8.000000000000000000e+00 3.726945114135742188e+01 -6.911180019378662109e+00 2.904535055160522461e+00 2.950739860534667969e-01 9.598827362060546875e-01 1.541479110717773438e+00
9.000000000000000000e+00 3.785871124267578125e+01 -6.771327495574951172e+00 1.607156181335449219e+01 3.216400861740112305e+00 5.786388874053955078e+00 9.444732666015625000e+00
1.000000000000000000e+01 3.768648529052734375e+01 -6.871102809906005859e+00 9.892686843872070312e+00 1.967890262603759766e+00 3.558173179626464844e+00 5.546804904937744141e+00
1.100000000000000000e+01 3.751425933837890625e+01 -6.970878124237060547e+00 6.783008098602294922e+00 2.341889381408691406e+00 2.737469196319580078e+00 4.310968399047851562e+00
1.200000000000000000e+01 3.734202957153320312e+01 -7.070653438568115234e+00 5.759154319763183594e+00 2.087651729583740234e+00 2.354041814804077148e+00 4.126969337463378906e+00
1.300000000000000000e+01 3.789279174804687500e+01 -6.818758010864257812e+00 1.722239494323730469e+01 1.052986335754394531e+01 8.325676918029785156e+00 1.460492706298828125e+01
1.400000000000000000e+01 3.774328231811523438e+01 -6.950153827667236328e+00 1.125341892242431641e+01 6.550380229949951172e+00 5.341139793395996094e+00 9.574665069580078125e+00
1.500000000000000000e+01 3.759377670288085938e+01 -7.081549644470214844e+00 8.868733406066894531e+00 5.412383079528808594e+00 4.284335136413574219e+00 7.517351150512695312e+00
1.600000000000000000e+01 3.744427108764648438e+01 -7.212945461273193359e+00 6.981544494628906250e+00 4.643562316894531250e+00 3.487532138824462891e+00 6.392293453216552734e+00
1.700000000000000000e+01 3.793545150756835938e+01 -6.858646869659423828e+00 1.508211803436279297e+01 1.933288955688476562e+01 1.032450199127197266e+01 1.750538444519042969e+01
1.800000000000000000e+01 3.781438446044921875e+01 -7.016634941101074219e+00 1.105624580383300781e+01 1.261066055297851562e+01 7.100071907043457031e+00 1.234984588623046875e+01
1.900000000000000000e+01 3.769332122802734375e+01 -7.174623012542724609e+00 8.583889961242675781e+00 1.004958248138427734e+01 5.590041637420654297e+00 9.907458305358886719e+00
2.000000000000000000e+01 3.757225418090820312e+01 -7.332611083984375000e+00 7.338517665863037109e+00 8.724747657775878906e+00 4.818979740142822266e+00 8.613932609558105469e+00
2.100000000000000000e+01 3.798506546020507812e+01 -6.889466762542724609e+00 1.221826171875000000e+01 2.820370864868164062e+01 1.212659072875976562e+01 1.772729682922363281e+01
2.200000000000000000e+01 3.789707183837890625e+01 -7.068001270294189453e+00 9.193558692932128906e+00 1.933920478820800781e+01 8.559828758239746094e+00 1.319608211517333984e+01
2.300000000000000000e+01 3.780907821655273438e+01 -7.246536254882812500e+00 7.557785511016845703e+00 1.550673103332519531e+01 6.919354915618896484e+00 1.107568645477294922e+01
2.400000000000000000e+01 3.772108459472656250e+01 -7.425070762634277344e+00 6.347648143768310547e+00 1.337475299835205078e+01 5.916720390319824219e+00 9.582515716552734375e+00
2.500000000000000000e+01 3.803972625732421875e+01 -6.910038471221923828e+00 9.243693351745605469e+00 3.611370086669921875e+01 1.360721778869628906e+01 1.531364059448242188e+01
2.600000000000000000e+01 3.798817443847656250e+01 -7.102287769317626953e+00 7.351462841033935547e+00 2.573017501831054688e+01 9.924490928649902344e+00 1.226439762115478516e+01
2.700000000000000000e+01 3.793662261962890625e+01 -7.294537067413330078e+00 5.922525405883789062e+00 2.092733383178710938e+01 8.054958343505859375e+00 1.046069335937500000e+01
2.800000000000000000e+01 3.788507080078125000e+01 -7.486786365509033203e+00 5.006508827209472656e+00 1.810901260375976562e+01 6.934656620025634766e+00 9.308334350585937500e+00
2.900000000000000000e+01 3.809734725952148438e+01 -6.919575214385986328e+00 7.700120925903320312e+00 4.209811782836914062e+01 1.493947124481201172e+01 1.109974384307861328e+01
3.000000000000000000e+01 3.808420944213867188e+01 -7.118182182312011719e+00 5.899076938629150391e+00 3.098332214355468750e+01 1.106471920013427734e+01 9.632699966430664062e+00
3.100000000000000000e+01 3.807106781005859375e+01 -7.316789150238037109e+00 4.733039379119873047e+00 2.567098808288574219e+01 9.121208190917968750e+00 8.513722419738769531e+00
3.200000000000000000e+01 3.805792999267578125e+01 -7.515396118164062500e+00 3.818169116973876953e+00 2.228835487365722656e+01 7.831956863403320312e+00 7.609002113342285156e+00
3.300000000000000000e+01 3.815572357177734375e+01 -6.917711734771728516e+00 7.850589752197265625e+00 4.557413482666015625e+01 1.602741622924804688e+01 5.873906612396240234e+00
3.400000000000000000e+01 3.818149948120117188e+01 -7.115076065063476562e+00 5.701164245605468750e+00 3.466365814208984375e+01 1.210944747924804688e+01 6.071408748626708984e+00
3.500000000000000000e+01 3.820727920532226562e+01 -7.312440872192382812e+00 4.291799545288085938e+00 2.905659294128417969e+01 1.000451755523681641e+01 5.506132602691650391e+00
3.600000000000000000e+01 3.823305892944335938e+01 -7.509805679321289062e+00 3.497078895568847656e+00 2.559282112121582031e+01 8.726970672607421875e+00 5.091515064239501953e+00
3.700000000000000000e+01 3.821261596679687500e+01 -6.904519557952880859e+00 9.992637634277343750e+00 4.664799880981445312e+01 1.699219131469726562e+01 8.699905276298522949e-01
3.800000000000000000e+01 3.827632522583007812e+01 -7.093089103698730469e+00 6.789428234100341797e+00 3.641952896118164062e+01 1.296268749237060547e+01 2.101714372634887695e+00
3.900000000000000000e+01 3.834003448486328125e+01 -7.281659126281738281e+00 5.113932609558105469e+00 3.095155525207519531e+01 1.081964588165283203e+01 2.234517335891723633e+00
4.000000000000000000e+01 3.840374374389648438e+01 -7.470228672027587891e+00 4.102540969848632812e+00 2.737710952758789062e+01 9.443895339965820312e+00 2.139746189117431641e+00
4.100000000000000000e+01 3.826585388183593750e+01 -6.880503177642822266e+00 1.360502529144287109e+01 4.559685897827148438e+01 1.776056480407714844e+01 -3.196002721786499023e+00
4.200000000000000000e+01 3.836505508422851562e+01 -7.053061962127685547e+00 9.198066711425781250e+00 3.651483154296875000e+01 1.371386909484863281e+01 -1.396077871322631836e+00
4.300000000000000000e+01 3.846425628662109375e+01 -7.225620746612548828e+00 7.115519046783447266e+00 3.119146919250488281e+01 1.149209690093994141e+01 -8.582395315170288086e-01
4.400000000000000000e+01 3.856345748901367188e+01 -7.398179531097412109e+00 5.751750946044921875e+00 2.773902702331542969e+01 1.004723358154296875e+01 -5.628262162208557129e-01
4.500000000000000000e+01 3.831340026855468750e+01 -6.846581935882568359e+00 1.803714942932128906e+01 4.333253097534179688e+01 1.841090393066406250e+01 -5.667273998260498047e+00
4.600000000000000000e+01 3.844429779052734375e+01 -6.996526241302490234e+00 1.255092811584472656e+01 3.513127517700195312e+01 1.430466175079345703e+01 -3.952173948287963867e+00
4.700000000000000000e+01 3.857519531250000000e+01 -7.146471023559570312e+00 9.983032226562500000e+00 3.024977684020996094e+01 1.206984329223632812e+01 -3.132133245468139648e+00
4.800000000000000000e+01 3.870608901977539062e+01 -7.296415805816650391e+00 8.318027496337890625e+00 2.690842056274414062e+01 1.056793403625488281e+01 -2.688771247863769531e+00
4.900000000000000000e+01 3.835343170166015625e+01 -6.804053783416748047e+00 2.250263786315917969e+01 4.044648361206054688e+01 1.888473510742187500e+01 -6.476125240325927734e+00
5.000000000000000000e+01 3.851101303100585938e+01 -6.925645828247070312e+00 1.629479408264160156e+01 3.304954910278320312e+01 1.480330371856689453e+01 -5.130507469177246094e+00
5.100000000000000000e+01 3.866859817504882812e+01 -7.047238349914550781e+00 1.323793983459472656e+01 2.841845703125000000e+01 1.249691963195800781e+01 -4.314645767211914062e+00
5.200000000000000000e+01 3.882617950439453125e+01 -7.168830871582031250e+00 1.126939868927001953e+01 2.554455375671386719e+01 1.104418563842773438e+01 -3.765688180923461914e+00
5.300000000000000000e+01 3.838441467285156250e+01 -6.754546165466308594e+00 2.632748222351074219e+01 3.787379074096679688e+01 1.926038169860839844e+01 -5.759448528289794922e+00
5.400000000000000000e+01 3.856265640258789062e+01 -6.843133449554443359e+00 1.980549812316894531e+01 3.067901992797851562e+01 1.514535522460937500e+01 -4.905543327331542969e+00
5.500000000000000000e+01 3.874089431762695312e+01 -6.931720733642578125e+00 1.629060745239257812e+01 2.653767204284667969e+01 1.284848403930664062e+01 -4.232726573944091797e+00
5.600000000000000000e+01 3.891913604736328125e+01 -7.020308017730712891e+00 1.406348228454589844e+01 2.372817039489746094e+01 1.133749580383300781e+01 -3.688528537750244141e+00
5.700000000000000000e+01 3.840517044067382812e+01 -6.699953556060791016e+00 2.905439949035644531e+01 3.591278076171875000e+01 1.949015426635742188e+01 -3.889951944351196289e+00
5.800000000000000000e+01 3.859724426269531250e+01 -6.752145767211914062e+00 2.245965194702148438e+01 2.883285713195800781e+01 1.538775253295898438e+01 -3.501336574554443359e+00
5.900000000000000000e+01 3.878932189941406250e+01 -6.804337978363037109e+00 1.865645790100097656e+01 2.490165901184082031e+01 1.306743526458740234e+01 -2.985652208328247070e+00
6.000000000000000000e+01 3.898139953613281250e+01 -6.856530189514160156e+00 1.616932487487792969e+01 2.224065971374511719e+01 1.152299499511718750e+01 -2.683253526687622070e+00
6.100000000000000000e+01 3.841489791870117188e+01 -6.642364501953125000e+00 3.040247535705566406e+01 3.497128677368164062e+01 1.961212730407714844e+01 -1.393187046051025391e+00
6.200000000000000000e+01 3.861346054077148438e+01 -6.656164646148681641e+00 2.380520629882812500e+01 2.785552406311035156e+01 1.549821853637695312e+01 -1.264139056205749512e+00
6.300000000000000000e+01 3.881202316284179688e+01 -6.669964313507080078e+00 1.992459106445312500e+01 2.401045989990234375e+01 1.318051528930664062e+01 -1.081303238868713379e+00
6.400000000000000000e+01 3.901058578491210938e+01 -6.683764457702636719e+00 1.729635429382324219e+01 2.147430992126464844e+01 1.163119888305664062e+01 -9.290501475334167480e-01
6.500000000000000000e+01 3.841322708129882812e+01 -6.583983898162841797e+00 3.023163032531738281e+01 3.509032440185546875e+01 1.959658622741699219e+01 1.269760608673095703e+00
6.600000000000000000e+01 3.861067581176757812e+01 -6.558863639831542969e+00 2.369435501098632812e+01 2.801506233215332031e+01 1.551282501220703125e+01 1.195128083229064941e+00
6.700000000000000000e+01 3.880812835693359375e+01 -6.533742904663085938e+00 1.977345848083496094e+01 2.409865951538085938e+01 1.316163539886474609e+01 1.035426259040832520e+00
6.800000000000000000e+01 3.900557708740234375e+01 -6.508622646331787109e+00 1.729336166381835938e+01 2.155783843994140625e+01 1.165536022186279297e+01 9.514700770378112793e-01
6.900000000000000000e+01 3.840022659301757812e+01 -6.527045249938964844e+00 2.863669395446777344e+01 3.638106155395507812e+01 1.950532722473144531e+01 3.633939981460571289e+00
7.000000000000000000e+01 3.858900451660156250e+01 -6.463965415954589844e+00 2.206471633911132812e+01 2.916431999206542969e+01 1.536871051788330078e+01 3.260615348815917969e+00
7.100000000000000000e+01 3.877778625488281250e+01 -6.400886058807373047e+00 1.837404823303222656e+01 2.521088409423828125e+01 1.307547950744628906e+01 2.829792261123657227e+00
7.200000000000000000e+01 3.896656799316406250e+01 -6.337806224822998047e+00 1.590107440948486328e+01 2.247854995727539062e+01 1.151388740539550781e+01 2.481266260147094727e+00
7.300000000000000000e+01 3.837638473510742188e+01 -6.473727226257324219e+00 2.569354820251464844e+01 3.843297958374023438e+01 1.923795890808105469e+01 5.215069770812988281e+00
7.400000000000000000e+01 3.854927444458007812e+01 -6.375102519989013672e+00 1.928407096862792969e+01 3.125230026245117188e+01 1.516091156005859375e+01 4.413433074951171875e+00
7.500000000000000000e+01 3.872216415405273438e+01 -6.276477336883544922e+00 1.588312053680419922e+01 2.685814857482910156e+01 1.282238101959228516e+01 3.771605253219604492e+00
7.600000000000000000e+01 3.889505386352539062e+01 -6.177852630615234375e+00 1.363819408416748047e+01 2.411815452575683594e+01 1.132690429687500000e+01 3.369948148727416992e+00
7.700000000000000000e+01 3.834262466430664062e+01 -6.426070690155029297e+00 2.182336807250976562e+01 4.117586517333984375e+01 1.889977073669433594e+01 5.542465686798095703e+00
7.800000000000000000e+01 3.849300384521484375e+01 -6.295674324035644531e+00 1.577422809600830078e+01 3.350421905517578125e+01 1.478353404998779297e+01 4.316653251647949219e+00
7.900000000000000000e+01 3.864338302612304688e+01 -6.165278434753417969e+00 1.280384731292724609e+01 2.889159202575683594e+01 1.250863170623779297e+01 3.545747995376586914e+00
8.000000000000000000e+01 3.879376602172851562e+01 -6.034882068634033203e+00 1.092845153808593750e+01 2.567566490173339844e+01 1.098123455047607422e+01 3.165319442749023438e+00
8.100000000000000000e+01 3.830022811889648438e+01 -6.385898590087890625e+00 1.744260978698730469e+01 4.388415908813476562e+01 1.839802932739257812e+01 4.346777915954589844e+00
8.200000000000000000e+01 3.842234420776367188e+01 -6.228721141815185547e+00 1.220356178283691406e+01 3.549908447265625000e+01 1.431079387664794922e+01 2.758505821228027344e+00
8.300000000000000000e+01 3.854446411132812500e+01 -6.071543693542480469e+00 9.715394020080566406e+00 3.048431205749511719e+01 1.205991172790527344e+01 2.157331943511962891e+00
8.400000000000000000e+01 3.866658020019531250e+01 -5.914366245269775391e+00 8.138119697570800781e+00 2.710696983337402344e+01 1.057352638244628906e+01 1.741627931594848633e+00
8.500000000000000000e+01 3.825082397460937500e+01 -6.354748725891113281e+00 1.331325149536132812e+01 4.584291076660156250e+01 1.774684906005859375e+01 1.500523924827575684e+00
8.600000000000000000e+01 3.834000396728515625e+01 -6.176804542541503906e+00 9.160684585571289062e+00 3.658744430541992188e+01 1.372443866729736328e+01 -4.062563180923461914e-02
8.700000000000000000e+01 3.842918777465820312e+01 -5.998860359191894531e+00 7.152535438537597656e+00 3.113420867919921875e+01 1.148602294921875000e+01 -3.643455207347869873e-01
8.800000000000000000e+01 3.851836776733398438e+01 -5.820916652679443359e+00 5.901432037353515625e+00 2.771686363220214844e+01 1.008548927307128906e+01 -4.573748409748077393e-01
8.900000000000000000e+01 3.819630432128906250e+01 -6.333813190460205078e+00 1.022094631195068359e+01 4.642740249633789062e+01 1.699450492858886719e+01 -2.823975324630737305e+00
9.000000000000000000e+01 3.824913406372070312e+01 -6.141911506652832031e+00 7.118732929229736328e+00 3.606964111328125000e+01 1.295651245117187500e+01 -3.630512237548828125e+00
9.100000000000000000e+01 3.830196762084960938e+01 -5.950010299682617188e+00 5.576997756958007812e+00 3.061551666259765625e+01 1.085775470733642578e+01 -3.559370756149291992e+00
9.200000000000000000e+01 3.835480117797851562e+01 -5.758109092712402344e+00 4.556180000305175781e+00 2.686919784545898438e+01 9.427613258361816406e+00 -3.303492069244384766e+00
9.300000000000000000e+01 3.813874816894531250e+01 -6.323892593383789062e+00 8.625200271606445312e+00 4.477170562744140625e+01 1.601907157897949219e+01 -7.871870994567871094e+00
9.400000000000000000e+01 3.815320968627929688e+01 -6.125377178192138672e+00 6.522890567779541016e+00 3.386230087280273438e+01 1.211555671691894531e+01 -7.527830600738525391e+00
9.500000000000000000e+01 3.816767120361328125e+01 -5.926862239837646484e+00 5.087023735046386719e+00 2.835152053833007812e+01 1.003156375885009766e+01 -6.742239952087402344e+00
9.600000000000000000e+01 3.818213272094726562e+01 -5.728347778320312500e+00 4.287540435791015625e+00 2.501015281677246094e+01 8.789308547973632812e+00 -6.225287437438964844e+00
9.700000000000000000e+01 3.808036041259765625e+01 -6.325366497039794922e+00 9.013478279113769531e+00 4.069203567504882812e+01 1.491165351867675781e+01 -1.287382984161376953e+01
9.800000000000000000e+01 3.805590057373046875e+01 -6.127834320068359375e+00 7.179909229278564453e+00 2.978333473205566406e+01 1.108897304534912109e+01 -1.084816551208496094e+01
9.900000000000000000e+01 3.803143692016601562e+01 -5.930302619934082031e+00 5.792461395263671875e+00 2.463660240173339844e+01 9.128719329833984375e+00 -9.489953041076660156e+00
1.000000000000000000e+02 3.800697326660156250e+01 -5.732770442962646484e+00 4.953712940216064453e+00 2.153680038452148438e+01 7.947154045104980469e+00 -8.373182296752929688e+00
1.010000000000000000e+02 3.802337646484375000e+01 -6.338179588317871094e+00 1.108440971374511719e+01 3.426774215698242188e+01 1.360564613342285156e+01 -1.661039352416992188e+01
1.020000000000000000e+02 3.796092987060546875e+01 -6.149188995361328125e+00 8.836074829101562500e+00 2.423374938964843750e+01 9.920947074890136719e+00 -1.311348533630371094e+01
1.030000000000000000e+02 3.789847946166992188e+01 -5.960198879241943359e+00 7.299285888671875000e+00 1.970395088195800781e+01 8.100971221923828125e+00 -1.102993965148925781e+01
1.040000000000000000e+02 3.783602905273437500e+01 -5.771208763122558594e+00 6.253161907196044922e+00 1.687578964233398438e+01 6.938685417175292969e+00 -9.744420051574707031e+00
1.050000000000000000e+02 3.796998214721679688e+01 -6.361840248107910156e+00 1.428525447845458984e+01 2.607935523986816406e+01 1.210938262939453125e+01 -1.841318321228027344e+01
1.060000000000000000e+02 3.787193298339843750e+01 -6.188623905181884766e+00 1.076436614990234375e+01 1.779538536071777344e+01 8.567925453186035156e+00 -1.354780292510986328e+01
1.070000000000000000e+02 3.777388381958007812e+01 -6.015407562255859375e+00 9.004055976867675781e+00 1.416499900817871094e+01 6.950716495513916016e+00 -1.127435588836669922e+01
1.080000000000000000e+02 3.767583847045898438e+01 -5.842191219329833984e+00 7.632558822631835938e+00 1.209854602813720703e+01 5.919331550598144531e+00 -9.784917831420898438e+00
1.090000000000000000e+02 3.792221069335937500e+01 -6.395443916320800781e+00 1.704212570190429688e+01 1.727991485595703125e+01 1.029661178588867188e+01 -1.753064727783203125e+01
1.100000000000000000e+02 3.779232025146484375e+01 -6.244629859924316406e+00 1.253267097473144531e+01 1.118469810485839844e+01 7.115210533142089844e+00 -1.221152496337890625e+01
1.110000000000000000e+02 3.766242218017578125e+01 -6.093816280364990234e+00 9.831480026245117188e+00 8.839519500732421875e+00 5.601300239562988281e+00 -9.803944587707519531e+00
1.120000000000000000e+02 3.753252792358398438e+01 -5.943002223968505859e+00 8.505228042602539062e+00 7.800170421600341797e+00 4.891619682312011719e+00 -8.538639068603515625e+00
1.130000000000000000e+02 3.788189697265625000e+01 -6.437704086303710938e+00 1.881812667846679688e+01 8.867913246154785156e+00 8.305811882019042969e+00 -1.401991081237792969e+01
1.140000000000000000e+02 3.772512817382812500e+01 -6.315063953399658203e+00 1.236632156372070312e+01 5.443503379821777344e+00 5.342947483062744141e+00 -9.130451202392578125e+00
1.150000000000000000e+02 3.756835937500000000e+01 -6.192423820495605469e+00 9.821683883666992188e+00 4.550902366638183594e+00 4.311775684356689453e+00 -7.175351142883300781e+00
1.160000000000000000e+02 3.741159057617187500e+01 -6.069783687591552734e+00 7.817924022674560547e+00 3.965042829513549805e+00 3.534889936447143555e+00 -6.037694454193115234e+00
1.170000000000000000e+02 3.785058593750000000e+01 -6.487004280090332031e+00 1.703075599670410156e+01 2.187371730804443359e+00 5.765438079833984375e+00 -8.554964065551757812e+00
1.180000000000000000e+02 3.767293930053710938e+01 -6.397230625152587891e+00 1.053093433380126953e+01 1.322762370109558105e+00 3.556108951568603516e+00 -4.981673717498779297e+00
1.190000000000000000e+02 3.749529266357421875e+01 -6.307456970214843750e+00 7.330779552459716797e+00 1.896165966987609863e+00 2.768083572387695312e+00 -3.928133249282836914e+00
1.200000000000000000e+02 3.731764984130859375e+01 -6.217683315277099609e+00 6.390399932861328125e+00 1.528801321983337402e+00 2.375760316848754883e+00 -3.751836776733398438e+00
1.210000000000000000e+02 3.782946777343750000e+01 -6.541457176208496094e+00 1.164004325866699219e+01 -2.537024497985839844e+00 2.730905532836914062e+00 -1.598410725593566895e+00
1.220000000000000000e+02 3.763774490356445312e+01 -6.487986087799072266e+00 4.546555995941162109e+00 3.510379195213317871e-01 1.469278097152709961e+00 -1.246083021163940430e+00
1.230000000000000000e+02 3.744601821899414062e+01 -6.434514522552490234e+00 4.414682865142822266e+00 6.464830040931701660e-01 1.518349766731262207e+00 -1.996230244636535645e+00
1.240000000000000000e+02 3.725429534912109375e+01 -6.381042957305908203e+00 3.229112625122070312e+00 1.181078702211380005e-01 1.004166126251220703e+00 -1.354948997497558594e+00
1.250000000000000000e+02 3.781935501098632812e+01 -6.598979949951171875e+00 -3.765786170959472656e+00 -2.436801671981811523e+00 -1.860776305198669434e+00 2.629130363464355469e+00
1.260000000000000000e+02 3.762088775634765625e+01 -6.583856105804443359e+00 6.494754552841186523e-01 9.709513783454895020e-01 4.861280322074890137e-01 -7.569106221199035645e-01
1.270000000000000000e+02 3.742242431640625000e+01 -6.568733215332031250e+00 -6.200880408287048340e-01 -4.681624174118041992e-01 -3.264751434326171875e-01 -3.134586662054061890e-02
1.280000000000000000e+02 3.722395706176757812e+01 -6.553609848022460938e+00 -9.738277792930603027e-01 2.490489035844802856e-01 -2.174336761236190796e-01 -2.407500445842742920e-01
1.290000000000000000e+02 2.196186065673828125e+01 -6.700578212738037109e+00 -8.187015056610107422e-01 1.374307461082935333e-02 -2.414875328540802002e-01 1.728468202054500580e-02
1.300000000000000000e+02 2.033289909362792969e+01 -7.179516792297363281e+00 -4.950848221778869629e-01 4.705478623509407043e-02 -1.344090104103088379e-01 -1.770858168601989746e-01
1.310000000000000000e+02 2.261169624328613281e+01 -7.556783676147460938e+00 -9.691547751426696777e-01 3.490528091788291931e-02 -2.802748382091522217e-01 -1.911472380161285400e-01
1.320000000000000000e+02 2.185197448730468750e+01 -7.432458400726318359e+00 -8.195189833641052246e-01 4.873844236135482788e-02 -2.312341630458831787e-01 -1.834843605756759644e-01
1.330000000000000000e+02 2.270871162414550781e+01 -6.822772979736328125e+00 -1.082536458969116211e+00 -6.604468915611505508e-03 -3.267422914505004883e-01 2.932356297969818115e-02
1.340000000000000000e+02 2.121509361267089844e+01 -6.576943874359130859e+00 -5.990108251571655273e-01 8.473893627524375916e-03 -1.771610826253890991e-01 -7.429231423884630203e-03
1.350000000000000000e+02 2.046852302551269531e+01 -6.451897144317626953e+00 -4.000317156314849854e-01 2.259099483489990234e-02 -1.132322102785110474e-01 -3.011489659547805786e-02
1.360000000000000000e+02 2.109233665466308594e+01 -7.306693553924560547e+00 -6.489264369010925293e-01 5.689048394560813904e-02 -1.776107996702194214e-01 -1.810014843940734863e-01
1.370000000000000000e+02 2.421343040466308594e+01 -6.977969646453857422e+00 -1.494044661521911621e+00 3.354230429977178574e-03 -4.472071230411529541e-01 2.415299415588378906e-02
1.380000000000000000e+02 2.414235687255859375e+01 -7.714632511138916016e+00 -1.285236835479736328e+00 2.338184602558612823e-02 -3.785564899444580078e-01 -1.516969949007034302e-01
1.390000000000000000e+02 2.337517356872558594e+01 -7.650850772857666016e+00 -1.121347427368164062e+00 2.024133503437042236e-02 -3.303318321704864502e-01 -1.682484298944473267e-01
1.400000000000000000e+02 2.490980529785156250e+01 -7.777047634124755859e+00 -1.426961898803710938e+00 1.804378069937229156e-02 -4.226754605770111084e-01 -1.549546867609024048e-01
1.410000000000000000e+02 2.496787261962890625e+01 -7.039327144622802734e+00 -1.689127922058105469e+00 2.099706325680017471e-03 -5.061084628105163574e-01 3.411678224802017212e-02
1.420000000000000000e+02 2.567740631103515625e+01 -7.838097095489501953e+00 -1.528610110282897949e+00 -4.677881952375173569e-03 -4.599863886833190918e-01 -1.530230045318603516e-01
1.430000000000000000e+02 2.572246742248535156e+01 -7.099318504333496094e+00 -1.916516065597534180e+00 -1.362815685570240021e-02 -5.790432691574096680e-01 2.636143565177917480e-02
1.440000000000000000e+02 2.345925331115722656e+01 -6.915245532989501953e+00 -1.315937995910644531e+00 -6.595700047910213470e-03 -3.967601060867309570e-01 2.256210893392562866e-02
1.450000000000000000e+02 2.796761512756347656e+01 -7.914083957672119141e+00 -1.797289967536926270e+00 3.785058623179793358e-03 -5.380514860153198242e-01 -1.170132607221603394e-01
1.460000000000000000e+02 2.720497512817382812e+01 -7.896495819091796875e+00 -1.733969211578369141e+00 9.375241934321820736e-04 -5.199095010757446289e-01 -1.151023581624031067e-01
1.470000000000000000e+02 2.644245719909667969e+01 -7.877746582031250000e+00 -1.629721879959106445e+00 -1.093004085123538971e-02 -4.921955764293670654e-01 -1.290600895881652832e-01
1.480000000000000000e+02 2.873032188415527344e+01 -7.930514812469482422e+00 -1.820163130760192871e+00 -7.375999819487333298e-03 -5.482617020606994629e-01 -1.016263440251350403e-01
1.490000000000000000e+02 2.798519706726074219e+01 -7.174292564392089844e+00 -2.320392131805419922e+00 6.662769592367112637e-04 -6.959177255630493164e-01 -1.408804021775722504e-02
1.500000000000000000e+02 2.723094940185546875e+01 -7.156898498535156250e+00 -2.197004795074462891e+00 9.782358538359403610e-04 -6.588079929351806641e-01 -1.506099756807088852e-02
1.510000000000000000e+02 2.873951339721679688e+01 -7.190530300140380859e+00 -2.459536075592041016e+00 -1.136503927409648895e-02 -7.412703037261962891e-01 -2.580604702234268188e-02
1.520000000000000000e+02 2.647681999206542969e+01 -7.138342857360839844e+00 -2.090213537216186523e+00 -1.530726253986358643e-02 -6.316562294960021973e-01 -9.836449753493070602e-04
1.530000000000000000e+02 2.949276733398437500e+01 -7.195246696472167969e+00 -2.551832914352416992e+00 -9.305646643042564392e-03 -7.683416008949279785e-01 -4.673198238015174866e-02
1.540000000000000000e+02 2.948995018005371094e+01 -7.935307502746582031e+00 -1.830795645713806152e+00 -6.694734096527099609e-03 -5.512471199035644531e-01 -7.476528733968734741e-02
1.550000000000000000e+02 3.024649810791015625e+01 -7.928795814514160156e+00 -1.823678255081176758e+00 1.035693287849426270e-02 -5.439963936805725098e-01 -4.692808166146278381e-02
1.560000000000000000e+02 3.099722290039062500e+01 -7.181584835052490234e+00 -2.636742353439331055e+00 7.053012959659099579e-03 -7.889068126678466797e-01 -5.289800465106964111e-02
1.570000000000000000e+02 3.175983238220214844e+01 -7.913609027862548828e+00 -1.638995766639709473e+00 2.822479791939258575e-02 -4.832312762737274170e-01 2.851389907300472260e-02
1.580000000000000000e+02 3.174956512451171875e+01 -7.173673152923583984e+00 -2.676126956939697266e+00 -1.169074792414903641e-02 -8.063452839851379395e-01 -5.575755238533020020e-02
1.590000000000000000e+02 3.024495315551757812e+01 -7.188776493072509766e+00 -2.592338800430297852e+00 -3.244813298806548119e-03 -7.786751389503479004e-01 -5.800360813736915588e-02
1.600000000000000000e+02 3.100312805175781250e+01 -7.921562194824218750e+00 -1.761841177940368652e+00 1.944028772413730621e-02 -5.227202773094177246e-01 -2.599503844976425171e-02
1.610000000000000000e+02 3.371454620361328125e+01 -7.966673374176025391e+00 -7.202533483505249023e-01 8.032467216253280640e-02 -1.919786185026168823e-01 3.440989255905151367e-01
1.620000000000000000e+02 3.248791885375976562e+01 -7.156926631927490234e+00 -2.677505016326904297e+00 9.400861337780952454e-03 -8.004312515258789062e-01 -5.629390850663185120e-02
1.630000000000000000e+02 3.501145935058593750e+01 -7.870897769927978516e+00 2.914335727691650391e-01 2.875644266605377197e-01 1.736993938684463501e-01 9.416063427925109863e-01
1.640000000000000000e+02 3.246357727050781250e+01 -7.897727489471435547e+00 -1.496857881546020508e+00 2.943020313978195190e-02 -4.402283132076263428e-01 8.047824352979660034e-02
1.650000000000000000e+02 3.491886901855468750e+01 -8.088732719421386719e+00 7.461982369422912598e-01 4.659314155578613281e-01 3.636389076709747314e-01 1.175991177558898926e+00
1.660000000000000000e+02 3.495654678344726562e+01 -7.277857780456542969e+00 -1.597038745880126953e+00 1.580431163311004639e-01 -4.316987097263336182e-01 1.770733594894409180e-01
1.670000000000000000e+02 3.312901306152343750e+01 -7.885005474090576172e+00 -1.218093276023864746e+00 6.730534136295318604e-02 -3.452363908290863037e-01 1.717255264520645142e-01
1.680000000000000000e+02 3.322692871093750000e+01 -7.142432212829589844e+00 -2.635198831558227539e+00 -9.338819421827793121e-03 -7.933613061904907227e-01 -5.381725355982780457e-02
1.690000000000000000e+02 3.502512741088867188e+01 -7.685060024261474609e+00 -5.656325444579124451e-02 2.021151632070541382e-01 4.366557300090789795e-02 6.357646584510803223e-01
1.700000000000000000e+02 3.461497116088867188e+01 -7.352007865905761719e+00 -1.683979034423828125e+00 7.330974191427230835e-02 -4.832007884979248047e-01 2.214231342077255249e-01
1.710000000000000000e+02 3.405459213256835938e+01 -7.621578693389892578e+00 -1.200871825218200684e+00 8.553630113601684570e-02 -3.346006572246551514e-01 2.474179118871688843e-01
1.720000000000000000e+02 3.492992019653320312e+01 -7.066507816314697266e+00 -2.039356946945190430e+00 1.695560216903686523e-01 -5.609402656555175781e-01 -8.091095089912414551e-02
1.730000000000000000e+02 3.458831405639648438e+01 -7.910477638244628906e+00 -9.126160293817520142e-03 2.654847800731658936e-01 7.690758258104324341e-02 7.739511132240295410e-01
1.740000000000000000e+02 3.453600692749023438e+01 -7.061239242553710938e+00 -2.484503984451293945e+00 -6.734933704137802124e-02 -7.655559778213500977e-01 -9.050707519054412842e-02
1.750000000000000000e+02 3.483477020263671875e+01 -6.847831249237060547e+00 -2.920299053192138672e+00 5.956854671239852905e-02 -8.582191467285156250e-01 -1.318835467100143433e-01
1.760000000000000000e+02 3.481457519531250000e+01 -7.755039691925048828e+00 -2.020637840032577515e-01 2.344881892204284668e-01 9.727323427796363831e-03 6.957114338874816895e-01
1.770000000000000000e+02 3.499377822875976562e+01 -7.486804485321044922e+00 -6.889166235923767090e-01 1.348175555467605591e-01 -1.662297099828720093e-01 4.693070650100708008e-01
1.780000000000000000e+02 3.447172164916992188e+01 -7.574378967285156250e+00 -1.140576004981994629e+00 3.841507062315940857e-02 -3.306482732295989990e-01 3.522608280181884766e-01
1.790000000000000000e+02 3.420697402954101562e+01 -8.025902748107910156e+00 -4.090494289994239807e-02 3.402640819549560547e-01 8.980774134397506714e-02 6.186676025390625000e-01
1.800000000000000000e+02 3.397152709960937500e+01 -7.087236404418945312e+00 -2.619820356369018555e+00 -2.183788269758224487e-02 -7.924974560737609863e-01 -8.142165094614028931e-02
1.810000000000000000e+02 3.473077392578125000e+01 -7.551132202148437500e+00 -7.259595394134521484e-01 2.318370342254638672e-01 -1.482367515563964844e-01 4.452517926692962646e-01
1.820000000000000000e+02 3.664924240112304688e+01 -8.021117210388183594e+00 3.732996940612792969e+00 3.509824037551879883e+00 2.172846317291259766e+00 4.357370376586914062e+00
1.830000000000000000e+02 3.951305007934570312e+01 -6.688596725463867188e+00 1.356935977935791016e+01 1.758307456970214844e+01 9.345730781555175781e+00 -5.287617444992065430e-01
1.840000000000000000e+02 3.919428253173828125e+01 -5.780179500579833984e+00 8.879995346069335938e+00 2.070687103271484375e+01 8.876059532165527344e+00 2.715530395507812500e+00
1.850000000000000000e+02 3.873439788818359375e+01 -5.548854827880859375e+00 5.203486919403076172e+00 2.384222602844238281e+01 8.713713645935058594e+00 3.201217651367187500e-01
1.860000000000000000e+02 3.621360397338867188e+01 -6.500177860260009766e+00 -1.882049798965454102e+00 -1.203645467758178711e-01 -6.007242798805236816e-01 -1.135009601712226868e-01
1.870000000000000000e+02 3.678181838989257812e+01 -5.278609752655029297e+00 4.984964847564697266e+00 3.982861518859863281e+00 2.690347909927368164e+00 -4.975130081176757812e+00
1.880000000000000000e+02 3.885939025878906250e+01 -7.579486370086669922e+00 6.015386104583740234e+00 2.363337326049804688e+01 8.894628524780273438e+00 -1.761237263679504395e+00
1.890000000000000000e+02 3.824609375000000000e+01 -7.726979255676269531e+00 2.931310415267944336e+00 2.280916404724121094e+01 7.722142696380615234e+00 4.876541614532470703e+00
1.900000000000000000e+02 3.624027252197265625e+01 -7.063892841339111328e+00 -5.012810826301574707e-01 2.001424282789230347e-01 -9.034160524606704712e-02 4.555385112762451172e-01
1.910000000000000000e+02 3.525004959106445312e+01 -8.100191116333007812e+00 1.133231520652770996e+00 9.427205324172973633e-01 6.227856278419494629e-01 1.539179921150207520e+00
1.920000000000000000e+02 3.563285827636718750e+01 -8.062217712402343750e+00 1.688305735588073730e+00 1.115610718727111816e+00 8.411749601364135742e-01 1.998345613479614258e+00
1.930000000000000000e+02 3.763780975341796875e+01 -7.637318611145019531e+00 5.253139019012451172e+00 1.217297077178955078e+01 5.227832794189453125e+00 8.568377494812011719e+00
1.940000000000000000e+02 3.745656585693359375e+01 -7.517716407775878906e+00 6.163491725921630859e+00 7.825460433959960938e+00 4.196685791015625000e+00 7.666424274444580078e+00
1.950000000000000000e+02 3.716061019897460938e+01 -7.207946300506591797e+00 4.859092712402343750e+00 1.872570514678955078e+00 2.019499063491821289e+00 3.636078834533691406e+00
1.960000000000000000e+02 3.554565048217773438e+01 -7.845622539520263672e+00 1.123287200927734375e+00 6.640111804008483887e-01 5.361895561218261719e-01 1.445552825927734375e+00
1.970000000000000000e+02 3.837749862670898438e+01 -5.260747909545898438e+00 3.004628658294677734e+00 2.135816764831542969e+01 7.308838844299316406e+00 -3.890340805053710938e+00
1.980000000000000000e+02 3.872131347656250000e+01 -5.313197612762451172e+00 3.852682113647460938e+00 2.199255371093750000e+01 7.753570556640625000e+00 -9.862788319587707520e-01
1.990000000000000000e+02 3.888944625854492188e+01 -5.820632934570312500e+00 8.144761085510253906e+00 2.426348686218261719e+01 9.722474098205566406e+00 2.155008316040039062e+00
2.000000000000000000e+02 3.884753036499023438e+01 -5.689766407012939453e+00 6.742004394531250000e+00 2.382493019104003906e+01 9.170080184936523438e+00 1.228905797004699707e+00
2.010000000000000000e+02 3.943386077880859375e+01 -6.296492099761962891e+00 1.320365619659423828e+01 1.853319168090820312e+01 9.521054267883300781e+00 1.596491098403930664e+00
2.020000000000000000e+02 3.518460464477539062e+01 -5.314341545104980469e+00 1.706993937492370605e+00 7.433491349220275879e-01 7.351028919219970703e-01 -1.324455738067626953e+00
2.030000000000000000e+02 3.560762786865234375e+01 -5.546199798583984375e+00 1.877973675727844238e+00 5.580179095268249512e-01 7.307974696159362793e-01 -1.337557435035705566e+00
2.040000000000000000e+02 3.519804000854492188e+01 -5.957170009613037109e+00 1.313986331224441528e-01 7.800231873989105225e-02 6.282028555870056152e-02 -4.781979024410247803e-01
2.050000000000000000e+02 3.601554489135742188e+01 -5.565369129180908203e+00 2.852546930313110352e+00 9.575878381729125977e-01 1.143040418624877930e+00 -2.045951128005981445e+00
2.060000000000000000e+02 3.720627975463867188e+01 -5.689114570617675781e+00 6.583907127380371094e+00 5.433180809020996094e+00 3.605126380920410156e+00 -6.443078994750976562e+00
2.070000000000000000e+02 3.786377716064453125e+01 -5.359241962432861328e+00 4.224166870117187500e+00 1.643589019775390625e+01 6.198017120361328125e+00 -7.552594661712646484e+00
2.080000000000000000e+02 3.521480941772460938e+01 -6.578924655914306641e+00 -2.507440805435180664e+00 -1.504582446068525314e-02 -7.567459344863891602e-01 -5.879239737987518311e-02
2.090000000000000000e+02 3.599651336669921875e+01 -6.536197185516357422e+00 -2.026154279708862305e+00 -4.851109813898801804e-03 -6.093016266822814941e-01 -2.053238749504089355e-01
2.100000000000000000e+02 3.520040512084960938e+01 -5.748348712921142578e+00 7.543650865554809570e-01 1.571545153856277466e-01 2.734558582305908203e-01 -6.239528656005859375e-01
2.110000000000000000e+02 3.638443756103515625e+01 -5.290601253509521484e+00 4.228808879852294922e+00 2.361522197723388672e+00 1.977099418640136719e+00 -3.642053365707397461e+00
2.120000000000000000e+02 3.725106048583984375e+01 -5.952308654785156250e+00 7.028373718261718750e+00 3.487341880798339844e+00 3.154714584350585938e+00 -5.542313098907470703e+00
2.130000000000000000e+02 3.702009201049804688e+01 -6.539418220520019531e+00 -1.338629722595214844e+00 -1.268179416656494141e-01 -4.396342933177947998e-01 -1.469805389642715454e-01
2.140000000000000000e+02 3.921366882324218750e+01 -6.716939449310302734e+00 1.537897586822509766e+01 1.959078598022460938e+01 1.049092864990234375e+01 -9.609798192977905273e-01
2.150000000000000000e+02 3.917626953125000000e+01 -6.305712223052978516e+00 1.434871673583984375e+01 2.038651466369628906e+01 1.042056941986083984e+01 2.188381195068359375e+00
2.160000000000000000e+02 3.900353622436523438e+01 -5.959698677062988281e+00 1.041139316558837891e+01 2.317365074157714844e+01 1.007551288604736328e+01 2.940600633621215820e+00
2.170000000000000000e+02 3.855406188964843750e+01 -5.661951065063476562e+00 5.020922183990478516e+00 2.591025352478027344e+01 9.279353141784667969e+00 -6.860272884368896484e-01
2.180000000000000000e+02 3.796088409423828125e+01 -5.531275272369384766e+00 4.370878696441650391e+00 1.879754638671875000e+01 6.950527667999267578e+00 -7.833209991455078125e+00
2.190000000000000000e+02 3.796635437011718750e+01 -5.225340843200683594e+00 3.399292945861816406e+00 1.737282180786132812e+01 6.231634616851806641e+00 -6.764564990997314453e+00
2.200000000000000000e+02 3.755461883544921875e+01 -5.666238784790039062e+00 6.744650840759277344e+00 1.042010307312011719e+01 5.149425983428955078e+00 -8.644580841064453125e+00
2.210000000000000000e+02 3.703756713867187500e+01 -6.320849418640136719e+00 2.574409723281860352e+00 4.042349457740783691e-01 8.935934305191040039e-01 -1.354999899864196777e+00
2.220000000000000000e+02 3.662865447998046875e+01 -7.063525199890136719e+00 5.308554172515869141e-01 3.650929033756256104e-01 2.687844932079315186e-01 9.188625216484069824e-01
2.230000000000000000e+02 3.843469619750976562e+01 -7.694468498229980469e+00 3.374465942382812500e+00 2.456174087524414062e+01 8.380862236022949219e+00 2.478694438934326172e+00
2.240000000000000000e+02 3.883148193359375000e+01 -7.437075138092041016e+00 7.340274810791015625e+00 2.475757980346679688e+01 9.629356384277343750e+00 -2.387331724166870117e+00
2.250000000000000000e+02 3.909883117675781250e+01 -7.138840675354003906e+00 1.213382434844970703e+01 2.164160919189453125e+01 1.013263034820556641e+01 -3.306031227111816406e+00
2.260000000000000000e+02 3.947769546508789062e+01 -7.025991916656494141e+00 1.208815002441406250e+01 1.817848014831542969e+01 9.079988479614257812e+00 -2.157130956649780273e+00
2.270000000000000000e+02 3.585401535034179688e+01 -7.066354751586914062e+00 -1.302249073982238770e+00 8.374547213315963745e-02 -3.655510842800140381e-01 2.719771265983581543e-01
2.280000000000000000e+02 3.540166091918945312e+01 -7.898259162902832031e+00 1.057030558586120605e+00 7.132558226585388184e-01 5.310859084129333496e-01 1.420265078544616699e+00
2.290000000000000000e+02 3.545667266845703125e+01 -7.074071407318115234e+00 -1.739357829093933105e+00 3.804471716284751892e-02 -5.103939175605773926e-01 1.119337230920791626e-01
2.300000000000000000e+02 3.522628402709960938e+01 -6.834638595581054688e+00 -2.983637332916259766e+00 -1.239315867424011230e-01 -9.322706460952758789e-01 -1.902524009346961975e-02
2.310000000000000000e+02 3.938160324096679688e+01 -6.793047904968261719e+00 1.400702953338623047e+01 1.851311683654785156e+01 9.756044387817382812e+00 -1.375009298324584961e+00
2.320000000000000000e+02 3.916999816894531250e+01 -6.935199260711669922e+00 1.415527439117431641e+01 2.043037986755371094e+01 1.037569618225097656e+01 -2.626923322677612305e+00
2.330000000000000000e+02 3.760008621215820312e+01 -5.233254432678222656e+00 4.632746696472167969e+00 1.219698429107666016e+01 5.048919200897216797e+00 -7.649358272552490234e+00
2.340000000000000000e+02 3.766642379760742188e+01 -5.417130470275878906e+00 5.206558704376220703e+00 1.329812812805175781e+01 5.551405906677246094e+00 -8.312208175659179688e+00
2.350000000000000000e+02 3.745185470581054688e+01 -5.469830989837646484e+00 5.928742408752441406e+00 9.540438652038574219e+00 4.640754222869873047e+00 -7.828804969787597656e+00
2.360000000000000000e+02 3.910265731811523438e+01 -6.123603820800781250e+00 1.264002704620361328e+01 2.159666633605957031e+01 1.027100849151611328e+01 2.899258852005004883e+00
2.370000000000000000e+02 3.644886016845703125e+01 -8.017336845397949219e+00 3.499928712844848633e+00 2.801048517227172852e+00 1.890293240547180176e+00 3.848984956741333008e+00
2.380000000000000000e+02 3.784132385253906250e+01 -7.986891269683837891e+00 3.296977519989013672e+00 1.543626213073730469e+01 5.619972229003906250e+00 7.201483249664306641e+00
2.390000000000000000e+02 3.898157882690429688e+01 -7.313004016876220703e+00 9.494311332702636719e+00 2.333269500732421875e+01 9.848101615905761719e+00 -3.233445644378662109e+00
2.400000000000000000e+02 3.879987335205078125e+01 -7.729081153869628906e+00 4.747000694274902344e+00 2.321289062500000000e+01 8.387967109680175781e+00 -7.004828453063964844e-01
2.410000000000000000e+02 3.933518600463867188e+01 -6.988831043243408203e+00 1.301585578918457031e+01 1.924324226379394531e+01 9.677729606628417969e+00 -2.421683549880981445e+00
2.420000000000000000e+02 3.702788543701171875e+01 -6.770504951477050781e+00 -1.491400241851806641e+00 -9.266275912523269653e-02 -4.752189218997955322e-01 7.915741205215454102e-02
2.430000000000000000e+02 3.642341613769531250e+01 -6.809135913848876953e+00 -2.197605848312377930e+00 5.460391938686370850e-02 -6.429005861282348633e-01 7.577836513519287109e-02
2.440000000000000000e+02 3.804755401611328125e+01 -7.734101772308349609e+00 3.276605367660522461e+00 2.012634468078613281e+01 7.020884990692138672e+00 6.927869319915771484e+00
2.450000000000000000e+02 3.764353179931640625e+01 -8.014372825622558594e+00 3.809099912643432617e+00 1.273704624176025391e+01 4.963843822479248047e+00 7.508758544921875000e+00
2.460000000000000000e+02 3.784112167358398438e+01 -7.713529109954833984e+00 4.167446613311767578e+00 1.621639060974121094e+01 6.115151405334472656e+00 8.217805862426757812e+00
2.470000000000000000e+02 3.817111206054687500e+01 -5.261211395263671875e+00 3.172505855560302734e+00 1.969792556762695312e+01 6.861129760742187500e+00 -5.459662437438964844e+00
2.480000000000000000e+02 3.817967987060546875e+01 -5.512809753417968750e+00 3.651120424270629883e+00 2.207564735412597656e+01 7.718030452728271484e+00 -5.772427082061767578e+00
2.490000000000000000e+02 3.909949493408203125e+01 -5.640717983245849609e+00 7.377852916717529297e+00 2.173330497741699219e+01 8.733347892761230469e+00 2.377671003341674805e+00
2.500000000000000000e+02 3.899754714965820312e+01 -5.510032653808593750e+00 5.758399963378906250e+00 2.206609725952148438e+01 8.347349166870117188e+00 1.216095805168151855e+00
2.510000000000000000e+02 3.862554931640625000e+01 -7.916808605194091797e+00 3.063207387924194336e+00 2.241813659667968750e+01 7.644402980804443359e+00 1.504786252975463867e+00
2.520000000000000000e+02 3.825191497802734375e+01 -7.978655815124511719e+00 2.451145172119140625e+00 2.039100265502929688e+01 6.852643966674804688e+00 4.754542350769042969e+00
2.530000000000000000e+02 3.916416168212890625e+01 -7.486193656921386719e+00 8.104475975036621094e+00 2.125116157531738281e+01 8.806691169738769531e+00 -2.873640775680541992e+00
2.540000000000000000e+02 3.928712463378906250e+01 -7.315206527709960938e+00 1.003519725799560547e+01 2.014114570617675781e+01 9.052903175354003906e+00 -3.141539335250854492e+00
2.550000000000000000e+02 3.928906631469726562e+01 -5.935637950897216797e+00 1.039148521423339844e+01 2.002069091796875000e+01 9.123652458190917969e+00 2.717360496520996094e+00
2.560000000000000000e+02 3.845494079589843750e+01 -5.445940971374511719e+00 3.649201154708862305e+00 2.314894104003906250e+01 8.039443016052246094e+00 -2.856757164001464844e+00
2.570000000000000000e+02 3.885193634033203125e+01 -5.565715789794921875e+00 5.824806213378906250e+00 2.265279769897460938e+01 8.543281555175781250e+00 7.545789480209350586e-01
2.580000000000000000e+02 3.939914321899414062e+01 -7.168483257293701172e+00 1.132166290283203125e+01 1.917344284057617188e+01 9.148531913757324219e+00 -2.921110153198242188e+00
2.590000000000000000e+02 3.904295349121093750e+01 -7.648939132690429688e+00 6.353296279907226562e+00 2.200346374511718750e+01 8.507027626037597656e+00 -2.073577880859375000e+00
2.600000000000000000e+02 3.947321319580078125e+01 -6.498271942138671875e+00 1.355598545074462891e+01 1.787586212158203125e+01 9.429553985595703125e+00 4.798104763031005859e-01
2.610000000000000000e+02 3.922174835205078125e+01 -6.505737781524658203e+00 1.529773712158203125e+01 1.965948295593261719e+01 1.048716640472412109e+01 6.772851943969726562e-01
2.620000000000000000e+02 3.879162979125976562e+01 -5.472870349884033203e+00 4.867275714874267578e+00 2.267300415039062500e+01 8.262084007263183594e+00 1.360432654619216919e-01
2.630000000000000000e+02 3.879477691650390625e+01 -7.873290061950683594e+00 3.951348304748535156e+00 2.259205245971679688e+01 7.963020324707031250e+00 -6.493987143039703369e-02
2.640000000000000000e+02 3.719160842895507812e+01 -5.263389110565185547e+00 5.309040069580078125e+00 7.376633167266845703e+00 3.805701971054077148e+00 -6.716072082519531250e+00
2.650000000000000000e+02 3.580834960937500000e+01 -5.552140235900878906e+00 2.332016468048095703e+00 7.153830528259277344e-01 9.142199158668518066e-01 -1.708485126495361328e+00
2.660000000000000000e+02 3.538829421997070312e+01 -5.314150810241699219e+00 1.931036829948425293e+00 7.089150547981262207e-01 7.919855713844299316e-01 -1.491609573364257812e+00
2.670000000000000000e+02 3.739827346801757812e+01 -5.252512454986572266e+00 5.093579292297363281e+00 9.602438926696777344e+00 4.408805370330810547e+00 -7.293157577514648438e+00
2.680000000000000000e+02 3.698468780517578125e+01 -5.269387245178222656e+00 5.290411949157714844e+00 5.380182266235351562e+00 3.201178312301635742e+00 -5.877885818481445312e+00
2.690000000000000000e+02 3.618653488159179688e+01 -5.297093391418457031e+00 3.697674036026000977e+00 1.806505918502807617e+00 1.651253938674926758e+00 -3.046114921569824219e+00
2.700000000000000000e+02 3.679832839965820312e+01 -5.514873981475830078e+00 5.053721427917480469e+00 3.127197265625000000e+00 2.454275608062744141e+00 -4.504141330718994141e+00
2.710000000000000000e+02 3.778759384155273438e+01 -5.210389137268066406e+00 3.961689233779907227e+00 1.435657882690429688e+01 5.495480537414550781e+00 -7.318252086639404297e+00
2.720000000000000000e+02 3.643178939819335938e+01 -6.534330368041992188e+00 -1.803863883018493652e+00 4.908670112490653992e-02 -5.264331698417663574e-01 -4.340982064604759216e-02
2.730000000000000000e+02 3.681209182739257812e+01 -6.537775039672851562e+00 -1.569676280021667480e+00 1.205416843295097351e-01 -4.347403645515441895e-01 -1.494053006172180176e-01
2.740000000000000000e+02 3.520748901367187500e+01 -6.368589878082275391e+00 -1.695888757705688477e+00 -4.917896911501884460e-02 -5.235203504562377930e-01 -1.079989746212959290e-01
2.750000000000000000e+02 3.711851119995117188e+01 -6.119129180908203125e+00 5.188818931579589844e+00 1.257854223251342773e+00 1.934001922607421875e+00 -3.095167398452758789e+00
2.760000000000000000e+02 3.622642898559570312e+01 -6.813054561614990234e+00 -2.428140878677368164e+00 2.524599246680736542e-02 -7.208684682846069336e-01 1.859740354120731354e-02
2.770000000000000000e+02 3.706508255004882812e+01 -6.998880386352539062e+00 2.438781023025512695e+00 6.019039750099182129e-01 9.122054576873779297e-01 1.645622968673706055e+00
2.780000000000000000e+02 3.613339614868164062e+01 -7.481637954711914062e+00 1.488121390342712402e+00 5.850754976272583008e-01 6.219590902328491211e-01 1.425597906112670898e+00
2.790000000000000000e+02 3.600953292846679688e+01 -7.770923137664794922e+00 1.922229051589965820e+00 1.066237807273864746e+00 8.965401053428649902e-01 2.045173645019531250e+00
2.800000000000000000e+02 3.523953247070312500e+01 -7.056273937225341797e+00 -1.924426555633544922e+00 -9.047524631023406982e-02 -6.044705510139465332e-01 5.879300460219383240e-02
2.810000000000000000e+02 3.643165588378906250e+01 -7.071571826934814453e+00 -8.742651343345642090e-02 1.203873008489608765e-01 9.888236410915851593e-03 5.708718299865722656e-01
2.820000000000000000e+02 3.594897079467773438e+01 -7.536255359649658203e+00 1.169477820396423340e+00 5.724089741706848145e-01 5.225660204887390137e-01 1.305090546607971191e+00
2.830000000000000000e+02 3.805179214477539062e+01 -7.988708496093750000e+00 2.672125577926635742e+00 1.831050872802734375e+01 6.294790267944335938e+00 6.228208065032958984e+00
2.840000000000000000e+02 3.621525955200195312e+01 -7.723329067230224609e+00 2.374407529830932617e+00 1.253301262855529785e+00 1.088312625885009766e+00 2.329552173614501953e+00
2.850000000000000000e+02 3.726757812500000000e+01 -8.000428199768066406e+00 4.399826526641845703e+00 7.967788696289062500e+00 3.710284709930419922e+00 6.744923114776611328e+00
2.860000000000000000e+02 3.746338272094726562e+01 -8.031460762023925781e+00 4.127131462097167969e+00 1.008037281036376953e+01 4.262251377105712891e+00 7.163120269775390625e+00
2.870000000000000000e+02 3.688972473144531250e+01 -7.603381633758544922e+00 4.380001068115234375e+00 3.005139350891113281e+00 2.215542078018188477e+00 4.343026161193847656e+00
2.880000000000000000e+02 3.705699539184570312e+01 -8.002964019775390625e+00 4.315839290618896484e+00 6.007486820220947266e+00 3.096997737884521484e+00 5.922688961029052734e+00
2.890000000000000000e+02 3.683879470825195312e+01 -7.784714698791503906e+00 4.343587875366210938e+00 3.681201457977294922e+00 2.407436847686767578e+00 4.661471366882324219e+00
2.900000000000000000e+02 3.700936508178710938e+01 -7.751684665679931641e+00 4.806189060211181641e+00 4.514863967895507812e+00 2.796315908432006836e+00 5.385962963104248047e+00
2.910000000000000000e+02 3.602828598022460938e+01 -6.817262172698974609e+00 -2.591155529022216797e+00 3.326968848705291748e-02 -7.673657536506652832e-01 -3.094940260052680969e-02
2.920000000000000000e+02 3.540207290649414062e+01 -7.733635902404785156e+00 5.305931568145751953e-01 5.068231821060180664e-01 3.112249076366424561e-01 1.071746587753295898e+00
2.930000000000000000e+02 3.523540115356445312e+01 -7.894855022430419922e+00 6.963403820991516113e-01 6.166657209396362305e-01 3.939018547534942627e-01 1.189707517623901367e+00
2.940000000000000000e+02 3.558910751342773438e+01 -5.311732292175292969e+00 2.424283504486083984e+00 9.754656553268432617e-01 1.019924759864807129e+00 -1.871741652488708496e+00
2.950000000000000000e+02 3.541624450683593750e+01 -6.571680545806884766e+00 -2.501047134399414062e+00 -2.623464912176132202e-02 -7.581845521926879883e-01 -2.225399948656558990e-02
2.960000000000000000e+02 3.561851501464843750e+01 -6.563229084014892578e+00 -2.491203069686889648e+00 7.149762660264968872e-02 -7.259116768836975098e-01 -6.188561394810676575e-02
2.970000000000000000e+02 3.539888763427734375e+01 -5.985780715942382812e+00 2.956749200820922852e-01 1.076051071286201477e-01 1.209840103983879089e-01 -4.791713953018188477e-01
2.980000000000000000e+02 3.564186477661132812e+01 -7.692431926727294922e+00 9.242100715637207031e-01 5.823589563369750977e-01 4.519706964492797852e-01 1.253441929817199707e+00
2.990000000000000000e+02 3.524198913574218750e+01 -7.490700721740722656e+00 -4.954983294010162354e-01 1.705841571092605591e-01 -9.747425466775894165e-02 5.110143423080444336e-01
3.000000000000000000e+02 3.730113220214843750e+01 -7.377912521362304688e+00 6.177836418151855469e+00 4.834475040435791016e+00 3.303693294525146484e+00 6.145990848541259766e+00
3.010000000000000000e+02 3.578974914550781250e+01 -5.309609413146972656e+00 2.890521049499511719e+00 1.109804868698120117e+00 1.200097799301147461e+00 -2.206718921661376953e+00
3.020000000000000000e+02 3.738499069213867188e+01 -5.793248176574707031e+00 7.261537551879882812e+00 6.594950675964355469e+00 4.156946659088134766e+00 -7.366061687469482422e+00
3.030000000000000000e+02 3.540574264526367188e+01 -5.543796062469482422e+00 1.600979208946228027e+00 5.139792561531066895e-01 6.344875097274780273e-01 -1.172894477844238281e+00
3.040000000000000000e+02 3.540923309326171875e+01 -6.359221935272216797e+00 -1.448407411575317383e+00 -2.340689999982714653e-03 -4.352244138717651367e-01 -1.453314572572708130e-01
3.050000000000000000e+02 3.581277847290039062e+01 -6.566580295562744141e+00 -2.355105876922607422e+00 4.379734024405479431e-02 -6.933925151824951172e-01 -1.665735989809036255e-01
3.060000000000000000e+02 3.582997894287109375e+01 -6.823599815368652344e+00 -2.690081357955932617e+00 1.368268392980098724e-02 -8.029195666313171387e-01 -7.083504647016525269e-02
3.070000000000000000e+02 3.583570480346679688e+01 -8.042217254638671875e+00 2.081970453262329102e+00 1.299537658691406250e+00 1.014452457427978516e+00 2.275214195251464844e+00
3.080000000000000000e+02 3.543198013305664062e+01 -6.834993839263916016e+00 -2.857514858245849609e+00 6.087717786431312561e-02 -8.389913439750671387e-01 -8.901309967041015625e-02
3.090000000000000000e+02 3.700175857543945312e+01 -5.490479469299316406e+00 5.624382495880126953e+00 4.370653629302978516e+00 2.998510837554931641e+00 -5.513360500335693359e+00
3.100000000000000000e+02 3.545346832275390625e+01 -7.555400848388671875e+00 1.335611492395401001e-01 3.100220859050750732e-01 1.330749690532684326e-01 7.503759860992431641e-01
3.110000000000000000e+02 3.563199615478515625e+01 -6.830538272857666016e+00 -2.782629013061523438e+00 -3.590240702033042908e-02 -8.455594778060913086e-01 -5.204978585243225098e-02
3.120000000000000000e+02 3.639395523071289062e+01 -5.530329704284667969e+00 3.957514762878417969e+00 1.716296195983886719e+00 1.702143311500549316e+00 -3.057001829147338867e+00
3.130000000000000000e+02 3.679376220703125000e+01 -6.307223796844482422e+00 1.484383344650268555e+00 2.380142509937286377e-01 5.167192816734313965e-01 -9.356690645217895508e-01
3.140000000000000000e+02 3.647686386108398438e+01 -6.144832611083984375e+00 1.465110898017883301e+00 2.381171435117721558e-01 5.109684467315673828e-01 -1.015311360359191895e+00
3.150000000000000000e+02 3.562392425537109375e+01 -6.332036972045898438e+00 -1.090538620948791504e+00 1.082504391670227051e-01 -2.946864664554595947e-01 -1.812587231397628784e-01
3.160000000000000000e+02 3.623550033569335938e+01 -7.317751884460449219e+00 9.738841056823730469e-01 4.935842454433441162e-01 4.402405023574829102e-01 1.166007637977600098e+00
3.170000000000000000e+02 3.643326187133789062e+01 -7.364205837249755859e+00 1.918088912963867188e+00 7.109715938568115234e-01 7.887181639671325684e-01 1.693558931350708008e+00
3.180000000000000000e+02 3.643549728393554688e+01 -7.693479061126708984e+00 2.983291387557983398e+00 1.583485007286071777e+00 1.370032906532287598e+00 2.794329166412353516e+00
3.190000000000000000e+02 3.569191741943359375e+01 -7.334537982940673828e+00 -2.017033845186233521e-01 2.365014702081680298e-01 1.043942756950855255e-02 5.844104290008544922e-01
3.200000000000000000e+02 3.519488906860351562e+01 -5.532347679138183594e+00 1.169066786766052246e+00 4.729560017585754395e-01 4.926068484783172607e-01 -9.308673739433288574e-01
3.210000000000000000e+02 3.710386657714843750e+01 -5.834735870361328125e+00 6.388349056243896484e+00 3.245783805847167969e+00 2.890239953994750977e+00 -5.059542655944824219e+00
3.220000000000000000e+02 3.672900009155273438e+01 -7.509167194366455078e+00 3.714589595794677734e+00 1.912384390830993652e+00 1.688092112541198730e+00 3.328406572341918945e+00
3.230000000000000000e+02 3.594543838500976562e+01 -6.117136478424072266e+00 2.388131320476531982e-01 1.036422550678253174e-01 1.027366146445274353e-01 -5.194079875946044922e-01
3.240000000000000000e+02 3.580451583862304688e+01 -5.785078048706054688e+00 1.561569929122924805e+00 3.646001815795898438e-01 5.778509974479675293e-01 -1.083432078361511230e+00
3.250000000000000000e+02 3.588771057128906250e+01 -7.308057308197021484e+00 2.734131552278995514e-02 2.195668965578079224e-01 7.407246530055999756e-02 6.508957147598266602e-01
3.260000000000000000e+02 3.606423950195312500e+01 -7.285592079162597656e+00 1.855244636535644531e-01 2.738034129142761230e-01 1.377983689308166504e-01 7.986721992492675781e-01
3.270000000000000000e+02 3.544103622436523438e+01 -8.092132568359375000e+00 1.311247229576110840e+00 9.185879230499267578e-01 6.689505577087402344e-01 1.747644424438476562e+00
3.280000000000000000e+02 3.604423904418945312e+01 -8.039176940917968750e+00 2.591702699661254883e+00 1.619908690452575684e+00 1.263483405113220215e+00 2.703220605850219727e+00
3.290000000000000000e+02 3.624727630615234375e+01 -8.025735855102539062e+00 3.067275762557983398e+00 2.053741693496704102e+00 1.536305189132690430e+00 3.209537267684936523e+00
3.300000000000000000e+02 3.665027236938476562e+01 -7.733639240264892578e+00 3.778697729110717773e+00 2.435539960861206055e+00 1.864271283149719238e+00 3.740949630737304688e+00
3.310000000000000000e+02 3.685055160522460938e+01 -8.024389266967773438e+00 3.959009647369384766e+00 4.423350811004638672e+00 2.514708280563354492e+00 4.982072830200195312e+00
3.320000000000000000e+02 3.716297149658203125e+01 -7.590880393981933594e+00 5.355114459991455078e+00 4.812080860137939453e+00 3.050158500671386719e+00 5.848981380462646484e+00
3.330000000000000000e+02 3.523213958740234375e+01 -7.693188667297363281e+00 2.057319879531860352e-01 2.678429484367370605e-01 1.420724838972091675e-01 7.801682949066162109e-01
3.340000000000000000e+02 3.547502517700195312e+01 -7.324520111083984375e+00 -5.852068066596984863e-01 1.178147941827774048e-01 -1.402176171541213989e-01 4.470365047454833984e-01
3.350000000000000000e+02 3.524674224853515625e+01 -7.277747154235839844e+00 -1.064480423927307129e+00 1.016070917248725891e-01 -2.888619899749755859e-01 1.954277306795120239e-01
3.360000000000000000e+02 3.565952301025390625e+01 -7.075967311859130859e+00 -1.536035895347595215e+00 6.738236546516418457e-02 -4.405960738658905029e-01 1.432256251573562622e-01
3.370000000000000000e+02 3.733864593505859375e+01 -7.738942623138427734e+00 5.276468276977539062e+00 7.730239868164062500e+00 3.902012586593627930e+00 7.120928764343261719e+00
3.380000000000000000e+02 3.844234466552734375e+01 -7.952586174011230469e+00 2.563370466232299805e+00 2.160101127624511719e+01 7.249314308166503906e+00 3.062768697738647461e+00
3.390000000000000000e+02 3.893118667602539062e+01 -7.789140701293945312e+00 4.977732658386230469e+00 2.208889389038085938e+01 8.119987487792968750e+00 -1.043498277664184570e+00
3.400000000000000000e+02 3.951928329467773438e+01 -6.857243537902832031e+00 1.267431068420410156e+01 1.777873229980468750e+01 9.135912895202636719e+00 -1.572435259819030762e+00
3.410000000000000000e+02 3.937194824218750000e+01 -6.109450340270996094e+00 1.198895359039306641e+01 1.931735229492187500e+01 9.391891479492187500e+00 2.358569383621215820e+00
3.420000000000000000e+02 3.887132644653320312e+01 -5.396975040435791016e+00 4.855261325836181641e+00 2.176079368591308594e+01 7.984816551208496094e+00 2.985828220844268799e-01
3.430000000000000000e+02 3.855580902099609375e+01 -5.265381813049316406e+00 3.393889427185058594e+00 2.172420501708984375e+01 7.535428047180175781e+00 -2.163401842117309570e+00
3.440000000000000000e+02 3.838720321655273438e+01 -5.573103904724121094e+00 3.877288103103637695e+00 2.438921737670898438e+01 8.479951858520507812e+00 -3.351517915725708008e+00
3.450000000000000000e+02 3.775621795654296875e+01 -5.590507507324218750e+00 5.573123931884765625e+00 1.480762004852294922e+01 6.114223480224609375e+00 -8.870922088623046875e+00
3.460000000000000000e+02 3.722277069091796875e+01 -5.489861488342285156e+00 6.055181503295898438e+00 6.617866992950439453e+00 3.801914453506469727e+00 -6.791383266448974609e+00
3.470000000000000000e+02 3.658261871337890625e+01 -5.287440299987792969e+00 4.592120647430419922e+00 3.124819755554199219e+00 2.315082073211669922e+00 -4.247263431549072266e+00
3.480000000000000000e+02 3.659341430664062500e+01 -5.542484283447265625e+00 4.478678703308105469e+00 2.200810432434082031e+00 2.003846883773803711e+00 -3.642291545867919922e+00
3.490000000000000000e+02 3.621025085449218750e+01 -5.538444042205810547e+00 3.392514467239379883e+00 1.297188639640808105e+00 1.406910896301269531e+00 -2.523654699325561523e+00
3.500000000000000000e+02 3.542099380493164062e+01 -5.779427528381347656e+00 8.733298778533935547e-01 3.226682543754577637e-01 3.587994277477264404e-01 -8.177874684333801270e-01
3.510000000000000000e+02 3.519878005981445312e+01 -6.161621093750000000e+00 -8.268102407455444336e-01 1.024449244141578674e-02 -2.449697256088256836e-01 -2.233293652534484863e-01
3.520000000000000000e+02 3.556421279907226562e+01 -6.109464645385742188e+00 -1.859866231679916382e-01 9.509725868701934814e-02 -2.726680971682071686e-02 -4.266907274723052979e-01
3.530000000000000000e+02 3.598909378051757812e+01 -5.306431770324707031e+00 3.292440176010131836e+00 1.486814618110656738e+00 1.433776497840881348e+00 -2.646416664123535156e+00
3.540000000000000000e+02 3.604724502563476562e+01 -7.058679103851318359e+00 -9.280158281326293945e-01 1.022010296583175659e-01 -2.477444261312484741e-01 3.227366507053375244e-01
3.550000000000000000e+02 3.662196350097656250e+01 -6.802945137023925781e+00 -1.949238777160644531e+00 -7.801605761051177979e-02 -6.081764698028564453e-01 5.877687036991119385e-02
3.560000000000000000e+02 3.682371139526367188e+01 -6.793130397796630859e+00 -1.725932836532592773e+00 1.005205065011978149e-01 -4.876236915588378906e-01 6.301368772983551025e-02
3.570000000000000000e+02 3.621364212036132812e+01 -6.182105064392089844e+00 4.658942520618438721e-01 1.194591224193572998e-01 1.756060123443603516e-01 -6.626412868499755859e-01
3.580000000000000000e+02 3.585522079467773438e+01 -6.358582019805908203e+00 -1.226586461067199707e+00 6.794026494026184082e-02 -3.475938737392425537e-01 -1.447973698377609253e-01
3.590000000000000000e+02 3.538633728027343750e+01 -6.163623809814453125e+00 -7.449463009834289551e-01 4.165752977132797241e-02 -2.109866291284561157e-01 -3.061343729496002197e-01
3.600000000000000000e+02 3.661587905883789062e+01 -6.554764270782470703e+00 -1.734955668449401855e+00 -3.916973993182182312e-02 -5.322376489639282227e-01 -6.319382786750793457e-02
3.610000000000000000e+02 3.694319915771484375e+01 -5.960925579071044922e+00 4.876176357269287109e+00 1.646358847618103027e+00 1.956760525703430176e+00 -3.240607738494873047e+00
3.620000000000000000e+02 3.655847167968750000e+01 -6.368402004241943359e+00 -1.479905843734741211e-01 1.602841764688491821e-01 3.688079537823796272e-03 -5.630248188972473145e-01
3.630000000000000000e+02 3.684268569946289062e+01 -7.054766178131103516e+00 1.672579526901245117e+00 4.114783704280853271e-01 6.252173781394958496e-01 1.374957799911499023e+00
3.640000000000000000e+02 3.682644653320312500e+01 -7.310036659240722656e+00 3.434853553771972656e+00 1.180619001388549805e+00 1.384641766548156738e+00 2.647829771041870117e+00
3.650000000000000000e+02 3.700464630126953125e+01 -7.411611557006835938e+00 4.487845420837402344e+00 2.335288763046264648e+00 2.046940326690673828e+00 3.950533390045166016e+00
3.660000000000000000e+02 3.857733154296875000e+01 -5.554011821746826172e+00 4.325336933135986328e+00 2.458416938781738281e+01 8.672851562500000000e+00 -1.346965789794921875e+00
3.670000000000000000e+02 3.869081878662109375e+01 -7.531951904296875000e+00 5.222908973693847656e+00 2.570174598693847656e+01 9.277396202087402344e+00 -7.565512061119079590e-01
3.680000000000000000e+02 3.862347030639648438e+01 -7.697123527526855469e+00 4.121018409729003906e+00 2.441202545166015625e+01 8.559913635253906250e+00 5.569815635681152344e-01
3.690000000000000000e+02 3.562303161621093750e+01 -5.777217388153076172e+00 1.163562893867492676e+00 3.168052434921264648e-01 4.441104233264923096e-01 -9.872971773147583008e-01
3.700000000000000000e+02 3.600935745239257812e+01 -5.839150905609130859e+00 2.006736516952514648e+00 4.734624028205871582e-01 7.440596818923950195e-01 -1.296915411949157715e+00
3.710000000000000000e+02 3.631398773193359375e+01 -5.707871913909912109e+00 3.379857063293457031e+00 1.086517333984375000e+00 1.339912295341491699e+00 -2.342128515243530273e+00
3.720000000000000000e+02 3.642728042602539062e+01 -5.882196426391601562e+00 3.011287927627563477e+00 7.113557457923889160e-01 1.116793155670166016e+00 -1.980252623558044434e+00
3.730000000000000000e+02 3.622485733032226562e+01 -5.896317481994628906e+00 2.290710687637329102e+00 4.478060007095336914e-01 8.215550184249877930e-01 -1.418318748474121094e+00
3.740000000000000000e+02 3.857411193847656250e+01 -5.395412445068359375e+00 3.656801462173461914e+00 2.259375381469726562e+01 7.875166416168212891e+00 -2.044616937637329102e+00
3.750000000000000000e+02 3.868769454956054688e+01 -5.409214973449707031e+00 4.102502346038818359e+00 2.273306465148925781e+01 8.050670623779296875e+00 -7.183666825294494629e-01
3.760000000000000000e+02 3.753293991088867188e+01 -7.841071128845214844e+00 4.662308216094970703e+00 1.106303501129150391e+01 4.717602729797363281e+00 7.725176334381103516e+00
3.770000000000000000e+02 3.572179412841796875e+01 -5.976542949676513672e+00 5.844593644142150879e-01 2.448357492685317993e-01 2.487885355949401855e-01 -6.656638979911804199e-01
3.780000000000000000e+02 3.663688278198242188e+01 -7.328607082366943359e+00 2.522333860397338867e+00 8.084986209869384766e-01 9.992497563362121582e-01 1.937977910041809082e+00
3.790000000000000000e+02 3.702441787719726562e+01 -5.684587955474853516e+00 5.815490722656250000e+00 3.595955371856689453e+00 2.823433876037597656e+00 -5.059429168701171875e+00
3.800000000000000000e+02 3.684370422363281250e+01 -5.744150638580322266e+00 5.056337356567382812e+00 2.356600522994995117e+00 2.223881244659423828e+00 -3.966286659240722656e+00
3.810000000000000000e+02 3.672903823852539062e+01 -6.064102649688720703e+00 3.244053363800048828e+00 7.001447081565856934e-01 1.183259367942810059e+00 -1.918300390243530273e+00
3.820000000000000000e+02 3.867129898071289062e+01 -5.646425724029541016e+00 5.608658313751220703e+00 2.513600349426269531e+01 9.223399162292480469e+00 3.314462006092071533e-01
3.830000000000000000e+02 3.864134979248046875e+01 -5.484483718872070312e+00 4.277815818786621094e+00 2.382720947265625000e+01 8.431508064270019531e+00 -9.704989194869995117e-01
3.840000000000000000e+02 3.581676483154296875e+01 -7.786921501159667969e+00 1.591317057609558105e+00 8.973355889320373535e-01 7.465957999229431152e-01 1.773345708847045898e+00
3.850000000000000000e+02 3.576532363891601562e+01 -7.572355270385742188e+00 8.045607805252075195e-01 4.480246901512145996e-01 3.757756352424621582e-01 1.154132246971130371e+00
3.860000000000000000e+02 3.663772583007812500e+01 -5.807169437408447266e+00 4.038718223571777344e+00 1.376383066177368164e+00 1.624530315399169922e+00 -2.877926826477050781e+00
3.870000000000000000e+02 3.452207183837890625e+01 -5.777338027954101562e+00 -8.149979263544082642e-02 1.966905444860458374e-01 3.455722332000732422e-02 -3.934576809406280518e-01
3.880000000000000000e+02 3.326185607910156250e+01 -5.561346054077148438e+00 -3.844445049762725830e-01 8.808833360671997070e-02 -8.890684694051742554e-02 -1.845598071813583374e-01
3.890000000000000000e+02 3.441830444335937500e+01 -6.210308074951171875e+00 -1.368290424346923828e+00 3.546655178070068359e-02 -3.998471498489379883e-01 -1.025942862033843994e-01
3.900000000000000000e+02 3.364740753173828125e+01 -6.506227016448974609e+00 -2.205619096755981445e+00 -1.084196381270885468e-02 -6.649382710456848145e-01 5.724637303501367569e-03
3.910000000000000000e+02 3.479616928100585938e+01 -5.325273036956787109e+00 1.212674617767333984e+00 3.215044140815734863e-01 4.602537155151367188e-01 -9.135744571685791016e-01
3.920000000000000000e+02 3.490318679809570312e+01 -5.743377685546875000e+00 5.042740106582641602e-01 1.674535572528839111e-01 2.015182673931121826e-01 -5.809272527694702148e-01
3.930000000000000000e+02 3.449269866943359375e+01 -5.489066123962402344e+00 6.239939332008361816e-01 3.474372327327728271e-01 2.914293408393859863e-01 -6.573619842529296875e-01
3.940000000000000000e+02 3.249388122558593750e+01 -5.639653682708740234e+00 -7.653397321701049805e-01 3.900812193751335144e-02 -2.178994864225387573e-01 -5.091622471809387207e-02
3.950000000000000000e+02 3.246972274780273438e+01 -6.380450248718261719e+00 -1.925039768218994141e+00 -2.414711564779281616e-02 -5.847560763359069824e-01 1.682130619883537292e-02
3.960000000000000000e+02 3.349349975585937500e+01 -6.079396247863769531e+00 -1.305733084678649902e+00 3.782751411199569702e-02 -3.803716897964477539e-01 -6.593538820743560791e-02
3.970000000000000000e+02 3.467269134521484375e+01 -6.017394065856933594e+00 -5.556676983833312988e-01 1.241874545812606812e-01 -1.294440776109695435e-01 -2.434580475091934204e-01
3.980000000000000000e+02 3.488112258911132812e+01 -6.344486713409423828e+00 -1.748703360557556152e+00 5.065114796161651611e-02 -5.094156861305236816e-01 -8.377906680107116699e-02
3.990000000000000000e+02 3.483343887329101562e+01 -6.575248718261718750e+00 -2.495951890945434570e+00 1.391499955207109451e-02 -7.446110248565673828e-01 -3.304821625351905823e-02
4.000000000000000000e+02 3.488665771484375000e+01 -5.534938812255859375e+00 8.675785064697265625e-01 1.424449682235717773e-01 3.030070364475250244e-01 -7.142193317413330078e-01
4.010000000000000000e+02 3.396765899658203125e+01 -5.463167667388916016e+00 2.228724360466003418e-01 1.614972054958343506e-01 1.153108924627304077e-01 -4.297471046447753906e-01
4.020000000000000000e+02 3.494309997558593750e+01 -5.948862075805664062e+00 -9.403591603040695190e-02 1.125731840729713440e-01 5.561178550124168396e-03 -3.577892184257507324e-01
4.030000000000000000e+02 3.308817672729492188e+01 -6.453746318817138672e+00 -2.021060705184936523e+00 2.460583485662937164e-02 -5.989364981651306152e-01 3.168288618326187134e-02
4.040000000000000000e+02 3.424861145019531250e+01 -6.522483825683593750e+00 -2.332968235015869141e+00 6.874986458569765091e-03 -6.978279352188110352e-01 1.327200606465339661e-02
4.050000000000000000e+02 3.407981109619140625e+01 -5.896738052368164062e+00 -6.784188747406005859e-01 3.607910871505737305e-02 -1.927019357681274414e-01 -1.672350019216537476e-01
4.060000000000000000e+02 3.493985366821289062e+01 -6.140144824981689453e+00 -8.803609609603881836e-01 5.679852887988090515e-02 -2.470687329769134521e-01 -2.347991913557052612e-01
4.070000000000000000e+02 3.099083137512207031e+01 -6.399948596954345703e+00 -1.780609965324401855e+00 -4.199674818664789200e-03 -5.354428887367248535e-01 3.501993045210838318e-02
4.080000000000000000e+02 3.173856925964355469e+01 -6.392818927764892578e+00 -1.853595256805419922e+00 2.122083120048046112e-02 -5.497123003005981445e-01 1.812156662344932556e-02
4.090000000000000000e+02 3.172830200195312500e+01 -5.652883052825927734e+00 -9.386551976203918457e-01 2.631471678614616394e-02 -2.737021446228027344e-01 2.449295669794082642e-02
4.100000000000000000e+02 2.949855422973632812e+01 -5.674893379211425781e+00 -1.020062208175659180e+00 3.332609310746192932e-02 -2.960208356380462646e-01 1.262038052082061768e-01
4.110000000000000000e+02 3.024179267883300781e+01 -5.667771339416503906e+00 -1.019920825958251953e+00 2.427079901099205017e-02 -2.986950278282165527e-01 1.031261235475540161e-01
4.120000000000000000e+02 2.949573898315429688e+01 -6.414954185485839844e+00 -1.561105132102966309e+00 5.785012617707252502e-03 -4.665960371494293213e-01 5.917574837803840637e-02
4.130000000000000000e+02 3.098492622375488281e+01 -5.659971237182617188e+00 -9.937396049499511719e-01 3.828957676887512207e-02 -2.866350114345550537e-01 5.584747716784477234e-02
4.140000000000000000e+02 3.024333572387695312e+01 -6.407790660858154297e+00 -1.683011412620544434e+00 1.164528261870145798e-02 -5.014098286628723145e-01 4.227087274193763733e-02
4.150000000000000000e+02 2.800358009338378906e+01 -6.392907142639160156e+00 -1.351829886436462402e+00 -3.433587262406945229e-03 -4.065790176391601562e-01 9.230145812034606934e-02
4.160000000000000000e+02 2.728431129455566406e+01 -5.636834621429443359e+00 -8.658045530319213867e-01 7.407794240862131119e-03 -2.575190067291259766e-01 1.878419220447540283e-01
4.170000000000000000e+02 2.651304817199707031e+01 -6.358762741088867188e+00 -1.085289478302001953e+00 2.613476011902093887e-03 -3.248027861118316650e-01 1.061775237321853638e-01
4.180000000000000000e+02 2.875823974609375000e+01 -5.669638156890869141e+00 -9.874251484870910645e-01 2.151763439178466797e-02 -2.897722423076629639e-01 1.443312913179397583e-01
4.190000000000000000e+02 2.874904632568359375e+01 -6.409622669219970703e+00 -1.450587391853332520e+00 1.215077843517065048e-02 -4.315309822559356689e-01 7.930885255336761475e-02
4.200000000000000000e+02 2.654741096496582031e+01 -5.619358539581298828e+00 -8.062902092933654785e-01 1.310513727366924286e-02 -2.379555255174636841e-01 1.993346959352493286e-01
4.210000000000000000e+02 2.802116203308105469e+01 -5.653115749359130859e+00 -9.269714355468750000e-01 1.590774394571781158e-02 -2.733190953731536865e-01 1.632882952690124512e-01
4.220000000000000000e+02 2.725833702087402344e+01 -6.376431941986083984e+00 -1.229629039764404297e+00 1.985369483008980751e-03 -3.682931065559387207e-01 9.616189450025558472e-02
4.230000000000000000e+02 2.428754043579101562e+01 -6.197861671447753906e+00 -7.365608811378479004e-01 -1.357759162783622742e-02 -2.250415533781051636e-01 1.265356540679931641e-01
4.240000000000000000e+02 2.435861396789550781e+01 -5.461198806762695312e+00 -5.447457432746887207e-01 -2.221560105681419373e-02 -1.700884103775024414e-01 2.223831713199615479e-01
4.250000000000000000e+02 2.354777717590332031e+01 -6.138960838317871094e+00 -5.970553755760192871e-01 -1.077789720147848129e-02 -1.823499798774719238e-01 1.234148368239402771e-01
4.260000000000000000e+02 2.502826499938964844e+01 -6.258197307586669922e+00 -8.602475523948669434e-01 -1.329926494508981705e-02 -2.620640397071838379e-01 1.316148340702056885e-01
4.270000000000000000e+02 2.581491851806640625e+01 -5.581003189086914062e+00 -7.271260619163513184e-01 2.646916080266237259e-03 -2.173437476158142090e-01 2.027127891778945923e-01
4.280000000000000000e+02 2.576985549926757812e+01 -6.319781780242919922e+00 -9.633050560951232910e-01 1.106221927329897881e-03 -2.886596620082855225e-01 1.232851520180702209e-01
4.290000000000000000e+02 2.363185691833496094e+01 -5.403356075286865234e+00 -4.684300124645233154e-01 -2.386222966015338898e-02 -1.476876735687255859e-01 2.196022868156433105e-01
4.300000000000000000e+02 2.508633232116699219e+01 -5.520476818084716797e+00 -6.310569643974304199e-01 -1.098272763192653656e-02 -1.926119029521942139e-01 2.101765871047973633e-01
4.310000000000000000e+02 2.146717453002929688e+01 -5.077126979827880859e+00 -2.062448114156723022e-01 -6.078830733895301819e-02 -8.010993152856826782e-02 1.899798512458801270e-01
4.320000000000000000e+02 2.134441947937011719e+01 -5.806876659393310547e+00 -2.680171728134155273e-01 -2.964338660240173340e-02 -8.929817378520965576e-02 1.001661792397499084e-01
4.330000000000000000e+02 2.061148262023925781e+01 -5.684748649597167969e+00 -1.583628356456756592e-01 -2.022127248346805573e-02 -5.357523262500762939e-02 8.223522454500198364e-02
4.340000000000000000e+02 2.207760429382324219e+01 -5.928263664245605469e+00 -3.776606321334838867e-01 -2.618863806128501892e-02 -1.211547777056694031e-01 1.197183877229690552e-01
4.350000000000000000e+02 2.290797805786132812e+01 -5.314875125885009766e+00 -3.799287378787994385e-01 -3.330732509493827820e-02 -1.239708214998245239e-01 2.106079906225204468e-01
4.360000000000000000e+02 2.281096076965332031e+01 -6.048885822296142578e+00 -4.785029590129852295e-01 -1.857299543917179108e-02 -1.491227895021438599e-01 1.245566010475158691e-01
4.370000000000000000e+02 2.074710655212402344e+01 -4.957129478454589844e+00 -1.436137408018112183e-01 -6.606634706258773804e-02 -6.290402263402938843e-02 1.607507020235061646e-01
4.380000000000000000e+02 2.218749046325683594e+01 -5.196383476257324219e+00 -2.868480384349822998e-01 -5.112333223223686218e-02 -1.013914123177528381e-01 2.000558972358703613e-01
4.390000000000000000e+02 1.905580329895019531e+01 -4.613489627838134766e+00 -2.278034389019012451e-02 -8.933338522911071777e-02 -3.363411873579025269e-02 5.573575198650360107e-02
4.400000000000000000e+02 1.978026580810546875e+01 -5.523462295532226562e+00 -6.738773733377456665e-02 -3.103909827768802643e-02 -2.952804975211620331e-02 4.668532311916351318e-02
4.410000000000000000e+02 1.992511749267578125e+01 -4.797539234161376953e+00 -7.234725356101989746e-02 -7.540435343980789185e-02 -4.432548210024833679e-02 1.251221448183059692e-01
4.420000000000000000e+02 1.847771644592285156e+01 -4.667171001434326172e+00 -1.430684234946966171e-03 -1.711956039071083069e-02 -5.565073341131210327e-03 -6.614856421947479248e-03
4.430000000000000000e+02 1.890536689758300781e+01 -5.338151454925537109e+00 -6.432551890611648560e-03 -8.363579399883747101e-03 -4.438839387148618698e-03 1.967937499284744263e-02
4.440000000000000000e+02 1.882146453857421875e+01 -6.111851215362548828e+00 -3.615076839923858643e-02 -4.684219311457127333e-04 -1.098575722426176071e-02 -2.642923407256603241e-02
4.450000000000000000e+02 1.800308799743652344e+01 -6.754832744598388672e+00 -2.839767932891845703e-02 -1.176713481545448303e-01 -4.382070526480674744e-02 -5.076146870851516724e-02
4.460000000000000000e+02 1.831862449645996094e+01 -6.817986488342285156e+00 -8.818170428276062012e-02 -5.742017924785614014e-02 -4.368056356906890869e-02 -7.602415233850479126e-02
4.470000000000000000e+02 1.959215354919433594e+01 -7.028707504272460938e+00 -3.575758934020996094e-01 3.229307010769844055e-02 -9.758484363555908203e-02 -1.677551120519638062e-01
4.480000000000000000e+02 1.890554809570312500e+01 -6.889476776123046875e+00 -2.285228669643402100e-01 -3.901571780443191528e-02 -8.026157319545745850e-02 -1.432539969682693481e-01
4.490000000000000000e+02 1.965883255004882812e+01 -6.285129547119140625e+00 -1.908159703016281128e-01 3.223298583179712296e-03 -5.627780035138130188e-02 -4.323745146393775940e-02
4.500000000000000000e+02 1.828899765014648438e+01 -6.266255378723144531e+00 -2.754234708845615387e-02 -1.237451378256082535e-02 -1.197505835443735123e-02 -2.388767898082733154e-02
4.510000000000000000e+02 1.796524238586425781e+01 -6.500696659088134766e+00 -1.574183069169521332e-02 -4.390373826026916504e-02 -1.789367012679576874e-02 -1.066462881863117218e-02
4.520000000000000000e+02 1.806364822387695312e+01 -7.329860687255859375e+00 -8.969593793153762817e-02 -2.349343448877334595e-01 -9.738908708095550537e-02 -2.207296937704086304e-01
4.530000000000000000e+02 1.871016311645507812e+01 -7.438201427459716797e+00 -2.880244255065917969e-01 -3.319442644715309143e-02 -9.636566042900085449e-02 -2.311564832925796509e-01
4.540000000000000000e+02 1.723006057739257812e+01 -9.417481422424316406e+00 -3.171640038490295410e-01 -4.356069862842559814e-01 -2.258313000202178955e-01 -4.094686806201934814e-01
4.550000000000000000e+02 2.222816848754882812e+01 -9.083771705627441406e+00 -7.536739110946655273e-01 8.998315036296844482e-02 -1.991072297096252441e-01 -4.203565418720245361e-01
4.560000000000000000e+02 2.788599967956542969e+01 -8.625505447387695312e+00 -1.313581824302673340e+00 2.116999961435794830e-02 -3.877235352993011475e-01 -1.476085036993026733e-01
4.570000000000000000e+02 2.400202560424804688e+01 -8.467556953430175781e+00 -1.059631586074829102e+00 4.612605273723602295e-02 -3.040516376495361328e-01 -2.922917306423187256e-01
4.580000000000000000e+02 1.501366233825683594e+01 -1.277038669586181641e+01 -6.327276229858398438e-01 -1.040820121765136719e+00 -5.020642876625061035e-01 -7.843695878982543945e-01
4.590000000000000000e+02 1.237658977508544922e+01 -1.604459381103515625e+01 -8.950619101524353027e-01 -9.657728075981140137e-01 -5.582504272460937500e-01 -9.106790423393249512e-01
4.600000000000000000e+02 1.422014522552490234e+01 -1.581158351898193359e+01 -6.993513703346252441e-01 -7.540276646614074707e-01 -4.360136985778808594e-01 -6.811246275901794434e-01
4.610000000000000000e+02 1.519452285766601562e+01 -2.427257919311523438e+01 1.807041615247726440e-01 7.759737316519021988e-03 5.653917044401168823e-02 -9.629382938146591187e-02
4.620000000000000000e+02 1.663784217834472656e+01 -3.071647644042968750e+01 2.788494527339935303e-01 6.197734475135803223e-01 2.695868611335754395e-01 3.244271129369735718e-02
4.630000000000000000e+02 1.788952636718750000e+01 -4.063022613525390625e+01 1.961272805929183960e-01 1.093670487403869629e+00 3.869393467903137207e-01 2.322326973080635071e-02
4.640000000000000000e+02 2.278317260742187500e+01 -4.088932418823242188e+01 8.681447803974151611e-02 2.090456724166870117e+00 6.531813740730285645e-01 5.476853623986244202e-02
4.650000000000000000e+02 1.927703094482421875e+01 -3.701821899414062500e+01 2.091753631830215454e-01 1.290017127990722656e+00 4.497577548027038574e-01 1.023495495319366455e-01
4.660000000000000000e+02 2.458853530883789062e+01 -3.106645774841308594e+01 1.527047306299209595e-01 2.200169563293457031e+00 7.058622837066650391e-01 4.746106863021850586e-01
4.670000000000000000e+02 2.017808341979980469e+01 -2.263294982910156250e+01 1.950922906398773193e-01 6.883974075317382812e-01 2.650468945503234863e-01 2.347463071346282959e-01
4.680000000000000000e+02 2.207054519653320312e+01 -1.307542514801025391e+01 -3.082591593265533447e-01 2.379361093044281006e-01 -2.109691500663757324e-02 -3.626525402069091797e-01
4.690000000000000000e+02 2.298834991455078125e+01 -1.400080776214599609e+01 -1.262323856353759766e-01 3.740687966346740723e-01 7.435092329978942871e-02 -2.078077346086502075e-01
4.700000000000000000e+02 1.330032730102539062e+01 -1.496929836273193359e+01 -8.414660096168518066e-01 -1.002724051475524902e+00 -5.532569885253906250e-01 -8.959190845489501953e-01
4.710000000000000000e+02 1.140797805786132812e+01 -1.717157173156738281e+01 -1.105591893196105957e+00 -9.127492308616638184e-01 -6.055023074150085449e-01 -8.816726803779602051e-01
4.720000000000000000e+02 1.021845722198486328e+01 -1.805330467224121094e+01 -1.399532318115234375e+00 -7.160012125968933105e-01 -6.346600651741027832e-01 -7.296980023384094238e-01
4.730000000000000000e+02 8.941989898681640625e+00 -1.834911537170410156e+01 -1.045922756195068359e+00 -2.406415045261383057e-01 -3.859692811965942383e-01 -3.645963072776794434e-01
4.740000000000000000e+02 7.182781219482421875e+00 -1.737078857421875000e+01 -2.156078070402145386e-01 5.630593746900558472e-02 -4.779056087136268616e-02 -1.928450167179107666e-02
4.750000000000000000e+02 6.351580619812011719e+00 -1.640419769287109375e+01 -1.084533426910638809e-02 1.493045687675476074e-02 1.225536689162254333e-03 -5.909415427595376968e-03
4.760000000000000000e+02 7.056325912475585938e+00 -1.511703014373779297e+01 1.272749621421098709e-02 5.523983389139175415e-02 2.039019949734210968e-02 -1.614939235150814056e-02
4.770000000000000000e+02 8.905387878417968750e+00 -1.144660377502441406e+01 -2.796246437355875969e-03 -1.748227863572537899e-03 -1.363342278636991978e-03 2.287599025294184685e-03
4.780000000000000000e+02 9.673636436462402344e+00 -1.030792522430419922e+01 1.917122863233089447e-03 1.394075690768659115e-03 9.933596011251211166e-04 -1.862290431745350361e-03
4.790000000000000000e+02 1.212644767761230469e+01 -7.065259933471679688e+00 -1.113669597543776035e-03 -4.980081575922667980e-04 -4.835033323615789413e-04 5.384081741794943810e-04
4.800000000000000000e+02 1.170357418060302734e+01 -2.769312858581542969e+00 -4.750286170747131109e-04 1.735862606437876821e-04 -9.043270256370306015e-05 4.570691962726414204e-04
4.810000000000000000e+02 1.222837257385253906e+01 -4.661656379699707031e+00 6.424876046366989613e-04 2.075559314107522368e-04 2.550130593590438366e-04 -5.555569077841937542e-04
4.820000000000000000e+02 1.104239082336425781e+01 -1.916350245475769043e+00 -2.487851306796073914e-04 1.128878284362144768e-05 -7.124890544218942523e-05 4.097240162082016468e-04
4.830000000000000000e+02 4.280107021331787109e+00 -1.931956291198730469e+00 -6.413971732399659231e-06 5.049568426329642534e-05 1.322451407759217545e-05 -2.056386147160083055e-04
4.840000000000000000e+02 1.573090195655822754e+00 -1.474936485290527344e+01 2.234051935374736786e-03 8.756363764405250549e-03 3.297124989330768585e-03 1.328471116721630096e-02
4.850000000000000000e+02 4.416554450988769531e+00 -1.865090942382812500e+01 -1.866313368082046509e-01 -4.167546704411506653e-02 -6.849204003810882568e-02 -1.069206297397613525e-01
4.860000000000000000e+02 6.792909502983093262e-01 -2.479380416870117188e+01 -4.886375274509191513e-03 -3.911262452602386475e-01 -1.188037917017936707e-01 -6.901376694440841675e-02
4.870000000000000000e+02 7.770742177963256836e-01 -3.188707733154296875e+01 4.897601902484893799e-03 -1.012975931167602539e+00 -3.024235069751739502e-01 -4.776829481124877930e-02
4.880000000000000000e+02 2.877258300781250000e+00 -3.786366271972656250e+01 4.263032972812652588e-02 -9.788898825645446777e-01 -2.808778584003448486e-01 -1.646833866834640503e-02
4.890000000000000000e+02 8.198393583297729492e-01 -3.727243041992187500e+01 7.432749029248952866e-03 -1.194943070411682129e+00 -3.562530875205993652e-01 1.015682611614465714e-02
4.900000000000000000e+02 9.004934310913085938e+00 -3.803224182128906250e+01 1.515881866216659546e-01 -1.991093903779983521e-01 -1.425636000931262970e-02 -1.062366664409637451e-01
4.910000000000000000e+02 8.169659614562988281e+00 -3.295756149291992188e+01 1.511528193950653076e-01 -3.026989400386810303e-01 -4.546383768320083618e-02 -2.103117704391479492e-01
4.920000000000000000e+02 1.215759181976318359e+01 -2.118000984191894531e+01 -1.052926629781723022e-01 -5.266904234886169434e-01 -1.895949244499206543e-01 -3.500484526157379150e-01
4.930000000000000000e+02 1.067470264434814453e+01 -2.205576133728027344e+01 -3.353610634803771973e-02 -5.297940373420715332e-01 -1.689990460872650146e-01 -4.116437137126922607e-01
4.940000000000000000e+02 6.463260054588317871e-01 -2.336186599731445312e+01 -3.174744546413421631e-03 -2.533986270427703857e-01 -7.697201520204544067e-02 -6.024278327822685242e-02
4.950000000000000000e+02 1.253959941864013672e+01 -2.005812406539916992e+00 -1.063477175193838775e-04 4.789099330082535744e-05 -1.753701872075907886e-05 7.442152855219319463e-05
4.960000000000000000e+02 2.761204338073730469e+01 -4.097529602050781250e+01 -1.182048171758651733e-01 3.155488729476928711e+00 9.111851453781127930e-01 7.359082251787185669e-02
4.970000000000000000e+02 2.813833618164062500e+01 -3.452401351928710938e+01 -9.181905537843704224e-02 3.177852630615234375e+00 9.258100390434265137e-01 4.182412326335906982e-01
4.980000000000000000e+02 2.908896636962890625e+01 -2.329779052734375000e+01 2.461628615856170654e-01 2.912430763244628906e+00 9.475780725479125977e-01 1.067505359649658203e+00
4.990000000000000000e+02 2.758128929138183594e+01 -1.535111045837402344e+01 5.224538445472717285e-01 1.143794536590576172e+00 4.998745024204254150e-01 6.262253522872924805e-01
5.000000000000000000e+02 3.017770957946777344e+01 -8.613631248474121094e+00 -1.176893115043640137e+00 4.703758656978607178e-02 -3.389566540718078613e-01 6.557847838848829269e-03
5.010000000000000000e+02 2.929594230651855469e+01 -9.274851799011230469e+00 -7.938939332962036133e-01 9.347055852413177490e-02 -2.101270109415054321e-01 9.573404677212238312e-03
5.020000000000000000e+02 4.215661239624023438e+01 -4.076705169677734375e+01 -8.688828349113464355e-01 6.397492408752441406e+00 1.658582925796508789e+00 5.314127728343009949e-02
5.030000000000000000e+02 3.730646514892578125e+01 -4.091458129882812500e+01 -6.711363792419433594e-01 5.441216945648193359e+00 1.431024193763732910e+00 7.933663576841354370e-02
5.040000000000000000e+02 3.568959426879882812e+01 -3.123798561096191406e+01 -5.041449666023254395e-01 5.219090461730957031e+00 1.414483666419982910e+00 6.669005751609802246e-01
5.050000000000000000e+02 3.386538696289062500e+01 -2.374221611022949219e+01 -1.282171607017517090e-01 4.730216026306152344e+00 1.380599737167358398e+00 1.308534502983093262e+00
5.060000000000000000e+02 3.475323486328125000e+01 -1.370873832702636719e+01 9.203807115554809570e-01 4.618609905242919922e+00 1.661697268486022949e+00 2.781479835510253906e+00
5.070000000000000000e+02 3.572624206542968750e+01 -8.667478561401367188e+00 2.366187572479248047e+00 2.204552412033081055e+00 1.371222019195556641e+00 2.993206739425659180e+00
5.080000000000000000e+02 4.201979827880859375e+01 -2.971633720397949219e+01 -8.291260004043579102e-01 6.807750225067138672e+00 1.793587327003479004e+00 3.964956402778625488e-01
5.090000000000000000e+02 4.244250488281250000e+01 -2.352125167846679688e+01 -7.470994591712951660e-01 7.623266696929931641e+00 2.062850236892700195e+00 4.697188436985015869e-01
5.100000000000000000e+02 4.111235046386718750e+01 -1.854147148132324219e+01 -5.564542412757873535e-01 8.407617568969726562e+00 2.355349063873291016e+00 8.199360966682434082e-01
5.110000000000000000e+02 4.277807998657226562e+01 -4.418591856956481934e-01 1.017155170440673828e+00 1.059733390808105469e+01 3.484346628189086914e+00 6.433539986610412598e-01
5.120000000000000000e+02 3.957386779785156250e+01 1.183801555633544922e+01 -5.918221473693847656e-01 6.594567298889160156e+00 1.800823569297790527e+00 -8.068926334381103516e-01
5.130000000000000000e+02 4.620503997802734375e+01 1.743680953979492188e+01 -7.328366637229919434e-01 7.177473068237304688e+00 1.933390974998474121e+00 2.838235907256603241e-02
5.140000000000000000e+02 4.300028991699218750e+01 2.515667343139648438e+01 -7.182251214981079102e-01 6.112119674682617188e+00 1.618168473243713379e+00 -2.011665701866149902e-01
5.150000000000000000e+02 4.374248123168945312e+01 3.324590682983398438e+01 -6.507408618927001953e-01 5.964962482452392578e+00 1.594266533851623535e+00 -1.034896224737167358e-01
5.160000000000000000e+02 4.255385589599609375e+01 4.042160415649414062e+01 -6.081300973892211914e-01 5.621017932891845703e+00 1.503866314888000488e+00 -2.775977924466133118e-02
5.170000000000000000e+02 3.743722915649414062e+01 4.038774108886718750e+01 -5.150697231292724609e-01 4.845857143402099609e+00 1.299236297607421875e+00 -5.777027085423469543e-02
5.180000000000000000e+02 3.896900177001953125e+01 3.143392753601074219e+01 -5.841606855392456055e-01 5.165127277374267578e+00 1.374289989471435547e+00 -2.311281859874725342e-01
5.190000000000000000e+02 3.574304199218750000e+01 2.297564125061035156e+01 -5.287404656410217285e-01 4.806670665740966797e+00 1.283379077911376953e+00 -5.952910780906677246e-01
5.200000000000000000e+02 3.476488876342773438e+01 1.610746765136718750e+01 -4.265048503875732422e-01 4.804932117462158203e+00 1.313528180122375488e+00 -9.887405037879943848e-01
5.210000000000000000e+02 3.329493713378906250e+01 1.056510543823242188e+01 -1.142782717943191528e-01 4.464244365692138672e+00 1.304989814758300781e+00 -1.342720031738281250e+00
5.220000000000000000e+02 3.362555313110351562e+01 6.234471797943115234e-01 1.362170577049255371e+00 3.629358768463134766e+00 1.497458815574645996e+00 -2.390406131744384766e+00
5.230000000000000000e+02 3.982038879394531250e+01 -6.211560726165771484e+00 1.109338092803955078e+01 1.627460289001464844e+01 8.210394859313964844e+00 1.375275015830993652e+00
5.240000000000000000e+02 3.943473052978515625e+01 -7.697595119476318359e+00 6.959731101989746094e+00 1.912159538269042969e+01 7.824398040771484375e+00 -2.564057588577270508e+00
5.250000000000000000e+02 3.912881088256835938e+01 -8.570185661315917969e+00 2.328854084014892578e+00 1.827398300170898438e+01 6.180850982666015625e+00 2.910462617874145508e-01
5.260000000000000000e+02 4.708136367797851562e+01 -4.042077255249023438e+01 -9.389158487319946289e-01 7.139739513397216797e+00 1.860247135162353516e+00 6.172757130116224289e-03
5.270000000000000000e+02 5.366875839233398438e+01 -3.012791442871093750e+01 -6.847903132438659668e-01 7.912285327911376953e+00 2.168248414993286133e+00 -3.747790455818176270e-01
5.280000000000000000e+02 4.813413619995117188e+01 -2.362639617919921875e+01 -6.088539361953735352e-01 8.204011917114257812e+00 2.278547286987304688e+00 -2.900433838367462158e-01
5.290000000000000000e+02 5.155455780029296875e+01 -1.717687416076660156e+01 4.426603615283966064e-01 8.426476478576660156e+00 2.660741090774536133e+00 -8.948482871055603027e-01
5.300000000000000000e+02 4.650582885742187500e+01 -8.858365058898925781e+00 3.312556505203247070e+00 9.065981864929199219e+00 3.713561296463012695e+00 -8.245034813880920410e-01
5.310000000000000000e+02 4.604331588745117188e+01 -4.588601589202880859e+00 3.666931867599487305e+00 9.145773887634277344e+00 3.843811750411987305e+00 7.795572876930236816e-01
5.320000000000000000e+02 4.898502349853515625e+01 5.243896245956420898e-01 1.370553374290466309e+00 8.683405876159667969e+00 3.016187906265258789e+00 1.109395861625671387e+00
5.330000000000000000e+02 4.831138229370117188e+01 1.160114765167236328e+01 -5.215189456939697266e-01 7.922764778137207031e+00 2.220373630523681641e+00 3.842253386974334717e-01
5.340000000000000000e+02 4.995335388183593750e+01 1.974001312255859375e+01 -6.798264980316162109e-01 7.347909927368164062e+00 2.000425100326538086e+00 2.689701318740844727e-01
5.350000000000000000e+02 5.274583053588867188e+01 2.704592895507812500e+01 -6.463685631752014160e-01 7.180437564849853516e+00 1.960220813751220703e+00 2.500251829624176025e-01
5.360000000000000000e+02 5.206992340087890625e+01 3.361263656616210938e+01 -6.258936524391174316e-01 6.951076030731201172e+00 1.897554636001586914e+00 1.254555881023406982e-01
5.370000000000000000e+02 4.752447128295898438e+01 4.069147872924804688e+01 -6.361807584762573242e-01 6.333759307861328125e+00 1.709273576736450195e+00 8.157799951732158661e-03
5.380000000000000000e+02 5.239204788208007812e+01 4.075447845458984375e+01 -5.994957685470581055e-01 6.875566005706787109e+00 1.882821083068847656e+00 1.754016242921352386e-02
5.390000000000000000e+02 6.215738677978515625e+01 -4.051852798461914062e+01 -5.284100770950317383e-01 7.861154079437255859e+00 2.199823141098022461e+00 -8.539777249097824097e-02
5.400000000000000000e+02 5.723331832885742188e+01 -4.062756347656250000e+01 -7.432050704956054688e-01 7.808601856231689453e+00 2.119618892669677734e+00 -7.182383537292480469e-02
5.410000000000000000e+02 5.623206329345703125e+01 -3.039854431152343750e+01 -5.975291132926940918e-01 7.916509628295898438e+00 2.195694208145141602e+00 -4.404231309890747070e-01
5.420000000000000000e+02 5.827896118164062500e+01 -2.213097763061523438e+01 -3.771564364433288574e-02 7.968205451965332031e+00 2.379147052764892578e+00 -7.506254911422729492e-01
5.430000000000000000e+02 5.883313751220703125e+01 -1.937955474853515625e+01 2.192217409610748291e-01 7.898312568664550781e+00 2.435260295867919922e+00 -7.648932337760925293e-01
5.440000000000000000e+02 5.864955902099609375e+01 -1.291778850555419922e+01 9.211178421974182129e-01 7.706695079803466797e+00 2.588343858718872070e+00 -5.644636750221252441e-01
5.450000000000000000e+02 5.722241592407226562e+01 -1.521832466125488281e+00 1.216121435165405273e+00 7.711539268493652344e+00 2.678298234939575195e+00 6.538416147232055664e-01
5.460000000000000000e+02 5.747542190551757812e+01 1.647702336311340332e+00 8.406061530113220215e-01 7.806096553802490234e+00 2.594010829925537109e+00 8.621134161949157715e-01
5.470000000000000000e+02 5.867423248291015625e+01 8.150993347167968750e+00 1.585814654827117920e-01 7.889311790466308594e+00 2.414367914199829102e+00 9.456035494804382324e-01
5.480000000000000000e+02 5.417158126831054688e+01 1.654788017272949219e+01 -4.889151155948638916e-01 7.747818946838378906e+00 2.177671194076538086e+00 6.081831455230712891e-01
5.490000000000000000e+02 5.623260498046875000e+01 2.229298019409179688e+01 -5.328873395919799805e-01 7.593279361724853516e+00 2.118117570877075195e+00 4.950342178344726562e-01
5.500000000000000000e+02 5.613520431518554688e+01 3.364350891113281250e+01 -5.398201942443847656e-01 7.324230670928955078e+00 2.035323143005371094e+00 2.008606940507888794e-01
5.510000000000000000e+02 5.727652359008789062e+01 4.072400283813476562e+01 -5.133343338966369629e-01 7.352261543273925781e+00 2.051678180694580078e+00 4.084676504135131836e-02
5.520000000000000000e+02 6.386167144775390625e+01 -3.080507469177246094e+01 -3.369597196578979492e-01 7.843047142028808594e+00 2.251826286315917969e+00 -4.704726934432983398e-01
5.530000000000000000e+02 6.401055908203125000e+01 -2.748956680297851562e+01 -2.282270491123199463e-01 7.808821678161621094e+00 2.274178266525268555e+00 -5.664514303207397461e-01
5.540000000000000000e+02 6.465067291259765625e+01 -1.970532608032226562e+01 1.570473313331604004e-01 7.642191886901855469e+00 2.339771747589111328e+00 -6.340394020080566406e-01
5.550000000000000000e+02 6.519692993164062500e+01 -8.915383338928222656e+00 6.447153091430664062e-01 7.376816749572753906e+00 2.406459569931030273e+00 -1.174372211098670959e-01
5.560000000000000000e+02 6.541456604003906250e+01 -3.489524602890014648e+00 6.115201711654663086e-01 7.384924888610839844e+00 2.398933410644531250e+00 3.000205159187316895e-01
5.570000000000000000e+02 6.601849365234375000e+01 8.631991147994995117e-01 4.440624117851257324e-01 7.462786197662353516e+00 2.372054576873779297e+00 5.652961134910583496e-01
5.580000000000000000e+02 6.310523223876953125e+01 8.078618049621582031e+00 1.537302583456039429e-01 7.757043838500976562e+00 2.373232126235961914e+00 8.767759203910827637e-01
5.590000000000000000e+02 6.344051361083984375e+01 1.849776840209960938e+01 -2.541582882404327393e-01 7.880736827850341797e+00 2.287973642349243164e+00 7.278153300285339355e-01
5.600000000000000000e+02 6.104242706298828125e+01 2.405287361145019531e+01 -4.017142951488494873e-01 7.780982494354248047e+00 2.213780403137207031e+00 5.496956110000610352e-01
5.610000000000000000e+02 6.279209518432617188e+01 3.220913696289062500e+01 -3.734740912914276123e-01 7.817610263824462891e+00 2.233240842819213867e+00 3.090392947196960449e-01
5.620000000000000000e+02 6.225981903076171875e+01 4.051981353759765625e+01 -3.697822690010070801e-01 7.779438018798828125e+00 2.222896814346313477e+00 6.159803643822669983e-02
5.630000000000000000e+02 6.712035369873046875e+01 -4.064828872680664062e+01 -3.365344107151031494e-01 7.863071918487548828e+00 2.257961273193359375e+00 -7.882678508758544922e-02
5.640000000000000000e+02 7.099275207519531250e+01 -3.807891082763671875e+01 -1.839589774608612061e-01 7.858448982238769531e+00 2.302346944808959961e+00 -1.459932178258895874e-01
5.650000000000000000e+02 7.250383758544921875e+01 -2.429038619995117188e+01 -1.834905333817005157e-02 7.497461318969726562e+00 2.243733644485473633e+00 -4.179480373859405518e-01
5.660000000000000000e+02 7.159727478027343750e+01 -1.797134208679199219e+01 1.010515093803405762e-01 7.308352947235107422e+00 2.222821474075317383e+00 -4.063526690006256104e-01
5.670000000000000000e+02 7.170973968505859375e+01 -1.084967899322509766e+01 2.157864570617675781e-01 7.127184391021728516e+00 2.202891111373901367e+00 -1.609084457159042358e-01
5.680000000000000000e+02 7.181851196289062500e+01 -2.804161548614501953e+00 2.211452573537826538e-01 7.148520946502685547e+00 2.210899829864501953e+00 2.341729700565338135e-01
5.690000000000000000e+02 7.288020324707031250e+01 4.039011478424072266e+00 1.017978265881538391e-01 7.327352523803710938e+00 2.228745222091674805e+00 4.518714845180511475e-01
5.700000000000000000e+02 7.280163574218750000e+01 1.224204063415527344e+01 -6.794604007154703140e-03 7.748279094696044922e+00 2.322445392608642578e+00 5.478615760803222656e-01
5.710000000000000000e+02 7.243949890136718750e+01 1.887515449523925781e+01 -6.593549251556396484e-02 8.073531150817871094e+00 2.402278661727905273e+00 4.999107122421264648e-01
5.720000000000000000e+02 7.182187652587890625e+01 2.654869461059570312e+01 -1.053061783313751221e-01 8.316710472106933594e+00 2.463421344757080078e+00 3.765812218189239502e-01
5.730000000000000000e+02 6.940968322753906250e+01 2.918066787719726562e+01 -1.624457985162734985e-01 8.242655754089355469e+00 2.424062967300415039e+00 3.522802293300628662e-01
5.740000000000000000e+02 7.173339843750000000e+01 3.782144546508789062e+01 -1.148569807410240173e-01 8.535913467407226562e+00 2.526317119598388672e+00 1.125964224338531494e-01
5.750000000000000000e+02 7.795324707031250000e+01 -4.164005279541015625e+01 -2.119587967172265053e-03 8.059053421020507812e+00 2.417079925537109375e+00 -5.883059347979724407e-04
5.760000000000000000e+02 7.791547393798828125e+01 -3.693502426147460938e+01 -1.347034703940153122e-02 7.978499889373779297e+00 2.389508724212646484e+00 -4.928797483444213867e-02
5.770000000000000000e+02 7.789086151123046875e+01 -3.061398887634277344e+01 -1.395676191896200180e-02 7.727654933929443359e+00 2.314109563827514648e+00 -1.216401830315589905e-01
5.780000000000000000e+02 7.804724884033203125e+01 -2.361361122131347656e+01 3.361020353622734547e-04 7.297619342803955078e+00 2.189386606216430664e+00 -1.460784226655960083e-01
5.790000000000000000e+02 7.804828643798828125e+01 -1.667383384704589844e+01 9.536799043416976929e-03 6.862010478973388672e+00 2.061464071273803711e+00 -1.185349375009536743e-01
5.800000000000000000e+02 7.807749176025390625e+01 -9.685977935791015625e+00 1.614332199096679688e-02 6.600632190704345703e+00 1.985032677650451660e+00 -3.422454372048377991e-02
5.810000000000000000e+02 7.810060119628906250e+01 -2.733669757843017578e+00 1.635291054844856262e-02 6.659236907958984375e+00 2.002676963806152344e+00 7.291838526725769043e-02
5.820000000000000000e+02 7.806981658935546875e+01 4.205301761627197266e+00 9.431287646293640137e-03 7.042120456695556641e+00 2.115465402603149414e+00 1.578603684902191162e-01
5.830000000000000000e+02 7.807814788818359375e+01 1.114113998413085938e+01 8.790638530626893044e-04 7.608927249908447266e+00 2.282942056655883789e+00 1.878983080387115479e-01
5.840000000000000000e+02 7.801901245117187500e+01 1.944017028808593750e+01 -5.611080676317214966e-03 8.297219276428222656e+00 2.487482309341430664e+00 1.672853082418441772e-01
5.850000000000000000e+02 7.655766296386718750e+01 2.213966751098632812e+01 -1.874124258756637573e-02 8.402840614318847656e+00 2.515229701995849609e+00 2.460693269968032837e-01
5.860000000000000000e+02 7.925099945068359375e+01 3.205482864379882812e+01 -5.841695237904787064e-03 9.162022590637207031e+00 2.746854305267333984e+00 2.996557019650936127e-02
5.870000000000000000e+02 7.732785034179687500e+01 3.727275466918945312e+01 -2.351048216223716736e-02 9.049694061279296875e+00 2.707855224609375000e+00 3.602225705981254578e-02
5.880000000000000000e+02 7.905608367919921875e+01 3.756820297241210938e+01 1.738815451972186565e-03 9.276256561279296875e+00 2.783398628234863281e+00 1.100669242441654205e-02
5.890000000000000000e+02 3.240104293823242188e+01 4.064384460449218750e+01 -3.650348186492919922e-01 3.912446975708007812e+00 1.064223647117614746e+00 -5.820542573928833008e-02
5.900000000000000000e+02 3.203704833984375000e+01 3.691565322875976562e+01 -3.630668222904205322e-01 3.867441654205322266e+00 1.051312446594238281e+00 -1.738120317459106445e-01
5.910000000000000000e+02 3.137639999389648438e+01 2.974643135070800781e+01 -3.599347174167633057e-01 3.777525424957275391e+00 1.025277256965637207e+00 -4.337893724441528320e-01
5.920000000000000000e+02 2.993245124816894531e+01 2.342060089111328125e+01 -3.019538223743438721e-01 3.492692947387695312e+00 9.572217464447021484e-01 -6.743365526199340820e-01
5.930000000000000000e+02 3.010984802246093750e+01 1.692678070068359375e+01 -2.168587595224380493e-01 3.487957477569580078e+00 9.813296198844909668e-01 -9.767222404479980469e-01
5.940000000000000000e+02 2.746652984619140625e+01 8.662525177001953125e+00 2.767962515354156494e-01 2.120441675186157227e+00 7.191713452339172363e-01 -1.019718170166015625e+00
5.950000000000000000e+02 2.966179847717285156e+01 -2.842620015144348145e-01 1.105755448341369629e+00 1.085845828056335449e+00 6.574803590774536133e-01 -8.622176051139831543e-01
5.960000000000000000e+02 2.737643432617187500e+01 -4.944214344024658203e+00 -5.532245635986328125e-01 3.404831886291503906e-02 -1.557528674602508545e-01 2.131586521863937378e-01
5.970000000000000000e+02 3.028614425659179688e+01 -5.013310432434082031e+00 -4.700253605842590332e-01 7.276286184787750244e-02 -1.191787570714950562e-01 5.957677960395812988e-02
5.980000000000000000e+02 2.895903968811035156e+01 -4.371799945831298828e+00 -1.982187628746032715e-01 8.973625302314758301e-02 -3.254475072026252747e-02 1.004893258213996887e-01
5.990000000000000000e+02 3.319544982910156250e+01 -5.011235713958740234e+00 3.585755527019500732e-01 2.377877831459045410e-01 1.789090037345886230e-01 -4.864268600940704346e-01
6.000000000000000000e+02 1.778764724731445312e+01 4.076279830932617188e+01 3.085016272962093353e-02 1.395043015480041504e+00 4.277679622173309326e-01 -2.522076293826103210e-02
6.010000000000000000e+02 2.263697052001953125e+01 4.076439285278320312e+01 -7.124020904302597046e-02 2.171123981475830078e+00 6.299651265144348145e-01 -4.736557602882385254e-02
6.020000000000000000e+02 2.314940834045410156e+01 3.016504669189453125e+01 -5.800303444266319275e-02 2.143193006515502930e+00 6.255570054054260254e-01 -3.494767248630523682e-01
6.030000000000000000e+02 2.216564750671386719e+01 2.413944625854492188e+01 -5.228898301720619202e-02 1.731574177742004395e+00 5.037855505943298340e-01 -4.940304756164550781e-01
6.040000000000000000e+02 2.106314659118652344e+01 1.481984519958496094e+01 -1.346855703741312027e-02 9.520214200019836426e-01 2.815658450126647949e-01 -4.446586966514587402e-01
6.050000000000000000e+02 1.998930168151855469e+01 9.866381645202636719e+00 4.867269098758697510e-02 1.300994455814361572e-01 5.363164097070693970e-02 -2.320837527513504028e-01
6.060000000000000000e+02 1.981411552429199219e+01 5.422336578369140625e+00 1.072954386472702026e-02 -4.252986311912536621e-01 -1.243707239627838135e-01 -6.006239354610443115e-02
6.070000000000000000e+02 2.164649772644042969e+01 -4.326553821563720703e+00 -1.531549990177154541e-01 -8.834693580865859985e-02 -7.245057821273803711e-02 2.487477660179138184e-01
6.080000000000000000e+02 2.470960235595703125e+01 -4.080698013305664062e+00 -2.315767109394073486e-01 -5.980955902487039566e-03 -7.126729935407638550e-02 2.926834821701049805e-01
6.090000000000000000e+02 2.378363990783691406e+01 -4.681944370269775391e+00 -3.274978697299957275e-01 -3.237869963049888611e-02 -1.079629659652709961e-01 2.764674425125122070e-01
6.100000000000000000e+02 1.756183242797851562e+01 2.922156333923339844e+01 7.987117022275924683e-02 1.163892149925231934e+00 3.731289803981781006e-01 -1.989896744489669800e-01
6.110000000000000000e+02 1.618278884887695312e+01 2.178869056701660156e+01 -4.489326849579811096e-02 5.663505196571350098e-01 1.564371734857559204e-01 -2.055856585502624512e-01
6.120000000000000000e+02 1.297206687927246094e+01 1.750747299194335938e+01 -5.215615630149841309e-01 -2.362934947013854980e-01 -2.273565232753753662e-01 3.052127361297607422e-01
6.130000000000000000e+02 1.502823829650878906e+01 1.544116306304931641e+01 -2.607418298721313477e-01 -2.253223806619644165e-01 -1.458192616701126099e-01 2.125701159238815308e-01
6.140000000000000000e+02 1.802200698852539062e+01 1.545517349243164062e+01 -9.576256573200225830e-02 3.572182357311248779e-01 7.843669503927230835e-02 -1.465488374233245850e-01
6.150000000000000000e+02 1.582870388031005859e+01 1.425030994415283203e+01 -1.449897289276123047e-01 -2.199622541666030884e-01 -1.094855964183807373e-01 1.555794030427932739e-01
6.160000000000000000e+02 1.798471641540527344e+01 9.094602584838867188e+00 -2.386036887764930725e-02 -4.971762597560882568e-01 -1.563109904527664185e-01 7.374721020460128784e-02
6.170000000000000000e+02 1.853679466247558594e+01 6.393238067626953125e+00 -1.189237087965011597e-02 -7.469224333763122559e-01 -2.276444435119628906e-01 7.264591008424758911e-02
6.180000000000000000e+02 1.895877838134765625e+01 2.271726369857788086e+00 -2.502819988876581192e-03 -8.633915781974792480e-01 -2.597683370113372803e-01 3.863708674907684326e-02
6.190000000000000000e+02 1.892692375183105469e+01 -4.605118036270141602e-01 2.388056367635726929e-03 -6.014481186866760254e-01 -1.797180175781250000e-01 6.342955678701400757e-02
6.200000000000000000e+02 1.968856048583984375e+01 -3.017027139663696289e+00 -2.154325135052204132e-02 -2.139157354831695557e-01 -7.063769549131393433e-02 1.676793545484542847e-01
6.210000000000000000e+02 1.305304908752441406e+01 4.078237533569335938e+01 7.639436423778533936e-02 7.572707533836364746e-01 2.500995397567749023e-01 -8.962860330939292908e-03
6.220000000000000000e+02 6.150927066802978516e+00 3.746852111816406250e+01 5.910281836986541748e-02 -5.791283026337623596e-02 3.569966647773981094e-04 6.514403223991394043e-02
6.230000000000000000e+02 8.062060356140136719e+00 3.269312286376953125e+01 8.814164996147155762e-02 1.054005622863769531e-01 5.806266143918037415e-02 9.630426764488220215e-02
6.240000000000000000e+02 1.027581214904785156e+01 1.886839866638183594e+01 -6.960276365280151367e-01 -1.494558751583099365e-01 -2.536450624465942383e-01 1.991115808486938477e-01
6.250000000000000000e+02 1.170485115051269531e+01 1.828635215759277344e+01 -6.534476280212402344e-01 -1.907706558704376221e-01 -2.532655000686645508e-01 3.116840422153472900e-01
6.260000000000000000e+02 2.024795293807983398e+00 4.161925888061523438e+01 -2.852561511099338531e-02 -5.657715201377868652e-01 -1.782891452312469482e-01 -8.080240339040756226e-03
6.270000000000000000e+02 4.299297809600830078e+00 3.739453887939453125e+01 4.675840958952903748e-02 -3.436361253261566162e-01 -8.906331658363342285e-02 6.341618299484252930e-02
6.280000000000000000e+02 2.011497497558593750e+00 3.580384063720703125e+01 2.572130039334297180e-02 -5.178365111351013184e-01 -1.476345658302307129e-01 2.204948337748646736e-03
6.290000000000000000e+02 1.911057710647583008e+00 2.877335929870605469e+01 7.522515021264553070e-03 -3.558937013149261475e-01 -1.045113503932952881e-01 8.179112523794174194e-02
6.300000000000000000e+02 1.748932361602783203e+00 2.327719688415527344e+01 -6.096054334193468094e-03 -1.402504444122314453e-01 -4.390395060181617737e-02 8.806853741407394409e-02
6.310000000000000000e+02 4.427265644073486328e+00 1.531213188171386719e+01 -9.380656294524669647e-03 -1.183847710490226746e-02 -6.365740206092596054e-03 7.467640680260956287e-04
6.320000000000000000e+02 5.011227726936340332e-01 6.443654060363769531e+00 1.893128792289644480e-04 3.166666429024189711e-04 1.517938508186489344e-04 -1.556752831675112247e-04
6.330000000000000000e+02 6.065769672393798828e+00 1.859398126602172852e+00 -1.229194604093208909e-04 -1.298657589359208941e-04 -7.583556725876405835e-05 6.436462717829272151e-05
6.340000000000000000e+02 8.114565849304199219e+00 2.575813531875610352e+00 -2.181216841563582420e-04 -2.018751256400719285e-04 -1.259990385733544827e-04 1.143913032137788832e-04
6.350000000000000000e+02 9.635931968688964844e+00 1.859948992729187012e+00 2.771394792944192886e-04 1.481758808949962258e-04 1.275946124223992229e-04 2.622877218527719378e-05
6.360000000000000000e+02 1.392514705657958984e+01 1.748247385025024414e+00 2.656126162037253380e-04 3.739734893315471709e-05 9.090298408409580588e-05 4.981103484169580042e-05
6.370000000000000000e+02 1.444873332977294922e+01 6.252370357513427734e+00 -9.689002763479948044e-04 -7.886467210482805967e-05 -3.143294889014214277e-04 -1.193456919281743467e-04
6.380000000000000000e+02 1.180951404571533203e+01 9.553681373596191406e+00 -7.659564143978059292e-04 9.448365017306059599e-05 -2.014418132603168488e-04 -2.339584316359832883e-04
6.390000000000000000e+02 1.133288860321044922e+01 1.233830547332763672e+01 1.263758516870439053e-03 1.129457144998013973e-03 7.179647218436002731e-04 1.528561115264892578e-04
6.400000000000000000e+02 1.216581058502197266e+01 1.123482894897460938e+01 -1.177935046143829823e-03 1.561849931022152305e-04 -3.065250057261437178e-04 -7.425170624628663063e-04
6.410000000000000000e+02 9.480205535888671875e+00 1.444821262359619141e+01 1.720385858789086342e-03 2.018110826611518860e-03 1.121549052186310291e-03 -2.105246763676404953e-03
6.420000000000000000e+02 7.841955184936523438e+00 1.672199821472167969e+01 7.529825961682945490e-05 2.621790766716003418e-02 7.887961342930793762e-03 -1.233034115284681320e-02
6.430000000000000000e+02 1.846148848533630371e+00 2.178819847106933594e+01 -1.841456256806850433e-02 -8.181881904602050781e-02 -3.007001429796218872e-02 7.453453540802001953e-02
6.440000000000000000e+02 1.164129018783569336e+00 3.871119499206542969e+00 -5.039690295234322548e-04 -5.062297987024066970e-06 -1.527093991171568632e-04 1.350717502646148205e-04
6.450000000000000000e+02 1.325448894500732422e+01 2.471954345703125000e+00 2.876596699934452772e-04 9.340402175439521670e-05 1.143191038863733411e-04 -1.775810960680246353e-04
6.460000000000000000e+02 2.244184112548828125e+01 -8.309238433837890625e+00 -8.683297634124755859e-01 6.945906579494476318e-02 -2.396612018346786499e-01 -3.243807554244995117e-01
6.470000000000000000e+02 5.111444091796875000e+01 -8.863655090332031250e+00 2.304006338119506836e+00 8.119063377380371094e+00 3.126920938491821289e+00 -4.440483450889587402e-01
6.480000000000000000e+02 5.929703521728515625e+01 -1.142116165161132812e+01 9.990180730819702148e-01 7.631346225738525391e+00 2.589109182357788086e+00 -4.342194497585296631e-01
6.490000000000000000e+02 6.650779724121093750e+01 -1.227502346038818359e+01 4.496511518955230713e-01 7.382275104522705078e+00 2.349577903747558594e+00 -3.226277232170104980e-01
6.500000000000000000e+02 7.292790222167968750e+01 -1.235094165802001953e+01 1.461954265832901001e-01 7.082311153411865234e+00 2.168551921844482422e+00 -2.036256194114685059e-01
6.510000000000000000e+02 7.935447692871093750e+01 -1.251985454559326172e+01 3.233574796468019485e-03 6.528642654418945312e+00 1.959562897682189941e+00 -2.573383785784244537e-02
6.520000000000000000e+02 7.936683654785156250e+01 -5.551865100860595703e+00 3.321971977129578590e-03 6.430963993072509766e+00 1.930285811424255371e+00 1.180107984691858292e-02
6.530000000000000000e+02 7.308596801757812500e+01 -5.438754081726074219e+00 1.715955436229705811e-01 7.034682750701904297e+00 2.161883592605590820e+00 9.243853390216827393e-02
6.540000000000000000e+02 6.665553283691406250e+01 -5.025627613067626953e+00 5.367634892463684082e-01 7.329482555389404297e+00 2.359873771667480469e+00 1.781567484140396118e-01
6.550000000000000000e+02 5.906073760986328125e+01 -3.940691947937011719e+00 1.178860545158386230e+00 7.572325706481933594e+00 2.625355720520019531e+00 3.556089401245117188e-01
6.560000000000000000e+02 4.676116943359375000e+01 -3.112956285476684570e+00 2.843847036361694336e+00 9.069190025329589844e+00 3.573910951614379883e+00 1.050093173980712891e+00
6.570000000000000000e+02 4.012932586669921875e+01 -5.685352802276611328e+00 8.496976852416992188e+00 1.560197639465332031e+01 7.229685783386230469e+00 2.043859958648681641e+00
6.580000000000000000e+02 3.961204147338867188e+01 -5.788323879241943359e+00 9.246180534362792969e+00 1.782419967651367188e+01 8.121113777160644531e+00 2.410551786422729492e+00
6.590000000000000000e+02 1.905300903320312500e+01 -2.348795127868652344e+01 1.985817551612854004e-01 5.866480469703674316e-01 2.355689406394958496e-01 1.582681089639663696e-01
6.600000000000000000e+02 1.648425674438476562e+01 -2.293236923217773438e+01 1.152165159583091736e-01 1.274022012948989868e-01 7.278561592102050781e-02 -3.098413906991481781e-02
6.610000000000000000e+02 3.344034957885742188e+01 -1.626623153686523438e+01 6.349229216575622559e-01 3.926036834716796875e+00 1.368287920951843262e+00 2.139504671096801758e+00
6.620000000000000000e+02 4.033817672729492188e+01 -2.177586555480957031e+01 -6.466093063354492188e-01 7.423266887664794922e+00 2.032997369766235352e+00 9.216280579566955566e-01
6.630000000000000000e+02 5.492192077636718750e+01 -1.575930023193359375e+01 7.152326703071594238e-01 8.067841529846191406e+00 2.634922266006469727e+00 -8.358789682388305664e-01
6.640000000000000000e+02 5.950802993774414062e+01 -1.680154418945312500e+01 4.802537262439727783e-01 7.799857616424560547e+00 2.484033346176147461e+00 -7.208296656608581543e-01
6.650000000000000000e+02 6.528633880615234375e+01 -1.549194622039794922e+01 3.702357113361358643e-01 7.505591392517089844e+00 2.362748146057128906e+00 -5.056882500648498535e-01
6.660000000000000000e+02 7.270466613769531250e+01 -1.954606056213378906e+01 5.214205756783485413e-02 7.313298225402832031e+00 2.209632158279418945e+00 -3.922237753868103027e-01
6.670000000000000000e+02 7.935047149658203125e+01 -2.227083206176757812e+01 7.305463077500462532e-04 7.153852939605712891e+00 2.146375179290771484e+00 -5.177369713783264160e-02
6.680000000000000000e+02 5.336080074310302734e+00 -1.564426422119140625e+01 -8.916562423110008240e-03 -3.630505502223968506e-02 -1.356648467481136322e-02 -1.104663312435150146e-02
6.690000000000000000e+02 1.765475988388061523e+00 -1.745632362365722656e+01 -1.696213707327842712e-02 -4.765876568853855133e-03 -6.518403999507427216e-03 5.270093097351491451e-04
6.700000000000000000e+02 5.526242256164550781e-01 -1.068452548980712891e+01 9.662655647844076157e-04 2.665501786395907402e-03 1.089530182071030140e-03 1.055080560036003590e-03
6.710000000000000000e+02 2.425060844421386719e+01 -3.431149673461914062e+01 9.249183535575866699e-02 2.243929624557495117e+00 7.009264230728149414e-01 3.180672824382781982e-01
6.720000000000000000e+02 1.857645988464355469e+01 -3.257411956787109375e+01 2.652247846126556396e-01 1.043840289115905762e+00 3.927195072174072266e-01 1.199315190315246582e-01
6.730000000000000000e+02 2.990233230590820312e+01 -2.580206489562988281e+01 8.080552518367767334e-02 3.379327535629272461e+00 1.038039922714233398e+00 1.018811702728271484e+00
6.740000000000000000e+02 3.876615142822265625e+01 -2.149724769592285156e+01 -5.407602190971374512e-01 6.979060649871826172e+00 1.931490182876586914e+00 1.176134228706359863e+00
6.750000000000000000e+02 4.190207672119140625e+01 -2.152847671508789062e+01 -6.871291995048522949e-01 7.829891204833984375e+00 2.142828464508056641e+00 6.070500612258911133e-01
6.760000000000000000e+02 5.001807022094726562e+01 -2.417134094238281250e+01 -5.499386787414550781e-01 8.168996810913085938e+00 2.285717487335205078e+00 -4.389164149761199951e-01
6.770000000000000000e+02 5.600740051269531250e+01 -2.499695777893066406e+01 -3.292114138603210449e-01 8.039032936096191406e+00 2.312946319580078125e+00 -6.451027393341064453e-01
6.780000000000000000e+02 6.767436218261718750e+01 -2.371938705444335938e+01 -2.935453318059444427e-02 7.632849693298339844e+00 2.281048536300659180e+00 -5.675378441810607910e-01
6.790000000000000000e+02 7.333262634277343750e+01 -2.473476982116699219e+01 -1.993799023330211639e-02 7.491342544555664062e+00 2.241421222686767578e+00 -3.842324912548065186e-01
6.800000000000000000e+02 7.932886505126953125e+01 -2.645467185974121094e+01 -9.490301599726080894e-04 7.475508689880371094e+00 2.242367744445800781e+00 -5.145564302802085876e-02
6.810000000000000000e+02 7.449103593826293945e-01 -3.046600723266601562e+01 1.460324740037322044e-03 -9.179234504699707031e-01 -2.749389410018920898e-01 -5.366617068648338318e-02
6.820000000000000000e+02 8.768051147460937500e+00 -3.540190887451171875e+01 1.699685603380203247e-01 -2.005446255207061768e-01 -9.172818623483181000e-03 -1.569558233022689819e-01
6.830000000000000000e+02 3.210344314575195312e+01 -3.145513153076171875e+01 -2.657349109649658203e-01 4.216779232025146484e+00 1.185313224792480469e+00 6.867915987968444824e-01
6.840000000000000000e+02 4.349259185791015625e+01 -3.294213867187500000e+01 -8.800093531608581543e-01 6.884459018707275391e+00 1.801334977149963379e+00 2.077069878578186035e-01
6.850000000000000000e+02 4.860116577148437500e+01 -3.456293487548828125e+01 -9.088191390037536621e-01 7.429236888885498047e+00 1.956125259399414062e+00 -4.867093265056610107e-02
6.860000000000000000e+02 5.678133773803710938e+01 -3.698231887817382812e+01 -7.307559251785278320e-01 7.809091567993164062e+00 2.123500585556030273e+00 -1.991684585809707642e-01
6.870000000000000000e+02 6.580196380615234375e+01 -3.290234756469726562e+01 -3.001013100147247314e-01 7.829167366027832031e+00 2.258719921112060547e+00 -3.864444196224212646e-01
6.880000000000000000e+02 7.931578063964843750e+01 -3.340250396728515625e+01 -4.354545671958476305e-04 7.904880046844482422e+00 2.371333360671997070e+00 -3.198855742812156677e-02
6.890000000000000000e+02 7.935824584960937500e+01 2.799311637878417969e+00 2.172353910282254219e-03 6.829053878784179688e+00 2.049367904663085938e+00 5.333602055907249451e-02
6.900000000000000000e+02 7.293298339843750000e+01 1.276217103004455566e+00 1.332620084285736084e-01 7.209841251373291016e+00 2.202930927276611328e+00 3.680774271488189697e-01
6.910000000000000000e+02 6.426064300537109375e+01 -3.423063755035400391e-01 5.917097330093383789e-01 7.485717773437500000e+00 2.423228263854980469e+00 5.445943474769592285e-01
6.920000000000000000e+02 6.077156448364257812e+01 4.608310222625732422e+00 4.558099508285522461e-01 7.740242958068847656e+00 2.458815813064575195e+00 8.749282360076904297e-01
6.930000000000000000e+02 4.560590362548828125e+01 1.231302499771118164e+00 8.598636984825134277e-01 9.427623748779296875e+00 3.086246252059936523e+00 9.163320660591125488e-01
6.940000000000000000e+02 3.395860290527343750e+01 -6.689371466636657715e-01 1.679532408714294434e+00 3.373843669891357422e+00 1.516012787818908691e+00 -2.555226564407348633e+00
6.950000000000000000e+02 4.330852127075195312e+01 -1.115870475769042969e+00 1.482398271560668945e+00 1.058337974548339844e+01 3.619733572006225586e+00 9.549059867858886719e-01
6.960000000000000000e+02 7.935917663574218750e+01 8.365774154663085938e+00 7.142119575291872025e-04 7.315670967102050781e+00 2.194915533065795898e+00 6.720233708620071411e-02
6.970000000000000000e+02 7.286421203613281250e+01 8.182167053222656250e+00 4.453311115503311157e-02 7.532526969909667969e+00 2.273118019104003906e+00 5.270978212356567383e-01
6.980000000000000000e+02 6.612536621093750000e+01 1.002466106414794922e+01 4.392633214592933655e-02 7.744405746459960938e+00 2.336499691009521484e+00 8.116233944892883301e-01
6.990000000000000000e+02 5.588671875000000000e+01 6.991250038146972656e+00 2.333825379610061646e-01 7.995319366455078125e+00 2.468610525131225586e+00 9.718458652496337891e-01
7.000000000000000000e+02 4.681258010864257812e+01 1.260512351989746094e+01 -6.165663599967956543e-01 7.727857112884521484e+00 2.133387327194213867e+00 1.864177435636520386e-01
7.010000000000000000e+02 4.182659912109375000e+01 1.218821144104003906e+01 -6.640815734863281250e-01 7.073980331420898438e+00 1.922969579696655273e+00 -4.847208261489868164e-01
7.020000000000000000e+02 3.046018028259277344e+01 -8.179508447647094727e-01 1.234642028808593750e+00 1.127866387367248535e+00 7.087525725364685059e-01 -9.905607104301452637e-01
7.030000000000000000e+02 2.009815979003906250e+01 4.045210838317871094e+00 1.633053459227085114e-02 -4.320837557315826416e-01 -1.247259676456451416e-01 -1.267537940293550491e-02
7.040000000000000000e+02 1.890379142761230469e+01 3.654869079589843750e+00 -6.777067203074693680e-03 -9.153695106506347656e-01 -2.766439914703369141e-01 4.604246467351913452e-02
7.050000000000000000e+02 7.935462188720703125e+01 1.670792770385742188e+01 -9.327426669187843800e-04 8.123025894165039062e+00 2.436628103256225586e+00 6.579796969890594482e-02
7.060000000000000000e+02 7.259780883789062500e+01 1.754891204833984375e+01 -5.941429734230041504e-02 8.018728256225585938e+00 2.387794017791748047e+00 5.150541067123413086e-01
7.070000000000000000e+02 6.534178924560546875e+01 1.861679649353027344e+01 -2.097203880548477173e-01 7.911946773529052734e+00 2.310667991638183594e+00 7.094756960868835449e-01
7.080000000000000000e+02 5.508941650390625000e+01 1.460295391082763672e+01 -3.883182704448699951e-01 7.841242313385009766e+00 2.235877275466918945e+00 7.126914858818054199e-01
7.090000000000000000e+02 4.938675308227539062e+01 1.623981094360351562e+01 -6.477155089378356934e-01 7.550029277801513672e+00 2.070693969726562500e+00 3.129759728908538818e-01
7.100000000000000000e+02 4.348596572875976562e+01 1.788657760620117188e+01 -7.401711344718933105e-01 6.730874538421630859e+00 1.797211050987243652e+00 -2.305222451686859131e-01
7.110000000000000000e+02 2.600906181335449219e+01 1.025645256042480469e+01 1.718609035015106201e-01 1.832805752754211426e+00 6.014000177383422852e-01 -8.945595026016235352e-01
7.120000000000000000e+02 1.961296653747558594e+01 1.124392223358154297e+01 3.095151670277118683e-02 2.077554613351821899e-01 7.161208987236022949e-02 -2.225233614444732666e-01
7.130000000000000000e+02 7.930242156982421875e+01 2.368117332458496094e+01 -3.652906510978937149e-03 8.696106910705566406e+00 2.607736349105834961e+00 5.563241243362426758e-02
7.140000000000000000e+02 7.082450866699218750e+01 2.535455131530761719e+01 -1.252388507127761841e-01 8.239057540893554688e+00 2.434145689010620117e+00 4.256874024868011475e-01
7.150000000000000000e+02 6.641279602050781250e+01 2.555621910095214844e+01 -2.506733834743499756e-01 8.026262283325195312e+00 2.332676649093627930e+00 5.044910907745361328e-01
7.160000000000000000e+02 4.865008544921875000e+01 2.218052673339843750e+01 -7.243749499320983887e-01 7.070998191833496094e+00 1.903987050056457520e+00 1.333084702491760254e-01
7.170000000000000000e+02 3.908896255493164062e+01 2.432879066467285156e+01 -6.417004466056823730e-01 5.468025207519531250e+00 1.447897434234619141e+00 -4.219651222229003906e-01
7.180000000000000000e+02 4.129183578491210938e+01 2.285252952575683594e+01 -7.048960924148559570e-01 5.959176540374755859e+00 1.576284170150756836e+00 -3.408642709255218506e-01
7.190000000000000000e+02 2.655731582641601562e+01 1.643150901794433594e+01 -7.715282589197158813e-02 2.468827486038208008e+00 7.175023555755615234e-01 -8.400993943214416504e-01
7.200000000000000000e+02 2.061837005615234375e+01 1.634118080139160156e+01 -4.848734661936759949e-02 9.911575913429260254e-01 2.828010618686676025e-01 -4.302501380443572998e-01
7.210000000000000000e+02 1.715789079666137695e+00 2.040383148193359375e+01 -1.840090379118919373e-02 -4.285849630832672119e-02 -1.837782002985477448e-02 4.692862927913665771e-02
7.220000000000000000e+02 7.931158447265625000e+01 2.926053237915039062e+01 -4.897646605968475342e-03 9.042035102844238281e+00 2.711141109466552734e+00 3.946610167622566223e-02
7.230000000000000000e+02 7.278630828857421875e+01 3.117301750183105469e+01 -8.934974670410156250e-02 8.497050285339355469e+00 2.522310256958007812e+00 2.444882988929748535e-01
7.240000000000000000e+02 6.499532318115234375e+01 3.099640846252441406e+01 -3.046398162841796875e-01 7.980097293853759766e+00 2.302637338638305664e+00 3.499200940132141113e-01
7.250000000000000000e+02 5.981732559204101562e+01 3.318700027465820312e+01 -4.549895226955413818e-01 7.618083000183105469e+00 2.148927927017211914e+00 2.587870359420776367e-01
7.260000000000000000e+02 3.545431900024414062e+01 3.263101196289062500e+01 -4.907870292663574219e-01 4.542011260986328125e+00 1.215367197990417480e+00 -2.981413900852203369e-01
7.270000000000000000e+02 2.886633110046386719e+01 2.609872627258300781e+01 -2.604699432849884033e-01 3.250750064849853516e+00 8.970840573310852051e-01 -5.854476094245910645e-01
7.280000000000000000e+02 2.077025604248046875e+01 2.515540122985839844e+01 -1.469624042510986328e-02 1.555982470512390137e+00 4.623858630657196045e-01 -4.291243255138397217e-01
7.290000000000000000e+02 1.823676109313964844e+01 2.280553245544433594e+01 -1.850627548992633820e-02 9.408445954322814941e-01 2.767015099525451660e-01 -3.203551769256591797e-01
7.300000000000000000e+02 6.593120574951171875e+00 2.430756950378417969e+01 -1.366475317627191544e-02 -6.291460245847702026e-02 -2.297380566596984863e-02 1.966577619314193726e-01
7.310000000000000000e+02 2.748250007629394531e+01 3.331741714477539062e+01 -2.028244882822036743e-01 2.990221738815307617e+00 8.362191915512084961e-01 -3.017705082893371582e-01
7.320000000000000000e+02 1.617183494567871094e+01 3.199697303771972656e+01 8.491476625204086304e-02 1.018836975097656250e+00 3.311255276203155518e-01 -1.076240688562393188e-01
7.330000000000000000e+02 7.202779769897460938e+00 3.459843444824218750e+01 5.710060894489288330e-02 2.502169646322727203e-02 2.463669143617153168e-02 7.118274271488189697e-02
7.340000000000000000e+02 2.087308883666992188e+00 3.158079910278320312e+01 7.713379338383674622e-03 -4.222978949546813965e-01 -1.243753507733345032e-01 6.668097525835037231e-02
7.350000000000000000e+02 1.588333845138549805e+00 9.196343421936035156e+00 -2.984914463013410568e-04 8.887236472219228745e-04 1.770696544554084539e-04 -8.268088568001985550e-04
7.360000000000000000e+02 1.930876350402832031e+01 -7.717560768127441406e+00 -4.084073603153228760e-01 -8.132287301123142242e-03 -1.249618902802467346e-01 -2.678285539150238037e-01
7.370000000000000000e+02 1.419164180755615234e+01 -1.389119148254394531e+01 -7.775576710700988770e-01 -1.070628404617309570e+00 -5.544558167457580566e-01 -8.756217360496520996e-01
7.380000000000000000e+02 7.518230438232421875e+00 -1.384235858917236328e+01 -4.885858856141567230e-03 1.100391335785388947e-02 1.835416303947567940e-03 5.521709565073251724e-03
7.390000000000000000e+02 1.131353378295898438e+01 -8.134120941162109375e+00 1.286086742766201496e-03 4.309459764044731855e-04 5.151098011992871761e-04 -9.529072558507323265e-04
7.400000000000000000e+02 1.009682464599609375e+01 -3.133234262466430664e+00 -1.852000714279711246e-04 8.478242671117186546e-04 1.987872528843581676e-04 -6.627863040193915367e-04
7.410000000000000000e+02 1.320627307891845703e+01 -1.965701818466186523e+00 -7.688637197134085000e-06 -6.329069037747103721e-06 -4.205311597615946084e-06 -8.864248229656368494e-05
7.420000000000000000e+02 1.491045093536376953e+01 -2.294870615005493164e+00 -9.106974175665527582e-05 -8.687091030878946185e-05 -5.338219853001646698e-05 1.101439338526688516e-04
7.430000000000000000e+02 1.430283927917480469e+01 -2.143927812576293945e+00 7.371461106231436133e-05 1.642803981667384505e-04 7.139850640669465065e-05 -1.669959747232496738e-04
7.440000000000000000e+02 1.374901580810546875e+01 -1.999967575073242188e+00 -2.467604826961178333e-05 -2.014589845202863216e-04 -6.784050492569804192e-05 1.561296376166865230e-04
7.450000000000000000e+02 1.178844928741455078e+01 -1.977324604988098145e+00 2.397618809482082725e-04 -1.445229572709649801e-04 2.857167783076874912e-05 -1.445146626792848110e-04
7.460000000000000000e+02 1.030891227722167969e+01 -1.854021430015563965e+00 9.647502156440168619e-05 1.057976260199211538e-04 6.068179573048837483e-05 -3.816042153630405664e-04
7.470000000000000000e+02 9.571550369262695312e+00 -1.821524739265441895e+00 -1.119366861530579627e-04 -1.576925860717892647e-04 -8.088877802947536111e-05 4.583659465424716473e-04
7.480000000000000000e+02 8.824576377868652344e+00 -1.821703076362609863e+00 9.605235362641906249e-08 1.811817783163860440e-04 5.438334846985526383e-05 -3.111684927716851234e-04
7.490000000000000000e+02 7.320104598999023438e+00 -1.848074555397033691e+00 6.351369847834575921e-06 1.685847819317132235e-04 5.248084562481380999e-05 -2.330251591047272086e-04
7.500000000000000000e+02 5.800315856933593750e+00 -1.878697395324707031e+00 -8.232911568484269083e-06 1.432931021554395556e-04 4.051805444760248065e-05 -2.098265395034104586e-04
7.510000000000000000e+02 3.518502473831176758e+00 -1.977496743202209473e+00 -1.190549810416996479e-04 2.519159534131176770e-05 -2.815901461872272193e-05 7.331730739679187536e-05
7.520000000000000000e+02 5.039631366729736328e+00 -1.900172710418701172e+00 -1.373962732031941414e-04 -5.335402238415554166e-05 -5.722508649341762066e-05 1.501109654782339931e-04
7.530000000000000000e+02 4.436377525329589844e+00 -2.783670902252197266e+00 -1.239183620782569051e-04 3.174907396896742284e-05 -2.765078534139320254e-05 1.403526548529043794e-04
7.540000000000000000e+02 2.752789258956909180e+00 -2.032468795776367188e+00 3.665388430817984045e-05 -1.881427670014090836e-05 5.351882464310619980e-06 -1.854095462476834655e-04
7.550000000000000000e+02 1.978414893150329590e+00 -2.077883958816528320e+00 -1.185989531222730875e-04 1.975186205527279526e-05 -2.965412932098843157e-05 1.109356599044986069e-04
7.560000000000000000e+02 1.196551561355590820e+00 -2.136707544326782227e+00 -2.819160908984486014e-05 -3.610237763496115804e-05 -1.928819619934074581e-05 -2.489794569555670023e-04
7.570000000000000000e+02 2.043917417526245117e+00 -4.162738418579101562e+01 -4.024550691246986389e-02 -1.132979154586791992e+00 -3.519673943519592285e-01 1.139894127845764160e-02
7.580000000000000000e+02 6.303500175476074219e+00 -3.802854537963867188e+01 1.095209494233131409e-01 -4.883863925933837891e-01 -1.136596351861953735e-01 -1.069010868668556213e-01
7.590000000000000000e+02 1.035638332366943359e+00 -3.863831329345703125e+01 -3.189341165125370026e-03 -1.180116534233093262e+00 -3.549917638301849365e-01 9.736085310578346252e-03
7.600000000000000000e+02 6.667814254760742188e-01 -3.474839782714843750e+01 9.183998219668865204e-03 -1.154176831245422363e+00 -3.434978723526000977e-01 -3.048134967684745789e-02
7.610000000000000000e+02 8.145801424980163574e-01 -3.335108184814453125e+01 3.342687617987394333e-03 -1.092310786247253418e+00 -3.266904056072235107e-01 -4.043874517083168030e-02
7.620000000000000000e+02 7.186375856399536133e-01 -2.905063629150390625e+01 7.957413792610168457e-03 -8.045376539230346680e-01 -2.389740645885467529e-01 -6.258668750524520874e-02
7.630000000000000000e+02 7.035802602767944336e-01 -2.763700294494628906e+01 -2.608922543004155159e-03 -6.733328104019165039e-01 -2.027825266122817993e-01 -6.811803579330444336e-02
7.640000000000000000e+02 6.946935057640075684e-01 -2.621975898742675781e+01 4.200177267193794250e-03 -5.335198640823364258e-01 -1.587958931922912598e-01 -6.944797933101654053e-02
7.650000000000000000e+02 6.071954965591430664e-01 -2.193287658691406250e+01 -5.213194526731967926e-03 -1.263903230428695679e-01 -3.948105871677398682e-02 -5.090286582708358765e-02
7.660000000000000000e+02 1.719982981681823730e+00 -2.036849403381347656e+01 -3.043617680668830872e-02 -8.461486548185348511e-02 -3.451531380414962769e-02 -9.422928094863891602e-02
7.670000000000000000e+02 5.437813997268676758e-01 -1.626279067993164062e+01 1.788310823030769825e-03 4.552546143531799316e-02 1.419413089752197266e-02 7.460755296051502228e-03
7.680000000000000000e+02 5.241372585296630859e-01 -1.487149047851562500e+01 -3.335292567498981953e-04 2.831496484577655792e-02 8.394430391490459442e-03 5.212310235947370529e-03
7.690000000000000000e+02 5.281223058700561523e-01 -1.348132991790771484e+01 1.274013542570173740e-03 1.547366753220558167e-02 5.024304613471031189e-03 4.077537450939416885e-03
7.700000000000000000e+02 4.367235183715820312e+00 -1.488777732849121094e+01 5.694148596376180649e-03 -2.558078244328498840e-02 -5.965990480035543442e-03 -2.149417297914624214e-03
7.710000000000000000e+02 5.494430661201477051e-01 -9.286637306213378906e+00 -5.213401163928210735e-04 7.764259935356676579e-04 7.652577187400311232e-05 4.740653675980865955e-04
7.720000000000000000e+02 5.391324758529663086e-01 -7.893566131591796875e+00 7.028728141449391842e-04 -1.668867917032912374e-04 1.607957965461537242e-04 2.100525889545679092e-04
7.730000000000000000e+02 5.332581996917724609e-01 -6.499081611633300781e+00 -4.126932180952280760e-04 -2.121622674167156219e-04 -1.874566369224339724e-04 -1.063137169694527984e-04
7.740000000000000000e+02 7.491717529296875000e+01 -4.031473541259765625e+01 -5.302661284804344177e-02 7.931058406829833984e+00 2.363409519195556641e+00 -5.925498902797698975e-02
7.750000000000000000e+02 5.218353271484375000e+01 -4.038528442382812500e+01 -8.937973976135253906e-01 7.564848423004150391e+00 2.001315355300903320e+00 -4.049529135227203369e-02
7.760000000000000000e+02 3.245462036132812500e+01 -4.097988128662109375e+01 -3.932908773422241211e-01 4.312118530273437500e+00 1.175648331642150879e+00 9.242943674325942993e-02
7.770000000000000000e+02 1.290321350097656250e+01 -4.067889785766601562e+01 2.027086913585662842e-01 3.584401607513427734e-01 1.683446466922760010e-01 -1.200558897107839584e-02
7.780000000000000000e+02 7.596929931640625000e+01 4.055733871459960938e+01 -1.779516786336898804e-02 9.040287017822265625e+00 2.706747531890869141e+00 6.475333869457244873e-02
7.790000000000000000e+02 7.809024810791015625e+01 4.176180648803710938e+01 5.869651213288307190e-02 9.198226928710937500e+00 2.777076959609985352e+00 -1.642763055860996246e-02
7.800000000000000000e+02 7.881445312500000000e+01 3.895351409912109375e+01 -4.134316369891166687e-02 9.267935752868652344e+00 2.767977714538574219e+00 -1.810718141496181488e-02
7.810000000000000000e+02 7.767227172851562500e+01 3.611460876464843750e+01 -5.042767152190208435e-03 9.095373153686523438e+00 2.727098941802978516e+00 5.347254499793052673e-02
7.820000000000000000e+02 7.921934509277343750e+01 3.483064270019531250e+01 -3.568029263988137245e-03 9.236890792846679688e+00 2.769996881484985352e+00 1.924856565892696381e-02
7.830000000000000000e+02 7.764136505126953125e+01 3.345514297485351562e+01 -1.939319260418415070e-02 9.031714439392089844e+00 2.703696489334106445e+00 7.117415219545364380e-02
7.840000000000000000e+02 7.922646331787109375e+01 3.344901275634765625e+01 -1.175797544419765472e-03 9.204221725463867188e+00 2.760913610458374023e+00 2.344147115945816040e-02
7.850000000000000000e+02 7.928564453125000000e+01 3.065804672241210938e+01 5.276898154988884926e-04 9.107597351074218750e+00 2.732437610626220703e+00 3.499821946024894714e-02
7.860000000000000000e+02 7.654032897949218750e+01 2.795460128784179688e+01 -2.522484399378299713e-02 8.698477745056152344e+00 2.601975917816162109e+00 1.856029629707336426e-01
7.870000000000000000e+02 7.929790496826171875e+01 2.647634696960449219e+01 -2.189475577324628830e-03 8.879758834838867188e+00 2.663270950317382812e+00 4.935329407453536987e-02
7.880000000000000000e+02 7.638347625732421875e+01 2.502833938598632812e+01 -2.192080952227115631e-02 8.548876762390136719e+00 2.558086633682250977e+00 2.247537970542907715e-01
7.890000000000000000e+02 7.929479217529296875e+01 2.508154106140136719e+01 -1.877690374385565519e-04 8.790895462036132812e+00 2.637212276458740234e+00 5.174226313829421997e-02
7.900000000000000000e+02 7.933084106445312500e+01 2.088625907897949219e+01 -2.027449896559119225e-03 8.483962059020996094e+00 2.544580459594726562e+00 5.976884067058563232e-02
7.910000000000000000e+02 7.934117889404296875e+01 1.949162101745605469e+01 -4.143125552218407393e-04 8.368980407714843750e+00 2.510569810867309570e+00 6.248482316732406616e-02
7.920000000000000000e+02 7.934902954101562500e+01 1.809905624389648438e+01 -7.684690644964575768e-04 8.248380661010742188e+00 2.474283456802368164e+00 6.384503096342086792e-02
7.930000000000000000e+02 7.935927581787109375e+01 1.392970943450927734e+01 -8.115812088362872601e-04 7.860009193420410156e+00 2.357759237289428711e+00 6.846296042203903198e-02
7.940000000000000000e+02 7.935981750488281250e+01 1.253879737854003906e+01 1.992517791222780943e-04 7.724256038665771484e+00 2.317336559295654297e+00 6.926474720239639282e-02
7.950000000000000000e+02 7.936011505126953125e+01 1.114810657501220703e+01 -6.331971962936222553e-05 7.587227344512939453e+00 2.276149272918701172e+00 6.924435496330261230e-02
7.960000000000000000e+02 7.935839080810546875e+01 6.974308967590332031e+00 1.398412743583321571e-03 7.184446334838867188e+00 2.155753374099731445e+00 6.501203775405883789e-02
7.970000000000000000e+02 7.935770416259765625e+01 5.582518577575683594e+00 1.463682274334132671e-03 7.058403015136718750e+00 2.117959976196289062e+00 6.199949607253074646e-02
7.980000000000000000e+02 7.935740661621093750e+01 4.191208362579345703e+00 2.243718365207314491e-03 6.939394474029541016e+00 2.082491397857666016e+00 5.805699899792671204e-02
7.990000000000000000e+02 7.936231231689453125e+01 1.822446286678314209e-02 2.777129877358675003e-03 6.640601634979248047e+00 1.993013620376586914e+00 4.147270321846008301e-02
8.000000000000000000e+02 7.936455535888671875e+01 -1.373824357986450195e+00 3.485739463940262794e-03 6.565561771392822266e+00 1.970714211463928223e+00 3.462931141257286072e-02
8.010000000000000000e+02 7.810346221923828125e+01 -4.122343063354492188e+00 1.644775085151195526e-02 6.618776798248291016e+00 1.990567326545715332e+00 5.195301398634910583e-02
8.020000000000000000e+02 7.936738586425781250e+01 -4.158899784088134766e+00 3.791708266362547874e-03 6.459842205047607422e+00 1.939090251922607422e+00 1.964091137051582336e-02
8.030000000000000000e+02 7.936174011230468750e+01 -8.336483001708984375e+00 3.319127485156059265e-03 6.422883987426757812e+00 1.927860975265502930e+00 -4.026760347187519073e-03
8.040000000000000000e+02 7.807019805908203125e+01 -1.108273887634277344e+01 1.567595079541206360e-02 6.630537033081054688e+00 1.993863821029663086e+00 -5.449242889881134033e-02
8.050000000000000000e+02 7.935617828369140625e+01 -1.112460994720458984e+01 3.023554105311632156e-03 6.478762149810791016e+00 1.944535732269287109e+00 -1.895377412438392639e-02
8.060000000000000000e+02 7.935157775878906250e+01 -1.530833530426025391e+01 2.703181467950344086e-03 6.666100978851318359e+00 2.000641107559204102e+00 -3.736487030982971191e-02
8.070000000000000000e+02 7.804553985595703125e+01 -1.807113075256347656e+01 7.240161299705505371e-03 6.941439151763916016e+00 2.084603786468505859e+00 -1.293441057205200195e-01
8.080000000000000000e+02 7.934917449951171875e+01 -1.809769248962402344e+01 1.727033755742013454e-03 6.843585014343261719e+00 2.053593635559082031e+00 -4.574149101972579956e-02
8.090000000000000000e+02 7.934640502929687500e+01 -2.366296005249023438e+01 -1.555128546897321939e-04 7.262375831604003906e+00 2.178666114807128906e+00 -5.231425911188125610e-02
8.100000000000000000e+02 7.802585601806640625e+01 -2.500875663757324219e+01 -2.673072740435600281e-03 7.391394615173339844e+00 2.216616392135620117e+00 -1.455037146806716919e-01
8.110000000000000000e+02 7.933879089355468750e+01 -2.505811119079589844e+01 1.783906045602634549e-04 7.370189666748046875e+00 2.211110591888427734e+00 -5.234385654330253601e-02
8.120000000000000000e+02 7.930933380126953125e+01 -2.924670410156250000e+01 -3.313729073852300644e-03 7.672935009002685547e+00 2.300886392593383789e+00 -4.707687720656394958e-02
8.130000000000000000e+02 7.786438751220703125e+01 -3.199883460998535156e+01 -1.068129763007164001e-02 7.795311450958251953e+00 2.335389137268066406e+00 -1.089333593845367432e-01
8.140000000000000000e+02 7.930400848388671875e+01 -3.203004074096679688e+01 -5.232007708400487900e-03 7.838093280792236328e+00 2.349858522415161133e+00 -3.754473105072975159e-02
8.150000000000000000e+02 7.935334014892578125e+01 -3.611019897460937500e+01 2.944091975223273039e-04 8.005670547485351562e+00 2.401789426803588867e+00 -1.950731128454208374e-02
8.160000000000000000e+02 7.925478363037109375e+01 -3.742754745483398438e+01 -5.860280711203813553e-03 8.036013603210449219e+00 2.409045934677124023e+00 -1.220037788152694702e-02
8.170000000000000000e+02 7.901654815673828125e+01 -3.872698593139648438e+01 8.528592297807335854e-04 8.052410125732421875e+00 2.415978908538818359e+00 -9.937236085534095764e-03
8.180000000000000000e+02 7.863819885253906250e+01 -4.007882690429687500e+01 -7.198598235845565796e-03 8.058351516723632812e+00 2.415345907211303711e+00 -3.669902216643095016e-03
8.190000000000000000e+02 2.750733947753906250e+01 4.073852920532226562e+01 -2.121573388576507568e-01 3.030729532241821289e+00 8.455716967582702637e-01 -5.089056864380836487e-02
8.200000000000000000e+02 6.731919860839843750e+01 4.061600875854492188e+01 -2.337620556354522705e-01 8.146262168884277344e+00 2.373749971389770508e+00 5.584214255213737488e-02
8.210000000000000000e+02 1.302926301956176758e+00 2.756680965423583984e+00 -1.125064809457398951e-04 -1.869472034741193056e-04 -8.983610314317047596e-05 1.757867430569604039e-04
8.220000000000000000e+02 3.203166246414184570e+00 2.752382993698120117e+00 5.221131141297519207e-04 1.824663013394456357e-05 1.621079281903803349e-04 -1.632087223697453737e-04
8.230000000000000000e+02 5.317995071411132812e+00 2.608813762664794922e+00 -1.529760484118014574e-04 -1.694767997832968831e-04 -9.673585736891254783e-05 7.787600043229758739e-05
8.240000000000000000e+02 1.530022144317626953e+00 6.413070201873779297e+00 -3.938411828130483627e-04 2.560697903390973806e-04 -4.133142283535562456e-05 -1.460295025026425719e-04
8.250000000000000000e+02 5.284587144851684570e-01 9.249495506286621094e+00 5.515231168828904629e-04 1.663580536842346191e-03 6.645310786552727222e-04 -5.337194888852536678e-04
8.260000000000000000e+02 5.643402934074401855e-01 1.205321407318115234e+01 1.091140089556574821e-03 6.043462548404932022e-03 2.140380907803773880e-03 -1.493499265052378178e-03
8.270000000000000000e+02 1.672721862792968750e+00 1.192767524719238281e+01 -2.028395829256623983e-04 2.232824219390749931e-03 6.089953822083771229e-04 -2.521286718547344208e-03
8.280000000000000000e+02 5.903095602989196777e-01 1.775001335144042969e+01 4.409777102409861982e-05 1.654871553182601929e-02 4.977843724191188812e-03 2.187501406297087669e-03
8.290000000000000000e+02 7.485419750213623047e+00 1.806182861328125000e+01 -1.408695280551910400e-01 3.553883358836174011e-02 -3.159920871257781982e-02 -2.664787881076335907e-02
8.300000000000000000e+02 3.331376314163208008e+00 1.867522621154785156e+01 -4.724745079874992371e-02 -1.658971793949604034e-02 -1.915114931762218475e-02 3.661989793181419373e-02
8.310000000000000000e+02 6.004641652107238770e-01 2.193818283081054688e+01 -1.185652567073702812e-03 -8.328589797019958496e-02 -2.534146606922149658e-02 2.547913230955600739e-02
8.320000000000000000e+02 5.882211327552795410e-01 2.335926246643066406e+01 -4.227348603308200836e-03 -1.521547287702560425e-01 -4.691462218761444092e-02 3.226800635457038879e-02
8.330000000000000000e+02 5.720711946487426758e-01 2.477446556091308594e+01 2.313821110874414444e-03 -2.338238358497619629e-01 -6.945300102233886719e-02 3.400893509387969971e-02
8.340000000000000000e+02 6.335757970809936523e-01 2.897942352294921875e+01 -1.633300998946651816e-04 -4.603538513183593750e-01 -1.381551623344421387e-01 2.833160944283008575e-02
8.350000000000000000e+02 6.651749610900878906e-01 3.038479423522949219e+01 1.984405564144253731e-03 -5.194908380508422852e-01 -1.552519351243972778e-01 2.602736651897430420e-02
8.360000000000000000e+02 2.007947921752929688e+00 3.016745948791503906e+01 7.950471714138984680e-03 -3.924486339092254639e-01 -1.153494492173194885e-01 7.427965104579925537e-02
8.370000000000000000e+02 6.899443268775939941e-01 3.179452323913574219e+01 4.936601035296916962e-04 -5.714178681373596191e-01 -1.712772548198699951e-01 2.373000606894493103e-02
8.380000000000000000e+02 6.778162121772766113e-01 3.601096343994140625e+01 -1.252315356396138668e-03 -6.488506197929382324e-01 -1.950308829545974731e-01 3.266377840191125870e-03
8.390000000000000000e+02 2.349690675735473633e+00 3.805248260498046875e+01 2.264224551618099213e-02 -5.037752389907836914e-01 -1.443398892879486084e-01 -2.066452801227569580e-02
8.400000000000000000e+02 8.863244056701660156e-01 3.871419906616210938e+01 -6.905293092131614685e-03 -6.072538495063781738e-01 -1.842477470636367798e-01 -1.511541847139596939e-02
8.410000000000000000e+02 1.289632678031921387e+00 4.005185699462890625e+01 1.238124538213014603e-02 -5.776144266128540039e-01 -1.695699542760848999e-01 -2.455169707536697388e-02
8.420000000000000000e+02 1.037503528594970703e+01 1.848843336105346680e+00 -1.971885649254545569e-04 -1.206519955303519964e-04 -9.535216668155044317e-05 1.361427712254226208e-05
8.430000000000000000e+02 8.915609359741210938e+00 1.858469963073730469e+00 -1.672279759077355266e-04 -1.491254806751385331e-04 -9.490604134043678641e-05 4.944683314533904195e-05
8.440000000000000000e+02 8.200700759887695312e+00 1.856067538261413574e+00 3.089578822255134583e-04 1.237497926922515035e-04 1.298122951993718743e-04 -1.493817944719921798e-05
8.450000000000000000e+02 7.488251686096191406e+00 1.854571104049682617e+00 -1.487487024860456586e-04 -1.399663742631673813e-04 -8.661452739033848047e-05 6.245622353162616491e-05
8.460000000000000000e+02 5.352706432342529297e+00 1.867980718612670898e+00 2.925666631199419498e-04 9.730249439598992467e-05 1.169607494375668466e-04 -1.192447598441503942e-04
8.470000000000000000e+02 4.639107704162597656e+00 1.881386756896972656e+00 -1.532905152998864651e-04 -9.644206147640943527e-05 -7.491977157769724727e-05 8.214575063902884722e-05
8.480000000000000000e+02 3.926670312881469727e+00 1.895987033843994141e+00 3.375635715201497078e-04 5.377759225666522980e-05 1.174023491330444813e-04 -1.368183729937300086e-04
8.490000000000000000e+02 3.217976093292236328e+00 1.904902696609497070e+00 -2.679987228475511074e-04 4.076205641467822716e-06 -7.917675975477322936e-05 7.423054285027319565e-06
8.500000000000000000e+02 2.518484830856323242e+00 1.902938604354858398e+00 2.570830984041094780e-04 5.379004505812190473e-05 9.326193685410544276e-05 1.591843465575948358e-05
8.510000000000000000e+02 1.823412060737609863e+00 1.900494337081909180e+00 -1.013328583212569356e-04 -8.128867193590849638e-05 -5.478645834955386817e-05 -3.332815595058491454e-06
8.520000000000000000e+02 1.263393497467041016e+01 1.761938929557800293e+00 2.558408305048942566e-04 2.918421159847639501e-05 8.550751226721331477e-05 -5.210329254623502493e-05
8.530000000000000000e+02 1.331512069702148438e+01 1.738660573959350586e+00 -1.871251879492774606e-04 -8.336867176694795489e-05 -8.114815864246338606e-05 2.533469523768872023e-05
8.540000000000000000e+02 1.513073158264160156e+01 1.858832716941833496e+00 2.164396137231960893e-04 5.611755841528065503e-05 8.176715346053242683e-05 -1.568212246638722718e-05
8.550000000000000000e+02 1.340157604217529297e+01 3.112175703048706055e+00 -6.300234235823154449e-04 1.369712208543205634e-05 -1.848979009082540870e-04 2.102424623444676399e-04
8.560000000000000000e+02 1.475724124908447266e+01 3.607553005218505859e+00 -6.151797715574502945e-04 -6.977287557674571872e-05 -2.054857905022799969e-04 7.534641918027773499e-05
8.570000000000000000e+02 1.405595397949218750e+01 7.554579257965087891e+00 1.082369242794811726e-03 2.198405854869633913e-04 3.906629572156816721e-04 2.629260416142642498e-04
8.580000000000000000e+02 1.351740264892578125e+01 8.817192077636718750e+00 -1.164473360404372215e-03 -9.558631427353248000e-05 -3.780179249588400126e-04 -4.166679573245346546e-04
8.590000000000000000e+02 1.288230895996093750e+01 1.004788684844970703e+01 1.202901941724121571e-03 5.870684981346130371e-04 5.369911086745560169e-04 4.578505468089133501e-04
8.600000000000000000e+02 1.027181434631347656e+01 1.166363430023193359e+01 -1.284575206227600574e-03 2.170032355934381485e-03 2.656370925251394510e-04 -1.716392580419778824e-04
8.610000000000000000e+02 9.464166641235351562e+00 1.270935821533203125e+01 3.447206690907478333e-04 1.541513716802000999e-03 5.658703157678246498e-04 -2.550190256442874670e-04
8.620000000000000000e+02 8.499670982360839844e+00 1.551492881774902344e+01 2.491679508239030838e-03 2.349825575947761536e-02 7.796980440616607666e-03 -4.967841319739818573e-03
8.630000000000000000e+02 1.609261322021484375e+01 1.623051261901855469e+01 -2.004536837339401245e-01 8.524130284786224365e-02 -3.456371277570724487e-02 2.125693671405315399e-02
8.640000000000000000e+02 1.648684120178222656e+01 1.299609184265136719e+01 -7.431089133024215698e-02 -2.164240330457687378e-01 -8.722047507762908936e-02 1.067503616213798523e-01
8.650000000000000000e+02 1.758222007751464844e+01 1.042402458190917969e+01 -3.799360245466232300e-02 -3.589029014110565186e-01 -1.190689504146575928e-01 8.484113961458206177e-02
8.660000000000000000e+02 1.828187751770019531e+01 7.746815204620361328e+00 -1.178359705954790115e-02 -6.137107610702514648e-01 -1.876483112573623657e-01 7.020373642444610596e-02
8.670000000000000000e+02 1.875260353088378906e+01 5.028805255889892578e+00 -1.539216097444295883e-02 -8.724193572998046875e-01 -2.663434445858001709e-01 6.028434634208679199e-02
8.680000000000000000e+02 1.924602317810058594e+01 -3.782599687576293945e+00 -1.680422015488147736e-02 -1.582104116678237915e-01 -5.250439047813415527e-02 1.111938208341598511e-01
8.690000000000000000e+02 1.912466621398925781e+01 -2.626697063446044922e+00 -1.603156886994838715e-02 -2.888744771480560303e-01 -9.147182106971740723e-02 1.055788993835449219e-01
8.700000000000000000e+02 2.012120437622070312e+01 -4.022022247314453125e+00 -6.313303858041763306e-02 -1.248136982321739197e-01 -5.638401955366134644e-02 1.740582138299942017e-01
8.710000000000000000e+02 2.092538833618164062e+01 -4.193208694458007812e+00 -1.005856096744537354e-01 -1.099095419049263000e-01 -6.314854323863983154e-02 2.218894958496093750e-01
8.720000000000000000e+02 2.307180023193359375e+01 -4.583529472351074219e+00 -2.703872323036193848e-01 -4.647550359368324280e-02 -9.505882114171981812e-02 2.738908231258392334e-01
8.730000000000000000e+02 2.449817276000976562e+01 -4.753507614135742188e+00 -3.847847878932952881e-01 -1.563180051743984222e-02 -1.201249733567237854e-01 2.716870605945587158e-01
8.740000000000000000e+02 2.521471023559570312e+01 -4.817115306854248047e+00 -4.376244246959686279e-01 -3.365996293723583221e-03 -1.322971284389495850e-01 2.650098204612731934e-01
8.750000000000000000e+02 2.593220901489257812e+01 -4.875735282897949219e+00 -4.873843491077423096e-01 1.136749796569347382e-02 -1.428050547838211060e-01 2.517797946929931641e-01
8.760000000000000000e+02 2.810140991210937500e+01 -4.967605590820312500e+00 -5.649517178535461426e-01 3.720356151461601257e-02 -1.583244502544403076e-01 1.859468519687652588e-01
8.770000000000000000e+02 2.882648468017578125e+01 -4.990708827972412109e+00 -5.619378089904785156e-01 4.984310641884803772e-02 -1.536284089088439941e-01 1.523932218551635742e-01
8.780000000000000000e+02 3.180086898803710938e+01 -4.496138572692871094e+00 3.275901973247528076e-01 2.154255211353302002e-01 1.629047095775604248e-01 -2.980511784553527832e-01
8.790000000000000000e+02 3.101791191101074219e+01 -5.019182682037353516e+00 -3.724792301654815674e-01 8.168722689151763916e-02 -8.723760396242141724e-02 1.402413035975769162e-04
8.800000000000000000e+02 3.174665451049804688e+01 -5.023981571197509766e+00 -1.907477676868438721e-01 9.052953869104385376e-02 -3.006547130644321442e-02 -1.064958870410919189e-01
8.810000000000000000e+02 3.315795516967773438e+01 -4.516746044158935547e+00 9.293987154960632324e-01 4.166144430637359619e-01 4.038039445877075195e-01 -7.102537751197814941e-01
8.820000000000000000e+02 3.460897064208984375e+01 -4.926592350006103516e+00 1.635281443595886230e+00 6.997321248054504395e-01 7.005040645599365234e-01 -1.319424748420715332e+00
8.830000000000000000e+02 3.510772323608398438e+01 -4.928049087524414062e+00 2.300660371780395508e+00 9.566920995712280273e-01 9.772057533264160156e-01 -1.805792689323425293e+00
8.840000000000000000e+02 3.579059982299804688e+01 -5.048239707946777344e+00 3.260354042053222656e+00 1.675937175750732422e+00 1.480887293815612793e+00 -2.696437120437622070e+00
8.850000000000000000e+02 3.537616348266601562e+01 -4.992604255676269531e+00 2.680730581283569336e+00 1.255458235740661621e+00 1.180856704711914062e+00 -2.076035976409912109e+00
8.860000000000000000e+02 3.658727264404296875e+01 -5.028854370117187500e+00 4.511469364166259766e+00 3.921037435531616211e+00 2.529752016067504883e+00 -4.699985504150390625e+00
8.870000000000000000e+02 3.778953170776367188e+01 -5.015639305114746094e+00 3.584382772445678711e+00 1.424634075164794922e+01 5.349216938018798828e+00 -6.949807643890380859e+00
8.880000000000000000e+02 3.981115722656250000e+01 -6.911784172058105469e+00 1.145195579528808594e+01 1.630718421936035156e+01 8.327741622924804688e+00 -1.440616965293884277e+00
8.890000000000000000e+02 3.975989151000976562e+01 -7.133492946624755859e+00 1.074900245666503906e+01 1.678326416015625000e+01 8.259679794311523438e+00 -2.057234525680541992e+00
8.900000000000000000e+02 3.965826797485351562e+01 -7.329174995422363281e+00 9.755824089050292969e+00 1.759566116333007812e+01 8.205445289611816406e+00 -2.669961690902709961e+00
8.910000000000000000e+02 3.913662719726562500e+01 -8.054294586181640625e+00 4.187906265258789062e+00 2.009426307678222656e+01 7.284650802612304688e+00 -1.105056762695312500e+00
8.920000000000000000e+02 3.847197723388671875e+01 -8.279496192932128906e+00 1.836542129516601562e+00 1.921033287048339844e+01 6.314062595367431641e+00 3.150054931640625000e+00
8.930000000000000000e+02 3.757497406005859375e+01 -8.717789649963378906e+00 2.328449249267578125e+00 1.149552726745605469e+01 4.147192955017089844e+00 5.912248134613037109e+00
8.940000000000000000e+02 3.296011734008789062e+01 -8.553381919860839844e+00 -2.901244461536407471e-01 2.512760758399963379e-01 -1.165450550615787506e-02 5.327081084251403809e-01
8.950000000000000000e+02 3.216719436645507812e+01 -9.168419837951660156e+00 -8.116017282009124756e-02 3.071289658546447754e-01 6.779063493013381958e-02 5.583394169807434082e-01
8.960000000000000000e+02 3.234662246704101562e+01 -8.570868492126464844e+00 -5.745640397071838379e-01 1.367833763360977173e-01 -1.313341856002807617e-01 3.315713107585906982e-01
8.970000000000000000e+02 2.942040824890136719e+01 -8.627992630004882812e+00 -1.251891374588012695e+00 3.240011259913444519e-02 -3.658473491668701172e-01 -5.302018672227859497e-02
8.980000000000000000e+02 3.092937469482421875e+01 -8.597697257995605469e+00 -1.051681876182556152e+00 6.737317144870758057e-02 -2.952926158905029297e-01 8.642502129077911377e-02
8.990000000000000000e+02 2.711646270751953125e+01 -8.617145538330078125e+00 -1.297492861747741699e+00 1.843031495809555054e-02 -3.837187886238098145e-01 -1.861467957496643066e-01
9.000000000000000000e+02 2.634432411193847656e+01 -8.606668472290039062e+00 -1.257318496704101562e+00 1.940281502902507782e-02 -3.713747262954711914e-01 -2.197956889867782593e-01
9.010000000000000000e+02 2.322422027587890625e+01 -8.397811889648437500e+00 -9.674610495567321777e-01 5.809145048260688782e-02 -2.728108763694763184e-01 -3.118309080600738525e-01
9.020000000000000000e+02 2.083663558959960938e+01 -8.106942176818847656e+00 -6.401097178459167480e-01 5.965195223689079285e-02 -1.741373240947723389e-01 -3.232478797435760498e-01
9.030000000000000000e+02 2.003302383422851562e+01 -7.955656051635742188e+00 -5.232514142990112305e-01 4.549188166856765747e-02 -1.433278471231460571e-01 -2.989289760589599609e-01
9.040000000000000000e+02 1.820456314086914062e+01 -7.213178157806396484e+00 -1.027931123971939087e-01 -1.718687117099761963e-01 -8.239854872226715088e-02 -1.522903889417648315e-01
9.050000000000000000e+02 3.698307800292968750e+01 -5.028973579406738281e+00 4.747890472412109375e+00 6.323342323303222656e+00 3.321369886398315430e+00 -5.959980964660644531e+00
9.060000000000000000e+02 3.930904006958007812e+01 -7.891448020935058594e+00 5.470892429351806641e+00 1.970661735534667969e+01 7.553253173828125000e+00 -2.011290788650512695e+00
9.070000000000000000e+02 3.826062393188476562e+01 -8.286253929138183594e+00 1.804039359092712402e+00 1.816601943969726562e+01 5.991017818450927734e+00 4.417306423187255859e+00
9.080000000000000000e+02 3.955068206787109375e+01 -7.515079975128173828e+00 8.332862854003906250e+00 1.845875167846679688e+01 8.037484169006347656e+00 -2.801107168197631836e+00
9.090000000000000000e+02 3.947201919555664062e+01 -5.614017963409423828e+00 7.983103275299072266e+00 1.884439277648925781e+01 8.048248291015625000e+00 2.425427913665771484e+00
9.100000000000000000e+02 3.877982711791992188e+01 -5.094523429870605469e+00 3.342135429382324219e+00 2.040234375000000000e+01 7.123343944549560547e+00 -1.074845671653747559e+00
9.110000000000000000e+02 3.897568130493164062e+01 -5.194210529327392578e+00 4.160716533660888672e+00 2.055460166931152344e+01 7.414595603942871094e+00 1.255359798669815063e-01
9.120000000000000000e+02 3.981663131713867188e+01 -6.680266857147216797e+00 1.198036479949951172e+01 1.606671905517578125e+01 8.414125442504882812e+00 -4.921284317970275879e-01
9.130000000000000000e+02 4.014574432373046875e+01 -7.318217754364013672e+00 9.168028831481933594e+00 1.545745372772216797e+01 7.387644767761230469e+00 -2.046295642852783203e+00
9.140000000000000000e+02 3.982109451293945312e+01 -6.454221725463867188e+00 1.174138641357421875e+01 1.608119201660156250e+01 8.346773147583007812e+00 4.921871721744537354e-01
9.150000000000000000e+02 4.043937301635742188e+01 -5.825304508209228516e+00 8.548238754272460938e+00 1.459616184234619141e+01 6.943320274353027344e+00 1.562031507492065430e+00
9.160000000000000000e+02 3.834003067016601562e+01 -4.666286468505859375e+00 2.148716688156127930e+00 1.704730033874511719e+01 5.758804798126220703e+00 -3.931452274322509766e+00
9.170000000000000000e+02 3.915662002563476562e+01 -5.315792560577392578e+00 5.282838821411132812e+00 2.044445610046386719e+01 7.718188762664794922e+00 1.355448126792907715e+00
9.180000000000000000e+02 3.847632217407226562e+01 -8.671807289123535156e+00 1.449168801307678223e+00 1.725298881530761719e+01 5.610647678375244141e+00 3.264843225479125977e+00
9.190000000000000000e+02 3.892060089111328125e+01 -8.180309295654296875e+00 2.912101268768310547e+00 2.018485069274902344e+01 6.929085254669189453e+00 2.997870147228240967e-01
9.200000000000000000e+02 3.559054565429687500e+01 -5.032481193542480469e+00 2.970950126647949219e+00 1.323265194892883301e+00 1.288264632225036621e+00 -2.351006269454956055e+00
9.210000000000000000e+02 3.718112945556640625e+01 -5.025758266448974609e+00 4.635473728179931641e+00 7.938567161560058594e+00 3.772212266921997070e+00 -6.485061645507812500e+00
9.220000000000000000e+02 3.638861465454101562e+01 -5.032269477844238281e+00 4.193832874298095703e+00 3.152629137039184570e+00 2.203938484191894531e+00 -4.113432884216308594e+00
9.230000000000000000e+02 3.678516006469726562e+01 -5.028795242309570312e+00 4.714967250823974609e+00 4.953245639801025391e+00 2.900463819503784180e+00 -5.313637256622314453e+00
9.240000000000000000e+02 3.618856430053710938e+01 -5.039439201354980469e+00 3.933580398559570312e+00 2.480963706970214844e+00 1.924363136291503906e+00 -3.575127840042114258e+00
9.250000000000000000e+02 3.796964263916015625e+01 -5.025115966796875000e+00 3.082467079162597656e+00 1.660560607910156250e+01 5.906422138214111328e+00 -6.285133838653564453e+00
9.260000000000000000e+02 3.738169097900390625e+01 -4.776959896087646484e+00 3.878860950469970703e+00 1.005245399475097656e+01 4.179394245147705078e+00 -6.489725589752197266e+00
9.270000000000000000e+02 3.805561447143554688e+01 -8.279767036437988281e+00 2.131401300430297852e+00 1.664438629150390625e+01 5.632736206054687500e+00 5.564239978790283203e+00
9.280000000000000000e+02 3.782847595214843750e+01 -8.547165870666503906e+00 2.202732086181640625e+00 1.376510334014892578e+01 4.790350914001464844e+00 5.870239257812500000e+00
9.290000000000000000e+02 3.766081237792968750e+01 -8.262925148010253906e+00 3.058765649795532227e+00 1.283085536956787109e+01 4.766886234283447266e+00 6.813966751098632812e+00
9.300000000000000000e+02 3.688255310058593750e+01 -8.361744880676269531e+00 3.734555482864379883e+00 5.934564590454101562e+00 2.900735855102539062e+00 5.504600524902343750e+00
9.310000000000000000e+02 3.584652709960937500e+01 -8.366091728210449219e+00 2.603295326232910156e+00 1.974359869956970215e+00 1.373296618461608887e+00 2.916322946548461914e+00
9.320000000000000000e+02 3.564247512817382812e+01 -8.394775390625000000e+00 2.298593282699584961e+00 1.539278745651245117e+00 1.151361584663391113e+00 2.527882099151611328e+00
9.330000000000000000e+02 3.518287277221679688e+01 -8.469639778137207031e+00 1.646008253097534180e+00 1.175679445266723633e+00 8.465062975883483887e-01 1.993935823440551758e+00
9.340000000000000000e+02 3.667163467407226562e+01 -8.372204780578613281e+00 3.508006334304809570e+00 4.747777462005615234e+00 2.476735115051269531e+00 4.861526012420654297e+00
9.350000000000000000e+02 3.542858505249023438e+01 -8.423420906066894531e+00 2.054122924804687500e+00 1.430887579917907715e+00 1.045503139495849609e+00 2.282368659973144531e+00
9.360000000000000000e+02 3.708259582519531250e+01 -8.312907218933105469e+00 3.774113416671752930e+00 7.412805557250976562e+00 3.356075763702392578e+00 6.157804012298583984e+00
9.370000000000000000e+02 3.608065795898437500e+01 -8.655363082885742188e+00 2.687717676162719727e+00 3.092473506927490234e+00 1.734057426452636719e+00 3.664107084274291992e+00
9.380000000000000000e+02 3.475514984130859375e+01 -8.530762672424316406e+00 1.147045612335205078e+00 9.051854014396667480e-01 6.156693100929260254e-01 1.562798500061035156e+00
9.390000000000000000e+02 3.644709396362304688e+01 -8.663809776306152344e+00 3.172226905822753906e+00 4.331160068511962891e+00 2.251015901565551758e+00 4.545797824859619141e+00
9.400000000000000000e+02 3.525268173217773438e+01 -8.834031105041503906e+00 1.956895828247070312e+00 1.641065955162048340e+00 1.079388499259948730e+00 2.506261825561523438e+00
9.410000000000000000e+02 1.452264022827148438e+01 1.738782405853271484e+00 -1.694842794677242637e-04 -5.656907524098642170e-05 -6.781600677641108632e-05 1.531922607682645321e-04
9.420000000000000000e+02 1.463248062133789062e+01 2.562487602233886719e+00 5.301557248458266258e-04 6.569422839675098658e-05 1.787549845175817609e-04 -1.996081991819664836e-04
9.430000000000000000e+02 1.188668632507324219e+01 1.794691324234008789e+00 -2.717605675570666790e-04 -2.660237259988207370e-05 -8.950888877734541893e-05 1.215802694787271321e-05
9.440000000000000000e+02 3.416848373413085938e+01 -8.529770851135253906e+00 4.841676354408264160e-01 5.215145349502563477e-01 3.017046451568603516e-01 1.063709259033203125e+00
9.450000000000000000e+02 3.553419494628906250e+01 -9.013963699340820312e+00 2.280139923095703125e+00 2.480075120925903320e+00 1.428064465522766113e+00 3.080360412597656250e+00
9.460000000000000000e+02 3.167043495178222656e+01 -8.584675788879394531e+00 -8.613420128822326660e-01 1.084052771329879761e-01 -2.258810251951217651e-01 1.867177635431289673e-01
9.470000000000000000e+02 3.356705856323242188e+01 -8.538127899169921875e+00 -2.125547826290130615e-02 3.299323618412017822e-01 9.260306507349014282e-02 7.659026384353637695e-01
9.480000000000000000e+02 3.398927688598632812e+01 -9.133629798889160156e+00 1.001809120178222656e+00 8.573105931282043457e-01 5.577359199523925781e-01 1.494127988815307617e+00
9.490000000000000000e+02 3.340087890625000000e+01 -9.124171257019042969e+00 5.814241170883178711e-01 6.000396609306335449e-01 3.544391393661499023e-01 1.051527380943298340e+00
9.500000000000000000e+02 1.446527671813964844e+01 -3.376699924468994141e+00 1.457623147871345282e-04 5.111688515171408653e-04 1.970793528016656637e-04 -1.679962151683866978e-04
9.510000000000000000e+02 1.384213256835937500e+01 -2.971166133880615234e+00 -1.563715777592733502e-04 -2.256147126900032163e-04 -1.145958885899744928e-04 1.243252700078301132e-05
9.520000000000000000e+02 1.875358772277832031e+01 -8.284000396728515625e+00 -3.886879086494445801e-01 -6.175280362367630005e-02 -1.351322233676910400e-01 -3.226584196090698242e-01
9.530000000000000000e+02 1.888143920898437500e+01 -9.630928993225097656e+00 -5.113217830657958984e-01 -1.066653206944465637e-01 -1.853961199522018433e-01 -4.837127029895782471e-01
9.540000000000000000e+02 3.938850879669189453e+00 3.561296701431274414e+00 5.146628827787935734e-04 2.025190624408423901e-04 2.151545777451246977e-04 -2.599633880890905857e-04
9.550000000000000000e+02 9.546196937561035156e+00 2.592064380645751953e+00 -2.224955533165484667e-04 -2.219619200332090259e-04 -1.333372492808848619e-04 8.514329965692013502e-05
9.560000000000000000e+02 7.412804126739501953e+00 2.571637868881225586e+00 4.356185963843017817e-04 1.248234621016308665e-04 1.681326102698221803e-04 -6.758853123756125569e-05
9.570000000000000000e+02 6.777099132537841797e+00 1.855412721633911133e+00 3.144596121273934841e-04 9.965778008336201310e-05 1.242352154804393649e-04 -6.160620978334918618e-05
9.580000000000000000e+02 6.715239048004150391e+00 2.573893547058105469e+00 -1.905897952383384109e-04 -1.708084892015904188e-04 -1.084194809664040804e-04 9.166064410237595439e-05
9.590000000000000000e+02 8.023523330688476562e+00 3.318078279495239258e+00 5.378971109166741371e-04 1.727080671116709709e-04 2.131815417669713497e-04 -8.161593723343685269e-05
9.600000000000000000e+02 5.931123733520507812e+00 4.063395023345947266e+00 8.617991115897893906e-04 -1.186441368190571666e-04 2.229464880656450987e-04 -1.102548194467090070e-04
9.610000000000000000e+02 1.568132638931274414e+00 7.812397956848144531e+00 8.553400402888655663e-04 5.761585780419409275e-04 4.294495738577097654e-04 -7.397733279503881931e-04
9.620000000000000000e+02 3.974368274211883545e-01 3.804002285003662109e+00 1.772653922671452165e-05 7.333498069783672690e-05 2.731845597736537457e-05 1.831503686844371259e-05
9.630000000000000000e+02 2.418800115585327148e+00 3.716705322265625000e+00 6.463785539381206036e-04 -9.293574112234637141e-05 1.660328416619449854e-04 -6.647124246228486300e-05
9.640000000000000000e+02 3.882974386215209961e-01 2.100254058837890625e+00 -1.715695398161187768e-04 -7.097367779351770878e-05 -7.276296673808246851e-05 9.280576341552659869e-05
9.650000000000000000e+02 1.125824332237243652e+00 1.947817444801330566e+00 1.112309400923550129e-04 1.180281906272284687e-04 6.877773557789623737e-05 -1.001530108624137938e-04
9.660000000000000000e+02 1.113067245483398438e+01 1.824213981628417969e+00 2.774950116872787476e-04 1.024819503072649240e-04 1.139930900535546243e-04 4.264870585757307708e-05
9.670000000000000000e+02 8.721204757690429688e+00 3.331983089447021484e+00 -2.817663771566003561e-04 -2.741498756222426891e-04 -1.667748729232698679e-04 1.954750186996534467e-04
9.680000000000000000e+02 2.665262222290039062e+01 -4.918178558349609375e+00 -5.270776748657226562e-01 1.995400153100490570e-02 -1.521371006965637207e-01 2.360460162162780762e-01
9.690000000000000000e+02 2.581600761413574219e+01 -2.864395380020141602e+00 8.357296139001846313e-02 8.714307099580764771e-02 5.121481046080589294e-02 2.144259065389633179e-01
9.700000000000000000e+02 2.331139564514160156e+01 -3.875275611877441406e+00 -1.636765599250793457e-01 -4.907646402716636658e-02 -6.382590532302856445e-02 3.062407970428466797e-01
9.710000000000000000e+02 2.612238502502441406e+01 -4.212835788726806641e+00 -2.713269889354705811e-01 3.018904849886894226e-02 -7.234138250350952148e-02 2.582561969757080078e-01
9.720000000000000000e+02 2.401088142395019531e+01 -3.991615056991577148e+00 -2.011334300041198730e-01 -2.381179481744766235e-02 -6.748356670141220093e-02 3.018327653408050537e-01
9.730000000000000000e+02 2.425138854980468750e+01 -3.331836700439453125e+00 -7.658753544092178345e-02 -7.243095431476831436e-03 -2.514918893575668335e-02 2.996999025344848633e-01
9.740000000000000000e+02 2.236049652099609375e+01 -4.458240509033203125e+00 -2.080758810043334961e-01 -6.719938665628433228e-02 -8.258257806301116943e-02 2.681428194046020508e-01
9.750000000000000000e+02 2.260835266113281250e+01 -3.730423688888549805e+00 -1.294064968824386597e-01 -7.196959108114242554e-02 -6.041282415390014648e-02 3.023265600204467773e-01
9.760000000000000000e+02 2.955430603027343750e+01 -5.006271839141845703e+00 -5.365825295448303223e-01 5.420996621251106262e-02 -1.447117626667022705e-01 1.154845133423805237e-01
9.770000000000000000e+02 2.683158493041992188e+01 -4.262829780578613281e+00 -2.774480581283569336e-01 5.109612271189689636e-02 -6.790558248758316040e-02 2.285204678773880005e-01
9.780000000000000000e+02 2.856440544128417969e+01 -3.056120634078979492e+00 3.415533304214477539e-01 2.253976166248321533e-01 1.700852811336517334e-01 -4.190560430288314819e-02
9.790000000000000000e+02 2.753991317749023438e+01 -4.301595687866210938e+00 -2.673141360282897949e-01 6.261921674013137817e-02 -6.140847504138946533e-02 1.935320794582366943e-01
9.800000000000000000e+02 3.247288513183593750e+01 -5.022769927978515625e+00 7.546206563711166382e-02 1.520148515701293945e-01 6.824307888746261597e-02 -2.598410546779632568e-01
9.810000000000000000e+02 3.049431419372558594e+01 -3.866850852966308594e+00 3.713172376155853271e-01 2.371707558631896973e-01 1.825463920831680298e-01 -1.989533007144927979e-01
9.820000000000000000e+02 3.128179550170898438e+01 -3.362910985946655273e+00 8.826918005943298340e-01 4.773623943328857422e-01 4.080162644386291504e-01 -5.687968730926513672e-01
9.830000000000000000e+02 2.966982078552246094e+01 -4.408075332641601562e+00 -1.267099380493164062e-01 1.109748035669326782e-01 -4.720539785921573639e-03 3.567251935601234436e-02
9.840000000000000000e+02 1.345546054840087891e+01 -4.844672203063964844e+00 -6.361379055306315422e-04 -1.127007344621233642e-04 -2.246515941806137562e-04 2.322121872566640377e-04
9.850000000000000000e+02 1.286389541625976562e+01 -5.968401432037353516e+00 8.923068526200950146e-04 1.352519611828029156e-04 3.082676557824015617e-04 -3.995644801761955023e-04
9.860000000000000000e+02 1.332279777526855469e+01 -2.570362091064453125e+00 8.846974378684535623e-05 2.972685615532100201e-04 1.157214865088462830e-04 -1.044886157615110278e-04
9.870000000000000000e+02 8.141298294067382812e+00 -2.511367321014404297e+00 4.941945371683686972e-05 1.855923183029517531e-04 7.050353451631963253e-05 -3.213895543012768030e-04
9.880000000000000000e+02 3.391009902954101562e+01 -4.983695030212402344e+00 8.392988443374633789e-01 3.266531825065612793e-01 3.497855961322784424e-01 -7.644851803779602051e-01
9.890000000000000000e+02 3.249021148681640625e+01 -4.514205932617187500e+00 5.761121511459350586e-01 2.933311164379119873e-01 2.608329951763153076e-01 -4.851871728897094727e-01
9.900000000000000000e+02 8.823279380798339844e+00 2.583979129791259766e+00 3.959856985602527857e-04 1.961815578397363424e-04 1.776501740096136928e-04 -2.475894507369957864e-05
9.910000000000000000e+02 1.360081195831298828e+01 3.917467832565307617e+00 6.857672124169766903e-04 1.968821743503212929e-04 2.647948276717215776e-04 6.081221363274380565e-05
9.920000000000000000e+02 1.257237911224365234e+01 2.532349586486816406e+00 -4.449003317859023809e-04 1.288851080971653573e-06 -1.330834493273869157e-04 4.735409311251714826e-05
9.930000000000000000e+02 1.105245494842529297e+01 2.585355758666992188e+00 -2.841286186594516039e-04 -1.652577630011364818e-04 -1.348159130429849029e-04 -6.712181402690475807e-06
9.940000000000000000e+02 2.865542984008789062e+01 -8.631937980651855469e+00 -1.297846078872680664e+00 2.550857327878475189e-02 -3.817012608051300049e-01 -1.074894443154335022e-01
9.950000000000000000e+02 3.066270256042480469e+01 -9.850966453552246094e+00 -1.128378957509994507e-01 2.856298685073852539e-01 5.183758959174156189e-02 3.795944452285766602e-01
9.960000000000000000e+02 3.149874877929687500e+01 -9.193229675292968750e+00 -3.201778829097747803e-01 2.197307497262954712e-01 -3.013413958251476288e-02 3.733637630939483643e-01
9.970000000000000000e+02 3.279314041137695312e+01 -9.141827583312988281e+00 1.976475566625595093e-01 4.258027076721191406e-01 1.870350688695907593e-01 7.676823735237121582e-01
9.980000000000000000e+02 8.074268341064453125e+00 -1.833535671234130859e+00 -1.296781847486272454e-04 -1.513288007117807865e-04 -8.430209709331393242e-05 3.508527588564902544e-04
9.990000000000000000e+02 1.251693439483642578e+01 -3.711567401885986328e+00 -5.636833957396447659e-04 1.611060579307377338e-04 -1.207731984322890639e-04 3.862566081807017326e-04
1.000000000000000000e+03 7.411760807037353516e+00 -2.554537057876586914e+00 -1.414175058016553521e-04 -1.147263610619120300e-04 -7.684316369704902172e-05 3.812363138422369957e-04
1.001000000000000000e+03 1.172733116149902344e+01 -5.639981269836425781e+00 -6.156275048851966858e-04 -6.427888874895870686e-04 -3.775249351747334003e-04 6.087673245929181576e-04
1.002000000000000000e+03 7.673475265502929688e+00 -4.747646331787109375e+00 -1.761266030371189117e-04 1.214699237607419491e-03 3.115718136541545391e-04 -7.972851744852960110e-05
1.003000000000000000e+03 6.561483383178710938e+00 -1.862591624259948730e+00 -1.609009923413395882e-04 -1.032802174449898303e-04 -7.925436511868610978e-05 2.445233403705060482e-04
1.004000000000000000e+03 6.666661262512207031e+00 -2.592763423919677734e+00 4.969049405190162361e-05 1.789705856936052442e-04 6.859832501504570246e-05 -2.764405217021703720e-04
1.005000000000000000e+03 5.172601222991943359e+00 -2.696895122528076172e+00 4.135255221626721323e-05 1.080855217878706753e-04 4.483142402023077011e-05 -2.518490073271095753e-04
1.006000000000000000e+03 1.632216095924377441e+00 -7.956069469451904297e+00 1.283070741919800639e-04 3.848690248560160398e-04 1.539528311695903540e-04 1.159229577751830220e-04
1.007000000000000000e+03 3.951752901077270508e+00 -3.775597810745239258e+00 -1.607525919098407030e-04 1.608167367521673441e-04 1.924098569361376576e-08 1.105887495214119554e-04
1.008000000000000000e+03 1.606327652931213379e+00 -6.624950885772705078e+00 2.736437600106000900e-04 -2.257327432744204998e-04 1.437330865883268416e-05 3.936134453397244215e-04
1.009000000000000000e+03 5.018175244331359863e-01 -3.608477354049682617e+00 -3.930745515390299261e-05 -1.743261527735739946e-04 -6.409008346963673830e-05 -1.458319893572479486e-04
1.010000000000000000e+03 4.026940762996673584e-01 -2.192746877670288086e+00 -6.200479401741176844e-05 -9.606673847883939743e-05 -4.742145756608806551e-05 5.584366590483114123e-05
1.011000000000000000e+03 5.572187304496765137e-01 -5.065938949584960938e+00 2.238476590719074011e-04 -2.901695261243730783e-04 -1.989656084333546460e-05 9.707178105600178242e-05
1.012000000000000000e+03 2.556498908996582031e+01 -8.577171325683593750e+00 -1.205897212028503418e+00 2.673927135765552521e-02 -3.537473678588867188e-01 -2.486749142408370972e-01
1.013000000000000000e+03 2.698187828063964844e+01 -9.321104049682617188e+00 -9.315268993377685547e-01 6.005772203207015991e-02 -2.614407539367675781e-01 -2.032004743814468384e-01
1.014000000000000000e+03 2.852834892272949219e+01 -9.295313835144042969e+00 -8.691821694374084473e-01 7.713788002729415894e-02 -2.376132905483245850e-01 -6.997352838516235352e-02
1.015000000000000000e+03 2.620070266723632812e+01 -9.330733299255371094e+00 -9.298999905586242676e-01 5.852989479899406433e-02 -2.614110112190246582e-01 -2.570092380046844482e-01
1.016000000000000000e+03 3.078515052795410156e+01 -9.219124794006347656e+00 -5.321178436279296875e-01 1.589549332857131958e-01 -1.119488626718521118e-01 2.222663760185241699e-01
1.017000000000000000e+03 2.164827156066894531e+01 -8.209567070007324219e+00 -7.574126720428466797e-01 7.139372825622558594e-02 -2.058056741952896118e-01 -3.386722803115844727e-01
1.018000000000000000e+03 2.379791069030761719e+01 -9.260997772216796875e+00 -8.514266014099121094e-01 7.777900993824005127e-02 -2.320942729711532593e-01 -3.807860016822814941e-01
1.019000000000000000e+03 2.046764373779296875e+01 -9.886226654052734375e+00 -6.008948683738708496e-01 5.429624021053314209e-02 -1.639795899391174316e-01 -4.917458891868591309e-01
1.020000000000000000e+03 2.048662376403808594e+01 -9.018043518066406250e+00 -6.094652414321899414e-01 5.001345649361610413e-02 -1.678355336189270020e-01 -4.423912167549133301e-01
1.021000000000000000e+03 2.301574707031250000e+01 -9.170869827270507812e+00 -8.119966387748718262e-01 9.011811017990112305e-02 -2.165635675191879272e-01 -4.005215764045715332e-01
1.022000000000000000e+03 2.478135490417480469e+01 -8.527068138122558594e+00 -1.140520811080932617e+00 3.430189192295074463e-02 -3.318656682968139648e-01 -2.747328281402587891e-01
1.023000000000000000e+03 2.540439224243164062e+01 -9.327797889709472656e+00 -9.101271629333496094e-01 6.324944645166397095e-02 -2.540633082389831543e-01 -3.042960166931152344e-01
1.024000000000000000e+03 2.459753417968750000e+01 -9.306938171386718750e+00 -8.844677209854125977e-01 7.224553078413009644e-02 -2.436666637659072876e-01 -3.451871275901794434e-01
1.025000000000000000e+03 2.775509071350097656e+01 -9.309206008911132812e+00 -9.140754342079162598e-01 6.655010581016540527e-02 -2.542575895786285400e-01 -1.429940164089202881e-01
1.026000000000000000e+03 1.858980178833007812e+01 -3.511448621749877930e+00 -3.975412808358669281e-03 -2.091593593358993530e-01 -6.394043564796447754e-02 3.011201694607734680e-02
1.027000000000000000e+03 2.189927101135253906e+01 -3.567290306091308594e+00 -9.105055779218673706e-02 -1.088573485612869263e-01 -5.997237190604209900e-02 2.926492691040039062e-01
1.028000000000000000e+03 2.117604637145996094e+01 -3.399210214614868164e+00 -6.112997978925704956e-02 -1.450368463993072510e-01 -6.185004860162734985e-02 2.646329700946807861e-01
1.029000000000000000e+03 1.215187549591064453e+01 -1.961983299255371094e+01 -4.364839196205139160e-01 -6.123266816139221191e-01 -3.146431744098663330e-01 -3.706012964248657227e-01
1.030000000000000000e+03 3.614677906036376953e+00 -1.966222763061523438e+01 -1.119681447744369507e-01 -1.007844358682632446e-01 -6.382577121257781982e-02 -1.468583941459655762e-01
1.031000000000000000e+03 1.236139392852783203e+01 1.955377388000488281e+01 -3.499752581119537354e-01 -9.133760631084442139e-02 -1.323938518762588501e-01 8.979186415672302246e-02
1.032000000000000000e+03 8.336614608764648438e+00 2.013425254821777344e+01 -2.871539890766143799e-01 -4.580551013350486755e-02 -9.988784790039062500e-02 2.096722126007080078e-01
1.033000000000000000e+03 1.927969360351562500e+01 8.125071525573730469e+00 2.240253798663616180e-02 -2.846907973289489746e-01 -7.868647575378417969e-02 -8.110725879669189453e-02
1.034000000000000000e+03 1.896073913574218750e+01 9.478116989135742188e+00 8.457741700112819672e-03 -1.782733350992202759e-01 -5.094467848539352417e-02 -8.690655976533889771e-02
1.035000000000000000e+03 1.386705875396728516e+01 1.874873542785644531e+01 -3.083679974079132080e-01 2.466434054076671600e-02 -8.511110395193099976e-02 5.586277693510055542e-02
1.036000000000000000e+03 1.407579994201660156e+01 1.654381179809570312e+01 -3.717253208160400391e-01 -2.254334688186645508e-01 -1.791476309299468994e-01 2.737749218940734863e-01
1.037000000000000000e+03 1.706938552856445312e+01 1.172203254699707031e+01 -4.529510065913200378e-02 -2.547079920768737793e-01 -9.000092744827270508e-02 9.254726022481918335e-02
1.038000000000000000e+03 1.687439537048339844e+01 1.488185501098632812e+01 -1.411621570587158203e-01 7.286006957292556763e-02 -2.049062401056289673e-02 3.051028354093432426e-03
1.039000000000000000e+03 2.019392395019531250e+01 2.596195936203002930e+00 3.328244388103485107e-02 -4.501789808273315430e-01 -1.250689625740051270e-01 5.174136161804199219e-02
1.040000000000000000e+03 6.091879010200500488e-01 1.632492446899414062e+01 -2.550876932218670845e-03 1.829718239605426788e-02 4.723892081528902054e-03 -8.011290337890386581e-04
1.041000000000000000e+03 1.955403709411621094e+01 6.777486801147460938e+00 1.755365729331970215e-02 -3.754471242427825928e-01 -1.073680371046066284e-01 -7.955884188413619995e-02
1.042000000000000000e+03 1.808880424499511719e+01 1.219541549682617188e+01 -1.359005272388458252e-02 -1.499606668949127197e-02 -8.575835265219211578e-03 -5.356179922819137573e-02
1.043000000000000000e+03 1.514936351776123047e+01 1.761535644531250000e+01 -2.736499011516571045e-01 8.276592195034027100e-02 -5.726519227027893066e-02 2.655115351080894470e-02
1.044000000000000000e+03 1.894364738464355469e+01 8.893005847930908203e-01 1.031110435724258423e-02 -7.463203072547912598e-01 -2.208027690649032593e-01 5.049385875463485718e-02
1.045000000000000000e+03 2.010607147216796875e+01 1.160992383956909180e+00 4.068174213171005249e-02 -4.704606235027313232e-01 -1.289336681365966797e-01 1.193624287843704224e-01
1.046000000000000000e+03 1.752932548522949219e+01 1.353844165802001953e+01 -5.868757516145706177e-02 3.937730938196182251e-02 -5.793080199509859085e-03 -1.672057062387466431e-02
1.047000000000000000e+03 2.255576324462890625e+01 -2.112164020538330078e+00 4.363991320133209229e-02 -9.045830368995666504e-02 -1.404551789164543152e-02 2.943804860115051270e-01
1.048000000000000000e+03 1.891777038574218750e+01 -1.736144185066223145e+00 5.776375066488981247e-03 -4.235366880893707275e-01 -1.253280937671661377e-01 7.423522323369979858e-02
1.049000000000000000e+03 2.886288404464721680e+00 -1.698070144653320312e+01 -2.359612099826335907e-02 -2.890654839575290680e-02 -1.575080119073390961e-02 -2.328676404431462288e-03
1.050000000000000000e+03 5.814952850341796875e-01 -1.766671562194824219e+01 -6.597932893782854080e-03 5.382309481501579285e-02 1.416754908859729767e-02 -9.171088777293334715e-07
1.051000000000000000e+03 1.253554344177246094e+01 -1.816189575195312500e+01 -7.680656909942626953e-01 -6.411198973655700684e-01 -4.227556884288787842e-01 -5.151500701904296875e-01
1.052000000000000000e+03 1.023346805572509766e+01 -2.514660120010375977e+00 -1.112038589781150222e-04 -3.179999766871333122e-04 -1.287611521547660232e-04 7.161094690673053265e-04
1.053000000000000000e+03 1.649886512756347656e+01 -1.048605823516845703e+01 -3.814601302146911621e-01 -6.759384274482727051e-01 -3.172195553779602051e-01 -5.280464887619018555e-01
1.054000000000000000e+03 1.735111427307128906e+01 -1.138025379180908203e+01 -5.298865437507629395e-01 -3.890078067779541016e-01 -2.756682932376861572e-01 -5.586022734642028809e-01
1.055000000000000000e+03 1.577100753784179688e+01 -1.162339782714843750e+01 -4.860551655292510986e-01 -8.955706954002380371e-01 -4.144877493381500244e-01 -6.537329554557800293e-01
1.056000000000000000e+03 1.335620975494384766e+01 -1.693565177917480469e+01 -7.951772809028625488e-01 -7.155179381370544434e-01 -4.532085657119750977e-01 -6.737061738967895508e-01
1.057000000000000000e+03 1.662211990356445312e+01 -1.244311904907226562e+01 -5.874528288841247559e-01 -5.356333255767822266e-01 -3.369258344173431396e-01 -6.045761108398437500e-01
1.058000000000000000e+03 1.363168430328369141e+01 -3.810188770294189453e+00 3.877441340591758490e-04 -5.018989904783666134e-04 -3.424645547056570649e-05 -2.687143023649696261e-05
1.059000000000000000e+03 1.587325668334960938e+01 -1.356298923492431641e+01 -6.504122614860534668e-01 -6.497062444686889648e-01 -3.900355398654937744e-01 -6.282469630241394043e-01
1.060000000000000000e+03 1.507435703277587891e+01 -1.469574165344238281e+01 -6.801902055740356445e-01 -7.157410383224487305e-01 -4.187793731689453125e-01 -6.457278728485107422e-01
1.061000000000000000e+03 1.048076629638671875e+01 -9.205767631530761719e+00 -1.716358819976449013e-03 -1.208009780384600163e-03 -8.773105801083147526e-04 1.029309933073818684e-03
1.062000000000000000e+03 9.458496093750000000e+00 -8.675181388854980469e+00 8.338241023011505604e-04 1.507574692368507385e-03 7.024196092970669270e-04 -1.122074667364358902e-03
1.063000000000000000e+03 1.105430412292480469e+01 -6.642022609710693359e+00 7.594444905407726765e-04 6.659646751359105110e-04 4.276227555237710476e-04 -7.582124671898782253e-04
1.064000000000000000e+03 1.027781963348388672e+01 -7.646673679351806641e+00 -6.855400861240923405e-04 -1.164713641628623009e-03 -5.550761125050485134e-04 8.963096770457923412e-04
1.065000000000000000e+03 1.676754713058471680e+00 -1.067904567718505859e+01 1.227733213454484940e-03 1.391616882756352425e-03 7.858049939386546612e-04 2.851994941011071205e-03
1.066000000000000000e+03 8.170137405395507812e+00 -1.261702251434326172e+01 3.488801885396242142e-03 6.601939443498849869e-03 3.027222352102398872e-03 -3.032795386388897896e-03
1.067000000000000000e+03 1.031023979187011719e+01 -4.086692333221435547e+00 5.287279054755344987e-05 9.383381693623960018e-04 2.973632945213466883e-04 -5.569553468376398087e-04
1.068000000000000000e+03 7.772657775878906250e+01 3.203421401977539062e+01 -1.629761978983879089e-02 8.991106986999511719e+00 2.692442893981933594e+00 8.676238358020782471e-02
1.069000000000000000e+03 7.919200134277343750e+01 3.620094680786132812e+01 -3.899726551026105881e-03 9.260420799255371094e+00 2.776956319808959961e+00 1.248571462929248810e-02
1.070000000000000000e+03 7.931851196289062500e+01 -2.785080528259277344e+01 3.714713602676056325e-05 7.577153682708740234e+00 2.273157119750976562e+00 -5.052995309233665466e-02
1.071000000000000000e+03 7.729207611083984375e+01 -3.791594314575195312e+01 -2.183726243674755096e-02 7.977766513824462891e+00 2.386778831481933594e+00 -4.907225817441940308e-02
1.072000000000000000e+03 7.934282684326171875e+01 -3.476340484619140625e+01 -5.998552776873111725e-03 7.960598945617675781e+00 2.386379957199096680e+00 -2.488012798130512238e-02
1.073000000000000000e+03 7.935118865966796875e+01 -2.088144302368164062e+01 6.177794421091675758e-04 7.046831607818603516e+00 2.114234685897827148e+00 -5.031856149435043335e-02
1.074000000000000000e+03 7.795805358886718750e+01 -2.780983352661132812e+01 -5.819767713546752930e-03 7.568093299865722656e+00 2.268682003021240234e+00 -1.382788121700286865e-01
1.075000000000000000e+03 7.799399566650390625e+01 -2.640937423706054688e+01 -3.427327144891023636e-03 7.482676982879638672e+00 2.243774890899658203e+00 -1.434125006198883057e-01
1.076000000000000000e+03 7.930353546142578125e+01 -3.064258575439453125e+01 -4.479227645788341761e-04 7.760334014892578125e+00 2.327965974807739258e+00 -4.333237931132316589e-02
1.077000000000000000e+03 7.787622833251953125e+01 -3.334871673583984375e+01 -1.654395274817943573e-02 7.853868961334228516e+00 2.351197481155395508e+00 -9.296620637178421021e-02
1.078000000000000000e+03 7.497672271728515625e+01 -3.757995986938476562e+01 -5.882374197244644165e-02 7.898414134979248047e+00 2.351877212524414062e+00 -1.158547922968864441e-01
1.079000000000000000e+03 7.639667510986328125e+01 -3.903384780883789062e+01 -2.838579006493091583e-02 7.985875606536865234e+00 2.387246847152709961e+00 -6.063321232795715332e-02
1.080000000000000000e+03 7.807508850097656250e+01 1.390970706939697266e+01 -2.023573732003569603e-03 7.848915576934814453e+00 2.354067564010620117e+00 1.855936497449874878e-01
1.081000000000000000e+03 7.935790252685546875e+01 1.531870746612548828e+01 -2.347170811844989657e-04 7.993252754211425781e+00 2.397905349731445312e+00 6.719884276390075684e-02
1.082000000000000000e+03 7.798655700683593750e+01 2.083379364013671875e+01 -5.983279552310705185e-03 8.399031639099121094e+00 2.517914533615112305e+00 1.633765548467636108e-01
1.083000000000000000e+03 7.931678771972656250e+01 2.228237152099609375e+01 8.968658512458205223e-04 8.593152999877929688e+00 2.578214883804321289e+00 5.856439843773841858e-02
1.084000000000000000e+03 7.784748840332031250e+01 3.062494087219238281e+01 -1.272906828671693802e-02 8.947209358215332031e+00 2.680344104766845703e+00 9.873377531766891479e-02
1.085000000000000000e+03 7.793225097656250000e+01 2.786825752258300781e+01 -1.216278411448001862e-02 8.822004318237304688e+00 2.642952442169189453e+00 1.179770454764366150e-01
1.086000000000000000e+03 7.931147003173828125e+01 2.786608123779296875e+01 -1.242810976691544056e-03 8.964445114135742188e+00 2.688960552215576172e+00 4.583217576146125793e-02
1.087000000000000000e+03 7.786143493652343750e+01 2.507157135009765625e+01 -1.076569315046072006e-02 8.669984817504882812e+00 2.597765922546386719e+00 1.427973657846450806e-01
1.088000000000000000e+03 7.789714050292968750e+01 2.364784240722656250e+01 -7.137600798159837723e-03 8.582192420959472656e+00 2.572516441345214844e+00 1.509796977043151855e-01
1.089000000000000000e+03 7.804246520996093750e+01 1.805226325988769531e+01 -4.916452802717685699e-03 8.191534996032714844e+00 2.455985546112060547e+00 1.735052317380905151e-01
1.090000000000000000e+03 7.806977081298828125e+01 1.528890132904052734e+01 -3.587662940844893456e-03 7.966392040252685547e+00 2.388841152191162109e+00 1.821734160184860229e-01
1.091000000000000000e+03 7.805953216552734375e+01 1.666862678527832031e+01 -3.985207062214612961e-03 8.080348968505859375e+00 2.422909259796142578e+00 1.775991916656494141e-01
1.092000000000000000e+03 7.807731628417968750e+01 1.252517890930175781e+01 -1.000378979369997978e-03 7.729145050048828125e+00 2.318443298339843750e+00 1.874549835920333862e-01
1.093000000000000000e+03 7.679042053222656250e+01 1.111537647247314453e+01 1.653526560403406620e-03 7.628368377685546875e+00 2.289006710052490234e+00 2.928237915039062500e-01
1.094000000000000000e+03 7.807525634765625000e+01 8.368868827819824219e+00 4.220956005156040192e-03 7.370985031127929688e+00 2.212561607360839844e+00 1.826602518558502197e-01
1.095000000000000000e+03 7.935985565185546875e+01 9.756999015808105469e+00 7.227911264635622501e-04 7.450516700744628906e+00 2.235371828079223633e+00 6.865014135837554932e-02
1.096000000000000000e+03 7.935319519042968750e+01 -1.391426658630371094e+01 2.420673379674553871e-03 6.591502189636230469e+00 1.978176832199096680e+00 -3.184135258197784424e-02
1.097000000000000000e+03 7.936483764648437500e+01 -6.944194793701171875e+00 3.874849528074264526e-03 6.418658256530761719e+00 1.926759958267211914e+00 3.861902048811316490e-03
1.098000000000000000e+03 7.934997558593750000e+01 -1.949079895019531250e+01 9.853655938059091568e-04 6.942849159240722656e+00 2.083150386810302734e+00 -4.864039272069931030e-02
1.099000000000000000e+03 7.808606719970703125e+01 4.503901302814483643e-02 1.441461592912673950e-02 6.780009746551513672e+00 2.038327217102050781e+00 1.120839715003967285e-01
1.100000000000000000e+03 7.936013793945312500e+01 1.408461689949035645e+00 3.011255292221903801e-03 6.728912353515625000e+00 2.019577026367187500e+00 4.774523526430130005e-02
1.101000000000000000e+03 7.678202819824218750e+01 6.970682621002197266e+00 1.479035802185535431e-02 7.318675518035888672e+00 2.200039863586425781e+00 2.751955687999725342e-01
1.102000000000000000e+03 7.794821166992187500e+01 2.923777580261230469e+01 -9.578229859471321106e-03 8.891307830810546875e+00 2.664518833160400391e+00 1.076774746179580688e-01
1.103000000000000000e+03 7.868105316162109375e+01 4.033967590332031250e+01 -1.247770804911851883e-02 9.231789588928222656e+00 2.765793561935424805e+00 -4.549507051706314087e-02
1.104000000000000000e+03 7.628497314453125000e+01 3.638703918457031250e+01 -3.232813253998756409e-02 8.952523231506347656e+00 2.676058530807495117e+00 5.508091673254966736e-02
1.105000000000000000e+03 7.596640777587890625e+01 3.498375320434570312e+01 -4.271112754940986633e-02 8.902706146240234375e+00 2.657998323440551758e+00 1.024729907512664795e-01
1.106000000000000000e+03 7.807735443115234375e+01 9.756078720092773438e+00 2.217821544036269188e-03 7.488981246948242188e+00 2.247359752655029297e+00 1.861636042594909668e-01
1.107000000000000000e+03 7.680936431884765625e+01 5.035428702831268311e-02 3.493029624223709106e-02 6.898706436157226562e+00 2.080090999603271484e+00 1.742669492959976196e-01
1.108000000000000000e+03 7.807276153564453125e+01 2.815973281860351562e+00 1.143960468471050262e-02 6.945459842681884766e+00 2.087069749832153320e+00 1.446796506643295288e-01
1.109000000000000000e+03 7.809400177001953125e+01 -1.343556284904479980e+00 1.503685023635625839e-02 6.713356018066406250e+00 2.018517971038818359e+00 9.311714023351669312e-02
1.110000000000000000e+03 7.936650848388671875e+01 -2.766450405120849609e+00 3.175828373059630394e-03 6.504936218261718750e+00 1.952433586120605469e+00 2.732571400701999664e-02
1.111000000000000000e+03 7.808681488037109375e+01 -8.291861534118652344e+00 1.716798543930053711e-02 6.583964824676513672e+00 1.980339884757995605e+00 -1.291966717690229416e-02
1.112000000000000000e+03 7.810210418701171875e+01 -5.512536048889160156e+00 1.724751479923725128e-02 6.592622280120849609e+00 1.982960939407348633e+00 3.046826273202896118e-02
1.113000000000000000e+03 7.935861206054687500e+01 -9.730191230773925781e+00 3.678017761558294296e-03 6.443202495574951172e+00 1.934064149856567383e+00 -1.167341880500316620e-02
1.114000000000000000e+03 7.806481170654296875e+01 -1.248169803619384766e+01 1.393605209887027740e-02 6.672641277313232422e+00 2.005973100662231445e+00 -7.333586364984512329e-02
1.115000000000000000e+03 7.934984588623046875e+01 -1.670334434509277344e+01 1.700536813586950302e-03 6.750740051269531250e+00 2.025732278823852539e+00 -4.208775982260704041e-02
1.116000000000000000e+03 7.805276489257812500e+01 -2.084819984436035156e+01 3.539791097864508629e-03 7.114003658294677734e+00 2.135262966156005859e+00 -1.421036869287490845e-01
1.117000000000000000e+03 7.804772949218750000e+01 -1.946397781372070312e+01 5.191029980778694153e-03 7.025918960571289062e+00 2.109333038330078125e+00 -1.365236639976501465e-01
1.118000000000000000e+03 7.015522956848144531e+00 1.934911727905273438e+01 -2.734163701534271240e-01 3.264968469738960266e-02 -7.223000377416610718e-02 8.365920931100845337e-02
1.119000000000000000e+03 8.795373916625976562e+00 1.873605155944824219e+01 -4.499919712543487549e-01 -6.086230650544166565e-02 -1.532562822103500366e-01 4.915586858987808228e-02
1.120000000000000000e+03 1.364698171615600586e+00 -4.004580688476562500e+01 2.518892474472522736e-02 -1.148596048355102539e+00 -3.370221257209777832e-01 3.167187422513961792e-02
1.121000000000000000e+03 7.084217071533203125e-01 3.738409042358398438e+01 1.428983546793460846e-02 -6.350871324539184570e-01 -1.862391829490661621e-01 -1.360564678907394409e-02
1.122000000000000000e+03 6.914464831352233887e-01 3.461436462402343750e+01 6.420390680432319641e-03 -6.383584737777709961e-01 -1.895814239978790283e-01 7.357805501669645309e-03
1.123000000000000000e+03 7.004995942115783691e-01 3.320603942871093750e+01 4.229316953569650650e-03 -6.135056614875793457e-01 -1.827829033136367798e-01 1.839952915906906128e-02
1.124000000000000000e+03 6.008158922195434570e-01 2.757882308959960938e+01 2.256561303511261940e-03 -3.928722143173217773e-01 -1.171846911311149597e-01 3.031537123024463654e-02
1.125000000000000000e+03 5.764532089233398438e-01 2.617940521240234375e+01 -7.621082477271556854e-04 -3.168528974056243896e-01 -9.528449922800064087e-02 3.249139338731765747e-02
1.126000000000000000e+03 6.038172245025634766e-01 -3.599978256225585938e+01 8.553685620427131653e-03 -1.204173207283020020e+00 -3.586858808994293213e-01 -5.341560114175081253e-03
1.127000000000000000e+03 2.444662094116210938e+00 -3.324955749511718750e+01 3.041753731667995453e-02 -8.865358829498291016e-01 -2.568354904651641846e-01 -1.106341928243637085e-01
1.128000000000000000e+03 2.851790189743041992e+00 2.587407875061035156e+01 6.268792785704135895e-03 -2.069824337959289551e-01 -6.021409109234809875e-02 1.317726373672485352e-01
1.129000000000000000e+03 2.778708696365356445e+00 2.461068725585937500e+01 -1.750053488649427891e-03 -1.671854108572006226e-01 -5.068064108490943909e-02 1.330543011426925659e-01
1.130000000000000000e+03 2.094274759292602539e+00 3.443030166625976562e+01 2.121584676206111908e-02 -4.945005476474761963e-01 -1.419854164123535156e-01 4.006205499172210693e-02
1.131000000000000000e+03 2.130754232406616211e+00 3.300856018066406250e+01 1.416435651481151581e-02 -4.523521959781646729e-01 -1.314563602209091187e-01 5.497063696384429932e-02
1.132000000000000000e+03 3.337931156158447266e+00 3.895048522949218750e+01 3.317121649160981178e-03 -4.836837947368621826e-01 -1.441100090742111206e-01 1.085080485790967941e-02
1.133000000000000000e+03 2.238003253936767578e+00 -3.041111946105957031e+01 2.848015353083610535e-02 -7.719356417655944824e-01 -2.230366468429565430e-01 -1.562499403953552246e-01
1.134000000000000000e+03 2.113603353500366211e+00 -2.760211181640625000e+01 1.480773929506540298e-02 -5.974143743515014648e-01 -1.747819930315017700e-01 -1.865434795618057251e-01
1.135000000000000000e+03 2.377086162567138672e+00 -3.655982208251953125e+01 3.056621178984642029e-02 -1.010521769523620605e+00 -2.939866781234741211e-01 -4.973530769348144531e-02
1.136000000000000000e+03 5.336256980895996094e+00 -1.759947586059570312e+01 -1.560954898595809937e-01 -3.784297034144401550e-02 -5.818153545260429382e-02 -1.040313765406608582e-02
1.137000000000000000e+03 5.690810680389404297e-01 2.053924942016601562e+01 -4.633344709873199463e-03 -3.016382642090320587e-02 -1.043915096670389175e-02 1.905306801199913025e-02
1.138000000000000000e+03 5.600506663322448730e-01 1.915569305419921875e+01 -4.239795263856649399e-03 5.145298782736063004e-03 2.716509916353970766e-04 7.243280764669179916e-03
1.139000000000000000e+03 6.262524127960205078e-01 1.489557647705078125e+01 1.264341874048113823e-03 1.468447130173444748e-02 4.784644115716218948e-03 -2.369281835854053497e-03
1.140000000000000000e+03 6.069636940956115723e-01 1.346895694732666016e+01 -7.893310394138097763e-04 1.006273366510868073e-02 2.782020717859268188e-03 -1.755393459461629391e-03
1.141000000000000000e+03 5.191637277603149414e-01 7.846493721008300781e+00 -2.379793149884790182e-04 7.528800051659345627e-04 1.544702099636197090e-04 -1.471387950005009770e-04
1.142000000000000000e+03 5.945990085601806641e-01 -1.908616447448730469e+01 -5.282809026539325714e-03 3.573771193623542786e-02 9.136470966041088104e-03 -1.371939480304718018e-02
1.143000000000000000e+03 1.666364908218383789e+00 -9.306595802307128906e+00 1.090484438464045525e-03 6.570925324922427535e-05 3.468581126071512699e-04 1.194788725115358829e-03
1.144000000000000000e+03 5.042894363403320312e+00 -4.028176498413085938e+01 3.605917096138000488e-02 -7.313729524612426758e-01 -2.085941284894943237e-01 -7.582168281078338623e-02
1.145000000000000000e+03 3.529152631759643555e+00 -3.908083343505859375e+01 3.274331241846084595e-02 -9.943235516548156738e-01 -2.884740829467773438e-01 -5.333393812179565430e-02
1.146000000000000000e+03 4.859504699707031250e+00 -3.612752151489257812e+01 7.358538359403610229e-02 -6.978954076766967773e-01 -1.872930228710174561e-01 -1.335320621728897095e-01
1.147000000000000000e+03 1.664901971817016602e+00 -3.536420440673828125e+01 2.445929870009422302e-02 -1.036239147186279297e+00 -3.035339415073394775e-01 -3.859268873929977417e-02
1.148000000000000000e+03 2.344458341598510742e+00 -3.181989097595214844e+01 1.690888963639736176e-02 -8.384755849838256836e-01 -2.464700192213058472e-01 -1.345051527023315430e-01
1.149000000000000000e+03 3.542713642120361328e+00 -2.758700752258300781e+01 2.212139964103698730e-02 -5.333205461502075195e-01 -1.533597409725189209e-01 -2.699929773807525635e-01
1.150000000000000000e+03 2.040923595428466797e+00 -2.471417236328125000e+01 -3.711557015776634216e-03 -3.853732049465179443e-01 -1.167254298925399780e-01 -1.854193955659866333e-01
1.151000000000000000e+03 2.090186595916748047e+00 -2.617894935607910156e+01 -1.082229544408619404e-03 -4.926008284091949463e-01 -1.481049209833145142e-01 -1.942132860422134399e-01
1.152000000000000000e+03 5.870038270950317383e-01 -2.050965309143066406e+01 -1.010933425277471542e-02 -2.349498867988586426e-02 -1.008129678666591644e-02 -3.302523866295814514e-02
1.153000000000000000e+03 2.935835599899291992e+00 -2.154700660705566406e+01 -5.910707637667655945e-02 -1.774945408105850220e-01 -7.098048925399780273e-02 -1.962145715951919556e-01
1.154000000000000000e+03 1.625696301460266113e+00 -1.607206153869628906e+01 5.690249963663518429e-04 7.367270998656749725e-03 2.380888909101486206e-03 1.322933286428451538e-02
1.155000000000000000e+03 1.651693224906921387e+00 -1.206519699096679688e+01 2.645439701154828072e-03 2.775024157017469406e-03 1.626139157451689243e-03 5.101751536130905151e-03
1.156000000000000000e+03 5.442546010017395020e-01 -1.208528804779052734e+01 2.414155096630565822e-05 7.054570131003856659e-03 2.123613609001040459e-03 2.295820508152246475e-03
1.157000000000000000e+03 8.686489105224609375e+00 -9.767455101013183594e+00 -7.580531528219580650e-04 -1.785051194019615650e-03 -7.629313040524721146e-04 1.267414190806448460e-03
1.158000000000000000e+03 5.338607788085937500e+00 -3.483144998550415039e+00 -9.869130008155480027e-05 3.878439747495576739e-05 -1.797207005438394845e-05 2.423065161565318704e-04
1.159000000000000000e+03 3.697587490081787109e+00 -2.908843517303466797e+00 8.401693048654124141e-05 -1.236733078258112073e-05 2.149487954739015549e-05 -2.404245315119624138e-04
1.160000000000000000e+03 2.927742719650268555e+00 -3.102776765823364258e+00 -1.399354950990527868e-04 1.006245583994314075e-04 -1.179328137368429452e-05 8.250818791566416621e-05
1.161000000000000000e+03 2.133459329605102539e+00 -3.199132204055786133e+00 1.701911678537726402e-04 -5.620329102384857833e-05 3.419636414037086070e-05 -3.017859417013823986e-04
1.162000000000000000e+03 1.370109677314758301e+00 -3.385605335235595703e+00 -4.267543044988997281e-05 1.840233890106901526e-04 4.240439011482521892e-05 1.759568694978952408e-04
1.163000000000000000e+03 4.581186771392822266e-01 5.064771652221679688e+00 -4.554941187961958349e-05 8.268863166449591517e-05 1.114176484406925738e-05 -1.751361742208246142e-05
1.164000000000000000e+03 3.205428361892700195e+00 3.680509805679321289e+00 -3.855036920867860317e-04 -9.822497668210417032e-05 -1.451185962650924921e-04 1.514550240244716406e-04
1.165000000000000000e+03 1.614183306694030762e+00 1.056311702728271484e+01 1.567794708535075188e-03 1.767519395798444748e-03 1.000594231300055981e-03 -2.246366580948233604e-03
1.166000000000000000e+03 5.396420955657958984e-01 1.064972782135009766e+01 -4.800211172550916672e-04 3.250520676374435425e-03 8.311498677358031273e-04 -6.331553449854254723e-04
1.167000000000000000e+03 1.831033706665039062e+00 1.334380531311035156e+01 2.082597464323043823e-03 2.523219445720314980e-03 1.381745096296072006e-03 -4.722596146166324615e-03
1.168000000000000000e+03 1.895318746566772461e+00 1.483227729797363281e+01 -2.186265541240572929e-03 2.302397042512893677e-03 3.483945693005807698e-05 -3.577368799597024918e-03
1.169000000000000000e+03 1.805395841598510742e+00 1.630779838562011719e+01 -2.791769569739699364e-03 3.317329683341085911e-04 -7.380109746009111404e-04 -4.359539016149938107e-04
1.170000000000000000e+03 1.698300600051879883e+00 2.467944717407226562e+01 -2.186434576287865639e-03 -2.002812027931213379e-01 -6.074029207229614258e-02 9.052728861570358276e-02
1.171000000000000000e+03 9.194732666015625000e+00 1.094913387298583984e+01 2.249797398690134287e-05 2.114136732416227460e-04 7.017348980298265815e-05 1.420582411810755730e-03
1.172000000000000000e+03 1.244410324096679688e+01 8.445202827453613281e+00 6.964422645978629589e-04 6.065849447622895241e-04 3.909081569872796535e-04 3.083946940023452044e-04
1.173000000000000000e+03 1.467779350280761719e+01 4.922826290130615234e+00 8.045660797506570816e-04 6.664096872555091977e-05 2.613621181808412075e-04 1.780224374670069665e-05
1.174000000000000000e+03 1.181977081298828125e+01 2.566837549209594727e+00 4.030120908282697201e-04 1.310664229094982147e-04 1.602235570317134261e-04 8.189420623239129782e-05
1.175000000000000000e+03 1.042347908020019531e+01 1.339327621459960938e+01 -5.252049886621534824e-04 2.030574250966310501e-03 4.516108019743114710e-04 -1.260261982679367065e-03
1.176000000000000000e+03 8.379806518554687500e+00 1.003495597839355469e+01 5.374521715566515923e-04 1.623878604732453823e-03 6.483992328867316246e-04 4.757221031468361616e-04
1.177000000000000000e+03 8.639068603515625000e+00 1.378444862365722656e+01 -2.281398512423038483e-03 9.690226987004280090e-03 2.222648588940501213e-03 -1.195410382933914661e-03
1.178000000000000000e+03 1.176908493041992188e+01 3.349265575408935547e+00 -4.089704889338463545e-04 -2.262993657495826483e-04 -1.905809476738795638e-04 -8.343357330886647105e-05
1.179000000000000000e+03 7.302070617675781250e+00 -1.209687614440917969e+01 -1.015657559037208557e-03 5.256886943243443966e-04 -1.469906565034762025e-04 3.561154298949986696e-04
1.180000000000000000e+03 7.978888988494873047e+00 -1.091716670989990234e+01 4.971678717993199825e-04 4.608347546309232712e-03 1.531654619611799717e-03 -2.346518682315945625e-03
1.181000000000000000e+03 3.758406829833984375e+01 -4.747829914093017578e+00 3.387357711791992188e+00 1.205918788909912109e+01 4.633963584899902344e+00 -6.509980678558349609e+00
1.182000000000000000e+03 3.719182586669921875e+01 -4.787030220031738281e+00 4.118891716003417969e+00 8.579756736755371094e+00 3.809594631195068359e+00 -6.305750370025634766e+00
1.183000000000000000e+03 3.581930923461914062e+01 -4.789759635925292969e+00 3.449014663696289062e+00 2.144713878631591797e+00 1.678118586540222168e+00 -3.159686803817749023e+00
1.184000000000000000e+03 3.661351013183593750e+01 -4.750418186187744141e+00 4.202379226684570312e+00 4.852382659912109375e+00 2.716428756713867188e+00 -4.999821662902832031e+00
1.185000000000000000e+03 3.626005172729492188e+01 -8.340848922729492188e+00 3.110065460205078125e+00 3.013339519500732422e+00 1.837021470069885254e+00 3.815566301345825195e+00
1.186000000000000000e+03 3.605094909667968750e+01 -8.362559318542480469e+00 2.847943544387817383e+00 2.346693754196166992e+00 1.558391213417053223e+00 3.299590349197387695e+00
1.187000000000000000e+03 3.626257324218750000e+01 -8.640197753906250000e+00 2.938243389129638672e+00 3.655036687850952148e+00 1.977984070777893066e+00 4.082784652709960938e+00
1.188000000000000000e+03 3.590539932250976562e+01 -8.821002006530761719e+00 2.619612693786621094e+00 2.991453886032104492e+00 1.683319926261901855e+00 3.515414476394653320e+00
1.189000000000000000e+03 3.698864364624023438e+01 -8.699030876159667969e+00 3.062178850173950195e+00 7.436692714691162109e+00 3.149661540985107422e+00 5.619822025299072266e+00
1.190000000000000000e+03 3.727610778808593750e+01 -8.287088394165039062e+00 3.659220218658447266e+00 8.638041496276855469e+00 3.689178466796875000e+00 6.482846260070800781e+00
1.191000000000000000e+03 3.785599136352539062e+01 -8.269433021545410156e+00 2.530657291412353516e+00 1.484049129486083984e+01 5.211344242095947266e+00 6.296548366546630859e+00
1.192000000000000000e+03 3.873177719116210938e+01 -8.708505630493164062e+00 1.545941352844238281e+00 1.764085388183593750e+01 5.756038665771484375e+00 2.105696678161621094e+00
1.193000000000000000e+03 3.836653518676757812e+01 -4.993107795715332031e+00 2.518770694732666016e+00 1.906894302368164062e+01 6.476314544677734375e+00 -3.927130460739135742e+00
1.194000000000000000e+03 3.869571304321289062e+01 -8.259215354919433594e+00 2.202412605285644531e+00 1.981281089782714844e+01 6.604567050933837891e+00 1.691831946372985840e+00
1.195000000000000000e+03 3.937150573730468750e+01 -8.474253654479980469e+00 3.166877508163452148e+00 1.817281150817871094e+01 6.401906967163085938e+00 -7.886114120483398438e-01
1.196000000000000000e+03 3.932153701782226562e+01 -5.456252098083496094e+00 6.642860412597656250e+00 1.961928176879882812e+01 7.878642559051513672e+00 2.108526945114135742e+00
1.197000000000000000e+03 3.860017013549804688e+01 -4.664397239685058594e+00 2.150914192199707031e+00 1.787991333007812500e+01 6.009248256683349609e+00 -2.740381002426147461e+00
1.198000000000000000e+03 3.790363311767578125e+01 -4.846057415008544922e+00 2.821047067642211914e+00 1.490578079223632812e+01 5.318048477172851562e+00 -6.102147579193115234e+00
1.199000000000000000e+03 3.453507614135742188e+01 -9.184914588928222656e+00 1.466539740562438965e+00 1.360139369964599609e+00 8.480037450790405273e-01 2.007501363754272461e+00
1.200000000000000000e+03 3.717859649658203125e+01 -8.854199409484863281e+00 2.696613550186157227e+00 8.816290855407714844e+00 3.453871488571166992e+00 5.780719280242919922e+00
1.201000000000000000e+03 3.380747985839843750e+01 -9.712362289428710938e+00 1.267485857009887695e+00 1.235873341560363770e+00 7.510077953338623047e-01 1.737524747848510742e+00
1.202000000000000000e+03 3.264902877807617188e+01 -9.723135948181152344e+00 5.947071313858032227e-01 6.480543017387390137e-01 3.728284239768981934e-01 1.022451043128967285e+00
1.203000000000000000e+03 3.500398254394531250e+01 -9.362584114074707031e+00 1.939733266830444336e+00 2.069754362106323242e+00 1.202846288681030273e+00 2.646870851516723633e+00
1.204000000000000000e+03 2.185618972778320312e+01 -1.803868770599365234e+00 4.800449684262275696e-02 -1.408990770578384399e-01 -2.786837518215179443e-02 2.843160033226013184e-01
1.205000000000000000e+03 2.073135757446289062e+01 -2.392821550369262695e+00 -5.753180477768182755e-03 -2.314104288816452026e-01 -7.114908099174499512e-02 2.534007728099822998e-01
1.206000000000000000e+03 2.492826271057128906e+01 -3.424611568450927734e+00 -8.209128677845001221e-02 1.820383034646511078e-02 -1.916623860597610474e-02 2.830090522766113281e-01
1.207000000000000000e+03 3.202363967895507812e+01 -9.766003608703613281e+00 3.194856047630310059e-01 4.864453077316284180e-01 2.417792826890945435e-01 7.668060660362243652e-01
1.208000000000000000e+03 1.801811408996582031e+01 -8.722879409790039062e+00 -3.316460847854614258e-01 -2.237522900104522705e-01 -1.666195094585418701e-01 -3.338623940944671631e-01
1.209000000000000000e+03 3.038407135009765625e+01 -4.441598892211914062e+00 -3.089388646185398102e-02 1.339595168828964233e-01 3.091968968510627747e-02 -3.957135230302810669e-02
1.210000000000000000e+03 2.770850372314453125e+01 -3.662322521209716797e+00 2.237028209492564201e-03 1.167276874184608459e-01 3.568941354751586914e-02 1.335504651069641113e-01
1.211000000000000000e+03 3.909301996231079102e+00 2.710062026977539062e+00 -2.535554231144487858e-04 -1.030034763971343637e-04 -1.069676654879003763e-04 1.129852244048379362e-04
1.212000000000000000e+03 4.614675521850585938e+00 2.654176712036132812e+00 3.985231160186231136e-04 1.359640737064182758e-04 1.603461569175124168e-04 -1.911009021569043398e-04
1.213000000000000000e+03 6.018831729888916016e+00 2.583996772766113281e+00 4.167218576185405254e-04 1.036247485899366438e-04 1.561039825901389122e-04 -1.068231722456403077e-04
1.214000000000000000e+03 5.306955814361572266e+00 3.350255012512207031e+00 5.051952321082353592e-04 1.255411771126091480e-04 1.892209256766363978e-04 -1.429810217814520001e-04
1.215000000000000000e+03 5.980973720550537109e+00 3.317930459976196289e+00 -2.312963333679363132e-04 -1.779349549906328321e-04 -1.227693865075707436e-04 7.068400736898183823e-05
1.216000000000000000e+03 1.029053211212158203e+01 2.593645095825195312e+00 3.354705986566841602e-04 2.285782684339210391e-04 1.692146615823730826e-04 4.124146653339266777e-05
1.217000000000000000e+03 7.335760116577148438e+00 3.309372663497924805e+00 -2.541740250308066607e-04 -2.175027912016957998e-04 -1.415030419593676925e-04 1.763338950695469975e-04
1.218000000000000000e+03 6.654476642608642578e+00 3.309649467468261719e+00 5.896246875636279583e-04 6.333179044304415584e-05 1.958869543159380555e-04 -1.204122745548374951e-04
1.219000000000000000e+03 4.631605625152587891e+00 3.439933061599731445e+00 -1.925431133713573217e-04 -2.413267357042059302e-04 -1.301609590882435441e-04 9.724405390443280339e-05
1.220000000000000000e+03 1.879764556884765625e+00 2.677449703216552734e+00 8.288089156849309802e-05 1.603555429028347135e-04 7.297092815861105919e-05 3.895023473887704313e-05
1.221000000000000000e+03 1.018975543975830078e+01 3.358791828155517578e+00 -2.498650865163654089e-04 -3.116680600214749575e-04 -1.684599410509690642e-04 1.080751098925247788e-04
1.222000000000000000e+03 2.357048034667968750e+01 -3.203890562057495117e+00 -6.397084146738052368e-02 -3.300999850034713745e-02 -2.909425273537635803e-02 3.109188675880432129e-01
1.223000000000000000e+03 2.541337394714355469e+01 -4.152231216430664062e+00 -2.559802532196044922e-01 1.408411655575037003e-02 -7.256884127855300903e-02 2.769542932510375977e-01
1.224000000000000000e+03 2.631356239318847656e+01 -3.567657232284545898e+00 -6.743038445711135864e-02 6.921421736478805542e-02 5.351500585675239563e-04 2.271383851766586304e-01
1.225000000000000000e+03 2.288664245605468750e+01 -3.030961990356445312e+00 -4.181595891714096069e-02 -7.080487906932830811e-02 -3.378625214099884033e-02 3.115420043468475342e-01
1.226000000000000000e+03 2.219559288024902344e+01 -2.824139595031738281e+00 -2.834064140915870667e-02 -1.037397086620330811e-01 -3.962410613894462585e-02 3.047537803649902344e-01
1.227000000000000000e+03 9.550621032714843750e+00 -2.455804824829101562e+00 2.767331579889287241e-06 2.798263449221849442e-04 8.477810479234904051e-05 -4.890917334705591202e-04
1.228000000000000000e+03 2.147947120666503906e+01 -2.599459648132324219e+00 -1.323359645903110504e-02 -1.640707552433013916e-01 -5.319130420684814453e-02 2.892254292964935303e-01
1.229000000000000000e+03 2.824919891357421875e+01 -4.335939884185791016e+00 -2.418998479843139648e-01 7.832349836826324463e-02 -4.907290637493133545e-02 1.501545161008834839e-01
1.230000000000000000e+03 2.910291862487792969e+01 -3.748643875122070312e+00 1.436911523342132568e-01 1.608564257621765137e-01 9.136427193880081177e-02 -7.211393676698207855e-05
1.231000000000000000e+03 2.925974845886230469e+01 -3.113683700561523438e+00 4.423030316829681396e-01 2.692144215106964111e-01 2.134552448987960815e-01 -1.417557150125503540e-01
1.232000000000000000e+03 3.109712409973144531e+01 -4.471232414245605469e+00 1.264723092317581177e-01 1.643897444009780884e-01 8.725861459970474243e-02 -1.489509344100952148e-01
1.233000000000000000e+03 3.186859893798828125e+01 -3.951021671295166016e+00 7.751609683036804199e-01 3.929806053638458252e-01 3.504424691200256348e-01 -5.341311693191528320e-01
1.234000000000000000e+03 1.153002929687500000e+01 -3.581860542297363281e+00 4.982954123988747597e-04 8.984336454886943102e-05 1.764416374498978257e-04 -6.159015465527772903e-04
1.235000000000000000e+03 1.093496227264404297e+01 -2.643365859985351562e+00 2.900075633078813553e-04 1.000899210339412093e-04 1.170292453025467694e-04 -5.873722257092595100e-04
1.236000000000000000e+03 1.119670391082763672e+01 -4.413079261779785156e+00 -3.681775706354528666e-04 -6.753350608050823212e-04 -3.130537807010114193e-04 7.399249006994068623e-04
1.237000000000000000e+03 1.256070613861083984e+01 -2.814834833145141602e+00 3.254076582379639149e-04 -4.053856246173381805e-04 -2.399339246039744467e-05 2.914306151069467887e-06
1.238000000000000000e+03 3.379643249511718750e+01 -4.478188514709472656e+00 1.427053570747375488e+00 5.867038369178771973e-01 6.041272282600402832e-01 -1.120209813117980957e+00
1.239000000000000000e+03 3.252425765991210938e+01 -3.979498863220214844e+00 1.055507302284240723e+00 4.810316860675811768e-01 4.609616696834564209e-01 -7.532358765602111816e-01
1.240000000000000000e+03 1.356222534179687500e+01 5.002315044403076172e+00 -6.837602704763412476e-04 -1.723267632769420743e-04 -2.568261115811765194e-04 -1.243258739123120904e-04
1.241000000000000000e+03 9.440282821655273438e+00 3.346783876419067383e+00 4.362963081803172827e-04 2.975395182147622108e-04 2.201507450081408024e-04 -3.749724783119745553e-05
1.242000000000000000e+03 1.261454677581787109e+01 4.104250907897949219e+00 -5.501318373717367649e-04 -2.732560096774250269e-04 -2.470163744874298573e-04 -1.734809920890256763e-04
1.243000000000000000e+03 1.258523845672607422e+01 3.296197175979614258e+00 6.498033180832862854e-04 1.485717803006991744e-04 2.395125193288549781e-04 1.347192301182076335e-04
1.244000000000000000e+03 3.004850769042968750e+01 -9.248311042785644531e+00 -6.832339763641357422e-01 1.185624226927757263e-01 -1.694014668464660645e-01 1.070847436785697937e-01
1.245000000000000000e+03 3.136137008666992188e+01 -9.809407234191894531e+00 8.183939009904861450e-02 3.786777257919311523e-01 1.381551325321197510e-01 5.600321292877197266e-01
1.246000000000000000e+03 2.993909072875976562e+01 -9.889760971069335938e+00 -2.791953086853027344e-01 2.241474390029907227e-01 -1.651436090469360352e-02 2.285460531711578369e-01
1.247000000000000000e+03 3.324591445922851562e+01 -9.695983886718750000e+00 8.973810672760009766e-01 8.721815943717956543e-01 5.308687686920166016e-01 1.336549520492553711e+00
1.248000000000000000e+03 9.325560569763183594e+00 4.129858970642089844e+00 -2.986258477903902531e-04 -3.592153370846062899e-04 -1.973523612832650542e-04 3.104854549746960402e-04
1.249000000000000000e+03 1.954779052734375000e+01 -8.811510086059570312e+00 -5.100407004356384277e-01 -1.536914240568876266e-02 -1.576229482889175415e-01 -4.048658609390258789e-01
1.250000000000000000e+03 6.795042037963867188e+00 -3.326892375946044922e+00 -1.098449720302596688e-04 -8.733178401598706841e-05 -5.915302608627825975e-05 3.782064595725387335e-04
1.251000000000000000e+03 2.682786226272583008e+00 -6.746111869812011719e+00 3.466717316769063473e-04 3.434076788835227489e-04 2.070238260785117745e-04 -3.617799084167927504e-04
1.252000000000000000e+03 7.698852539062500000e+00 -4.036134719848632812e+00 -2.073698487947694957e-05 -3.386985918041318655e-04 -1.078306740964762866e-04 6.510223029181361198e-04
1.253000000000000000e+03 8.854354858398437500e+00 -2.470055818557739258e+00 -6.491126987384632230e-05 -2.075604716083034873e-04 -8.174152026185765862e-05 4.935906617902219296e-04
1.254000000000000000e+03 5.531616687774658203e+00 -4.249413490295410156e+00 2.130890206899493933e-04 5.201151361688971519e-05 7.953016029205173254e-05 -2.834108308888971806e-04
1.255000000000000000e+03 5.916604995727539062e+00 -2.636837005615234375e+00 -1.334221451543271542e-04 -4.137583891861140728e-05 -5.243939449428580701e-05 2.536478568799793720e-04
1.256000000000000000e+03 6.056852817535400391e+00 -3.389761447906494141e+00 8.912612975109368563e-05 1.773680123733356595e-04 7.994824409252032638e-05 -3.087741497438400984e-04
1.257000000000000000e+03 4.218302726745605469e+00 -4.634321689605712891e+00 2.084859443129971623e-04 6.402419239748269320e-05 8.175303810276091099e-05 -2.437267976347357035e-04
1.258000000000000000e+03 1.651760458946228027e+00 -5.289389133453369141e+00 -6.274928455241024494e-05 1.881034404505044222e-04 3.760624895221553743e-05 -3.798819670919328928e-04
1.259000000000000000e+03 2.843004417419433594e+01 -9.954014778137207031e+00 -5.114731192588806152e-01 1.538452655076980591e-01 -1.072883531451225281e-01 -8.969503454864025116e-03
1.260000000000000000e+03 2.919464302062988281e+01 -9.923377990722656250e+00 -4.113455116748809814e-01 1.807450354099273682e-01 -6.918013840913772583e-02 1.032204851508140564e-01
1.261000000000000000e+03 2.688563156127929688e+01 -1.002205848693847656e+01 -6.268765330314636230e-01 1.193726509809494019e-01 -1.522511690855026245e-01 -1.846611797809600830e-01
1.262000000000000000e+03 2.140528106689453125e+01 -9.029806137084960938e+00 -6.974965929985046387e-01 8.722638338804244995e-02 -1.830810606479644775e-01 -4.266951978206634521e-01
1.263000000000000000e+03 2.359426879882812500e+01 -1.012494468688964844e+01 -6.604160070419311523e-01 1.196860745549201965e-01 -1.622189730405807495e-01 -4.202318787574768066e-01
1.264000000000000000e+03 2.129010581970214844e+01 -9.829260826110839844e+00 -6.361824274063110352e-01 9.383121132850646973e-02 -1.627053618431091309e-01 -4.790804386138916016e-01
1.265000000000000000e+03 2.446177482604980469e+01 -1.011811161041259766e+01 -6.627842187881469727e-01 1.204225122928619385e-01 -1.627085208892822266e-01 -3.726555705070495605e-01
1.266000000000000000e+03 2.529336357116699219e+01 -1.009492969512939453e+01 -6.620908379554748535e-01 1.124354004859924316e-01 -1.648966223001480103e-01 -3.151137232780456543e-01
1.267000000000000000e+03 2.610131645202636719e+01 -1.006186580657958984e+01 -6.475849151611328125e-01 1.112289354205131531e-01 -1.609068065881729126e-01 -2.540325820446014404e-01
1.268000000000000000e+03 1.905736541748046875e+01 -1.290934467315673828e+01 -5.124959945678710938e-01 -3.792077302932739258e-02 -1.651250272989273071e-01 -4.922549426555633545e-01
1.269000000000000000e+03 2.042620468139648438e+01 -3.222600221633911133e+00 -2.981985732913017273e-02 -1.876462399959564209e-01 -6.523983180522918701e-02 2.173720896244049072e-01
1.270000000000000000e+03 2.207193183898925781e+01 -9.866552352905273438e+00 -6.683300733566284180e-01 1.047143116593360901e-01 -1.690847277641296387e-01 -4.672518968582153320e-01
1.271000000000000000e+03 2.280830574035644531e+01 -9.970409393310546875e+00 -6.689726710319519043e-01 1.191938146948814392e-01 -1.649336516857147217e-01 -4.490745067596435547e-01
1.272000000000000000e+03 2.106612014770507812e+01 -1.448844671249389648e+00 3.807523101568222046e-02 -2.398067414760589600e-01 -6.051945313811302185e-02 2.541586756706237793e-01
1.273000000000000000e+03 2.140962600708007812e+01 2.660866975784301758e+00 1.105893924832344055e-01 -1.436582803726196289e-01 -9.920666925609111786e-03 1.399907097220420837e-02
1.274000000000000000e+03 2.088830947875976562e+01 5.931921005249023438e+00 5.938971042633056641e-02 -6.526468694210052490e-02 -1.762492349371314049e-03 -1.767449676990509033e-01
1.275000000000000000e+03 1.809243011474609375e+01 -1.043821144104003906e+01 -5.130751132965087891e-01 -2.305660843849182129e-01 -2.230923622846603394e-01 -5.206497907638549805e-01
1.276000000000000000e+03 1.084067630767822266e+01 9.031513214111328125e+00 2.984437160193920135e-04 5.867448053322732449e-04 2.655565622262656689e-04 1.782789186108857393e-04
1.277000000000000000e+03 1.107592010498046875e+01 1.062719535827636719e+01 5.628654616884887218e-04 8.795116445980966091e-04 4.327131318859755993e-04 3.477577120065689087e-04
1.278000000000000000e+03 1.334007835388183594e+01 6.159293174743652344e+00 7.186620496213436127e-04 3.625267709139734507e-04 3.243566316086798906e-04 2.328337432118132710e-04
1.279000000000000000e+03 6.040650367736816406e+00 -1.448927211761474609e+01 8.571239188313484192e-03 -8.449164219200611115e-03 3.662253584479913116e-05 -2.165711857378482819e-02
1.280000000000000000e+03 6.658685207366943359e+00 -1.330471038818359375e+01 -9.827255271375179291e-04 1.846328936517238617e-02 5.244169384241104126e-03 -1.118198502808809280e-02
1.281000000000000000e+03 1.856659317016601562e+01 1.084028816223144531e+01 8.379980921745300293e-03 -9.192686527967453003e-02 -2.506406418979167938e-02 -7.916670292615890503e-02
1.282000000000000000e+03 2.059437561035156250e+01 7.211294651031494141e+00 6.210215762257575989e-02 -1.672022603452205658e-02 1.361458003520965576e-02 -2.071328014135360718e-01
1.283000000000000000e+03 1.072214603424072266e+01 -3.369939327239990234e+00 -1.909002603497356176e-04 -5.458983941935002804e-04 -2.210396050941199064e-04 8.612769306637346745e-04
1.284000000000000000e+03 8.497870445251464844e+00 -2.027803230285644531e+01 -4.915983080863952637e-01 -3.828499317169189453e-01 -2.623344659805297852e-01 -6.024846434593200684e-01
1.285000000000000000e+03 7.830613613128662109e+00 -1.879479408264160156e+01 -5.761110186576843262e-01 -8.128305524587631226e-02 -1.972182244062423706e-01 -2.803125977516174316e-01
1.286000000000000000e+03 1.008023166656494141e+01 4.140275478363037109e+00 3.911074891220778227e-04 4.677447432186454535e-04 2.576556871645152569e-04 -4.258733315509743989e-05
1.287000000000000000e+03 6.984269618988037109e-01 3.054670095443725586e+00 3.146712551824748516e-04 6.002301961416378617e-05 1.124082846217788756e-04 -2.326470857951790094e-04
1.288000000000000000e+03 1.005654811859130859e+01 -6.182061672210693359e+00 -1.395076542394235730e-04 -1.270751468837261200e-03 -4.230777558404952288e-04 7.561858510598540306e-04
1.289000000000000000e+03 1.555710887908935547e+01 -1.860597229003906250e+01 -3.179670274257659912e-01 -2.618065178394317627e-01 -1.739320605993270874e-01 -2.652209997177124023e-01
1.290000000000000000e+03 1.606457710266113281e+01 -1.553649616241455078e+01 -5.788857936859130859e-01 -4.284686148166656494e-01 -3.022063076496124268e-01 -4.855304360389709473e-01
1.291000000000000000e+03 9.496973991394042969e+00 -1.983739089965820312e+01 -4.220878779888153076e-01 -6.507381200790405273e-01 -3.218477964401245117e-01 -6.361353993415832520e-01
1.292000000000000000e+03 2.011042213439941406e+01 -1.594991534948348999e-01 3.571909666061401367e-02 -4.125404953956604004e-01 -1.130464226007461548e-01 1.712969094514846802e-01
1.293000000000000000e+03 2.093087577819824219e+01 -1.050819778442382812e+01 -5.856608748435974121e-01 8.346479386091232300e-02 -1.506588160991668701e-01 -5.088073015213012695e-01
1.294000000000000000e+03 3.079441785812377930e+00 2.186633872985839844e+01 -3.086973726749420166e-02 -7.804790884256362915e-02 -3.267529234290122986e-02 1.143065616488456726e-01
1.295000000000000000e+03 7.811463165283203125e+01 -3.589850616455078125e+01 -1.818140409886837006e-02 7.952683448791503906e+00 2.380350589752197266e+00 -5.811838805675506592e-02
1.296000000000000000e+03 7.356293487548828125e+01 -3.816165542602539062e+01 -1.094266772270202637e-01 7.867379665374755859e+00 2.327385902404785156e+00 -1.200296357274055481e-01
1.297000000000000000e+03 7.484553527832031250e+01 -3.520333862304687500e+01 -7.684982568025588989e-02 7.844612598419189453e+00 2.330328941345214844e+00 -1.742188036441802979e-01
1.298000000000000000e+03 7.701654052734375000e+01 -3.606233596801757812e+01 -3.409607335925102234e-02 7.920567512512207031e+00 2.365941286087036133e+00 -9.024473279714584351e-02
1.299000000000000000e+03 7.553684234619140625e+01 -2.355013084411621094e+01 -1.207996829180046916e-04 7.371504306793212891e+00 2.211415052413940430e+00 -2.923442423343658447e-01
1.300000000000000000e+03 7.792292785644531250e+01 -2.920994758605957031e+01 -7.157145999372005463e-03 7.649936199188232422e+00 2.292833566665649414e+00 -1.340144574642181396e-01
1.301000000000000000e+03 7.545437622070312500e+01 1.514833641052246094e+01 -1.571020297706127167e-02 7.921349048614501953e+00 2.371691703796386719e+00 3.779962062835693359e-01
1.302000000000000000e+03 7.677079772949218750e+01 1.523294353485107422e+01 -8.455167524516582489e-03 7.942093849182128906e+00 2.380091667175292969e+00 2.851939201354980469e-01
1.303000000000000000e+03 7.763260650634765625e+01 3.484019088745117188e+01 -1.269474439322948456e-02 9.066251754760742188e+00 2.716067075729370117e+00 5.284072831273078918e-02
1.304000000000000000e+03 7.613692474365234375e+01 3.192590332031250000e+01 -3.710108995437622070e-02 8.815875053405761719e+00 2.633632183074951172e+00 1.447376906871795654e-01
1.305000000000000000e+03 7.805474090576171875e+01 -2.222741508483886719e+01 1.259126700460910797e-03 7.204948902130126953e+00 2.161862373352050781e+00 -1.444222927093505859e-01
1.306000000000000000e+03 7.677198791503906250e+01 -2.357226181030273438e+01 -1.208266708999872208e-03 7.335064888000488281e+00 2.200156927108764648e+00 -2.250052839517593384e-01
1.307000000000000000e+03 7.645932006835937500e+01 -3.056142616271972656e+01 -2.556569501757621765e-02 7.702893733978271484e+00 2.303198337554931641e+00 -1.974092274904251099e-01
1.308000000000000000e+03 7.653568267822265625e+01 -2.915433120727539062e+01 -1.810604892671108246e-02 7.636965274810791016e+00 2.285657882690429688e+00 -2.029264569282531738e-01
1.309000000000000000e+03 7.797737121582031250e+01 -3.467002487182617188e+01 -1.055235881358385086e-02 7.906690120697021484e+00 2.368841409683227539e+00 -7.665239274501800537e-02
1.310000000000000000e+03 7.668106842041015625e+01 -2.635485458374023438e+01 -1.118469424545764923e-02 7.495397567749023438e+00 2.245263814926147461e+00 -2.208179384469985962e-01
1.311000000000000000e+03 7.660654449462890625e+01 -2.775486564636230469e+01 -1.477956399321556091e-02 7.571552753448486328e+00 2.267031908035278320e+00 -2.138708680868148804e-01
1.312000000000000000e+03 7.649043273925781250e+01 -3.478103637695312500e+01 -3.904921561479568481e-02 7.868757247924804688e+00 2.348912477493286133e+00 -1.287155151367187500e-01
1.313000000000000000e+03 7.373470306396484375e+01 -2.902949714660644531e+01 -5.878555029630661011e-02 7.647735118865966797e+00 2.276684999465942383e+00 -3.250986337661743164e-01
1.314000000000000000e+03 7.632231140136718750e+01 -3.194948387145996094e+01 -3.952876850962638855e-02 7.769096851348876953e+00 2.318870544433593750e+00 -1.764622181653976440e-01
1.315000000000000000e+03 7.794412994384765625e+01 2.223489761352539062e+01 -7.254767697304487228e-03 8.493747711181640625e+00 2.545947790145874023e+00 1.560682654380798340e-01
1.316000000000000000e+03 7.668263244628906250e+01 1.935080528259277344e+01 -1.463347859680652618e-02 8.232936859130859375e+00 2.465490818023681641e+00 2.641152143478393555e-01
1.317000000000000000e+03 7.515608978271484375e+01 2.199377250671386719e+01 -3.504825755953788757e-02 8.320530891418457031e+00 2.485644817352294922e+00 3.251360356807708740e-01
1.318000000000000000e+03 7.662850189208984375e+01 2.073665046691894531e+01 -1.613435521721839905e-02 8.320084571838378906e+00 2.491185188293457031e+00 2.539710104465484619e-01
1.319000000000000000e+03 7.678834533691406250e+01 1.249169731140136719e+01 -2.081927377730607986e-03 7.734247207641601562e+00 2.319649457931518555e+00 2.927739024162292480e-01
1.320000000000000000e+03 7.549041748046875000e+01 8.321107864379882812e+00 1.896619796752929688e-02 7.462149620056152344e+00 2.244334697723388672e+00 3.748441338539123535e-01
1.321000000000000000e+03 7.678248596191406250e+01 1.386553478240966797e+01 -5.582507699728012085e-03 7.839384555816650391e+00 2.350140571594238281e+00 2.898466885089874268e-01
1.322000000000000000e+03 7.647132110595703125e+01 2.356737136840820312e+01 -1.989457756280899048e-02 8.480910301208496094e+00 2.538304805755615234e+00 2.343340963125228882e-01
1.323000000000000000e+03 7.786439514160156250e+01 2.648738479614257812e+01 -5.552741233259439468e-03 8.750339508056640625e+00 2.623435974121093750e+00 1.309701502323150635e-01
1.324000000000000000e+03 7.676774597167968750e+01 -2.220040702819824219e+01 4.290590528398752213e-03 7.254955291748046875e+00 2.177773714065551758e+00 -2.244516015052795410e-01
1.325000000000000000e+03 7.415364074707031250e+01 -1.663228416442871094e+01 6.760372966527938843e-02 7.130751132965087891e+00 2.159506559371948242e+00 -2.906259894371032715e-01
1.326000000000000000e+03 7.675071716308593750e+01 -2.083538818359375000e+01 7.744295988231897354e-03 7.178792953491210938e+00 2.155961275100708008e+00 -2.198097109794616699e-01
1.327000000000000000e+03 7.555577087402343750e+01 -8.219227790832519531e+00 7.704170048236846924e-02 6.839068889617919922e+00 2.074833154678344727e+00 -2.304299362003803253e-02
1.328000000000000000e+03 7.805410003662109375e+01 -1.527503204345703125e+01 1.097137201577425003e-02 6.789640903472900391e+00 2.040183782577514648e+00 -1.056294441223144531e-01
1.329000000000000000e+03 7.556021118164062500e+01 -1.345122575759887695e+00 6.928287446498870850e-02 6.945861816406250000e+00 2.104543447494506836e+00 1.901676803827285767e-01
1.330000000000000000e+03 7.681694793701171875e+01 -8.253577232360839844e+00 4.175827652215957642e-02 6.721561431884765625e+00 2.028995990753173828e+00 -1.907144486904144287e-02
1.331000000000000000e+03 7.807055664062500000e+01 5.592450141906738281e+00 7.899247109889984131e-03 7.145946025848388672e+00 2.146153688430786133e+00 1.684040874242782593e-01
1.332000000000000000e+03 7.548235321044921875e+01 5.557178974151611328e+00 3.592868521809577942e-02 7.287456035614013672e+00 2.197015523910522461e+00 3.450509309768676758e-01
1.333000000000000000e+03 7.807274627685546875e+01 6.980637550354003906e+00 5.822697654366493225e-03 7.255983352661132812e+00 2.178541660308837891e+00 1.767213195562362671e-01
1.334000000000000000e+03 7.677846527099609375e+01 5.585937976837158203e+00 1.923281513154506683e-02 7.221806526184082031e+00 2.172311782836914062e+00 2.623232305049896240e-01
1.335000000000000000e+03 7.683803558349609375e+01 -2.717722654342651367e+00 3.963046148419380188e-02 6.790442943572998047e+00 2.049021959304809570e+00 1.134505942463874817e-01
1.336000000000000000e+03 7.680204772949218750e+01 -9.648539543151855469e+00 4.083293676376342773e-02 6.735689163208007812e+00 2.032956600189208984e+00 -5.207531154155731201e-02
1.337000000000000000e+03 7.674472045898437500e+01 -1.665639686584472656e+01 2.318389527499675751e-02 6.962167739868164062e+00 2.095605611801147461e+00 -1.844550073146820068e-01
1.338000000000000000e+03 7.596377563476562500e+01 3.345065689086914062e+01 -4.393058642745018005e-02 8.849474906921386719e+00 2.641663312911987305e+00 1.282634139060974121e-01
1.339000000000000000e+03 7.407610321044921875e+01 3.524699401855468750e+01 -8.245740085840225220e-02 8.691188812255859375e+00 2.582619428634643555e+00 1.424694508314132690e-01
1.340000000000000000e+03 7.638847351074218750e+01 3.047590446472167969e+01 -2.670684456825256348e-02 8.792675018310546875e+00 2.629790544509887695e+00 1.541586667299270630e-01
1.341000000000000000e+03 7.672129821777343750e+01 1.797290992736816406e+01 -1.227306853979825974e-02 8.138937950134277344e+00 2.437999486923217773e+00 2.708556950092315674e-01
1.342000000000000000e+03 7.678952026367187500e+01 9.737479209899902344e+00 5.868316162377595901e-03 7.523319721221923828e+00 2.258756399154663086e+00 2.902858853340148926e-01
1.343000000000000000e+03 7.805992889404296875e+01 -1.387887668609619141e+01 1.302644796669483185e-02 6.726081848144531250e+00 2.021732568740844727e+00 -9.046466648578643799e-02
1.344000000000000000e+03 7.675705718994140625e+01 -1.525069999694824219e+01 2.790215238928794861e-02 6.898807525634765625e+00 2.078012943267822266e+00 -1.636147201061248779e-01
1.345000000000000000e+03 7.809613800048828125e+01 -6.902007579803466797e+00 1.691562868654727936e-02 6.581029415130615234e+00 1.979383468627929688e+00 8.702175691723823547e-03
1.346000000000000000e+03 7.807885742187500000e+01 1.429077148437500000e+00 1.265159528702497482e-02 6.857602119445800781e+00 2.061076164245605469e+00 1.293572038412094116e-01
1.347000000000000000e+03 7.682527923583984375e+01 -1.333064079284667969e+00 3.795911371707916260e-02 6.839189529418945312e+00 2.063144683837890625e+00 1.448235064744949341e-01
1.348000000000000000e+03 7.677814483642578125e+01 4.200235843658447266e+00 2.386061660945415497e-02 7.130545616149902344e+00 2.146321773529052734e+00 2.455266267061233521e-01
1.349000000000000000e+03 7.678425598144531250e+01 2.812532186508178711e+00 2.786835283041000366e-02 7.045220851898193359e+00 2.121926784515380859e+00 2.250521928071975708e-01
1.350000000000000000e+03 7.684200286865234375e+01 -5.483185291290283203e+00 4.184902086853981018e-02 6.730329990386962891e+00 2.031653642654418945e+00 4.789358004927635193e-02
1.351000000000000000e+03 7.684386444091796875e+01 -4.100085258483886719e+00 4.129641130566596985e-02 6.754154205322265625e+00 2.038635253906250000e+00 8.110956847667694092e-02
1.352000000000000000e+03 7.676882171630859375e+01 -1.385093402862548828e+01 3.142345696687698364e-02 6.843650341033935547e+00 2.062522172927856445e+00 -1.399412602186203003e-01
1.353000000000000000e+03 7.678980255126953125e+01 -1.104885959625244141e+01 3.808899596333503723e-02 6.761016368865966797e+00 2.039731502532958984e+00 -8.382038772106170654e-02
1.354000000000000000e+03 7.553550720214843750e+01 -9.614570617675781250e+00 7.444250583648681641e-02 6.850825309753417969e+00 2.077580451965332031e+00 -6.658227741718292236e-02
1.355000000000000000e+03 7.673811340332031250e+01 -1.945812416076660156e+01 1.318901591002941132e-02 7.103895187377929688e+00 2.135125160217285156e+00 -2.134189158678054810e-01
1.356000000000000000e+03 7.829178810119628906e+00 1.315018558502197266e+01 -1.527555636130273342e-03 3.804231295362114906e-03 6.830026977695524693e-04 5.531739443540573120e-03
1.357000000000000000e+03 1.146075820922851562e+01 8.044463157653808594e+00 -5.073927459307014942e-04 -8.351471478817984462e-06 -1.547232677694410086e-04 7.855352305341511965e-05
1.358000000000000000e+03 1.295968532562255859e+01 7.313161373138427734e+00 -7.691259379498660564e-04 -2.007446310017257929e-04 -2.909611794166266918e-04 -2.199337322963401675e-04
1.359000000000000000e+03 1.863660621643066406e+01 1.403643798828125000e+01 -4.851665720343589783e-02 3.279350399971008301e-01 8.382552117109298706e-02 -1.672935336828231812e-01
1.360000000000000000e+03 3.293735742568969727e+00 3.578816604614257812e+01 4.891562089323997498e-02 -4.025328755378723145e-01 -1.060851737856864929e-01 5.020459368824958801e-02
1.361000000000000000e+03 1.807809710502624512e+00 2.740108871459960938e+01 5.943982861936092377e-03 -3.118262588977813721e-01 -9.176468104124069214e-02 8.670333027839660645e-02
1.362000000000000000e+03 3.370175361633300781e+00 2.990646743774414062e+01 1.969894021749496460e-02 -2.816644310951232910e-01 -7.858964800834655762e-02 1.102282553911209106e-01
1.363000000000000000e+03 1.723013877868652344e+00 2.604462623596191406e+01 4.923955537378787994e-03 -2.587119936943054199e-01 -7.613641023635864258e-02 9.117610007524490356e-02
1.364000000000000000e+03 3.028549432754516602e+00 2.715628242492675781e+01 1.405413169413805008e-02 -2.370628118515014648e-01 -6.690260767936706543e-02 1.324371844530105591e-01
1.365000000000000000e+03 6.450029373168945312e+00 3.078150177001953125e+01 7.119494676589965820e-02 -5.839719995856285095e-02 3.839325392618775368e-03 1.277157813310623169e-01
1.366000000000000000e+03 3.507579088211059570e+00 3.133990478515625000e+01 2.362187393009662628e-02 -2.933232486248016357e-01 -8.091041445732116699e-02 9.405465424060821533e-02
1.367000000000000000e+03 3.207544088363647461e+00 2.850956153869628906e+01 2.120645716786384583e-02 -2.629579305648803711e-01 -7.252544909715652466e-02 1.216126233339309692e-01
1.368000000000000000e+03 1.987278461456298828e+00 3.705063629150390625e+01 5.602921824902296066e-03 -5.325686335563659668e-01 -1.580897122621536255e-01 1.127117662690579891e-03
1.369000000000000000e+03 3.551442623138427734e+00 3.437230682373046875e+01 4.384763538837432861e-02 -3.219313025474548340e-01 -8.342510461807250977e-02 6.652754545211791992e-02
1.370000000000000000e+03 3.644439220428466797e+00 3.284815216064453125e+01 2.289265580475330353e-02 -3.023310899734497070e-01 -8.383153378963470459e-02 8.279465883970260620e-02
1.371000000000000000e+03 3.541489601135253906e+00 -3.556531906127929688e+01 7.674431800842285156e-02 -8.388400077819824219e-01 -2.286287099123001099e-01 -1.069492250680923462e-01
1.372000000000000000e+03 4.056166172027587891e+00 -3.440343475341796875e+01 7.021080702543258667e-02 -7.172429561614990234e-01 -1.941096335649490356e-01 -1.555441915988922119e-01
1.373000000000000000e+03 3.730979681015014648e+00 -3.030915832519531250e+01 4.924866557121276855e-02 -6.395236849784851074e-01 -1.770825088024139404e-01 -2.302407026290893555e-01
1.374000000000000000e+03 2.154804706573486328e+00 -2.900575256347656250e+01 1.457964908331632614e-02 -6.890763044357299805e-01 -2.023489922285079956e-01 -1.727592051029205322e-01
1.375000000000000000e+03 5.052743434906005859e+00 -2.765677261352539062e+01 5.235639587044715881e-02 -4.870581328868865967e-01 -1.304105222225189209e-01 -3.248285055160522461e-01
1.376000000000000000e+03 2.860467910766601562e+00 2.329266738891601562e+01 -1.855709217488765717e-02 -1.246704459190368652e-01 -4.296826198697090149e-02 1.243794113397598267e-01
1.377000000000000000e+03 1.589485406875610352e+00 -1.342681503295898438e+01 3.109093755483627319e-03 4.516319371759891510e-03 2.287623938173055649e-03 8.715334348380565643e-03
1.378000000000000000e+03 1.665341734886169434e+00 1.915594673156738281e+01 -1.378042064607143402e-02 -1.684096269309520721e-02 -9.186415001749992371e-03 2.404238469898700714e-02
1.379000000000000000e+03 5.864840984344482422e+00 1.870511627197265625e+01 -1.105582863092422485e-01 1.168272178620100021e-02 -2.966267056763172150e-02 2.217193134129047394e-02
1.380000000000000000e+03 1.789381027221679688e+00 -1.892373466491699219e+01 -4.136502370238304138e-02 -2.654585428535938263e-02 -2.037326246500015259e-02 -3.976144269108772278e-02
1.381000000000000000e+03 3.583008050918579102e+00 -1.787706565856933594e+01 -8.982216566801071167e-02 -4.319463297724723816e-02 -3.990504145622253418e-02 -1.983034797012805939e-02
1.382000000000000000e+03 5.908973693847656250e+00 1.286226081848144531e+01 4.642391111701726913e-03 -5.491531454026699066e-03 -2.547420153860002756e-04 3.489277325570583344e-03
1.383000000000000000e+03 1.795005202293395996e+00 -2.177765083312988281e+01 -2.441263198852539062e-02 -1.666945368051528931e-01 -5.733215063810348511e-02 -1.299174875020980835e-01
1.384000000000000000e+03 6.801587581634521484e+00 -1.978838539123535156e+01 -3.530924916267395020e-01 -1.129385679960250854e-01 -1.398093253374099731e-01 -3.391881287097930908e-01
1.385000000000000000e+03 3.977041006088256836e+00 5.337192058563232422e+00 1.010519685223698616e-03 -4.270711506251245737e-04 1.750345691107213497e-04 5.249178866506554186e-05
1.386000000000000000e+03 2.632264614105224609e+00 7.789069175720214844e+00 -3.130002878606319427e-04 3.289383312221616507e-05 -8.403193351114168763e-05 -5.143334856256842613e-04
1.387000000000000000e+03 1.783558368682861328e+00 1.777152252197265625e+01 -9.891686029732227325e-03 -5.186135880649089813e-03 -4.523346200585365295e-03 8.757041767239570618e-03
1.388000000000000000e+03 2.655490159988403320e+00 9.151008605957031250e+00 1.796289812773466110e-03 1.400838955305516720e-04 5.809121066704392433e-04 -1.429468276910483837e-03
1.389000000000000000e+03 4.877495765686035156e+00 -4.435475826263427734e+00 -5.947992758592590690e-05 1.921090297400951385e-04 3.978873064625076950e-05 2.633360854815691710e-04
1.390000000000000000e+03 2.802522182464599609e+00 -4.578533172607421875e+00 -5.975769818178378046e-05 4.761513846460729837e-04 1.249181077582761645e-04 -3.633805026765912771e-04
1.391000000000000000e+03 1.965470671653747559e+00 -4.178403854370117188e+00 7.466655915777664632e-06 -4.730512155219912529e-04 -1.396753650624305010e-04 7.031381392152979970e-05
1.392000000000000000e+03 2.715802192687988281e+00 -1.581755065917968750e+01 -2.076788339763879776e-03 -1.642677187919616699e-02 -5.551068112254142761e-03 1.104732882231473923e-02
1.393000000000000000e+03 7.578058719635009766e+00 -9.196993827819824219e+00 2.727741666603833437e-04 2.718172734603285789e-03 8.972840732894837856e-04 -1.453470089472830296e-03
1.394000000000000000e+03 3.581326007843017578e+00 -2.895057106018066406e+01 4.507992789149284363e-02 -5.945043563842773438e-01 -1.648273319005966187e-01 -2.526132464408874512e-01
1.395000000000000000e+03 4.985949516296386719e+00 -2.330133819580078125e+01 -7.450965791940689087e-02 -3.051176369190216064e-01 -1.138881891965866089e-01 -3.653080165386199951e-01
1.396000000000000000e+03 4.480247974395751953e+00 -3.764919662475585938e+01 7.113428413867950439e-02 -8.116755485534667969e-01 -2.221623659133911133e-01 -1.361994296312332153e-01
1.397000000000000000e+03 2.754662513732910156e+00 -7.999448299407958984e+00 7.260010461322963238e-04 -5.509919719770550728e-04 5.250272442935965955e-05 7.538551581092178822e-04
1.398000000000000000e+03 2.753050565719604492e+00 -3.457510375976562500e+01 4.058962687849998474e-02 -9.322692155838012695e-01 -2.675038576126098633e-01 -1.048653572797775269e-01
1.399000000000000000e+03 5.566123008728027344e+00 -3.477995300292968750e+01 1.117712631821632385e-01 -5.682744383811950684e-01 -1.369509547948837280e-01 -1.689282208681106567e-01
1.400000000000000000e+03 2.758983135223388672e+00 -2.023824310302734375e+01 -7.544166594743728638e-02 -1.072826981544494629e-01 -5.481730774044990540e-02 -1.303539723157882690e-01
1.401000000000000000e+03 1.927161455154418945e+00 -2.323232650756835938e+01 -1.660780608654022217e-02 -2.735826373100280762e-01 -8.705712854862213135e-02 -1.708038747310638428e-01
1.402000000000000000e+03 3.505995750427246094e+00 -2.615857887268066406e+01 1.585969328880310059e-02 -4.677583277225494385e-01 -1.355695873498916626e-01 -2.831125259399414062e-01
1.403000000000000000e+03 2.638044834136962891e+00 -1.461471366882324219e+01 6.042644381523132324e-03 -1.160320453345775604e-02 -1.668168115429580212e-03 1.192344911396503448e-02
1.404000000000000000e+03 2.646453142166137695e+00 -1.343733406066894531e+01 5.545818712562322617e-03 -4.055916797369718552e-03 4.469705745577812195e-04 8.304852992296218872e-03
1.405000000000000000e+03 5.886232852935791016e+00 -9.881124496459960938e+00 1.196303288452327251e-03 1.371186110191047192e-03 7.702467846684157848e-04 -1.308480394072830677e-03
1.406000000000000000e+03 2.685546875000000000e+00 1.047385501861572266e+01 5.187094211578369141e-04 -7.721937145106494427e-04 -7.604530401295050979e-05 -1.557082403451204300e-03
1.407000000000000000e+03 3.573390483856201172e+00 1.379603672027587891e+01 4.168729064986109734e-04 -5.585115402936935425e-03 -1.550472690723836422e-03 -3.328302409499883652e-03
1.408000000000000000e+03 6.846778869628906250e+00 1.610873031616210938e+01 -1.505480706691741943e-02 -7.186311762779951096e-03 -6.672335788607597351e-03 -5.032024928368628025e-04
1.409000000000000000e+03 5.249933719635009766e+00 1.694720458984375000e+01 -3.994765877723693848e-02 -8.708463981747627258e-03 -1.459683664143085480e-02 3.672732738777995110e-03
1.410000000000000000e+03 4.123353958129882812e+00 1.657601356506347656e+01 -2.078636549413204193e-02 -1.612144708633422852e-02 -1.107234414666891098e-02 7.473850622773170471e-03
1.411000000000000000e+03 2.618870735168457031e+00 1.969019699096679688e+01 -2.915023453533649445e-02 -3.309813886880874634e-02 -1.867451146245002747e-02 5.056305229663848877e-02
1.412000000000000000e+03 5.883303642272949219e+00 1.419796276092529297e+01 -3.122022608295083046e-03 -9.533080272376537323e-03 -3.796530887484550476e-03 3.637062851339578629e-03
1.413000000000000000e+03 7.663298606872558594e+00 1.486317443847656250e+01 -1.680076471529901028e-03 7.116702385246753693e-03 1.630987855605781078e-03 9.735436178743839264e-03
1.414000000000000000e+03 4.063093662261962891e+00 -9.293004989624023438e+00 2.094627125188708305e-03 -2.349831396713852882e-03 -7.656130037503316998e-05 3.634317254181951284e-04
1.415000000000000000e+03 9.274047851562500000e+00 -7.104631900787353516e+00 1.964455004781484604e-04 1.448660506866872311e-03 4.935318138450384140e-04 -6.795995286665856838e-04
1.416000000000000000e+03 8.357226371765136719e+00 -8.068276405334472656e+00 1.449606643291190267e-04 -1.477539539337158203e-03 -3.997736494056880474e-04 5.750214331783354282e-04
1.417000000000000000e+03 1.195939922332763672e+01 7.045982837677001953e+00 4.674604570027440786e-04 5.594103713519871235e-04 3.080612514168024063e-04 2.259347384097054601e-04
1.418000000000000000e+03 2.127904510498046875e+01 4.710411071777343750e+00 8.987953513860702515e-02 -4.786715656518936157e-02 1.260371319949626923e-02 -1.288072764873504639e-01
1.419000000000000000e+03 1.651607131958007812e+01 1.841505241394042969e+01 -1.687048673629760742e-01 3.614172041416168213e-01 5.781369656324386597e-02 -1.415048837661743164e-01
1.420000000000000000e+03 2.225534820556640625e+01 1.479212522506713867e+00 1.650849133729934692e-01 -1.871520653367042542e-02 4.391091316938400269e-02 7.588515430688858032e-02
1.421000000000000000e+03 2.401015281677246094e+01 4.903993129730224609e+00 3.160398900508880615e-01 6.579512953758239746e-01 2.921973466873168945e-01 -4.175418913364410400e-01
1.422000000000000000e+03 1.730807495117187500e+01 1.689933776855468750e+01 -1.587587743997573853e-01 3.649910092353820801e-01 6.186966970562934875e-02 -1.348188966512680054e-01
1.423000000000000000e+03 1.916403961181640625e+01 1.263606548309326172e+01 6.757759489119052887e-03 2.703873813152313232e-01 8.314353972673416138e-02 -1.970548331737518311e-01
1.424000000000000000e+03 1.682222938537597656e+01 -1.437533569335937500e+01 -5.756402611732482910e-01 -3.566467761993408203e-01 -2.796860933303833008e-01 -5.059919953346252441e-01
1.425000000000000000e+03 1.751782417297363281e+01 -1.324669551849365234e+01 -5.770381689071655273e-01 -2.732545733451843262e-01 -2.550878226757049561e-01 -5.271965861320495605e-01
1.426000000000000000e+03 1.523069572448730469e+01 -1.665055274963378906e+01 -5.799856781959533691e-01 -4.555446803569793701e-01 -3.106591105461120605e-01 -4.867804646492004395e-01
1.427000000000000000e+03 2.030880928039550781e+01 8.522492408752441406e+00 5.290383845567703247e-02 5.282647907733917236e-02 3.171909600496292114e-02 -2.296712249517440796e-01
1.428000000000000000e+03 2.070269393920898438e+01 1.161175441741943359e+01 5.295647308230400085e-02 5.193373560905456543e-01 1.716881394386291504e-01 -3.593317568302154541e-01
1.429000000000000000e+03 1.072430515289306641e+01 -1.953050041198730469e+01 -4.179826378822326660e-01 -7.259790301322937012e-01 -3.431884944438934326e-01 -4.624855518341064453e-01
1.430000000000000000e+03 1.354768753051757812e+01 -1.994050407409667969e+01 -2.787345349788665771e-01 -4.419285655021667480e-01 -2.161989361047744751e-01 -3.081534206867218018e-01
1.431000000000000000e+03 1.993943405151367188e+01 -2.306797742843627930e+00 -6.947661313461139798e-05 -2.909996509552001953e-01 -8.732073754072189331e-02 1.879234611988067627e-01
1.432000000000000000e+03 1.867049598693847656e+01 1.744388008117675781e+01 -1.004277691245079041e-01 6.784861087799072266e-01 1.734174937009811401e-01 -2.823104262351989746e-01
1.433000000000000000e+03 1.304372596740722656e+01 2.086602401733398438e+01 -1.349103152751922607e-01 3.770771995186805725e-02 -2.916077896952629089e-02 -1.594970119185745716e-03
1.434000000000000000e+03 1.087543296813964844e+01 2.032257080078125000e+01 -2.531513869762420654e-01 -1.464805603027343750e-01 -1.198895871639251709e-01 1.460122019052505493e-01
1.435000000000000000e+03 5.238227844238281250e+00 -9.028337478637695312e+00 1.361644128337502480e-03 7.609130116179585457e-04 6.367671885527670383e-04 -1.761878491379320621e-03
1.436000000000000000e+03 5.266876220703125000e+00 -1.098344612121582031e+01 4.102536011487245560e-03 -4.580370150506496429e-03 -1.433502620784565806e-04 -4.159026779234409332e-03
1.437000000000000000e+03 5.145973205566406250e+00 3.999131011962890625e+01 3.613808425143361092e-03 -2.213847190141677856e-01 -6.533127278089523315e-02 4.915676265954971313e-02
1.438000000000000000e+03 3.564749145507812500e+01 -4.745772838592529297e+00 3.190760135650634766e+00 1.992108702659606934e+00 1.554860591888427734e+00 -2.800779581069946289e+00
1.439000000000000000e+03 3.713633728027343750e+01 -4.377237796783447266e+00 3.421778917312622070e+00 8.679932594299316406e+00 3.630513429641723633e+00 -5.855903625488281250e+00
1.440000000000000000e+03 3.749121856689453125e+01 -8.513109207153320312e+00 2.854330778121948242e+00 1.072694015502929688e+01 4.074381351470947266e+00 6.354010105133056641e+00
1.441000000000000000e+03 3.732368469238281250e+01 -8.562785148620605469e+00 3.129760265350341797e+00 9.492879867553710938e+00 3.786792039871215820e+00 6.343819618225097656e+00
1.442000000000000000e+03 3.765282058715820312e+01 -8.506497383117675781e+00 2.507287740707397461e+00 1.244472408294677734e+01 4.485603332519531250e+00 6.238511085510253906e+00
1.443000000000000000e+03 3.779714202880859375e+01 -4.655520439147949219e+00 2.852544784545898438e+00 1.361248207092285156e+01 4.939507961273193359e+00 -6.011772632598876953e+00
1.444000000000000000e+03 3.843129348754882812e+01 -9.051320075988769531e+00 1.176128268241882324e+00 1.551113510131835938e+01 5.006179332733154297e+00 3.366416931152343750e+00
1.445000000000000000e+03 3.770285415649414062e+01 -4.454527378082275391e+00 2.751034021377563477e+00 1.253439712524414062e+01 4.585629463195800781e+00 -5.832083225250244141e+00
1.446000000000000000e+03 3.910271835327148438e+01 -4.872571945190429688e+00 3.359510421752929688e+00 1.894102478027343750e+01 6.690160274505615234e+00 -3.480982407927513123e-02
1.447000000000000000e+03 3.899396896362304688e+01 -8.813113212585449219e+00 1.734844088554382324e+00 1.749270629882812500e+01 5.768265247344970703e+00 1.179941654205322266e+00
1.448000000000000000e+03 3.987021255493164062e+01 -7.700796604156494141e+00 7.430816173553466797e+00 1.697488594055175781e+01 7.321711063385009766e+00 -2.482735633850097656e+00
1.449000000000000000e+03 3.966217041015625000e+01 -8.135480880737304688e+00 5.042347908020019531e+00 1.771705245971679688e+01 6.827820301055908203e+00 -1.903458952903747559e+00
1.450000000000000000e+03 3.994714355468750000e+01 -5.044868469238281250e+00 5.543107509613037109e+00 1.653101730346679688e+01 6.622237205505371094e+00 1.886776089668273926e+00
1.451000000000000000e+03 3.991281127929687500e+01 -5.507210731506347656e+00 7.663150787353515625e+00 1.658725166320800781e+01 7.275120735168457031e+00 2.214202880859375000e+00
1.452000000000000000e+03 3.515457534790039062e+01 -4.438701629638671875e+00 2.679872512817382812e+00 1.592793703079223633e+00 1.281799912452697754e+00 -2.438010454177856445e+00
1.453000000000000000e+03 3.663716506958007812e+01 -8.731447219848632812e+00 3.203244686126708984e+00 5.405001640319824219e+00 2.582473993301391602e+00 5.056688308715820312e+00
1.454000000000000000e+03 3.481223297119140625e+01 -4.087736606597900391e+00 2.514376163482666016e+00 1.673766255378723145e+00 1.256442785263061523e+00 -2.320045948028564453e+00
1.455000000000000000e+03 3.365068435668945312e+01 -1.025437736511230469e+01 1.347563743591308594e+00 1.531923055648803711e+00 8.638460040092468262e-01 1.935075521469116211e+00
1.456000000000000000e+03 3.476626968383789062e+01 -9.963294029235839844e+00 1.823393225669860840e+00 2.423264503479003906e+00 1.273997306823730469e+00 2.772179603576660156e+00
1.457000000000000000e+03 3.431079864501953125e+01 -9.793214797973632812e+00 1.613030195236206055e+00 1.690856695175170898e+00 9.911660552024841309e-01 2.243847608566284180e+00
1.458000000000000000e+03 3.253434753417968750e+01 -1.029999732971191406e+01 8.395364284515380859e-01 8.967054486274719238e-01 5.208725929260253906e-01 1.244881153106689453e+00
1.459000000000000000e+03 3.313135910034179688e+01 -4.006368160247802734e+00 1.357900381088256836e+00 6.573631763458251953e-01 6.045790910720825195e-01 -1.018344640731811523e+00
1.460000000000000000e+03 2.199627113342285156e+01 3.852883338928222656e+00 1.406435817480087280e-01 5.896187201142311096e-02 5.988163501024246216e-02 -1.215385049581527710e-01
1.461000000000000000e+03 2.561454772949218750e+01 -3.500931024551391602e+00 -8.007796853780746460e-02 4.035667702555656433e-02 -1.191638689488172531e-02 2.612746655941009521e-01
1.462000000000000000e+03 2.449384880065917969e+01 -2.699270009994506836e+00 4.288819432258605957e-02 2.727841958403587341e-02 2.104998379945755005e-02 2.757955789566040039e-01
1.463000000000000000e+03 3.412588882446289062e+01 -1.031261730194091797e+01 1.572066783905029297e+00 2.038510322570800781e+00 1.083173155784606934e+00 2.346463918685913086e+00
1.464000000000000000e+03 2.005521392822265625e+01 -1.366088509559631348e+00 2.320978417992591858e-02 -3.487150371074676514e-01 -9.765157103538513184e-02 2.029473185539245605e-01
1.465000000000000000e+03 2.701293945312500000e+01 -3.622058153152465820e+00 -3.929716348648071289e-02 9.287984669208526611e-02 1.607480458915233612e-02 1.871396005153656006e-01
1.466000000000000000e+03 2.514809608459472656e+01 -2.778246879577636719e+00 5.576432123780250549e-02 5.201778933405876160e-02 3.233463317155838013e-02 2.484981268644332886e-01
1.467000000000000000e+03 2.840554428100585938e+01 -3.700357437133789062e+00 6.459711492061614990e-02 1.362374424934387207e-01 6.025036796927452087e-02 7.177527248859405518e-02
1.468000000000000000e+03 2.718680763244628906e+01 -2.998395681381225586e+00 1.752086132764816284e-01 1.547868549823760986e-01 9.899864345788955688e-02 1.113264784216880798e-01
1.469000000000000000e+03 8.609992027282714844e+00 4.114113807678222656e+00 6.395417149178683758e-04 2.358040073886513710e-04 2.626037166919559240e-04 -1.143462941399775445e-04
1.470000000000000000e+03 2.787001991271972656e+01 -3.025381326675415039e+00 2.540365159511566162e-01 1.890994757413864136e-01 1.329407989978790283e-01 4.350863024592399597e-02
1.471000000000000000e+03 2.979771232604980469e+01 -3.807442188262939453e+00 2.341550290584564209e-01 1.961998939514160156e-01 1.291064769029617310e-01 -8.377569168806076050e-02
1.472000000000000000e+03 9.546813011169433594e+00 -3.060517549514770508e+00 -1.453673939977306873e-05 -2.183694159612059593e-04 -6.987184315221384168e-05 5.854877526871860027e-04
1.473000000000000000e+03 8.927781105041503906e+00 -3.131371974945068359e+00 1.547751162433996797e-04 6.269078585319221020e-05 6.523977208416908979e-05 -4.313698445912450552e-04
1.474000000000000000e+03 7.925248146057128906e+00 4.093284130096435547e+00 -3.127536911051720381e-04 -2.832900208886712790e-04 -1.788131194189190865e-04 2.581523149274289608e-04
1.475000000000000000e+03 7.154665470123291016e+00 4.849921703338623047e+00 -2.210681705037131906e-04 -3.234555770177394152e-04 -1.633571228012442589e-04 3.578047617338597775e-04
1.476000000000000000e+03 3.732795476913452148e+00 6.471812725067138672e+00 -3.057184803765267134e-04 -1.226610474986955523e-04 -1.285138569073751569e-04 -2.845531562343239784e-04
1.477000000000000000e+03 2.468492746353149414e+00 4.939572334289550781e+00 -5.025331629440188408e-04 -1.626692574063781649e-05 -1.556400238769128919e-04 -5.148515265318565071e-05
1.478000000000000000e+03 1.425998687744140625e+00 5.022229671478271484e+00 5.388283752836287022e-04 1.960899826372042298e-04 2.204755001002922654e-04 -2.217322180513292551e-04
1.479000000000000000e+03 1.718990325927734375e+00 3.404417276382446289e+00 7.492551230825483799e-05 2.673941780813038349e-04 1.026959071168676019e-04 -2.694764989428222179e-04
1.480000000000000000e+03 3.118827629089355469e+01 -3.915837287902832031e+00 5.446974635124206543e-01 2.981465160846710205e-01 2.528531849384307861e-01 -3.419306278228759766e-01
1.481000000000000000e+03 3.061477279663085938e+01 -3.293856143951416016e+00 6.935642957687377930e-01 3.879920840263366699e-01 3.244669139385223389e-01 -3.790319561958312988e-01
1.482000000000000000e+03 2.535508537292480469e+01 -2.106263637542724609e+00 1.951528638601303101e-01 1.115032061934471130e-01 9.199681878089904785e-02 1.892807632684707642e-01
1.483000000000000000e+03 2.320607185363769531e+01 -2.370948314666748047e+00 3.506858646869659424e-02 -4.432869702577590942e-02 -2.778033958747982979e-03 2.974894046783447266e-01
1.484000000000000000e+03 2.650168418884277344e+01 -2.945477962493896484e+00 1.210583299398422241e-01 1.211819872260093689e-01 7.267209887504577637e-02 1.704775840044021606e-01
1.485000000000000000e+03 3.011552047729492188e+01 -2.575881242752075195e+00 8.198533654212951660e-01 4.893223047256469727e-01 3.927527070045471191e-01 -4.438002407550811768e-01
1.486000000000000000e+03 7.537526130676269531e+00 -3.280683994293212891e+00 9.345032594865188003e-05 2.480175753589719534e-04 1.024403754854574800e-04 -3.751403128262609243e-04
1.487000000000000000e+03 1.070063686370849609e+01 -5.278233051300048828e+00 3.601113276090472937e-04 8.970547933131456375e-04 3.771498450078070164e-04 -6.666587432846426964e-04
1.488000000000000000e+03 3.259593963623046875e+01 -3.407852649688720703e+00 1.423337221145629883e+00 8.015176653861999512e-01 6.674564480781555176e-01 -1.100751876831054688e+00
1.489000000000000000e+03 1.096827030181884766e+01 3.360921144485473633e+00 3.726826980710029602e-04 3.471536329016089439e-04 2.159508876502513885e-04 9.808824688661843538e-05
1.490000000000000000e+03 1.162385463714599609e+01 4.994325637817382812e+00 -2.601936866994947195e-04 -4.886545357294380665e-04 -2.246544754598289728e-04 -8.550420170649886131e-05
1.491000000000000000e+03 3.368268203735351562e+01 -3.983867168426513672e+00 1.788577437400817871e+00 9.601225256919860840e-01 8.246099948883056641e-01 -1.449496507644653320e+00
1.492000000000000000e+03 3.193735694885253906e+01 -3.398312330245971680e+00 1.121904730796813965e+00 6.010383963584899902e-01 5.168829560279846191e-01 -7.823936343193054199e-01
1.493000000000000000e+03 2.911104393005371094e+01 -1.058003425598144531e+01 -9.548766911029815674e-02 2.953239381313323975e-01 5.995088443160057068e-02 2.122225612401962280e-01
1.494000000000000000e+03 3.311603927612304688e+01 -1.025316715240478516e+01 1.102771997451782227e+00 1.163079380989074707e+00 6.797553896903991699e-01 1.562130331993103027e+00
1.495000000000000000e+03 1.077540493011474609e+01 4.943917751312255859e+00 2.078366087516769767e-04 7.043591467663645744e-04 2.736587193794548512e-04 3.549851317075081170e-05
1.496000000000000000e+03 2.835936164855957031e+01 -1.060815048217773438e+01 -2.193422466516494751e-01 2.528336346149444580e-01 1.004741992801427841e-02 7.910156995058059692e-02
1.497000000000000000e+03 2.765767288208007812e+01 -9.985245704650878906e+00 -5.820484757423400879e-01 1.327724605798721313e-01 -1.347828060388565063e-01 -1.030226126313209534e-01
1.498000000000000000e+03 9.774836540222167969e+00 -4.852189540863037109e+00 1.110689481720328331e-04 -1.244768616743385792e-03 -3.401098947506397963e-04 6.149451364763081074e-04
1.499000000000000000e+03 4.640081405639648438e+00 -3.611885070800781250e+00 1.085215480998158455e-04 4.586405339068733156e-05 4.631567935575731099e-05 -2.659238234627991915e-04
1.500000000000000000e+03 7.020929813385009766e+00 -4.690740585327148438e+00 3.127550880890339613e-04 -5.121314316056668758e-04 -5.981290087220259011e-05 2.800634247250854969e-04
1.501000000000000000e+03 8.249276161193847656e+00 -3.208943367004394531e+00 -1.377923472318798304e-04 -7.310795626835897565e-05 -6.327009032247588038e-05 5.805793334729969501e-04
1.502000000000000000e+03 3.891923666000366211e+00 -7.977942943572998047e+00 1.079240813851356506e-03 4.801379400305449963e-04 4.678136319853365421e-04 -3.597995673771947622e-04
1.503000000000000000e+03 3.261406660079956055e+00 -3.993961095809936523e+00 1.400770124746486545e-04 -2.224183263024315238e-04 -2.470239633112214506e-05 -1.387550291838124394e-04
1.504000000000000000e+03 3.621160030364990234e+00 -5.685848712921142578e+00 4.159755189903080463e-04 1.815064606489613652e-04 1.792445982573553920e-04 -4.302185261622071266e-04
1.505000000000000000e+03 2.670748233795166016e+00 -5.585856437683105469e+00 8.783098746789619327e-05 -2.281121269334107637e-04 -4.208434256725013256e-05 4.299435240682214499e-04
1.506000000000000000e+03 2.228237152099609375e+01 -1.055323505401611328e+01 -5.867483019828796387e-01 1.254750192165374756e-01 -1.383819878101348877e-01 -4.751681387424468994e-01
1.507000000000000000e+03 2.442035102844238281e+01 -1.095717144012451172e+01 -4.743555784225463867e-01 1.735157221555709839e-01 -9.025195986032485962e-02 -3.504206240177154541e-01
1.508000000000000000e+03 2.525288009643554688e+01 -1.087928962707519531e+01 -4.456692636013031006e-01 1.778495311737060547e-01 -8.034592121839523315e-02 -2.888956069946289062e-01
1.509000000000000000e+03 3.048170852661132812e+01 -1.116847229003906250e+01 4.602650403976440430e-01 6.438531279563903809e-01 3.312354385852813721e-01 7.052208781242370605e-01
1.510000000000000000e+03 1.171985435485839844e+01 4.150044918060302734e+00 4.175185458734631538e-04 4.862108035013079643e-04 2.711187989916652441e-04 2.010158495977520943e-04
1.511000000000000000e+03 3.125531005859375000e+01 -1.043511962890625000e+01 3.981469869613647461e-01 5.633231401443481445e-01 2.884410321712493896e-01 7.452073097229003906e-01
1.512000000000000000e+03 1.819088745117187500e+01 -1.220211315155029297e+01 -5.614136457443237305e-01 -1.903206557035446167e-01 -2.255202978849411011e-01 -5.415294170379638672e-01
1.513000000000000000e+03 2.759891891479492188e+01 -1.065250396728515625e+01 -3.092702329158782959e-01 2.197517156600952148e-01 -2.685555256903171539e-02 -4.138324037194252014e-02
1.514000000000000000e+03 2.605978202819824219e+01 -1.080131053924560547e+01 -4.133515357971191406e-01 1.810123473405838013e-01 -6.970175355672836304e-02 -2.110728472471237183e-01
1.515000000000000000e+03 2.151904869079589844e+01 -1.103736400604248047e+01 -5.405192375183105469e-01 1.270446181297302246e-01 -1.240423917770385742e-01 -4.957911968231201172e-01
1.516000000000000000e+03 2.268486785888671875e+01 -1.126731777191162109e+01 -4.926388263702392578e-01 1.685613542795181274e-01 -9.722324460744857788e-02 -4.460128545761108398e-01
1.517000000000000000e+03 1.887701034545898438e+01 -1.126562690734863281e+01 -5.467392206192016602e-01 -1.066558510065078735e-01 -1.960185170173645020e-01 -5.390831828117370605e-01
1.518000000000000000e+03 1.962862205505371094e+01 -1.042781257629394531e+01 -5.646581649780273438e-01 -1.246131211519241333e-02 -1.731358468532562256e-01 -5.133229494094848633e-01
1.519000000000000000e+03 1.009205818176269531e+01 9.995906829833984375e+00 -5.171388620510697365e-04 1.054388936609029770e-03 1.611750340089201927e-04 3.138184256386011839e-04
1.520000000000000000e+03 9.996402740478515625e+00 8.481632232666015625e+00 -4.725737089756876230e-04 7.697517285123467445e-04 8.915340004023164511e-05 6.404801388271152973e-04
1.521000000000000000e+03 2.741797924041748047e+00 1.175889301300048828e+01 2.870947355404496193e-03 -6.378488615155220032e-04 6.699295481666922569e-04 -3.813375020399689674e-03
1.522000000000000000e+03 6.347167968750000000e+00 1.745834350585937500e+01 -6.610121577978134155e-02 -8.297789841890335083e-03 -2.231970243155956268e-02 2.147217048332095146e-03
1.523000000000000000e+03 2.969439983367919922e+00 1.636550712585449219e+01 -1.102404948323965073e-02 -8.158562704920768738e-03 -5.754783283919095993e-03 2.327340655028820038e-03
1.524000000000000000e+03 9.976407051086425781e+00 4.940588951110839844e+00 -2.135586983058601618e-04 -5.311639979481697083e-04 -2.234168059658259153e-04 4.525177064351737499e-04
1.525000000000000000e+03 3.770010948181152344e+00 1.041033267974853516e+01 2.919800346717238426e-03 -1.535867690108716488e-03 4.151797620579600334e-04 -1.370156067423522472e-03
1.526000000000000000e+03 7.487622261047363281e+00 -2.444495010375976562e+01 2.517178840935230255e-02 -4.068325459957122803e-01 -1.144982278347015381e-01 -4.398598372936248779e-01
1.527000000000000000e+03 7.728750705718994141e+00 -2.273562431335449219e+01 -1.211109459400177002e-01 -3.874294459819793701e-01 -1.525621116161346436e-01 -4.917802810668945312e-01
1.528000000000000000e+03 2.856330156326293945e+00 -1.903473472595214844e+01 -7.308273017406463623e-02 -5.143184959888458252e-02 -3.735437616705894470e-02 -7.981346547603607178e-02
1.529000000000000000e+03 6.090616703033447266e+00 -1.854988098144531250e+01 -3.455255627632141113e-01 -2.127247303724288940e-02 -1.100394129753112793e-01 -1.355154365301132202e-01
1.530000000000000000e+03 8.922312736511230469e+00 -4.448707103729248047e+00 -8.563664596294984221e-05 1.143637928180396557e-03 3.174003795720636845e-04 -1.640881673665717244e-04
1.531000000000000000e+03 7.590253353118896484e+00 -2.100596046447753906e+01 -3.181663453578948975e-01 -2.764025628566741943e-01 -1.783706694841384888e-01 -4.816643893718719482e-01
1.532000000000000000e+03 2.164552497863769531e+01 7.661190032958984375e+00 1.079074963927268982e-01 3.247392773628234863e-01 1.297940313816070557e-01 -3.458442986011505127e-01
1.533000000000000000e+03 2.128338050842285156e+01 2.244888842105865479e-01 9.181201457977294922e-02 -2.380342185497283936e-01 -4.386666044592857361e-02 1.906748414039611816e-01
1.534000000000000000e+03 9.287643432617187500e+00 9.307763099670410156e+00 1.032683867379091680e-04 -3.193317970726639032e-04 -6.481902528321370482e-05 4.933553864248096943e-04
1.535000000000000000e+03 1.254302215576171875e+01 5.027993679046630859e+00 5.048594903200864792e-04 4.573777550831437111e-04 2.886711736209690571e-04 2.455638314131647348e-04
1.536000000000000000e+03 2.300348663330078125e+01 -1.461549520492553711e+00 1.198035776615142822e-01 -4.471816867589950562e-02 2.252562157809734344e-02 2.651721835136413574e-01
1.537000000000000000e+03 2.122977066040039062e+01 1.367962121963500977e+00 8.601772040128707886e-02 -2.396043837070465088e-01 -4.607599973678588867e-02 1.200286895036697388e-01
1.538000000000000000e+03 8.392674446105957031e+00 -5.141263008117675781e+00 4.106817068532109261e-04 -1.250379951670765877e-03 -2.519094850867986679e-04 1.147486400441266596e-04
1.539000000000000000e+03 8.412229537963867188e+00 1.203291034698486328e+01 -2.507782308384776115e-03 3.573911031708121300e-03 3.198386402800679207e-04 1.642175368033349514e-03
1.540000000000000000e+03 4.874774932861328125e+00 1.038665294647216797e+01 6.937449797987937927e-04 -2.960136393085122108e-03 -6.799174589104950428e-04 2.074825606541708112e-04
1.541000000000000000e+03 7.547304534912109375e+01 1.379287147521972656e+01 -1.001046691089868546e-02 7.830425262451171875e+00 2.346124410629272461e+00 3.840110898017883301e-01
1.542000000000000000e+03 7.553446197509765625e+01 3.103151917457580566e-02 6.474138796329498291e-02 6.999569892883300781e+00 2.119293451309204102e+00 2.288758307695388794e-01
1.543000000000000000e+03 7.430269622802734375e+01 -8.182697296142578125e+00 1.199056580662727356e-01 6.939376354217529297e+00 2.117784500122070312e+00 -2.541188709437847137e-02
1.544000000000000000e+03 7.546356964111328125e+01 -1.523002719879150391e+01 5.081898346543312073e-02 6.995275497436523438e+00 2.113828420639038086e+00 -2.136525809764862061e-01
1.545000000000000000e+03 7.551583099365234375e+01 -1.101796531677246094e+01 7.063002139329910278e-02 6.873450279235839844e+00 2.083224058151245117e+00 -1.084057390689849854e-01
1.546000000000000000e+03 7.677920532226562500e+01 -1.245114517211914062e+01 3.534976392984390259e-02 6.797462940216064453e+00 2.049843788146972656e+00 -1.132629960775375366e-01
1.547000000000000000e+03 7.421549224853515625e+01 -1.239163875579833984e+01 1.020715311169624329e-01 6.999958992004394531e+00 2.130609035491943359e+00 -1.769839078187942505e-01
1.548000000000000000e+03 7.683208465576171875e+01 -6.866587638854980469e+00 4.244697093963623047e-02 6.719651222229003906e+00 2.028629302978515625e+00 1.446006912738084793e-02
1.549000000000000000e+03 7.557478332519531250e+01 -6.836413383483886719e+00 7.716889679431915283e-02 6.837883949279785156e+00 2.074515819549560547e+00 2.065494284033775330e-02
1.550000000000000000e+03 7.558900451660156250e+01 -4.091124057769775391e+00 7.525071501731872559e-02 6.869254112243652344e+00 2.083351373672485352e+00 1.070909351110458374e-01
1.551000000000000000e+03 7.448479461669921875e+01 3.166498947143554688e+01 -5.722180381417274475e-02 8.645393371582031250e+00 2.576451539993286133e+00 1.989296674728393555e-01
1.552000000000000000e+03 7.679534912109375000e+01 1.429164528846740723e+00 3.192385286092758179e-02 6.967490673065185547e+00 2.099824428558349609e+00 2.009912878274917603e-01
1.553000000000000000e+03 7.551065063476562500e+01 1.406224608421325684e+00 5.843249335885047913e-02 7.061518669128417969e+00 2.135985374450683594e+00 2.642308771610260010e-01
1.554000000000000000e+03 7.548576354980468750e+01 6.938673973083496094e+00 2.722356840968132019e-02 7.372635841369628906e+00 2.219957828521728516e+00 3.623002767562866211e-01
1.555000000000000000e+03 7.542242431640625000e+01 -1.806840133666992188e+01 3.382800519466400146e-02 7.113783836364746094e+00 2.144283533096313477e+00 -2.641163170337677002e-01
1.556000000000000000e+03 7.549178314208984375e+01 -2.220969963073730469e+01 5.897791124880313873e-03 7.306218624114990234e+00 2.193634986877441406e+00 -2.916578948497772217e-01
1.557000000000000000e+03 7.557955932617187500e+01 -2.719177484512329102e+00 7.309594005346298218e-02 6.902225494384765625e+00 2.092596530914306641e+00 1.494031995534896851e-01
1.558000000000000000e+03 7.678624725341796875e+01 8.355305671691894531e+00 9.992802515625953674e-03 7.419341564178466797e+00 2.228800296783447266e+00 2.843433022499084473e-01
1.559000000000000000e+03 7.419927215576171875e+01 2.733297586441040039e+00 8.201114833354949951e-02 7.203456878662109375e+00 2.185640335083007812e+00 3.579084277153015137e-01
1.560000000000000000e+03 7.549358367919921875e+01 2.785408973693847656e+00 5.181547999382019043e-02 7.130448818206787109e+00 2.154679298400878906e+00 2.955006659030914307e-01
1.561000000000000000e+03 7.549356842041015625e+01 9.698473930358886719e+00 1.072386838495731354e-02 7.553507804870605469e+00 2.269269466400146484e+00 3.826113939285278320e-01
1.562000000000000000e+03 7.544316864013671875e+01 -1.664593315124511719e+01 4.312253370881080627e-02 7.051002025604248047e+00 2.128237247467041016e+00 -2.407357096672058105e-01
1.563000000000000000e+03 7.541471862792968750e+01 -1.947889709472656250e+01 2.372550591826438904e-02 7.177667140960693359e+00 2.160417795181274414e+00 -2.790049016475677490e-01
1.564000000000000000e+03 7.673651123046875000e+01 -1.806223106384277344e+01 1.836061477661132812e-02 7.030900955200195312e+00 2.114778518676757812e+00 -2.005578130483627319e-01
1.565000000000000000e+03 7.514070129394531250e+01 -2.908051300048828125e+01 -3.554554283618927002e-02 7.642068862915039062e+00 2.281957149505615234e+00 -2.656737267971038818e-01
1.566000000000000000e+03 7.436625671386718750e+01 -2.357474327087402344e+01 -1.645891345106065273e-03 7.411709308624267578e+00 2.223018884658813477e+00 -3.495347797870635986e-01
1.567000000000000000e+03 7.549200439453125000e+01 1.106783771514892578e+01 3.213187679648399353e-03 7.646186828613281250e+00 2.294819831848144531e+00 3.862140774726867676e-01
1.568000000000000000e+03 7.418341827392578125e+01 9.635761260986328125e+00 1.750648394227027893e-02 7.580510139465332031e+00 2.279404878616333008e+00 4.650251567363739014e-01
1.569000000000000000e+03 7.675080871582031250e+01 1.660074806213378906e+01 -1.114704832434654236e-02 8.043263435363769531e+00 2.409634828567504883e+00 2.788522243499755859e-01
1.570000000000000000e+03 7.537789916992187500e+01 1.786209487915039062e+01 -2.462132833898067474e-02 8.094556808471679688e+00 2.420980691909790039e+00 3.600642979145050049e-01
1.571000000000000000e+03 7.524690246582031250e+01 2.059506988525390625e+01 -3.081613779067993164e-02 8.248034477233886719e+00 2.465165376663208008e+00 3.394900858402252197e-01
1.572000000000000000e+03 7.531914520263671875e+01 1.922273254394531250e+01 -2.581371553242206573e-02 8.172218322753906250e+00 2.443921327590942383e+00 3.483476638793945312e-01
1.573000000000000000e+03 7.400624084472656250e+01 1.772374725341796875e+01 -3.936142846941947937e-02 8.052551269531250000e+00 2.403956890106201172e+00 4.404421150684356689e-01
1.574000000000000000e+03 7.550971984863281250e+01 -2.490541458129882812e+01 -1.042254827916622162e-02 7.443059444427490234e+00 2.229790925979614258e+00 -2.905197739601135254e-01
1.575000000000000000e+03 7.674230194091796875e+01 -2.495806694030761719e+01 -4.860509652644395828e-03 7.415772914886474609e+00 2.223273754119873047e+00 -2.246363312005996704e-01
1.576000000000000000e+03 7.417423248291015625e+01 -2.615240287780761719e+01 -2.848891355097293854e-02 7.529227733612060547e+00 2.250221729278564453e+00 -3.407222032546997070e-01
1.577000000000000000e+03 7.286386871337890625e+01 2.746382904052734375e+01 -8.681349456310272217e-02 8.412647247314453125e+00 2.497750282287597656e+00 3.212014734745025635e-01
1.578000000000000000e+03 7.325225067138671875e+01 2.465357017517089844e+01 -6.625520437955856323e-02 8.340968132019042969e+00 2.482413768768310547e+00 3.658249080181121826e-01
1.579000000000000000e+03 7.632196044921875000e+01 2.656042098999023438e+01 -2.381951361894607544e-02 8.621438980102539062e+00 2.579285860061645508e+00 2.086132168769836426e-01
1.580000000000000000e+03 7.472027587890625000e+01 2.644533729553222656e+01 -4.688234999775886536e-02 8.503012657165527344e+00 2.536839008331298828e+00 2.784240841865539551e-01
1.581000000000000000e+03 7.665238952636718750e+01 2.916726303100585938e+01 -2.220563776791095734e-02 8.772553443908691406e+00 2.625104427337646484e+00 1.609168052673339844e-01
1.582000000000000000e+03 7.425233459472656250e+01 2.801968193054199219e+01 -5.858631432056427002e-02 8.523428916931152344e+00 2.539452791213989258e+00 2.664373517036437988e-01
1.583000000000000000e+03 7.186133575439453125e+01 -3.301702499389648438e+01 -1.259829699993133545e-01 7.773549556732177734e+00 2.294270038604736328e+00 -2.954708337783813477e-01
1.584000000000000000e+03 7.358865356445312500e+01 -3.633229064941406250e+01 -1.021896079182624817e-01 7.849046707153320312e+00 2.324057102203369141e+00 -1.684201657772064209e-01
1.585000000000000000e+03 7.599199676513671875e+01 -3.670721817016601562e+01 -4.849694296717643738e-02 7.922368049621582031e+00 2.362161397933959961e+00 -1.022978052496910095e-01
1.586000000000000000e+03 7.414531707763671875e+01 3.337223052978515625e+01 -7.490892708301544189e-02 8.658475875854492188e+00 2.575070142745971680e+00 1.785142421722412109e-01
1.587000000000000000e+03 7.349596405029296875e+01 2.954853820800781250e+01 -7.221784442663192749e-02 8.514142036437988281e+00 2.532577037811279297e+00 2.637310624122619629e-01
1.588000000000000000e+03 7.624944305419921875e+01 -3.335306167602539062e+01 -3.201301023364067078e-02 7.818892478942871094e+00 2.336063861846923828e+00 -1.560170352458953857e-01
1.589000000000000000e+03 7.508238983154296875e+01 -3.044489669799804688e+01 -3.873757645487785339e-02 7.687494754791259766e+00 2.294627189636230469e+00 -2.480475008487701416e-01
1.590000000000000000e+03 4.200473308563232422e+00 2.222108459472656250e+01 -5.363152176141738892e-02 -7.140760868787765503e-02 -3.751173987984657288e-02 1.498762518167495728e-01
1.591000000000000000e+03 2.884545564651489258e+00 1.767884063720703125e+01 -1.846748404204845428e-02 -1.656660996377468109e-02 -1.051022857427597046e-02 1.611916162073612213e-02
1.592000000000000000e+03 3.679826259613037109e+00 -1.603468513488769531e+01 -1.546964794397354126e-02 -4.111070558428764343e-02 -1.697410643100738525e-02 2.226803917437791824e-03
1.593000000000000000e+03 3.524187088012695312e+00 -1.398635292053222656e+01 8.086152374744415283e-03 -2.134815976023674011e-02 -3.978602588176727295e-03 5.339041352272033691e-03
1.594000000000000000e+03 5.305708885192871094e+00 1.988395309448242188e+01 -1.507912725210189819e-01 6.932903081178665161e-03 -4.315751045942306519e-02 9.254600852727890015e-02
1.595000000000000000e+03 3.592864513397216797e+00 2.048603630065917969e+01 -7.213270664215087891e-02 -3.159954026341438293e-02 -3.111967630684375763e-02 8.916448801755905151e-02
1.596000000000000000e+03 4.702252864837646484e+00 2.103348922729492188e+01 -8.694041520357131958e-02 -3.901502490043640137e-02 -3.778662905097007751e-02 1.426398605108261108e-01
1.597000000000000000e+03 4.513396739959716797e+00 -1.678435707092285156e+01 -3.081021830439567566e-02 -3.946714848279953003e-02 -2.108320966362953186e-02 -3.820000682026147842e-03
1.598000000000000000e+03 4.695623874664306641e+00 1.406097412109375000e+01 1.026626792736351490e-03 -1.135406177490949631e-02 -3.098230576142668724e-03 3.746146394405514002e-04
1.599000000000000000e+03 4.816009521484375000e+00 1.816853713989257812e+01 -6.912624090909957886e-02 -1.033634319901466370e-02 -2.383877523243427277e-02 2.772549726068973541e-02
1.600000000000000000e+03 3.949960708618164062e+00 2.560333251953125000e+01 1.139892172068357468e-02 -1.569628715515136719e-01 -4.366918653249740601e-02 1.655389368534088135e-01
1.601000000000000000e+03 6.176029682159423828e+00 2.924241638183593750e+01 6.316085904836654663e-02 -7.274564355611801147e-02 -2.875437028706073761e-03 1.550814062356948853e-01
1.602000000000000000e+03 7.009704113006591797e+00 -2.322182655334472656e+01 -8.448126167058944702e-02 -3.570722341537475586e-01 -1.324660480022430420e-01 -4.530331492424011230e-01
1.603000000000000000e+03 3.836693763732910156e+00 1.277589893341064453e+01 2.346755471080541611e-03 -5.339059513062238693e-03 -8.976912358775734901e-04 -1.666740048676729202e-03
1.604000000000000000e+03 5.125690937042236328e+00 -1.381160449981689453e+01 8.369425311684608459e-03 -1.750025711953639984e-02 -2.739249961450695992e-03 -6.760850083082914352e-03
1.605000000000000000e+03 2.827363729476928711e+00 -9.316581726074218750e+00 1.611975836567580700e-03 2.416072093183174729e-04 5.560748977586627007e-04 9.413649095222353935e-04
1.606000000000000000e+03 2.837189435958862305e+00 -1.067972469329833984e+01 3.095292951911687851e-03 -2.217774745076894760e-03 2.632554387673735619e-04 2.116958610713481903e-03
1.607000000000000000e+03 5.137327671051025391e+00 -1.952178192138671875e+01 -2.121655941009521484e-01 -9.034271538257598877e-02 -9.075248986482620239e-02 -2.103400379419326782e-01
1.608000000000000000e+03 3.184158802032470703e+00 -2.303553199768066406e+01 -4.028204083442687988e-02 -2.766681015491485596e-01 -9.508504718542098999e-02 -2.491375058889389038e-01
1.609000000000000000e+03 4.810908317565917969e+00 -2.115076637268066406e+01 -1.539742946624755859e-01 -1.853573173284530640e-01 -1.017994880676269531e-01 -2.952237427234649658e-01
1.610000000000000000e+03 5.905440330505371094e+00 2.334359359741210938e+01 -3.013236261904239655e-02 -7.351414114236831665e-02 -3.109395131468772888e-02 1.957800686359405518e-01
1.611000000000000000e+03 4.276896953582763672e+00 2.679235839843750000e+01 1.950955763459205627e-02 -1.652471274137496948e-01 -4.372127354145050049e-02 1.610894203186035156e-01
1.612000000000000000e+03 3.927837133407592773e+00 2.343030166625976562e+01 -1.754011400043964386e-02 -1.115851402282714844e-01 -3.873757645487785339e-02 1.600182652473449707e-01
1.613000000000000000e+03 3.426995515823364258e+00 -2.460575866699218750e+01 -1.535453926771879196e-02 -3.718847334384918213e-01 -1.161717846989631653e-01 -2.878551483154296875e-01
1.614000000000000000e+03 5.067970752716064453e+00 -2.220224571228027344e+01 -1.252439916133880615e-01 -2.388036698102951050e-01 -1.092142984271049500e-01 -3.404665589332580566e-01
1.615000000000000000e+03 6.237959861755371094e+00 -2.469647216796875000e+01 -3.518490702845156193e-04 -3.845004141330718994e-01 -1.154556795954704285e-01 -4.130855202674865723e-01
1.616000000000000000e+03 3.966271638870239258e+00 -3.169745635986328125e+01 6.357940286397933960e-02 -6.697905063629150391e-01 -1.818633228540420532e-01 -2.051575034856796265e-01
1.617000000000000000e+03 4.973318576812744141e+00 -2.893520545959472656e+01 6.255562603473663330e-02 -5.201188325881958008e-01 -1.372689604759216309e-01 -3.025349080562591553e-01
1.618000000000000000e+03 4.849016666412353516e+00 9.126389503479003906e+00 2.546310191974043846e-03 -1.153748598881065845e-03 4.177684604655951262e-04 -2.627306676004081964e-04
1.619000000000000000e+03 5.776986598968505859e+00 3.573562622070312500e+01 5.871142074465751648e-02 -9.972261637449264526e-02 -1.230335701256990433e-02 7.059065997600555420e-02
1.620000000000000000e+03 4.518961429595947266e+00 3.596526336669921875e+01 5.963849276304244995e-02 -2.381862699985504150e-01 -5.356433242559432983e-02 7.352375984191894531e-02
1.621000000000000000e+03 6.344803810119628906e+00 -1.154832267761230469e+01 -2.554912352934479713e-04 6.198018789291381836e-03 1.782758277840912342e-03 -4.628667607903480530e-03
1.622000000000000000e+03 2.808993339538574219e+00 -1.210183906555175781e+01 5.577981472015380859e-03 -3.398980479687452316e-03 6.537003209814429283e-04 5.623799748718738556e-03
1.623000000000000000e+03 4.058094024658203125e+00 -1.068890094757080078e+01 4.269778262823820114e-03 -1.972930971533060074e-03 6.890542572364211082e-04 9.754165075719356537e-04
1.624000000000000000e+03 5.966776371002197266e+00 9.131361961364746094e+00 -4.038468177895992994e-04 -1.222727238200604916e-03 -4.879722255282104015e-04 7.870947592891752720e-04
1.625000000000000000e+03 3.752696752548217773e+00 -6.777027606964111328e+00 1.829518732847645879e-04 -2.415258786641061306e-04 -1.757220161380246282e-05 5.817681085318326950e-04
1.626000000000000000e+03 7.443272590637207031e+00 -3.080658340454101562e+01 1.390418112277984619e-01 -3.754514455795288086e-01 -7.092288136482238770e-02 -2.673644125461578369e-01
1.627000000000000000e+03 5.167754173278808594e+00 -3.010141944885253906e+01 9.307818114757537842e-02 -5.262308120727539062e-01 -1.299457848072052002e-01 -2.687648832798004150e-01
1.628000000000000000e+03 5.680362701416015625e+00 -3.146811294555664062e+01 8.968047797679901123e-02 -5.045987963676452637e-01 -1.244755014777183533e-01 -2.497439533472061157e-01
1.629000000000000000e+03 4.113455295562744141e+00 -3.310301208496093750e+01 5.546793714165687561e-02 -7.052343487739562988e-01 -1.949299275875091553e-01 -1.811015456914901733e-01
1.630000000000000000e+03 4.509605407714843750e+00 2.819346046447753906e+01 3.489368408918380737e-02 -1.755858212709426880e-01 -4.220764338970184326e-02 1.561195999383926392e-01
1.631000000000000000e+03 5.834647178649902344e+00 3.362150573730468750e+01 5.375993251800537109e-02 -1.152600198984146118e-01 -1.845002733170986176e-02 7.966455072164535522e-02
1.632000000000000000e+03 4.895852088928222656e+00 3.473001098632812500e+01 4.598549753427505493e-02 -1.875305026769638062e-01 -4.246350377798080444e-02 7.510165870189666748e-02
1.633000000000000000e+03 5.101510524749755859e+00 3.249883651733398438e+01 4.130385443568229675e-02 -1.721175909042358398e-01 -3.924412280321121216e-02 9.585008025169372559e-02
1.634000000000000000e+03 3.716298341751098633e+00 7.811371803283691406e+00 1.689581898972392082e-03 -2.852369798347353935e-04 4.213034699205309153e-04 -6.188425468280911446e-04
1.635000000000000000e+03 3.523837804794311523e+00 -4.760370254516601562e+00 -8.474433707306161523e-05 -1.355570361738500651e-06 -2.582997149147558957e-05 2.257529849885031581e-04
1.636000000000000000e+03 5.739726066589355469e+00 5.659526824951171875e+00 1.551302499137818813e-03 -3.644716634880751371e-04 3.560492477845400572e-04 -5.592663073912262917e-04
1.637000000000000000e+03 6.506445884704589844e+00 -3.599585342407226562e+01 1.067542731761932373e-01 -4.951032400131225586e-01 -1.165046915411949158e-01 -1.582802832126617432e-01
1.638000000000000000e+03 7.468469619750976562e+00 -7.245018959045410156e+00 -3.677149361465126276e-04 1.333459047600626945e-03 2.897232188843190670e-04 3.337209054734557867e-04
1.639000000000000000e+03 1.443229007720947266e+01 -1.773503112792968750e+01 -5.579892396926879883e-01 -4.869700670242309570e-01 -3.134877979755401611e-01 -4.121995866298675537e-01
1.640000000000000000e+03 1.787882995605468750e+01 -1.513632678985595703e+01 -4.639532566070556641e-01 -1.159830465912818909e-01 -1.739808917045593262e-01 -3.980664312839508057e-01
1.641000000000000000e+03 2.090844917297363281e+01 -1.171946620941162109e+01 -5.009372830390930176e-01 1.125904843211174011e-01 -1.165040358901023865e-01 -4.888324737548828125e-01
1.642000000000000000e+03 4.272365570068359375e+00 1.930702209472656250e+01 -6.858079135417938232e-02 -1.452607568353414536e-02 -2.493206039071083069e-02 5.248966068029403687e-02
1.643000000000000000e+03 1.090655708312988281e+01 -2.095019531250000000e+01 -2.082558125257492065e-01 -5.688192248344421387e-01 -2.331225275993347168e-01 -4.510115087032318115e-01
1.644000000000000000e+03 2.105852317810058594e+01 1.023487663269042969e+01 7.388637214899063110e-02 4.522728323936462402e-01 1.578477621078491211e-01 -3.688251674175262451e-01
1.645000000000000000e+03 1.686880683898925781e+01 -1.883223342895507812e+01 -2.249250859022140503e-01 -6.165691092610359192e-02 -8.597459644079208374e-02 -1.766296178102493286e-01
1.646000000000000000e+03 6.963896274566650391e+00 -1.039376449584960938e+01 4.864327202085405588e-04 -1.354458276182413101e-03 -2.604076580610126257e-04 -6.610234268009662628e-04
1.647000000000000000e+03 2.029246520996093750e+01 1.302955150604248047e+01 1.536464970558881760e-02 5.810201764106750488e-01 1.789154559373855591e-01 -3.363010287284851074e-01
1.648000000000000000e+03 1.180428886413574219e+01 2.171518898010253906e+01 -7.323826104402542114e-02 -1.451569260098040104e-03 -2.240695059299468994e-02 7.377217710018157959e-02
1.649000000000000000e+03 8.619359016418457031e+00 2.240637969970703125e+01 -8.280834555625915527e-02 -5.128095299005508423e-02 -4.022679105401039124e-02 2.065973430871963501e-01
1.650000000000000000e+03 2.229545783996582031e+01 5.481852531433105469e+00 1.659381389617919922e-01 3.029029667377471924e-01 1.406523287296295166e-01 -2.798080742359161377e-01
1.651000000000000000e+03 2.193331909179687500e+01 6.490728378295898438e+00 1.309593021869659424e-01 2.893377244472503662e-01 1.260891109704971313e-01 -3.097913265228271484e-01
1.652000000000000000e+03 1.848287773132324219e+01 -1.396501541137695312e+01 -4.980599582195281982e-01 -8.465153723955154419e-02 -1.748134493827819824e-01 -4.464183151721954346e-01
1.653000000000000000e+03 3.912645101547241211e+00 -1.204034423828125000e+01 6.659098435193300247e-03 -9.825261309742927551e-03 -9.498489671386778355e-04 2.098216791637241840e-04
1.654000000000000000e+03 1.720327186584472656e+01 -1.644315719604492188e+01 -4.234238266944885254e-01 -1.621497124433517456e-01 -1.756720691919326782e-01 -3.329157531261444092e-01
1.655000000000000000e+03 7.461213684082031250e+01 3.728129196166992188e+01 -6.580639630556106567e-02 8.809315681457519531e+00 2.623052835464477539e+00 9.752706438302993774e-02
1.656000000000000000e+03 5.679715633392333984e+00 1.560513687133789062e+01 -9.533723816275596619e-03 -1.446211338043212891e-02 -7.198750972747802734e-03 3.672113176435232162e-03
1.657000000000000000e+03 1.963993263244628906e+01 -1.197134685516357422e+01 -5.304512977600097656e-01 1.369349937885999680e-02 -1.550273299217224121e-01 -5.108624696731567383e-01
1.658000000000000000e+03 1.804956817626953125e+01 1.891043090820312500e+01 -1.009317934513092041e-01 6.823610067367553711e-01 1.744287610054016113e-01 -2.791286408901214600e-01
1.659000000000000000e+03 2.281556320190429688e+01 4.726489067077636719e+00 2.061527222394943237e-01 3.569691479206085205e-01 1.689365655183792114e-01 -2.697013020515441895e-01
1.660000000000000000e+03 1.927585792541503906e+01 1.594752597808837891e+01 -7.279520481824874878e-02 6.690816879272460938e-01 1.788859367370605469e-01 -2.891944348812103271e-01
1.661000000000000000e+03 1.451668930053710938e+01 2.023498916625976562e+01 -1.623120605945587158e-01 1.979598701000213623e-01 1.069433894008398056e-02 -7.593575119972229004e-02
1.662000000000000000e+03 1.376297569274902344e+01 -1.878540420532226562e+01 -4.472404122352600098e-01 -5.004414916038513184e-01 -2.843045592308044434e-01 -3.468973338603973389e-01
1.663000000000000000e+03 1.476234436035156250e+01 -1.963832283020019531e+01 -2.753620147705078125e-01 -3.239023387432098389e-01 -1.797793060541152954e-01 -2.494537830352783203e-01
1.664000000000000000e+03 2.381797027587890625e+01 8.426448822021484375e+00 1.918053328990936279e-01 1.009164571762084961e+00 3.602909743785858154e-01 -6.123352050781250000e-01
1.665000000000000000e+03 3.665472793579101562e+01 -4.456526756286621094e+00 3.825565576553344727e+00 5.765988826751708984e+00 2.877466201782226562e+00 -5.174767494201660156e+00
1.666000000000000000e+03 3.608287811279296875e+01 -4.303243637084960938e+00 3.507294654846191406e+00 3.771218299865722656e+00 2.183553934097290039e+00 -4.127738475799560547e+00
1.667000000000000000e+03 3.642403411865234375e+01 -4.442522525787353516e+00 3.761333227157592773e+00 4.787622928619384766e+00 2.564686775207519531e+00 -4.698230266571044922e+00
1.668000000000000000e+03 3.720344161987304688e+01 -4.557277679443359375e+00 3.654083013534545898e+00 8.945322990417480469e+00 3.779821872711181641e+00 -6.057167053222656250e+00
1.669000000000000000e+03 3.685996627807617188e+01 -4.502964496612548828e+00 3.848729133605957031e+00 6.721769809722900391e+00 3.171149730682373047e+00 -5.534346580505371094e+00
1.670000000000000000e+03 3.565392303466796875e+01 -4.328273296356201172e+00 3.164354562759399414e+00 2.690042495727539062e+00 1.756319165229797363e+00 -3.328148603439331055e+00
1.671000000000000000e+03 3.737352752685546875e+01 -4.549976348876953125e+00 3.438750505447387695e+00 1.017292308807373047e+01 4.083502292633056641e+00 -6.151557922363281250e+00
1.672000000000000000e+03 3.953075027465820312e+01 -5.157839298248291016e+00 5.459312438964843750e+00 1.832850646972656250e+01 7.136345863342285156e+00 1.727319598197937012e+00
1.673000000000000000e+03 3.816916275024414062e+01 -8.990100860595703125e+00 1.332446336746215820e+00 1.469001483917236328e+01 4.806738376617431641e+00 4.336762905120849609e+00
1.674000000000000000e+03 3.886201858520507812e+01 -4.757104873657226562e+00 2.597530603408813477e+00 1.867725181579589844e+01 6.382434844970703125e+00 -1.312626600265502930e+00
1.675000000000000000e+03 3.869030761718750000e+01 -9.120079994201660156e+00 1.128409385681152344e+00 1.594327354431152344e+01 5.121504783630371094e+00 2.526058673858642578e+00
1.676000000000000000e+03 3.925202560424804688e+01 -8.900319099426269531e+00 1.983133196830749512e+00 1.689854812622070312e+01 5.664504528045654297e+00 3.229056894779205322e-01
1.677000000000000000e+03 3.820604324340820312e+01 -4.366821765899658203e+00 1.967400550842285156e+00 1.532783031463623047e+01 5.188569068908691406e+00 -4.294869899749755859e+00
1.678000000000000000e+03 3.908731842041015625e+01 -4.073170661926269531e+00 1.835163593292236328e+00 1.616947174072265625e+01 5.401390552520751953e+00 -1.309519648551940918e+00
1.679000000000000000e+03 4.007532119750976562e+01 -8.062250137329101562e+00 5.903923988342285156e+00 1.619076728820800781e+01 6.628407001495361328e+00 -2.240214824676513672e+00
1.680000000000000000e+03 4.054031372070312500e+01 -6.721917629241943359e+00 9.587699890136718750e+00 1.385295009613037109e+01 7.032195091247558594e+00 -4.705556929111480713e-01
1.681000000000000000e+03 4.013779449462890625e+01 -5.215873241424560547e+00 6.433936595916748047e+00 1.584866523742675781e+01 6.684780597686767578e+00 2.097109794616699219e+00
1.682000000000000000e+03 4.074315261840820312e+01 -6.213991641998291016e+00 8.820164680480957031e+00 1.344247341156005859e+01 6.678791522979736328e+00 7.437813878059387207e-01
1.683000000000000000e+03 3.631929397583007812e+01 -9.034567832946777344e+00 2.798404455184936523e+00 4.818529129028320312e+00 2.285079956054687500e+00 4.519639968872070312e+00
1.684000000000000000e+03 4.049071502685546875e+01 -7.555932521820068359e+00 7.808504104614257812e+00 1.452902793884277344e+01 6.701259613037109375e+00 -1.983324646949768066e+00
1.685000000000000000e+03 3.578503417968750000e+01 -9.105252265930175781e+00 2.476174592971801758e+00 3.227300167083740234e+00 1.711042404174804688e+00 3.584618568420410156e+00
1.686000000000000000e+03 3.598669433593750000e+01 -9.134154319763183594e+00 2.669466495513916016e+00 3.886572360992431641e+00 1.966811656951904297e+00 3.997723579406738281e+00
1.687000000000000000e+03 3.540687561035156250e+01 -9.506849288940429688e+00 2.174592971801757812e+00 2.960160970687866211e+00 1.540426254272460938e+00 3.274014949798583984e+00
1.688000000000000000e+03 3.672724533081054688e+01 -9.658318519592285156e+00 2.202556133270263672e+00 6.999580383300781250e+00 2.760641098022460938e+00 4.872196674346923828e+00
1.689000000000000000e+03 3.353821563720703125e+01 -1.077364063262939453e+01 1.369023442268371582e+00 1.821019887924194336e+00 9.570129513740539551e-01 2.064939498901367188e+00
1.690000000000000000e+03 3.191362953186035156e+01 -1.036727046966552734e+01 6.084723472595214844e-01 7.087535858154296875e-01 3.951677680015563965e-01 9.801190495491027832e-01
1.691000000000000000e+03 3.245613098144531250e+01 -1.087747859954833984e+01 1.001252293586730957e+00 1.167257070541381836e+00 6.505528092384338379e-01 1.443572759628295898e+00
1.692000000000000000e+03 2.384477996826171875e+01 -2.575759887695312500e+00 3.881223499774932861e-02 -1.079103071242570877e-02 8.406361564993858337e-03 2.898203134536743164e-01
1.693000000000000000e+03 2.358938217163085938e+01 -1.765236496925354004e+00 1.191318556666374207e-01 -6.609244737774133682e-03 3.375678509473800659e-02 2.633265852928161621e-01
1.694000000000000000e+03 2.237517356872558594e+01 -1.085686445236206055e+00 1.098896265029907227e-01 -1.009638607501983643e-01 2.677729586139321327e-03 2.533243894577026367e-01
1.695000000000000000e+03 3.599669647216796875e+01 -9.332917213439941406e+00 2.492322683334350586e+00 4.031046867370605469e+00 1.957010865211486816e+00 3.996915578842163086e+00
1.696000000000000000e+03 3.453014373779296875e+01 -1.042466640472412109e+01 1.714119315147399902e+00 2.553797006607055664e+00 1.280374884605407715e+00 2.720402002334594727e+00
1.697000000000000000e+03 2.412058830261230469e+01 -2.016465187072753906e+00 1.136592626571655273e-01 2.273122407495975494e-02 4.091714695096015930e-02 2.596713602542877197e-01
1.698000000000000000e+03 2.664356613159179688e+01 -1.116772294044494629e+00 5.025510787963867188e-01 3.367798030376434326e-01 2.517992556095123291e-01 -6.695218384265899658e-02
1.699000000000000000e+03 2.354774284362792969e+01 -8.542750030755996704e-02 2.484162151813507080e-01 8.153624832630157471e-02 9.898573905229568481e-02 1.333396583795547485e-01
1.700000000000000000e+03 3.438100433349609375e+01 -4.366816043853759766e+00 2.018858432769775391e+00 1.033394694328308105e+00 9.156759381294250488e-01 -1.681168317794799805e+00
1.701000000000000000e+03 2.602375030517578125e+01 -2.244493722915649414e+00 2.303729206323623657e-01 1.501607894897460938e-01 1.141601130366325378e-01 1.431048512458801270e-01
1.702000000000000000e+03 3.357330322265625000e+00 4.697059154510498047e+00 4.681169812101870775e-04 4.763420729432255030e-04 2.833377220667898655e-04 -4.221017006784677505e-04
1.703000000000000000e+03 4.738129138946533203e+00 4.230256080627441406e+00 6.031074444763362408e-04 2.440524549456313252e-04 2.541479771025478840e-04 -3.511389077175408602e-04
1.704000000000000000e+03 7.021212577819824219e+00 5.612554550170898438e+00 6.552471895702183247e-04 1.684184826444834471e-05 2.016267098952084780e-04 -6.037617276888340712e-05
1.705000000000000000e+03 6.584158897399902344e+00 4.065608501434326172e+00 -3.298625233583152294e-04 -1.660514099057763815e-04 -1.487741828896105289e-04 2.573604288045316935e-04
1.706000000000000000e+03 5.157725334167480469e+00 4.718123435974121094e+00 9.895575931295752525e-04 -5.337250768207013607e-04 1.367497461615130305e-04 3.105600480921566486e-04
1.707000000000000000e+03 5.317364215850830078e+00 4.057096481323242188e+00 -1.987794676097109914e-04 -2.006847789743915200e-04 -1.198392710648477077e-04 -9.632226283429190516e-05
1.708000000000000000e+03 2.871401214599609375e+01 -2.393439292907714844e+00 5.889660120010375977e-01 3.555364310741424561e-01 2.833507359027862549e-01 -1.863094717264175415e-01
1.709000000000000000e+03 2.994109535217285156e+01 -3.200350522994995117e+00 5.664889812469482422e-01 3.151027858257293701e-01 2.644775211811065674e-01 -2.502169907093048096e-01
1.710000000000000000e+03 8.489261627197265625e+00 4.944674491882324219e+00 -4.204457800369709730e-04 -3.107329830527305603e-04 -2.193536201957613230e-04 4.201379779260605574e-04
1.711000000000000000e+03 7.252771377563476562e+00 4.073533535003662109e+00 6.669492577202618122e-04 1.013958899420686066e-04 2.305035450262948871e-04 -1.599835813976824284e-04
1.712000000000000000e+03 2.733239364624023438e+01 -2.397863864898681641e+00 3.618757724761962891e-01 2.354508787393569946e-01 1.791979968547821045e-01 2.295259200036525726e-02
1.713000000000000000e+03 2.800410270690917969e+01 -2.385854482650756836e+00 4.609011113643646240e-01 2.785604894161224365e-01 2.218384742736816406e-01 -7.258186489343643188e-02
1.714000000000000000e+03 9.240949630737304688e+00 7.928533077239990234e+00 7.587937870994210243e-04 -6.115414435043931007e-04 4.417570016812533140e-05 3.916953864973038435e-04
1.715000000000000000e+03 2.807208824157714844e+01 -1.730708718299865723e+00 6.279486417770385742e-01 3.963920474052429199e-01 3.073022067546844482e-01 -1.900809705257415771e-01
1.716000000000000000e+03 3.075389289855957031e+01 -2.727287292480468750e+00 9.714446067810058594e-01 5.887871980667114258e-01 4.680695533752441406e-01 -6.020540595054626465e-01
1.717000000000000000e+03 2.883078575134277344e+01 -1.709713697433471680e+00 7.648417353630065918e-01 5.078500509262084961e-01 3.818075358867645264e-01 -3.443009257316589355e-01
1.718000000000000000e+03 8.414132118225097656e+00 -3.919695615768432617e+00 2.650205860845744610e-04 -1.685121678747236729e-04 2.895252509915735573e-05 -7.411281112581491470e-04
1.719000000000000000e+03 5.922507286071777344e+00 -6.559074401855468750e+00 -6.688118446618318558e-05 6.325952313090965617e-07 -1.987457653740420938e-05 2.753622829914093018e-04
1.720000000000000000e+03 7.262708663940429688e+00 -5.249618053436279297e+00 4.511031147558242083e-05 -1.226653839694336057e-04 -2.326652429474052042e-05 -2.300016494700685143e-04
1.721000000000000000e+03 6.924283027648925781e+00 -4.040367603302001953e+00 4.246217486070236191e-06 4.661225248128175735e-04 1.411106204614043236e-04 -3.815130621660500765e-04
1.722000000000000000e+03 6.211854934692382812e+00 -4.120342731475830078e+00 -4.060734136146493256e-05 -6.957752339076250792e-05 -3.305546124465763569e-05 2.651491668075323105e-04
1.723000000000000000e+03 5.756764888763427734e+00 -4.965720176696777344e+00 -2.013293851632624865e-04 2.336453471798449755e-04 9.694788786873687059e-06 9.300123201683163643e-05
1.724000000000000000e+03 3.056277656555175781e+01 -1.049621677398681641e+01 2.078051865100860596e-01 4.516366422176361084e-01 1.978325396776199341e-01 5.417811870574951172e-01
1.725000000000000000e+03 9.085383415222167969e+00 -3.802675247192382812e+00 -4.941176739521324635e-04 2.022148837568238378e-04 -8.757083560340106487e-05 8.356923353858292103e-04
1.726000000000000000e+03 2.365962409973144531e+01 -1.196664619445800781e+01 -3.272987008094787598e-01 2.400912791490554810e-01 -2.616222389042377472e-02 -3.459064960479736328e-01
1.727000000000000000e+03 2.984556198120117188e+01 -1.054607391357421875e+01 4.545441642403602600e-02 3.573802113533020020e-01 1.208503842353820801e-01 3.636881113052368164e-01
1.728000000000000000e+03 2.975841712951660156e+01 -1.123534870147705078e+01 3.004648983478546143e-01 5.274260044097900391e-01 2.483672648668289185e-01 5.061855316162109375e-01
1.729000000000000000e+03 2.830353927612304688e+01 -1.126443862915039062e+01 2.213515341281890869e-02 3.782986104488372803e-01 1.201301291584968567e-01 1.766823232173919678e-01
1.730000000000000000e+03 2.683720588684082031e+01 -1.072141647338867188e+01 -3.639257550239562988e-01 1.909382492303848267e-01 -5.189625173807144165e-02 -1.332717984914779663e-01
1.731000000000000000e+03 2.758128738403320312e+01 -1.130636882781982422e+01 -8.010542392730712891e-02 3.168058693408966064e-01 7.101013511419296265e-02 4.466625303030014038e-02
1.732000000000000000e+03 1.087875461578369141e+01 4.148238182067871094e+00 -2.399431250523775816e-04 -4.259710549376904964e-04 -1.997742510866373777e-04 6.999972538324072957e-05
1.733000000000000000e+03 1.142239952087402344e+01 5.877943038940429688e+00 2.676612639334052801e-04 6.183337536640465260e-04 2.657985023688524961e-04 2.292939170729368925e-04
1.734000000000000000e+03 3.183960342407226562e+01 -1.097803878784179688e+01 8.094102740287780762e-01 9.591636061668395996e-01 5.305721759796142578e-01 1.175265789031982422e+00
1.735000000000000000e+03 3.316237640380859375e+01 -3.492633819580078125e+00 1.682229876518249512e+00 1.004439592361450195e+00 8.060008287429809570e-01 -1.375563979148864746e+00
1.736000000000000000e+03 3.197601318359375000e+01 -2.854929924011230469e+00 1.339097738265991211e+00 8.104940652847290039e-01 6.448775529861450195e-01 -9.991638660430908203e-01
1.737000000000000000e+03 2.902732276916503906e+01 -1.126548957824707031e+01 1.504983007907867432e-01 4.303757548332214355e-01 1.742622107267379761e-01 3.315202593803405762e-01
1.738000000000000000e+03 2.529337692260742188e+01 -1.168874835968017578e+01 -2.493363320827484131e-01 2.587741613388061523e-01 2.831345191225409508e-03 -2.189745008945465088e-01
1.739000000000000000e+03 2.354747390747070312e+01 -1.104406452178955078e+01 -4.942024052143096924e-01 1.691480576992034912e-01 -9.751630574464797974e-02 -4.089819788932800293e-01
1.740000000000000000e+03 2.460131263732910156e+01 -1.271546268463134766e+01 -1.205076128244400024e-01 3.443812429904937744e-01 6.716208904981613159e-02 -1.902183294296264648e-01
1.741000000000000000e+03 2.608827590942382812e+01 -1.155364227294921875e+01 -2.011717110872268677e-01 2.701052725315093994e-01 2.068006433546543121e-02 -1.421179026365280151e-01
1.742000000000000000e+03 2.026485443115234375e+01 -1.116380691528320312e+01 -5.473973751068115234e-01 5.508615821599960327e-02 -1.476933658123016357e-01 -5.231254696846008301e-01
1.743000000000000000e+03 2.196312332153320312e+01 -1.161731433868408203e+01 -4.747006297111511230e-01 1.591173112392425537e-01 -9.467499703168869019e-02 -4.617611169815063477e-01
1.744000000000000000e+03 2.447790527343750000e+01 -1.182368373870849609e+01 -2.917830049991607666e-01 2.463609129190444946e-01 -1.362662669271230698e-02 -2.902786433696746826e-01
1.745000000000000000e+03 2.171365547180175781e+01 -5.894204378128051758e-01 9.749028831720352173e-02 -1.800771951675415039e-01 -2.477607131004333496e-02 2.293252050876617432e-01
1.746000000000000000e+03 2.136717414855957031e+01 8.916201591491699219e+00 9.199360758066177368e-02 3.870530128479003906e-01 1.437139958143234253e-01 -3.624250888824462891e-01
1.747000000000000000e+03 7.209962368011474609e+00 1.165830230712890625e+01 2.716499147936701775e-03 -1.158220227807760239e-03 4.674836818594485521e-04 2.841849112883210182e-03
1.748000000000000000e+03 6.944095134735107422e+00 1.285607814788818359e+01 -2.613812219351530075e-03 -1.986996736377477646e-03 -1.380242756567895412e-03 5.144895520061254501e-03
1.749000000000000000e+03 8.672194480895996094e+00 8.622629165649414062e+00 -6.629008566960692406e-04 1.448081340640783310e-03 2.355541510041803122e-04 8.394653559662401676e-04
1.750000000000000000e+03 8.521109580993652344e+00 7.420852184295654297e+00 -4.265641327947378159e-04 9.514272678643465042e-04 1.574589405208826065e-04 -1.141866232501342893e-04
1.751000000000000000e+03 4.865422248840332031e+00 -1.217963314056396484e+01 6.126827560365200043e-03 -6.335410289466381073e-03 -6.257489440031349659e-05 -2.847743453457951546e-03
1.752000000000000000e+03 9.216652870178222656e+00 4.957831382751464844e+00 6.315147038549184799e-04 3.512757539283484221e-04 2.948371402453631163e-04 -1.861662458395585418e-04
1.753000000000000000e+03 1.058103561401367188e+01 7.612173557281494141e+00 3.845229512080550194e-04 2.511583734303712845e-04 1.907044061226770282e-04 7.645540608791634440e-05
1.754000000000000000e+03 5.762275695800781250e+00 -1.271472835540771484e+01 6.276990287005901337e-03 -5.636394955217838287e-03 1.921786024468019605e-04 -1.111116446554660797e-02
1.755000000000000000e+03 1.232634162902832031e+01 6.033667564392089844e+00 -4.809728416148573160e-04 -3.078462323173880577e-04 -2.366457192692905664e-04 -1.365712669212371111e-04
1.756000000000000000e+03 7.226853847503662109e+00 1.037841987609863281e+01 -1.489276532083749771e-03 -7.988206925801932812e-04 -6.864291499368846416e-04 2.080225385725498199e-03
1.757000000000000000e+03 2.613942861557006836e+00 6.366714000701904297e+00 1.048131962306797504e-03 1.195611403090879321e-04 3.503079351503401995e-04 -5.094921798445284367e-04
1.758000000000000000e+03 9.177672386169433594e+00 -5.675921916961669922e+00 -1.245740422746166587e-04 1.445599598810076714e-03 3.963076742365956306e-04 -3.313079068902879953e-04
1.759000000000000000e+03 7.015930175781250000e+00 1.395241069793701172e+01 2.460017334669828415e-03 -1.446185633540153503e-03 3.041494637727737427e-04 5.531420931220054626e-03
1.760000000000000000e+03 2.298797416687011719e+01 -5.186567902565002441e-01 1.762516945600509644e-01 -1.731831580400466919e-02 4.768001288175582886e-02 2.028686255216598511e-01
1.761000000000000000e+03 2.314572525024414062e+01 8.353323936462402344e-01 2.318743914365768433e-01 8.251333981752395630e-02 9.431631863117218018e-02 7.668232917785644531e-02
1.762000000000000000e+03 7.207260894775390625e+01 -3.074739456176757812e+01 -9.833243489265441895e-02 7.711730003356933594e+00 2.284019231796264648e+00 -3.409848213195800781e-01
1.763000000000000000e+03 7.526206207275390625e+01 -2.767331314086914062e+01 -2.884618006646633148e-02 7.578197956085205078e+00 2.264805555343627930e+00 -2.790272533893585205e-01
1.764000000000000000e+03 7.375557708740234375e+01 2.180442428588867188e+01 -5.511366203427314758e-02 8.242850303649902344e+00 2.456320762634277344e+00 3.986105918884277344e-01
1.765000000000000000e+03 7.502124023437500000e+01 2.342067527770996094e+01 -3.926390036940574646e-02 8.385258674621582031e+00 2.503798484802246094e+00 3.117110431194305420e-01
1.766000000000000000e+03 7.543743133544921875e+01 -2.086021423339843750e+01 1.505305618047714233e-02 7.241417407989501953e+00 2.176941156387329102e+00 -2.896677553653717041e-01
1.767000000000000000e+03 7.421669006347656250e+01 -2.229575347900390625e+01 1.143762934952974319e-02 7.354576110839843750e+00 2.209804058074951172e+00 -3.518116772174835205e-01
1.768000000000000000e+03 7.548481750488281250e+01 1.243254280090332031e+01 -3.265942912548780441e-03 7.738530158996582031e+00 2.320579290390014648e+00 3.864902555942535400e-01
1.769000000000000000e+03 7.411830902099609375e+01 1.504131984710693359e+01 -2.429260686039924622e-02 7.901457786560058594e+00 2.363149642944335938e+00 4.625278413295745850e-01
1.770000000000000000e+03 7.542266845703125000e+01 1.650372314453125000e+01 -2.052047476172447205e-02 8.008544921875000000e+00 2.396407365798950195e+00 3.700799047946929932e-01
1.771000000000000000e+03 7.418516540527343750e+01 8.265535354614257812e+00 3.026737831532955170e-02 7.499419689178466797e+00 2.258906126022338867e+00 4.551556110382080078e-01
1.772000000000000000e+03 7.316667175292968750e+01 2.614021492004394531e+01 -7.692541182041168213e-02 8.380198478698730469e+00 2.490982055664062500e+00 3.447107970714569092e-01
1.773000000000000000e+03 7.486477661132812500e+01 2.488696861267089844e+01 -3.976024314761161804e-02 8.447592735290527344e+00 2.522349834442138672e+00 2.957966029644012451e-01
1.774000000000000000e+03 7.548056030273437500e+01 -1.382589149475097656e+01 5.817423760890960693e-02 6.946469783782958984e+00 2.101393222808837891e+00 -1.823148280382156372e-01
1.775000000000000000e+03 7.417723846435546875e+01 -1.520701217651367188e+01 8.014134317636489868e-02 7.079398632049560547e+00 2.147861957550048828e+00 -2.565708458423614502e-01
1.776000000000000000e+03 7.426043701171875000e+01 -1.239496469497680664e-02 1.016599833965301514e-01 7.085507392883300781e+00 2.156150102615356445e+00 2.767523229122161865e-01
1.777000000000000000e+03 7.548387145996093750e+01 4.171815395355224609e+00 4.390107840299606323e-02 7.206194400787353516e+00 2.175028562545776367e+00 3.228281736373901367e-01
1.778000000000000000e+03 7.422489929199218750e+01 1.356391787528991699e+00 9.247359633445739746e-02 7.141460418701171875e+00 2.170180082321166992e+00 3.194952607154846191e-01
1.779000000000000000e+03 7.558736419677734375e+01 -5.462822914123535156e+00 7.703436911106109619e-02 6.847932338714599609e+00 2.077490091323852539e+00 6.410419195890426636e-02
1.780000000000000000e+03 7.432363128662109375e+01 -6.808554649353027344e+00 1.212683394551277161e-01 6.938940048217773438e+00 2.118062496185302734e+00 2.699455060064792633e-02
1.781000000000000000e+03 7.417427062988281250e+01 1.099558830261230469e+01 5.663648713380098343e-03 7.662096977233886719e+00 2.300328254699707031e+00 4.703751504421234131e-01
1.782000000000000000e+03 7.427633666992187500e+01 -9.575334548950195312e+00 1.176374480128288269e-01 6.949807643890380859e+00 2.120233535766601562e+00 -7.797866314649581909e-02
1.783000000000000000e+03 7.424546813964843750e+01 -1.098078155517578125e+01 1.108618974685668945e-01 6.970139503479003906e+00 2.124300479888916016e+00 -1.294381022453308105e-01
1.784000000000000000e+03 7.419334411621093750e+01 -1.379925727844238281e+01 9.067399054765701294e-02 7.036649227142333984e+00 2.138196945190429688e+00 -2.193890213966369629e-01
1.785000000000000000e+03 7.549728393554687500e+01 -1.242334461212158203e+01 6.448144465684890747e-02 6.905572891235351562e+00 2.091016292572021484e+00 -1.473546028137207031e-01
1.786000000000000000e+03 7.432334136962890625e+01 -2.736140251159667969e+00 1.146208792924880981e-01 6.997407436370849609e+00 2.133608579635620117e+00 1.811289936304092407e-01
1.787000000000000000e+03 7.433674621582031250e+01 -4.092513084411621094e+00 1.184808537364006042e-01 6.967919349670410156e+00 2.125920057296752930e+00 1.304176598787307739e-01
1.788000000000000000e+03 7.433648681640625000e+01 -5.448600292205810547e+00 1.200686171650886536e-01 6.948236465454101562e+00 2.120491504669189453e+00 7.897454500198364258e-02
1.789000000000000000e+03 7.418553924560546875e+01 4.118609428405761719e+00 6.993896514177322388e-02 7.271411418914794922e+00 2.202405214309692383e+00 3.910020589828491211e-01
1.790000000000000000e+03 7.411128997802734375e+01 -1.807631111145019531e+01 5.344546958804130554e-02 7.187376022338867188e+00 2.172246456146240234e+00 -3.184314072132110596e-01
1.791000000000000000e+03 7.406991577148437500e+01 -1.952023506164550781e+01 3.727333247661590576e-02 7.249357223510742188e+00 2.185989141464233398e+00 -3.409431576728820801e-01
1.792000000000000000e+03 7.407724761962890625e+01 1.638433074951171875e+01 -3.302470967173576355e-02 7.980108737945556641e+00 2.384125232696533203e+00 4.524177312850952148e-01
1.793000000000000000e+03 7.435751342773437500e+01 -2.484211349487304688e+01 -1.607600599527359009e-02 7.471216678619384766e+00 2.236542224884033203e+00 -3.441340327262878418e-01
1.794000000000000000e+03 7.551142883300781250e+01 2.870486259460449219e+01 -3.572766110301017761e-02 8.639418601989746094e+00 2.581107139587402344e+00 2.134973257780075073e-01
1.795000000000000000e+03 7.393158721923828125e+01 -2.753845405578613281e+01 -4.142856597900390625e-02 7.589807033538818359e+00 2.264513492584228516e+00 -3.379424810409545898e-01
1.796000000000000000e+03 7.540300750732421875e+01 -2.627990150451660156e+01 -1.904200762510299683e-02 7.513170719146728516e+00 2.248238563537597656e+00 -2.867619693279266357e-01
1.797000000000000000e+03 7.418297576904296875e+01 6.884995937347412109e+00 4.364016652107238770e-02 7.420235633850097656e+00 2.239162683486938477e+00 4.397508502006530762e-01
1.798000000000000000e+03 7.408858489990234375e+01 -2.094129371643066406e+01 2.044099010527133942e-02 7.306092739105224609e+00 2.197960138320922852e+00 -3.486135005950927734e-01
1.799000000000000000e+03 7.170521545410156250e+01 3.522824859619140625e+01 -1.354158371686935425e-01 8.477231025695800781e+00 2.502544641494750977e+00 1.716379821300506592e-01
1.800000000000000000e+03 7.376427459716796875e+01 -3.064503669738769531e+01 -6.795094162225723267e-02 7.704111099243164062e+00 2.290848016738891602e+00 -2.969394326210021973e-01
1.801000000000000000e+03 7.469574737548828125e+01 -3.169927215576171875e+01 -6.250056624412536621e-02 7.740004539489746094e+00 2.303251028060913086e+00 -2.507574558258056641e-01
1.802000000000000000e+03 7.414073181152343750e+01 1.369679260253906250e+01 -1.392474770545959473e-02 7.822542667388916016e+00 2.342585325241088867e+00 4.678048789501190186e-01
1.803000000000000000e+03 7.415757751464843750e+01 1.234686565399169922e+01 -5.313101224601268768e-03 7.743373870849609375e+00 2.321418285369873047e+00 4.707306921482086182e-01
1.804000000000000000e+03 7.384188842773437500e+01 2.042211914062500000e+01 -4.584704712033271790e-02 8.182997703552246094e+00 2.441145181655883789e+00 4.112938046455383301e-01
1.805000000000000000e+03 7.494119262695312500e+01 3.011334800720214844e+01 -4.886959493160247803e-02 8.636702537536621094e+00 2.576349973678588867e+00 2.102465629577636719e-01
1.806000000000000000e+03 4.755454063415527344e+00 2.960192871093750000e+01 4.468471929430961609e-02 -1.821525245904922485e-01 -4.124034196138381958e-02 1.335742771625518799e-01
1.807000000000000000e+03 6.473119258880615234e+00 3.234318542480468750e+01 6.410357356071472168e-02 -6.200508773326873779e-02 6.295460043475031853e-04 9.848605841398239136e-02
1.808000000000000000e+03 6.326019763946533203e+00 -2.938622283935546875e+01 1.095671504735946655e-01 -4.436886906623840332e-01 -1.002364605665206909e-01 -3.091154098510742188e-01
1.809000000000000000e+03 1.029759025573730469e+01 6.385578632354736328e+00 1.577158691361546516e-04 -4.485223325900733471e-05 3.385909076314419508e-05 2.175721165258437395e-04
1.810000000000000000e+03 4.983722686767578125e+00 -2.619606208801269531e+01 3.173566237092018127e-02 -4.379925429821014404e-01 -1.218770667910575867e-01 -3.487451374530792236e-01
1.811000000000000000e+03 6.380783081054687500e+00 -8.845238685607910156e+00 3.871886001434177160e-04 -1.175086130388081074e-03 -2.363692765356972814e-04 4.072368901688605547e-04
1.812000000000000000e+03 1.158096790313720703e+01 2.570214843750000000e+01 8.187972754240036011e-02 1.820412576198577881e-01 7.917629182338714600e-02 5.395657196640968323e-02
1.813000000000000000e+03 3.791485548019409180e+00 2.457371330261230469e+01 -1.032971125096082687e-02 -1.402232050895690918e-01 -4.516587406396865845e-02 1.551448255777359009e-01
1.814000000000000000e+03 3.847567558288574219e+00 1.774216461181640625e+01 -3.951075300574302673e-02 -1.061030942946672440e-02 -1.503631845116615295e-02 1.768462918698787689e-02
1.815000000000000000e+03 5.765391826629638672e+00 -2.062002944946289062e+01 -2.335602194070816040e-01 -1.708144098520278931e-01 -1.213123872876167297e-01 -3.140257000923156738e-01
1.816000000000000000e+03 3.937838315963745117e+00 -2.139763832092285156e+01 -9.256696701049804688e-02 -1.931975483894348145e-01 -8.572935312986373901e-02 -2.369911223649978638e-01
1.817000000000000000e+03 6.040542125701904297e+00 -2.198043441772460938e+01 -1.825277805328369141e-01 -2.498426288366317749e-01 -1.297111213207244873e-01 -4.004058539867401123e-01
1.818000000000000000e+03 6.068990707397460938e+00 -2.334472465515136719e+01 -5.300257727503776550e-02 -3.514077067375183105e-01 -1.213230863213539124e-01 -4.193010926246643066e-01
1.819000000000000000e+03 4.882902145385742188e+00 1.160944557189941406e+01 3.620116738602519035e-03 -3.694640006870031357e-03 -2.235693682450801134e-05 8.169698412530124187e-04
1.820000000000000000e+03 4.278554439544677734e+00 -2.037598609924316406e+01 -1.547490954399108887e-01 -1.298769712448120117e-01 -8.538781851530075073e-02 -2.105354219675064087e-01
1.821000000000000000e+03 6.423376560211181641e+00 2.612746047973632812e+01 2.521177940070629120e-02 -6.642021983861923218e-02 -1.236253231763839722e-02 1.859982907772064209e-01
1.822000000000000000e+03 8.424208641052246094e+00 -6.481593132019042969e+00 5.297778989188373089e-04 -1.423663459718227386e-03 -2.681656624190509319e-04 1.118719155783765018e-04
1.823000000000000000e+03 6.514354705810546875e+00 -2.621543884277343750e+01 6.643721461296081543e-02 -4.131050109863281250e-01 -1.040003374218940735e-01 -3.885416388511657715e-01
1.824000000000000000e+03 6.413929462432861328e+00 2.053266143798828125e+01 -1.692911982536315918e-01 -1.433838903903961182e-02 -5.508887767791748047e-02 1.759945750236511230e-01
1.825000000000000000e+03 4.945971965789794922e+00 3.104525375366210938e+01 3.787914663553237915e-02 -1.853873282670974731e-01 -4.425245523452758789e-02 1.161205619573593140e-01
1.826000000000000000e+03 5.765674591064453125e+00 2.163211441040039062e+01 -9.478957206010818481e-02 -4.625966772437095642e-02 -4.231477156281471252e-02 1.731542199850082397e-01
1.827000000000000000e+03 5.983240604400634766e+00 -3.320121383666992188e+01 1.103569716215133667e-01 -4.980010986328125000e-01 -1.162932366132736206e-01 -2.156186997890472412e-01
1.828000000000000000e+03 1.269730472564697266e+01 -3.077256393432617188e+01 2.570435404777526855e-01 7.115929573774337769e-02 9.846085309982299805e-02 -1.319173127412796021e-01
1.829000000000000000e+03 5.784017562866210938e+00 2.783374977111816406e+01 4.404829815030097961e-02 -9.807163476943969727e-02 -1.620700024068355560e-02 1.639025062322616577e-01
1.830000000000000000e+03 6.725867748260498047e+00 -2.791975212097167969e+01 9.770757704973220825e-02 -4.209541082382202148e-01 -9.697396308183670044e-02 -3.455128371715545654e-01
1.831000000000000000e+03 3.803387641906738281e+00 1.163780593872070312e+01 1.894616987556219101e-03 -4.793665371835231781e-03 -8.697145385667681694e-04 -1.095811137929558754e-03
1.832000000000000000e+03 3.739888429641723633e+00 9.128230094909667969e+00 3.360518021509051323e-04 -1.177033176645636559e-03 -2.522944123484194279e-04 -6.486540078185498714e-04
1.833000000000000000e+03 6.010860919952392578e+00 1.038869380950927734e+01 3.151871263980865479e-03 -1.757057150825858116e-03 4.184442514088004827e-04 1.213863841257989407e-03
1.834000000000000000e+03 4.825436592102050781e+00 7.853224277496337891e+00 -1.179830433102324605e-04 -8.160560973919928074e-04 -2.802117378450930119e-04 5.076328761788317934e-07
1.835000000000000000e+03 5.037387371063232422e+00 -7.848952770233154297e+00 6.061385502107441425e-04 -7.666936144232749939e-04 -4.816651198780164123e-05 5.615418776869773865e-04
1.836000000000000000e+03 4.826050758361816406e+00 -6.677322864532470703e+00 7.772591779939830303e-04 2.061748673440888524e-04 2.950302150566130877e-04 -4.929433926008641720e-04
1.837000000000000000e+03 4.528613567352294922e+00 -5.584146499633789062e+00 -8.092940697679296136e-05 2.081463753711432219e-04 3.816509342868812382e-05 2.632082614582031965e-04
1.838000000000000000e+03 1.375664234161376953e+01 2.327410507202148438e+01 2.849527634680271149e-02 2.977266609668731689e-01 9.786658734083175659e-02 -7.867843657732009888e-02
1.839000000000000000e+03 9.616617202758789062e+00 2.377232551574707031e+01 1.172145176678895950e-02 -7.683647796511650085e-03 1.211341237649321556e-03 1.647208780050277710e-01
1.840000000000000000e+03 1.981782341003417969e+01 1.447269821166992188e+01 -2.421170659363269806e-02 6.293776035308837891e-01 1.815497726202011108e-01 -3.148012459278106689e-01
1.841000000000000000e+03 6.274950981140136719e+00 -7.683571338653564453e+00 1.142977271229028702e-03 2.783248201012611389e-04 4.263906157575547695e-04 -1.169833354651927948e-03
1.842000000000000000e+03 1.904982757568359375e+01 -1.573896980285644531e+01 -3.483825623989105225e-01 7.004625350236892700e-02 -8.350089192390441895e-02 -2.986060678958892822e-01
1.843000000000000000e+03 1.632053947448730469e+01 -1.755361175537109375e+01 -3.958284258842468262e-01 -2.073302865028381348e-01 -1.809476166963577271e-01 -2.899848222732543945e-01
1.844000000000000000e+03 1.609221649169921875e+01 2.006788825988769531e+01 -1.234099641442298889e-01 4.246362745761871338e-01 9.036789834499359131e-02 -1.676062941551208496e-01
1.845000000000000000e+03 1.997783088684082031e+01 -1.348040199279785156e+01 -4.294549822807312012e-01 9.716449677944183350e-02 -9.968714416027069092e-02 -4.256021380424499512e-01
1.846000000000000000e+03 1.853793907165527344e+01 -1.707968711853027344e+01 -2.684001028537750244e-01 8.275208622217178345e-02 -5.569440126419067383e-02 -2.111760079860687256e-01
1.847000000000000000e+03 2.320377159118652344e+01 6.041481494903564453e+00 2.247371375560760498e-01 5.792078971862792969e-01 2.411835044622421265e-01 -4.070850610733032227e-01
1.848000000000000000e+03 2.350591850280761719e+01 5.326633930206298828e+00 2.610775530338287354e-01 5.761163830757141113e-01 2.511581778526306152e-01 -3.889601826667785645e-01
1.849000000000000000e+03 2.248357391357421875e+01 2.461641550064086914e+00 2.166192978620529175e-01 9.533638507127761841e-02 9.358670562505722046e-02 -4.169785976409912109e-02
1.850000000000000000e+03 2.394437980651855469e+01 3.032119750976562500e+00 3.533368706703186035e-01 4.354993700981140137e-01 2.366508692502975464e-01 -2.298917770385742188e-01
1.851000000000000000e+03 1.953802871704101562e+01 -1.455483531951904297e+01 -3.854120373725891113e-01 8.269508928060531616e-02 -9.081508964300155640e-02 -3.676412105560302734e-01
1.852000000000000000e+03 1.549462127685546875e+01 -2.117712211608886719e+01 -4.828175529837608337e-02 -1.327172219753265381e-01 -5.429969355463981628e-02 -1.425169408321380615e-01
1.853000000000000000e+03 1.837792015075683594e+01 -1.857379531860351562e+01 -1.477053761482238770e-01 1.506326794624328613e-01 8.781877695582807064e-04 -9.680728614330291748e-02
1.854000000000000000e+03 2.215519714355468750e+01 1.056323528289794922e+01 9.709950536489486694e-02 7.832000851631164551e-01 2.640898823738098145e-01 -4.972510039806365967e-01
1.855000000000000000e+03 2.012625312805175781e+01 1.791861724853515625e+01 -5.902208760380744934e-02 1.024875640869140625e+00 2.897560894489288330e-01 -4.148438274860382080e-01
1.856000000000000000e+03 7.221010589599609375e+01 4.086010360717773438e+01 -8.434595167636871338e-02 8.591990470886230469e+00 2.552293300628662109e+00 4.250533133745193481e-02
1.857000000000000000e+03 2.295059394836425781e+01 6.976899623870849609e+00 1.891966611146926880e-01 6.190951466560363770e-01 2.424875348806381226e-01 -4.441037774085998535e-01
1.858000000000000000e+03 3.513925552368164062e+01 -3.717615842819213867e+00 2.810458421707153320e+00 2.605548858642578125e+00 1.624802112579345703e+00 -3.024728536605834961e+00
1.859000000000000000e+03 3.645365524291992188e+01 -4.112370014190673828e+00 3.399509668350219727e+00 5.567860126495361328e+00 2.690211057662963867e+00 -4.804472923278808594e+00
1.860000000000000000e+03 3.592721939086914062e+01 -4.098619937896728516e+00 3.305041790008544922e+00 3.759370565414428711e+00 2.119323730468750000e+00 -3.962423324584960938e+00
1.861000000000000000e+03 3.713338470458984375e+01 -4.024798870086669922e+00 2.929863452911376953e+00 8.793838500976562500e+00 3.517110347747802734e+00 -5.424911499023437500e+00
1.862000000000000000e+03 3.794449996948242188e+01 -8.895094871520996094e+00 1.572951436042785645e+00 1.379878807067871094e+01 4.611521720886230469e+00 4.983903408050537109e+00
1.863000000000000000e+03 3.542344665527343750e+01 -4.064302444458007812e+00 2.991836071014404297e+00 2.640372037887573242e+00 1.689662456512451172e+00 -3.189382076263427734e+00
1.864000000000000000e+03 4.058774948120117188e+01 -6.484628200531005859e+00 9.522214889526367188e+00 1.369273567199707031e+01 6.964485168457031250e+00 1.809947639703750610e-01
1.865000000000000000e+03 3.867337799072265625e+01 -4.287340164184570312e+00 1.803194642066955566e+00 1.647253227233886719e+01 5.482718467712402344e+00 -2.588313341140747070e+00
1.866000000000000000e+03 3.713627624511718750e+01 -9.202730178833007812e+00 2.257064342498779297e+00 8.740168571472167969e+00 3.299170017242431641e+00 5.347721576690673828e+00
1.867000000000000000e+03 3.764192199707031250e+01 -4.264195919036865234e+00 2.580895900726318359e+00 1.184857273101806641e+01 4.328840732574462891e+00 -5.454536914825439453e+00
1.868000000000000000e+03 3.619186401367187500e+01 -8.833980560302734375e+00 2.955865859985351562e+00 3.887951374053955078e+00 2.053145170211791992e+00 4.194143772125244141e+00
1.869000000000000000e+03 3.599740982055664062e+01 -9.833206176757812500e+00 2.152540206909179688e+00 4.594059944152832031e+00 2.023980140686035156e+00 3.989890336990356445e+00
1.870000000000000000e+03 3.879915618896484375e+01 -3.924876928329467773e+00 1.500991225242614746e+00 1.542649459838867188e+01 5.078245639801025391e+00 -2.244360685348510742e+00
1.871000000000000000e+03 4.039316177368164062e+01 -8.208778381347656250e+00 5.473478317260742188e+00 1.509374427795410156e+01 6.170166969299316406e+00 -2.102151632308959961e+00
1.872000000000000000e+03 4.022726058959960938e+01 -6.436875343322753906e+00 1.042107105255126953e+01 1.475896644592285156e+01 7.554011344909667969e+00 3.977003395557403564e-01
1.873000000000000000e+03 3.974735641479492188e+01 -4.843807697296142578e+00 4.553968906402587891e+00 1.698005485534667969e+01 6.460207462310791016e+00 1.469101548194885254e+00
1.874000000000000000e+03 3.615305709838867188e+01 -9.122177124023437500e+00 2.721865892410278320e+00 4.363757610321044922e+00 2.125687122344970703e+00 4.208767890930175781e+00
1.875000000000000000e+03 3.515279388427734375e+01 -1.029739952087402344e+01 1.890345692634582520e+00 3.405290603637695312e+00 1.588690876960754395e+00 3.252249002456665039e+00
1.876000000000000000e+03 3.415309906005859375e+01 -3.887259960174560547e+00 2.128262758255004883e+00 1.238174676895141602e+00 1.009931206703186035e+00 -1.849627614021301270e+00
1.877000000000000000e+03 3.345786666870117188e+01 -1.169825172424316406e+01 1.332017302513122559e+00 2.347537517547607422e+00 1.103866457939147949e+00 2.237534999847412109e+00
1.878000000000000000e+03 3.302207946777343750e+01 -1.080193996429443359e+01 1.182289481163024902e+00 1.456069231033325195e+00 7.915076017379760742e-01 1.738736033439636230e+00
1.879000000000000000e+03 2.403164100646972656e+01 -3.990593254566192627e-01 2.659254968166351318e-01 1.146045774221420288e-01 1.141590252518653870e-01 1.334581822156906128e-01
1.880000000000000000e+03 3.482185745239257812e+01 -1.069943428039550781e+01 1.694312572479248047e+00 3.182413101196289062e+00 1.463017702102661133e+00 3.005896329879760742e+00
1.881000000000000000e+03 3.444720458984375000e+01 -1.085897636413574219e+01 1.594481945037841797e+00 2.858166694641113281e+00 1.335794568061828613e+00 2.758022308349609375e+00
1.882000000000000000e+03 3.180870246887207031e+01 -1.160336017608642578e+01 9.438209533691406250e-01 1.234802246093750000e+00 6.535869240760803223e-01 1.352666735649108887e+00
1.883000000000000000e+03 2.229004859924316406e+01 6.209352016448974609e-01 1.622579395771026611e-01 -5.713644251227378845e-02 3.153644874691963196e-02 1.446311920881271362e-01
1.884000000000000000e+03 3.362039947509765625e+01 -3.529970884323120117e+00 1.933014869689941406e+00 1.238238453865051270e+00 9.513760209083557129e-01 -1.671985507011413574e+00
1.885000000000000000e+03 3.259809112548828125e+01 -2.829476594924926758e+00 1.611754655838012695e+00 1.125060558319091797e+00 8.210445642471313477e-01 -1.354382753372192383e+00
1.886000000000000000e+03 3.635431289672851562e+01 -3.821336507797241211e+00 3.152450084686279297e+00 5.531822204589843750e+00 2.605281591415405273e+00 -4.657323837280273438e+00
1.887000000000000000e+03 2.667924308776855469e+01 -2.358820915222167969e+00 2.847625017166137695e-01 1.820723861455917358e-01 1.400504708290100098e-01 9.118708223104476929e-02
1.888000000000000000e+03 2.454166030883789062e+01 -1.589079856872558594e+00 2.091169655323028564e-01 8.412966877222061157e-02 8.797398954629898071e-02 2.033804357051849365e-01
1.889000000000000000e+03 2.684914970397949219e+01 -1.832376956939697266e+00 4.005974531173706055e-01 2.493609786033630371e-01 1.949875354766845703e-01 1.591273583471775055e-02
1.890000000000000000e+03 5.828213214874267578e+00 4.820799827575683594e+00 -7.451132987625896931e-04 1.405266084475442767e-04 -1.813760027289390564e-04 2.618219295982271433e-04
1.891000000000000000e+03 4.903493404388427734e+00 5.556968688964843750e+00 -5.965049494989216328e-04 9.256511839339509606e-05 -1.511819427832961082e-04 -1.504938118159770966e-04
1.892000000000000000e+03 8.352906227111816406e+00 5.824674129486083984e+00 1.029148115776479244e-03 9.844216401688754559e-05 3.382770810276269913e-04 -3.335576620884239674e-04
1.893000000000000000e+03 2.566872978210449219e+01 -1.427972078323364258e+00 3.317528665065765381e-01 1.962757557630538940e-01 1.584085822105407715e-01 9.395736455917358398e-02
1.894000000000000000e+03 9.936722755432128906e+00 5.763198852539062500e+00 2.097500109812244773e-04 9.953317930921912193e-04 3.615245514083653688e-04 -1.851825654739513993e-04
1.895000000000000000e+03 7.809151172637939453e+00 4.906126499176025391e+00 8.142066653817892075e-04 1.217782701132819057e-04 2.807954733725637197e-04 -9.784519352251663804e-05
1.896000000000000000e+03 2.628860282897949219e+01 -1.648378372192382812e+00 3.735136389732360840e-01 2.217721790075302124e-01 1.785857528448104858e-01 5.426917970180511475e-02
1.897000000000000000e+03 2.943350219726562500e+01 -2.450826644897460938e+00 7.145519256591796875e-01 4.158101677894592285e-01 3.391086459159851074e-01 -3.174037039279937744e-01
1.898000000000000000e+03 6.435081005096435547e+00 5.582527160644531250e+00 -1.778344449121505022e-04 -5.687208031304180622e-04 -2.239665773231536150e-04 8.517778478562831879e-04
1.899000000000000000e+03 6.496335983276367188e+00 4.826136112213134766e+00 9.425905300304293633e-04 -5.421572859631851315e-05 2.665124484337866306e-04 -4.259802226442843676e-04
1.900000000000000000e+03 2.963088417053222656e+01 -1.736016035079956055e+00 9.445875883102416992e-01 6.424828171730041504e-01 4.761210978031158447e-01 -5.426585078239440918e-01
1.901000000000000000e+03 3.137032699584960938e+01 -2.820224285125732422e+00 1.148341178894042969e+00 6.783401370048522949e-01 5.480043888092041016e-01 -7.882046699523925781e-01
1.902000000000000000e+03 3.036281776428222656e+01 -1.919629812240600586e+00 1.081399679183959961e+00 7.414959669113159180e-01 5.468686819076538086e-01 -6.988209486007690430e-01
1.903000000000000000e+03 5.825785160064697266e+00 -5.659937381744384766e+00 5.291401175782084465e-04 5.964191514067351818e-04 3.376677632331848145e-04 -1.604555291123688221e-04
1.904000000000000000e+03 7.761226654052734375e+00 -5.826814174652099609e+00 -1.363319315714761615e-04 9.983696509152650833e-04 2.586113114375621080e-04 3.303010307718068361e-04
1.905000000000000000e+03 6.387816905975341797e+00 -4.831068992614746094e+00 1.055654211086221039e-04 3.780645201914012432e-04 1.450889831176027656e-04 -1.066541954060085118e-04
1.906000000000000000e+03 6.603346824645996094e+00 -5.542968273162841797e+00 1.322035823250189424e-04 -7.094301690813153982e-05 1.837817035266198218e-05 1.771605602698400617e-04
1.907000000000000000e+03 3.117914009094238281e+01 -1.107953739166259766e+01 6.266753077507019043e-01 7.892429828643798828e-01 4.247754812240600586e-01 9.277511239051818848e-01
1.908000000000000000e+03 3.242463302612304688e+01 -1.146084499359130859e+01 1.087478160858154297e+00 1.468634247779846191e+00 7.668337225914001465e-01 1.616699814796447754e+00
1.909000000000000000e+03 2.890591239929199219e+01 -1.201755809783935547e+01 3.548823297023773193e-01 6.042414307594299316e-01 2.877371311187744141e-01 4.506565630435943604e-01
1.910000000000000000e+03 2.684763145446777344e+01 -1.141885185241699219e+01 -1.566420793533325195e-01 2.813498079776763916e-01 3.741231933236122131e-02 -5.121931806206703186e-02
1.911000000000000000e+03 2.693882560729980469e+01 -1.211170387268066406e+01 4.136512055993080139e-02 3.983412086963653564e-01 1.319119036197662354e-01 5.259490013122558594e-02
1.912000000000000000e+03 2.072345924377441406e+01 -1.500650501251220703e+01 -2.457965016365051270e-01 2.467450201511383057e-01 2.845545532181859016e-04 -2.641343176364898682e-01
1.913000000000000000e+03 2.967694282531738281e+01 -1.197652244567871094e+01 4.941332042217254639e-01 7.247582077980041504e-01 3.656674325466156006e-01 6.513202190399169922e-01
1.914000000000000000e+03 3.128920555114746094e+01 -1.803123712539672852e+00 1.369497776031494141e+00 1.035275340080261230e+00 7.214319109916687012e-01 -1.082863688468933105e+00
1.915000000000000000e+03 2.821972846984863281e+01 -1.192682266235351562e+01 2.026031911373138428e-01 5.167981982231140137e-01 2.158204019069671631e-01 2.765123248100280762e-01
1.916000000000000000e+03 2.150474357604980469e+01 -1.213304710388183594e+01 -4.438408911228179932e-01 1.611833572387695312e-01 -8.479725569486618042e-02 -4.554822742938995361e-01
1.917000000000000000e+03 2.760925102233886719e+01 -1.192132186889648438e+01 7.990561425685882568e-02 4.074130356311798096e-01 1.461955904960632324e-01 1.374975889921188354e-01
1.918000000000000000e+03 2.541419029235839844e+01 -1.252102947235107422e+01 -6.523060053586959839e-02 3.594223856925964355e-01 8.825753629207611084e-02 -1.187500208616256714e-01
1.919000000000000000e+03 2.041860389709472656e+01 -1.253223705291748047e+01 -4.665645956993103027e-01 1.020307317376136780e-01 -1.093601584434509277e-01 -4.703862369060516357e-01
1.920000000000000000e+03 2.292895507812500000e+01 -1.303580284118652344e+01 -2.405703663825988770e-01 2.902556955814361572e-01 1.490559801459312439e-02 -3.090085089206695557e-01
1.921000000000000000e+03 2.286018943786621094e+01 -1.213023185729980469e+01 -3.611928224563598633e-01 2.224562317132949829e-01 -4.162097349762916565e-02 -3.880763351917266846e-01
1.922000000000000000e+03 1.064689922332763672e+01 5.715721607208251953e+00 3.595754242269322276e-05 -5.802009836770594120e-04 -1.632730418350547552e-04 1.630708575248718262e-04
1.923000000000000000e+03 1.106786346435546875e+01 6.748016357421875000e+00 -3.296670329291373491e-04 -6.694761395920068026e-05 -1.189843897009268403e-04 1.151078686234541237e-04
1.924000000000000000e+03 7.974061489105224609e+00 9.039928436279296875e+00 -8.545476594008505344e-04 -7.885121158324182034e-04 -4.929179558530449867e-04 1.674058265052735806e-03
1.925000000000000000e+03 8.222001075744628906e+00 6.729732036590576172e+00 -5.433646147139370441e-04 -6.131909904070198536e-04 -3.469666698947548866e-04 1.475788885727524757e-03
1.926000000000000000e+03 2.255203628540039062e+01 -2.976758219301700592e-02 1.669115871191024780e-01 -5.450397357344627380e-02 3.372228518128395081e-02 1.797323524951934814e-01
1.927000000000000000e+03 7.041647434234619141e+00 9.131026268005371094e+00 2.509153680875897408e-03 -7.291479269042611122e-04 5.340017378330230713e-04 5.339717026799917221e-04
1.928000000000000000e+03 5.995779991149902344e+00 1.161486148834228516e+01 -4.249719204381108284e-04 -3.273276844993233681e-03 -1.109474571421742439e-03 2.018786733970046043e-03
1.929000000000000000e+03 8.013719558715820312e+00 8.133612632751464844e+00 1.890877611003816128e-03 -9.656223701313138008e-04 2.775765606202185154e-04 3.414691018406301737e-04
1.930000000000000000e+03 2.399124145507812500e+01 7.337186336517333984e+00 2.405017316341400146e-01 9.349724650382995605e-01 3.526422381401062012e-01 -5.786724090576171875e-01
1.931000000000000000e+03 2.146289634704589844e+01 1.334976768493652344e+01 2.651441656053066254e-02 9.008952975273132324e-01 2.782229185104370117e-01 -4.713860750198364258e-01
1.932000000000000000e+03 2.166731452941894531e+01 1.826049041748046875e+01 -4.777744412422180176e-02 1.360833048820495605e+00 3.939166665077209473e-01 -5.290705561637878418e-01
1.933000000000000000e+03 2.222657775878906250e+01 -1.625380516052246094e+01 -1.405312563292682171e-03 5.038952827453613281e-01 1.507470011711120605e-01 -3.935568034648895264e-02
1.934000000000000000e+03 9.773373603820800781e+00 7.123230457305908203e+00 -3.241893718950450420e-04 3.799716068897396326e-04 1.673467704677022994e-05 4.971974412910640240e-04
1.935000000000000000e+03 7.188170623779296875e+01 -2.538718605041503906e+01 -3.444683924317359924e-02 7.548985958099365234e+00 2.254361629486083984e+00 -4.346232414245605469e-01
1.936000000000000000e+03 7.006748199462890625e+01 -3.012974929809570312e+01 -1.371154040098190308e-01 7.728273391723632812e+00 2.277347326278686523e+00 -4.067375659942626953e-01
1.937000000000000000e+03 1.007549095153808594e+01 2.879899787902832031e+01 1.024012565612792969e-01 2.023436278104782104e-01 9.142346680164337158e-02 7.531788945198059082e-02
1.938000000000000000e+03 1.010811424255371094e+01 3.262710952758789062e+01 1.026439592242240906e-01 3.247140645980834961e-01 1.282074153423309326e-01 6.122219190001487732e-02
1.939000000000000000e+03 7.331307220458984375e+01 -2.371240043640136719e+01 -7.187871262431144714e-03 7.452400684356689453e+00 2.233563899993896484e+00 -3.916143476963043213e-01
1.940000000000000000e+03 7.081860351562500000e+01 1.861449241638183594e+01 -9.205354750156402588e-02 8.021013259887695312e+00 2.378687858581542969e+00 5.759077668190002441e-01
1.941000000000000000e+03 7.272891235351562500e+01 1.624851608276367188e+01 -4.603874683380126953e-02 7.950159549713134766e+00 2.371236324310302734e+00 5.281260609626770020e-01
1.942000000000000000e+03 7.145725250244140625e+01 1.077358913421630859e+01 1.395861897617578506e-02 7.690201282501220703e+00 2.311248064041137695e+00 6.147927641868591309e-01
1.943000000000000000e+03 7.285153198242187500e+01 9.544175148010253906e+00 2.628235146403312683e-02 7.604415893554687500e+00 2.289209365844726562e+00 5.394693613052368164e-01
1.944000000000000000e+03 7.289350128173828125e+01 -1.660587692260742188e+01 9.731916338205337524e-02 7.197929859161376953e+00 2.188574790954589844e+00 -3.322181105613708496e-01
1.945000000000000000e+03 7.282350158691406250e+01 -1.805994987487792969e+01 7.583407312631607056e-02 7.255444049835205078e+00 2.199383497238159180e+00 -3.685292601585388184e-01
1.946000000000000000e+03 7.181358337402343750e+01 -6.747799396514892578e+00 2.317820638418197632e-01 7.100456714630126953e+00 2.199671745300292969e+00 4.058505967259407043e-02
1.947000000000000000e+03 7.302040100097656250e+01 -9.521170616149902344e+00 1.673358827829360962e-01 7.035007953643798828e+00 2.160703182220458984e+00 -8.696022629737854004e-02
1.948000000000000000e+03 7.156425476074218750e+01 3.932441234588623047e+00 1.387874782085418701e-01 7.376941204071044922e+00 2.254718542098999023e+00 5.064125657081604004e-01
1.949000000000000000e+03 7.297589111328125000e+01 -1.092790126800537109e+01 1.604827344417572021e-01 7.054410934448242188e+00 2.164468050003051758e+00 -1.468163877725601196e-01
1.950000000000000000e+03 7.306868743896484375e+01 -2.765307903289794922e+00 1.642002314329147339e-01 7.079151630401611328e+00 2.173005580902099609e+00 2.091842889785766602e-01
1.951000000000000000e+03 7.308586120605468750e+01 -4.102876186370849609e+00 1.689909398555755615e-01 7.051989078521728516e+00 2.166294097900390625e+00 1.512594968080520630e-01
1.952000000000000000e+03 7.418100738525390625e+01 5.502764225006103516e+00 5.710848048329353333e-02 7.343658924102783203e+00 2.220230340957641602e+00 4.184986650943756104e-01
1.953000000000000000e+03 7.155374145507812500e+01 5.327315807342529297e+00 1.125328466296195984e-01 7.436874866485595703e+00 2.264822244644165039e+00 5.423148274421691895e-01
1.954000000000000000e+03 7.429643249511718750e+01 -1.376066207885742188e+00 1.093020588159561157e-01 7.037002563476562500e+00 2.143891334533691406e+00 2.302825748920440674e-01
1.955000000000000000e+03 7.303137969970703125e+01 -1.424207448959350586e+00 1.566894799470901489e-01 7.115130424499511719e+00 2.181545972824096680e+00 2.658051252365112305e-01
1.956000000000000000e+03 7.063281250000000000e+01 2.773782920837402344e+01 -1.425145566463470459e-01 8.277659416198730469e+00 2.440543413162231445e+00 3.730787932872772217e-01
1.957000000000000000e+03 9.623941421508789062e+00 2.130988883972167969e+01 -1.497723609209060669e-01 -1.036047190427780151e-01 -7.601312547922134399e-02 2.058275341987609863e-01
1.958000000000000000e+03 7.299578857421875000e+01 -2.589546775817871094e+01 -3.484526649117469788e-02 7.543257713317871094e+00 2.252523660659790039e+00 -3.894731104373931885e-01
1.959000000000000000e+03 7.391564178466796875e+01 1.906206130981445312e+01 -4.435028135776519775e-02 8.122385978698730469e+00 2.423410654067993164e+00 4.270891547203063965e-01
1.960000000000000000e+03 6.974391460418701172e+00 2.731490898132324219e+01 5.361393094062805176e-02 -3.934038430452346802e-02 4.282063338905572891e-03 1.727690547704696655e-01
1.961000000000000000e+03 4.746290683746337891e+00 2.481410598754882812e+01 -5.552615504711866379e-03 -1.126603931188583374e-01 -3.546390309929847717e-02 1.802265048027038574e-01
1.962000000000000000e+03 8.025785446166992188e+00 -2.599170684814453125e+01 8.925192058086395264e-02 -3.990837335586547852e-01 -9.294954687356948853e-02 -3.960591852664947510e-01
1.963000000000000000e+03 8.457808494567871094e+00 -2.368402481079101562e+01 -1.449959672754630446e-04 -4.360469579696655273e-01 -1.308575868606567383e-01 -4.669409692287445068e-01
1.964000000000000000e+03 6.935142517089843750e+00 -6.327276706695556641e+00 3.526844957377761602e-04 -3.080137321376241744e-05 9.656493784859776497e-05 -4.474424349609762430e-04
1.965000000000000000e+03 7.621592044830322266e+00 2.875494194030761719e+01 7.413278520107269287e-02 2.940408699214458466e-02 3.106106072664260864e-02 1.381844133138656616e-01
1.966000000000000000e+03 7.080437183380126953e+00 7.886228084564208984e+00 -9.774467907845973969e-04 -1.687795593170449138e-04 -3.438679268583655357e-04 7.974489126354455948e-04
1.967000000000000000e+03 4.816986083984375000e+00 6.647582530975341797e+00 1.614685170352458954e-03 -3.228982386644929647e-04 3.875360707752406597e-04 -3.090249665547162294e-04
1.968000000000000000e+03 2.505961036682128906e+01 7.549712181091308594e+00 2.884703874588012695e-01 1.271737694740295410e+00 4.680624306201934814e-01 -7.114459872245788574e-01
1.969000000000000000e+03 2.270934677124023438e+01 8.076020240783691406e+00 1.523251384496688843e-01 6.651668548583984375e-01 2.452475875616073608e-01 -4.745176136493682861e-01
1.970000000000000000e+03 9.072331428527832031e+00 -2.150754356384277344e+01 -1.343350708484649658e-01 -5.393760800361633301e-01 -2.021133452653884888e-01 -5.270500779151916504e-01
1.971000000000000000e+03 2.391559028625488281e+01 -1.384341239929199219e+01 -3.872670978307723999e-02 4.257827699184417725e-01 1.161168143153190613e-01 -1.342934370040893555e-01
1.972000000000000000e+03 1.191190910339355469e+01 -2.260680389404296875e+01 -9.787028655409812927e-03 -4.327297210693359375e-01 -1.327550262212753296e-01 -3.393540382385253906e-01
1.973000000000000000e+03 1.375604534149169922e+01 -2.148983764648437500e+01 -7.889115065336227417e-02 -3.405263125896453857e-01 -1.258252412080764771e-01 -2.217895537614822388e-01
1.974000000000000000e+03 6.816864013671875000e+01 3.093716621398925781e+01 -1.996288597583770752e-01 8.192808151245117188e+00 2.397953748703002930e+00 3.225569725036621094e-01
1.975000000000000000e+03 1.978902816772460938e+01 -1.856008720397949219e+01 -2.912303060293197632e-02 3.476856946945190430e-01 9.556879848241806030e-02 -2.084703370928764343e-02
1.976000000000000000e+03 9.043128967285156250e+00 2.571049118041992188e+01 5.332502350211143494e-02 1.805564016103744507e-02 2.141419984400272369e-02 1.613258868455886841e-01
1.977000000000000000e+03 1.207182693481445312e+01 2.406621742248535156e+01 5.603917688131332397e-02 1.463804990053176880e-01 6.072590127587318420e-02 3.667547553777694702e-02
1.978000000000000000e+03 2.370828628540039062e+01 1.514221572875976562e+01 -5.728529300540685654e-03 1.619477629661560059e+00 4.841247200965881348e-01 -6.788858175277709961e-01
1.979000000000000000e+03 2.476537132263183594e+01 4.703951835632324219e+00 3.727181553840637207e-01 8.184576034545898438e-01 3.573527336120605469e-01 -4.867803156375885010e-01
1.980000000000000000e+03 9.356318473815917969e+00 -2.989091682434082031e+01 1.846265345811843872e-01 -2.639692425727844238e-01 -2.380281500518321991e-02 -2.678425610065460205e-01
1.981000000000000000e+03 1.605450820922851562e+01 2.339960289001464844e+01 1.557317469269037247e-02 6.606794595718383789e-01 2.028757929801940918e-01 -1.883398145437240601e-01
1.982000000000000000e+03 1.480605220794677734e+01 2.180440902709960938e+01 -2.957612462341785431e-02 3.392882347106933594e-01 9.291363507509231567e-02 -1.191319003701210022e-01
1.983000000000000000e+03 1.369121646881103516e+01 2.478076744079589844e+01 7.767412066459655762e-02 3.850321769714355469e-01 1.388118863105773926e-01 -5.877600610256195068e-02
1.984000000000000000e+03 1.272261810302734375e+01 2.280389022827148438e+01 -1.608546939678490162e-03 1.396424472332000732e-01 4.141017049551010132e-02 6.509292870759963989e-03
1.985000000000000000e+03 1.717432022094726562e+01 -2.048305892944335938e+01 -3.915167599916458130e-02 9.164164960384368896e-02 1.574699208140373230e-02 -6.469646096229553223e-02
1.986000000000000000e+03 2.182018661499023438e+01 1.192325973510742188e+01 6.585790961980819702e-02 8.377559781074523926e-01 2.710841596126556396e-01 -4.862614274024963379e-01
1.987000000000000000e+03 7.290749359130859375e+01 -2.256005287170410156e+01 1.059132628142833710e-02 7.419102668762207031e+00 2.228908300399780273e+00 -4.085194468498229980e-01
1.988000000000000000e+03 6.739037513732910156e+00 2.240983581542968750e+01 -7.847745716571807861e-02 -5.032494664192199707e-02 -3.864071890711784363e-02 2.064638286828994751e-01
1.989000000000000000e+03 7.619559764862060547e+00 2.337995529174804688e+01 -2.498347684741020203e-02 -4.897324740886688232e-02 -2.218701690435409546e-02 2.045526355504989624e-01
1.990000000000000000e+03 7.289693450927734375e+01 -1.518266582489013672e+01 1.128597557544708252e-01 7.154948234558105469e+00 2.180342435836791992e+00 -2.947097718715667725e-01
1.991000000000000000e+03 7.238585662841796875e+01 2.026679420471191406e+01 -7.114691287279129028e-02 8.132294654846191406e+00 2.418344259262084961e+00 4.785873293876647949e-01
1.992000000000000000e+03 7.115636444091796875e+01 1.724942779541015625e+01 -7.730869203805923462e-02 7.974001407623291016e+00 2.369007825851440430e+00 5.852723121643066406e-01
1.993000000000000000e+03 7.154185485839843750e+01 6.706396579742431641e+00 8.716329187154769897e-02 7.498897552490234375e+00 2.275818109512329102e+00 5.707912445068359375e-01
1.994000000000000000e+03 7.276706695556640625e+01 1.492422485351562500e+01 -3.076596930623054504e-02 7.884222030639648438e+00 2.356036901473999023e+00 5.348488688468933105e-01
1.995000000000000000e+03 8.512790679931640625e+00 -2.785564804077148438e+01 1.482782959938049316e-01 -3.534030318260192871e-01 -6.153742223978042603e-02 -3.332928419113159180e-01
1.996000000000000000e+03 1.131903553009033203e+01 -2.389879417419433594e+01 1.058388128876686096e-01 -3.938193917274475098e-01 -8.639417588710784912e-02 -3.407594859600067139e-01
1.997000000000000000e+03 3.645251083374023438e+01 -3.295303821563720703e+00 2.614860296249389648e+00 6.362935066223144531e+00 2.693338632583618164e+00 -4.519240379333496094e+00
1.998000000000000000e+03 3.698082351684570312e+01 -3.382383823394775391e+00 2.364880561828613281e+00 8.201300621032714844e+00 3.169854402542114258e+00 -4.810896396636962891e+00
1.999000000000000000e+03 3.755700683593750000e+01 -4.016589641571044922e+00 2.348547697067260742e+00 1.106876945495605469e+01 4.025195121765136719e+00 -5.263930797576904297e+00
2.000000000000000000e+03 3.575568771362304688e+01 -3.775954008102416992e+00 3.071431159973144531e+00 3.767807006835937500e+00 2.051771402359008789e+00 -3.810021400451660156e+00
2.001000000000000000e+03 3.690148544311523438e+01 -3.848335266113281250e+00 2.891512393951416016e+00 7.664002895355224609e+00 3.166654586791992188e+00 -5.126449108123779297e+00
2.002000000000000000e+03 3.996570587158203125e+01 -8.517381668090820312e+00 4.066349506378173828e+00 1.628812217712402344e+01 6.106341838836669922e+00 -1.698635458946228027e+00
2.003000000000000000e+03 4.043541717529296875e+01 -7.956283092498779297e+00 6.434281826019287109e+00 1.489129829406738281e+01 6.397674083709716797e+00 -2.195854425430297852e+00
2.004000000000000000e+03 3.775371551513671875e+01 -9.087085723876953125e+00 1.668837189674377441e+00 1.232477569580078125e+01 4.198083877563476562e+00 5.172284603118896484e+00
2.005000000000000000e+03 3.811328887939453125e+01 -9.315762519836425781e+00 1.155380606651306152e+00 1.355934619903564453e+01 4.414418220520019531e+00 4.252851486206054688e+00
2.006000000000000000e+03 4.124792480468750000e+01 -5.773937225341796875e+00 7.461409568786621094e+00 1.271111583709716797e+01 6.051757812500000000e+00 1.163063764572143555e+00
2.007000000000000000e+03 3.664787673950195312e+01 -9.233922004699707031e+00 2.545392990112304688e+00 6.283067703247070312e+00 2.648538112640380859e+00 4.920379161834716797e+00
2.008000000000000000e+03 3.802925109863281250e+01 -9.570890426635742188e+00 1.064590334892272949e+00 1.257629013061523438e+01 4.092264175415039062e+00 4.158483028411865234e+00
2.009000000000000000e+03 3.836720657348632812e+01 -9.404771804809570312e+00 9.397077560424804688e-01 1.422355747222900391e+01 4.548979759216308594e+00 3.512202024459838867e+00
2.010000000000000000e+03 3.798351287841796875e+01 -4.149271488189697266e+00 2.011790990829467773e+00 1.340510463714599609e+01 4.625068664550781250e+00 -4.787201881408691406e+00
2.011000000000000000e+03 3.959998703002929688e+01 -9.341827392578125000e+00 1.731810927391052246e+00 1.564427280426025391e+01 5.212824821472167969e+00 6.010301411151885986e-02
2.012000000000000000e+03 3.926410675048828125e+01 -9.272196769714355469e+00 1.420932650566101074e+00 1.596954250335693359e+01 5.217142581939697266e+00 7.553297877311706543e-01
2.013000000000000000e+03 3.552545928955078125e+01 -9.988025665283203125e+00 2.100033760070800781e+00 3.735008478164672852e+00 1.750512719154357910e+00 3.586025953292846680e+00
2.014000000000000000e+03 3.965884780883789062e+01 -8.457811355590820312e+00 3.796762704849243164e+00 1.732132339477539062e+01 6.335425853729248047e+00 -1.341361641883850098e+00
2.015000000000000000e+03 3.977425765991210938e+01 -8.845254898071289062e+00 2.747019290924072266e+00 1.624055671691894531e+01 5.696272373199462891e+00 -8.134997487068176270e-01
2.016000000000000000e+03 4.029750823974609375e+01 -8.404292106628417969e+00 4.763184547424316406e+00 1.532845211029052734e+01 6.027491092681884766e+00 -1.933094501495361328e+00
2.017000000000000000e+03 3.949174118041992188e+01 -4.688234329223632812e+00 3.605088233947753906e+00 1.748546791076660156e+01 6.327166557312011719e+00 7.301940917968750000e-01
2.018000000000000000e+03 4.000386428833007812e+01 -8.806312561035156250e+00 3.355032920837402344e+00 1.606550025939941406e+01 5.826159954071044922e+00 -1.443059325218200684e+00
2.019000000000000000e+03 3.936793136596679688e+01 -4.217319488525390625e+00 2.369866847991943359e+00 1.652425765991210938e+01 5.668237209320068359e+00 -3.210004568099975586e-01
2.020000000000000000e+03 3.964317703247070312e+01 -4.357485771179199219e+00 3.032447099685668945e+00 1.645709228515625000e+01 5.846861839294433594e+00 5.109484195709228516e-01
2.021000000000000000e+03 4.150803375244140625e+01 -6.101791858673095703e+00 7.390820026397705078e+00 1.213843917846679688e+01 5.858777999877929688e+00 6.404060721397399902e-01
2.022000000000000000e+03 4.086713027954101562e+01 -7.775186538696289062e+00 6.893432617187500000e+00 1.377694606781005859e+01 6.201113700866699219e+00 -1.937607645988464355e+00
2.023000000000000000e+03 4.050849914550781250e+01 -6.956371784210205078e+00 9.367231369018554688e+00 1.399341678619384766e+01 7.008194446563720703e+00 -9.309902787208557129e-01
2.024000000000000000e+03 3.347161865234375000e+01 -1.126263713836669922e+01 1.334778785705566406e+00 2.096328496932983398e+00 1.029332160949707031e+00 2.155265808105468750e+00
2.025000000000000000e+03 3.447909164428710938e+01 -3.633216142654418945e+00 2.336313724517822266e+00 1.817554950714111328e+00 1.246160626411437988e+00 -2.291490077972412109e+00
2.026000000000000000e+03 3.392736053466796875e+01 -1.126835918426513672e+01 1.441151857376098633e+00 2.516682624816894531e+00 1.187350273132324219e+00 2.455811262130737305e+00
2.027000000000000000e+03 2.405075454711914062e+01 -1.238778233528137207e+00 2.120552957057952881e-01 6.018713489174842834e-02 8.167272806167602539e-02 2.062591612339019775e-01
2.028000000000000000e+03 2.454984664916992188e+01 -7.333086729049682617e-01 2.917753756046295166e-01 1.536774486303329468e-01 1.336358487606048584e-01 1.259747296571731567e-01
2.029000000000000000e+03 3.320100402832031250e+01 -2.661595106124877930e+00 1.883437156677246094e+00 1.531558036804199219e+00 1.024498581886291504e+00 -1.773396968841552734e+00
2.030000000000000000e+03 3.345381164550781250e+01 -3.127804040908813477e+00 1.879868865013122559e+00 1.387746930122375488e+00 9.802847504615783691e-01 -1.730519294738769531e+00
2.031000000000000000e+03 2.556308746337890625e+01 -5.148445963859558105e-01 4.405875802040100098e-01 2.926534414291381836e-01 2.199723124504089355e-01 -1.023235451430082321e-02
2.032000000000000000e+03 9.153614044189453125e+00 5.857321262359619141e+00 -3.236486518289893866e-04 -4.968406283296644688e-04 -2.461467811372131109e-04 6.783186690881848335e-04
2.033000000000000000e+03 3.222391510009765625e+01 -1.879018664360046387e+00 1.591247797012329102e+00 1.417850732803344727e+00 9.027295708656311035e-01 -1.472381472587585449e+00
2.034000000000000000e+03 2.507789993286132812e+01 -1.109872460365295410e+00 3.057371973991394043e-01 1.747345328330993652e-01 1.441415101289749146e-01 1.194227039813995361e-01
2.035000000000000000e+03 2.740595245361328125e+01 -1.831856131553649902e+00 4.997961521148681641e-01 3.135698139667510986e-01 2.440097928047180176e-01 -7.222849130630493164e-02
2.036000000000000000e+03 2.610621452331542969e+01 -8.215111494064331055e-01 4.714989662170410156e-01 3.083810806274414062e-01 2.339640110731124878e-01 -3.394254669547080994e-02
2.037000000000000000e+03 6.650099754333496094e+00 6.294882774353027344e+00 3.862190642394125462e-04 4.713856906164437532e-04 2.572814119048416615e-04 -3.780925471801310778e-04
2.038000000000000000e+03 2.969964218139648438e+01 -9.969852566719055176e-01 1.065597772598266602e+00 8.648670911788940430e-01 5.791394710540771484e-01 -7.257139086723327637e-01
2.039000000000000000e+03 2.716514587402343750e+01 -1.410033106803894043e+00 5.390387773513793945e-01 3.470827639102935791e-01 2.658364772796630859e-01 -1.039139926433563232e-01
2.040000000000000000e+03 2.887650871276855469e+01 -1.002193450927734375e+00 8.860703110694885254e-01 6.635395288467407227e-01 4.648829400539398193e-01 -4.864395856857299805e-01
2.041000000000000000e+03 3.113995933532714844e+01 -1.174592113494873047e+01 7.943648695945739746e-01 1.045142650604248047e+00 5.518522858619689941e-01 1.105546474456787109e+00
2.042000000000000000e+03 3.300712585449218750e+01 -1.186300754547119141e+01 1.238223671913146973e+00 2.056652069091796875e+00 9.884626865386962891e-01 2.013920783996582031e+00
2.043000000000000000e+03 2.790626716613769531e+01 -5.889453291893005371e-01 7.757596373558044434e-01 5.979446172714233398e-01 4.121112823486328125e-01 -3.601474463939666748e-01
2.044000000000000000e+03 3.092893791198730469e+01 -2.195097923278808594e+00 1.163972139358520508e+00 7.927659153938293457e-01 5.870214104652404785e-01 -8.131235241889953613e-01
2.045000000000000000e+03 3.082547569274902344e+01 -1.371414184570312500e+00 1.282518386840820312e+00 1.071060538291931152e+00 7.060736417770385742e-01 -1.006835579872131348e+00
2.046000000000000000e+03 3.145397567749023438e+01 -2.280660390853881836e+00 1.330732345581054688e+00 9.072993993759155273e-01 6.714094877243041992e-01 -1.006811022758483887e+00
2.047000000000000000e+03 2.782957458496093750e+01 -1.244117832183837891e+01 2.597788870334625244e-01 5.567625164985656738e-01 2.449624240398406982e-01 2.845613956451416016e-01
2.048000000000000000e+03 2.743466758728027344e+01 -1.342951774597167969e+01 3.532105982303619385e-01 7.058514952659606934e-01 3.177186250686645508e-01 3.383589386940002441e-01
2.049000000000000000e+03 3.042588043212890625e+01 -1.187662124633789062e+01 6.389247775077819824e-01 8.731770515441894531e-01 4.536305367946624756e-01 8.676698803901672363e-01
2.050000000000000000e+03 3.245491027832031250e+01 -1.205950736999511719e+01 1.145702719688415527e+00 1.789857983589172363e+00 8.806682229042053223e-01 1.778975486755371094e+00
2.051000000000000000e+03 2.619944190979003906e+01 -1.231829643249511719e+01 -1.337289903312921524e-02 3.809483349323272705e-01 1.102726310491561890e-01 -3.641244024038314819e-02
2.052000000000000000e+03 2.813072395324707031e+01 -1.298838043212890625e+01 3.822121322154998779e-01 7.025717496871948242e-01 3.254351615905761719e-01 4.198560118675231934e-01
2.053000000000000000e+03 2.478664207458496094e+01 -1.362157154083251953e+01 3.399358317255973816e-02 4.545193016529083252e-01 1.465538591146469116e-01 -6.669673323631286621e-02
2.054000000000000000e+03 2.883440971374511719e+01 -1.282120609283447266e+01 4.852171838283538818e-01 8.176484107971191406e-01 3.908596932888031006e-01 5.822975635528564453e-01
2.055000000000000000e+03 3.182779502868652344e+01 -1.224833297729492188e+01 1.020723342895507812e+00 1.553094267845153809e+00 7.721452713012695312e-01 1.520883917808532715e+00
2.056000000000000000e+03 2.961956787109375000e+01 -1.279489612579345703e+01 6.355191469192504883e-01 9.562338590621948242e-01 4.775259196758270264e-01 8.025918602943420410e-01
2.057000000000000000e+03 2.212972640991210938e+01 -1.226071548461914062e+01 -3.966224193572998047e-01 1.980277001857757568e-01 -5.957841873168945312e-02 -4.191005229949951172e-01
2.058000000000000000e+03 2.122485923767089844e+01 -1.291521739959716797e+01 -3.915964365005493164e-01 1.764417290687561035e-01 -6.454641371965408325e-02 -4.156060218811035156e-01
2.059000000000000000e+03 2.377285194396972656e+01 -1.289447689056396484e+01 -1.806757599115371704e-01 3.214480876922607422e-01 4.223169386386871338e-02 -2.548510730266571045e-01
2.060000000000000000e+03 2.713993072509765625e+01 -1.277892398834228516e+01 2.093977332115173340e-01 5.439839959144592285e-01 2.260145246982574463e-01 1.886543035507202148e-01
2.061000000000000000e+03 2.640151023864746094e+01 -1.308110904693603516e+01 1.573528349399566650e-01 5.172702074050903320e-01 2.023869156837463379e-01 9.772924333810806274e-02
2.062000000000000000e+03 7.353895187377929688e+00 6.731071949005126953e+00 1.785768195986747742e-03 -7.173402700573205948e-04 3.205284010618925095e-04 1.038913906086236238e-04
2.063000000000000000e+03 5.960765361785888672e+00 7.836090087890625000e+00 2.154049929231405258e-03 -6.570349214598536491e-04 4.491045256145298481e-04 -2.249349927296862006e-04
2.064000000000000000e+03 2.096682357788085938e+01 -1.387743282318115234e+01 -3.211097419261932373e-01 2.016973346471786499e-01 -3.582372516393661499e-02 -3.547882139682769775e-01
2.065000000000000000e+03 2.351590347290039062e+01 -9.029213786125183105e-01 1.940273344516754150e-01 2.419572882354259491e-02 6.546691805124282837e-02 2.065415978431701660e-01
2.066000000000000000e+03 2.295765495300292969e+01 1.217072772979736328e+01 7.546881586313247681e-02 1.169867873191833496e+00 3.736009895801544189e-01 -6.097204089164733887e-01
2.067000000000000000e+03 2.245335197448730469e+01 9.279708862304687500e+00 1.242153570055961609e-01 7.218394875526428223e-01 2.538164556026458740e-01 -4.956613183021545410e-01
2.068000000000000000e+03 2.325436210632324219e+01 3.036826252937316895e-01 2.372638285160064697e-01 6.890054792165756226e-02 9.184931218624114990e-02 1.154069900512695312e-01
2.069000000000000000e+03 7.282872009277343750e+01 1.089570045471191406e+01 9.167050011456012726e-03 7.676519870758056641e+00 2.305706024169921875e+00 5.459621548652648926e-01
2.070000000000000000e+03 7.287252807617187500e+01 5.427815914154052734e+00 8.266426622867584229e-02 7.393330097198486328e+00 2.242798328399658203e+00 4.839331209659576416e-01
2.071000000000000000e+03 2.411678123474121094e+01 6.380585670471191406e+00 2.824656367301940918e-01 8.708537220954895020e-01 3.459958136081695557e-01 -5.379305481910705566e-01
2.072000000000000000e+03 2.611973953247070312e+01 7.601182460784912109e+00 3.283754289150238037e-01 1.578000068664550781e+00 5.719126462936401367e-01 -8.482458591461181641e-01
2.073000000000000000e+03 1.988766670227050781e+01 -1.737699317932128906e+01 -1.229760944843292236e-01 3.047861158847808838e-01 5.454300343990325928e-02 -9.786762297153472900e-02
2.074000000000000000e+03 7.305221557617187500e+01 -8.138504981994628906e+00 1.717464327812194824e-01 7.025477409362792969e+00 2.159167289733886719e+00 -2.638944052159786224e-02
2.075000000000000000e+03 7.046274566650390625e+01 -1.074087333679199219e+01 2.770383656024932861e-01 7.189728260040283203e+00 2.240030050277709961e+00 -1.727099865674972534e-01
2.076000000000000000e+03 2.445100975036621094e+01 3.853058338165283203e+00 3.801365792751312256e-01 6.314998865127563477e-01 3.034909367561340332e-01 -3.618692159652709961e-01
2.077000000000000000e+03 7.289815521240234375e+01 2.651603698730468750e+00 1.185999736189842224e-01 7.266177654266357422e+00 2.215433359146118164e+00 4.126465618610382080e-01
2.078000000000000000e+03 7.027149963378906250e+01 1.018636345863342285e+00 2.402481287717819214e-01 7.320129394531250000e+00 2.268113374710083008e+00 4.482632279396057129e-01
2.079000000000000000e+03 7.048561859130859375e+01 -1.599225640296936035e+00 2.741684019565582275e-01 7.240521907806396484e+00 2.254406929016113281e+00 3.255252838134765625e-01
2.080000000000000000e+03 7.265464782714843750e+01 -2.110188674926757812e+01 3.034107945859432220e-02 7.371343612670898438e+00 2.220505475997924805e+00 -4.103202819824218750e-01
2.081000000000000000e+03 1.999373245239257812e+01 -1.971033668518066406e+01 2.149821445345878601e-02 4.486798644065856934e-01 1.410534232854843140e-01 7.716118544340133667e-02
2.082000000000000000e+03 7.022445678710937500e+01 5.201250076293945312e+00 1.473640799522399902e-01 7.475980758666992188e+00 2.287003517150878906e+00 5.951563715934753418e-01
2.083000000000000000e+03 7.182852935791015625e+01 -5.428414821624755859e+00 2.290941178798675537e-01 7.109245300292968750e+00 2.201501846313476562e+00 1.059234291315078735e-01
2.084000000000000000e+03 7.364234447479248047e+00 2.535025978088378906e+01 2.288504503667354584e-02 -4.415325447916984558e-02 -6.380462087690830231e-03 1.903638690710067749e-01
2.085000000000000000e+03 7.355125427246093750e+01 2.319021415710449219e+01 -6.360550969839096069e-02 8.299651145935058594e+00 2.470813751220703125e+00 3.813206851482391357e-01
2.086000000000000000e+03 7.174071502685546875e+01 -2.335896873474121094e+01 -3.522211918607354164e-03 7.488028526306152344e+00 2.245352029800415039e+00 -4.498971700668334961e-01
2.087000000000000000e+03 7.168740844726562500e+01 -1.657426643371582031e+01 1.277239918708801270e-01 7.259877204895019531e+00 2.216280221939086914e+00 -3.707209229469299316e-01
2.088000000000000000e+03 7.278123474121093750e+01 1.358861064910888672e+01 -2.110335603356361389e-02 7.819281578063964844e+00 2.339453458786010742e+00 5.423492193222045898e-01
2.089000000000000000e+03 7.176259613037109375e+01 -1.493530869483947754e+00 2.113043367862701416e-01 7.182338237762451172e+00 2.218092918395996094e+00 2.975589334964752197e-01
2.090000000000000000e+03 7.141728210449218750e+01 1.212742328643798828e+01 -7.969953119754791260e-03 7.753747940063476562e+00 2.323733329772949219e+00 6.161693930625915527e-01
2.091000000000000000e+03 7.289733123779296875e+01 -1.377187919616699219e+01 1.301938295364379883e-01 7.116621494293212891e+00 2.174044609069824219e+00 -2.528328299522399902e-01
2.092000000000000000e+03 7.163075256347656250e+01 -1.229273700714111328e+01 2.005945295095443726e-01 7.156448841094970703e+00 2.207113027572631836e+00 -2.275284528732299805e-01
2.093000000000000000e+03 7.085677337646484375e+01 2.024989509582519531e+01 -1.073003932833671570e-01 8.083092689514160156e+00 2.392737865447998047e+00 5.443646907806396484e-01
2.094000000000000000e+03 8.066035270690917969e+00 3.056042289733886719e+01 9.237277507781982422e-02 1.010859012603759766e-01 5.803760141134262085e-02 1.177684962749481201e-01
2.095000000000000000e+03 1.125191783905029297e+01 2.987172508239746094e+01 1.058806255459785461e-01 3.441599309444427490e-01 1.350121647119522095e-01 4.030463099479675293e-02
2.096000000000000000e+03 7.225230407714843750e+01 -2.885576629638671875e+01 -7.604225724935531616e-02 7.655899524688720703e+00 2.273957252502441406e+00 -3.788495063781738281e-01
2.097000000000000000e+03 6.935998535156250000e+01 2.635748863220214844e+01 -1.666700094938278198e-01 8.187276840209960938e+00 2.406182050704956055e+00 4.348685443401336670e-01
2.098000000000000000e+03 7.240406036376953125e+01 2.160518074035644531e+01 -7.329007238149642944e-02 8.182185173034667969e+00 2.432668685913085938e+00 4.542928338050842285e-01
2.099000000000000000e+03 2.418918418884277344e+01 5.583051204681396484e+00 3.035928606986999512e-01 7.982898354530334473e-01 3.305647969245910645e-01 -4.942389726638793945e-01
2.100000000000000000e+03 2.505309867858886719e+01 6.510878086090087891e+00 3.295750319957733154e-01 1.138326168060302734e+00 4.403703510761260986e-01 -6.592173576354980469e-01
2.101000000000000000e+03 2.266438102722167969e+01 1.357423877716064453e+01 3.022446297109127045e-02 1.225164651870727539e+00 3.766167163848876953e-01 -5.894131660461425781e-01
2.102000000000000000e+03 7.128282928466796875e+01 -2.674696922302246094e+01 -6.359494477510452271e-02 7.611700057983398438e+00 2.264431476593017578e+00 -4.388808608055114746e-01
2.103000000000000000e+03 7.298162841796875000e+01 -8.100458979606628418e-02 1.459446400403976440e-01 7.159095764160156250e+00 2.191512107849121094e+00 3.188912570476531982e-01
2.104000000000000000e+03 7.158320617675781250e+01 2.539955139160156250e+00 1.627028882503509521e-01 7.319766998291015625e+00 2.244740962982177734e+00 4.617069959640502930e-01
2.105000000000000000e+03 8.890758514404296875e+00 2.782730484008789062e+01 8.856675773859024048e-02 8.136305958032608032e-02 5.097894370555877686e-02 1.239070147275924683e-01
2.106000000000000000e+03 7.307354736328125000e+01 -6.780399322509765625e+00 1.720034927129745483e-01 7.025662899017333984e+00 2.159299850463867188e+00 3.368499502539634705e-02
2.107000000000000000e+03 1.872698211669921875e+01 2.085970306396484375e+01 -4.851043224334716797e-02 9.771896004676818848e-01 2.786037623882293701e-01 -3.729759156703948975e-01
2.108000000000000000e+03 7.020256042480468750e+01 6.578767299652099609e+00 1.135126501321792603e-01 7.532245635986328125e+00 2.293727397918701172e+00 6.257870197296142578e-01
2.109000000000000000e+03 7.152449035644531250e+01 8.069959640502929688e+00 6.172664463520050049e-02 7.561819076538085938e+00 2.287063598632812500e+00 5.915791988372802734e-01
2.110000000000000000e+03 1.676656723022460938e+01 -2.554864883422851562e+01 2.387015372514724731e-01 3.606962263584136963e-01 1.798193305730819702e-01 1.129611674696207047e-02
2.111000000000000000e+03 1.052893352508544922e+01 -2.502873611450195312e+01 1.321491897106170654e-01 -3.623965978622436523e-01 -6.907422840595245361e-02 -3.488504588603973389e-01
2.112000000000000000e+03 8.415938377380371094e+00 2.451923751831054688e+01 6.845407187938690186e-03 -1.630423590540885925e-02 -2.837648848071694374e-03 1.842473149299621582e-01
2.113000000000000000e+03 7.160688018798828125e+01 -1.518227386474609375e+01 1.521491259336471558e-01 7.220833301544189453e+00 2.211894750595092773e+00 -3.292761147022247314e-01
2.114000000000000000e+03 7.139601898193359375e+01 1.483763790130615234e+01 -4.521489515900611877e-02 7.878849029541015625e+00 2.350090265274047852e+00 5.980732440948486328e-01
2.115000000000000000e+03 1.871161270141601562e+01 -2.004895019531250000e+01 -4.604331683367490768e-03 2.854820191860198975e-01 8.426330983638763428e-02 4.275972489267587662e-03
2.116000000000000000e+03 2.125061225891113281e+01 2.003515625000000000e+01 -4.249549284577369690e-02 1.375420808792114258e+00 3.998776078224182129e-01 -4.974774718284606934e-01
2.117000000000000000e+03 6.898153686523437500e+01 -2.021609687805175781e+01 8.296586573123931885e-02 7.487209796905517578e+00 2.271052598953247070e+00 -5.218178629875183105e-01
2.118000000000000000e+03 5.186871051788330078e+00 2.262957572937011719e+01 -5.507420003414154053e-02 -6.887965649366378784e-02 -3.718615695834159851e-02 1.836012452840805054e-01
2.119000000000000000e+03 2.101260185241699219e+01 -1.768474006652832031e+01 -2.045974135398864746e-02 4.417252540588378906e-01 1.263796538114547729e-01 -1.413157116621732712e-02
2.120000000000000000e+03 1.010692405700683594e+01 -2.314961624145507812e+01 -8.736629970371723175e-03 -4.641762673854827881e-01 -1.418738663196563721e-01 -4.371006190776824951e-01
2.121000000000000000e+03 6.916563415527343750e+01 -2.742382240295410156e+01 -1.092010885477066040e-01 7.682300090789794922e+00 2.271929740905761719e+00 -4.827993512153625488e-01
2.122000000000000000e+03 7.260617065429687500e+01 -2.726743698120117188e+01 -5.281986296176910400e-02 7.597558498382568359e+00 2.263421535491943359e+00 -3.886455297470092773e-01
2.123000000000000000e+03 1.128493595123291016e+01 -2.887578201293945312e+01 2.238924205303192139e-01 -1.523499935865402222e-01 2.146272733807563782e-02 -2.342758923768997192e-01
2.124000000000000000e+03 7.202680206298828125e+01 2.879611778259277344e+01 -9.674699604511260986e-02 8.394512176513671875e+00 2.489329576492309570e+00 3.084283173084259033e-01
2.125000000000000000e+03 6.772377014160156250e+01 2.762365341186523438e+01 -2.192126214504241943e-01 8.117889404296875000e+00 2.369602918624877930e+00 4.264648854732513428e-01
2.126000000000000000e+03 7.068436431884765625e+01 -2.832271766662597656e+01 -9.367918223142623901e-02 7.666162014007568359e+00 2.271744966506958008e+00 -4.278778433799743652e-01
2.127000000000000000e+03 8.055669784545898438e+00 2.655052757263183594e+01 5.163980275392532349e-02 -5.063909338787198067e-04 1.534002367407083511e-02 1.664696335792541504e-01
2.128000000000000000e+03 9.808203697204589844e+00 2.660762596130371094e+01 8.712644875049591064e-02 1.106881275773048401e-01 5.934436991810798645e-02 1.045227050781250000e-01
2.129000000000000000e+03 2.236060142517089844e+01 1.504908275604248047e+01 -1.021600700914859772e-02 1.283523917198181152e+00 3.819923996925354004e-01 -5.689036846160888672e-01
2.130000000000000000e+03 2.203082847595214844e+01 1.660579681396484375e+01 -3.255814313888549805e-02 1.332040429115295410e+00 3.898446857929229736e-01 -5.472096204757690430e-01
2.131000000000000000e+03 1.049591255187988281e+01 -3.207617187500000000e+01 2.067171037197113037e-01 -1.002353429794311523e-01 3.194453194737434387e-02 -1.857888549566268921e-01
2.132000000000000000e+03 7.107342529296875000e+01 3.036549377441406250e+01 -1.224449202418327332e-01 8.359910011291503906e+00 2.471239566802978516e+00 2.958987653255462646e-01
2.133000000000000000e+03 3.761501312255859375e+01 -9.559900283813476562e+00 1.488088011741638184e+00 1.090783977508544922e+01 3.718778371810913086e+00 4.825574874877929688e+00
2.134000000000000000e+03 3.730974960327148438e+01 -3.187323808670043945e+00 1.899796724319458008e+00 9.515170097351074219e+00 3.424489974975585938e+00 -4.540555000305175781e+00
2.135000000000000000e+03 4.112378311157226562e+01 -6.381577968597412109e+00 8.261335372924804688e+00 1.268744182586669922e+01 6.284633159637451172e+00 2.836647927761077881e-01
2.136000000000000000e+03 3.862179565429687500e+01 -3.396913051605224609e+00 1.186905145645141602e+00 1.377481651306152344e+01 4.488516807556152344e+00 -2.735186100006103516e+00
2.137000000000000000e+03 3.863999557495117188e+01 -9.522480964660644531e+00 8.389789462089538574e-01 1.462935543060302734e+01 4.640500545501708984e+00 2.710644960403442383e+00
2.138000000000000000e+03 3.546063613891601562e+01 -1.071397113800048828e+01 1.773162603378295898e+00 4.349953174591064453e+00 1.836934685707092285e+00 3.581030368804931641e+00
2.139000000000000000e+03 3.792536163330078125e+01 -3.081057310104370117e+00 1.356891870498657227e+00 1.140322589874267578e+01 3.828035354614257812e+00 -3.933276176452636719e+00
2.140000000000000000e+03 3.407872772216796875e+01 -3.452700376510620117e+00 2.173094034194946289e+00 1.627019405364990234e+00 1.140034079551696777e+00 -2.052254199981689453e+00
2.141000000000000000e+03 3.892753982543945312e+01 -9.585208892822265625e+00 8.839961886405944824e-01 1.488620471954345703e+01 4.731060504913330078e+00 2.002223730087280273e+00
2.142000000000000000e+03 3.978174972534179688e+01 -4.019289493560791016e+00 2.557742357254028320e+00 1.560020065307617188e+01 5.447382926940917969e+00 3.380243182182312012e-01
2.143000000000000000e+03 4.097294235229492188e+01 -5.593268394470214844e+00 7.361624717712402344e+00 1.333203125000000000e+01 6.208096981048583984e+00 1.559959530830383301e+00
2.144000000000000000e+03 4.100903320312500000e+01 -7.542055130004882812e+00 7.387017250061035156e+00 1.328513431549072266e+01 6.201645374298095703e+00 -1.630922198295593262e+00
2.145000000000000000e+03 3.706245803833007812e+01 -9.652652740478515625e+00 1.939794540405273438e+00 8.466123580932617188e+00 3.121775388717651367e+00 4.958481788635253906e+00
2.146000000000000000e+03 3.437628936767578125e+01 -1.134957885742187500e+01 1.512942910194396973e+00 3.080963850021362305e+00 1.378172039985656738e+00 2.774574041366577148e+00
2.147000000000000000e+03 3.358823013305664062e+01 -1.203039073944091797e+01 1.326791524887084961e+00 2.682859897613525391e+00 1.202895402908325195e+00 2.387917518615722656e+00
2.148000000000000000e+03 3.480456161499023438e+01 -1.154606723785400391e+01 1.496157169342041016e+00 3.719522953033447266e+00 1.564704060554504395e+00 3.053145647048950195e+00
2.149000000000000000e+03 2.449668121337890625e+01 1.536790877580642700e-01 3.540837764739990234e-01 2.308991104364395142e-01 1.754948645830154419e-01 2.975232712924480438e-02
2.150000000000000000e+03 3.416962814331054688e+01 -1.184192180633544922e+01 1.406048178672790527e+00 3.145730257034301758e+00 1.365533590316772461e+00 2.687266826629638672e+00
2.151000000000000000e+03 2.655890655517578125e+01 -2.723462283611297607e-01 5.971888899803161621e-01 4.429054856300354004e-01 3.120283186435699463e-01 -1.759795546531677246e-01
2.152000000000000000e+03 3.398213577270507812e+01 -2.962234973907470703e+00 2.150653362274169922e+00 1.947830200195312500e+00 1.229544997215270996e+00 -2.217413425445556641e+00
2.153000000000000000e+03 3.271648406982421875e+01 -1.560766220092773438e+00 1.699185609817504883e+00 1.903454065322875977e+00 1.080791950225830078e+00 -1.807437300682067871e+00
2.154000000000000000e+03 3.298956298828125000e+01 -2.106352090835571289e+00 1.804691791534423828e+00 1.757499217987060547e+00 1.068657279014587402e+00 -1.822758674621582031e+00
2.155000000000000000e+03 3.256420516967773438e+01 -1.267643165588378906e+01 1.140295147895812988e+00 2.187628269195556641e+00 9.983770251274108887e-01 1.937050580978393555e+00
2.156000000000000000e+03 2.703636932373046875e+01 -6.596432328224182129e-01 6.311913728713989258e-01 4.396171271800994873e-01 3.212425410747528076e-01 -1.888170242309570312e-01
2.157000000000000000e+03 2.752680015563964844e+01 -9.948191642761230469e-01 6.420131325721740723e-01 4.261250793933868408e-01 3.204414844512939453e-01 -2.035770416259765625e-01
2.158000000000000000e+03 2.969732666015625000e+01 3.862557411193847656e-01 1.103171110153198242e+00 1.309015989303588867e+00 7.236561179161071777e-01 -9.784204363822937012e-01
2.159000000000000000e+03 2.766794967651367188e+01 1.275197416543960571e-01 7.645491957664489746e-01 7.163642048835754395e-01 4.442740082740783691e-01 -4.326688349246978760e-01
2.160000000000000000e+03 2.894430160522460938e+01 -2.774008810520172119e-01 9.758969545364379883e-01 8.686172962188720703e-01 5.533542633056640625e-01 -6.476790904998779297e-01
2.161000000000000000e+03 2.811898803710937500e+01 -1.079427003860473633e+00 7.318617105484008789e-01 5.346534848213195801e-01 3.799545466899871826e-01 -3.105946779251098633e-01
2.162000000000000000e+03 3.028462791442871094e+01 -2.004028707742691040e-01 1.194361686706542969e+00 1.276360273361206055e+00 7.412165999412536621e-01 -1.055556178092956543e+00
2.163000000000000000e+03 3.114876556396484375e+01 -1.243234252929687500e+01 8.933233618736267090e-01 1.316993832588195801e+00 6.630951166152954102e-01 1.265341997146606445e+00
2.164000000000000000e+03 3.315618133544921875e+01 -1.236594486236572266e+01 1.238862752914428711e+00 2.468989610671997070e+00 1.112355709075927734e+00 2.187327384948730469e+00
2.165000000000000000e+03 3.181591987609863281e+01 -1.452233314514160156e+00 1.495169878005981445e+00 1.424349904060363770e+00 8.758559226989746094e-01 -1.388132929801940918e+00
2.166000000000000000e+03 3.106562995910644531e+01 -4.813948273658752441e-01 1.364971041679382324e+00 1.546634554862976074e+00 8.734816908836364746e-01 -1.312173843383789062e+00
2.167000000000000000e+03 2.590076065063476562e+01 -1.421093559265136719e+01 2.387373745441436768e-01 6.513717770576477051e-01 2.670327425003051758e-01 1.684369593858718872e-01
2.168000000000000000e+03 2.850074005126953125e+01 -1.351687145233154297e+01 5.464468598365783691e-01 9.278193712234497070e-01 4.422798752784729004e-01 6.228497028350830078e-01
2.169000000000000000e+03 3.041878318786621094e+01 -1.261489582061767578e+01 7.711338400840759277e-01 1.135704874992370605e+00 5.720515847206115723e-01 1.032418131828308105e+00
2.170000000000000000e+03 2.561525154113769531e+01 -1.336300945281982422e+01 9.733819216489791870e-02 4.918061792850494385e-01 1.767433136701583862e-01 9.537647478282451630e-03
2.171000000000000000e+03 2.669508552551269531e+01 -1.383551025390625000e+01 3.058544695377349854e-01 6.870765089988708496e-01 2.978793084621429443e-01 2.527323961257934570e-01
2.172000000000000000e+03 2.412019157409667969e+01 -1.482828330993652344e+01 8.892065286636352539e-02 5.374149680137634277e-01 1.879006922245025635e-01 -6.192130502313375473e-03
2.173000000000000000e+03 7.638786792755126953e+00 5.767465591430664062e+00 -5.504539585672318935e-04 -1.136906721512787044e-04 -1.992433826671913266e-04 3.054951666854321957e-04
2.174000000000000000e+03 8.997591018676757812e+00 6.742327690124511719e+00 6.678957142867147923e-04 1.316819834755733609e-04 2.398733049631118774e-04 -8.584339957451447845e-05
2.175000000000000000e+03 2.894832992553710938e+01 -1.407505798339843750e+01 6.437498331069946289e-01 1.176114678382873535e+00 5.459593534469604492e-01 8.157975077629089355e-01
2.176000000000000000e+03 2.971862792968750000e+01 -1.360929203033447266e+01 7.274572849273681641e-01 1.218031406402587891e+00 5.836465954780578613e-01 9.588695168495178223e-01
2.177000000000000000e+03 3.049342155456542969e+01 -1.335193157196044922e+01 8.259746432304382324e-01 1.413758873939514160e+00 6.719200611114501953e-01 1.179055571556091309e+00
2.178000000000000000e+03 2.196847152709960938e+01 -1.514891815185546875e+01 -1.180576160550117493e-01 3.790568411350250244e-01 7.829976826906204224e-02 -1.709425598382949829e-01
2.179000000000000000e+03 2.906440162658691406e+01 4.035302102565765381e-01 1.010143160820007324e+00 1.105646371841430664e+00 6.347368359565734863e-01 -8.078157305717468262e-01
2.180000000000000000e+03 2.564562225341796875e+01 4.603866577148437500e+00 4.527664482593536377e-01 1.017569661140441895e+00 4.411008059978485107e-01 -5.887826085090637207e-01
2.181000000000000000e+03 7.034460449218750000e+01 -3.275858759880065918e-01 2.556435167789459229e-01 7.278249740600585938e+00 2.260168075561523438e+00 3.867045044898986816e-01
2.182000000000000000e+03 2.311000061035156250e+01 -1.502439975738525391e+01 -2.067367167910560966e-04 4.815682768821716309e-01 1.444084644317626953e-01 -8.040662109851837158e-02
2.183000000000000000e+03 2.142288589477539062e+01 -1.678270912170410156e+01 -4.384866356849670410e-02 4.261787831783294678e-01 1.146990358829498291e-01 -4.920692369341850281e-02
2.184000000000000000e+03 6.919374084472656250e+01 -6.657323360443115234e+00 3.766215741634368896e-01 7.226742744445800781e+00 2.281009197235107422e+00 5.413547903299331665e-02
2.185000000000000000e+03 7.183508300781250000e+01 -4.117283821105957031e+00 2.267526984214782715e-01 7.125166893005371094e+00 2.205575704574584961e+00 1.691692322492599487e-01
2.186000000000000000e+03 2.389122009277343750e+01 3.725289702415466309e-01 3.045679926872253418e-01 1.748227775096893311e-01 1.438172310590744019e-01 5.665988847613334656e-02
2.187000000000000000e+03 7.023783111572265625e+01 3.805481433868408203e+00 1.804725974798202515e-01 7.420733928680419922e+00 2.280361890792846680e+00 5.550028681755065918e-01
2.188000000000000000e+03 2.387807083129882812e+01 1.474356293678283691e+00 3.325774669647216797e-01 2.552527189254760742e-01 1.763490587472915649e-01 -4.870804771780967712e-02
2.189000000000000000e+03 2.315503883361816406e+01 1.501795053482055664e+00 2.663393914699554443e-01 1.432294845581054688e-01 1.228706687688827515e-01 3.634609282016754150e-03
2.190000000000000000e+03 2.327224159240722656e+01 1.084686374664306641e+01 1.155865117907524109e-01 1.113262772560119629e+00 3.686547875404357910e-01 -6.194418668746948242e-01
2.191000000000000000e+03 2.357756614685058594e+01 9.601965904235839844e+00 1.481427401304244995e-01 1.070056796073913574e+00 3.654598593711853027e-01 -6.218946576118469238e-01
2.192000000000000000e+03 2.782139396667480469e+01 1.243028640747070312e+00 8.399764895439147949e-01 9.665930271148681641e-01 5.419708490371704102e-01 -6.272647380828857422e-01
2.193000000000000000e+03 7.176481628417968750e+01 -9.447193145751953125e+00 2.254000157117843628e-01 7.108822822570800781e+00 2.200266838073730469e+00 -9.361305087804794312e-02
2.194000000000000000e+03 7.016368865966796875e+01 -1.374966239929199219e+01 2.297361046075820923e-01 7.262943744659423828e+00 2.247803926467895508e+00 -3.189987242221832275e-01
2.195000000000000000e+03 7.050992584228515625e+01 -9.359339714050292969e+00 2.909078299999237061e-01 7.171883106231689453e+00 2.238837242126464844e+00 -9.817392379045486450e-02
2.196000000000000000e+03 7.058560943603515625e+01 -1.659995841979980469e+01 1.530052870512008667e-01 7.311902523040771484e+00 2.239472389221191406e+00 -4.025269746780395508e-01
2.197000000000000000e+03 7.050697326660156250e+01 -1.772765159606933594e+01 1.237510070204734802e-01 7.347574234008789062e+00 2.241397619247436523e+00 -4.294495880603790283e-01
2.198000000000000000e+03 6.978278350830078125e+01 -2.364815711975097656e+01 -1.573446765542030334e-02 7.558655738830566406e+00 2.262876510620117188e+00 -5.085806846618652344e-01
2.199000000000000000e+03 7.162110137939453125e+01 1.163506746292114258e+00 1.812765598297119141e-01 7.268710613250732422e+00 2.234996318817138672e+00 4.101864695549011230e-01
2.200000000000000000e+03 6.921240234375000000e+01 2.040859794616699219e+01 -1.403926759958267212e-01 8.038040161132812500e+00 2.369294166564941406e+00 5.896162986755371094e-01
2.201000000000000000e+03 7.024707031250000000e+01 1.631955146789550781e+01 -7.820580154657363892e-02 7.929796218872070312e+00 2.355477094650268555e+00 6.312367916107177734e-01
2.202000000000000000e+03 7.001692962646484375e+01 1.200885486602783203e+01 -9.194524027407169342e-03 7.760364055633544922e+00 2.325350999832153320e+00 6.779336929321289062e-01
2.203000000000000000e+03 7.007787322998046875e+01 1.063584899902343750e+01 2.050214447081089020e-02 7.702987670898437500e+00 2.317046880722045898e+00 6.750582456588745117e-01
2.204000000000000000e+03 7.179498291015625000e+01 -8.083420753479003906e+00 2.303805649280548096e-01 7.100102424621582031e+00 2.199144840240478516e+00 -2.625873684883117676e-02
2.205000000000000000e+03 7.017335510253906250e+01 7.935037612915039062e+00 8.230856806039810181e-02 7.588770389556884766e+00 2.301323652267456055e+00 6.490982174873352051e-01
2.206000000000000000e+03 7.149633026123046875e+01 9.424838066101074219e+00 3.753785789012908936e-02 7.625900268554687500e+00 2.299031496047973633e+00 6.061513423919677734e-01
2.207000000000000000e+03 6.854350280761718750e+01 1.333658123016357422e+01 -4.435696452856063843e-02 7.815822124481201172e+00 2.331439495086669922e+00 7.239370346069335938e-01
2.208000000000000000e+03 6.877088165283203125e+01 -2.254455757141113281e+01 1.309961732476949692e-02 7.563318252563476562e+00 2.272925376892089844e+00 -5.425725579261779785e-01
2.209000000000000000e+03 7.128916931152343750e+01 -1.946808433532714844e+01 7.048674672842025757e-02 7.372927665710449219e+00 2.233024358749389648e+00 -4.401660561561584473e-01
2.210000000000000000e+03 7.168491363525390625e+01 -1.805544048547744751e-01 1.972405314445495605e-01 7.223466396331787109e+00 2.226212024688720703e+00 3.558598756790161133e-01
2.211000000000000000e+03 9.486556053161621094e+00 -2.435658073425292969e+01 7.224280387163162231e-02 -4.283442497253417969e-01 -1.068304330110549927e-01 -4.101696312427520752e-01
2.212000000000000000e+03 7.286927032470703125e+01 6.809147357940673828e+00 6.354425102472305298e-02 7.461666107177734375e+00 2.257563114166259766e+00 5.087562203407287598e-01
2.213000000000000000e+03 1.488629627227783203e+01 2.321722602844238281e+01 1.196116674691438675e-02 4.059650599956512451e-01 1.253778785467147827e-01 -1.137389466166496277e-01
2.214000000000000000e+03 1.413650226593017578e+01 3.001391220092773438e+01 1.139223873615264893e-01 6.390284895896911621e-01 2.258852571249008179e-01 -6.340691447257995605e-02
2.215000000000000000e+03 9.740443229675292969e+00 3.044050216674804688e+01 9.841164201498031616e-02 2.197202742099761963e-01 9.543957561254501343e-02 7.354253530502319336e-02
2.216000000000000000e+03 6.962088012695312500e+01 2.227387619018554688e+01 -1.428956985473632812e-01 8.104817390441894531e+00 2.388576507568359375e+00 5.324847698211669922e-01
2.217000000000000000e+03 7.077280426025390625e+01 -2.245240592956542969e+01 9.847163222730159760e-03 7.490338802337646484e+00 2.250055789947509766e+00 -4.783318936824798584e-01
2.218000000000000000e+03 6.988729858398437500e+01 -2.144555664062500000e+01 4.316888377070426941e-02 7.486604213714599609e+00 2.258931875228881836e+00 -5.061378479003906250e-01
2.219000000000000000e+03 2.350672531127929688e+01 1.671574211120605469e+01 -3.744511678814888000e-02 1.690656423568725586e+00 4.959633946418762207e-01 -6.604709625244140625e-01
2.220000000000000000e+03 6.933620452880859375e+01 -3.218811035156250000e+01 -1.836910992860794067e-01 7.772377967834472656e+00 2.276606082916259766e+00 -3.669989705085754395e-01
2.221000000000000000e+03 1.018083667755126953e+01 -2.718289184570312500e+01 1.759094446897506714e-01 -2.889295220375061035e-01 -3.390602022409439087e-02 -3.088895380496978760e-01
2.222000000000000000e+03 1.956572914123535156e+01 1.953450584411621094e+01 -5.509838834404945374e-02 1.013970255851745605e+00 2.876615822315216064e-01 -4.027099609375000000e-01
2.223000000000000000e+03 1.943254661560058594e+01 2.203074264526367188e+01 -3.902158513665199280e-02 1.123681545257568359e+00 3.253979980945587158e-01 -4.161307811737060547e-01
2.224000000000000000e+03 1.350324916839599609e+01 -2.323143005371093750e+01 9.977703541517257690e-02 -2.634438574314117432e-01 -4.910004511475563049e-02 -2.196564972400665283e-01
2.225000000000000000e+03 2.097191429138183594e+01 -1.858586692810058594e+01 7.715743780136108398e-02 5.417887568473815918e-01 1.856838464736938477e-01 7.324067503213882446e-02
2.226000000000000000e+03 7.006308746337890625e+01 2.399571418762207031e+01 -1.367891728878021240e-01 8.158795356750488281e+00 2.406601905822753906e+00 4.811778366565704346e-01
2.227000000000000000e+03 8.325338363647460938e+00 -2.196367073059082031e+01 -1.605845838785171509e-01 -4.491086006164550781e-01 -1.829079538583755493e-01 -5.468846559524536133e-01
2.228000000000000000e+03 7.034472656250000000e+01 -1.219208145141601562e+01 2.597373723983764648e-01 7.219089984893798828e+00 2.243648290634155273e+00 -2.460647523403167725e-01
2.229000000000000000e+03 6.905075836181640625e+01 1.851139259338378906e+01 -1.237517446279525757e-01 7.978656291961669922e+00 2.356471300125122070e+00 6.340901255607604980e-01
2.230000000000000000e+03 7.001887512207031250e+01 1.485923004150390625e+01 -6.169721484184265137e-02 7.871869087219238281e+00 2.343051433563232422e+00 6.606884002685546875e-01
2.231000000000000000e+03 6.879998779296875000e+01 -2.491196632385253906e+01 -5.542199313640594482e-02 7.628934860229492188e+00 2.272053718566894531e+00 -5.286012291908264160e-01
2.232000000000000000e+03 7.129093933105468750e+01 -3.549602890014648438e+01 -1.708699166774749756e-01 7.821843624114990234e+00 2.295292139053344727e+00 -2.308353632688522339e-01
2.233000000000000000e+03 1.754119110107421875e+01 2.027928924560546875e+01 -7.722745835781097412e-02 6.771801114082336426e-01 1.799857914447784424e-01 -2.717044353485107422e-01
2.234000000000000000e+03 1.014246845245361328e+01 2.527822303771972656e+01 6.328324228525161743e-02 6.301182508468627930e-02 3.788851946592330933e-02 1.102110520005226135e-01
2.235000000000000000e+03 9.079902648925781250e+00 -2.261317825317382812e+01 -5.955955758690834045e-02 -4.856490492820739746e-01 -1.635625809431076050e-01 -4.618724286556243896e-01
2.236000000000000000e+03 6.575334930419921875e+01 2.315741539001464844e+01 -2.548481822013854980e-01 7.971027851104736328e+00 2.314853906631469727e+00 5.826718807220458984e-01
2.237000000000000000e+03 7.208329772949218750e+01 2.279528808593750000e+01 -8.825009316205978394e-02 8.216047286987304688e+00 2.438339233398437500e+00 4.462734162807464600e-01
2.238000000000000000e+03 3.786771774291992188e+01 -9.807302474975585938e+00 1.060345888137817383e+00 1.169706439971923828e+01 3.827223062515258789e+00 4.179427623748779297e+00
2.239000000000000000e+03 4.084222030639648438e+01 -6.637798309326171875e+00 8.947388648986816406e+00 1.317694187164306641e+01 6.637299060821533203e+00 -2.007886469364166260e-01
2.240000000000000000e+03 3.892980575561523438e+01 -3.572105646133422852e+00 1.317658901214599609e+00 1.467763423919677734e+01 4.798587799072265625e+00 -2.010570764541625977e+00
2.241000000000000000e+03 4.074069595336914062e+01 -8.334635734558105469e+00 5.249349594116210938e+00 1.422736072540283203e+01 5.843013286590576172e+00 -2.009960889816284180e+00
2.242000000000000000e+03 3.922198867797851562e+01 -3.733364820480346680e+00 1.574397563934326172e+00 1.528116226196289062e+01 5.056667804718017578e+00 -1.201901197433471680e+00
2.243000000000000000e+03 4.001242828369140625e+01 -9.456156730651855469e+00 2.003674268722534180e+00 1.496905899047851562e+01 5.091819763183593750e+00 -4.582014977931976318e-01
2.244000000000000000e+03 4.045198440551757812e+01 -8.879977226257324219e+00 3.666635990142822266e+00 1.466806125640869141e+01 5.500409126281738281e+00 -1.601012110710144043e+00
2.245000000000000000e+03 3.950561523437500000e+01 -3.881436824798583984e+00 2.012222051620483398e+00 1.557249546051025391e+01 5.275415420532226562e+00 -4.023919999599456787e-01
2.246000000000000000e+03 3.585515213012695312e+01 -1.042414474487304688e+01 1.848959565162658691e+00 5.005327224731445312e+00 2.056286096572875977e+00 3.900779724121093750e+00
2.247000000000000000e+03 4.024811935424804688e+01 -4.574164390563964844e+00 4.362050056457519531e+00 1.533763980865478516e+01 5.909906864166259766e+00 1.553417325019836426e+00
2.248000000000000000e+03 4.004833984375000000e+01 -4.145860671997070312e+00 3.094944715499877930e+00 1.530913829803466797e+01 5.521224975585937500e+00 8.912805914878845215e-01
2.249000000000000000e+03 4.106713485717773438e+01 -6.866661548614501953e+00 8.371003150939941406e+00 1.286180210113525391e+01 6.369841575622558594e+00 -5.586158633232116699e-01
2.250000000000000000e+03 4.100088119506835938e+01 -4.922995090484619141e+00 5.618421554565429688e+00 1.352988433837890625e+01 5.744491577148437500e+00 1.761487364768981934e+00
2.251000000000000000e+03 4.163116455078125000e+01 -5.445926666259765625e+00 6.484364032745361328e+00 1.215050983428955078e+01 5.590462207794189453e+00 1.323996067047119141e+00
2.252000000000000000e+03 3.510401535034179688e+01 -1.107867717742919922e+01 1.636390089988708496e+00 3.884409904479980469e+00 1.656239986419677734e+00 3.258344173431396484e+00
2.253000000000000000e+03 3.382243728637695312e+01 -1.169118595123291016e+01 1.405521631240844727e+00 2.683266878128051758e+00 1.226636528968811035e+00 2.478559255599975586e+00
2.254000000000000000e+03 3.453940200805664062e+01 -1.206254386901855469e+01 1.362181067466735840e+00 3.687846899032592773e+00 1.515008330345153809e+00 2.880252361297607422e+00
2.255000000000000000e+03 3.480374526977539062e+01 -3.282863140106201172e+00 2.534097433090209961e+00 2.536943197250366211e+00 1.521312117576599121e+00 -2.821197509765625000e+00
2.256000000000000000e+03 2.503512954711914062e+01 -1.850416511297225952e-01 3.960768580436706543e-01 2.650716900825500488e-01 1.983445733785629272e-01 1.543793268501758575e-02
2.257000000000000000e+03 2.697183609008789062e+01 6.796254515647888184e-01 6.930388212203979492e-01 6.683130860328674316e-01 4.084055721759796143e-01 -3.692079484462738037e-01
2.258000000000000000e+03 3.350683593750000000e+01 -1.892049193382263184e+00 1.929784774780273438e+00 2.259110689163208008e+00 1.256668686866760254e+00 -2.206912755966186523e+00
2.259000000000000000e+03 3.374397277832031250e+01 -2.434956789016723633e+00 2.071279287338256836e+00 2.136714696884155273e+00 1.262398123741149902e+00 -2.223529577255249023e+00
2.260000000000000000e+03 3.234733200073242188e+01 -1.016813755035400391e+00 1.615382313728332520e+00 1.931233167648315430e+00 1.063984632492065430e+00 -1.747191429138183594e+00
2.261000000000000000e+03 3.204567718505859375e+01 -8.005476742982864380e-02 1.471992015838623047e+00 2.161735773086547852e+00 1.090118408203125000e+00 -1.750772356986999512e+00
2.262000000000000000e+03 3.077059173583984375e+01 7.997140288352966309e-02 1.260840296745300293e+00 1.567595958709716797e+00 8.485308885574340820e-01 -1.264899611473083496e+00
2.263000000000000000e+03 3.127712059020996094e+01 3.949679434299468994e-01 1.324543356895446777e+00 1.902578473091125488e+00 9.681365489959716797e-01 -1.481135964393615723e+00
2.264000000000000000e+03 2.557314300537109375e+01 2.913627147674560547e+00 5.149108767509460449e-01 7.525826692581176758e-01 3.802480697631835938e-01 -4.179005324840545654e-01
2.265000000000000000e+03 2.708839988708496094e+01 1.044947355985641479e-01 6.846987009048461914e-01 5.793845653533935547e-01 3.792249858379364014e-01 -3.059003651142120361e-01
2.266000000000000000e+03 3.189488983154296875e+01 -1.290822029113769531e+01 1.040880084037780762e+00 1.866788744926452637e+00 8.723006248474121094e-01 1.658237457275390625e+00
2.267000000000000000e+03 3.265332412719726562e+01 -1.333263301849365234e+01 1.098993539810180664e+00 2.537965536117553711e+00 1.091087698936462402e+00 2.043202400207519531e+00
2.268000000000000000e+03 3.031103897094726562e+01 3.868628740310668945e-01 1.199440002441406250e+00 1.502694606781005859e+00 8.106403946876525879e-01 -1.162577509880065918e+00
2.269000000000000000e+03 2.652217292785644531e+01 3.075939655303955078e+00 6.087235808372497559e-01 1.003880381584167480e+00 4.837812185287475586e-01 -5.854455232620239258e-01
2.270000000000000000e+03 3.190110397338867188e+01 -5.921274423599243164e-01 1.516529798507690430e+00 1.886865139007568359e+00 1.021018505096435547e+00 -1.621101260185241699e+00
2.271000000000000000e+03 2.504472923278808594e+01 -1.454910373687744141e+01 1.630834639072418213e-01 6.084837317466735840e-01 2.314701676368713379e-01 7.528302073478698730e-02
2.272000000000000000e+03 3.121130371093750000e+01 -1.313108348846435547e+01 9.379538893699645996e-01 1.626185059547424316e+00 7.692416906356811523e-01 1.419743657112121582e+00
2.273000000000000000e+03 2.781235122680664062e+01 -1.407577323913574219e+01 4.968530833721160889e-01 9.223237633705139160e-01 4.257530570030212402e-01 5.284606814384460449e-01
2.274000000000000000e+03 2.930773353576660156e+01 -1.472226428985595703e+01 7.167795300483703613e-01 1.415064454078674316e+00 6.395531892776489258e-01 1.000000953674316406e+00
2.275000000000000000e+03 2.199406242370605469e+01 -1.404278850555419922e+01 -2.225832194089889526e-01 2.966253757476806641e-01 2.221265062689781189e-02 -2.809897065162658691e-01
2.276000000000000000e+03 2.240007019042968750e+01 -1.734698486328125000e+01 1.101138815283775330e-01 6.258253455162048340e-01 2.207817733287811279e-01 9.236936271190643311e-02
2.277000000000000000e+03 2.497129249572753906e+01 5.574065208435058594e+00 3.630405962467193604e-01 9.885874986648559570e-01 4.054884314537048340e-01 -5.850713253021240234e-01
2.278000000000000000e+03 2.548094177246093750e+01 3.731355905532836914e+00 4.775435030460357666e-01 8.430995345115661621e-01 3.961929082870483398e-01 -4.788854420185089111e-01
2.279000000000000000e+03 3.199491500854492188e+01 -1.359250831604003906e+01 1.016810536384582520e+00 2.202378034591674805e+00 9.657565355300903320e-01 1.775521397590637207e+00
2.280000000000000000e+03 2.995803833007812500e+01 -1.435217380523681641e+01 7.724652886390686035e-01 1.553604125976562500e+00 6.978208422660827637e-01 1.119359016418457031e+00
2.281000000000000000e+03 2.334103584289550781e+01 -1.611938095092773438e+01 9.705550223588943481e-02 5.893314480781555176e-01 2.059160768985748291e-01 4.824922606348991394e-02
2.282000000000000000e+03 2.742916488647460938e+01 -2.761138677597045898e-01 7.218911647796630859e-01 5.606309175491333008e-01 3.847566246986389160e-01 -3.147865235805511475e-01
2.283000000000000000e+03 2.841773605346679688e+01 5.189362168312072754e-01 9.243497252464294434e-01 9.468550682067871094e-01 5.613614320755004883e-01 -6.683508157730102539e-01
2.284000000000000000e+03 2.628135871887207031e+01 -1.507695865631103516e+01 3.551428616046905518e-01 8.545331954956054688e-01 3.629028201103210449e-01 3.380712270736694336e-01
2.285000000000000000e+03 2.708337593078613281e+01 -1.459195518493652344e+01 4.231077730655670166e-01 8.973538875579833984e-01 3.961385190486907959e-01 4.361742734909057617e-01
2.286000000000000000e+03 6.889973449707031250e+01 2.279640913009643555e+00 2.672168612480163574e-01 7.413071632385253906e+00 2.304086446762084961e+00 5.466868877410888672e-01
2.287000000000000000e+03 6.925352478027343750e+01 -1.060938358306884766e+01 3.432752192020416260e-01 7.243203639984130859e+00 2.275943517684936523e+00 -1.823572069406509399e-01
2.288000000000000000e+03 6.911276245117187500e+01 -1.198824787139892578e+01 3.181129097938537598e-01 7.269521236419677734e+00 2.276290178298950195e+00 -2.558666467666625977e-01
2.289000000000000000e+03 2.445672798156738281e+01 1.610309720039367676e+00 3.979697227478027344e-01 3.769029974937438965e-01 2.324618250131607056e-01 -1.176341027021408081e-01
2.290000000000000000e+03 2.393012428283691406e+01 9.195173382759094238e-01 3.305622041225433350e-01 2.258629053831100464e-01 1.669275313615798950e-01 -2.276050159707665443e-03
2.291000000000000000e+03 1.075864887237548828e+01 2.282627296447753906e+01 -1.808030717074871063e-02 -1.163960993289947510e-02 -8.915974758565425873e-03 1.198830679059028625e-01
2.292000000000000000e+03 2.773880386352539062e+01 6.533830165863037109e-01 8.177736997604370117e-01 8.215409517288208008e-01 4.917943775653839111e-01 -5.213606357574462891e-01
2.293000000000000000e+03 6.968224334716796875e+01 -1.705378150939941406e+01 1.595686823129653931e-01 7.365937232971191406e+00 2.257651805877685547e+00 -4.375442564487457275e-01
2.294000000000000000e+03 6.885342407226562500e+01 -1.800240135192871094e+01 1.571891605854034424e-01 7.430241107940673828e+00 2.276229143142700195e+00 -4.881797432899475098e-01
2.295000000000000000e+03 7.051814270019531250e+01 -8.021323204040527344e+00 2.970460653305053711e-01 7.166477203369140625e+00 2.239056825637817383e+00 -2.451130934059619904e-02
2.296000000000000000e+03 6.925680541992187500e+01 -9.283624649047851562e+00 3.636652231216430664e-01 7.229063034057617188e+00 2.277818441390991211e+00 -1.032005548477172852e-01
2.297000000000000000e+03 6.861087799072265625e+01 1.186786746978759766e+01 -9.897788055241107941e-03 7.766744136810302734e+00 2.327053785324096680e+00 7.301993370056152344e-01
2.298000000000000000e+03 7.013297271728515625e+01 9.283651351928710938e+00 5.087403580546379089e-02 7.645865917205810547e+00 2.309021949768066406e+00 6.656571030616760254e-01
2.299000000000000000e+03 2.598286056518554688e+01 6.501750469207763672e+00 3.823449611663818359e-01 1.384959340095520020e+00 5.301913022994995117e-01 -7.789837718009948730e-01
2.300000000000000000e+03 2.582482719421386719e+01 5.516080856323242188e+00 4.241578578948974609e-01 1.200248956680297852e+00 4.873220622539520264e-01 -6.933825612068176270e-01
2.301000000000000000e+03 2.498467254638671875e+01 8.700812339782714844e+00 2.208892852067947388e-01 1.360946893692016602e+00 4.745508432388305664e-01 -7.449946403503417969e-01
2.302000000000000000e+03 2.475051307678222656e+01 9.902050971984863281e+00 1.684053838253021240e-01 1.417963266372680664e+00 4.759106040000915527e-01 -7.554003596305847168e-01
2.303000000000000000e+03 2.623845863342285156e+01 8.892223358154296875e+00 2.501294910907745361e-01 1.772683858871459961e+00 6.068440079689025879e-01 -8.934835195541381836e-01
2.304000000000000000e+03 2.656255912780761719e+01 4.566451549530029297e+00 5.348899960517883301e-01 1.252438545227050781e+00 5.361985564231872559e-01 -7.279937267303466797e-01
2.305000000000000000e+03 2.440698432922363281e+01 -1.587742805480957031e+01 1.919823139905929565e-01 7.093315124511718750e-01 2.703941464424133301e-01 1.401366144418716431e-01
2.306000000000000000e+03 2.328984642028808594e+01 1.841343498229980469e+01 -5.917226895689964294e-02 1.751360535621643066e+00 5.076564550399780273e-01 -6.247199773788452148e-01
2.307000000000000000e+03 7.156904602050781250e+01 -1.375253295898437500e+01 1.733198314905166626e-01 7.190128326416015625e+00 2.209034442901611328e+00 -2.845526337623596191e-01
2.308000000000000000e+03 7.055323791503906250e+01 -5.405867099761962891e+00 2.969001829624176025e-01 7.172948360443115234e+00 2.240954637527465820e+00 1.193275228142738342e-01
2.309000000000000000e+03 7.052714538574218750e+01 -6.706986427307128906e+00 2.994179129600524902e-01 7.167081356048583984e+00 2.239949941635131836e+00 4.673479124903678894e-02
2.310000000000000000e+03 6.740440368652343750e+01 2.063127899169921875e+01 -1.842441707849502563e-01 7.990993022918701172e+00 2.342024564743041992e+00 6.260210275650024414e-01
2.311000000000000000e+03 6.721670532226562500e+01 1.860190773010253906e+01 -1.646119058132171631e-01 7.945016860961914062e+00 2.334121465682983398e+00 6.793978214263916016e-01
2.312000000000000000e+03 6.900185394287109375e+01 -1.589163970947265625e+01 2.180096358060836792e-01 7.364787101745605469e+00 2.274839162826538086e+00 -4.199820458889007568e-01
2.313000000000000000e+03 6.857854461669921875e+01 1.491970539093017578e+01 -7.556936889886856079e-02 7.863182544708251953e+00 2.336283922195434570e+00 7.069185376167297363e-01
2.314000000000000000e+03 7.024775695800781250e+01 2.407430648803710938e+00 2.132786810398101807e-01 7.368952751159667969e+00 2.274669408798217773e+00 5.068861842155456543e-01
2.315000000000000000e+03 6.889652252197265625e+01 5.065071582794189453e+00 1.841168254613876343e-01 7.512035369873046875e+00 2.308845758438110352e+00 6.426961421966552734e-01
2.316000000000000000e+03 2.191608619689941406e+01 -1.826718521118164062e+01 1.217473298311233521e-01 6.265054941177368164e-01 2.244758605957031250e-01 1.322386115789413452e-01
2.317000000000000000e+03 1.937589263916015625e+01 2.340133094787597656e+01 -8.013217709958553314e-03 1.219988226890563965e+00 3.635925054550170898e-01 -4.093329608440399170e-01
2.318000000000000000e+03 6.777964782714843750e+01 -2.626039314270019531e+01 -1.048774346709251404e-01 7.689336776733398438e+00 2.275337696075439453e+00 -5.350541472434997559e-01
2.319000000000000000e+03 7.000470733642578125e+01 -2.594496154785156250e+01 -6.383301317691802979e-02 7.618524551391601562e+00 2.266407489776611328e+00 -4.842566847801208496e-01
2.320000000000000000e+03 7.025746917724609375e+01 -1.529039573669433594e+01 1.928072124719619751e-01 7.293131828308105469e+00 2.245781660079956055e+00 -3.691097497940063477e-01
2.321000000000000000e+03 1.246626472473144531e+01 2.845230293273925781e+01 1.081962436437606812e-01 4.165401756763458252e-01 1.574209183454513550e-01 -5.123345647007226944e-03
2.322000000000000000e+03 9.431772232055664062e+00 -2.566217231750488281e+01 1.257211118936538696e-01 -3.815502226352691650e-01 -7.674873620271682739e-02 -3.792780041694641113e-01
2.323000000000000000e+03 1.589303588867187500e+01 -2.723698425292968750e+01 2.671521306037902832e-01 2.664713561534881592e-01 1.600870490074157715e-01 -3.785995393991470337e-02
2.324000000000000000e+03 1.519092655181884766e+01 2.459508132934570312e+01 6.739262491464614868e-02 5.796441435813903809e-01 1.941110193729400635e-01 -1.312254965305328369e-01
2.325000000000000000e+03 1.336082077026367188e+01 2.663624572753906250e+01 1.063364595174789429e-01 4.209994077682495117e-01 1.582007557153701782e-01 -4.704195633530616760e-02
2.326000000000000000e+03 6.824475860595703125e+01 -2.906256484985351562e+01 -1.574052125215530396e-01 7.733057022094726562e+00 2.272695541381835938e+00 -4.684686064720153809e-01
2.327000000000000000e+03 1.063319873809814453e+01 3.497638702392578125e+01 9.234794974327087402e-02 4.058391153812408447e-01 1.494561284780502319e-01 4.126730561256408691e-02
2.328000000000000000e+03 1.100363254547119141e+01 2.736411285400390625e+01 1.047168150544166565e-01 2.058962434530258179e-01 9.318391978740692139e-02 6.222823634743690491e-02
2.329000000000000000e+03 1.797180938720703125e+01 -2.206347465515136719e+01 9.489481151103973389e-02 2.948796749114990234e-01 1.169323474168777466e-01 4.201861843466758728e-02
2.330000000000000000e+03 6.836698150634765625e+01 2.466175270080566406e+01 -1.828172057867050171e-01 8.106697082519531250e+00 2.377164125442504883e+00 5.013133287429809570e-01
2.331000000000000000e+03 3.730852508544921875e+01 -2.695293426513671875e+00 1.608846545219421387e+00 9.137781143188476562e+00 3.223988294601440430e+00 -4.165788173675537109e+00
2.332000000000000000e+03 3.811315155029296875e+01 -9.964400291442871094e+00 8.291500806808471680e-01 1.220202636718750000e+01 3.909353017807006836e+00 3.735628604888916016e+00
2.333000000000000000e+03 4.126428604125976562e+01 -7.962447643280029297e+00 6.161242008209228516e+00 1.296813106536865234e+01 5.738811969757080078e+00 -1.781686663627624512e+00
2.334000000000000000e+03 3.772890090942382812e+01 -1.010808372497558594e+01 9.926222562789916992e-01 1.078110980987548828e+01 3.532119750976562500e+00 4.149733066558837891e+00
2.335000000000000000e+03 4.074652862548828125e+01 -8.661719322204589844e+00 4.420368671417236328e+00 1.417122459411621094e+01 5.577477931976318359e+00 -1.838456988334655762e+00
2.336000000000000000e+03 4.137123489379882812e+01 -7.713800907135009766e+00 6.660274028778076172e+00 1.264323139190673828e+01 5.791051387786865234e+00 -1.578256845474243164e+00
2.337000000000000000e+03 3.610963439941406250e+01 -3.522525310516357422e+00 2.897132635116577148e+00 5.112101554870605469e+00 2.402770280838012695e+00 -4.277397632598876953e+00
2.338000000000000000e+03 3.715457916259765625e+01 -3.624957799911499023e+00 2.374332427978515625e+00 8.729354858398437500e+00 3.331106185913085938e+00 -4.944504261016845703e+00
2.339000000000000000e+03 3.570602035522460938e+01 -1.108553791046142578e+01 1.574660897254943848e+00 4.984791278839111328e+00 1.967835545539855957e+00 3.678428888320922852e+00
2.340000000000000000e+03 3.922544860839843750e+01 -9.672116279602050781e+00 9.828038811683654785e-01 1.495308113098144531e+01 4.780765533447265625e+00 1.237174272537231445e+00
2.341000000000000000e+03 4.064134597778320312e+01 -9.324042320251464844e+00 2.825387477874755859e+00 1.422309112548828125e+01 5.114543437957763672e+00 -1.290513753890991211e+00
2.342000000000000000e+03 3.956768417358398438e+01 -9.798790931701660156e+00 1.138601899147033691e+00 1.470768737792968750e+01 4.753886699676513672e+00 6.192027926445007324e-01
2.343000000000000000e+03 4.061442947387695312e+01 -4.559146881103515625e+00 4.639408111572265625e+00 1.437659549713134766e+01 5.704801082611083984e+00 1.682573914527893066e+00
2.344000000000000000e+03 4.108184051513671875e+01 -8.427903175354003906e+00 5.115161418914794922e+00 1.355768489837646484e+01 5.601853847503662109e+00 -1.965306520462036133e+00
2.345000000000000000e+03 3.664164733886718750e+01 -2.505667448043823242e+00 1.926806688308715820e+00 7.152254104614257812e+00 2.723718166351318359e+00 -4.171512603759765625e+00
2.346000000000000000e+03 4.135598373413085938e+01 -5.077788352966308594e+00 5.937554836273193359e+00 1.284812641143798828e+01 5.635704517364501953e+00 1.655008316040039062e+00
2.347000000000000000e+03 4.044140625000000000e+01 -3.979195356369018555e+00 3.090682744979858398e+00 1.444760036468505859e+01 5.261485099792480469e+00 1.066446781158447266e+00
2.348000000000000000e+03 4.030949783325195312e+01 -4.242367267608642578e+00 3.581829071044921875e+00 1.496640586853027344e+01 5.564470767974853516e+00 1.256026625633239746e+00
2.349000000000000000e+03 3.641199111938476562e+01 -9.701078414916992188e+00 2.225261688232421875e+00 5.998321056365966797e+00 2.467074871063232422e+00 4.543899536132812500e+00
2.350000000000000000e+03 3.549538040161132812e+01 -3.408530712127685547e+00 2.788335323333740234e+00 3.672373533248901367e+00 1.938212633132934570e+00 -3.556106567382812500e+00
2.351000000000000000e+03 3.704389953613281250e+01 -1.066254425048828125e+01 1.180915951728820801e+00 8.341508865356445312e+00 2.856727361679077148e+00 4.149140357971191406e+00
2.352000000000000000e+03 3.321319198608398438e+01 -1.325189685821533203e+01 1.134361624717712402e+00 2.898815155029296875e+00 1.209953069686889648e+00 2.260045289993286133e+00
2.353000000000000000e+03 3.492859649658203125e+01 -1.233058834075927734e+01 1.245743632316589355e+00 4.352638244628906250e+00 1.679514646530151367e+00 3.051782131195068359e+00
2.354000000000000000e+03 3.449169158935546875e+01 -2.773221015930175781e+00 2.313857078552246094e+00 2.617900609970092773e+00 1.479527354240417480e+00 -2.676217794418334961e+00
2.355000000000000000e+03 3.327210235595703125e+01 -1.284787654876708984e+00 1.794437170028686523e+00 2.443317890167236328e+00 1.271326541900634766e+00 -2.178445816040039062e+00
2.356000000000000000e+03 2.526387596130371094e+01 1.279999256134033203e+00 5.090810060501098633e-01 4.663605690002441406e-01 2.926324903964996338e-01 -1.957705318927764893e-01
2.357000000000000000e+03 3.352283477783203125e+01 -1.421232223510742188e+01 9.594142436981201172e-01 3.525305986404418945e+00 1.345416069030761719e+00 2.358468055725097656e+00
2.358000000000000000e+03 3.037309837341308594e+01 1.943043351173400879e+00 1.059423208236694336e+00 1.996578097343444824e+00 9.168003797531127930e-01 -1.345409750938415527e+00
2.359000000000000000e+03 3.222026443481445312e+01 2.403801679611206055e+00 1.026035189628601074e+00 3.150194883346557617e+00 1.252869009971618652e+00 -1.869252562522888184e+00
2.360000000000000000e+03 2.914539909362792969e+01 9.978642463684082031e-01 9.961723685264587402e-01 1.263357400894165039e+00 6.778589487075805664e-01 -8.980624079704284668e-01
2.361000000000000000e+03 3.154827308654785156e+01 -1.863504201173782349e-01 1.394150972366333008e+00 1.822184085845947266e+00 9.649004936218261719e-01 -1.499214529991149902e+00
2.362000000000000000e+03 3.186383628845214844e+01 5.401455760002136230e-01 1.360013246536254883e+00 2.339415311813354492e+00 1.109828591346740723e+00 -1.743952751159667969e+00
2.363000000000000000e+03 2.881829643249511719e+01 -1.532078647613525391e+01 6.707643866539001465e-01 1.467575073242187500e+00 6.415018439292907715e-01 9.266179800033569336e-01
2.364000000000000000e+03 3.276361846923828125e+01 -1.399585819244384766e+01 1.014708042144775391e+00 2.886922121047973633e+00 1.170489072799682617e+00 2.099309682846069336e+00
2.365000000000000000e+03 2.357687187194824219e+01 -1.739800262451171875e+01 1.984367668628692627e-01 7.755292057991027832e-01 2.921897768974304199e-01 2.014074474573135376e-01
2.366000000000000000e+03 2.950444793701171875e+01 -1.542503738403320312e+01 7.090923190116882324e-01 1.708582997322082520e+00 7.253025770187377930e-01 1.103749752044677734e+00
2.367000000000000000e+03 3.147496604919433594e+01 -1.467807292938232422e+01 8.982798457145690918e-01 2.324157714843750000e+00 9.667313098907470703e-01 1.675172209739685059e+00
2.368000000000000000e+03 3.215954589843750000e+01 -1.431357860565185547e+01 9.716524481773376465e-01 2.600561618804931641e+00 1.071664214134216309e+00 1.908133149147033691e+00
2.369000000000000000e+03 3.063995361328125000e+01 -1.408821010589599609e+01 8.562932610511779785e-01 1.746098518371582031e+00 7.807175517082214355e-01 1.341409325599670410e+00
2.370000000000000000e+03 3.017226791381835938e+01 -1.505372714996337891e+01 7.668505907058715820e-01 1.864714980125427246e+00 7.894696593284606934e-01 1.266501069068908691e+00
2.371000000000000000e+03 3.132260322570800781e+01 -1.385830402374267578e+01 9.396913051605224609e-01 1.938400745391845703e+00 8.634275794029235840e-01 1.550877928733825684e+00
2.372000000000000000e+03 2.868544960021972656e+01 1.712039947509765625e+00 9.249083995819091797e-01 1.329027652740478516e+00 6.761808395385742188e-01 -8.845530152320861816e-01
2.373000000000000000e+03 2.826609039306640625e+01 -1.471549987792968750e+01 5.696651339530944824e-01 1.178345680236816406e+00 5.244032144546508789e-01 7.072105407714843750e-01
2.374000000000000000e+03 2.584501457214355469e+01 -1.654180145263671875e+01 3.823033869266510010e-01 1.036280274391174316e+00 4.255751073360443115e-01 4.294718801975250244e-01
2.375000000000000000e+03 2.677672386169433594e+01 -1.597122383117675781e+01 4.624378979206085205e-01 1.111139893531799316e+00 4.720733463764190674e-01 5.372456908226013184e-01
2.376000000000000000e+03 2.699708175659179688e+01 1.366994619369506836e+00 7.205932140350341797e-01 7.965924143791198730e-01 4.551556706428527832e-01 -4.722382426261901855e-01
2.377000000000000000e+03 2.608076095581054688e+01 1.360650062561035156e+00 6.094228029251098633e-01 6.269205212593078613e-01 3.709029853343963623e-01 -3.230892419815063477e-01
2.378000000000000000e+03 6.811006164550781250e+01 -1.049825096130371094e+01 4.087893664836883545e-01 7.289000034332275391e+00 2.309336900711059570e+00 -1.878081411123275757e-01
2.379000000000000000e+03 6.878662872314453125e+01 -1.345662593841552734e+01 2.933387160301208496e-01 7.316569805145263672e+00 2.282972574234008789e+00 -3.375937044620513916e-01
2.380000000000000000e+03 2.500473022460937500e+01 7.145514488220214844e-01 4.460080862045288086e-01 3.667833209037780762e-01 2.438374161720275879e-01 -9.260832518339157104e-02
2.381000000000000000e+03 2.551544570922851562e+01 3.698687553405761719e-01 4.920677840709686279e-01 3.999499678611755371e-01 2.676053345203399658e-01 -1.170178726315498352e-01
2.382000000000000000e+03 6.794126892089843750e+01 -1.690352630615234375e+01 2.232602685689926147e-01 7.436798572540283203e+00 2.298017740249633789e+00 -4.862489402294158936e-01
2.383000000000000000e+03 6.932987213134765625e+01 -4.074998855590820312e+00 3.562544286251068115e-01 7.243215560913085938e+00 2.279841184616088867e+00 2.112325578927993774e-01
2.384000000000000000e+03 6.924918365478515625e+01 -5.347841262817382812e+00 3.755733966827392578e-01 7.232623577117919922e+00 2.282459020614624023e+00 1.338729858398437500e-01
2.385000000000000000e+03 2.305727005004882812e+01 2.024265670776367188e+01 -6.449153274297714233e-02 1.797822117805480957e+00 5.199991464614868164e-01 -5.884052515029907227e-01
2.386000000000000000e+03 6.654210662841796875e+01 -2.493610000610351562e+01 -8.380918949842453003e-02 7.698973655700683594e+00 2.284549236297607422e+00 -5.811982154846191406e-01
2.387000000000000000e+03 6.529718780517578125e+01 1.658004570007324219e+01 -1.632184684276580811e-01 7.883543491363525391e+00 2.316097497940063477e+00 7.553604245185852051e-01
2.388000000000000000e+03 6.882119750976562500e+01 1.664815521240234375e+01 -1.023558154702186584e-01 7.920997619628906250e+00 2.345592498779296875e+00 6.740458011627197266e-01
2.389000000000000000e+03 6.882102203369140625e+01 7.789438247680664062e+00 1.045549735426902771e-01 7.613991737365722656e+00 2.315564155578613281e+00 6.996642351150512695e-01
2.390000000000000000e+03 2.118756675720214844e+01 -1.969805908203125000e+01 1.226939260959625244e-01 6.408782005310058594e-01 2.290716320276260376e-01 1.660369932651519775e-01
2.391000000000000000e+03 6.920359039306640625e+01 -7.972645759582519531e+00 3.732865750789642334e-01 7.224477767944335938e+00 2.279329299926757812e+00 -2.372703887522220612e-02
2.392000000000000000e+03 6.802029418945312500e+01 -9.281959533691406250e+00 4.372437894344329834e-01 7.280120372772216797e+00 2.315209150314331055e+00 -1.165600791573524475e-01
2.393000000000000000e+03 6.920214843750000000e+01 -1.821215867996215820e+00 3.479760289192199707e-01 7.288760185241699219e+00 2.291020870208740234e+00 3.433243632316589355e-01
2.394000000000000000e+03 2.759753799438476562e+01 5.331544876098632812e+00 5.504548549652099609e-01 1.698036432266235352e+00 6.745473742485046387e-01 -9.500527977943420410e-01
2.395000000000000000e+03 6.994756317138671875e+01 -1.896330642700195312e+01 1.029588803648948669e-01 7.410758018493652344e+00 2.254115104675292969e+00 -4.728689789772033691e-01
2.396000000000000000e+03 6.778701782226562500e+01 -2.133106994628906250e+01 5.586903169751167297e-02 7.566151618957519531e+00 2.286606311798095703e+00 -5.670331120491027832e-01
2.397000000000000000e+03 6.887967681884765625e+01 8.674917221069335938e-01 3.074729144573211670e-01 7.369761943817138672e+00 2.303170442581176758e+00 4.865851700305938721e-01
2.398000000000000000e+03 2.439038085937500000e+01 1.110372734069824219e+01 1.308554857969284058e-01 1.462730526924133301e+00 4.780758023262023926e-01 -7.432800531387329102e-01
2.399000000000000000e+03 2.409189414978027344e+01 1.234660816192626953e+01 7.211642712354660034e-02 1.500206470489501953e+00 4.716968536376953125e-01 -7.199172377586364746e-01
2.400000000000000000e+03 2.389417076110839844e+01 1.368671512603759766e+01 2.573656477034091949e-02 1.558580398559570312e+00 4.752950668334960938e-01 -6.941791772842407227e-01
2.401000000000000000e+03 6.533685302734375000e+01 -2.620166778564453125e+01 -1.520352810621261597e-01 7.758877277374267578e+00 2.282052516937255859e+00 -5.824137330055236816e-01
2.402000000000000000e+03 6.666865539550781250e+01 -2.770408058166503906e+01 -1.677177101373672485e-01 7.748021125793457031e+00 2.274091005325317383e+00 -5.248264074325561523e-01
2.403000000000000000e+03 1.157302474975585938e+01 -2.615666961669921875e+01 1.918080449104309082e-01 -2.540467977523803711e-01 -1.867162249982357025e-02 -2.758997976779937744e-01
2.404000000000000000e+03 2.713356018066406250e+01 7.448554515838623047e+00 3.644250333309173584e-01 1.837965130805969238e+00 6.607170701026916504e-01 -9.588623046875000000e-01
2.405000000000000000e+03 2.848262596130371094e+01 8.062391281127929688e+00 3.363086581230163574e-01 2.419119119644165039e+00 8.266283869743347168e-01 -1.147209405899047852e+00
2.406000000000000000e+03 6.708531188964843750e+01 1.667732048034667969e+01 -1.337668746709823608e-01 7.903259754180908203e+00 2.330847978591918945e+00 7.204165458679199219e-01
2.407000000000000000e+03 2.276397323608398438e+01 2.217690849304199219e+01 -5.790476873517036438e-02 1.812077999114990234e+00 5.262519717216491699e-01 -5.402088761329650879e-01
2.408000000000000000e+03 1.266558837890625000e+01 -2.481110191345214844e+01 1.725070178508758545e-01 -2.269972860813140869e-01 -1.634707860648632050e-02 -2.416213452816009521e-01
2.409000000000000000e+03 6.807058715820312500e+01 -1.478614425659179688e+01 2.781636416912078857e-01 7.375142574310302734e+00 2.295991897583007812e+00 -4.046298265457153320e-01
2.410000000000000000e+03 1.643431282043457031e+01 2.589635276794433594e+01 7.329238951206207275e-02 8.131807446479797363e-01 2.659419476985931396e-01 -1.880074143409729004e-01
2.411000000000000000e+03 3.603511810302734375e+01 -2.505911588668823242e+00 2.188436746597290039e+00 5.727626323699951172e+00 2.374819040298461914e+00 -3.939820051193237305e+00
2.412000000000000000e+03 3.707422256469726562e+01 -2.923306941986083984e+00 1.897878885269165039e+00 8.549863815307617188e+00 3.134322643280029297e+00 -4.407773971557617188e+00
2.413000000000000000e+03 3.828901672363281250e+01 -3.222985029220581055e+00 1.194877386093139648e+00 1.268510532379150391e+01 4.163994789123535156e+00 -3.453073978424072266e+00
2.414000000000000000e+03 3.845027542114257812e+01 -2.783506155014038086e+00 9.539942145347595215e-01 1.221567344665527344e+01 3.950900316238403320e+00 -2.967395782470703125e+00
2.415000000000000000e+03 3.830250930786132812e+01 -1.015576648712158203e+01 6.385597586631774902e-01 1.232621192932128906e+01 3.889431715011596680e+00 3.317663908004760742e+00
2.416000000000000000e+03 3.851097869873046875e+01 -9.880464553833007812e+00 6.964802145957946777e-01 1.347641468048095703e+01 4.251868724822998047e+00 2.968127250671386719e+00
2.417000000000000000e+03 3.740316772460937500e+01 -9.876976966857910156e+00 1.455674409866333008e+00 9.813400268554687500e+00 3.380722284317016602e+00 4.702030181884765625e+00
2.418000000000000000e+03 3.622741699218750000e+01 -1.010437107086181641e+01 1.997350573539733887e+00 5.660298824310302734e+00 2.297294855117797852e+00 4.283587932586669922e+00
2.419000000000000000e+03 3.874868392944335938e+01 -1.014174842834472656e+01 5.816650390625000000e-01 1.330325603485107422e+01 4.165476322174072266e+00 2.499753713607788086e+00
2.420000000000000000e+03 3.951311874389648438e+01 -3.076782226562500000e+00 1.215606451034545898e+00 1.393867397308349609e+01 4.546284198760986328e+00 -1.000460267066955566e+00
2.421000000000000000e+03 4.050275802612304688e+01 -9.672801971435546875e+00 2.172592878341674805e+00 1.407673645019531250e+01 4.874798774719238281e+00 -8.561019301414489746e-01
2.422000000000000000e+03 3.955884933471679688e+01 -1.027932453155517578e+01 7.441751360893249512e-01 1.380764484405517578e+01 4.365546226501464844e+00 9.826666116714477539e-01
2.423000000000000000e+03 4.164487075805664062e+01 -8.383011817932128906e+00 5.204548358917236328e+00 1.249960899353027344e+01 5.311247348785400391e+00 -1.712117314338684082e+00
2.424000000000000000e+03 4.103094100952148438e+01 -4.484700679779052734e+00 4.669667243957519531e+00 1.355379009246826172e+01 5.467037200927734375e+00 1.697917938232421875e+00
2.425000000000000000e+03 3.521668243408203125e+01 -2.986918449401855469e+00 2.540181159973144531e+00 3.586838960647583008e+00 1.838106155395507812e+00 -3.335216760635375977e+00
2.426000000000000000e+03 4.150320816040039062e+01 -4.251894474029541016e+00 4.376926898956298828e+00 1.273964214324951172e+01 5.134970664978027344e+00 1.630031466484069824e+00
2.427000000000000000e+03 4.202126693725585938e+01 -5.126919269561767578e+00 5.773019313812255859e+00 1.179225063323974609e+01 5.269580841064453125e+00 1.378960251808166504e+00
2.428000000000000000e+03 4.175950241088867188e+01 -4.700588703155517578e+00 5.120669364929199219e+00 1.229057407379150391e+01 5.223372936248779297e+00 1.603884577751159668e+00
2.429000000000000000e+03 3.724173355102539062e+01 -1.028640174865722656e+01 1.242898821830749512e+00 8.878990173339843750e+00 3.036566734313964844e+00 4.383598804473876953e+00
2.430000000000000000e+03 3.663043975830078125e+01 -1.040021324157714844e+01 1.592433214187622070e+00 7.043001174926757812e+00 2.590630292892456055e+00 4.332573890686035156e+00
2.431000000000000000e+03 3.424111175537109375e+01 -1.254944705963134766e+01 1.235399365425109863e+00 3.581834077835083008e+00 1.445170044898986816e+00 2.719624996185302734e+00
2.432000000000000000e+03 3.580801391601562500e+01 -1.147633743286132812e+01 1.378580689430236816e+00 5.458298683166503906e+00 2.051063776016235352e+00 3.656349897384643555e+00
2.433000000000000000e+03 3.348802947998046875e+01 -1.273790073394775391e+01 1.202700972557067871e+00 2.917215347290039062e+00 1.235974907875061035e+00 2.355043649673461914e+00
2.434000000000000000e+03 3.432047271728515625e+01 -1.333529376983642578e+01 1.078835606575012207e+00 4.002336025238037109e+00 1.524351477622985840e+00 2.704973459243774414e+00
2.435000000000000000e+03 3.495270156860351562e+01 -2.514684677124023438e+00 2.338690042495727539e+00 3.539191722869873047e+00 1.763364434242248535e+00 -3.160286664962768555e+00
2.436000000000000000e+03 3.424210739135742188e+01 -2.233977317810058594e+00 2.136021375656127930e+00 2.764308452606201172e+00 1.470098972320556641e+00 -2.609959363937377930e+00
2.437000000000000000e+03 3.401234436035156250e+01 -1.708528280258178711e+00 1.963236331939697266e+00 2.865125656127929688e+00 1.448508620262145996e+00 -2.522313833236694336e+00
2.438000000000000000e+03 3.035880661010742188e+01 1.106582999229431152e+00 1.149170756340026855e+00 1.726959705352783203e+00 8.628391027450561523e-01 -1.259320974349975586e+00
2.439000000000000000e+03 2.738772773742675781e+01 3.792624473571777344e+00 6.530635356903076172e-01 1.367310285568237305e+00 6.061121821403503418e-01 -8.063427805900573730e-01
2.440000000000000000e+03 2.935341262817382812e+01 1.507765293121337891e+00 1.013114452362060547e+00 1.491402268409729004e+00 7.513549923896789551e-01 -1.031980156898498535e+00
2.441000000000000000e+03 2.736599731445312500e+01 3.135491132736206055e+00 7.007441520690917969e-01 1.241669774055480957e+00 5.827241539955139160e-01 -7.538425326347351074e-01
2.442000000000000000e+03 2.853228569030761719e+01 1.121121525764465332e+00 9.303686022758483887e-01 1.130848526954650879e+00 6.183651089668273926e-01 -7.752038836479187012e-01
2.443000000000000000e+03 2.669046592712402344e+01 2.404103755950927734e+00 6.578723788261413574e-01 9.112082719802856445e-01 4.707241952419281006e-01 -5.373452305793762207e-01
2.444000000000000000e+03 2.824975776672363281e+01 -1.610938072204589844e+01 6.030005216598510742e-01 1.490700840950012207e+00 6.281104087829589844e-01 8.665252327919006348e-01
2.445000000000000000e+03 2.539077186584472656e+01 -1.551687812805175781e+01 2.832230329513549805e-01 7.965475916862487793e-01 3.239311873912811279e-01 2.453740537166595459e-01
2.446000000000000000e+03 3.302268600463867188e+01 -1.460500144958496094e+01 9.163433313369750977e-01 3.265757322311401367e+00 1.254630208015441895e+00 2.163053274154663086e+00
2.447000000000000000e+03 2.984928512573242188e+01 -1.783757781982421875e+01 5.907033681869506836e-01 2.448384523391723633e+00 9.117264151573181152e-01 1.305022239685058594e+00
2.448000000000000000e+03 2.983542251586914062e+01 -1.621988105773925781e+01 7.185986042022705078e-01 2.053166866302490234e+00 8.315296769142150879e-01 1.265844941139221191e+00
2.449000000000000000e+03 3.179042053222656250e+01 -1.547550868988037109e+01 8.408719301223754883e-01 2.735065460205078125e+00 1.072781205177307129e+00 1.794523477554321289e+00
2.450000000000000000e+03 3.078969383239746094e+01 -1.486417388916015625e+01 8.395521640777587891e-01 2.088943719863891602e+00 8.785487413406372070e-01 1.462969779968261719e+00
2.451000000000000000e+03 3.244779968261718750e+01 -1.501719856262207031e+01 8.753473758697509766e-01 2.984541416168212891e+00 1.157966613769531250e+00 1.984970450401306152e+00
2.452000000000000000e+03 3.173973655700683594e+01 -1.669611740112304688e+01 6.827271580696105957e-01 3.018285512924194336e+00 1.110303759574890137e+00 1.745426654815673828e+00
2.453000000000000000e+03 3.113537979125976562e+01 -1.612396240234375000e+01 7.596006989479064941e-01 2.583499908447265625e+00 1.002930164337158203e+00 1.599461555480957031e+00
2.454000000000000000e+03 2.397635459899902344e+01 -1.885858345031738281e+01 2.883918583393096924e-01 1.013576030731201172e+00 3.905903697013854980e-01 3.601427376270294189e-01
2.455000000000000000e+03 2.901948356628417969e+01 -1.695530891418457031e+01 6.300130486488342285e-01 1.913832187652587891e+00 7.631535530090332031e-01 1.092444896697998047e+00
2.456000000000000000e+03 2.648691940307617188e+01 3.783961534500122070e+00 5.830372571945190430e-01 1.112614631652832031e+00 5.086956024169921875e-01 -6.528765559196472168e-01
2.457000000000000000e+03 2.719593238830566406e+01 1.985908269882202148e+00 7.237278819084167480e-01 9.547466039657592773e-01 5.035423636436462402e-01 -5.764736533164978027e-01
2.458000000000000000e+03 2.518647956848144531e+01 1.242247009277343750e+01 6.502715498208999634e-02 1.807567000389099121e+00 5.617782473564147949e-01 -8.068109750747680664e-01
2.459000000000000000e+03 2.510093688964843750e+01 1.507773685455322266e+01 -7.053184323012828827e-03 1.986369132995605469e+00 5.937947630882263184e-01 -7.862805724143981934e-01
2.460000000000000000e+03 2.502672195434570312e+01 1.666083717346191406e+01 -5.415880680084228516e-02 2.070811271667480469e+00 6.049957275390625000e-01 -7.611476182937622070e-01
2.461000000000000000e+03 2.590607452392578125e+01 2.141963720321655273e+00 5.779933929443359375e-01 7.096773982048034668e-01 3.863012194633483887e-01 -3.828716874122619629e-01
2.462000000000000000e+03 2.689840316772460938e+01 6.396479606628417969e+00 4.316861331462860107e-01 1.636566162109375000e+00 6.204757094383239746e-01 -8.976865410804748535e-01
2.463000000000000000e+03 2.912635612487792969e+01 1.057898616790771484e+01 1.080257743597030640e-01 2.885869979858398438e+00 8.981687426567077637e-01 -1.145360946655273438e+00
2.464000000000000000e+03 6.797227478027343750e+01 -1.169585418701171875e+01 3.846558332443237305e-01 7.316300868988037109e+00 2.310286998748779297e+00 -2.643362879753112793e-01
2.465000000000000000e+03 6.695674133300781250e+01 -1.395461273193359375e+01 3.605948090553283691e-01 7.401507377624511719e+00 2.328630685806274414e+00 -3.999532759189605713e-01
2.466000000000000000e+03 6.683583831787109375e+01 -9.475793838500976562e+00 5.044355392456054688e-01 7.325387477874755859e+00 2.348946809768676758e+00 -1.389295458793640137e-01
2.467000000000000000e+03 7.058518981933593750e+01 -4.121349811553955078e+00 2.876459360122680664e-01 7.187680721282958984e+00 2.242598056793212891e+00 1.883364617824554443e-01
2.468000000000000000e+03 6.891328430175781250e+01 3.674905061721801758e+00 2.285744845867156982e-01 7.460202217102050781e+00 2.306632995605468750e+00 5.997062921524047852e-01
2.469000000000000000e+03 6.746352386474609375e+01 7.971150279045104980e-01 3.721184432506561279e-01 7.415482521057128906e+00 2.336280345916748047e+00 5.236241221427917480e-01
2.470000000000000000e+03 2.670839881896972656e+01 5.441967010498046875e+00 4.903063476085662842e-01 1.434735536575317383e+00 5.775125622749328613e-01 -8.157898187637329102e-01
2.471000000000000000e+03 6.691300964355468750e+01 -1.787971496582031250e+01 2.090039253234863281e-01 7.504171848297119141e+00 2.313952684402465820e+00 -5.386039018630981445e-01
2.472000000000000000e+03 6.759594726562500000e+01 4.928779602050781250e+00 2.261678129434585571e-01 7.545311450958251953e+00 2.331443786621093750e+00 6.862980127334594727e-01
2.473000000000000000e+03 2.872335815429687500e+01 5.938511371612548828e+00 5.187377929687500000e-01 2.208150148391723633e+00 8.180664181709289551e-01 -1.141114592552185059e+00
2.474000000000000000e+03 6.788523101806640625e+01 -1.905750274658203125e+01 1.425541341304779053e-01 7.495581626892089844e+00 2.291440725326538086e+00 -5.380095839500427246e-01
2.475000000000000000e+03 1.290003585815429688e+01 -2.752687454223632812e+01 2.338932007551193237e-01 -6.424657255411148071e-02 5.089398846030235291e-02 -1.846318542957305908e-01
2.476000000000000000e+03 2.161513519287109375e+01 -2.193201828002929688e+01 2.173533290624618530e-01 8.607164025306701660e-01 3.234209120273590088e-01 3.018197119235992432e-01
2.477000000000000000e+03 6.885753631591796875e+01 6.439526081085205078e+00 1.435814946889877319e-01 7.563793182373046875e+00 2.312212228775024414e+00 6.753529906272888184e-01
2.478000000000000000e+03 2.495449447631835938e+01 1.839104270935058594e+01 -8.932142704725265503e-02 2.154346942901611328e+00 6.195076704025268555e-01 -7.250221967697143555e-01
2.479000000000000000e+03 6.997994232177734375e+01 1.341593170166015625e+01 -3.608693182468414307e-02 7.815666198730468750e+00 2.333873748779296875e+00 6.722410917282104492e-01
2.480000000000000000e+03 6.719255065917968750e+01 1.166274738311767578e+01 -1.010779757052659988e-02 7.774971008300781250e+00 2.329458951950073242e+00 7.749760150909423828e-01
2.481000000000000000e+03 6.737682342529296875e+01 1.029223442077636719e+01 3.537489473819732666e-02 7.730784893035888672e+00 2.329847812652587891e+00 7.742874622344970703e-01
2.482000000000000000e+03 6.775967407226562500e+01 2.269553184509277344e+01 -1.971237510442733765e-01 8.043922424316406250e+00 2.354039669036865234e+00 5.662170648574829102e-01
2.483000000000000000e+03 6.542493438720703125e+01 -2.353025817871093750e+01 -4.004485160112380981e-02 7.704563140869140625e+00 2.299355506896972656e+00 -6.217057704925537109e-01
2.484000000000000000e+03 6.418400573730468750e+01 -2.464928436279296875e+01 -1.084812432527542114e-01 7.768303394317626953e+00 2.297946691513061523e+00 -6.313505768775939941e-01
2.485000000000000000e+03 2.464295959472656250e+01 2.250239753723144531e+01 -1.063734814524650574e-01 2.244348764419555664e+00 6.413925886154174805e-01 -6.044762134552001953e-01
2.486000000000000000e+03 6.700379943847656250e+01 1.486521625518798828e+01 -9.297760576009750366e-02 7.858955860137939453e+00 2.329793453216552734e+00 7.502958178520202637e-01
2.487000000000000000e+03 6.871035766601562500e+01 1.048036289215087891e+01 2.796974405646324158e-02 7.716556072235107422e+00 2.323357820510864258e+00 7.285069227218627930e-01
2.488000000000000000e+03 2.076840209960937500e+01 2.355597496032714844e+01 -3.175973147153854370e-02 1.429329395294189453e+00 4.192709028720855713e-01 -4.595357477664947510e-01
2.489000000000000000e+03 2.815490150451660156e+01 9.786910057067871094e+00 2.059510946273803711e-01 2.472551822662353516e+00 8.035508990287780762e-01 -1.094621419906616211e+00
2.490000000000000000e+03 3.638481140136718750e+01 -2.272115230560302734e+00 1.918283462524414062e+00 6.647753238677978516e+00 2.569811105728149414e+00 -3.992827415466308594e+00
2.491000000000000000e+03 4.149699020385742188e+01 -7.478200912475585938e+00 6.996044158935546875e+00 1.232473278045654297e+01 5.796233177185058594e+00 -1.277176022529602051e+00
2.492000000000000000e+03 3.877964782714843750e+01 -3.023951053619384766e+00 9.986656904220581055e-01 1.329390907287597656e+01 4.287772655487060547e+00 -2.395402193069458008e+00
2.493000000000000000e+03 3.808269119262695312e+01 -2.615000247955322266e+00 1.054772973060607910e+00 1.119781303405761719e+01 3.675775766372680664e+00 -3.390738248825073242e+00
2.494000000000000000e+03 3.678012084960937500e+01 -3.109907627105712891e+00 2.282317638397216797e+00 7.518347263336181641e+00 2.940199375152587891e+00 -4.554255962371826172e+00
2.495000000000000000e+03 4.039700317382812500e+01 -1.007083702087402344e+01 1.523126244544982910e+00 1.382075786590576172e+01 4.603165149688720703e+00 -3.810694813728332520e-01
2.496000000000000000e+03 3.562892532348632812e+01 -2.729675769805908203e+00 2.435018777847290039e+00 4.627439975738525391e+00 2.118737697601318359e+00 -3.719262361526489258e+00
2.497000000000000000e+03 3.587179565429687500e+01 -3.146809577941894531e+00 2.648784875869750977e+00 4.801806449890136719e+00 2.235177516937255859e+00 -3.963912487030029297e+00
2.498000000000000000e+03 3.992914581298828125e+01 -3.681368827819824219e+00 2.171085596084594727e+00 1.476811218261718750e+01 5.081759452819824219e+00 2.003372311592102051e-01
2.499000000000000000e+03 3.925029373168945312e+01 -2.904426574707031250e+00 1.032812476158142090e+00 1.355125331878662109e+01 4.375219821929931641e+00 -1.518577814102172852e+00
2.500000000000000000e+03 3.794332885742187500e+01 -1.102782344818115234e+01 5.178055167198181152e-01 1.041306686401367188e+01 3.279261827468872070e+00 3.422248840332031250e+00
2.501000000000000000e+03 3.747318267822265625e+01 -2.146422147750854492e+00 1.205301523208618164e+00 9.433247566223144531e+00 3.191564798355102539e+00 -3.727716922760009766e+00
2.502000000000000000e+03 3.996479415893554688e+01 -9.897024154663085938e+00 1.387742996215820312e+00 1.429504299163818359e+01 4.704835891723632812e+00 1.640411466360092163e-02
2.503000000000000000e+03 3.922251129150390625e+01 -1.031877326965332031e+01 5.809112787246704102e-01 1.355821990966796875e+01 4.241739273071289062e+00 1.580000400543212891e+00
2.504000000000000000e+03 4.019998168945312500e+01 -3.816666603088378906e+00 2.656472682952880859e+00 1.466416549682617188e+01 5.196191310882568359e+00 7.233677506446838379e-01
2.505000000000000000e+03 3.904220199584960938e+01 -1.075224781036376953e+01 3.543571531772613525e-01 1.281612396240234375e+01 3.951144456863403320e+00 2.031570434570312500e+00
2.506000000000000000e+03 4.039389038085937500e+01 -3.473630905151367188e+00 2.309955358505249023e+00 1.395061588287353516e+01 4.878171443939208984e+00 5.953438282012939453e-01
2.507000000000000000e+03 4.138013839721679688e+01 -6.638242244720458984e+00 7.890488147735595703e+00 1.224505233764648438e+01 6.040662288665771484e+00 -1.594678461551666260e-01
2.508000000000000000e+03 4.118483352661132812e+01 -9.131228446960449219e+00 3.612329483032226562e+00 1.335377597808837891e+01 5.089831829071044922e+00 -1.672523736953735352e+00
2.509000000000000000e+03 3.608074951171875000e+01 -1.090319824218750000e+01 1.569929122924804688e+00 5.758450031280517578e+00 2.198513746261596680e+00 3.904011964797973633e+00
2.510000000000000000e+03 4.172367858886718750e+01 -7.848926544189453125e+00 6.153829574584960938e+00 1.215765476226806641e+01 5.493445396423339844e+00 -1.469290733337402344e+00
2.511000000000000000e+03 4.089318847656250000e+01 -4.080642223358154297e+00 3.715559005737304688e+00 1.368203926086425781e+01 5.219279289245605469e+00 1.457369685173034668e+00
2.512000000000000000e+03 3.521304321289062500e+01 -1.184136962890625000e+01 1.374576568603515625e+00 4.571865081787109375e+00 1.783932447433471680e+00 3.292672157287597656e+00
2.513000000000000000e+03 3.387803268432617188e+01 -1.228772163391113281e+01 1.300720214843750000e+00 3.055750608444213867e+00 1.306941151618957520e+00 2.539633035659790039e+00
2.514000000000000000e+03 3.361102676391601562e+01 -1.344946289062500000e+01 1.103409767150878906e+00 3.371728897094726562e+00 1.342541575431823730e+00 2.444020032882690430e+00
2.515000000000000000e+03 3.394878387451171875e+01 -1.379602432250976562e+01 1.014070987701416016e+00 3.797498226165771484e+00 1.443470835685729980e+00 2.531289100646972656e+00
2.516000000000000000e+03 3.386492538452148438e+01 -1.466964912414550781e+01 8.516947031021118164e-01 3.929328680038452148e+00 1.434306979179382324e+00 2.399291515350341797e+00
2.517000000000000000e+03 3.261627960205078125e+01 1.263434067368507385e-02 1.492478013038635254e+00 2.590564250946044922e+00 1.224912643432617188e+00 -1.973139405250549316e+00
2.518000000000000000e+03 3.382367706298828125e+01 -1.162586688995361328e+00 1.807237267494201660e+00 2.993628025054931641e+00 1.440259575843811035e+00 -2.463085412979125977e+00
2.519000000000000000e+03 3.240463638305664062e+01 6.548240184783935547e-01 1.353003740310668945e+00 2.702368974685668945e+00 1.216611862182617188e+00 -1.930121541023254395e+00
2.520000000000000000e+03 3.171047401428222656e+01 1.181504964828491211e+00 1.250074982643127441e+00 2.454997539520263672e+00 1.111521840095520020e+00 -1.712683200836181641e+00
2.521000000000000000e+03 2.795874977111816406e+01 1.842022776603698730e+00 8.256686329841613770e-01 1.130119919776916504e+00 5.867365598678588867e-01 -7.304747104644775391e-01
2.522000000000000000e+03 2.970157432556152344e+01 1.042804241180419922e+00 1.061368584632873535e+00 1.491110086441040039e+00 7.657436132431030273e-01 -1.060387134552001953e+00
2.523000000000000000e+03 3.294097900390625000e+01 -6.429786682128906250e-01 1.634824156761169434e+00 2.523808956146240234e+00 1.247589945793151855e+00 -2.071759700775146484e+00
2.524000000000000000e+03 3.108059310913085938e+01 1.108552813529968262e+00 1.220322728157043457e+00 2.065464496612548828e+00 9.857361912727355957e-01 -1.495011091232299805e+00
2.525000000000000000e+03 2.977807807922363281e+01 2.894521713256835938e+00 9.152509570121765137e-01 2.019815206527709961e+00 8.805198669433593750e-01 -1.263201594352722168e+00
2.526000000000000000e+03 2.846468162536621094e+01 5.165735721588134766e+00 6.118654608726501465e-01 1.983582973480224609e+00 7.786345481872558594e-01 -1.090771794319152832e+00
2.527000000000000000e+03 2.745660209655761719e+01 4.521870136260986328e+00 6.119042634963989258e-01 1.516905188560485840e+00 6.386428475379943848e-01 -8.733847141265869141e-01
2.528000000000000000e+03 3.287224578857421875e+01 -1.570910167694091797e+01 7.634587883949279785e-01 3.457141160964965820e+00 1.266180038452148438e+00 2.076760292053222656e+00
2.529000000000000000e+03 3.131732177734375000e+01 -1.753704071044921875e+01 6.133444309234619141e-01 2.988923072814941406e+00 1.080680251121520996e+00 1.635404229164123535e+00
2.530000000000000000e+03 3.226481246948242188e+01 -1.616498374938964844e+01 7.289925813674926758e-01 3.234368324279785156e+00 1.189008355140686035e+00 1.891589045524597168e+00
2.531000000000000000e+03 3.055237388610839844e+01 -1.559693908691406250e+01 8.059817552566528320e-01 2.188616752624511719e+00 8.983795046806335449e-01 1.454568028450012207e+00
2.532000000000000000e+03 2.643792724609375000e+01 -1.760687065124511719e+01 4.516246020793914795e-01 1.335283160209655762e+00 5.360723137855529785e-01 6.219760775566101074e-01
2.533000000000000000e+03 3.082942962646484375e+01 -1.858273506164550781e+01 5.237010717391967773e-01 2.992889404296875000e+00 1.054977178573608398e+00 1.505845904350280762e+00
2.534000000000000000e+03 2.885804176330566406e+01 2.331342935562133789e+00 8.832693099975585938e-01 1.525702714920043945e+00 7.226915955543518066e-01 -9.816029071807861328e-01
2.535000000000000000e+03 2.808435058593750000e+01 7.124586582183837891e+00 3.960868120193481445e-01 2.134468078613281250e+00 7.591664791107177734e-01 -1.067354321479797363e+00
2.536000000000000000e+03 2.603585815429687500e+01 -1.954763603210449219e+01 4.062079191207885742e-01 1.538872718811035156e+00 5.835241675376892090e-01 6.677870154380798340e-01
2.537000000000000000e+03 2.478367996215820312e+01 -1.703070259094238281e+01 2.960778772830963135e-01 9.312620162963867188e-01 3.682019710540771484e-01 3.196788728237152100e-01
2.538000000000000000e+03 2.780856513977050781e+01 6.202779769897460938e+00 4.819504022598266602e-01 1.897871136665344238e+00 7.139464616775512695e-01 -1.015909194946289062e+00
2.539000000000000000e+03 2.823454856872558594e+01 3.747969627380371094e+00 7.224043607711791992e-01 1.616532683372497559e+00 7.016811370849609375e-01 -9.668853878974914551e-01
2.540000000000000000e+03 2.817185211181640625e+01 -1.783586120605468750e+01 5.489073395729064941e-01 1.829892396926879883e+00 7.136399149894714355e-01 9.557121396064758301e-01
2.541000000000000000e+03 6.761418914794921875e+01 3.565028429031372070e+00 2.768962681293487549e-01 7.496461868286132812e+00 2.332007408142089844e+00 6.399300098419189453e-01
2.542000000000000000e+03 6.628990936279296875e+01 -1.083006572723388672e+01 5.130560994148254395e-01 7.365084648132324219e+00 2.363442182540893555e+00 -2.399761527776718140e-01
2.543000000000000000e+03 6.699031066894531250e+01 -1.137878322601318359e+01 4.500971436500549316e-01 7.349424839019775391e+00 2.339856624603271484e+00 -2.638801634311676025e-01
2.544000000000000000e+03 2.665161514282226562e+01 1.816718864440917969e+01 -1.196550577878952026e-01 2.548258781433105469e+00 7.285811305046081543e-01 -8.062137961387634277e-01
2.545000000000000000e+03 2.517156600952148438e+01 1.363643264770507812e+01 2.240826189517974854e-02 1.883362531661987305e+00 5.717312693595886230e-01 -7.980886697769165039e-01
2.546000000000000000e+03 6.706865692138671875e+01 -1.583946228027343750e+01 2.866263985633850098e-01 7.443073272705078125e+00 2.318909883499145508e+00 -4.705615043640136719e-01
2.547000000000000000e+03 6.493633270263671875e+01 -1.748164558410644531e+01 2.760640978813171387e-01 7.569920539855957031e+00 2.353795289993286133e+00 -5.809684395790100098e-01
2.548000000000000000e+03 6.836585235595703125e+01 -2.613754510879516602e+00 3.985920846462249756e-01 7.306684017181396484e+00 2.311582803726196289e+00 3.133590519428253174e-01
2.549000000000000000e+03 6.779019165039062500e+01 -6.594626426696777344e+00 4.706560969352722168e-01 7.283543586730957031e+00 2.326259851455688477e+00 6.260745972394943237e-02
2.550000000000000000e+03 7.058629608154296875e+01 -2.849862575531005859e+00 2.841788530349731445e-01 7.209499835968017578e+00 2.248103618621826172e+00 2.543975114822387695e-01
2.551000000000000000e+03 2.977834129333496094e+01 8.093186378479003906e+00 3.061215877532958984e-01 2.904042720794677734e+00 9.630492329597473145e-01 -1.292060852050781250e+00
2.552000000000000000e+03 6.890470886230468750e+01 -5.769432783126831055e-01 3.345461189746856689e-01 7.329060554504394531e+00 2.299082040786743164e+00 4.111075699329376221e-01
2.553000000000000000e+03 6.532427978515625000e+01 -4.911999702453613281e+00 6.425633430480957031e-01 7.375365257263183594e+00 2.405378580093383789e+00 1.930193006992340088e-01
2.554000000000000000e+03 6.737392425537109375e+01 -6.858571171760559082e-01 4.198906719684600830e-01 7.377099990844726562e+00 2.339097261428833008e+00 4.434281289577484131e-01
2.555000000000000000e+03 6.603709411621093750e+01 -1.670461845397949219e+01 2.888891398906707764e-01 7.506724834442138672e+00 2.338684082031250000e+00 -5.332533717155456543e-01
2.556000000000000000e+03 2.740949249267578125e+01 -1.688302040100097656e+01 5.251374244689941406e-01 1.442767143249511719e+00 5.903713703155517578e-01 7.435764074325561523e-01
2.557000000000000000e+03 2.808751869201660156e+01 1.596022987365722656e+01 -1.152788177132606506e-01 2.848845720291137695e+00 8.200700879096984863e-01 -9.337136149406433105e-01
2.558000000000000000e+03 6.746034240722656250e+01 7.659295558929443359e+00 1.293909847736358643e-01 7.638425350189208984e+00 2.330344915390014648e+00 7.427059412002563477e-01
2.559000000000000000e+03 6.704305267333984375e+01 1.317883205413818359e+01 -5.225313082337379456e-02 7.815240383148193359e+00 2.328896284103393555e+00 7.673397064208984375e-01
2.560000000000000000e+03 6.531603240966796875e+01 1.467269039154052734e+01 -1.140581667423248291e-01 7.853823184967041016e+00 2.321929454803466797e+00 7.882884144783020020e-01
2.561000000000000000e+03 6.746327972412109375e+01 8.983585357666015625e+00 8.651807159185409546e-02 7.682336330413818359e+00 2.330656290054321289e+00 7.639539837837219238e-01
2.562000000000000000e+03 6.781573486328125000e+01 -7.982851505279541016e+00 4.670474827289581299e-01 7.280990600585937500e+00 2.324411392211914062e+00 -2.710186131298542023e-02
2.563000000000000000e+03 1.839779853820800781e+01 2.686918640136718750e+01 4.389898851513862610e-02 1.185225009918212891e+00 3.687371909618377686e-01 -2.716323137283325195e-01
2.564000000000000000e+03 2.070936775207519531e+01 2.729711723327636719e+01 -5.024861078709363937e-03 1.637177467346191406e+00 4.896458089351654053e-01 -3.729621767997741699e-01
2.565000000000000000e+03 1.737563323974609375e+01 2.417790794372558594e+01 3.859377279877662659e-02 8.752453923225402832e-01 2.741517424583435059e-01 -2.677448093891143799e-01
2.566000000000000000e+03 6.661979675292968750e+01 -2.243101310729980469e+01 1.365939434617757797e-02 7.637796401977539062e+00 2.295436859130859375e+00 -5.987691879272460938e-01
2.567000000000000000e+03 1.894246864318847656e+01 2.493872451782226562e+01 2.443417161703109741e-02 1.216988444328308105e+00 3.724267780780792236e-01 -3.328931331634521484e-01
2.568000000000000000e+03 2.670030403137207031e+01 2.016034126281738281e+01 -1.475271284580230713e-01 2.642597675323486328e+00 7.485211491584777832e-01 -7.611573338508605957e-01
2.569000000000000000e+03 2.066573715209960938e+01 -2.071035957336425781e+01 1.459276825189590454e-01 6.234530806541442871e-01 2.308142334222793579e-01 1.953701525926589966e-01
2.570000000000000000e+03 4.007805252075195312e+01 -3.341313838958740234e+00 1.832956910133361816e+00 1.415089607238769531e+01 4.795156002044677734e+00 8.218543976545333862e-02
2.571000000000000000e+03 3.775203704833984375e+01 -2.131544113159179688e+00 1.055618524551391602e+00 9.961250305175781250e+00 3.305060863494873047e+00 -3.528365850448608398e+00
2.572000000000000000e+03 3.760089874267578125e+01 -1.087921237945556641e+01 7.715591788291931152e-01 9.628449440002441406e+00 3.120002508163452148e+00 3.872859001159667969e+00
2.573000000000000000e+03 4.075033187866210938e+01 -9.008341789245605469e+00 3.588200092315673828e+00 1.416559982299804688e+01 5.326139926910400391e+00 -1.621271371841430664e+00
2.574000000000000000e+03 4.156660079956054688e+01 -6.871811866760253906e+00 7.551829814910888672e+00 1.204284954071044922e+01 5.878403663635253906e+00 -4.500954449176788330e-01
2.575000000000000000e+03 3.837070465087890625e+01 -1.071411037445068359e+01 4.578879773616790771e-01 1.168076324462890625e+01 3.641595363616943359e+00 3.059508085250854492e+00
2.576000000000000000e+03 3.707924270629882812e+01 -2.479686021804809570e+00 1.643213033676147461e+00 8.359759330749511719e+00 3.000891685485839844e+00 -4.102694034576416016e+00
2.577000000000000000e+03 3.352329254150390625e+01 -2.646490335464477539e-01 1.599964141845703125e+00 3.188736915588378906e+00 1.436610341072082520e+00 -2.368327140808105469e+00
2.578000000000000000e+03 4.100668334960937500e+01 -9.932747840881347656e+00 2.203364133834838867e+00 1.320658779144287109e+01 4.622985363006591797e+00 -1.048481822013854980e+00
2.579000000000000000e+03 3.581600570678710938e+01 -2.064387321472167969e+00 2.011445522308349609e+00 5.451496601104736328e+00 2.238882541656494141e+00 -3.680553913116455078e+00
2.580000000000000000e+03 3.625288009643554688e+01 -2.924802064895629883e+00 2.398960351943969727e+00 6.037833690643310547e+00 2.531038045883178711e+00 -4.239548683166503906e+00
2.581000000000000000e+03 3.885079956054687500e+01 -1.094508743286132812e+01 3.352531492710113525e-01 1.214365673065185547e+01 3.743673086166381836e+00 2.259216547012329102e+00
2.582000000000000000e+03 4.195417785644531250e+01 -5.813731670379638672e+00 6.680669307708740234e+00 1.161135196685791016e+01 5.487606525421142578e+00 8.790916800498962402e-01
2.583000000000000000e+03 3.617218399047851562e+01 -1.136910915374755859e+01 1.254618525505065918e+00 6.224061489105224609e+00 2.243603944778442383e+00 3.752705574035644531e+00
2.584000000000000000e+03 3.650203323364257812e+01 -1.088257503509521484e+01 1.389043092727661133e+00 6.794753074645996094e+00 2.455138921737670898e+00 4.051586151123046875e+00
2.585000000000000000e+03 3.978513336181640625e+01 -3.220842838287353516e+00 1.510788798332214355e+00 1.413800621032714844e+01 4.694638252258300781e+00 -4.150764644145965576e-01
2.586000000000000000e+03 4.188556289672851562e+01 -6.769161701202392578e+00 7.119832992553710938e+00 1.159571361541748047e+01 5.614663600921630859e+00 -2.622856795787811279e-01
2.587000000000000000e+03 4.163374328613281250e+01 -8.093026161193847656e+00 5.725441455841064453e+00 1.241518115997314453e+01 5.442186832427978516e+00 -1.674324870109558105e+00
2.588000000000000000e+03 4.179169464111328125e+01 -6.445599079132080078e+00 7.241883277893066406e+00 1.169398212432861328e+01 5.680759429931640625e+00 1.094169542193412781e-01
2.589000000000000000e+03 3.653071594238281250e+01 -1.134598827362060547e+01 1.147899866104125977e+00 6.888370037078857422e+00 2.410881042480468750e+00 3.771513223648071289e+00
2.590000000000000000e+03 3.391316986083984375e+01 -1.301244354248046875e+01 1.165059804916381836e+00 3.473126411437988281e+00 1.391455888748168945e+00 2.560150861740112305e+00
2.591000000000000000e+03 4.236371612548828125e+01 -4.861035346984863281e+00 5.266327381134033203e+00 1.153132724761962891e+01 5.039296150207519531e+00 1.391878843307495117e+00
2.592000000000000000e+03 3.471872329711914062e+01 -2.012136220932006836e+00 2.115883588790893555e+00 3.554905891418457031e+00 1.701236844062805176e+00 -2.978598594665527344e+00
2.593000000000000000e+03 3.509426116943359375e+01 -1.315581989288330078e+01 9.897742271423339844e-01 4.855890274047851562e+00 1.753699302673339844e+00 2.972539186477661133e+00
2.594000000000000000e+03 2.962108039855957031e+01 2.122842311859130859e+00 9.839920401573181152e-01 1.741311550140380859e+00 8.175910711288452148e-01 -1.154065012931823730e+00
2.595000000000000000e+03 3.106752586364746094e+01 1.868614792823791504e+00 1.109919667243957520e+00 2.287551164627075195e+00 1.019241213798522949e+00 -1.535378098487854004e+00
2.596000000000000000e+03 2.965985107421875000e+01 5.595312118530273438e+00 5.727559924125671387e-01 2.531298637390136719e+00 9.312164187431335449e-01 -1.302340626716613770e+00
2.597000000000000000e+03 3.167124557495117188e+01 1.827746987342834473e+00 1.132345676422119141e+00 2.626369476318359375e+00 1.127614498138427734e+00 -1.708571791648864746e+00
2.598000000000000000e+03 2.809595870971679688e+01 2.455878734588623047e+00 8.049126863479614258e-01 1.308328151702880859e+00 6.339722275733947754e-01 -8.291735053062438965e-01
2.599000000000000000e+03 3.339769744873046875e+01 -1.516303348541259766e+01 8.158670067787170410e-01 3.686293363571166992e+00 1.350648164749145508e+00 2.249558687210083008e+00
2.600000000000000000e+03 3.051494979858398438e+01 -1.694229316711425781e+01 6.558421254158020020e-01 2.504686594009399414e+00 9.481586217880249023e-01 1.444296479225158691e+00
2.601000000000000000e+03 3.243880844116210938e+01 -1.695461082458496094e+01 6.221793889999389648e-01 3.476303100585937500e+00 1.229544758796691895e+00 1.885511636734008789e+00
2.602000000000000000e+03 3.192389678955078125e+01 -1.905353736877441406e+01 4.231305122375488281e-01 3.553452253341674805e+00 1.192974805831909180e+00 1.660928726196289062e+00
2.603000000000000000e+03 2.530755233764648438e+01 -1.827020645141601562e+01 3.722305893898010254e-01 1.197179675102233887e+00 4.708231091499328613e-01 4.966338574886322021e-01
2.604000000000000000e+03 2.719608116149902344e+01 -1.869972610473632812e+01 4.715006351470947266e-01 1.719582080841064453e+00 6.573247909545898438e-01 8.109683394432067871e-01
2.605000000000000000e+03 2.899483489990234375e+01 6.755165576934814453e+00 4.496870636940002441e-01 2.414082527160644531e+00 8.591308593750000000e-01 -1.195973038673400879e+00
2.606000000000000000e+03 2.736433601379394531e+01 2.535451889038085938e+00 7.284833788871765137e-01 1.139913082122802734e+00 5.605189204216003418e-01 -6.948770284652709961e-01
2.607000000000000000e+03 2.898555946350097656e+01 3.004166364669799805e+00 8.469700217247009277e-01 1.715870857238769531e+00 7.688522338867187500e-01 -1.072389245033264160e+00
2.608000000000000000e+03 2.253122520446777344e+01 -1.948540306091308594e+01 2.011030167341232300e-01 8.217328190803527832e-01 3.068507313728332520e-01 2.564035356044769287e-01
2.609000000000000000e+03 2.468829154968261719e+01 -2.036247253417968750e+01 3.379705846309661865e-01 1.341335535049438477e+00 5.037918090820312500e-01 5.342352986335754395e-01
2.610000000000000000e+03 6.311679077148437500e+01 -2.312281036376953125e+01 -3.978759050369262695e-02 7.776749610900878906e+00 2.321088552474975586e+00 -6.716864109039306641e-01
2.611000000000000000e+03 2.927644729614257812e+01 7.538069248199462891e+00 3.867035508155822754e-01 2.627191543579101562e+00 9.041685461997985840e-01 -1.256276130676269531e+00
2.612000000000000000e+03 2.911730575561523438e+01 8.874007225036621094e+00 2.591252326965332031e-01 2.734864711761474609e+00 8.981969952583312988e-01 -1.214723229408264160e+00
2.613000000000000000e+03 6.757307434082031250e+01 -1.287206077575683594e+01 3.732131123542785645e-01 7.354846477508544922e+00 2.318417787551879883e+00 -3.353980481624603271e-01
2.614000000000000000e+03 6.808712768554687500e+01 -3.902214288711547852e+00 4.363946616649627686e-01 7.295799732208251953e+00 2.319658279418945312e+00 2.366809248924255371e-01
2.615000000000000000e+03 6.750908660888671875e+01 6.301424980163574219e+00 1.718365848064422607e-01 7.595917701721191406e+00 2.330326318740844727e+00 7.204666137695312500e-01
2.616000000000000000e+03 6.521984863281250000e+01 3.600785493850708008e+00 3.629108965396881104e-01 7.570548057556152344e+00 2.380037784576416016e+00 7.208299636840820312e-01
2.617000000000000000e+03 6.622339630126953125e+01 -1.490087223052978516e+01 3.436720073223114014e-01 7.450714588165283203e+00 2.338315963745117188e+00 -4.522003829479217529e-01
2.618000000000000000e+03 6.678564453125000000e+01 -2.008200454711914062e+01 1.121799126267433167e-01 7.569217681884765625e+00 2.304419279098510742e+00 -5.819138288497924805e-01
2.619000000000000000e+03 6.709723663330078125e+01 -1.048684978485107422e+01 4.690280556678771973e-01 7.329329490661621094e+00 2.339507341384887695e+00 -2.027346342802047729e-01
2.620000000000000000e+03 6.559725952148437500e+01 -1.156169223785400391e+01 5.314189195632934570e-01 7.403484821319580078e+00 2.380471229553222656e+00 -2.968902587890625000e-01
2.621000000000000000e+03 6.353457260131835938e+01 1.436051368713378906e+01 -1.349220573902130127e-01 7.850476264953613281e+00 2.314666271209716797e+00 8.193002939224243164e-01
2.622000000000000000e+03 6.509719085693359375e+01 9.322127342224121094e+00 8.408430218696594238e-02 7.741221427917480469e+00 2.347591876983642578e+00 8.366041183471679688e-01
2.623000000000000000e+03 2.316805648803710938e+01 -2.112457275390625000e+01 2.715879976749420166e-01 1.091930747032165527e+00 4.090556502342224121e-01 4.070690572261810303e-01
2.624000000000000000e+03 2.864567184448242188e+01 1.964635848999023438e+01 -2.141678184270858765e-01 3.087037801742553711e+00 8.618610501289367676e-01 -8.031749129295349121e-01
2.625000000000000000e+03 2.666616249084472656e+01 -2.337468910217285156e+01 2.854480147361755371e-01 2.198189496994018555e+00 7.450912594795227051e-01 7.844235897064208984e-01
2.626000000000000000e+03 2.237112808227539062e+01 -2.362282562255859375e+01 2.674642801284790039e-01 1.179263114929199219e+00 4.340181946754455566e-01 4.220553338527679443e-01
2.627000000000000000e+03 2.485449600219726562e+01 2.032141494750976562e+01 -9.965083003044128418e-02 2.225548505783081055e+00 6.377692818641662598e-01 -6.726350784301757812e-01
2.628000000000000000e+03 2.675699424743652344e+01 2.255890464782714844e+01 -1.740958988666534424e-01 2.741101503372192383e+00 7.701016664505004883e-01 -6.750687956809997559e-01
2.629000000000000000e+03 7.118515014648437500e+01 -2.106435775756835938e+01 4.291956499218940735e-02 7.429340362548828125e+00 2.241677999496459961e+00 -4.599298834800720215e-01
2.630000000000000000e+03 6.151586532592773438e+01 1.825769996643066406e+01 -2.948364615440368652e-01 7.849127769470214844e+00 2.266287326812744141e+00 7.341502308845520020e-01
2.631000000000000000e+03 3.429299163818359375e+01 -1.028787851333618164e+00 1.804475903511047363e+00 3.621096134185791016e+00 1.627671599388122559e+00 -2.761220693588256836e+00
2.632000000000000000e+03 3.714542388916015625e+01 -1.124573612213134766e+01 8.960558772087097168e-01 8.418651580810546875e+00 2.794412374496459961e+00 3.806645870208740234e+00
2.633000000000000000e+03 3.967040634155273438e+01 -2.767508029937744141e+00 1.099282860755920410e+00 1.345102214813232422e+01 4.365091323852539062e+00 -8.777536749839782715e-01
2.634000000000000000e+03 3.958072280883789062e+01 -1.075823688507080078e+01 4.796697497367858887e-01 1.296535587310791016e+01 4.033507823944091797e+00 1.171820163726806641e+00
2.635000000000000000e+03 3.687287521362304688e+01 -2.682339906692504883e+00 1.907751441001892090e+00 7.907127380371093750e+00 2.944463729858398438e+00 -4.310798645019531250e+00
2.636000000000000000e+03 3.732941818237304688e+01 -1.786330342292785645e+00 1.146602511405944824e+00 8.808543205261230469e+00 2.986543655395507812e+00 -3.594655275344848633e+00
2.637000000000000000e+03 4.183953094482421875e+01 -7.618359088897705078e+00 6.445123195648193359e+00 1.189385604858398438e+01 5.501693725585937500e+00 -1.270970940589904785e+00
2.638000000000000000e+03 3.831631851196289062e+01 -1.115164661407470703e+01 3.590036332607269287e-01 1.100303554534912109e+01 3.408611774444580078e+00 2.998201370239257812e+00
2.639000000000000000e+03 4.084775924682617188e+01 -1.035970973968505859e+01 1.560661077499389648e+00 1.307362079620361328e+01 4.390284538269042969e+00 -6.351039409637451172e-01
2.640000000000000000e+03 3.898204421997070312e+01 -2.685742616653442383e+00 8.682897686958312988e-01 1.290278244018554688e+01 4.131321430206298828e+00 -2.054843664169311523e+00
2.641000000000000000e+03 3.688948822021484375e+01 -1.138391876220703125e+01 9.670093655586242676e-01 7.748585224151611328e+00 2.614678382873535156e+00 3.829742193222045898e+00
2.642000000000000000e+03 4.234373474121093750e+01 -5.489636421203613281e+00 6.037348270416259766e+00 1.133294105529785156e+01 5.211086750030517578e+00 1.028508067131042480e+00
2.643000000000000000e+03 3.913777542114257812e+01 -1.097800731658935547e+01 3.016232848167419434e-01 1.234640026092529297e+01 3.794406890869140625e+00 1.836922526359558105e+00
2.644000000000000000e+03 4.068262100219726562e+01 -3.720143795013427734e+00 2.866498708724975586e+00 1.387174415588378906e+01 5.021472930908203125e+00 1.079866886138916016e+00
2.645000000000000000e+03 3.993242645263671875e+01 -1.077808761596679688e+01 6.094247102737426758e-01 1.302447795867919922e+01 4.090170860290527344e+00 7.000959515571594238e-01
2.646000000000000000e+03 3.450283813476562500e+01 -1.506941914558410645e+00 1.935670018196105957e+00 3.591666460037231445e+00 1.658200979232788086e+00 -2.854294538497924805e+00
2.647000000000000000e+03 4.194501113891601562e+01 -8.167239189147949219e+00 5.452628135681152344e+00 1.196047878265380859e+01 5.223932266235351562e+00 -1.556413769721984863e+00
2.648000000000000000e+03 3.464460372924804688e+01 -1.283902740478515625e+01 1.146090865135192871e+00 4.170343399047851562e+00 1.594930291175842285e+00 2.867152690887451172e+00
2.649000000000000000e+03 3.775667190551757812e+01 -1.139108562469482422e+01 5.195030570030212402e-01 9.622759819030761719e+00 3.042678833007812500e+00 3.403398036956787109e+00
2.650000000000000000e+03 3.513774490356445312e+01 -1.418879604339599609e+01 7.500121593475341797e-01 5.101483821868896484e+00 1.755448818206787109e+00 2.773265361785888672e+00
2.651000000000000000e+03 4.222163391113281250e+01 -4.491276741027832031e+00 4.751533031463623047e+00 1.175480079650878906e+01 4.951900005340576172e+00 1.516940832138061523e+00
2.652000000000000000e+03 3.539588546752929688e+01 -2.274085998535156250e+00 2.203934192657470703e+00 4.520064353942871094e+00 2.017199754714965820e+00 -3.481721401214599609e+00
2.653000000000000000e+03 3.430656814575195312e+01 -1.419311523437500000e+01 8.776567578315734863e-01 4.247780799865722656e+00 1.537631273269653320e+00 2.572052240371704102e+00
2.654000000000000000e+03 3.587923431396484375e+01 -1.456173610687255859e+01 4.613356888294219971e-01 6.001793384552001953e+00 1.938938736915588379e+00 2.691218614578247070e+00
2.655000000000000000e+03 3.316321563720703125e+01 2.836057245731353760e-01 1.462351679801940918e+00 3.097349882125854492e+00 1.367910504341125488e+00 -2.218719720840454102e+00
2.656000000000000000e+03 3.726490783691406250e+01 -2.270637035369873047e+00 1.422118186950683594e+00 8.787066459655761719e+00 3.062755346298217773e+00 -3.887314319610595703e+00
2.657000000000000000e+03 3.427725601196289062e+01 -1.512908840179443359e+01 7.130524516105651855e-01 4.401843070983886719e+00 1.534468650817871094e+00 2.404477596282958984e+00
2.658000000000000000e+03 3.289014816284179688e+01 8.304827809333801270e-01 1.331675887107849121e+00 3.093980073928833008e+00 1.327696800231933594e+00 -2.096478462219238281e+00
2.659000000000000000e+03 3.327511215209960938e+01 -1.707192420959472656e+01 5.359534621238708496e-01 4.011070728302001953e+00 1.364107251167297363e+00 2.021425962448120117e+00
2.660000000000000000e+03 3.342545700073242188e+01 4.157961368560791016e+00 6.323179006576538086e-01 4.235200881958007812e+00 1.460255622863769531e+00 -1.971958756446838379e+00
2.661000000000000000e+03 3.174311256408691406e+01 2.440279245376586914e+00 1.017204523086547852e+00 2.818315505981445312e+00 1.150655984878540039e+00 -1.722103595733642578e+00
2.662000000000000000e+03 3.052097320556640625e+01 2.762964963912963867e+00 9.591450691223144531e-01 2.287430524826049805e+00 9.739726781845092773e-01 -1.421675324440002441e+00
2.663000000000000000e+03 3.091368293762207031e+01 6.435250759124755859e+00 4.741867780685424805e-01 3.176076412200927734e+00 1.095078945159912109e+00 -1.496795415878295898e+00
2.664000000000000000e+03 3.080649757385253906e+01 7.403104782104492188e+00 3.536590933799743652e-01 3.258125543594360352e+00 1.083535313606262207e+00 -1.429485797882080078e+00
2.665000000000000000e+03 2.994262123107910156e+01 6.449720859527587891e+00 4.916176199913024902e-01 2.770996570587158203e+00 9.787842035293579102e-01 -1.349475145339965820e+00
2.666000000000000000e+03 2.927233695983886719e+01 -2.101468849182128906e+01 3.678091466426849365e-01 2.789676427841186523e+00 9.472457170486450195e-01 1.180721163749694824e+00
2.667000000000000000e+03 3.222431945800781250e+01 -1.792169189453125000e+01 5.227573513984680176e-01 3.530162334442138672e+00 1.215875983238220215e+00 1.790537357330322266e+00
2.668000000000000000e+03 3.060969734191894531e+01 8.444865226745605469e+00 2.423722445964813232e-01 3.257696628570556641e+00 1.050020694732666016e+00 -1.352071762084960938e+00
2.669000000000000000e+03 3.075007438659667969e+01 1.020846176147460938e+01 8.515457808971405029e-02 3.431695222854614258e+00 1.055054903030395508e+00 -1.284847974777221680e+00
2.670000000000000000e+03 6.589638519287109375e+01 -1.323770236968994141e+01 4.513264000415802002e-01 7.424688816070556641e+00 2.362804651260375977e+00 -3.883554637432098389e-01
2.671000000000000000e+03 2.813155364990234375e+01 -1.983547401428222656e+01 4.542896151542663574e-01 2.181868314743041992e+00 7.908473610877990723e-01 1.008846402168273926e+00
2.672000000000000000e+03 2.776242828369140625e+01 1.456925296783447266e+01 -5.546876415610313416e-02 2.694610595703125000e+00 7.917425632476806641e-01 -9.634760618209838867e-01
2.673000000000000000e+03 2.905565643310546875e+01 3.690679311752319336e+00 7.717488408088684082e-01 1.886792778968811035e+00 7.975624799728393555e-01 -1.127487182617187500e+00
2.674000000000000000e+03 2.988861656188964844e+01 3.699484109878540039e+00 8.018323183059692383e-01 2.252175569534301758e+00 9.162023663520812988e-01 -1.314940094947814941e+00
2.675000000000000000e+03 6.650919342041015625e+01 -6.319633960723876953e+00 5.574622154235839844e-01 7.327394008636474609e+00 2.365456819534301758e+00 8.456760644912719727e-02
2.676000000000000000e+03 6.536887359619140625e+01 -6.184074878692626953e+00 6.506943702697753906e-01 7.365611553192138672e+00 2.404891729354858398e+00 1.030158475041389465e-01
2.677000000000000000e+03 6.582085418701171875e+01 -7.224661350250244141e+00 6.055664420127868652e-01 7.346491336822509766e+00 2.385617256164550781e+00 2.054338157176971436e-02
2.678000000000000000e+03 6.794277191162109375e+01 -5.220420837402343750e+00 4.543671011924743652e-01 7.286474227905273438e+00 2.322252273559570312e+00 1.557333618402481079e-01
2.679000000000000000e+03 6.680972290039062500e+01 -3.660158634185791016e+00 5.181530714035034180e-01 7.339637279510498047e+00 2.357337236404418945e+00 2.683393359184265137e-01
2.680000000000000000e+03 6.561258697509765625e+01 -2.108481979370117188e+01 7.714018970727920532e-02 7.640079498291015625e+00 2.315165996551513672e+00 -6.228925585746765137e-01
2.681000000000000000e+03 6.582164764404296875e+01 -1.879908180236816406e+01 1.908528804779052734e-01 7.570633888244628906e+00 2.328445911407470703e+00 -5.898195505142211914e-01
2.682000000000000000e+03 1.936327552795410156e+01 -2.138282585144042969e+01 1.148868203163146973e-01 4.998897910118103027e-01 1.844329833984375000e-01 1.227734759449958801e-01
2.683000000000000000e+03 2.908564567565917969e+01 -1.883251762390136719e+01 5.183221697807312012e-01 2.317257881164550781e+00 8.506739735603332520e-01 1.153057456016540527e+00
2.684000000000000000e+03 6.340487289428710938e+01 -2.063932037353515625e+01 1.127946376800537109e-01 7.714594364166259766e+00 2.348216772079467773e+00 -6.740188002586364746e-01
2.685000000000000000e+03 6.438793182373046875e+01 -2.208878517150878906e+01 2.511356770992279053e-02 7.710795879364013672e+00 2.320772886276245117e+00 -6.517327427864074707e-01
2.686000000000000000e+03 7.163510131835937500e+01 2.412607574462890625e+01 -1.006689891219139099e-01 8.242558479309082031e+00 2.442566871643066406e+00 4.344627857208251953e-01
2.687000000000000000e+03 3.660466766357421875e+01 -2.800770998001098633e+00 2.128881931304931641e+00 7.045280456542968750e+00 2.752248764038085938e+00 -4.302842617034912109e+00
2.688000000000000000e+03 3.798203659057617188e+01 -1.701550126075744629e+00 8.068705797195434570e-01 1.013112640380859375e+01 3.281399011611938477e+00 -3.063312768936157227e+00
2.689000000000000000e+03 3.763033294677734375e+01 -1.048592758178710938e+01 8.692755699157714844e-01 1.012562274932861328e+01 3.298469543457031250e+00 4.051406860351562500e+00
2.690000000000000000e+03 3.732680892944335938e+01 -1.095750522613525391e+01 8.721536397933959961e-01 9.117592811584472656e+00 2.996923923492431641e+00 3.924904346466064453e+00
2.691000000000000000e+03 3.869897079467773438e+01 -1.127999210357666016e+01 2.283305525779724121e-01 1.148674297332763672e+01 3.514522075653076172e+00 2.455675125122070312e+00
2.692000000000000000e+03 4.231272888183593750e+01 -6.217314243316650391e+00 6.568019866943359375e+00 1.114102554321289062e+01 5.312713623046875000e+00 3.448163568973541260e-01
2.693000000000000000e+03 4.028902053833007812e+01 -1.043143749237060547e+01 1.147749543190002441e+00 1.342031383514404297e+01 4.370419025421142578e+00 -1.749381422996520996e-02
2.694000000000000000e+03 3.846606445312500000e+01 -1.993379831314086914e+00 7.410123348236083984e-01 1.120557975769042969e+01 3.583977699279785156e+00 -2.711917161941528320e+00
2.695000000000000000e+03 4.123377609252929688e+01 -3.853125095367431641e+00 3.496686458587646484e+00 1.314541912078857422e+01 4.992631912231445312e+00 1.434349775314331055e+00
2.696000000000000000e+03 3.692606353759765625e+01 -1.182623767852783203e+01 7.864042520523071289e-01 7.767710208892822266e+00 2.566234350204467773e+00 3.585293531417846680e+00
2.697000000000000000e+03 3.869948577880859375e+01 -2.393400669097900391e+00 7.633523941040039062e-01 1.203508949279785156e+01 3.839532375335693359e+00 -2.497440814971923828e+00
2.698000000000000000e+03 3.441940307617187500e+01 -2.526882886886596680e-01 1.538518905639648438e+00 4.073212146759033203e+00 1.683519244194030762e+00 -2.740190505981445312e+00
2.699000000000000000e+03 3.686376953125000000e+01 -2.265682935714721680e+00 1.655237078666687012e+00 7.706142902374267578e+00 2.808413982391357422e+00 -4.026394367218017578e+00
2.700000000000000000e+03 4.175242996215820312e+01 -8.686661720275878906e+00 4.526303291320800781e+00 1.240391635894775391e+01 5.079065799713134766e+00 -1.702405095100402832e+00
2.701000000000000000e+03 3.532297134399414062e+01 -1.260764884948730469e+01 1.103576540946960449e+00 5.030076980590820312e+00 1.840096116065979004e+00 3.177649259567260742e+00
2.702000000000000000e+03 3.518869018554687500e+01 -1.783620953559875488e+00 1.996779918670654297e+00 4.460947036743164062e+00 1.937318086624145508e+00 -3.294761896133422852e+00
2.703000000000000000e+03 4.259089660644531250e+01 -4.558114528656005859e+00 4.706779956817626953e+00 1.127334499359130859e+01 4.794037342071533203e+00 1.419165968894958496e+00
2.704000000000000000e+03 4.266062164306640625e+01 -5.139538288116455078e+00 5.435793399810791016e+00 1.105913829803466797e+01 4.948479652404785156e+00 1.154192805290222168e+00
2.705000000000000000e+03 3.401154708862304688e+01 1.786478310823440552e-01 1.461700916290283203e+00 3.859348773956298828e+00 1.596314907073974609e+00 -2.550323963165283203e+00
2.706000000000000000e+03 4.018472290039062500e+01 -2.984923839569091797e+00 1.576465129852294922e+00 1.362885093688964844e+01 4.561594963073730469e+00 -2.929426915943622589e-02
2.707000000000000000e+03 3.900572204589843750e+01 -1.150467109680175781e+01 1.601891517639160156e-01 1.162169075012207031e+01 3.534563779830932617e+00 2.048857450485229492e+00
2.708000000000000000e+03 3.475671386718750000e+01 -7.318016886711120605e-01 1.655462622642517090e+00 4.244524002075195312e+00 1.769996047019958496e+00 -2.907984733581542969e+00
2.709000000000000000e+03 3.558896255493164062e+01 -1.216967391967773438e+01 1.178253650665283203e+00 5.334331035614013672e+00 1.953775405883789062e+00 3.381979227066040039e+00
2.710000000000000000e+03 4.219811248779296875e+01 -7.759515762329101562e+00 5.963562965393066406e+00 1.148845767974853516e+01 5.235606193542480469e+00 -1.248248100280761719e+00
2.711000000000000000e+03 4.204627609252929688e+01 -7.977578163146972656e+00 5.713607788085937500e+00 1.171575546264648438e+01 5.228808879852294922e+00 -1.419416189193725586e+00
2.712000000000000000e+03 3.330458831787109375e+01 1.085403561592102051e+00 1.268203616142272949e+00 3.517136812210083008e+00 1.435602188110351562e+00 -2.250234603881835938e+00
2.713000000000000000e+03 4.115182495117187500e+01 -9.535674095153808594e+00 2.892777681350708008e+00 1.324776268005371094e+01 4.842162132263183594e+00 -1.399834632873535156e+00
2.714000000000000000e+03 4.153586578369140625e+01 -3.530707836151123047e+00 3.178252220153808594e+00 1.263710403442382812e+01 4.744606971740722656e+00 1.364369511604309082e+00
2.715000000000000000e+03 4.188587951660156250e+01 -3.817251443862915039e+00 3.768747806549072266e+00 1.222382831573486328e+01 4.797772884368896484e+00 1.542287826538085938e+00
2.716000000000000000e+03 3.450960540771484375e+01 -1.619570159912109375e+01 4.733825623989105225e-01 4.801614761352539062e+00 1.582499146461486816e+00 2.291659593582153320e+00
2.717000000000000000e+03 3.561589431762695312e+01 -1.332936954498291016e+01 8.258911967277526855e-01 5.560478210449218750e+00 1.915910840034484863e+00 3.037379741668701172e+00
2.718000000000000000e+03 3.224980163574218750e+01 1.253027200698852539e+00 1.249124884605407715e+00 2.829085588455200195e+00 1.223463058471679688e+00 -1.893830060958862305e+00
2.719000000000000000e+03 3.542611694335937500e+01 -1.471047210693359375e+01 5.720161795616149902e-01 5.423460006713867188e+00 1.798642873764038086e+00 2.667962312698364258e+00
2.720000000000000000e+03 3.388558197021484375e+01 -1.568079853057861328e+01 6.801103353500366211e-01 4.115173339843750000e+00 1.438585162162780762e+00 2.273097991943359375e+00
2.721000000000000000e+03 3.220761108398437500e+01 1.831672549247741699e+00 1.129406809806823730e+00 2.986638307571411133e+00 1.234813451766967773e+00 -1.877020955085754395e+00
2.722000000000000000e+03 3.321656799316406250e+01 -1.813194847106933594e+01 4.001906812191009521e-01 4.107491970062255859e+00 1.352304816246032715e+00 1.897536396980285645e+00
2.723000000000000000e+03 2.907028770446777344e+01 4.337094783782958984e+00 7.165781855583190918e-01 2.019519567489624023e+00 8.208293914794921875e-01 -1.166520953178405762e+00
2.724000000000000000e+03 3.070688438415527344e+01 3.589907884597778320e+00 8.355551362037658691e-01 2.584998846054077148e+00 1.026166200637817383e+00 -1.488032460212707520e+00
2.725000000000000000e+03 3.467391204833984375e+01 -1.462718486785888672e+01 7.317313551902770996e-01 4.692966938018798828e+00 1.627409577369689941e+00 2.599828481674194336e+00
2.726000000000000000e+03 2.830480957031250000e+01 4.435949325561523438e+00 6.697330474853515625e-01 1.779627919197082520e+00 7.348082661628723145e-01 -1.024998188018798828e+00
2.727000000000000000e+03 3.024094390869140625e+01 -1.983516693115234375e+01 4.243817031383514404e-01 2.963927984237670898e+00 1.016492843627929688e+00 1.356927394866943359e+00
2.728000000000000000e+03 3.300427627563476562e+01 -1.925917816162109375e+01 2.928148210048675537e-01 4.131318092346191406e+00 1.327239871025085449e+00 1.747575163841247559e+00
2.729000000000000000e+03 3.000491333007812500e+01 7.323134899139404297e+00 3.904788494110107422e-01 2.932754278182983398e+00 9.969699382781982422e-01 -1.341451764106750488e+00
2.730000000000000000e+03 6.375206375122070312e+01 -1.830549621582031250e+01 2.606191337108612061e-01 7.638657093048095703e+00 2.369782924652099609e+00 -6.353123784065246582e-01
2.731000000000000000e+03 6.247775268554687500e+01 -1.918156623840332031e+01 2.184620201587677002e-01 7.720360755920410156e+00 2.381646871566772461e+00 -6.838386058807373047e-01
2.732000000000000000e+03 3.039271354675292969e+01 -2.393271827697753906e+01 1.400749832391738892e-01 3.469962358474731445e+00 1.083011150360107422e+00 1.174205064773559570e+00
2.733000000000000000e+03 3.163611793518066406e+01 -2.043641662597656250e+01 2.986128628253936768e-01 3.603227853775024414e+00 1.170552253723144531e+00 1.508924961090087891e+00
2.734000000000000000e+03 6.582501983642578125e+01 -5.506219267845153809e-01 5.092532634735107422e-01 7.433538913726806641e+00 2.382837533950805664e+00 4.921359121799468994e-01
2.735000000000000000e+03 6.407019805908203125e+01 -1.841392755508422852e+00 6.717748045921325684e-01 7.455983161926269531e+00 2.438327312469482422e+00 4.527918398380279541e-01
2.736000000000000000e+03 2.718572235107421875e+01 1.101568889617919922e+01 1.220915690064430237e-01 2.265016317367553711e+00 7.161324024200439453e-01 -9.968055486679077148e-01
2.737000000000000000e+03 6.416413116455078125e+01 -1.361206817626953125e+01 5.132582783699035645e-01 7.499041557312011719e+00 2.403689861297607422e+00 -4.487822353839874268e-01
2.738000000000000000e+03 6.526181030273437500e+01 -1.429802227020263672e+01 4.273751974105834961e-01 7.477096557617187500e+00 2.371341466903686523e+00 -4.538691639900207520e-01
2.739000000000000000e+03 6.395513153076171875e+01 -1.154265975952148438e+01 6.341076493263244629e-01 7.458875656127929688e+00 2.427895069122314453e+00 -3.261433839797973633e-01
2.740000000000000000e+03 2.623970985412597656e+01 1.208887290954589844e+01 7.428832352161407471e-02 2.090504169464111328e+00 6.494377255439758301e-01 -9.045025110244750977e-01
2.741000000000000000e+03 2.884825325012207031e+01 1.384717845916748047e+01 -5.174867063760757446e-02 3.018439054489135742e+00 8.900071382522583008e-01 -1.059464454650878906e+00
2.742000000000000000e+03 6.293289947509765625e+01 -1.690403938293457031e+01 3.764217197895050049e-01 7.634937763214111328e+00 2.403407812118530273e+00 -6.179556846618652344e-01
2.743000000000000000e+03 6.313378143310546875e+01 -1.255913162231445312e+01 6.422375440597534180e-01 7.510796546936035156e+00 2.445910215377807617e+00 -4.114909172058105469e-01
2.744000000000000000e+03 6.488986968994140625e+01 -1.248200988769531250e+01 5.353221893310546875e-01 7.444468021392822266e+00 2.393937110900878906e+00 -3.644609153270721436e-01
2.745000000000000000e+03 2.509249877929687500e+01 -2.464187049865722656e+01 2.790512144565582275e-01 1.850391745567321777e+00 6.388328671455383301e-01 6.407617926597595215e-01
2.746000000000000000e+03 2.056919860839843750e+01 -2.407950782775878906e+01 2.361899167299270630e-01 8.602818846702575684e-01 3.289415538311004639e-01 2.840798497200012207e-01
2.747000000000000000e+03 3.857071304321289062e+01 -1.164568901062011719e+01 1.638697385787963867e-01 1.085857868194580078e+01 3.306734561920166016e+00 2.568316698074340820e+00
2.748000000000000000e+03 3.665812301635742188e+01 -2.056762456893920898e+00 1.650337219238281250e+00 7.319694042205810547e+00 2.691009283065795898e+00 -3.919198274612426758e+00
2.749000000000000000e+03 3.765404891967773438e+01 -1.710138916969299316e+00 9.600539803504943848e-01 9.431391716003417969e+00 3.117433547973632812e+00 -3.345006704330444336e+00
2.750000000000000000e+03 3.901489257812500000e+01 -2.103865385055541992e+00 6.813001632690429688e-01 1.204880046844482422e+01 3.819030284881591797e+00 -1.998757839202880859e+00
2.751000000000000000e+03 3.990150451660156250e+01 -2.608530044555664062e+00 1.107764005661010742e+00 1.321252346038818359e+01 4.296086311340332031e+00 -6.364434957504272461e-01
2.752000000000000000e+03 4.061059570312500000e+01 -1.068658256530761719e+01 1.123068332672119141e+00 1.295197296142578125e+01 4.222512245178222656e+00 -2.023801803588867188e-01
2.753000000000000000e+03 3.949575805664062500e+01 -2.251349925994873047e+00 7.762104272842407227e-01 1.259370899200439453e+01 4.010975837707519531e+00 -1.303752541542053223e+00
2.754000000000000000e+03 4.091291046142578125e+01 -3.081557989120483398e+00 2.197737932205200195e+00 1.314407444000244141e+01 4.602543830871582031e+00 8.009415268898010254e-01
2.755000000000000000e+03 3.884400177001953125e+01 -1.185045337677001953e+01 8.194950222969055176e-02 1.102754402160644531e+01 3.332848072052001953e+00 2.270208835601806641e+00
2.756000000000000000e+03 4.053047561645507812e+01 -3.064209699630737305e+00 1.901890754699707031e+00 1.340290069580078125e+01 4.591437339782714844e+00 4.198544919490814209e-01
2.757000000000000000e+03 3.620206832885742188e+01 -1.892956495285034180e+00 1.803248882293701172e+00 6.280719280242919922e+00 2.425190448760986328e+00 -3.760028123855590820e+00
2.758000000000000000e+03 3.549679183959960938e+01 -1.040481209754943848e+00 1.630368232727050781e+00 5.280961513519287109e+00 2.073399066925048828e+00 -3.277191638946533203e+00
2.759000000000000000e+03 4.326217651367187500e+01 -4.954532623291015625e+00 4.916311264038085938e+00 1.054083347320556641e+01 4.637143135070800781e+00 1.094390153884887695e+00
2.760000000000000000e+03 4.274988555908203125e+01 -5.837179183959960938e+00 5.964321613311767578e+00 1.079807853698730469e+01 5.028719902038574219e+00 6.253468394279479980e-01
2.761000000000000000e+03 4.219562530517578125e+01 -8.452697753906250000e+00 4.892598152160644531e+00 1.167876911163330078e+01 4.971410274505615234e+00 -1.545521974563598633e+00
2.762000000000000000e+03 3.400271606445312500e+01 1.025783419609069824e+00 1.222884774208068848e+00 4.070540428161621094e+00 1.588027477264404297e+00 -2.445647239685058594e+00
2.763000000000000000e+03 3.269940567016601562e+01 1.342346310615539551e+00 1.228089809417724609e+00 3.118312835693359375e+00 1.303920745849609375e+00 -2.033047676086425781e+00
2.764000000000000000e+03 3.960805892944335938e+01 -1.123396778106689453e+01 3.139696717262268066e-01 1.236027908325195312e+01 3.802274465560913086e+00 1.272513270378112793e+00
2.765000000000000000e+03 4.124238967895507812e+01 -3.219043493270874023e+00 2.546038389205932617e+00 1.283375072479248047e+01 4.613936901092529297e+00 1.045297384262084961e+00
2.766000000000000000e+03 3.499208831787109375e+01 -1.264005422592163086e+00 1.825506210327148438e+00 4.412633895874023438e+00 1.871442079544067383e+00 -3.098760128021240234e+00
2.767000000000000000e+03 3.570557785034179688e+01 -1.281656360626220703e+01 9.335917830467224121e-01 5.620525360107421875e+00 1.966235160827636719e+00 3.217617988586425781e+00
2.768000000000000000e+03 3.444137573242187500e+01 6.385427117347717285e-01 1.259667992591857910e+00 4.403654575347900391e+00 1.698996782302856445e+00 -2.599687576293945312e+00
2.769000000000000000e+03 4.250234222412109375e+01 -8.207584381103515625e+00 5.235960960388183594e+00 1.129156494140625000e+01 4.958257675170898438e+00 -1.396844744682312012e+00
2.770000000000000000e+03 3.619026565551757812e+01 -1.226846122741699219e+01 9.469805359840393066e-01 6.338441848754882812e+00 2.185626745223999023e+00 3.442699909210205078e+00
2.771000000000000000e+03 4.160254669189453125e+01 -9.106750488281250000e+00 3.832079648971557617e+00 1.268099594116210938e+01 4.953922748565673828e+00 -1.689306616783142090e+00
2.772000000000000000e+03 4.189247512817382812e+01 -8.965575218200683594e+00 4.140354633331298828e+00 1.226426029205322266e+01 4.921384334564208984e+00 -1.700922012329101562e+00
2.773000000000000000e+03 3.568189620971679688e+01 -1.394341850280761719e+01 6.739547252655029297e-01 5.706875324249267578e+00 1.914248943328857422e+00 2.883125066757202148e+00
2.774000000000000000e+03 4.280945587158203125e+01 -4.128776550292968750e+00 4.179228782653808594e+00 1.113342571258544922e+01 4.593796253204345703e+00 1.406725287437438965e+00
2.775000000000000000e+03 4.235258483886718750e+01 -3.973718166351318359e+00 4.009857654571533203e+00 1.166773033142089844e+01 4.703276634216308594e+00 1.518646955490112305e+00
2.776000000000000000e+03 3.304978561401367188e+01 1.566913843154907227e+00 1.166555404663085938e+00 3.459279537200927734e+00 1.387750506401062012e+00 -2.131172180175781250e+00
2.777000000000000000e+03 3.471797180175781250e+01 -1.758450317382812500e+01 2.775527238845825195e-01 4.996644020080566406e+00 1.582259058952331543e+00 2.084613323211669922e+00
2.778000000000000000e+03 3.400489425659179688e+01 -1.685706901550292969e+01 4.646432101726531982e-01 4.483263492584228516e+00 1.484372019767761230e+00 2.132878541946411133e+00
2.779000000000000000e+03 3.504245376586914062e+01 -1.504865932464599609e+01 6.058406829833984375e-01 5.124599456787109375e+00 1.719132065773010254e+00 2.614386796951293945e+00
2.780000000000000000e+03 3.479048156738281250e+01 -1.554235935211181641e+01 5.487182736396789551e-01 4.961058139801025391e+00 1.652932882308959961e+00 2.445868730545043945e+00
2.781000000000000000e+03 3.173310852050781250e+01 4.068403720855712891e+00 7.752452492713928223e-01 3.170631647109985352e+00 1.183763027191162109e+00 -1.710563898086547852e+00
2.782000000000000000e+03 3.042512512207031250e+01 4.987404346466064453e+00 6.553187370300292969e-01 2.719796180725097656e+00 1.012534499168395996e+00 -1.441348314285278320e+00
2.783000000000000000e+03 3.119208526611328125e+01 2.607783555984497070e+00 9.931195974349975586e-01 2.565884590148925781e+00 1.067701220512390137e+00 -1.591025114059448242e+00
2.784000000000000000e+03 3.166849517822265625e+01 7.451642990112304688e+00 3.052856922149658203e-01 3.616738080978393555e+00 1.176607131958007812e+00 -1.518596529960632324e+00
2.785000000000000000e+03 3.179346656799316406e+01 6.665206432342529297e+00 4.031232893466949463e-01 3.624038934707641602e+00 1.208148717880249023e+00 -1.603704333305358887e+00
2.786000000000000000e+03 3.209257507324218750e+01 1.091324806213378906e+01 -4.779303818941116333e-02 3.981186151504516602e+00 1.180017948150634766e+00 -1.302769064903259277e+00
2.787000000000000000e+03 3.103033828735351562e+01 4.343407630920410156e+00 7.419663667678833008e-01 2.861954450607299805e+00 1.081176280975341797e+00 -1.556386470794677734e+00
2.788000000000000000e+03 2.956584167480468750e+01 1.250115871429443359e+01 -1.395972818136215210e-02 3.156891822814941406e+00 9.428796172142028809e-01 -1.123095512390136719e+00
2.789000000000000000e+03 2.999487304687500000e+01 9.496870040893554688e+00 1.713276356458663940e-01 3.125742912292480469e+00 9.891211986541748047e-01 -1.268702030181884766e+00
2.790000000000000000e+03 6.163858413696289062e+01 -1.771915435791015625e+01 3.511303365230560303e-01 7.716989517211914062e+00 2.420435905456542969e+00 -6.822628378868103027e-01
2.791000000000000000e+03 3.003773689270019531e+01 1.114160633087158203e+01 5.714359506964683533e-02 3.213756799697875977e+00 9.812701344490051270e-01 -1.203134775161743164e+00
2.792000000000000000e+03 6.460108947753906250e+01 -7.770924568176269531e+00 7.037507891654968262e-01 7.386630058288574219e+00 2.427114248275756836e+00 -3.127619251608848572e-02
2.793000000000000000e+03 6.413787078857421875e+01 -1.606529617309570312e+01 3.824777305126190186e-01 7.561789035797119141e+00 2.383280038833618164e+00 -5.552712082862854004e-01
2.794000000000000000e+03 6.305803298950195312e+01 -1.046462726593017578e+01 7.517662048339843750e-01 7.468716621398925781e+00 2.466144800186157227e+00 -2.678486704826354980e-01
2.795000000000000000e+03 6.214315795898437500e+01 -1.151789951324462891e+01 7.661898136138916016e-01 7.519567489624023438e+00 2.485727310180664062e+00 -3.599862158298492432e-01
2.796000000000000000e+03 6.327513122558593750e+01 -1.471439266204833984e+01 4.943333268165588379e-01 7.560690879821777344e+00 2.416507244110107422e+00 -5.215223431587219238e-01
2.797000000000000000e+03 6.218471908569335938e+01 -1.558931159973144531e+01 4.859423339366912842e-01 7.631023883819580078e+00 2.435089826583862305e+00 -5.928462743759155273e-01
2.798000000000000000e+03 6.209632492065429688e+01 -2.162654495239257812e+01 4.566449299454689026e-02 7.791315078735351562e+00 2.351093769073486328e+00 -6.996149420738220215e-01
2.799000000000000000e+03 6.180700683593750000e+01 -2.421104812622070312e+01 -1.247639060020446777e-01 7.844277381896972656e+00 2.315854072570800781e+00 -6.759417653083801270e-01
2.800000000000000000e+03 6.232407379150390625e+01 -1.358837318420410156e+01 6.226867437362670898e-01 7.566360950469970703e+00 2.456714391708374023e+00 -4.943591654300689697e-01
2.801000000000000000e+03 1.787284469604492188e+01 -2.443305969238281250e+01 2.204960286617279053e-01 4.707884490489959717e-01 2.073853462934494019e-01 9.327858686447143555e-02
2.802000000000000000e+03 1.849935150146484375e+01 -2.612760734558105469e+01 2.673707306385040283e-01 6.702679991722106934e-01 2.812916040420532227e-01 1.465173512697219849e-01
2.803000000000000000e+03 6.382434463500976562e+01 1.242973995208740234e+01 -6.134820729494094849e-02 7.824118614196777344e+00 2.328831195831298828e+00 8.465181589126586914e-01
2.804000000000000000e+03 6.344277191162109375e+01 1.637793922424316406e+01 -1.974730491638183594e-01 7.869860649108886719e+00 2.301716327667236328e+00 7.795068621635437012e-01
2.805000000000000000e+03 6.544786834716796875e+01 2.081925582885742188e+01 -2.396233230829238892e-01 7.938049316406250000e+00 2.309527635574340820e+00 6.490231752395629883e-01
2.806000000000000000e+03 3.943933105468750000e+01 -2.600067138671875000e+00 9.508742690086364746e-01 1.310118579864501953e+01 4.215618133544921875e+00 -1.268862843513488770e+00
2.807000000000000000e+03 4.193630218505859375e+01 -9.439054489135742188e+00 3.438646316528320312e+00 1.228292655944824219e+01 4.716472148895263672e+00 -1.605028271675109863e+00
2.808000000000000000e+03 3.708071517944335938e+01 -2.031440019607543945e+00 1.407903790473937988e+00 8.233254432678222656e+00 2.892347574234008789e+00 -3.851723194122314453e+00
2.809000000000000000e+03 3.601742172241210938e+01 -9.127647280693054199e-01 1.420831918716430664e+00 6.109701633453369141e+00 2.259160041809082031e+00 -3.357939243316650391e+00
2.810000000000000000e+03 3.997410583496093750e+01 -1.124539089202880859e+01 4.172704219818115234e-01 1.245630550384521484e+01 3.862072944641113281e+00 8.302751779556274414e-01
2.811000000000000000e+03 4.132803344726562500e+01 -1.063456726074218750e+01 1.597200512886047363e+00 1.250547218322753906e+01 4.230801582336425781e+00 -7.852894067764282227e-01
2.812000000000000000e+03 3.790048217773437500e+01 -8.274154067039489746e-01 6.106393933296203613e-01 9.362098693847656250e+00 2.991821289062500000e+00 -2.811329126358032227e+00
2.813000000000000000e+03 3.737055206298828125e+01 -1.194137763977050781e+01 5.485132336616516113e-01 8.599630355834960938e+00 2.744442939758300781e+00 3.374153375625610352e+00
2.814000000000000000e+03 4.260214614868164062e+01 -7.908341407775878906e+00 5.481390476226806641e+00 1.111403656005859375e+01 4.978628158569335938e+00 -1.235919833183288574e+00
2.815000000000000000e+03 3.592687606811523438e+01 -1.189292049407958984e+01 1.167120456695556641e+00 5.800508022308349609e+00 2.090288639068603516e+00 3.541286468505859375e+00
2.816000000000000000e+03 4.150003051757812500e+01 -1.018200492858886719e+01 2.182173967361450195e+00 1.260291862487792969e+01 4.435527801513671875e+00 -1.150034546852111816e+00
2.817000000000000000e+03 3.961844253540039062e+01 -1.172041702270507812e+01 1.813529431819915771e-01 1.172478580474853516e+01 3.571841716766357422e+00 1.361377477645874023e+00
2.818000000000000000e+03 4.290980529785156250e+01 -4.765375137329101562e+00 4.837541580200195312e+00 1.090286636352539062e+01 4.722122192382812500e+00 1.264164447784423828e+00
2.819000000000000000e+03 3.796172332763671875e+01 -1.170652580261230469e+01 3.590031564235687256e-01 9.859695434570312500e+00 3.065609693527221680e+00 3.123278141021728516e+00
2.820000000000000000e+03 3.828186035156250000e+01 -1.157036209106445312e+01 2.641306519508361816e-01 1.043038272857666016e+01 3.208353996276855469e+00 2.908194303512573242e+00
2.821000000000000000e+03 4.272081375122070312e+01 -7.567099571228027344e+00 5.778120994567871094e+00 1.090339660644531250e+01 5.004455089569091797e+00 -9.496361017227172852e-01
2.822000000000000000e+03 4.261362457275390625e+01 -6.680840969085693359e+00 6.308358669281005859e+00 1.086083221435546875e+01 5.150757312774658203e+00 -1.307746320962905884e-01
2.823000000000000000e+03 4.258563232421875000e+01 -8.870231628417968750e+00 4.291775703430175781e+00 1.140688896179199219e+01 4.709599494934082031e+00 -1.547752857208251953e+00
2.824000000000000000e+03 4.185359191894531250e+01 -2.769204139709472656e+00 2.314484596252441406e+00 1.197717189788818359e+01 4.287497043609619141e+00 1.097108244895935059e+00
2.825000000000000000e+03 4.322940063476562500e+01 -6.618585109710693359e+00 5.798730373382568359e+00 1.035805702209472656e+01 4.847036361694335938e+00 -4.577440023422241211e-02
2.826000000000000000e+03 4.312901687622070312e+01 -4.383666515350341797e+00 4.373322486877441406e+00 1.078926467895507812e+01 4.548776149749755859e+00 1.318653583526611328e+00
2.827000000000000000e+03 3.564695739746093750e+01 -1.583955883979797363e+00 1.826643347740173340e+00 5.325567722320556641e+00 2.145663499832153320e+00 -3.474636316299438477e+00
2.828000000000000000e+03 3.640432739257812500e+01 -1.444797039031982422e+01 3.449793159961700439e-01 6.566298007965087891e+00 2.073383092880249023e+00 2.726321220397949219e+00
2.829000000000000000e+03 4.307187652587890625e+01 -8.765220642089843750e+00 4.358864307403564453e+00 1.090037822723388672e+01 4.577772617340087891e+00 -1.405295133590698242e+00
2.830000000000000000e+03 4.250018692016601562e+01 -8.508802413940429688e+00 4.770118713378906250e+00 1.138011455535888672e+01 4.845069885253906250e+00 -1.485038399696350098e+00
2.831000000000000000e+03 4.303353500366210938e+01 -5.386732578277587891e+00 5.409605503082275391e+00 1.063880062103271484e+01 4.814521789550781250e+00 9.127885699272155762e-01
2.832000000000000000e+03 3.335216140747070312e+01 2.438234567642211914e+00 9.812426567077636719e-01 3.846397399902343750e+00 1.448292016983032227e+00 -2.133545398712158203e+00
2.833000000000000000e+03 3.383358383178710938e+01 1.773142814636230469e+00 1.057733297348022461e+00 4.096782684326171875e+00 1.546354770660400391e+00 -2.310504198074340820e+00
2.834000000000000000e+03 3.121831321716308594e+01 5.545008182525634766e+00 5.628519058227539062e-01 3.186538457870483398e+00 1.124817132949829102e+00 -1.570398449897766113e+00
2.835000000000000000e+03 3.525474166870117188e+01 -1.680345916748046875e+01 2.814106643199920654e-01 5.407932281494140625e+00 1.706802845001220703e+00 2.246926784515380859e+00
2.836000000000000000e+03 3.493958663940429688e+01 1.959020197391510010e-01 1.308144927024841309e+00 4.866387844085693359e+00 1.852359771728515625e+00 -2.823171854019165039e+00
2.837000000000000000e+03 3.147941017150878906e+01 3.330740213394165039e+00 8.913691043853759766e-01 2.942836523056030273e+00 1.150261640548706055e+00 -1.685016989707946777e+00
2.838000000000000000e+03 3.275787734985351562e+01 2.443039178848266602e+00 1.017233371734619141e+00 3.457058191299438477e+00 1.342287540435791016e+00 -2.015935659408569336e+00
2.839000000000000000e+03 3.403343582153320312e+01 -2.037343406677246094e+01 8.506116271018981934e-02 4.727071762084960938e+00 1.443639874458312988e+00 1.687638401985168457e+00
2.840000000000000000e+03 3.473877334594726562e+01 -1.992588615417480469e+01 3.381958603858947754e-02 5.077175617218017578e+00 1.533298492431640625e+00 1.762958526611328125e+00
2.841000000000000000e+03 3.216236495971679688e+01 5.891999244689941406e+00 4.715744853019714355e-01 3.678548336029052734e+00 1.245036840438842773e+00 -1.677280664443969727e+00
2.842000000000000000e+03 3.097963523864746094e+01 1.124232196807861328e+01 9.245102293789386749e-03 3.586818456649780273e+00 1.078819036483764648e+00 -1.253591299057006836e+00
2.843000000000000000e+03 3.578393554687500000e+01 -1.510566043853759766e+01 3.919185400009155273e-01 5.916195392608642578e+00 1.892434239387512207e+00 2.566243171691894531e+00
2.844000000000000000e+03 3.533725357055664062e+01 -1.553383731842041016e+01 4.231645464897155762e-01 5.467916488647460938e+00 1.767324209213256836e+00 2.470061540603637695e+00
2.845000000000000000e+03 6.151090621948242188e+01 -1.447646808624267578e+01 5.968902707099914551e-01 7.628245830535888672e+00 2.467540979385375977e+00 -5.636237263679504395e-01
2.846000000000000000e+03 3.298407363891601562e+01 -2.050144767761230469e+01 1.720670759677886963e-01 4.252725124359130859e+00 1.327437639236450195e+00 1.619728088378906250e+00
2.847000000000000000e+03 6.390766906738281250e+01 -4.972268104553222656e+00 7.544742822647094727e-01 7.413428306579589844e+00 2.450370788574218750e+00 1.995436251163482666e-01
2.848000000000000000e+03 6.407759857177734375e+01 -9.610599517822265625e+00 7.083597183227539062e-01 7.420831203460693359e+00 2.438757419586181641e+00 -1.861433088779449463e-01
2.849000000000000000e+03 6.026252746582031250e+01 -1.850749015808105469e+01 2.967537641525268555e-01 7.807917118072509766e+00 2.431401252746582031e+00 -7.327731847763061523e-01
2.850000000000000000e+03 6.621060180664062500e+01 2.223515033721923828e+00 3.843644559383392334e-01 7.495193481445312500e+00 2.363867282867431641e+00 6.282361149787902832e-01
2.851000000000000000e+03 6.411678314208984375e+01 -6.464594841003417969e+00 7.430247068405151367e-01 7.400772571563720703e+00 2.443139076232910156e+00 8.582355827093124390e-02
2.852000000000000000e+03 6.113677215576171875e+01 -2.009907722473144531e+01 1.567638665437698364e-01 7.801686763763427734e+00 2.387535333633422852e+00 -7.222591638565063477e-01
2.853000000000000000e+03 6.453299713134765625e+01 1.072817683219909668e+00 5.211758017539978027e-01 7.515257358551025391e+00 2.410929918289184570e+00 6.189903616905212402e-01
2.854000000000000000e+03 6.262107467651367188e+01 -3.852704167366027832e-02 6.814833879470825195e-01 7.548452377319335938e+00 2.468980789184570312e+00 6.142536401748657227e-01
2.855000000000000000e+03 6.073539352416992188e+01 -2.269293594360351562e+01 -3.966376185417175293e-02 7.861155986785888672e+00 2.346447706222534180e+00 -7.132564783096313477e-01
2.856000000000000000e+03 3.172427558898925781e+01 8.459174156188964844e+00 1.814527213573455811e-01 3.693197250366210938e+00 1.162395000457763672e+00 -1.433706045150756836e+00
2.857000000000000000e+03 6.055280303955078125e+01 -1.494936466217041016e+01 5.998656153678894043e-01 7.689877986907958984e+00 2.486922979354858398e+00 -6.197740435600280762e-01
2.858000000000000000e+03 6.135514831542968750e+01 -1.267079448699951172e+01 7.648887634277343750e-01 7.580354690551757812e+00 2.503572940826416016e+00 -4.640738964080810547e-01
2.859000000000000000e+03 3.921419525146484375e+01 -2.407227516174316406e+00 7.596883177757263184e-01 1.260606479644775391e+01 4.009725570678710938e+00 -1.738718986511230469e+00
2.860000000000000000e+03 4.021087646484375000e+01 -2.621857881546020508e+00 1.286801695823669434e+00 1.309630775451660156e+01 4.314932823181152344e+00 -2.312963157892227173e-01
2.861000000000000000e+03 3.594821166992187500e+01 -2.325953394174575806e-01 1.198640465736389160e+00 6.072170734405517578e+00 2.181243419647216797e+00 -3.113677263259887695e+00
2.862000000000000000e+03 3.589627838134765625e+01 -1.248917007446289062e+01 9.842662811279296875e-01 5.939691543579101562e+00 2.077187299728393555e+00 3.334994554519653320e+00
2.863000000000000000e+03 3.722056198120117188e+01 -1.362384796142578125e+01 2.551829516887664795e-01 7.776806831359863281e+00 2.409596920013427734e+00 2.807658910751342773e+00
2.864000000000000000e+03 4.064934539794921875e+01 -1.213878250122070312e+01 3.024455308914184570e-01 1.160505199432373047e+01 3.572249412536621094e+00 4.535117149353027344e-01
2.865000000000000000e+03 4.036393737792968750e+01 -1.122627353668212891e+01 5.787916779518127441e-01 1.249533367156982422e+01 3.922237634658813477e+00 4.170782268047332764e-01
2.866000000000000000e+03 4.168831634521484375e+01 -9.773959159851074219e+00 2.842854022979736328e+00 1.250912761688232422e+01 4.605594635009765625e+00 -1.421082496643066406e+00
2.867000000000000000e+03 3.679885482788085938e+01 -1.230788612365722656e+01 6.757174730300903320e-01 7.411747455596923828e+00 2.426239490509033203e+00 3.375688552856445312e+00
2.868000000000000000e+03 4.078656387329101562e+01 -1.116508293151855469e+01 8.737782239913940430e-01 1.244375514984130859e+01 3.995260000228881836e+00 -1.162698194384574890e-01
2.869000000000000000e+03 3.609379577636718750e+01 -1.447994947433471680e+00 1.631886839866638184e+00 6.165449142456054688e+00 2.339200735092163086e+00 -3.570989608764648438e+00
2.870000000000000000e+03 3.985614776611328125e+01 -2.220013141632080078e+00 8.951928019523620605e-01 1.266204166412353516e+01 4.067170143127441406e+00 -8.563237190246582031e-01
2.871000000000000000e+03 4.302988433837890625e+01 -8.109093666076660156e+00 5.058904647827148438e+00 1.079057502746582031e+01 4.754844188690185547e+00 -1.205356240272521973e+00
2.872000000000000000e+03 3.928570938110351562e+01 -1.166171932220458984e+01 1.596304923295974731e-01 1.162102508544921875e+01 3.534196853637695312e+00 1.678511738777160645e+00
2.873000000000000000e+03 4.329701614379882812e+01 -7.189816474914550781e+00 5.548710346221923828e+00 1.037158203125000000e+01 4.776087760925292969e+00 -5.518107414245605469e-01
2.874000000000000000e+03 4.215609359741210938e+01 -9.170960426330566406e+00 3.871419906616210938e+00 1.197418403625488281e+01 4.753681182861328125e+00 -1.639238715171813965e+00
2.875000000000000000e+03 4.381793212890625000e+01 -4.642383098602294922e+00 4.413163661956787109e+00 1.023966312408447266e+01 4.395847797393798828e+00 1.104679346084594727e+00
2.876000000000000000e+03 4.210848999023437500e+01 -3.325399637222290039e+00 3.109925031661987305e+00 1.192378330230712891e+01 4.510112285614013672e+00 1.381206750869750977e+00
2.877000000000000000e+03 3.531178665161132812e+01 -3.970326781272888184e-01 1.410828232765197754e+00 5.192000389099121094e+00 1.980848670005798340e+00 -3.043016910552978516e+00
2.878000000000000000e+03 4.176393890380859375e+01 -3.168751716613769531e+00 2.844277143478393555e+00 1.224955654144287109e+01 4.528150081634521484e+00 1.273743152618408203e+00
2.879000000000000000e+03 3.499031066894531250e+01 1.815100550651550293e+00 8.778400421142578125e-01 5.135619163513183594e+00 1.804037690162658691e+00 -2.509019374847412109e+00
2.880000000000000000e+03 3.364078521728515625e+01 1.378794431686401367e+00 1.187512397766113281e+00 3.834704875946044922e+00 1.506665110588073730e+00 -2.324769735336303711e+00
2.881000000000000000e+03 4.329235076904296875e+01 -6.068618774414062500e+00 5.655179500579833984e+00 1.034899044036865234e+01 4.801250934600830078e+00 3.631281852722167969e-01
2.882000000000000000e+03 4.348753356933593750e+01 -5.563248634338378906e+00 5.263738155364990234e+00 1.028161048889160156e+01 4.663604736328125000e+00 7.274257540702819824e-01
2.883000000000000000e+03 3.341199111938476562e+01 1.805010795593261719e+00 1.106160521507263184e+00 3.750231742858886719e+00 1.456917643547058105e+00 -2.212598085403442383e+00
2.884000000000000000e+03 3.265072250366210938e+01 3.213111639022827148e+00 8.682291507720947266e-01 3.555306911468505859e+00 1.327060818672180176e+00 -1.925219893455505371e+00
2.885000000000000000e+03 4.299194717407226562e+01 -3.277268886566162109e+00 3.234446763992309570e+00 1.108254241943359375e+01 4.295096874237060547e+00 1.417207241058349609e+00
2.886000000000000000e+03 4.390769195556640625e+01 -7.197572708129882812e+00 5.156738758087158203e+00 9.956550598144531250e+00 4.533986568450927734e+00 -4.498886168003082275e-01
2.887000000000000000e+03 4.385196304321289062e+01 -6.653705120086669922e+00 5.294326782226562500e+00 9.952664375305175781e+00 4.574097156524658203e+00 -9.370957314968109131e-02
2.888000000000000000e+03 3.446826553344726562e+01 2.131669044494628906e+00 9.017831087112426758e-01 4.694082736968994141e+00 1.678759813308715820e+00 -2.388181924819946289e+00
2.889000000000000000e+03 3.337807464599609375e+01 3.235127449035644531e+00 7.926748991012573242e-01 4.047119140625000000e+00 1.451938271522521973e+00 -2.060918569564819336e+00
2.890000000000000000e+03 3.476801300048828125e+01 1.188365697860717773e+00 1.068029046058654785e+00 4.807049274444580078e+00 1.762523531913757324e+00 -2.577855348587036133e+00
2.891000000000000000e+03 3.162879943847656250e+01 4.791653156280517578e+00 6.492581367492675781e-01 3.260457277297973633e+00 1.172914624214172363e+00 -1.666356086730957031e+00
2.892000000000000000e+03 3.203881835937500000e+01 2.953235864639282227e+00 9.383826851844787598e-01 3.139156103134155273e+00 1.223261594772338867e+00 -1.806419968605041504e+00
2.893000000000000000e+03 3.246281051635742188e+01 5.023116111755371094e+00 5.582799911499023438e-01 3.697486400604248047e+00 1.276729941368103027e+00 -1.747742772102355957e+00
2.894000000000000000e+03 3.608920288085937500e+01 -1.745493888854980469e+01 4.333563148975372314e-02 6.011229991912841797e+00 1.816369771957397461e+00 2.069293022155761719e+00
2.895000000000000000e+03 3.246113586425781250e+01 7.130501747131347656e+00 2.771315574645996094e-01 3.983493328094482422e+00 1.278187394142150879e+00 -1.594677805900573730e+00
2.896000000000000000e+03 6.111171340942382812e+01 -1.052828693389892578e+01 9.117535352706909180e-01 7.535522937774658203e+00 2.534182786941528320e+00 -3.003221750259399414e-01
2.897000000000000000e+03 6.096738052368164062e+01 -3.218318223953247070e+00 9.811324477195739746e-01 7.521640300750732422e+00 2.550831794738769531e+00 3.953591287136077881e-01
2.898000000000000000e+03 3.458021163940429688e+01 -2.157240104675292969e+01 -7.030100375413894653e-02 5.001326084136962891e+00 1.479307532310485840e+00 1.553971886634826660e+00
2.899000000000000000e+03 3.522333145141601562e+01 -1.912874031066894531e+01 2.518009208142757416e-02 5.396075725555419922e+00 1.626376748085021973e+00 1.856375694274902344e+00
2.900000000000000000e+03 3.566709136962890625e+01 -1.826534271240234375e+01 3.169054165482521057e-02 5.676360607147216797e+00 1.712415337562561035e+00 1.963730096817016602e+00
2.901000000000000000e+03 3.578060913085937500e+01 -1.613454818725585938e+01 2.596279978752136230e-01 5.835694789886474609e+00 1.828596830368041992e+00 2.357398033142089844e+00
2.902000000000000000e+03 3.102597427368164062e+01 1.429890537261962891e+01 -1.593248099088668823e-01 3.682259559631347656e+00 1.056880474090576172e+00 -1.102238059043884277e+00
2.903000000000000000e+03 3.022027015686035156e+01 -2.236757469177246094e+01 2.443631142377853394e-01 3.258134365081787109e+00 1.050749182701110840e+00 1.243302106857299805e+00
2.904000000000000000e+03 6.336551666259765625e+01 -8.390379905700683594e+00 7.986636161804199219e-01 7.427660942077636719e+00 2.467897415161132812e+00 -9.369682520627975464e-02
2.905000000000000000e+03 5.720889282226562500e+01 -1.035788249969482422e+01 1.295011758804321289e+00 7.693046569824218750e+00 2.696417570114135742e+00 -3.907840549945831299e-01
2.906000000000000000e+03 5.700958251953125000e+01 -1.602703094482421875e+01 6.258604526519775391e-01 7.918146133422851562e+00 2.563201904296875000e+00 -7.756521701812744141e-01
2.907000000000000000e+03 6.755477142333984375e+01 2.202685594558715820e+00 3.267778754234313965e-01 7.454003810882568359e+00 2.334234476089477539e+00 5.860004425048828125e-01
2.908000000000000000e+03 6.637095642089843750e+01 3.510379076004028320e+00 3.258219659328460693e-01 7.532033920288085938e+00 2.357356786727905273e+00 6.791134476661682129e-01
2.909000000000000000e+03 6.485124206542968750e+01 2.430872440338134766e+00 4.349856078624725342e-01 7.547052383422851562e+00 2.394611358642578125e+00 6.806581020355224609e-01
2.910000000000000000e+03 5.677278900146484375e+01 -2.324260330200195312e+01 -1.688208431005477905e-01 8.031934738159179688e+00 2.358934164047241211e+00 -7.164849042892456055e-01
2.911000000000000000e+03 6.049789047241210938e+01 -2.542497444152832031e+01 -2.295471280813217163e-01 7.889885425567626953e+00 2.298101425170898438e+00 -6.528586745262145996e-01
2.912000000000000000e+03 3.206408691406250000e+01 -2.399487113952636719e+01 1.945967040956020355e-02 4.027227878570556641e+00 1.214006304740905762e+00 1.234751343727111816e+00
2.913000000000000000e+03 6.094954681396484375e+01 -1.628282356262207031e+01 4.864426255226135254e-01 7.706309795379638672e+00 2.457825660705566406e+00 -6.558204293251037598e-01
2.914000000000000000e+03 5.930479049682617188e+01 -1.501795101165771484e+01 6.588403582572937012e-01 7.756111621856689453e+00 2.524485588073730469e+00 -6.674217581748962402e-01
2.915000000000000000e+03 2.956805038452148438e+01 1.514354991912841797e+01 -1.391950994729995728e-01 3.262658596038818359e+00 9.370390772819519043e-01 -1.033965587615966797e+00
2.916000000000000000e+03 4.093887329101562500e+01 -2.591063737869262695e+00 1.698494911193847656e+00 1.271499156951904297e+01 4.324046134948730469e+00 5.077553987503051758e-01
2.917000000000000000e+03 4.055132675170898438e+01 -2.635030984878540039e+00 1.497575402259826660e+00 1.297411918640136719e+01 4.341508388519287109e+00 1.735229194164276123e-01
2.918000000000000000e+03 3.654344940185546875e+01 -1.405147910118103027e+00 1.421401262283325195e+00 7.026235103607177734e+00 2.534291028976440430e+00 -3.573624849319458008e+00
2.919000000000000000e+03 4.050119400024414062e+01 -2.273787736892700195e+00 1.241334438323974609e+00 1.264945602416992188e+01 4.167237281799316406e+00 -7.015993446111679077e-02
2.920000000000000000e+03 3.861724472045898438e+01 -1.218407535552978516e+01 8.398707211017608643e-02 1.039926338195800781e+01 3.144975185394287109e+00 2.418642997741699219e+00
2.921000000000000000e+03 3.862569427490234375e+01 -1.341789364814758301e+00 5.198331475257873535e-01 1.068663597106933594e+01 3.361940860748291016e+00 -2.394039630889892578e+00
2.922000000000000000e+03 3.727563095092773438e+01 -1.251827716827392578e+01 4.595472812652587891e-01 8.105594635009765625e+00 2.569542646408081055e+00 3.166409254074096680e+00
2.923000000000000000e+03 3.881236648559570312e+01 -1.739330172538757324e+00 6.012352108955383301e-01 1.139069652557373047e+01 3.597579479217529297e+00 -2.219157218933105469e+00
2.924000000000000000e+03 4.001160812377929688e+01 -1.176183795928955078e+01 2.502996325492858887e-01 1.189767169952392578e+01 3.644391536712646484e+00 9.554001092910766602e-01
2.925000000000000000e+03 4.262830352783203125e+01 -9.302608489990234375e+00 3.731084585189819336e+00 1.146755886077880859e+01 4.559592723846435547e+00 -1.567551136016845703e+00
2.926000000000000000e+03 3.953272628784179688e+01 -1.222943592071533203e+01 5.768676847219467163e-02 1.119221305847167969e+01 3.374969959259033203e+00 1.505970954895019531e+00
2.927000000000000000e+03 3.615280532836914062e+01 -1.329045867919921875e+01 6.695277094841003418e-01 6.342152118682861328e+00 2.103503942489624023e+00 3.083467006683349609e+00
2.928000000000000000e+03 4.322971725463867188e+01 -7.704857349395751953e+00 5.270278930664062500e+00 1.051279830932617188e+01 4.734923362731933594e+00 -9.101582169532775879e-01
2.929000000000000000e+03 4.345644760131835938e+01 -4.112285137176513672e+00 4.072984218597412109e+00 1.058918476104736328e+01 4.398650646209716797e+00 1.306334018707275391e+00
2.930000000000000000e+03 3.624147796630859375e+01 -1.383772468566894531e+01 5.345095992088317871e-01 6.447649478912353516e+00 2.094647645950317383e+00 2.938171863555908203e+00
2.931000000000000000e+03 3.700284194946289062e+01 -1.495407342910766602e+00 1.210568070411682129e+00 8.082409858703613281e+00 2.787893295288085938e+00 -3.568638563156127930e+00
2.932000000000000000e+03 4.413569259643554688e+01 -7.720438480377197266e+00 4.754389762878417969e+00 9.926688194274902344e+00 4.404323101043701172e+00 -7.491701841354370117e-01
2.933000000000000000e+03 3.555001449584960938e+01 1.535519123077392578e+00 7.978839874267578125e-01 5.748803615570068359e+00 1.964006304740905762e+00 -2.610929012298583984e+00
2.934000000000000000e+03 3.427360153198242188e+01 1.523708820343017578e+00 1.059128284454345703e+00 4.424732685089111328e+00 1.645158290863037109e+00 -2.432210683822631836e+00
2.935000000000000000e+03 4.345797348022460938e+01 -8.433779716491699219e+00 4.563090801239013672e+00 1.053697681427001953e+01 4.530020236968994141e+00 -1.220691919326782227e+00
2.936000000000000000e+03 4.371017074584960938e+01 -7.979156494140625000e+00 4.833688735961914062e+00 1.023531055450439453e+01 4.520699501037597656e+00 -9.499306678771972656e-01
2.937000000000000000e+03 4.324450302124023438e+01 -9.296203613281250000e+00 3.736532449722290039e+00 1.087923717498779297e+01 4.384730815887451172e+00 -1.460770606994628906e+00
2.938000000000000000e+03 4.125424194335937500e+01 -1.117832088470458984e+01 1.107572078704833984e+00 1.223795509338378906e+01 4.003657817840576172e+00 -4.439876079559326172e-01
2.939000000000000000e+03 4.412125778198242188e+01 -5.175840377807617188e+00 4.674361228942871094e+00 9.938412666320800781e+00 4.383832454681396484e+00 8.328005075454711914e-01
2.940000000000000000e+03 4.345989608764648438e+01 -4.523968219757080078e+00 4.415847301483154297e+00 1.049860382080078125e+01 4.474335193634033203e+00 1.218503952026367188e+00
2.941000000000000000e+03 4.445468902587890625e+01 -7.114332199096679688e+00 4.864485263824462891e+00 9.668430328369140625e+00 4.359874725341796875e+00 -3.454067111015319824e-01
2.942000000000000000e+03 4.446993637084960938e+01 -6.183758735656738281e+00 4.836257457733154297e+00 9.633514404296875000e+00 4.340931415557861328e+00 2.215510904788970947e-01
2.943000000000000000e+03 4.353731918334960938e+01 -2.911480188369750977e+00 2.933608055114746094e+00 1.066748428344726562e+01 4.080327510833740234e+00 1.353402733802795410e+00
2.944000000000000000e+03 3.312939834594726562e+01 6.338922500610351562e+00 3.187008798122406006e-01 4.243399620056152344e+00 1.368630170822143555e+00 -1.720287799835205078e+00
2.945000000000000000e+03 3.392811965942382812e+01 2.362245082855224609e+00 9.273646473884582520e-01 4.310953140258789062e+00 1.571495413780212402e+00 -2.270313262939453125e+00
2.946000000000000000e+03 3.521882629394531250e+01 2.447514533996582031e+00 6.765572428703308105e-01 5.438181400299072266e+00 1.834421515464782715e+00 -2.391675472259521484e+00
2.947000000000000000e+03 3.628512191772460938e+01 -1.554127502441406250e+01 2.271855026483535767e-01 6.369919776916503906e+00 1.979131579399108887e+00 2.461514472961425781e+00
2.948000000000000000e+03 3.296212387084960938e+01 8.026370048522949219e+00 1.336262226104736328e-01 4.268248081207275391e+00 1.320562362670898438e+00 -1.545856356620788574e+00
2.949000000000000000e+03 3.424951171875000000e+01 4.041359901428222656e+00 5.488577485084533691e-01 4.729552745819091797e+00 1.583523154258728027e+00 -2.070670366287231445e+00
2.950000000000000000e+03 3.735304260253906250e+01 -2.078638076782226562e+01 -3.604715764522552490e-01 6.405017852783203125e+00 1.813363909721374512e+00 1.432250022888183594e+00
2.951000000000000000e+03 3.189119529724121094e+01 9.651758193969726562e+00 7.828107476234436035e-02 3.810386180877685547e+00 1.166600108146667480e+00 -1.377303957939147949e+00
2.952000000000000000e+03 3.086296844482421875e+01 1.266101360321044922e+01 -7.595779746770858765e-02 3.585023164749145508e+00 1.052719593048095703e+00 -1.176274061203002930e+00
2.953000000000000000e+03 6.091925048828125000e+01 7.979957759380340576e-02 7.814033031463623047e-01 7.604891777038574219e+00 2.515888452529907227e+00 6.630338430404663086e-01
2.954000000000000000e+03 6.252479934692382812e+01 -1.673910498619079590e+00 7.847329378128051758e-01 7.507317543029785156e+00 2.487615108489990234e+00 4.981822073459625244e-01
2.955000000000000000e+03 6.135935211181640625e+01 -7.758405208587646484e+00 9.897711277008056641e-01 7.485270977020263672e+00 2.542512655258178711e+00 -4.796357825398445129e-02
2.956000000000000000e+03 6.214534378051757812e+01 -9.257888793945312500e+00 8.711950778961181641e-01 7.477851867675781250e+00 2.504714012145996094e+00 -1.811728328466415405e-01
2.957000000000000000e+03 5.971413040161132812e+01 -1.339430141448974609e+01 8.136956095695495605e-01 7.676018238067626953e+00 2.546914100646972656e+00 -5.618824958801269531e-01
2.958000000000000000e+03 5.501153182983398438e+01 -1.953153991699218750e+01 1.651770025491714478e-01 8.133202552795410156e+00 2.489513874053955078e+00 -8.203070163726806641e-01
2.959000000000000000e+03 3.619922256469726562e+01 -1.992724800109863281e+01 -1.653908193111419678e-01 5.886939525604248047e+00 1.716464519500732422e+00 1.693983316421508789e+00
2.960000000000000000e+03 6.503482055664062500e+01 5.726850509643554688e+00 2.534484267234802246e-01 7.639507293701171875e+00 2.367886543273925781e+00 7.867273688316345215e-01
2.961000000000000000e+03 6.300074386596679688e+01 1.476124882698059082e+00 5.709723234176635742e-01 7.576172351837158203e+00 2.444143295288085938e+00 6.821373105049133301e-01
2.962000000000000000e+03 3.822642517089843750e+01 -2.338498687744140625e+01 -5.443027615547180176e-01 6.456542491912841797e+00 1.773671984672546387e+00 1.087807178497314453e+00
2.963000000000000000e+03 3.329388809204101562e+01 -2.197194862365722656e+01 3.580473363399505615e-02 4.456031799316406250e+00 1.347550988197326660e+00 1.497185468673706055e+00
2.964000000000000000e+03 6.354177856445312500e+01 3.860833168029785156e+00 4.029813706874847412e-01 7.627720355987548828e+00 2.409210443496704102e+00 7.756270766258239746e-01
2.965000000000000000e+03 3.553498077392578125e+01 -2.087157058715820312e+01 -1.434630602598190308e-01 5.501602649688720703e+00 1.607441902160644531e+00 1.622328877449035645e+00
2.966000000000000000e+03 4.134946441650390625e+01 -2.505194902420043945e+00 1.882051229476928711e+00 1.242258453369140625e+01 4.291390895843505859e+00 7.636899352073669434e-01
2.967000000000000000e+03 3.829196166992187500e+01 -1.556025862693786621e+00 6.627424955368041992e-01 1.040128993988037109e+01 3.319209575653076172e+00 -2.793154716491699219e+00
2.968000000000000000e+03 3.827501678466796875e+01 -1.248717880249023438e+01 1.083771511912345886e-01 9.748754501342773438e+00 2.957139492034912109e+00 2.620275020599365234e+00
2.969000000000000000e+03 3.897399902343750000e+01 -1.094395995140075684e+00 4.321233034133911133e-01 1.085396862030029297e+01 3.385827779769897461e+00 -1.983122110366821289e+00
2.970000000000000000e+03 3.892465972900390625e+01 -1.246237277984619141e+01 1.550217159092426300e-02 1.048715496063232422e+01 3.150797128677368164e+00 2.117288351058959961e+00
2.971000000000000000e+03 3.995685577392578125e+01 -1.229139900207519531e+01 1.032946109771728516e-01 1.129891490936279297e+01 3.420662879943847656e+00 1.115105152130126953e+00
2.972000000000000000e+03 3.708907318115234375e+01 -1.014082431793212891e+00 9.894417524337768555e-01 8.108650207519531250e+00 2.729427576065063477e+00 -3.294637918472290039e+00
2.973000000000000000e+03 3.962574005126953125e+01 -1.634852409362792969e+00 5.937705039978027344e-01 1.189718151092529297e+01 3.747285604476928711e+00 -1.271731734275817871e+00
2.974000000000000000e+03 3.843685150146484375e+01 -9.674852490425109863e-01 5.044003129005432129e-01 1.009625339508056641e+01 3.180196285247802734e+00 -2.511985778808593750e+00
2.975000000000000000e+03 4.389840698242187500e+01 -6.146907806396484375e+00 5.205790042877197266e+00 9.943357467651367188e+00 4.544744014739990234e+00 2.615154087543487549e-01
2.976000000000000000e+03 4.321261978149414062e+01 -3.719219207763671875e+00 3.690102100372314453e+00 1.084623622894287109e+01 4.360901355743408203e+00 1.401001214981079102e+00
2.977000000000000000e+03 4.243797683715820312e+01 -2.393077373504638672e+00 2.237152814865112305e+00 1.146849441528320312e+01 4.111694335937500000e+00 1.148621439933776855e+00
2.978000000000000000e+03 4.128071594238281250e+01 -1.179489898681640625e+01 6.802153587341308594e-01 1.177068710327148438e+01 3.735270500183105469e+00 -1.382578909397125244e-01
2.979000000000000000e+03 4.182249450683593750e+01 -1.082680416107177734e+01 1.678389310836791992e+00 1.201563930511474609e+01 4.108208656311035156e+00 -9.246702194213867188e-01
2.980000000000000000e+03 3.781167602539062500e+01 -1.260570621490478516e+01 2.210661172866821289e-01 9.021517753601074219e+00 2.772775173187255859e+00 2.861323833465576172e+00
2.981000000000000000e+03 3.778752899169921875e+01 -1.207140445709228516e+01 3.319735229015350342e-01 9.325919151306152344e+00 2.897367715835571289e+00 3.142914533615112305e+00
2.982000000000000000e+03 4.412911224365234375e+01 -4.324726581573486328e+00 4.099337577819824219e+00 1.010220527648925781e+01 4.260462760925292969e+00 1.160568714141845703e+00
2.983000000000000000e+03 4.081309509277343750e+01 -2.151642799377441406e+00 1.302113413810729980e+00 1.237330436706542969e+01 4.102625370025634766e+00 1.578282266855239868e-01
2.984000000000000000e+03 4.252257537841796875e+01 -3.442124605178833008e+00 3.355048418045043945e+00 1.151249217987060547e+01 4.460262298583984375e+00 1.441193938255310059e+00
2.985000000000000000e+03 4.400614547729492188e+01 -5.656558513641357422e+00 5.019705295562744141e+00 9.930766105651855469e+00 4.485141277313232422e+00 5.833475589752197266e-01
2.986000000000000000e+03 3.689659881591796875e+01 -1.421673297882080078e+01 2.473172396421432495e-01 7.227218151092529297e+00 2.242360591888427734e+00 2.690438508987426758e+00
2.987000000000000000e+03 3.666955947875976562e+01 -1.315750217437744141e+01 5.275927186012268066e-01 7.100291252136230469e+00 2.288365125656127930e+00 3.091172218322753906e+00
2.988000000000000000e+03 4.397554779052734375e+01 -8.699649810791015625e+00 4.139957427978515625e+00 1.022075176239013672e+01 4.308212757110595703e+00 -1.203921079635620117e+00
2.989000000000000000e+03 3.604706192016601562e+01 5.796902179718017578e-01 9.101507067680358887e-01 6.255960941314697266e+00 2.149833440780639648e+00 -2.854157447814941406e+00
2.990000000000000000e+03 3.759263610839843750e+01 -5.804464221000671387e-01 6.619762182235717773e-01 8.685690879821777344e+00 2.804300069808959961e+00 -2.930483579635620117e+00
2.991000000000000000e+03 3.565996932983398438e+01 2.159307956695556641e+00 6.439134478569030762e-01 5.873953819274902344e+00 1.955360174179077148e+00 -2.481470108032226562e+00
2.992000000000000000e+03 4.245146560668945312e+01 -9.696950912475585938e+00 3.177124023437500000e+00 1.163793754577636719e+01 4.444518566131591797e+00 -1.494859099388122559e+00
2.993000000000000000e+03 4.287111663818359375e+01 -1.003540325164794922e+01 2.892355203628540039e+00 1.126881122589111328e+01 4.248350143432617188e+00 -1.437784671783447266e+00
2.994000000000000000e+03 4.217401504516601562e+01 -1.004010486602783203e+01 2.661370992660522461e+00 1.189906883239746094e+01 4.368132114410400391e+00 -1.405213475227355957e+00
2.995000000000000000e+03 4.470985031127929688e+01 -7.536067008972167969e+00 4.555275440216064453e+00 9.581773757934570312e+00 4.241114616394042969e+00 -5.379865169525146484e-01
2.996000000000000000e+03 4.469657897949218750e+01 -4.679012298583984375e+00 4.161854267120361328e+00 9.707056999206542969e+00 4.160673141479492188e+00 9.394981265068054199e-01
2.997000000000000000e+03 4.388439941406250000e+01 -9.254335403442382812e+00 3.729233026504516602e+00 1.036143302917480469e+01 4.227200031280517578e+00 -1.331440925598144531e+00
2.998000000000000000e+03 3.406299591064453125e+01 3.118721723556518555e+00 7.441337108612060547e-01 4.523464202880859375e+00 1.580279350280761719e+00 -2.181668043136596680e+00
2.999000000000000000e+03 3.401935577392578125e+01 7.173527717590332031e+00 1.283764839172363281e-01 4.732783317565917969e+00 1.458347916603088379e+00 -1.670442700386047363e+00
3.000000000000000000e+03 3.714892959594726562e+01 -1.466710281372070312e+01 1.217082962393760681e-01 7.326339721679687500e+00 2.234414339065551758e+00 2.530366420745849609e+00
3.001000000000000000e+03 3.666096115112304688e+01 -1.893986320495605469e+01 -1.698649376630783081e-01 6.259913444519042969e+00 1.827014565467834473e+00 1.768986940383911133e+00
3.002000000000000000e+03 3.700562286376953125e+01 -1.801611518859863281e+01 -1.736616492271423340e-01 6.608039379119873047e+00 1.930313348770141602e+00 1.868382573127746582e+00
3.003000000000000000e+03 6.244535827636718750e+01 -3.336707830429077148e+00 8.551198840141296387e-01 7.475214004516601562e+00 2.499100208282470703e+00 3.627491593360900879e-01
3.004000000000000000e+03 6.240831375122070312e+01 -5.128875255584716797e+00 8.933395743370056152e-01 7.457484245300292969e+00 2.505247116088867188e+00 1.999528855085372925e-01
3.005000000000000000e+03 6.637969207763671875e+01 4.788008689880371094e+00 2.643451094627380371e-01 7.575118541717529297e+00 2.351839065551757812e+00 7.215360403060913086e-01
3.006000000000000000e+03 6.533750152587890625e+01 4.624774932861328125e+00 2.905878722667694092e-01 7.599272251129150391e+00 2.366958141326904297e+00 7.422086596488952637e-01
3.007000000000000000e+03 3.612334060668945312e+01 8.735348701477050781e+00 -2.273995429277420044e-01 5.739793777465820312e+00 1.653718352317810059e+00 -1.426747918128967285e+00
3.008000000000000000e+03 5.952458572387695312e+01 -1.565718173980712891e+00 1.010743737220764160e+00 7.611024379730224609e+00 2.586530447006225586e+00 5.837150812149047852e-01
3.009000000000000000e+03 5.960259246826171875e+01 -2.902881860733032227e+00 1.084639549255371094e+00 7.570194244384765625e+00 2.596450090408325195e+00 4.390112757682800293e-01
3.010000000000000000e+03 3.321713256835937500e+01 9.255331039428710938e+00 1.081630028784275055e-02 4.418376445770263672e+00 1.328757762908935547e+00 -1.464660406112670898e+00
3.011000000000000000e+03 3.219071197509765625e+01 1.226470470428466797e+01 -1.314092576503753662e-01 4.085347652435302734e+00 1.186181426048278809e+00 -1.214073061943054199e+00
3.012000000000000000e+03 5.995101165771484375e+01 -9.909587860107421875e+00 1.046273827552795410e+00 7.560362815856933594e+00 2.581990957260131836e+00 -2.692331373691558838e-01
3.013000000000000000e+03 3.776646804809570312e+01 -1.954149818420410156e+01 -3.682489395141601562e-01 6.827200412750244141e+00 1.937685489654541016e+00 1.533606171607971191e+00
3.014000000000000000e+03 5.660072708129882812e+01 -1.161960315704345703e+01 1.216153025627136230e+00 7.781255722045898438e+00 2.699222564697265625e+00 -5.443277955055236816e-01
3.015000000000000000e+03 3.162011146545410156e+01 1.593473815917968750e+01 -2.605526447296142578e-01 3.854060649871826172e+00 1.078052401542663574e+00 -1.012456893920898438e+00
3.016000000000000000e+03 6.317963027954101562e+01 5.070680618286132812e+00 3.444083929061889648e-01 7.667339324951171875e+00 2.403524160385131836e+00 8.187454938888549805e-01
3.017000000000000000e+03 3.217219161987304688e+01 -2.610867881774902344e+01 -1.006253659725189209e-01 4.124701023101806641e+00 1.207222700119018555e+00 1.064115047454833984e+00
3.018000000000000000e+03 5.799200820922851562e+01 -1.455433559417724609e+01 7.622919678688049316e-01 7.810883522033691406e+00 2.571952581405639648e+00 -6.900759339332580566e-01
3.019000000000000000e+03 5.733366775512695312e+01 -2.039480018615722656e+01 1.143635585904121399e-01 7.995276451110839844e+00 2.432892084121704102e+00 -7.815897464752197266e-01
3.020000000000000000e+03 5.799240875244140625e+01 -1.758994102478027344e+01 4.241894185543060303e-01 7.901884555816650391e+00 2.497822284698486328e+00 -7.746807932853698730e-01
3.021000000000000000e+03 3.822817230224609375e+01 -6.234391331672668457e-01 5.015427470207214355e-01 9.584607124328613281e+00 3.025845050811767578e+00 -2.552701950073242188e+00
3.022000000000000000e+03 3.988411712646484375e+01 -1.810973405838012695e+00 7.066230177879333496e-01 1.217708778381347656e+01 3.865113258361816406e+00 -9.429790973663330078e-01
3.023000000000000000e+03 3.722371673583984375e+01 -1.310636138916015625e+01 3.452417254447937012e-01 7.857255935668945312e+00 2.460749149322509766e+00 2.997448444366455078e+00
3.024000000000000000e+03 3.810034179687500000e+01 -1.184385061264038086e+00 6.234312653541564941e-01 9.815457344055175781e+00 3.131666660308837891e+00 -2.773074626922607422e+00
3.025000000000000000e+03 3.755707168579101562e+01 -1.025490164756774902e+00 8.125126361846923828e-01 8.848101615905761719e+00 2.898184299468994141e+00 -3.126094818115234375e+00
3.026000000000000000e+03 3.914516067504882812e+01 -1.492609858512878418e+00 5.043738484382629395e-01 1.140264415740966797e+01 3.572105407714843750e+00 -1.829480171203613281e+00
3.027000000000000000e+03 4.033962249755859375e+01 -1.244588947296142578e+01 1.490919739007949829e-01 1.130606842041015625e+01 3.436548233032226562e+00 7.836810350418090820e-01
3.028000000000000000e+03 4.063078308105468750e+01 -1.281801986694335938e+01 9.870189428329467773e-02 1.108081054687500000e+01 3.353853940963745117e+00 6.330828666687011719e-01
3.029000000000000000e+03 4.082861709594726562e+01 -1.173132133483886719e+01 5.455542802810668945e-01 1.192799282073974609e+01 3.742063999176025391e+00 1.349526792764663696e-01
3.030000000000000000e+03 3.534917068481445312e+01 8.157001733779907227e-01 1.043650269508361816e+00 5.417193412780761719e+00 1.938253045082092285e+00 -2.758294582366943359e+00
3.031000000000000000e+03 4.196882629394531250e+01 -1.041543483734130859e+01 2.177912712097167969e+00 1.203920364379882812e+01 4.265134811401367188e+00 -1.203097343444824219e+00
3.032000000000000000e+03 3.674924468994140625e+01 -1.370689868927001953e+01 3.943708837032318115e-01 7.131288051605224609e+00 2.257697582244873047e+00 2.881782531738281250e+00
3.033000000000000000e+03 4.109422683715820312e+01 -1.915397167205810547e+00 1.243714690208435059e+00 1.208014678955078125e+01 3.997158527374267578e+00 2.534894347190856934e-01
3.034000000000000000e+03 3.655062103271484375e+01 -9.129374623298645020e-01 1.220342636108398438e+00 7.001111984252929688e+00 2.466436386108398438e+00 -3.374572038650512695e+00
3.035000000000000000e+03 4.335651016235351562e+01 -2.394202947616577148e+00 2.472277164459228516e+00 1.079622364044189453e+01 3.980550289154052734e+00 1.283878087997436523e+00
3.036000000000000000e+03 4.275506210327148438e+01 -2.125716209411621094e+00 2.048117399215698242e+00 1.115123367309570312e+01 3.959805250167846680e+00 1.120145440101623535e+00
3.037000000000000000e+03 4.225373077392578125e+01 -2.831653833389282227e+00 2.530831575393676758e+00 1.165894889831542969e+01 4.256934165954589844e+00 1.234087824821472168e+00
3.038000000000000000e+03 4.452260589599609375e+01 -8.855168342590332031e+00 3.844851255416870117e+00 9.922947883605957031e+00 4.130339622497558594e+00 -1.126353859901428223e+00
3.039000000000000000e+03 3.615567779541015625e+01 2.117126464843750000e+00 5.331871509552001953e-01 6.266808509826660156e+00 2.039998769760131836e+00 -2.406848430633544922e+00
3.040000000000000000e+03 3.449236679077148438e+01 5.157526969909667969e+00 3.269728422164916992e-01 4.973693370819091797e+00 1.590199828147888184e+00 -1.908109068870544434e+00
3.041000000000000000e+03 4.231465530395507812e+01 -1.101147937774658203e+01 1.732994675636291504e+00 1.156389427185058594e+01 3.989066600799560547e+00 -1.042972445487976074e+00
3.042000000000000000e+03 4.339444732666015625e+01 -9.892783164978027344e+00 3.085864305496215820e+00 1.083608150482177734e+01 4.176583766937255859e+00 -1.419093608856201172e+00
3.043000000000000000e+03 4.256514739990234375e+01 -1.027879428863525391e+01 2.556299924850463867e+00 1.160010623931884766e+01 4.246922016143798828e+00 -1.379158258438110352e+00
3.044000000000000000e+03 4.420133972167968750e+01 -4.723998546600341797e+00 4.345968723297119141e+00 9.973408699035644531e+00 4.295813083648681641e+00 9.975435137748718262e-01
3.045000000000000000e+03 4.366095733642578125e+01 -5.095022678375244141e+00 4.845481395721435547e+00 1.025765323638916016e+01 4.530940532684326172e+00 9.572798013687133789e-01
3.046000000000000000e+03 3.673630523681640625e+01 -1.503213214874267578e+01 1.841297447681427002e-01 6.847771644592285156e+00 2.109570503234863281e+00 2.527426719665527344e+00
3.047000000000000000e+03 4.492980194091796875e+01 -6.678511619567871094e+00 4.595681667327880859e+00 9.411637306213378906e+00 4.202195644378662109e+00 -7.057517021894454956e-02
3.048000000000000000e+03 4.465338134765625000e+01 -5.195910453796386719e+00 4.449225902557373047e+00 9.649390220642089844e+00 4.229584693908691406e+00 7.350938916206359863e-01
3.049000000000000000e+03 4.474245071411132812e+01 -8.392925262451171875e+00 4.132407188415527344e+00 9.717876434326171875e+00 4.155085086822509766e+00 -9.398235082626342773e-01
3.050000000000000000e+03 4.419897842407226562e+01 -8.198622703552246094e+00 4.436681270599365234e+00 9.962040901184082031e+00 4.319616794586181641e+00 -9.495063424110412598e-01
3.051000000000000000e+03 3.657763671875000000e+01 -3.086277544498443604e-01 9.787850379943847656e-01 7.060651302337646484e+00 2.411830902099609375e+00 -3.119225025177001953e+00
3.052000000000000000e+03 4.197240447998046875e+01 -1.488063812255859375e+00 1.321655988693237305e+00 1.143567562103271484e+01 3.827199459075927734e+00 6.296087503433227539e-01
3.053000000000000000e+03 4.143227767944335938e+01 -2.062345504760742188e+00 1.485632538795471191e+00 1.203114700317382812e+01 4.055034160614013672e+00 5.542599558830261230e-01
3.054000000000000000e+03 4.465217971801757812e+01 -4.161610126495361328e+00 3.844147443771362305e+00 9.816964149475097656e+00 4.098333358764648438e+00 1.116567969322204590e+00
3.055000000000000000e+03 4.375835800170898438e+01 -3.398055791854858398e+00 3.360205888748168945e+00 1.047901725769042969e+01 4.151766777038574219e+00 1.351200580596923828e+00
3.056000000000000000e+03 4.394823837280273438e+01 -3.886797904968261719e+00 3.776871204376220703e+00 1.028210163116455078e+01 4.217691898345947266e+00 1.269602060317993164e+00
3.057000000000000000e+03 4.516852569580078125e+01 -7.976881980895996094e+00 4.187265872955322266e+00 9.449903488159179688e+00 4.091150760650634766e+00 -7.070882916450500488e-01
3.058000000000000000e+03 4.099150848388671875e+01 -1.259795284271240234e+01 2.641125023365020752e-01 1.125470924377441406e+01 3.455646514892578125e+00 3.325179219245910645e-01
3.059000000000000000e+03 3.649504852294921875e+01 -1.671330833435058594e+01 3.993741795420646667e-02 6.399093627929687500e+00 1.931709408760070801e+00 2.176409244537353516e+00
3.060000000000000000e+03 3.501162719726562500e+01 3.738574981689453125e+00 4.673510789871215820e-01 5.292487621307373047e+00 1.727951645851135254e+00 -2.130477428436279297e+00
3.061000000000000000e+03 4.293497467041015625e+01 -1.042777919769287109e+01 2.480698108673095703e+00 1.118421077728271484e+01 4.099472522735595703e+00 -1.336697101593017578e+00
3.062000000000000000e+03 3.470804977416992188e+01 2.854097127914428711e+00 7.010561227798461914e-01 5.017475605010986328e+00 1.715559482574462891e+00 -2.301044702529907227e+00
3.063000000000000000e+03 3.729379653930664062e+01 -1.718525314331054688e+01 -1.548471003770828247e-01 6.931731700897216797e+00 2.033065319061279297e+00 1.963364362716674805e+00
3.064000000000000000e+03 3.345177841186523438e+01 5.253562450408935547e+00 4.338634014129638672e-01 4.341322422027587891e+00 1.432555794715881348e+00 -1.840176820755004883e+00
3.065000000000000000e+03 3.755973052978515625e+01 -1.444907855987548828e+01 5.965444818139076233e-02 7.849224567413330078e+00 2.372663736343383789e+00 2.469352245330810547e+00
3.066000000000000000e+03 3.688404846191406250e+01 -1.605057907104492188e+01 2.690134011209011078e-02 6.828341007232666016e+00 2.056572675704956055e+00 2.261503219604492188e+00
3.067000000000000000e+03 3.446358489990234375e+01 9.193228721618652344e+00 -8.823082596063613892e-02 4.951135158538818359e+00 1.458871245384216309e+00 -1.489971280097961426e+00
3.068000000000000000e+03 6.271640014648437500e+01 -6.901501655578613281e+00 8.698391914367675781e-01 7.442237377166748047e+00 2.493623018264770508e+00 4.045355692505836487e-02
3.069000000000000000e+03 6.393435668945312500e+01 -3.401560068130493164e+00 7.336928844451904297e-01 7.432536125183105469e+00 2.449868679046630859e+00 3.294693529605865479e-01
3.070000000000000000e+03 3.498394012451171875e+01 8.070081710815429688e+00 -5.146417021751403809e-02 5.189055919647216797e+00 1.541277527809143066e+00 -1.562031865119934082e+00
3.071000000000000000e+03 6.100485992431640625e+01 -1.560578703880310059e+00 8.882713913917541504e-01 7.556897163391113281e+00 2.533550500869750977e+00 5.462687015533447266e-01
3.072000000000000000e+03 3.240778732299804688e+01 1.364262866973876953e+01 -2.092325985431671143e-01 4.137972354888916016e+00 1.178621888160705566e+00 -1.134276747703552246e+00
3.073000000000000000e+03 6.308312225341796875e+01 6.448469638824462891e+00 2.626865208148956299e-01 7.712233066558837891e+00 2.392475843429565430e+00 8.569277524948120117e-01
3.074000000000000000e+03 5.650698089599609375e+01 -1.865037536621093750e+01 2.951214313507080078e-01 8.021857261657714844e+00 2.495093584060668945e+00 -8.142333030700683594e-01
3.075000000000000000e+03 6.033548736572265625e+01 -1.197172355651855469e+01 8.879731297492980957e-01 7.604163169860839844e+00 2.547640800476074219e+00 -4.461613893508911133e-01
3.076000000000000000e+03 5.572154617309570312e+01 -2.150875091552734375e+01 -5.077340081334114075e-02 8.091298103332519531e+00 2.412157535552978516e+00 -7.611397504806518555e-01
3.077000000000000000e+03 5.973991012573242188e+01 -2.107404518127441406e+01 7.217886298894882202e-02 7.881589412689208984e+00 2.386130571365356445e+00 -7.410650253295898438e-01
3.078000000000000000e+03 3.262837219238281250e+01 1.755702018737792969e+01 -3.534499704837799072e-01 4.206860065460205078e+00 1.156023025512695312e+00 -9.310220479965209961e-01
3.079000000000000000e+03 3.083318519592285156e+01 1.893351364135742188e+01 -3.021978437900543213e-01 3.739423274993896484e+00 1.031167626380920410e+00 -8.746411204338073730e-01
3.080000000000000000e+03 6.254061889648437500e+01 3.414286136627197266e+00 4.771276712417602539e-01 7.644355773925781250e+00 2.436444997787475586e+00 7.851441502571105957e-01
3.081000000000000000e+03 6.060010147094726562e+01 1.664106130599975586e+00 6.934010386466979980e-01 7.662149906158447266e+00 2.506665229797363281e+00 7.669454813003540039e-01
3.082000000000000000e+03 3.677902603149414062e+01 -2.500580787658691406e+01 -4.709220230579376221e-01 5.832373142242431641e+00 1.608435273170471191e+00 1.092069506645202637e+00
3.083000000000000000e+03 2.799904823303222656e+01 -2.211948776245117188e+01 3.139071762561798096e-01 2.485136270523071289e+00 8.397130370140075684e-01 9.689905047416687012e-01
3.084000000000000000e+03 2.803885841369628906e+01 -2.482102203369140625e+01 2.087727487087249756e-01 2.758871793746948242e+00 8.902934193611145020e-01 9.160983562469482422e-01
3.085000000000000000e+03 3.929679489135742188e+01 -1.273050022125244141e+01 -6.728887557983398438e-02 1.057815837860107422e+01 3.153260946273803711e+00 1.725766301155090332e+00
3.086000000000000000e+03 4.062373352050781250e+01 -1.812542200088500977e+00 9.357876181602478027e-01 1.209063243865966797e+01 3.907926082611083984e+00 -2.043052464723587036e-01
3.087000000000000000e+03 3.787833404541015625e+01 9.667835831642150879e-01 2.979627549648284912e-01 8.273272514343261719e+00 2.571370363235473633e+00 -2.323783636093139648e+00
3.088000000000000000e+03 3.712657546997070312e+01 -4.477942287921905518e-01 8.018000125885009766e-01 7.930176734924316406e+00 2.619592905044555664e+00 -3.021488666534423828e+00
3.089000000000000000e+03 3.781980133056640625e+01 -1.321719264984130859e+01 1.325848400592803955e-01 8.677353858947753906e+00 2.642981529235839844e+00 2.684725522994995117e+00
3.090000000000000000e+03 3.765992736816406250e+01 -1.374513053894042969e+01 1.067628860473632812e-01 8.239776611328125000e+00 2.503962039947509766e+00 2.625542163848876953e+00
3.091000000000000000e+03 4.003660964965820312e+01 -1.273045921325683594e+01 -2.193265035748481750e-02 1.093642520904541016e+01 3.274347782135009766e+00 1.153965353965759277e+00
3.092000000000000000e+03 4.186736679077148438e+01 -1.233247661590576172e+01 6.442663669586181641e-01 1.124321174621582031e+01 3.566243410110473633e+00 -3.190918564796447754e-01
3.093000000000000000e+03 4.173910903930664062e+01 -1.128332042694091797e+01 1.277619242668151855e+00 1.186834049224853516e+01 3.943788051605224609e+00 -6.891515851020812988e-01
3.094000000000000000e+03 4.214097213745117188e+01 -2.014253616333007812e+00 1.801026344299316406e+00 1.152873992919921875e+01 3.998929977416992188e+00 9.052255153656005859e-01
3.095000000000000000e+03 3.732640838623046875e+01 -1.403104305267333984e+01 1.643981784582138062e-01 7.755146026611328125e+00 2.375863313674926758e+00 2.629269361495971680e+00
3.096000000000000000e+03 4.453382492065429688e+01 -3.633519172668457031e+00 3.471281766891479492e+00 9.952419281005859375e+00 4.027110099792480469e+00 1.225237965583801270e+00
3.097000000000000000e+03 4.041791915893554688e+01 -1.570101499557495117e+00 7.858370542526245117e-01 1.194124698638916016e+01 3.818125247955322266e+00 -4.104120433330535889e-01
3.098000000000000000e+03 3.667683029174804688e+01 2.233277320861816406e+00 3.828926980495452881e-01 6.750666141510009766e+00 2.140067577362060547e+00 -2.326540470123291016e+00
3.099000000000000000e+03 4.503453826904296875e+01 -6.254485130310058594e+00 4.530684471130371094e+00 9.365364074707031250e+00 4.168814659118652344e+00 1.537136733531951904e-01
3.100000000000000000e+03 4.441438293457031250e+01 -6.656081199645996094e+00 4.887070655822753906e+00 9.668159484863281250e+00 4.366569042205810547e+00 -9.680148214101791382e-02
3.101000000000000000e+03 3.724526977539062500e+01 -1.547341251373291016e+01 9.663461707532405853e-03 7.275482654571533203e+00 2.185543775558471680e+00 2.307099103927612305e+00
3.102000000000000000e+03 4.399788665771484375e+01 -9.817328453063964844e+00 3.186917066574096680e+00 1.039314556121826172e+01 4.074018478393554688e+00 -1.372210264205932617e+00
3.103000000000000000e+03 4.496477508544921875e+01 -9.040287017822265625e+00 3.631667375564575195e+00 9.714960098266601562e+00 4.003988265991210938e+00 -1.090881824493408203e+00
3.104000000000000000e+03 4.456939315795898438e+01 -5.699854850769042969e+00 4.699067592620849609e+00 9.623336791992187500e+00 4.296720981597900391e+00 4.843961298465728760e-01
3.105000000000000000e+03 4.528433227539062500e+01 -4.030570983886718750e+00 3.594741106033325195e+00 9.523477554321289062e+00 3.935465574264526367e+00 1.042683243751525879e+00
3.106000000000000000e+03 4.364926910400390625e+01 -1.043237400054931641e+01 2.598485708236694336e+00 1.065039443969726562e+01 3.974663972854614258e+00 -1.340494513511657715e+00
3.107000000000000000e+03 4.174849319458007812e+01 -1.179453468322753906e+01 8.997322916984558105e-01 1.156396770477294922e+01 3.739109992980957031e+00 -4.566286206245422363e-01
3.108000000000000000e+03 4.221492767333984375e+01 -1.140143203735351562e+01 1.392768263816833496e+00 1.148013973236083984e+01 3.861872434616088867e+00 -8.445792198181152344e-01
3.109000000000000000e+03 4.417387771606445312e+01 -2.564495563507080078e+00 2.683293581008911133e+00 1.026161098480224609e+01 3.883471488952636719e+00 1.302612781524658203e+00
3.110000000000000000e+03 4.559557342529296875e+01 -8.467784881591796875e+00 3.749385595321655273e+00 9.337389945983886719e+00 3.926032543182373047e+00 -8.317901492118835449e-01
3.111000000000000000e+03 4.530875015258789062e+01 -4.622191905975341797e+00 3.936146497726440430e+00 9.425299644470214844e+00 4.008433818817138672e+00 8.730247020721435547e-01
3.112000000000000000e+03 4.120188140869140625e+01 -1.570832252502441406e+00 1.081197738647460938e+00 1.179049587249755859e+01 3.861507892608642578e+00 2.147015333175659180e-01
3.113000000000000000e+03 4.496407318115234375e+01 -7.139317989349365234e+00 4.501017093658447266e+00 9.443454742431640625e+00 4.183341503143310547e+00 -3.105353116989135742e-01
3.114000000000000000e+03 4.541428375244140625e+01 -6.565209865570068359e+00 4.360324859619140625e+00 9.237109184265136719e+00 4.079230308532714844e+00 4.679836798459291458e-03
3.115000000000000000e+03 4.318529510498046875e+01 -1.898724675178527832e+00 1.989300847053527832e+00 1.083959007263183594e+01 3.848667383193969727e+00 1.123527765274047852e+00
3.116000000000000000e+03 3.569235610961914062e+01 3.455913782119750977e+00 3.958220779895782471e-01 5.839309692382812500e+00 1.870539426803588867e+00 -2.180768728256225586e+00
3.117000000000000000e+03 3.562283325195312500e+01 2.744178056716918945e+00 5.186687707901000977e-01 5.771186351776123047e+00 1.886956453323364258e+00 -2.299866199493408203e+00
3.118000000000000000e+03 3.672618865966796875e+01 3.761555254459381104e-01 7.487866878509521484e-01 7.162073612213134766e+00 2.373258113861083984e+00 -2.859001874923706055e+00
3.119000000000000000e+03 3.611865615844726562e+01 4.240522384643554688e+00 2.043640166521072388e-01 6.069556713104248047e+00 1.882176280021667480e+00 -2.002157688140869141e+00
3.120000000000000000e+03 3.800041198730468750e+01 -1.844906234741210938e+01 -3.427966535091400146e-01 7.139337062835693359e+00 2.038962125778198242e+00 1.642476081848144531e+00
3.121000000000000000e+03 3.815095901489257812e+01 -1.752313041687011719e+01 -3.128874599933624268e-01 7.435616493225097656e+00 2.136818647384643555e+00 1.727985978126525879e+00
3.122000000000000000e+03 3.781264114379882812e+01 -1.580028724670410156e+01 -1.365150064229965210e-01 7.627495765686035156e+00 2.247294187545776367e+00 2.096593379974365234e+00
3.123000000000000000e+03 3.571736526489257812e+01 7.167459487915039062e+00 -5.912200734019279480e-02 5.572254657745361328e+00 1.653939843177795410e+00 -1.636485457420349121e+00
3.124000000000000000e+03 3.499705505371093750e+01 6.271288394927978516e+00 1.188079565763473511e-01 5.250232219696044922e+00 1.610712051391601562e+00 -1.756876349449157715e+00
3.125000000000000000e+03 3.450259399414062500e+01 1.033673763275146484e+01 -1.856049150228500366e-01 4.934187889099121094e+00 1.424574971199035645e+00 -1.364474892616271973e+00
3.126000000000000000e+03 3.462254714965820312e+01 1.147300910949707031e+01 -2.628280520439147949e-01 4.971437931060791016e+00 1.412582874298095703e+00 -1.275142192840576172e+00
3.127000000000000000e+03 3.898933029174804688e+01 -1.995765113830566406e+01 -5.167027115821838379e-01 7.318232536315917969e+00 2.040458917617797852e+00 1.286301493644714355e+00
3.128000000000000000e+03 3.904888153076171875e+01 -1.870505905151367188e+01 -4.683823883533477783e-01 7.623692989349365234e+00 2.146593332290649414e+00 1.377685308456420898e+00
3.129000000000000000e+03 5.848578262329101562e+01 -2.202068090438842773e+00 1.152739286422729492e+00 7.639064311981201172e+00 2.637541055679321289e+00 5.519694685935974121e-01
3.130000000000000000e+03 3.736706924438476562e+01 9.417304039001464844e+00 -3.740382492542266846e-01 6.196917057037353516e+00 1.746863603591918945e+00 -1.237366795539855957e+00
3.131000000000000000e+03 6.088393783569335938e+01 -5.009327888488769531e+00 1.029208898544311523e+00 7.503377914428710938e+00 2.559776067733764648e+00 2.204693555831909180e-01
3.132000000000000000e+03 5.760206604003906250e+01 -1.229451370239257812e+01 1.050682187080383301e+00 7.744076251983642578e+00 2.638427495956420898e+00 -5.607722401618957520e-01
3.133000000000000000e+03 5.685956954956054688e+01 -1.364925003051757812e+01 9.434527158737182617e-01 7.848874092102050781e+00 2.637697935104370117e+00 -6.880934834480285645e-01
3.134000000000000000e+03 3.438861465454101562e+01 1.821692466735839844e+01 -4.355380833148956299e-01 4.617363452911376953e+00 1.254547595977783203e+00 -8.718523383140563965e-01
3.135000000000000000e+03 6.615089416503906250e+01 6.147738456726074219e+00 2.072220146656036377e-01 7.625269889831542969e+00 2.349747657775878906e+00 7.610800266265869141e-01
3.136000000000000000e+03 6.424860382080078125e+01 6.413606643676757812e+00 2.379854470491409302e-01 7.679463386535644531e+00 2.375234603881835938e+00 8.226211667060852051e-01
3.137000000000000000e+03 6.415446472167968750e+01 5.297945499420166016e+00 3.130040168762207031e-01 7.651221752166748047e+00 2.389267683029174805e+00 8.052073717117309570e-01
3.138000000000000000e+03 5.596149063110351562e+01 -1.482930183410644531e+01 8.291093707084655762e-01 7.956512928009033203e+00 2.635686635971069336e+00 -7.729985117912292480e-01
3.139000000000000000e+03 2.839632797241210938e+01 1.768041229248046875e+01 -1.549017578363418579e-01 3.022668361663818359e+00 8.603299856185913086e-01 -8.859733939170837402e-01
3.140000000000000000e+03 6.016921615600585938e+01 -8.461454391479492188e+00 1.087905526161193848e+00 7.529768466949462891e+00 2.585302114486694336e+00 -1.368660032749176025e-01
3.141000000000000000e+03 5.770347213745117188e+01 -9.069514274597167969e+00 1.339923977851867676e+00 7.633212089538574219e+00 2.691940784454345703e+00 -2.440493553876876831e-01
3.142000000000000000e+03 3.387400436401367188e+01 1.445242595672607422e+01 -3.407139778137207031e-01 4.656209945678710938e+00 1.294648766517639160e+00 -1.089309811592102051e+00
3.143000000000000000e+03 6.205769729614257812e+01 4.715915679931640625e+00 4.143745005130767822e-01 7.696419715881347656e+00 2.433238267898559570e+00 8.442129492759704590e-01
3.144000000000000000e+03 5.859225463867187500e+01 -4.850359916687011719e+00 1.308526992797851562e+00 7.571721076965332031e+00 2.664074420928955078e+00 2.672195434570312500e-01
3.145000000000000000e+03 6.046403884887695312e+01 -6.544517517089843750e+00 1.089137077331542969e+00 7.504397392272949219e+00 2.578060388565063477e+00 7.817519456148147583e-02
3.146000000000000000e+03 4.155425262451171875e+01 -1.592166662216186523e+00 1.222279191017150879e+00 1.165409564971923828e+01 3.862912416458129883e+00 4.510317444801330566e-01
3.147000000000000000e+03 3.842879486083984375e+01 -1.333836460113525391e+01 -3.012874163687229156e-02 9.332233428955078125e+00 2.790631294250488281e+00 2.336670875549316406e+00
3.148000000000000000e+03 3.979468536376953125e+01 -1.105649590492248535e+00 4.692168235778808594e-01 1.139360618591308594e+01 3.558846950531005859e+00 -1.152317643165588379e+00
3.149000000000000000e+03 3.916189575195312500e+01 4.141781479120254517e-02 2.306666225194931030e-01 9.998061180114746094e+00 3.068618297576904297e+00 -1.764319896697998047e+00
3.150000000000000000e+03 3.710440063476562500e+01 9.602574110031127930e-01 5.191992521286010742e-01 7.431161403656005859e+00 2.385108232498168945e+00 -2.599088191986083984e+00
3.151000000000000000e+03 4.218774795532226562e+01 -1.179399871826171875e+01 1.077875733375549316e+00 1.135667133331298828e+01 3.730364084243774414e+00 -6.835722923278808594e-01
3.152000000000000000e+03 3.727566146850585938e+01 9.473567456007003784e-02 6.351754069328308105e-01 7.969661712646484375e+00 2.581451177597045898e+00 -2.817138671875000000e+00
3.153000000000000000e+03 4.141599655151367188e+01 -1.242409420013427734e+01 4.516935050487518311e-01 1.129704761505126953e+01 3.524622201919555664e+00 5.326299462467432022e-03
3.154000000000000000e+03 4.242043685913085938e+01 -1.242671489715576172e+00 1.332092523574829102e+00 1.104630088806152344e+01 3.713518142700195312e+00 7.369015216827392578e-01
3.155000000000000000e+03 3.617486953735351562e+01 1.402565240859985352e+00 6.736322045326232910e-01 6.392475128173828125e+00 2.119832038879394531e+00 -2.617274045944213867e+00
3.156000000000000000e+03 3.775464630126953125e+01 -1.289083361625671387e-01 5.230125784873962402e-01 8.693646430969238281e+00 2.764997720718383789e+00 -2.701214790344238281e+00
3.157000000000000000e+03 4.310382461547851562e+01 -1.095394897460937500e+01 2.082791328430175781e+00 1.101193618774414062e+01 3.928418397903442383e+00 -1.241587400436401367e+00
3.158000000000000000e+03 4.278899002075195312e+01 -1.075126075744628906e+01 2.141543865203857422e+00 1.129937839508056641e+01 4.032276630401611328e+00 -1.255734562873840332e+00
3.159000000000000000e+03 4.090321350097656250e+01 -1.629959225654602051e+00 9.802926778793334961e-01 1.193724727630615234e+01 3.875262022018432617e+00 -2.365549840033054352e-02
3.160000000000000000e+03 3.988716125488281250e+01 -1.463180899620056152e+00 5.937953591346740723e-01 1.169457340240478516e+01 3.686510801315307617e+00 -1.006671667098999023e+00
3.161000000000000000e+03 4.083288574218750000e+01 -1.273839354515075684e+00 7.824333310127258301e-01 1.167745685577392578e+01 3.737967014312744141e+00 -2.048228681087493896e-01
3.162000000000000000e+03 3.893192672729492188e+01 -1.317483234405517578e+01 -9.361607581377029419e-02 9.877918243408203125e+00 2.935290575027465820e+00 1.984634518623352051e+00
3.163000000000000000e+03 4.580593490600585938e+01 -7.681513786315917969e+00 4.028862476348876953e+00 9.152020454406738281e+00 3.954264879226684570e+00 -4.804680049419403076e-01
3.164000000000000000e+03 4.520013809204101562e+01 -3.420709371566772461e+00 3.232378959655761719e+00 9.649422645568847656e+00 3.864540338516235352e+00 1.181359648704528809e+00
3.165000000000000000e+03 4.526243972778320312e+01 -5.194941043853759766e+00 4.164379596710205078e+00 9.365628242492675781e+00 4.059002399444580078e+00 6.514241695404052734e-01
3.166000000000000000e+03 4.454677200317382812e+01 -9.738475799560546875e+00 3.251662492752075195e+00 1.005222892761230469e+01 3.991167545318603516e+00 -1.290998935699462891e+00
3.167000000000000000e+03 4.537437820434570312e+01 -9.102330207824707031e+00 3.496063947677612305e+00 9.513875961303710938e+00 3.902981996536254883e+00 -1.034391522407531738e+00
3.168000000000000000e+03 4.256437683105468750e+01 -1.721116423606872559e+00 1.718767762184143066e+00 1.110875701904296875e+01 3.848257303237915039e+00 9.432107806205749512e-01
3.169000000000000000e+03 4.418497085571289062e+01 -1.037460422515869141e+01 2.740465879440307617e+00 1.037847709655761719e+01 3.935683012008666992e+00 -1.364540100097656250e+00
3.170000000000000000e+03 4.411487579345703125e+01 -1.121555209159851074e+00 1.687893867492675781e+00 1.021842861175537109e+01 3.571896553039550781e+00 1.117760658264160156e+00
3.171000000000000000e+03 4.587326049804687500e+01 -8.995523452758789062e+00 3.420215368270874023e+00 9.310207366943359375e+00 3.819126844406127930e+00 -9.390355348587036133e-01
3.172000000000000000e+03 4.517225265502929688e+01 -8.715049743652343750e+00 3.759353160858154297e+00 9.546974182128906250e+00 3.991898298263549805e+00 -9.675893783569335938e-01
3.173000000000000000e+03 4.507383728027343750e+01 -2.799771547317504883e+00 2.844526529312133789e+00 9.757972717285156250e+00 3.780749559402465820e+00 1.246237397193908691e+00
3.174000000000000000e+03 4.437420272827148438e+01 -3.093074321746826172e+00 3.081204891204833984e+00 1.011605930328369141e+01 3.959179162979125977e+00 1.298517704010009766e+00
3.175000000000000000e+03 4.256709289550781250e+01 -1.169055366516113281e+01 1.308749794960021973e+00 1.119942855834960938e+01 3.752453565597534180e+00 -8.829678297042846680e-01
3.176000000000000000e+03 4.347769546508789062e+01 -1.133782958984375000e+01 1.872669577598571777e+00 1.071447277069091797e+01 3.776142835617065430e+00 -1.168559551239013672e+00
3.177000000000000000e+03 4.588274383544921875e+01 -5.763776779174804688e+00 4.107499599456787109e+00 9.097270965576171875e+00 3.961431264877319336e+00 3.367263078689575195e-01
3.178000000000000000e+03 4.519514083862304688e+01 -5.760266304016113281e+00 4.374661922454833984e+00 9.329583168029785156e+00 4.111273765563964844e+00 3.888883888721466064e-01
3.179000000000000000e+03 4.601163864135742188e+01 -6.347771167755126953e+00 4.075069904327392578e+00 9.047369956970214844e+00 3.936732053756713867e+00 1.145288944244384766e-01
3.180000000000000000e+03 3.903503036499023438e+01 -1.769517707824707031e+01 -4.249458014965057373e-01 7.879569530487060547e+00 2.236387014389038086e+00 1.481692671775817871e+00
3.181000000000000000e+03 4.364757537841796875e+01 -1.554595947265625000e+00 1.858095645904541016e+00 1.049220371246337891e+01 3.705089807510375977e+00 1.127326130867004395e+00
3.182000000000000000e+03 4.393428802490234375e+01 -2.051739215850830078e+00 2.301588296890258789e+00 1.038576412200927734e+01 3.806205749511718750e+00 1.262461185455322266e+00
3.183000000000000000e+03 3.856801986694335938e+01 -1.546577167510986328e+01 -2.365341633558273315e-01 8.374379158020019531e+00 2.441353559494018555e+00 1.889753460884094238e+00
3.184000000000000000e+03 3.755765533447265625e+01 -1.645495605468750000e+01 -1.419455856084823608e-01 7.278529167175292969e+00 2.140975236892700195e+00 2.034876823425292969e+00
3.185000000000000000e+03 3.540835952758789062e+01 4.717658042907714844e+00 2.485940903425216675e-01 5.616810798645019531e+00 1.759621381759643555e+00 -1.971380114555358887e+00
3.186000000000000000e+03 4.009631347656250000e+01 -1.873917198181152344e+01 -5.400578379631042480e-01 8.037388801574707031e+00 2.249199151992797852e+00 1.114833354949951172e+00
3.187000000000000000e+03 3.663312149047851562e+01 -2.207124519348144531e+01 -3.349183797836303711e-01 5.896247863769531250e+00 1.668398857116699219e+00 1.398365855216979980e+00
3.188000000000000000e+03 3.602388381958007812e+01 5.669738292694091797e+00 4.598433524370193481e-02 5.942922592163085938e+00 1.796672105789184570e+00 -1.786131739616394043e+00
3.189000000000000000e+03 3.659307098388671875e+01 7.700454711914062500e+00 -2.152279466390609741e-01 5.997994899749755859e+00 1.734830141067504883e+00 -1.481683135032653809e+00
3.190000000000000000e+03 5.794171524047851562e+01 -3.371652364730834961e+00 1.278532028198242188e+00 7.635094165802001953e+00 2.674087762832641602e+00 4.518442749977111816e-01
3.191000000000000000e+03 5.877018737792968750e+01 -9.548031806945800781e+00 1.199742078781127930e+00 7.596760749816894531e+00 2.638950824737548828e+00 -2.618088722229003906e-01
3.192000000000000000e+03 3.482432556152343750e+01 1.255952167510986328e+01 -3.233970999717712402e-01 4.992397785186767578e+00 1.400700211524963379e+00 -1.179163694381713867e+00
3.193000000000000000e+03 6.456737518310546875e+01 7.894610404968261719e+00 1.545772105455398560e-01 7.714262008666992188e+00 2.360651731491088867e+00 8.371212482452392578e-01
3.194000000000000000e+03 6.076814270019531250e+01 5.946385860443115234e+00 3.147482573986053467e-01 7.775910377502441406e+00 2.427197456359863281e+00 9.006106853485107422e-01
3.195000000000000000e+03 3.367209243774414062e+01 1.311366176605224609e+01 -2.739148437976837158e-01 4.632517814636230469e+00 1.307580947875976562e+00 -1.163450598716735840e+00
3.196000000000000000e+03 5.571057128906250000e+01 -1.708578491210937500e+01 4.954282641410827637e-01 8.047468185424804688e+00 2.562868833541870117e+00 -8.307768106460571289e-01
3.197000000000000000e+03 6.190808486938476562e+01 6.218248367309570312e+00 2.872331440448760986e-01 7.750391960144042969e+00 2.411287546157836914e+00 8.854978680610656738e-01
3.198000000000000000e+03 3.933132934570312500e+01 -8.764976859092712402e-01 3.735213577747344971e-01 1.092772865295410156e+01 3.390374898910522461e+00 -1.634857177734375000e+00
3.199000000000000000e+03 3.872494506835937500e+01 2.313451655209064484e-02 2.651272714138031006e-01 9.694674491882324219e+00 2.987940549850463867e+00 -2.072132349014282227e+00
3.200000000000000000e+03 4.019039916992187500e+01 -1.756862163543701172e+00 7.863199114799499512e-01 1.217677307128906250e+01 3.888927698135375977e+00 -6.332267522811889648e-01
3.201000000000000000e+03 4.028591918945312500e+01 -1.182181358337402344e+00 5.736422538757324219e-01 1.157867622375488281e+01 3.645695686340332031e+00 -7.315450310707092285e-01
3.202000000000000000e+03 3.818484497070312500e+01 -2.522610723972320557e-01 4.180746078491210938e-01 9.267478942871093750e+00 2.905666112899780273e+00 -2.499516487121582031e+00
3.203000000000000000e+03 3.854620742797851562e+01 -3.808831572532653809e-01 3.701664507389068604e-01 9.816279411315917969e+00 3.055933952331542969e+00 -2.240463495254516602e+00
3.204000000000000000e+03 3.879861068725585938e+01 -6.890400052070617676e-01 3.724289536476135254e-01 1.025873661041259766e+01 3.189349651336669922e+00 -2.115517377853393555e+00
3.205000000000000000e+03 4.150410079956054688e+01 -1.096980452537536621e+00 9.463087320327758789e-01 1.134772396087646484e+01 3.688209772109985352e+00 2.398209124803543091e-01
3.206000000000000000e+03 4.116234207153320312e+01 -1.184857845306396484e+00 8.687444925308227539e-01 1.153770637512207031e+01 3.721935272216796875e+00 5.276285111904144287e-02
3.207000000000000000e+03 3.753618621826171875e+01 5.766476988792419434e-01 4.637952148914337158e-01 8.111968040466308594e+00 2.572729110717773438e+00 -2.587271451950073242e+00
3.208000000000000000e+03 3.968290328979492188e+01 -1.306858062744140625e+01 -9.906557202339172363e-02 1.053372383117675781e+01 3.130397319793701172e+00 1.435138583183288574e+00
3.209000000000000000e+03 4.187413787841796875e+01 -9.594625234603881836e-01 9.644692540168762207e-01 1.118520927429199219e+01 3.644903659820556641e+00 3.908067643642425537e-01
3.210000000000000000e+03 4.000881195068359375e+01 -6.039989590644836426e-01 3.627151846885681152e-01 1.101787948608398438e+01 3.414178609848022461e+00 -1.041550278663635254e+00
3.211000000000000000e+03 4.231635665893554688e+01 -1.224636650085449219e+01 8.635103702545166016e-01 1.112252616882324219e+01 3.595810890197753906e+00 -5.640416741371154785e-01
3.212000000000000000e+03 4.122558975219726562e+01 -1.322784805297851562e+01 1.097311228513717651e-01 1.076865863800048828e+01 3.263516902923583984e+00 3.462581038475036621e-01
3.213000000000000000e+03 4.297566223144531250e+01 -1.482107996940612793e+00 1.668789863586425781e+00 1.086031532287597656e+01 3.758731603622436523e+00 9.804601669311523438e-01
3.214000000000000000e+03 4.686219024658203125e+01 -4.493082046508789062e+00 3.390806198120117188e+00 8.890069961547851562e+00 3.684262752532958984e+00 7.283054590225219727e-01
3.215000000000000000e+03 4.587040328979492188e+01 -2.554671287536621094e+00 2.657892942428588867e+00 9.456307411193847656e+00 3.634260177612304688e+00 1.201623439788818359e+00
3.216000000000000000e+03 4.618537902832031250e+01 -8.249994277954101562e+00 3.660877466201782227e+00 9.099826812744140625e+00 3.828211307525634766e+00 -6.830796599388122559e-01
3.217000000000000000e+03 4.331081008911132812e+01 -1.064459514617919922e+01 2.349784612655639648e+00 1.090266799926757812e+01 3.975735902786254883e+00 -1.305035114288330078e+00
3.218000000000000000e+03 4.486408615112304688e+01 -9.458199501037597656e+00 3.370748281478881836e+00 9.832197189331054688e+00 3.960883617401123047e+00 -1.180086731910705566e+00
3.219000000000000000e+03 4.537551879882812500e+01 -9.589349746704101562e+00 3.216667652130126953e+00 9.604014396667480469e+00 3.846204519271850586e+00 -1.139264225959777832e+00
3.220000000000000000e+03 4.229407119750976562e+01 -7.348867058753967285e-01 9.865387082099914551e-01 1.095279788970947266e+01 3.581800937652587891e+00 5.163577198982238770e-01
3.221000000000000000e+03 4.476952743530273438e+01 -1.026127147674560547e+01 2.836053133010864258e+00 9.997889518737792969e+00 3.850182771682739258e+00 -1.285549998283386230e+00
3.222000000000000000e+03 3.835713958740234375e+01 -1.454948043823242188e+01 -1.357921808958053589e-01 8.574308395385742188e+00 2.531554937362670898e+00 2.111881971359252930e+00
3.223000000000000000e+03 3.847067260742187500e+01 -1.395693492889404297e+01 -1.008510589599609375e-01 9.032278060913085938e+00 2.679427862167358398e+00 2.190307617187500000e+00
3.224000000000000000e+03 4.620353317260742188e+01 -6.922701835632324219e+00 3.935662984848022461e+00 8.986901283264160156e+00 3.876769304275512695e+00 -1.638042330741882324e-01
3.225000000000000000e+03 4.556143188476562500e+01 -7.112713336944580078e+00 4.212762355804443359e+00 9.196598052978515625e+00 4.022808074951171875e+00 -2.731915414333343506e-01
3.226000000000000000e+03 4.489222335815429688e+01 -2.165146589279174805e+00 2.428775548934936523e+00 9.893285751342773438e+00 3.696618556976318359e+00 1.268726706504821777e+00
3.227000000000000000e+03 3.665513992309570312e+01 3.713379144668579102e+00 1.797410547733306885e-01 6.542717933654785156e+00 2.016737699508666992e+00 -2.026139974594116211e+00
3.228000000000000000e+03 4.326856613159179688e+01 -1.206460094451904297e+01 1.258567810058593750e+00 1.075439453125000000e+01 3.603888750076293945e+00 -9.420853257179260254e-01
3.229000000000000000e+03 4.298989868164062500e+01 -1.152895736694335938e+01 1.550540328025817871e+00 1.098379230499267578e+01 3.760299682617187500e+00 -1.020559072494506836e+00
3.230000000000000000e+03 4.678839492797851562e+01 -3.815585136413574219e+00 3.148387908935546875e+00 8.986236572265625000e+00 3.640387296676635742e+00 9.164974093437194824e-01
3.231000000000000000e+03 3.862738037109375000e+01 1.358487606048583984e+00 8.048945665359497070e-02 8.804644584655761719e+00 2.665540218353271484e+00 -1.909822583198547363e+00
3.232000000000000000e+03 3.680717086791992188e+01 1.553038954734802246e+00 4.841066598892211914e-01 6.997915267944335938e+00 2.244606494903564453e+00 -2.496959209442138672e+00
3.233000000000000000e+03 3.653475570678710938e+01 2.808306932449340820e+00 3.241385817527770996e-01 6.564061641693115234e+00 2.066460132598876953e+00 -2.218148708343505859e+00
3.234000000000000000e+03 3.610817718505859375e+01 2.703927993774414062e+00 4.164113402366638184e-01 6.198357582092285156e+00 1.984430551528930664e+00 -2.275618076324462891e+00
3.235000000000000000e+03 3.900402450561523438e+01 -1.686470031738281250e+01 -3.790757954120635986e-01 8.121984481811523438e+00 2.322872638702392578e+00 1.572011351585388184e+00
3.236000000000000000e+03 4.433031463623046875e+01 -1.102187538146972656e+01 2.222639083862304688e+00 1.029458141326904297e+01 3.755166053771972656e+00 -1.269445061683654785e+00
3.237000000000000000e+03 4.374575805664062500e+01 -1.094217777252197266e+01 2.174451828002929688e+00 1.057632923126220703e+01 3.825234413146972656e+00 -1.255070090293884277e+00
3.238000000000000000e+03 3.754938125610351562e+01 -1.494450378417968750e+01 -7.982566952705383301e-03 7.706412315368652344e+00 2.309529066085815430e+00 2.379827737808227539e+00
3.239000000000000000e+03 4.664385604858398438e+01 -6.302193164825439453e+00 3.811081171035766602e+00 8.846480369567871094e+00 3.797268629074096680e+00 1.278246939182281494e-01
3.240000000000000000e+03 4.454890441894531250e+01 -1.610934376716613770e+00 2.067979812622070312e+00 1.003718852996826172e+01 3.631550550460815430e+00 1.219919204711914062e+00
3.241000000000000000e+03 4.574912261962890625e+01 -1.841259360313415527e+00 2.273115634918212891e+00 9.549695014953613281e+00 3.546843290328979492e+00 1.219195723533630371e+00
3.242000000000000000e+03 4.684391021728515625e+01 -5.863590240478515625e+00 3.698441982269287109e+00 8.805958747863769531e+00 3.751320362091064453e+00 2.652924060821533203e-01
3.243000000000000000e+03 4.646198654174804688e+01 -5.467129230499267578e+00 3.786059141159057617e+00 8.923139572143554688e+00 3.812759637832641602e+00 4.330417215824127197e-01
3.244000000000000000e+03 3.972284698486328125e+01 -1.683918190002441406e+01 -4.282284975051879883e-01 8.497148513793945312e+00 2.420675992965698242e+00 1.318925499916076660e+00
3.245000000000000000e+03 3.898677825927734375e+01 -1.618266105651855469e+01 -3.297872841358184814e-01 8.362396240234375000e+00 2.409782648086547852e+00 1.637492060661315918e+00
3.246000000000000000e+03 5.674493408203125000e+01 -2.922846317291259766e+00 1.391677975654602051e+00 7.693906307220458984e+00 2.725675344467163086e+00 5.203844308853149414e-01
3.247000000000000000e+03 4.025136566162109375e+01 -2.007977104187011719e+01 -5.998847484588623047e-01 7.753975391387939453e+00 2.146227121353149414e+00 1.008718371391296387e+00
3.248000000000000000e+03 4.270325469970703125e+01 -1.935812950134277344e+01 -5.636373162269592285e-01 8.482169151306152344e+00 2.375559568405151367e+00 3.969360291957855225e-01
3.249000000000000000e+03 3.644577789306640625e+01 1.061779785156250000e+01 -3.562411963939666748e-01 5.704248428344726562e+00 1.604402184486389160e+00 -1.237380504608154297e+00
3.250000000000000000e+03 3.565307235717773438e+01 1.169510936737060547e+01 -3.486640453338623047e-01 5.346015930175781250e+00 1.499205589294433594e+00 -1.223381042480468750e+00
3.251000000000000000e+03 3.597600555419921875e+01 1.440437698364257812e+01 -4.482036530971527100e-01 5.274118423461914062e+00 1.447774410247802734e+00 -1.023025870323181152e+00
3.252000000000000000e+03 3.546888732910156250e+01 -2.310856819152832031e+01 -2.662317752838134766e-01 5.392854690551757812e+00 1.537986874580383301e+00 1.367945313453674316e+00
3.253000000000000000e+03 5.498498535156250000e+01 -1.198585510253906250e+01 1.311035513877868652e+00 7.912958145141601562e+00 2.767198085784912109e+00 -6.516625881195068359e-01
3.254000000000000000e+03 5.505891036987304688e+01 -1.378918457031250000e+01 1.022930026054382324e+00 7.987519264221191406e+00 2.703134775161743164e+00 -7.684319615364074707e-01
3.255000000000000000e+03 5.750645065307617188e+01 1.830916106700897217e-02 1.034684300422668457e+00 7.745787143707275391e+00 2.634141445159912109e+00 7.615152001380920410e-01
3.256000000000000000e+03 5.921063613891601562e+01 -5.407388508319854736e-02 9.233309030532836914e-01 7.668473720550537109e+00 2.577541351318359375e+00 7.070048451423645020e-01
3.257000000000000000e+03 4.033567428588867188e+01 -2.396477317810058594e+01 -6.925778985023498535e-01 7.034941673278808594e+00 1.902709126472473145e+00 7.919155955314636230e-01
3.258000000000000000e+03 5.893811035156250000e+01 3.237987518310546875e+00 6.002426743507385254e-01 7.780812263488769531e+00 2.514316558837890625e+00 8.870423436164855957e-01
3.259000000000000000e+03 6.172165679931640625e+01 2.387017488479614258e+00 5.785785913467407227e-01 7.642385482788085938e+00 2.466289281845092773e+00 7.663583755493164062e-01
3.260000000000000000e+03 6.603832244873046875e+01 7.596277236938476562e+00 1.524740159511566162e-01 7.668469429016113281e+00 2.346282958984375000e+00 7.873766422271728516e-01
3.261000000000000000e+03 3.747754287719726562e+01 1.161611080169677734e+01 -4.630073010921478271e-01 5.944401264190673828e+00 1.644418120384216309e+00 -1.071513533592224121e+00
3.262000000000000000e+03 3.546039199829101562e+01 9.761327743530273438e+00 -2.345826476812362671e-01 5.413172721862792969e+00 1.553577065467834473e+00 -1.380307078361511230e+00
3.263000000000000000e+03 5.823902893066406250e+01 -1.090341377258300781e+01 1.139604091644287109e+00 7.660815238952636719e+00 2.640125751495361328e+00 -4.128093123435974121e-01
3.264000000000000000e+03 5.735669326782226562e+01 -5.912521362304687500e+00 1.446831703186035156e+00 7.617907047271728516e+00 2.719421625137329102e+00 1.510066092014312744e-01
3.265000000000000000e+03 5.624540710449218750e+01 -9.838076591491699219e+00 1.446076154708862305e+00 7.730309009552001953e+00 2.752915620803833008e+00 -3.700853884220123291e-01
3.266000000000000000e+03 5.588287734985351562e+01 2.902270853519439697e-01 1.112503170967102051e+00 7.859425067901611328e+00 2.691578388214111328e+00 8.412896990776062012e-01
3.267000000000000000e+03 6.621090698242187500e+01 8.913260459899902344e+00 1.025191918015480042e-01 7.704236030578613281e+00 2.342026710510253906e+00 8.026779890060424805e-01
3.268000000000000000e+03 6.574769592285156250e+01 1.129610443115234375e+01 -3.355937544256448746e-03 7.778261661529541016e+00 2.332471847534179688e+00 8.126772642135620117e-01
3.269000000000000000e+03 5.439502716064453125e+01 -1.786349487304687500e+01 3.832370042800903320e-01 8.165296554565429688e+00 2.564560174942016602e+00 -8.525840640068054199e-01
3.270000000000000000e+03 5.308511352539062500e+01 -1.837496185302734375e+01 2.794815897941589355e-01 8.275667190551757812e+00 2.566544532775878906e+00 -8.551616668701171875e-01
3.271000000000000000e+03 4.029760360717773438e+01 -1.415461540222167969e+01 -2.156838178634643555e-01 1.001958370208740234e+01 2.941169977188110352e+00 1.071411013603210449e+00
3.272000000000000000e+03 3.878347015380859375e+01 4.338132441043853760e-01 1.890047490596771240e-01 9.475127220153808594e+00 2.899239540100097656e+00 -1.970003485679626465e+00
3.273000000000000000e+03 3.962463760375976562e+01 -2.979289889335632324e-01 2.741560935974121094e-01 1.058336162567138672e+01 3.257255315780639648e+00 -1.371231436729431152e+00
3.274000000000000000e+03 3.920764160156250000e+01 -4.400320947170257568e-01 2.997452616691589355e-01 1.041675567626953125e+01 3.214950323104858398e+00 -1.738364577293395996e+00
3.275000000000000000e+03 3.762504196166992188e+01 3.478386878967285156e+00 3.655511885881423950e-02 7.287385463714599609e+00 2.197182178497314453e+00 -1.932227015495300293e+00
3.276000000000000000e+03 4.288777160644531250e+01 -1.014826416969299316e+00 1.337577223777770996e+00 1.073377513885498047e+01 3.621405601501464844e+00 8.291233777999877930e-01
3.277000000000000000e+03 4.035184860229492188e+01 -1.307451057434082031e+01 -5.168190225958824158e-02 1.075013351440429688e+01 3.209535360336303711e+00 9.675202965736389160e-01
3.278000000000000000e+03 3.818090438842773438e+01 6.879779696464538574e-01 2.794057428836822510e-01 8.763405799865722656e+00 2.712843656539916992e+00 -2.276840925216674805e+00
3.279000000000000000e+03 3.981558227539062500e+01 -1.385217285156250000e+01 -1.821996718645095825e-01 1.002654933929443359e+01 2.953305006027221680e+00 1.351362228393554688e+00
3.280000000000000000e+03 4.054479598999023438e+01 -1.575115680694580078e+01 -3.697682023048400879e-01 9.308808326721191406e+00 2.681712150573730469e+00 1.005496978759765625e+00
3.281000000000000000e+03 4.166761779785156250e+01 -1.304450035095214844e+01 2.880627214908599854e-01 1.084275627136230469e+01 3.339245557785034180e+00 4.453091323375701904e-02
3.282000000000000000e+03 4.370727539062500000e+01 -6.003752946853637695e-01 1.324535846710205078e+00 1.032212352752685547e+01 3.493997812271118164e+00 9.307364821434020996e-01
3.283000000000000000e+03 4.174185180664062500e+01 -4.665986299514770508e-01 7.446321249008178711e-01 1.092512989044189453e+01 3.500928640365600586e+00 1.953067183494567871e-01
3.284000000000000000e+03 4.107090377807617188e+01 -7.988601326942443848e-01 6.480066776275634766e-01 1.125979328155517578e+01 3.572340011596679688e+00 -1.684711575508117676e-01
3.285000000000000000e+03 3.798437881469726562e+01 -1.416676330566406250e+01 -1.974269188940525055e-02 8.420227050781250000e+00 2.520145177841186523e+00 2.415433406829833984e+00
3.286000000000000000e+03 3.739283752441406250e+01 1.881060481071472168e+00 2.720750272274017334e-01 7.565594673156738281e+00 2.351300954818725586e+00 -2.271808624267578125e+00
3.287000000000000000e+03 4.540065002441406250e+01 -1.014668369293212891e+01 2.885145664215087891e+00 9.666827201843261719e+00 3.765591621398925781e+00 -1.209084153175354004e+00
3.288000000000000000e+03 3.809538269042968750e+01 1.647494077682495117e+00 1.549909561872482300e-01 8.240937232971191406e+00 2.518778562545776367e+00 -2.100089550018310547e+00
3.289000000000000000e+03 4.600965118408203125e+01 -3.920710086822509766e+00 3.361569404602050781e+00 9.234814643859863281e+00 3.778915405273437500e+00 9.806810021400451660e-01
3.290000000000000000e+03 4.685815048217773438e+01 -8.034551620483398438e+00 3.546859979629516602e+00 8.842316627502441406e+00 3.716753005981445312e+00 -5.063236951828002930e-01
3.291000000000000000e+03 4.784313583374023438e+01 -4.935352802276611328e+00 3.203192949295043945e+00 8.603207588195800781e+00 3.541920185089111328e+00 5.377458333969116211e-01
3.292000000000000000e+03 4.776667022705078125e+01 -1.138536167144775391e+01 2.061817884445190430e+00 8.935200691223144531e+00 3.299105405807495117e+00 -1.064868807792663574e+00
3.293000000000000000e+03 5.454827117919921875e+01 -9.110411643981933594e+00 1.722729921340942383e+00 7.815873146057128906e+00 2.861580848693847656e+00 -3.493835330009460449e-01
3.294000000000000000e+03 4.277377319335937500e+01 -1.216147613525390625e+01 1.097101092338562012e+00 1.093764495849609375e+01 3.610424041748046875e+00 -8.105521202087402344e-01
3.295000000000000000e+03 4.494491195678710938e+01 -1.089726448059082031e+01 2.352885723114013672e+00 9.962463378906250000e+00 3.694604635238647461e+00 -1.257599830627441406e+00
3.296000000000000000e+03 4.201047134399414062e+01 2.434571683406829834e-01 5.270780324935913086e-01 1.048867511749267578e+01 3.304726123809814453e+00 1.302293390035629272e-01
3.297000000000000000e+03 3.701587677001953125e+01 3.120460033416748047e+00 1.816064566373825073e-01 6.944062709808349609e+00 2.137700796127319336e+00 -2.102056026458740234e+00
3.298000000000000000e+03 3.623116683959960938e+01 3.213124752044677734e+00 3.318285942077636719e-01 6.283603668212890625e+00 1.984629750251770020e+00 -2.181647539138793945e+00
3.299000000000000000e+03 4.707075119018554688e+01 -5.105717182159423828e+00 3.478063583374023438e+00 8.787757873535156250e+00 3.679746389389038086e+00 5.278492569923400879e-01
3.300000000000000000e+03 4.766332244873046875e+01 -4.334310054779052734e+00 3.102729797363281250e+00 8.681329727172851562e+00 3.535217761993408203e+00 7.007332444190979004e-01
3.301000000000000000e+03 4.570725631713867188e+01 -1.072199583053588867e+00 1.880347847938537598e+00 9.570040702819824219e+00 3.435116529464721680e+00 1.191874861717224121e+00
3.302000000000000000e+03 4.499742507934570312e+01 -1.049430370330810547e+00 1.812993526458740234e+00 9.856222152709960938e+00 3.500764608383178711e+00 1.176726579666137695e+00
3.303000000000000000e+03 3.939074325561523438e+01 -1.475861930847167969e+01 -2.884256541728973389e-01 9.271389007568359375e+00 2.694889068603515625e+00 1.603491067886352539e+00
3.304000000000000000e+03 3.839422988891601562e+01 -1.605047416687011719e+01 -2.546194493770599365e-01 8.011604309082031250e+00 2.327095508575439453e+00 1.886997580528259277e+00
3.305000000000000000e+03 4.291506576538085938e+01 -1.267376136779785156e+01 8.666000962257385254e-01 1.071607589721679688e+01 3.474802970886230469e+00 -6.993362903594970703e-01
3.306000000000000000e+03 3.727698516845703125e+01 4.201429367065429688e+00 1.156284194439649582e-02 6.955427169799804688e+00 2.090096950531005859e+00 -1.870902180671691895e+00
3.307000000000000000e+03 3.678894805908203125e+01 4.982378005981445312e+00 5.279026925563812256e-03 6.466738700866699219e+00 1.941605329513549805e+00 -1.804861068725585938e+00
3.308000000000000000e+03 4.074190902709960938e+01 -1.748438835144042969e+01 -4.930526912212371826e-01 8.654659271240234375e+00 2.448482036590576172e+00 9.474105834960937500e-01
3.309000000000000000e+03 3.990789413452148438e+01 -1.768247795104980469e+01 -4.850376248359680176e-01 8.277432441711425781e+00 2.337718248367309570e+00 1.214798688888549805e+00
3.310000000000000000e+03 3.780565643310546875e+01 7.995822429656982422e+00 -3.458223640918731689e-01 6.508252143859863281e+00 1.848728895187377930e+00 -1.297140836715698242e+00
3.311000000000000000e+03 3.645845794677734375e+01 1.258569908142089844e+01 -4.321601390838623047e-01 5.552019596099853516e+00 1.535957813262939453e+00 -1.113281011581420898e+00
3.312000000000000000e+03 5.708677673339843750e+01 -7.297602653503417969e+00 1.461021780967712402e+00 7.639294624328613281e+00 2.730094909667968750e+00 -3.070177696645259857e-02
3.313000000000000000e+03 5.756305313110351562e+01 -4.576359748840332031e+00 1.391923904418945312e+00 7.621290683746337891e+00 2.703964471817016602e+00 3.119932413101196289e-01
3.314000000000000000e+03 5.572863006591796875e+01 -1.160876154899597168e+00 1.306231379508972168e+00 7.812396526336669922e+00 2.735588312149047852e+00 7.424424290657043457e-01
3.315000000000000000e+03 5.522135543823242188e+01 -4.069072246551513672e+00 1.663471341133117676e+00 7.752972602844238281e+00 2.824933052062988281e+00 4.223445057868957520e-01
3.316000000000000000e+03 6.281820297241210938e+01 9.920992851257324219e+00 5.865869671106338501e-02 7.795757293701171875e+00 2.356324672698974609e+00 8.821532130241394043e-01
3.317000000000000000e+03 5.590958404541015625e+01 1.824901461601257324e+00 8.986607789993286133e-01 7.907635211944580078e+00 2.641888856887817383e+00 9.203572869300842285e-01
3.318000000000000000e+03 3.492626953125000000e+01 1.451685333251953125e+01 -3.813567757606506348e-01 4.927751064300537109e+00 1.363918185234069824e+00 -1.062508463859558105e+00
3.319000000000000000e+03 3.619884872436523438e+01 1.588249588012695312e+01 -4.992359578609466553e-01 5.214592456817626953e+00 1.414606928825378418e+00 -9.123376011848449707e-01
3.320000000000000000e+03 5.535195922851562500e+01 -9.398193359375000000e+00 1.594043731689453125e+00 7.774080276489257812e+00 2.810437202453613281e+00 -3.544135987758636475e-01
3.321000000000000000e+03 5.913915634155273438e+01 -8.345867156982421875e+00 1.194003224372863770e+00 7.566030979156494141e+00 2.628010272979736328e+00 -1.465572118759155273e-01
3.322000000000000000e+03 5.668516159057617188e+01 -8.612398147583007812e+00 1.471798300743103027e+00 7.675116539001464844e+00 2.744074344635009766e+00 -2.127213776111602783e-01
3.323000000000000000e+03 5.905055999755859375e+01 1.586485624313354492e+00 7.814298868179321289e-01 7.722754955291748047e+00 2.551255464553833008e+00 8.078624010086059570e-01
3.324000000000000000e+03 5.870777511596679688e+01 4.810894489288330078e+00 4.731620848178863525e-01 7.828337669372558594e+00 2.490449905395507812e+00 9.300393462181091309e-01
3.325000000000000000e+03 5.978104019165039062e+01 5.398687362670898438e+00 4.103640019893646240e-01 7.801157474517822266e+00 2.463456392288208008e+00 9.177302718162536621e-01
3.326000000000000000e+03 3.514803314208984375e+01 -2.833781433105468750e+01 -4.154255688190460205e-01 5.115055561065673828e+00 1.409888982772827148e+00 8.905656337738037109e-01
3.327000000000000000e+03 5.394076538085937500e+01 -2.219957160949707031e+01 -1.792927235364913940e-01 8.163980484008789062e+00 2.395406246185302734e+00 -7.180616259574890137e-01
3.328000000000000000e+03 5.380896759033203125e+01 -1.645438385009765625e+01 5.993060469627380371e-01 8.194040298461914062e+00 2.638004064559936523e+00 -8.780041933059692383e-01
3.329000000000000000e+03 3.834223175048828125e+01 1.288134288787841797e+01 -5.555127859115600586e-01 6.108879566192626953e+00 1.666010022163391113e+00 -9.104987382888793945e-01
3.330000000000000000e+03 3.546381378173828125e+01 1.341441535949707031e+01 -3.891342878341674805e-01 5.132883071899414062e+00 1.423124670982360840e+00 -1.109724998474121094e+00
3.331000000000000000e+03 5.460607147216796875e+01 -8.077028274536132812e+00 1.800380587577819824e+00 7.781332969665527344e+00 2.874514102935791016e+00 -1.780953407287597656e-01
3.332000000000000000e+03 3.962475967407226562e+01 1.768562048673629761e-01 1.913585662841796875e-01 1.020172119140625000e+01 3.117923974990844727e+00 -1.372180819511413574e+00
3.333000000000000000e+03 4.050409698486328125e+01 -1.023548245429992676e+00 5.752217769622802734e-01 1.143198204040527344e+01 3.602161169052124023e+00 -5.562603473663330078e-01
3.334000000000000000e+03 3.904132461547851562e+01 -1.408135032653808594e+01 -1.893767565488815308e-01 9.405420303344726562e+00 2.764812946319580078e+00 1.887987852096557617e+00
3.335000000000000000e+03 3.832721710205078125e+01 1.402672380208969116e-01 3.245195150375366211e-01 9.177231788635253906e+00 2.850525379180908203e+00 -2.339658260345458984e+00
3.336000000000000000e+03 3.793907928466796875e+01 3.133903741836547852e-01 3.976851999759674072e-01 8.658826828002929688e+00 2.716953516006469727e+00 -2.470591545104980469e+00
3.337000000000000000e+03 3.846971130371093750e+01 1.005385398864746094e+00 1.529986709356307983e-01 8.862700462341308594e+00 2.704709768295288086e+00 -2.036826133728027344e+00
3.338000000000000000e+03 3.931509399414062500e+01 -1.354325485229492188e+01 -1.468589901924133301e-01 9.950260162353515625e+00 2.941020250320434570e+00 1.730696558952331543e+00
3.339000000000000000e+03 4.009813308715820312e+01 -1.343632507324218750e+01 -1.175006479024887085e-01 1.043166923522949219e+01 3.094250679016113281e+00 1.169481873512268066e+00
3.340000000000000000e+03 4.039511489868164062e+01 -1.665782737731933594e+01 -4.439779520034790039e-01 8.824942588806152344e+00 2.514289379119873047e+00 1.076770544052124023e+00
3.341000000000000000e+03 3.760511398315429688e+01 1.358288764953613281e+00 2.841697931289672852e-01 7.894706249237060547e+00 2.453662872314453125e+00 -2.311347246170043945e+00
3.342000000000000000e+03 4.318645095825195312e+01 -1.351657295227050781e+01 5.488470196723937988e-01 1.032350349426269531e+01 3.261704921722412109e+00 -5.230022668838500977e-01
3.343000000000000000e+03 4.240363311767578125e+01 -1.338193035125732422e+01 3.565255403518676758e-01 1.053222751617431641e+01 3.266625881195068359e+00 -2.148835808038711548e-01
3.344000000000000000e+03 4.097457504272460938e+01 1.374724358320236206e-01 3.151222169399261475e-01 1.063338375091552734e+01 3.284551858901977539e+00 -4.660164713859558105e-01
3.345000000000000000e+03 4.122379302978515625e+01 -2.296841442584991455e-01 4.951832294464111328e-01 1.084645557403564453e+01 3.402491569519042969e+00 -2.239696383476257324e-01
3.346000000000000000e+03 3.957899093627929688e+01 -1.431831359863281250e+01 -2.571705579757690430e-01 9.627635955810546875e+00 2.811139583587646484e+00 1.502340078353881836e+00
3.347000000000000000e+03 4.038880538940429688e+01 -7.764955759048461914e-01 4.780877828598022461e-01 1.122933578491210938e+01 3.512227058410644531e+00 -6.913999915122985840e-01
3.348000000000000000e+03 3.722638702392578125e+01 2.491694688796997070e+00 2.207934707403182983e-01 7.230210781097412109e+00 2.235301256179809570e+00 -2.208024978637695312e+00
3.349000000000000000e+03 4.426290130615234375e+01 -1.142013669013977051e-01 1.203233838081359863e+00 1.000312042236328125e+01 3.361906290054321289e+00 9.395110607147216797e-01
3.350000000000000000e+03 4.590168380737304688e+01 2.245745420455932617e+00 5.893251299858093262e-01 9.247658729553222656e+00 2.951095342636108398e+00 8.165771961212158203e-01
3.351000000000000000e+03 4.676467514038085938e+01 -6.747305393218994141e+00 3.758847951889038086e+00 8.822484970092773438e+00 3.774399757385253906e+00 -6.419719755649566650e-02
3.352000000000000000e+03 4.648461151123046875e+01 -7.459331512451171875e+00 3.807076454162597656e+00 8.914853096008300781e+00 3.816578865051269531e+00 -3.596551716327667236e-01
3.353000000000000000e+03 4.727920532226562500e+01 -8.700498580932617188e+00 3.146433830261230469e+00 8.810487747192382812e+00 3.587076663970947266e+00 -6.929406523704528809e-01
3.354000000000000000e+03 4.456725692749023438e+01 -6.813939809799194336e-01 1.557496666908264160e+00 1.001964378356933594e+01 3.473142147064208984e+00 1.106295347213745117e+00
3.355000000000000000e+03 4.667408752441406250e+01 -9.496397018432617188e+00 3.012234926223754883e+00 9.084719657897949219e+00 3.629086494445800781e+00 -9.432827234268188477e-01
3.356000000000000000e+03 4.385208511352539062e+01 -1.193522262573242188e+01 1.530658960342407227e+00 1.044620800018310547e+01 3.593060016632080078e+00 -1.075348258018493652e+00
3.357000000000000000e+03 4.831942367553710938e+01 -3.102964878082275391e+00 2.582411766052246094e+00 8.625194549560546875e+00 3.362281799316406250e+00 9.026322364807128906e-01
3.358000000000000000e+03 4.755931091308593750e+01 -3.717723131179809570e+00 2.952339410781860352e+00 8.767191886901855469e+00 3.515859365463256836e+00 8.563385605812072754e-01
3.359000000000000000e+03 3.945294952392578125e+01 -1.562531948089599609e+01 -3.388031125068664551e-01 8.837203025817871094e+00 2.549519777297973633e+00 1.525796175003051758e+00
3.360000000000000000e+03 3.956936264038085938e+01 -1.617169952392578125e+01 -3.781376481056213379e-01 8.669880867004394531e+00 2.487523078918457031e+00 1.423606872558593750e+00
3.361000000000000000e+03 4.888464736938476562e+01 -3.376912117004394531e+00 2.582535743713378906e+00 8.486733436584472656e+00 3.320780754089355469e+00 8.090976476669311523e-01
3.362000000000000000e+03 4.455252075195312500e+01 -1.182030200958251953e+01 1.739997625350952148e+00 1.014561367034912109e+01 3.565683603286743164e+00 -1.161457896232604980e+00
3.363000000000000000e+03 4.553066253662109375e+01 -1.072628498077392578e+01 2.475564718246459961e+00 9.655565261840820312e+00 3.639338970184326172e+00 -1.213613152503967285e+00
3.364000000000000000e+03 4.149590301513671875e+01 -1.987651252746582031e+01 -6.151500344276428223e-01 8.136043548583984375e+00 2.256268024444580078e+00 7.278359532356262207e-01
3.365000000000000000e+03 4.670328140258789062e+01 -1.612344503402709961e+00 2.154152154922485352e+00 9.182737350463867188e+00 3.401067018508911133e+00 1.173709988594055176e+00
3.366000000000000000e+03 4.678342819213867188e+01 -2.370004415512084961e+00 2.486628293991088867e+00 9.124944686889648438e+00 3.483471870422363281e+00 1.136190772056579590e+00
3.367000000000000000e+03 3.838377761840820312e+01 3.816669940948486328e+00 -1.082300916314125061e-01 7.693211555480957031e+00 2.275494337081909180e+00 -1.642257094383239746e+00
3.368000000000000000e+03 4.732767868041992188e+01 -5.617643833160400391e+00 3.495850801467895508e+00 8.696310997009277344e+00 3.657648563385009766e+00 3.367874622344970703e-01
3.369000000000000000e+03 4.506155776977539062e+01 -4.207109212875366211e-01 1.463222146034240723e+00 9.780888557434082031e+00 3.373233079910278320e+00 1.108760476112365723e+00
3.370000000000000000e+03 3.857576751708984375e+01 1.044575023651123047e+01 -4.939719736576080322e-01 6.463948726654052734e+00 1.790992975234985352e+00 -1.018879771232604980e+00
3.371000000000000000e+03 3.712937545776367188e+01 1.377439785003662109e+01 -5.051292777061462402e-01 5.629776477813720703e+00 1.537394165992736816e+00 -9.711905717849731445e-01
3.372000000000000000e+03 3.804883193969726562e+01 4.611551761627197266e+00 -1.286546736955642700e-01 7.292438507080078125e+00 2.149135112762451172e+00 -1.645535230636596680e+00
3.373000000000000000e+03 4.734682464599609375e+01 -1.026842403411865234e+01 2.547878026962280273e+00 8.948334693908691406e+00 3.448863744735717773e+00 -9.871401786804199219e-01
3.374000000000000000e+03 5.619962692260742188e+01 -5.669573307037353516e+00 1.610033273696899414e+00 7.673844814300537109e+00 2.785163402557373047e+00 1.805122941732406616e-01
3.375000000000000000e+03 5.642913436889648438e+01 -4.292256355285644531e+00 1.507293701171875000e+00 7.681438922882080078e+00 2.756619930267333984e+00 3.727154135704040527e-01
3.376000000000000000e+03 5.422549819946289062e+01 -1.285456848144531250e+01 1.226242065429687500e+00 8.018241882324218750e+00 2.773345232009887695e+00 -7.511174082756042480e-01
3.377000000000000000e+03 5.741266632080078125e+01 3.275181293487548828e+00 6.602627038955688477e-01 7.860505104064941406e+00 2.556230306625366211e+00 9.325892925262451172e-01
3.378000000000000000e+03 5.844755935668945312e+01 -5.954102516174316406e+00 1.306209444999694824e+00 7.582746982574462891e+00 2.666687011718750000e+00 1.488744616508483887e-01
3.379000000000000000e+03 5.590191268920898438e+01 3.448957204818725586e+00 6.794887185096740723e-01 7.950264930725097656e+00 2.588926076889038086e+00 9.752276539802551270e-01
3.380000000000000000e+03 3.357114791870117188e+01 1.583748722076416016e+01 -3.665174245834350586e-01 4.549316406250000000e+00 1.254839777946472168e+00 -1.003269910812377930e+00
3.381000000000000000e+03 6.041599655151367188e+01 7.304272174835205078e+00 2.287637591361999512e-01 7.815504550933837891e+00 2.413280487060546875e+00 9.260166287422180176e-01
3.382000000000000000e+03 3.769114685058593750e+01 1.524374771118164062e+01 -5.715773701667785645e-01 5.711126804351806641e+00 1.541864871978759766e+00 -8.400038480758666992e-01
3.383000000000000000e+03 6.546194458007812500e+01 1.288501834869384766e+01 -5.678088963031768799e-02 7.817935466766357422e+00 2.328346490859985352e+00 8.098783493041992188e-01
3.384000000000000000e+03 5.268454742431640625e+01 -1.692195892333984375e+01 5.111252665519714355e-01 8.306424140930175781e+00 2.645264863967895508e+00 -8.838870525360107422e-01
3.385000000000000000e+03 3.918820190429687500e+01 7.878450393676757812e+00 -4.447146356105804443e-01 7.070277214050292969e+00 1.987668752670288086e+00 -1.087129116058349609e+00
3.386000000000000000e+03 3.767854690551757812e+01 5.440194129943847656e+00 -1.549970209598541260e-01 6.853174686431884766e+00 2.009453296661376953e+00 -1.601772904396057129e+00
3.387000000000000000e+03 4.477896881103515625e+01 -1.993910789489746094e+01 -5.033015608787536621e-01 8.575603485107421875e+00 2.421690464019775391e+00 -5.020528659224510193e-02
3.388000000000000000e+03 5.350242233276367188e+01 -2.009571647644042969e+01 5.331577360630035400e-02 8.232346534729003906e+00 2.485698699951171875e+00 -7.966377735137939453e-01
3.389000000000000000e+03 4.085301208496093750e+01 -2.667986297607421875e+01 -7.520942687988281250e-01 6.840579986572265625e+00 1.826545715332031250e+00 6.184998750686645508e-01
3.390000000000000000e+03 3.998691940307617188e+01 -2.336938381195068359e-01 2.740776240825653076e-01 1.069153976440429688e+01 3.289685249328613281e+00 -1.103913307189941406e+00
3.391000000000000000e+03 4.065476989746093750e+01 -6.273958086967468262e-01 4.846633672714233398e-01 1.112399482727050781e+01 3.482597351074218750e+00 -5.212670564651489258e-01
3.392000000000000000e+03 4.072822570800781250e+01 -1.455451202392578125e+01 -2.528610229492187500e-01 9.932961463928222656e+00 2.904030084609985352e+00 8.533715605735778809e-01
3.393000000000000000e+03 3.824406814575195312e+01 1.256241798400878906e+00 1.586418300867080688e-01 8.526707649230957031e+00 2.605604887008666992e+00 -2.104183197021484375e+00
3.394000000000000000e+03 4.153888702392578125e+01 -1.389144611358642578e+01 1.861870661377906799e-02 1.041083145141601562e+01 3.128835201263427734e+00 3.050474524497985840e-01
3.395000000000000000e+03 4.372433471679687500e+01 -1.326053619384765625e+01 7.959776520729064941e-01 1.028814315795898438e+01 3.325236082077026367e+00 -7.529909014701843262e-01
3.396000000000000000e+03 4.028550720214843750e+01 -5.205572843551635742e-01 3.873594701290130615e-01 1.101973438262939453e+01 3.422127962112426758e+00 -8.275684118270874023e-01
3.397000000000000000e+03 3.924669647216796875e+01 3.864129543304443359e+00 -2.051621079444885254e-01 8.111703872680664062e+00 2.371962547302246094e+00 -1.364352703094482422e+00
3.398000000000000000e+03 3.889023590087890625e+01 -1.466589927673339844e+01 -2.222655415534973145e-01 8.912220001220703125e+00 2.606986284255981445e+00 1.885621070861816406e+00
3.399000000000000000e+03 4.569736099243164062e+01 -2.885531783103942871e-01 1.461229681968688965e+00 9.545470237731933594e+00 3.302009820938110352e+00 1.095679759979248047e+00
3.400000000000000000e+03 4.211678314208984375e+01 -2.651419639587402344e-01 7.603343725204467773e-01 1.079572677612304688e+01 3.466818571090698242e+00 3.217393755912780762e-01
3.401000000000000000e+03 4.245326232910156250e+01 9.711349010467529297e-02 6.690343022346496582e-01 1.049724578857421875e+01 3.349883794784545898e+00 3.514933586120605469e-01
3.402000000000000000e+03 4.331771850585937500e+01 -7.621366530656814575e-03 9.561964273452758789e-01 1.031935310363769531e+01 3.382664918899536133e+00 7.066076397895812988e-01
3.403000000000000000e+03 4.711331176757812500e+01 -7.204976081848144531e+00 3.570269823074340820e+00 8.745193481445312500e+00 3.694638967514038086e+00 -2.617222368717193604e-01
3.404000000000000000e+03 4.316028594970703125e+01 -1.489537429809570312e+01 6.454290449619293213e-02 9.893383026123046875e+00 2.987377643585205078e+00 -1.877565532922744751e-01
3.405000000000000000e+03 4.600051879882812500e+01 -9.550854682922363281e+00 3.103314876556396484e+00 9.322731018066406250e+00 3.727813720703125000e+00 -1.033709049224853516e+00
3.406000000000000000e+03 4.604824829101562500e+01 -1.009758758544921875e+01 2.820479393005371094e+00 9.370768547058105469e+00 3.657374382019042969e+00 -1.111201643943786621e+00
3.407000000000000000e+03 5.343871688842773438e+01 -1.198232555389404297e+01 1.442626357078552246e+00 8.052804946899414062e+00 2.848629474639892578e+00 -7.341938018798828125e-01
3.408000000000000000e+03 4.737525939941406250e+01 -1.195758152008056641e+01 1.819272994995117188e+00 9.054402351379394531e+00 3.262102603912353516e+00 -1.077489256858825684e+00
3.409000000000000000e+03 4.520509338378906250e+01 -1.158491230010986328e+01 1.930556058883666992e+00 9.858095169067382812e+00 3.536595344543457031e+00 -1.194135904312133789e+00
3.410000000000000000e+03 4.005769729614257812e+01 -1.493077182769775391e+01 -3.088900148868560791e-01 9.467737197875976562e+00 2.747654199600219727e+00 1.250231504440307617e+00
3.411000000000000000e+03 4.749580001831054688e+01 -7.745406150817871094e+00 3.464704036712646484e+00 8.686517715454101562e+00 3.645366668701171875e+00 -3.992438018321990967e-01
3.412000000000000000e+03 4.714873123168945312e+01 -6.476633548736572266e+00 3.578711986541748047e+00 8.701191902160644531e+00 3.683971166610717773e+00 6.984408199787139893e-02
3.413000000000000000e+03 4.772557830810546875e+01 -2.346163272857666016e+00 2.386968851089477539e+00 8.849547386169433594e+00 3.370954990386962891e+00 1.063831686973571777e+00
3.414000000000000000e+03 4.208522796630859375e+01 -1.810468101501464844e+01 -5.055816769599914551e-01 8.757157325744628906e+00 2.475472927093505859e+00 5.235851407051086426e-01
3.415000000000000000e+03 4.196537399291992188e+01 -1.458304691314697266e+01 -7.290171831846237183e-02 1.005137634277343750e+01 2.993542194366455078e+00 2.095463424921035767e-01
3.416000000000000000e+03 4.735297393798828125e+01 -6.070021629333496094e+00 3.529779434204101562e+00 8.677931785583496094e+00 3.662313461303710938e+00 1.648264676332473755e-01
3.417000000000000000e+03 5.118880844116210938e+01 -6.563978195190429688e+00 2.469289064407348633e+00 8.045861244201660156e+00 3.154545307159423828e+00 4.416382312774658203e-02
3.418000000000000000e+03 4.109103775024414062e+01 -1.513468074798583984e+01 -2.772763967514038086e-01 9.755801200866699219e+00 2.843557357788085938e+00 7.067016363143920898e-01
3.419000000000000000e+03 4.009849548339843750e+01 -1.603315162658691406e+01 -3.863342702388763428e-01 8.990710258483886719e+00 2.581312894821166992e+00 1.206806421279907227e+00
3.420000000000000000e+03 4.131273269653320312e+01 4.798657000064849854e-01 2.873404026031494141e-01 1.042171573638916016e+01 3.212716817855834961e+00 -3.227122426033020020e-01
3.421000000000000000e+03 3.796038436889648438e+01 2.160895586013793945e+00 1.149162799119949341e-01 7.964156150817871094e+00 2.423721790313720703e+00 -2.035352468490600586e+00
3.422000000000000000e+03 3.782469558715820312e+01 2.781732082366943359e+00 7.655405253171920776e-02 7.645244121551513672e+00 2.316539525985717773e+00 -1.963768959045410156e+00
3.423000000000000000e+03 4.752087783813476562e+01 -1.272821784019470215e+00 2.008128404617309570e+00 8.982607841491699219e+00 3.297220945358276367e+00 1.148722410202026367e+00
3.424000000000000000e+03 4.046664428710937500e+01 7.269750118255615234e+00 -4.731296598911285400e-01 7.643018722534179688e+00 2.150966644287109375e+00 -8.338490724563598633e-01
3.425000000000000000e+03 4.210786437988281250e+01 9.773817062377929688e+00 -6.030879020690917969e-01 7.527434349060058594e+00 2.077303886413574219e+00 -4.680528640747070312e-01
3.426000000000000000e+03 5.277186965942382812e+01 2.153181076049804688e+00 9.397596716880798340e-01 8.188713073730468750e+00 2.738541841506958008e+00 1.023777246475219727e+00
3.427000000000000000e+03 5.435169982910156250e+01 2.007576465606689453e+00 9.363600611686706543e-01 8.030655860900878906e+00 2.690104722976684570e+00 9.789381027221679688e-01
3.428000000000000000e+03 3.769968032836914062e+01 6.571181297302246094e+00 -2.339064627885818481e-01 6.707113742828369141e+00 1.941962242126464844e+00 -1.477582097053527832e+00
3.429000000000000000e+03 3.886991882324218750e+01 6.447028160095214844e+00 -3.456145823001861572e-01 7.282354354858398438e+00 2.081022024154663086e+00 -1.263386964797973633e+00
3.430000000000000000e+03 5.594338226318359375e+01 -7.012824535369873047e+00 1.628712058067321777e+00 7.690651893615722656e+00 2.795809268951416016e+00 -3.817260963842272758e-03
3.431000000000000000e+03 5.566790390014648438e+01 -8.265892982482910156e+00 1.620916843414306641e+00 7.719712257385253906e+00 2.802188634872436523e+00 -1.813505291938781738e-01
3.432000000000000000e+03 5.816757583618164062e+01 -7.792866230010986328e+00 1.313050746917724609e+00 7.600005149841308594e+00 2.673916816711425781e+00 -8.459788560867309570e-02
3.433000000000000000e+03 5.419374847412109375e+01 -1.123860359191894531e+01 1.513849854469299316e+00 7.932487010955810547e+00 2.833900928497314453e+00 -6.170439720153808594e-01
3.434000000000000000e+03 5.265471267700195312e+01 -9.017929077148437500e+00 2.056302547454833984e+00 7.968420982360839844e+00 3.007416963577270508e+00 -4.084931612014770508e-01
3.435000000000000000e+03 5.507769775390625000e+01 -5.473358154296875000e+00 1.756322979927062988e+00 7.736936569213867188e+00 2.847977876663208008e+00 2.214165925979614258e-01
3.436000000000000000e+03 4.996219253540039062e+01 -1.942382335662841797e+00 2.018544912338256836e+00 8.385818481445312500e+00 3.121309041976928711e+00 9.340943098068237305e-01
3.437000000000000000e+03 5.366933822631835938e+01 -3.168669939041137695e+00 1.772099614143371582e+00 7.886224746704101562e+00 2.897497177124023438e+00 5.905871987342834473e-01
3.438000000000000000e+03 5.293256759643554688e+01 -1.885284781455993652e+00 1.700131773948669434e+00 8.009161949157714844e+00 2.912788152694702148e+00 7.931291460990905762e-01
3.439000000000000000e+03 5.434936523437500000e+01 5.043616294860839844e-01 1.170852899551391602e+00 7.976268291473388672e+00 2.744136333465576172e+00 9.128838777542114258e-01
3.440000000000000000e+03 4.280919647216796875e+01 -1.385759830474853516e+01 2.903453707695007324e-01 1.028133773803710938e+01 3.171504974365234375e+00 -2.753045558929443359e-01
3.441000000000000000e+03 4.337490081787109375e+01 -2.086895179748535156e+01 -6.459898352622985840e-01 8.239868164062500000e+00 2.278163433074951172e+00 2.917090058326721191e-01
3.442000000000000000e+03 5.041344070434570312e+01 -2.030471420288085938e+01 -1.375947147607803345e-01 8.426999092102050781e+00 2.486821174621582031e+00 -6.772856712341308594e-01
3.443000000000000000e+03 5.196643447875976562e+01 -2.032677841186523438e+01 -4.894432425498962402e-02 8.323369026184082031e+00 2.482327461242675781e+00 -7.473999261856079102e-01
3.444000000000000000e+03 5.919863891601562500e+01 6.741499900817871094e+00 2.724539339542388916e-01 7.858117103576660156e+00 2.439171314239501953e+00 9.474132657051086426e-01
3.445000000000000000e+03 6.430564880371093750e+01 1.061456584930419922e+01 2.648168243467807770e-02 7.782968044281005859e+00 2.342834949493408203e+00 8.525395393371582031e-01
3.446000000000000000e+03 6.136513137817382812e+01 9.354421615600585938e+00 8.133803308010101318e-02 7.818568229675292969e+00 2.369971990585327148e+00 9.093199372291564941e-01
3.447000000000000000e+03 6.171654510498046875e+01 7.756018161773681641e+00 1.819855421781539917e-01 7.784208297729492188e+00 2.389858007431030273e+00 9.017758369445800781e-01
3.448000000000000000e+03 3.899928283691406250e+01 1.873676681518554688e+01 -6.485360860824584961e-01 5.771329879760742188e+00 1.536838173866271973e+00 -6.012279391288757324e-01
3.449000000000000000e+03 3.911497497558593750e+01 1.433113002777099609e+01 -6.259467601776123047e-01 6.178106307983398438e+00 1.665647864341735840e+00 -7.593695521354675293e-01
3.450000000000000000e+03 6.000807952880859375e+01 8.751629829406738281e+00 1.119335442781448364e-01 7.851727008819580078e+00 2.389098167419433594e+00 9.300472736358642578e-01
3.451000000000000000e+03 5.344789886474609375e+01 -1.360451316833496094e+01 1.131486296653747559e+00 8.128114700317382812e+00 2.777880430221557617e+00 -8.262871503829956055e-01
3.452000000000000000e+03 5.773146057128906250e+01 -2.496140480041503906e+01 -2.730056941509246826e-01 7.971452236175537109e+00 2.309534072875976562e+00 -6.584827303886413574e-01
3.453000000000000000e+03 3.453348541259765625e+01 -2.584817695617675781e+01 -2.952701449394226074e-01 4.972223281860351562e+00 1.403085947036743164e+00 1.087405562400817871e+00
3.454000000000000000e+03 4.536481094360351562e+01 -2.447564125061035156e+01 -7.515224218368530273e-01 7.910468101501464844e+00 2.147683620452880859e+00 4.905771091580390930e-02
3.455000000000000000e+03 3.907118988037109375e+01 1.350733041763305664e+00 3.198961168527603149e-02 9.075996398925781250e+00 2.732395648956298828e+00 -1.706847429275512695e+00
3.456000000000000000e+03 4.026218032836914062e+01 6.055608987808227539e-01 1.275380104780197144e-01 1.021110248565673828e+01 3.101592063903808594e+00 -9.585140347480773926e-01
3.457000000000000000e+03 4.001534652709960938e+01 9.202147126197814941e-01 7.959452271461486816e-02 9.894226074218750000e+00 2.992146253585815430e+00 -1.123825073242187500e+00
3.458000000000000000e+03 4.005572128295898438e+01 -1.452670955657958984e+01 -2.675836086273193359e-01 9.703565597534179688e+00 2.830794572830200195e+00 1.215770721435546875e+00
3.459000000000000000e+03 4.005489349365234375e+01 1.910173892974853516e-01 1.961299329996109009e-01 1.039636898040771484e+01 3.177749872207641602e+00 -1.068338871002197266e+00
3.460000000000000000e+03 4.070957565307617188e+01 -1.519454717636108398e-01 3.538074791431427002e-01 1.081841754913330078e+01 3.351667404174804688e+00 -5.747039914131164551e-01
3.461000000000000000e+03 4.278154754638671875e+01 -1.308850002288818359e+01 6.416957974433898926e-01 1.059225177764892578e+01 3.370184183120727539e+00 -5.048956274986267090e-01
3.462000000000000000e+03 4.151859664916992188e+01 -1.709795761108398438e+01 -4.505031704902648926e-01 8.982666015625000000e+00 2.559648990631103516e+00 6.537909507751464844e-01
3.463000000000000000e+03 4.199804687500000000e+01 -1.365317726135253906e+01 1.598479002714157104e-01 1.053938102722167969e+01 3.209768772125244141e+00 2.547939121723175049e-02
3.464000000000000000e+03 4.157471466064453125e+01 1.591163128614425659e-02 4.975533187389373779e-01 1.063216495513916016e+01 3.338915586471557617e+00 -7.080142945051193237e-02
3.465000000000000000e+03 4.040647506713867188e+01 -1.480820465087890625e+01 -2.696593701839447021e-01 9.722653388977050781e+00 2.835898399353027344e+00 1.007323145866394043e+00
3.466000000000000000e+03 4.489875030517578125e+01 2.549424171447753906e-01 1.168848156929016113e+00 9.754940986633300781e+00 3.277136802673339844e+00 1.001471161842346191e+00
3.467000000000000000e+03 4.393254852294921875e+01 5.381855368614196777e-01 8.493318557739257812e-01 9.988230705261230469e+00 3.251268863677978516e+00 7.365155816078186035e-01
3.468000000000000000e+03 4.745718765258789062e+01 -9.477176666259765625e+00 2.863709926605224609e+00 8.831986427307128906e+00 3.508708953857421875e+00 -8.470793962478637695e-01
3.469000000000000000e+03 4.803110504150390625e+01 -8.279443740844726562e+00 3.078976869583129883e+00 8.587560653686523438e+00 3.499961376190185547e+00 -5.101898908615112305e-01
3.470000000000000000e+03 3.859638977050781250e+01 5.304330825805664062e+00 -2.619901001453399658e-01 7.403528213500976562e+00 2.142461538314819336e+00 -1.419259071350097656e+00
3.471000000000000000e+03 4.668676757812500000e+01 -1.012395954132080078e+01 2.704700231552124023e+00 9.142840385437011719e+00 3.554262161254882812e+00 -1.031701683998107910e+00
3.472000000000000000e+03 4.608423233032226562e+01 -1.060678100585937500e+01 2.553593873977661133e+00 9.431248664855957031e+00 3.595452785491943359e+00 -1.165594339370727539e+00
3.473000000000000000e+03 4.642670822143554688e+01 -6.523188203573226929e-02 1.466129183769226074e+00 9.302155494689941406e+00 3.230485439300537109e+00 1.128885865211486816e+00
3.474000000000000000e+03 3.954715347290039062e+01 4.875064849853515625e+00 -2.890427410602569580e-01 7.918064117431640625e+00 2.288706541061401367e+00 -1.200209736824035645e+00
3.475000000000000000e+03 4.826473236083984375e+01 -9.711030006408691406e+00 2.670727014541625977e+00 8.662217140197753906e+00 3.399883270263671875e+00 -8.169696331024169922e-01
3.476000000000000000e+03 4.573889160156250000e+01 -1.126107597351074219e+01 2.158690690994262695e+00 9.617093086242675781e+00 3.532735109329223633e+00 -1.197121977806091309e+00
3.477000000000000000e+03 3.859823226928710938e+01 1.809157013893127441e+00 4.907077178359031677e-02 8.590700149536132812e+00 2.591931104660034180e+00 -1.843124866485595703e+00
3.478000000000000000e+03 4.805730438232421875e+01 -6.255214691162109375e+00 3.284928083419799805e+00 8.506947517395019531e+00 3.537562608718872070e+00 1.058407723903656006e-01
3.479000000000000000e+03 4.801920318603515625e+01 -5.560458183288574219e+00 3.254769086837768555e+00 8.526819229125976562e+00 3.534476518630981445e+00 3.293932080268859863e-01
3.480000000000000000e+03 3.848662185668945312e+01 3.003925800323486328e+00 -5.199621617794036865e-02 8.072278022766113281e+00 2.406084537506103516e+00 -1.728331804275512695e+00
3.481000000000000000e+03 4.557269668579101562e+01 4.495475292205810547e-01 1.162653565406799316e+00 9.562233924865722656e+00 3.217466354370117188e+00 1.025117516517639160e+00
3.482000000000000000e+03 4.565844345092773438e+01 -1.206143093109130859e+01 1.709816455841064453e+00 9.701303482055664062e+00 3.423335790634155273e+00 -1.170738339424133301e+00
3.483000000000000000e+03 5.119949340820312500e+01 -1.300190544128417969e+01 1.379753470420837402e+00 8.363691329956054688e+00 2.923033475875854492e+00 -9.084890484809875488e-01
3.484000000000000000e+03 4.335138320922851562e+01 -1.413193130493164062e+01 3.432974517345428467e-01 1.010036087036132812e+01 3.133097648620605469e+00 -4.247002899646759033e-01
3.485000000000000000e+03 3.870842361450195312e+01 7.679418921470642090e-01 1.524410545825958252e-01 9.182929039001464844e+00 2.800611019134521484e+00 -1.963613510131835938e+00
3.486000000000000000e+03 4.177371597290039062e+01 8.582442998886108398e-01 2.877212166786193848e-01 1.021849060058593750e+01 3.151863574981689453e+00 -1.042889952659606934e-01
3.487000000000000000e+03 4.298246765136718750e+01 -1.741654968261718750e+01 -3.776341676712036133e-01 9.057102203369140625e+00 2.603840351104736328e+00 2.051572948694229126e-01
3.488000000000000000e+03 4.049567031860351562e+01 4.582630157470703125e+00 -3.222165703773498535e-01 8.398160934448242188e+00 2.422783136367797852e+00 -9.317819476127624512e-01
3.489000000000000000e+03 4.099927520751953125e+01 -1.628060722351074219e+01 -3.984031081199645996e-01 9.198395729064941406e+00 2.639997720718383789e+00 8.224983811378479004e-01
3.490000000000000000e+03 4.109495925903320312e+01 -1.420178508758544922e+01 -1.363880187273025513e-01 1.019132328033447266e+01 3.016480445861816406e+00 6.105279922485351562e-01
3.491000000000000000e+03 4.276563262939453125e+01 -1.575445079803466797e+01 -1.549757868051528931e-01 9.617815971374511719e+00 2.838851928710937500e+00 8.392905443906784058e-02
3.492000000000000000e+03 4.841551208496093750e+01 -4.173270702362060547e+00 2.880657196044921875e+00 8.540832519531250000e+00 3.426446676254272461e+00 6.966445446014404297e-01
3.493000000000000000e+03 4.942284393310546875e+01 -2.777911663055419922e+00 2.348696947097778320e+00 8.430047035217285156e+00 3.233623027801513672e+00 8.603343367576599121e-01
3.494000000000000000e+03 4.883543395996093750e+01 -5.459187030792236328e+00 3.026513814926147461e+00 8.381181716918945312e+00 3.422308444976806641e+00 3.391534984111785889e-01
3.495000000000000000e+03 5.055798339843750000e+01 -4.145085811614990234e+00 2.420794725418090820e+00 8.171535491943359375e+00 3.177699089050292969e+00 5.539833903312683105e-01
3.496000000000000000e+03 4.894013595581054688e+01 -1.764939188957214355e+00 2.086439371109008789e+00 8.612610816955566406e+00 3.209715127944946289e+00 1.031731009483337402e+00
3.497000000000000000e+03 4.804357910156250000e+01 -1.655842065811157227e+00 2.126806020736694336e+00 8.828305244445800781e+00 3.286533594131469727e+00 1.101335763931274414e+00
3.498000000000000000e+03 5.486350250244140625e+01 -1.039093494415283203e+01 1.539107918739318848e+00 7.847856998443603516e+00 2.816089391708374023e+00 -4.854253828525543213e-01
3.499000000000000000e+03 4.878601455688476562e+01 -8.912059783935546875e+00 2.770404338836669922e+00 8.490511894226074219e+00 3.378274917602539062e+00 -6.072403788566589355e-01
3.500000000000000000e+03 3.985484695434570312e+01 9.391124725341796875e+00 -5.297181010246276855e-01 7.013058185577392578e+00 1.945002079010009766e+00 -8.914219141006469727e-01
3.501000000000000000e+03 4.314407730102539062e+01 1.104080200195312500e+01 -6.391665339469909668e-01 7.505475997924804688e+00 2.059892892837524414e+00 -2.858952879905700684e-01
3.502000000000000000e+03 4.382622909545898438e+01 -1.854866027832031250e+01 -4.386846423149108887e-01 8.833627700805664062e+00 2.518483161926269531e+00 6.505967676639556885e-02
3.503000000000000000e+03 5.478776931762695312e+01 -6.819318294525146484e+00 1.810904145240783691e+00 7.752989768981933594e+00 2.869168043136596680e+00 1.171556022018194199e-02
3.504000000000000000e+03 5.431343841552734375e+01 -8.907545208930969238e-01 1.393901467323303223e+00 7.928335666656494141e+00 2.796671152114868164e+00 8.187294602394104004e-01
3.505000000000000000e+03 5.688550186157226562e+01 9.121702194213867188e+00 5.109693482518196106e-02 7.959636211395263672e+00 2.403219938278198242e+00 9.413067698478698730e-01
3.506000000000000000e+03 4.235116195678710938e+01 1.631815910339355469e+01 -7.331674695014953613e-01 6.676749706268310547e+00 1.783074617385864258e+00 -3.654135167598724365e-01
3.507000000000000000e+03 3.988481140136718750e+01 1.589653205871582031e+01 -6.699662208557128906e-01 6.210702896118164062e+00 1.662221074104309082e+00 -6.194503307342529297e-01
3.508000000000000000e+03 4.912252044677734375e+01 -1.850298690795898438e+01 3.403313830494880676e-02 8.622431755065917969e+00 2.596939563751220703e+00 -7.184303998947143555e-01
3.509000000000000000e+03 5.176503753662109375e+01 -1.863826370239257812e+01 1.822108924388885498e-01 8.394473075866699219e+00 2.573005199432373047e+00 -8.303505182266235352e-01
3.510000000000000000e+03 6.539496612548828125e+01 -2.923808097839355469e+01 -2.380006164312362671e-01 7.798251152038574219e+00 2.268074989318847656e+00 -5.078720450401306152e-01
3.511000000000000000e+03 6.838861083984375000e+01 -3.453766632080078125e+01 -2.457595616579055786e-01 7.818161964416503906e+00 2.271720647811889648e+00 -3.122124671936035156e-01
3.512000000000000000e+03 7.008657836914062500e+01 3.223095703125000000e+01 -1.500549763441085815e-01 8.324609756469726562e+00 2.452366590499877930e+00 2.623420357704162598e-01
3.513000000000000000e+03 3.941715621948242188e+01 1.139113664627075195e+00 4.776635766029357910e-02 9.363734245300292969e+00 2.823450326919555664e+00 -1.514210343360900879e+00
3.514000000000000000e+03 3.915209197998046875e+01 5.144299268722534180e-01 1.503611505031585693e-01 9.629446983337402344e+00 2.933942556381225586e+00 -1.754913806915283203e+00
3.515000000000000000e+03 3.958024978637695312e+01 6.769703626632690430e-01 1.115851998329162598e-01 9.789402008056640625e+00 2.970296144485473633e+00 -1.406023502349853516e+00
3.516000000000000000e+03 4.064216613769531250e+01 -1.528999423980712891e+01 -3.239739239215850830e-01 9.520568847656250000e+00 2.758978605270385742e+00 9.290108680725097656e-01
3.517000000000000000e+03 4.221409225463867188e+01 -1.652864265441894531e+01 -3.402954339981079102e-01 9.296570777893066406e+00 2.686882734298706055e+00 3.681281805038452148e-01
3.518000000000000000e+03 3.986848831176757812e+01 1.451950192451477051e+00 -9.775546379387378693e-03 9.449745178222656250e+00 2.831990957260131836e+00 -1.252463579177856445e+00
3.519000000000000000e+03 4.180362701416015625e+01 3.469641923904418945e+00 -1.901620924472808838e-01 9.099490165710449219e+00 2.672798633575439453e+00 -4.083121120929718018e-01
3.520000000000000000e+03 4.288121795654296875e+01 6.434724926948547363e-01 5.821980834007263184e-01 1.020693778991699219e+01 3.236740589141845703e+00 3.986375629901885986e-01
3.521000000000000000e+03 3.917663192749023438e+01 2.388415098190307617e+00 -6.886453926563262939e-02 8.665257453918457031e+00 2.578917741775512695e+00 -1.527774453163146973e+00
3.522000000000000000e+03 3.854994583129882812e+01 2.345481634140014648e+00 -4.827292170375585556e-03 8.318039894104003906e+00 2.493963718414306641e+00 -1.803798675537109375e+00
3.523000000000000000e+03 4.820973205566406250e+01 -7.509350299835205078e+00 3.163842439651489258e+00 8.499861717224121094e+00 3.499111175537109375e+00 -2.723802626132965088e-01
3.524000000000000000e+03 4.714594268798828125e+01 -1.097114467620849609e+01 2.292685270309448242e+00 9.082704544067382812e+00 3.412616968154907227e+00 -1.089100718498229980e+00
3.525000000000000000e+03 4.625898361206054688e+01 -1.104449844360351562e+01 2.282792329788208008e+00 9.402239799499511719e+00 3.505509614944458008e+00 -1.162295937538146973e+00
3.526000000000000000e+03 4.429378890991210938e+01 1.838194131851196289e+00 4.712241888046264648e-01 9.579273223876953125e+00 3.015149116516113281e+00 5.981205701828002930e-01
3.527000000000000000e+03 4.560261535644531250e+01 -1.277806949615478516e+01 1.374066472053527832e+00 9.663555145263671875e+00 3.311286449432373047e+00 -1.059899449348449707e+00
3.528000000000000000e+03 4.692008590698242188e+01 -1.152410030364990234e+01 2.051775217056274414e+00 9.184858322143554688e+00 3.370990037918090820e+00 -1.112265110015869141e+00
3.529000000000000000e+03 5.306933593750000000e+01 -4.306279182434082031e+00 2.022931814193725586e+00 7.903871536254882812e+00 2.978040933609008789e+00 4.373560249805450439e-01
3.530000000000000000e+03 4.862139129638671875e+01 -4.774512290954589844e+00 2.954610586166381836e+00 8.449535369873046875e+00 3.421243906021118164e+00 5.175155997276306152e-01
3.531000000000000000e+03 4.618433761596679688e+01 -1.209967899322509766e+01 1.681211590766906738e+00 9.485113143920898438e+00 3.349897384643554688e+00 -1.153449296951293945e+00
3.532000000000000000e+03 5.099356460571289062e+01 -1.490327262878417969e+01 9.275060296058654785e-01 8.481294631958007812e+00 2.822640180587768555e+00 -9.542906880378723145e-01
3.533000000000000000e+03 4.517719650268554688e+01 -1.519197559356689453e+01 3.483024537563323975e-01 9.479982376098632812e+00 2.948485374450683594e+00 -6.404665112495422363e-01
3.534000000000000000e+03 5.207208251953125000e+01 -8.298747062683105469e+00 2.205408573150634766e+00 7.993151187896728516e+00 3.059567928314208984e+00 -3.062108159065246582e-01
3.535000000000000000e+03 5.092780303955078125e+01 -5.717919349670410156e+00 2.536798238754272461e+00 8.073713302612304688e+00 3.183153390884399414e+00 2.213296443223953247e-01
3.536000000000000000e+03 4.621489334106445312e+01 7.543953657150268555e-01 1.089932918548583984e+00 9.297094345092773438e+00 3.116108179092407227e+00 1.015855312347412109e+00
3.537000000000000000e+03 4.491802597045898438e+01 -1.392405891418457031e+01 7.364255785942077637e-01 9.807119369506835938e+00 3.163063526153564453e+00 -8.273733258247375488e-01
3.538000000000000000e+03 4.475994110107421875e+01 -1.279617309570312500e+01 1.209182620048522949e+00 9.987131118774414062e+00 3.358894109725952148e+00 -1.002989888191223145e+00
3.539000000000000000e+03 4.582309722900390625e+01 -1.372543334960937500e+01 9.189074635505676270e-01 9.536870002746582031e+00 3.136733055114746094e+00 -9.466408491134643555e-01
3.540000000000000000e+03 4.155409240722656250e+01 -1.580029678344726562e+01 -3.102450072765350342e-01 9.512185096740722656e+00 2.760581970214843750e+00 5.556206107139587402e-01
3.541000000000000000e+03 4.939400100708007812e+01 -4.509764194488525391e+00 2.727321386337280273e+00 8.325854301452636719e+00 3.315952539443969727e+00 5.378209948539733887e-01
3.542000000000000000e+03 4.860379409790039062e+01 -2.486628532409667969e+00 2.346498489379882812e+00 8.619771957397460938e+00 3.289881229400634766e+00 9.643350839614868164e-01
3.543000000000000000e+03 5.272317123413085938e+01 -1.107975292205810547e+01 1.709775805473327637e+00 8.073050498962402344e+00 2.934847831726074219e+00 -6.870313882827758789e-01
3.544000000000000000e+03 5.417600631713867188e+01 -1.461010551452636719e+01 9.249700903892517090e-01 8.093361854553222656e+00 2.705499649047851562e+00 -8.295699357986450195e-01
3.545000000000000000e+03 5.268482208251953125e+01 -1.273553466796875000e+01 1.349021434783935547e+00 8.167013168334960938e+00 2.854810476303100586e+00 -8.147203922271728516e-01
3.546000000000000000e+03 4.576447677612304688e+01 -1.641178321838378906e+01 1.164671853184700012e-01 9.202133178710937500e+00 2.795580148696899414e+00 -5.705519318580627441e-01
3.547000000000000000e+03 4.118603134155273438e+01 8.527172088623046875e+00 -5.491181015968322754e-01 7.582366943359375000e+00 2.109974622726440430e+00 -6.590757966041564941e-01
3.548000000000000000e+03 3.994956588745117188e+01 6.048644065856933594e+00 -3.913072943687438965e-01 7.733698368072509766e+00 2.202717304229736328e+00 -1.010092020034790039e+00
3.549000000000000000e+03 3.920207977294921875e+01 3.058428049087524414e+00 -1.295270770788192749e-01 8.426486968994140625e+00 2.489087820053100586e+00 -1.481647014617919922e+00
3.550000000000000000e+03 5.413893890380859375e+01 -2.212144136428833008e+00 1.612706184387207031e+00 7.884409904479980469e+00 2.849134683609008789e+00 6.860682964324951172e-01
3.551000000000000000e+03 5.292810058593750000e+01 -7.478057146072387695e-01 1.500567913055419922e+00 8.063750267028808594e+00 2.869295597076416016e+00 8.857697844505310059e-01
3.552000000000000000e+03 5.373060607910156250e+01 -6.528758525848388672e+00 1.983630180358886719e+00 7.816703319549560547e+00 2.940099954605102539e+00 5.645554140210151672e-02
3.553000000000000000e+03 5.407826614379882812e+01 -4.131369113922119141e+00 1.829399824142456055e+00 7.817583560943603516e+00 2.894094944000244141e+00 4.397227764129638672e-01
3.554000000000000000e+03 5.155760192871093750e+01 -8.576365709304809570e-01 1.627464294433593750e+00 8.213663101196289062e+00 2.952338218688964844e+00 9.438555240631103516e-01
3.555000000000000000e+03 4.654914474487304688e+01 -2.284649085998535156e+01 -6.263619661331176758e-01 8.218510627746582031e+00 2.277644395828247070e+00 -1.629983186721801758e-01
3.556000000000000000e+03 4.438014984130859375e+01 9.837094306945800781e+00 -5.742518305778503418e-01 7.890005588531494141e+00 2.194726228713989258e+00 -6.327695399522781372e-02
3.557000000000000000e+03 4.084003829956054688e+01 1.079797840118408203e+01 -6.087364554405212402e-01 7.053827762603759766e+00 1.933527350425720215e+00 -6.599977016448974609e-01
3.558000000000000000e+03 4.829228210449218750e+01 -1.685025024414062500e+01 2.877022922039031982e-01 8.820910453796386719e+00 2.732583999633789062e+00 -7.966056466102600098e-01
3.559000000000000000e+03 4.480746078491210938e+01 -1.746260261535644531e+01 -1.862127929925918579e-01 9.080528259277343750e+00 2.668294668197631836e+00 -2.657130062580108643e-01
3.560000000000000000e+03 4.557644653320312500e+01 -2.153661346435546875e+01 -5.762938857078552246e-01 8.352296829223632812e+00 2.332800865173339844e+00 -1.101274043321609497e-01
3.561000000000000000e+03 5.191826248168945312e+01 -1.457535171508789062e+01 1.022739291191101074e+00 8.355971336364746094e+00 2.813613176345825195e+00 -9.390550851821899414e-01
3.562000000000000000e+03 5.042571258544921875e+01 -1.720676040649414062e+01 3.667609989643096924e-01 8.570813179016113281e+00 2.681272268295288086e+00 -8.834358453750610352e-01
3.563000000000000000e+03 6.901923370361328125e+01 3.448387908935546875e+01 -1.833443492650985718e-01 8.275652885437011719e+00 2.427692651748657227e+00 2.209588140249252319e-01
3.564000000000000000e+03 4.887304306030273438e+01 -2.004884719848632812e+01 -2.064458429813385010e-01 8.521832466125488281e+00 2.494616031646728516e+00 -5.931344628334045410e-01
3.565000000000000000e+03 6.162403869628906250e+01 1.392832851409912109e+01 -1.564998030662536621e-01 7.853177070617675781e+00 2.309003114700317383e+00 8.424015045166015625e-01
3.566000000000000000e+03 6.213332748413085938e+01 1.183418750762939453e+01 -5.617341399192810059e-02 7.837316036224365234e+00 2.334342718124389648e+00 8.755868673324584961e-01
3.567000000000000000e+03 5.402012634277343750e+01 -5.342662811279296875e+00 1.883687496185302734e+00 7.804255008697509766e+00 2.906382799148559570e+00 2.487691193819046021e-01
3.568000000000000000e+03 3.700354766845703125e+01 1.975332641601562500e+01 -5.765734314918518066e-01 5.264554023742675781e+00 1.406394243240356445e+00 -6.890481710433959961e-01
3.569000000000000000e+03 3.826414871215820312e+01 1.690986633300781250e+01 -6.165559291839599609e-01 5.742998123168945312e+00 1.537932634353637695e+00 -7.257649302482604980e-01
3.570000000000000000e+03 5.209262466430664062e+01 -2.229249954223632812e+01 -2.769126594066619873e-01 8.243091583251953125e+00 2.389853715896606445e+00 -6.537793278694152832e-01
3.571000000000000000e+03 5.587499237060546875e+01 -1.278501701354980469e+01 1.123836398124694824e+00 7.881481647491455078e+00 2.701595544815063477e+00 -6.724423766136169434e-01
3.572000000000000000e+03 2.899626731872558594e+01 -2.818629837036132812e+01 3.753815591335296631e-02 3.184103727340698242e+00 9.664925932884216309e-01 8.119676709175109863e-01
3.573000000000000000e+03 2.400242996215820312e+01 2.493916320800781250e+01 -8.139130473136901855e-02 2.126637220382690430e+00 6.135737895965576172e-01 -5.231240391731262207e-01
3.574000000000000000e+03 4.030857849121093750e+01 2.432740926742553711e+00 -1.254083514213562012e-01 9.196618080139160156e+00 2.721362829208374023e+00 -9.927745461463928223e-01
3.575000000000000000e+03 4.051726150512695312e+01 1.642854571342468262e+00 -2.310179919004440308e-02 9.639984130859375000e+00 2.885064601898193359e+00 -8.638573884963989258e-01
3.576000000000000000e+03 4.121361541748046875e+01 1.437012434005737305e+00 6.505846977233886719e-02 9.874013900756835938e+00 2.981721639633178711e+00 -5.112507939338684082e-01
3.577000000000000000e+03 4.200097656250000000e+01 -1.525428390502929688e+01 -1.848124563694000244e-01 9.815953254699707031e+00 2.889342069625854492e+00 2.929946780204772949e-01
3.578000000000000000e+03 4.150336837768554688e+01 -1.479864025115966797e+01 -1.936222612857818604e-01 9.918294906616210938e+00 2.917401790618896484e+00 4.769726991653442383e-01
3.579000000000000000e+03 4.234239578247070312e+01 1.348027229309082031e+00 2.717426419258117676e-01 1.001054096221923828e+01 3.084685087203979492e+00 5.162754654884338379e-02
3.580000000000000000e+03 4.721424102783203125e+01 1.923021376132965088e-01 1.413994789123535156e+00 9.102154731750488281e+00 3.154844999313354492e+00 1.123255848884582520e+00
3.581000000000000000e+03 3.911827087402343750e+01 1.844652533531188965e+00 -2.600579150021076202e-02 8.916122436523437500e+00 2.667035102844238281e+00 -1.635894179344177246e+00
3.582000000000000000e+03 4.922077560424804688e+01 -1.085805892944335938e+01 2.133637666702270508e+00 8.557734489440917969e+00 3.207411527633666992e+00 -8.789628148078918457e-01
3.583000000000000000e+03 4.470392608642578125e+01 1.050225019454956055e+00 7.880054712295532227e-01 9.648259162902832031e+00 3.130879402160644531e+00 8.022097349166870117e-01
3.584000000000000000e+03 4.636735153198242188e+01 -1.266984176635742188e+01 1.508050560951232910e+00 9.391422271728515625e+00 3.269841909408569336e+00 -1.107425808906555176e+00
3.585000000000000000e+03 4.937057113647460938e+01 -1.422475814819335938e+01 1.059008479118347168e+00 8.706782341003417969e+00 2.929737329483032227e+00 -9.877433180809020996e-01
3.586000000000000000e+03 4.375860214233398438e+01 -1.646529006958007812e+01 -1.518635302782058716e-01 9.374238967895507812e+00 2.766712427139282227e+00 -1.501037031412124634e-01
3.587000000000000000e+03 4.914472961425781250e+01 -9.936900138854980469e-01 1.825091600418090820e+00 8.624176979064941406e+00 3.134780406951904297e+00 1.078589916229248047e+00
3.588000000000000000e+03 5.020483779907226562e+01 -1.160453128814697266e+01 1.775547623634338379e+00 8.441505432128906250e+00 3.065115690231323242e+00 -8.812538385391235352e-01
3.589000000000000000e+03 4.918232727050781250e+01 -7.278917789459228516e+00 2.930938482284545898e+00 8.331793785095214844e+00 3.378819704055786133e+00 -1.744546443223953247e-01
3.590000000000000000e+03 5.280366516113281250e+01 6.113285422325134277e-01 1.238936185836791992e+00 8.141657829284667969e+00 2.814178228378295898e+00 9.846251010894775391e-01
3.591000000000000000e+03 4.897507095336914062e+01 -6.283214092254638672e+00 3.041478872299194336e+00 8.347491264343261719e+00 3.416691064834594727e+00 9.858901798725128174e-02
3.592000000000000000e+03 4.251069259643554688e+01 4.165306091308593750e+00 -2.113484591245651245e-01 8.968814849853515625e+00 2.627239942550659180e+00 -2.159264683723449707e-01
3.593000000000000000e+03 4.351374435424804688e+01 1.229472875595092773e+00 5.242272019386291504e-01 9.903733253479003906e+00 3.128388166427612305e+00 4.904597699642181396e-01
3.594000000000000000e+03 3.963747024536132812e+01 2.057364463806152344e+00 -7.140466570854187012e-02 9.025671958923339844e+00 2.686280250549316406e+00 -1.358580946922302246e+00
3.595000000000000000e+03 5.202547073364257812e+01 -1.359911918640136719e+01 1.216439485549926758e+00 8.288863182067871094e+00 2.851590633392333984e+00 -8.856378197669982910e-01
3.596000000000000000e+03 5.185450744628906250e+01 -1.187862873077392578e+01 1.598266839981079102e+00 8.221633911132812500e+00 2.945970296859741211e+00 -7.991566061973571777e-01
3.597000000000000000e+03 4.964798355102539062e+01 -8.302013397216796875e+00 2.708390235900878906e+00 8.306551933288574219e+00 3.304482460021972656e+00 -4.094640016555786133e-01
3.598000000000000000e+03 4.407428359985351562e+01 -1.408664035797119141e+01 5.487790703773498535e-01 9.966108322143554688e+00 3.154466390609741211e+00 -6.559496521949768066e-01
3.599000000000000000e+03 5.303394699096679688e+01 -7.518043041229248047e+00 2.067350864410400391e+00 7.883963584899902344e+00 2.985394239425659180e+00 -1.249387413263320923e-01
3.600000000000000000e+03 5.239858627319335938e+01 -6.889371871948242188e+00 2.217089176177978516e+00 7.925744056701660156e+00 3.042850017547607422e+00 -1.625686511397361755e-02
3.601000000000000000e+03 3.988235855102539062e+01 3.301838874816894531e+00 -1.999046355485916138e-01 8.601860046386718750e+00 2.520586729049682617e+00 -1.159354329109191895e+00
3.602000000000000000e+03 4.156307220458984375e+01 6.557290077209472656e+00 -4.628230333328247070e-01 8.119230270385742188e+00 2.296922206878662109e+00 -5.904264450073242188e-01
3.603000000000000000e+03 4.234312820434570312e+01 7.624793052673339844e+00 -5.057596564292907715e-01 8.017746925354003906e+00 2.253596305847167969e+00 -4.098556637763977051e-01
3.604000000000000000e+03 4.945185470581054688e+01 -9.714010238647460938e+00 2.430563449859619141e+00 8.428469657897949219e+00 3.257709980010986328e+00 -7.186142802238464355e-01
3.605000000000000000e+03 5.353979110717773438e+01 -1.049160289764404297e+01 1.683310508728027344e+00 7.947552204132080078e+00 2.889258861541748047e+00 -5.427807569503784180e-01
3.606000000000000000e+03 5.142774963378906250e+01 -1.001597118377685547e+01 2.033138513565063477e+00 8.145475387573242188e+00 3.053584098815917969e+00 -6.197206974029541016e-01
3.607000000000000000e+03 4.676208877563476562e+01 -1.340628814697265625e+01 1.212906599044799805e+00 9.259461402893066406e+00 3.141710281372070312e+00 -1.031859517097473145e+00
3.608000000000000000e+03 4.826491546630859375e+01 -1.291981029510498047e+01 1.465831756591796875e+00 8.918973922729492188e+00 3.115441799163818359e+00 -1.053821325302124023e+00
3.609000000000000000e+03 5.080288696289062500e+01 -2.401726484298706055e+00 2.041081666946411133e+00 8.238667488098144531e+00 3.083924770355224609e+00 8.320384025573730469e-01
3.610000000000000000e+03 4.831509017944335938e+01 2.914738893508911133e+00 6.503199934959411621e-01 8.764957427978515625e+00 2.824583292007446289e+00 9.830010533332824707e-01
3.611000000000000000e+03 5.282944488525390625e+01 -2.811496257781982422e+00 1.834221005439758301e+00 7.978935241699218750e+00 2.943946838378906250e+00 6.746454238891601562e-01
3.612000000000000000e+03 5.023249053955078125e+01 -6.931982040405273438e+00 2.667039155960083008e+00 8.164534568786621094e+00 3.249472379684448242e+00 -5.091496556997299194e-02
3.613000000000000000e+03 5.232776641845703125e+01 -3.986223697662353516e+00 2.084285736083984375e+00 7.973701000213623047e+00 3.017395973205566406e+00 4.984931647777557373e-01
3.614000000000000000e+03 4.413561630249023438e+01 -1.527517223358154297e+01 1.594632416963577271e-01 9.625308036804199219e+00 2.935431480407714844e+00 -4.173043072223663330e-01
3.615000000000000000e+03 4.591421890258789062e+01 -1.870981788635253906e+01 -2.701756060123443604e-01 8.794358253479003906e+00 2.557254791259765625e+00 -3.563093841075897217e-01
3.616000000000000000e+03 4.281762313842773438e+01 1.358911991119384766e+01 -6.973077654838562012e-01 7.076179504394531250e+00 1.913661599159240723e+00 -3.317357003688812256e-01
3.617000000000000000e+03 5.229644775390625000e+01 -1.566962528228759766e+01 7.349421381950378418e-01 8.342904090881347656e+00 2.723353862762451172e+00 -9.222712516784667969e-01
3.618000000000000000e+03 5.324368667602539062e+01 -1.524680995941162109e+01 8.462049365043640137e-01 8.208028793334960938e+00 2.716269969940185547e+00 -8.873491287231445312e-01
3.619000000000000000e+03 4.344528961181640625e+01 -2.588166427612304688e+01 -8.081980347633361816e-01 7.494719028472900391e+00 2.005956172943115234e+00 3.123927116394042969e-01
3.620000000000000000e+03 5.043548202514648438e+01 -1.867632102966308594e+01 9.714997559785842896e-02 8.507875442504882812e+00 2.581507444381713867e+00 -7.820500135421752930e-01
3.621000000000000000e+03 5.137460708618164062e+01 -1.593212413787841797e+01 6.714654564857482910e-01 8.430151939392089844e+00 2.730485439300537109e+00 -9.141550660133361816e-01
3.622000000000000000e+03 6.148666381835937500e+01 1.611718368530273438e+01 -2.436564713716506958e-01 7.854227066040039062e+00 2.283171176910400391e+00 7.886542081832885742e-01
3.623000000000000000e+03 5.407579421997070312e+01 -2.468171501159667969e+01 -3.862567245960235596e-01 8.100537300109863281e+00 2.314284324645996094e+00 -6.122550964355468750e-01
3.624000000000000000e+03 5.294978332519531250e+01 -3.543285131454467773e+00 1.949322938919067383e+00 7.933349609375000000e+00 2.964801788330078125e+00 5.477979779243469238e-01
3.625000000000000000e+03 4.045438766479492188e+01 1.030907630920410156e+00 8.549546450376510620e-02 9.991984367370605469e+00 3.023243904113769531e+00 -8.560288548469543457e-01
3.626000000000000000e+03 3.905594253540039062e+01 9.235704541206359863e-01 9.686582535505294800e-02 9.321289062500000000e+00 2.825446605682373047e+00 -1.769422292709350586e+00
3.627000000000000000e+03 4.171156311035156250e+01 2.083505630493164062e+00 4.476971924304962158e-03 9.638789176940917969e+00 2.892979860305786133e+00 -3.555760085582733154e-01
3.628000000000000000e+03 4.890216064453125000e+01 -1.020093822479248047e+01 2.409541845321655273e+00 8.555214881896972656e+00 3.289427042007446289e+00 -8.159913420677185059e-01
3.629000000000000000e+03 4.929174804687500000e+01 -1.177569675445556641e+01 1.828070282936096191e+00 8.634935379028320312e+00 3.138901710510253906e+00 -9.763911962509155273e-01
3.630000000000000000e+03 4.702833938598632812e+01 1.089282751083374023e+00 1.065149664878845215e+00 9.122699737548828125e+00 3.056354761123657227e+00 1.054205417633056641e+00
3.631000000000000000e+03 4.808657836914062500e+01 3.845987617969512939e-01 1.390202403068542480e+00 8.868124008178710938e+00 3.077497959136962891e+00 1.108872652053833008e+00
3.632000000000000000e+03 4.846851348876953125e+01 -1.173104000091552734e+01 1.916062951087951660e+00 8.811914443969726562e+00 3.218393325805664062e+00 -1.033904194831848145e+00
3.633000000000000000e+03 5.270699691772460938e+01 -1.424822616577148438e+01 1.046379089355468750e+00 8.219177246093750000e+00 2.779666900634765625e+00 -8.724524974822998047e-01
3.634000000000000000e+03 5.067552947998046875e+01 -4.901016235351562500e+00 2.520224809646606445e+00 8.122806549072265625e+00 3.192909479141235352e+00 4.013975560665130615e-01
3.635000000000000000e+03 5.026263046264648438e+01 -9.857039451599121094e-01 1.746491432189941406e+00 8.395217895507812500e+00 3.042512893676757812e+00 1.005703330039978027e+00
3.636000000000000000e+03 4.369765090942382812e+01 2.582293272018432617e+00 1.665153950452804565e-01 9.447756767272949219e+00 2.884281635284423828e+00 3.086886703968048096e-01
3.637000000000000000e+03 4.094088745117187500e+01 5.542644500732421875e+00 -4.043984711170196533e-01 8.219863891601562500e+00 2.344639539718627930e+00 -7.678757309913635254e-01
3.638000000000000000e+03 5.016548919677734375e+01 -2.881966764107346535e-03 1.477514266967773438e+00 8.462478637695312500e+00 2.981997966766357422e+00 1.061508774757385254e+00
3.639000000000000000e+03 4.824895477294921875e+01 -1.029271125793457031e+00 1.854490518569946289e+00 8.799901008605957031e+00 3.196317672729492188e+00 1.108275175094604492e+00
3.640000000000000000e+03 4.298583221435546875e+01 1.955404281616210938e+00 2.182154655456542969e-01 9.714778900146484375e+00 2.979898214340209961e+00 1.869023740291595459e-01
3.641000000000000000e+03 4.996200180053710938e+01 -6.034715175628662109e+00 2.757908105850219727e+00 8.189500808715820312e+00 3.284222841262817383e+00 1.546230763196945190e-01
3.642000000000000000e+03 5.286837005615234375e+01 -6.186313629150390625e+00 2.141006469726562500e+00 7.881837844848632812e+00 3.006853342056274414e+00 1.124817728996276855e-01
3.643000000000000000e+03 5.060406494140625000e+01 -1.021799087524414062e+01 2.151542425155639648e+00 8.293294906616210938e+00 3.133451223373413086e+00 -7.172641158103942871e-01
3.644000000000000000e+03 5.020374298095703125e+01 -9.259272575378417969e+00 2.385832786560058594e+00 8.290648460388183594e+00 3.202944278717041016e+00 -5.982218384742736816e-01
3.645000000000000000e+03 5.156568145751953125e+01 -7.417446613311767578e+00 2.353780031204223633e+00 8.018227577209472656e+00 3.111602306365966797e+00 -1.389988213777542114e-01
3.646000000000000000e+03 4.520663833618164062e+01 3.560955047607421875e+00 1.730463355779647827e-01 9.097521781921386719e+00 2.781170606613159180e+00 5.515508055686950684e-01
3.647000000000000000e+03 5.029340744018554688e+01 -1.273680782318115234e+01 1.491313099861145020e+00 8.501022338867187500e+00 2.997700452804565430e+00 -9.522513747215270996e-01
3.648000000000000000e+03 4.742071533203125000e+01 -1.272348308563232422e+01 1.510621428489685059e+00 9.113685607910156250e+00 3.187292098999023438e+00 -1.094964504241943359e+00
3.649000000000000000e+03 4.731090164184570312e+01 -1.959664535522460938e+01 -2.735821008682250977e-01 8.643935203552246094e+00 2.511106014251708984e+00 -4.649385213851928711e-01
3.650000000000000000e+03 5.129191589355468750e+01 -3.004263162612915039e+00 2.098753690719604492e+00 8.134807586669921875e+00 3.070068359375000000e+00 7.189736366271972656e-01
3.651000000000000000e+03 5.072016525268554688e+01 1.474392771720886230e+00 1.103099346160888672e+00 8.420976638793945312e+00 2.857222795486450195e+00 1.058695435523986816e+00
3.652000000000000000e+03 5.436151123046875000e+01 3.616961479187011719e+00 6.719840764999389648e-01 8.071325302124023438e+00 2.622992753982543945e+00 1.007277488708496094e+00
3.653000000000000000e+03 5.134774017333984375e+01 2.450656890869140625e+00 8.845402598381042480e-01 8.343496322631835938e+00 2.768410921096801758e+00 1.047022461891174316e+00
3.654000000000000000e+03 5.162520599365234375e+01 -4.576264381408691406e+00 2.274438858032226562e+00 8.016502380371093750e+00 3.087282419204711914e+00 4.327130019664764404e-01
3.655000000000000000e+03 5.175588607788085938e+01 -1.919758558273315430e+00 1.821464896202087402e+00 8.142300605773925781e+00 2.989129543304443359e+00 8.511035442352294922e-01
3.656000000000000000e+03 5.136184692382812500e+01 3.866027891635894775e-01 1.343520045280456543e+00 8.302487373352050781e+00 2.893802165985107422e+00 1.029599785804748535e+00
3.657000000000000000e+03 4.048174667358398438e+01 1.328412914276123047e+01 -6.520976424217224121e-01 6.629668235778808594e+00 1.793271183967590332e+00 -6.337724328041076660e-01
3.658000000000000000e+03 4.746574783325195312e+01 -1.627069854736328125e+01 3.705185949802398682e-01 9.001317977905273438e+00 2.811551094055175781e+00 -8.050650954246520996e-01
3.659000000000000000e+03 4.422621917724609375e+01 1.236001396179199219e+01 -6.693140268325805664e-01 7.465856552124023438e+00 2.038962602615356445e+00 -1.372123062610626221e-01
3.660000000000000000e+03 4.612641143798828125e+01 -1.471904182434082031e+01 6.546236276626586914e-01 9.384323120117187500e+00 3.011683940887451172e+00 -8.789637088775634766e-01
3.661000000000000000e+03 5.030484008789062500e+01 -2.213659286499023438e+01 -3.519742488861083984e-01 8.316541671752929688e+00 2.389370203018188477e+00 -5.671749711036682129e-01
3.662000000000000000e+03 5.173429107666015625e+01 -2.691987991333007812e+01 -6.230115294456481934e-01 8.030875205993652344e+00 2.222358942031860352e+00 -4.176138043403625488e-01
3.663000000000000000e+03 4.701359939575195312e+01 -2.126460838317871094e+01 -4.771910905838012695e-01 8.462478637695312500e+00 2.395586252212524414e+00 -3.139616250991821289e-01
3.664000000000000000e+03 4.860602569580078125e+01 -2.175511550903320312e+01 -4.125719070434570312e-01 8.402788162231445312e+00 2.397064685821533203e+00 -4.611750841140747070e-01
3.665000000000000000e+03 4.465610885620117188e+01 -2.868470001220703125e+01 -8.594949841499328613e-01 7.373387813568115234e+00 1.954167842864990234e+00 1.792378127574920654e-01
3.666000000000000000e+03 4.179671859741210938e+01 4.912896633148193359e+00 -3.316895961761474609e-01 8.649958610534667969e+00 2.495480775833129883e+00 -4.820162653923034668e-01
3.667000000000000000e+03 4.912875747680664062e+01 -2.185900658369064331e-01 1.575559735298156738e+00 8.646435737609863281e+00 3.066598653793334961e+00 1.092860937118530273e+00
3.668000000000000000e+03 4.988186264038085938e+01 -1.059890651702880859e+01 2.150615692138671875e+00 8.414008140563964844e+00 3.169387102127075195e+00 -7.956004738807678223e-01
3.669000000000000000e+03 5.206184387207031250e+01 -6.217914104461669922e+00 2.291128396987915039e+00 7.954229354858398438e+00 3.073607444763183594e+00 1.089279055595397949e-01
3.670000000000000000e+03 5.045478820800781250e+01 -1.388776779174804688e+01 1.143792867660522461e+00 8.532458305358886719e+00 2.902875423431396484e+00 -9.654706716537475586e-01
3.671000000000000000e+03 4.057310104370117188e+01 3.700383424758911133e+00 -2.537564635276794434e-01 8.713305473327636719e+00 2.537864685058593750e+00 -9.057935476303100586e-01
3.672000000000000000e+03 4.250226593017578125e+01 5.764101505279541016e+00 -3.832777142524719238e-01 8.509240150451660156e+00 2.437788486480712891e+00 -3.153587281703948975e-01
3.673000000000000000e+03 5.192469787597656250e+01 -5.385727882385253906e+00 2.294903278350830078e+00 7.974988460540771484e+00 3.080967426300048828e+00 2.852875888347625732e-01
3.674000000000000000e+03 4.972768402099609375e+01 -5.192068576812744141e+00 2.770215988159179688e+00 8.249096870422363281e+00 3.305793762207031250e+00 3.767932355403900146e-01
3.675000000000000000e+03 4.819567489624023438e+01 -1.433974647521972656e+01 9.702888131141662598e-01 8.961741447448730469e+00 2.979609012603759766e+00 -1.002662062644958496e+00
3.676000000000000000e+03 4.121383666992187500e+01 4.166204452514648438e+00 -2.821232378482818604e-01 8.755895614624023438e+00 2.542131900787353516e+00 -6.402086019515991211e-01
3.677000000000000000e+03 4.240060806274414062e+01 2.714953184127807617e+00 -3.307869657874107361e-02 9.436044692993164062e+00 2.820889949798583984e+00 -1.303394436836242676e-01
3.678000000000000000e+03 4.996882247924804688e+01 3.909899234771728516e+00 5.432569980621337891e-01 8.516505241394042969e+00 2.717928886413574219e+00 9.951710700988769531e-01
3.679000000000000000e+03 5.062639236450195312e+01 -7.871489048004150391e+00 2.533308744430541992e+00 8.136682510375976562e+00 3.200997352600097656e+00 -2.544917762279510498e-01
3.680000000000000000e+03 4.333665847778320312e+01 6.669864177703857422e+00 -4.191227257251739502e-01 8.394134521484375000e+00 2.392503499984741211e+00 -1.498461514711380005e-01
3.681000000000000000e+03 4.328603363037109375e+01 8.717572212219238281e+00 -5.491340160369873047e-01 7.948937892913818359e+00 2.219941139221191406e+00 -2.298538684844970703e-01
3.682000000000000000e+03 4.670341873168945312e+01 -1.552277755737304688e+01 4.829864501953125000e-01 9.183919906616210938e+00 2.900071859359741211e+00 -8.295029997825622559e-01
3.683000000000000000e+03 4.672858047485351562e+01 -1.740185546875000000e+01 2.689345180988311768e-02 8.965565681457519531e+00 2.697737693786621094e+00 -6.083756685256958008e-01
3.684000000000000000e+03 4.707767486572265625e+01 -1.443782138824462891e+01 8.606340289115905762e-01 9.169743537902832031e+00 3.009113311767578125e+00 -9.728187322616577148e-01
3.685000000000000000e+03 4.802610015869140625e+01 1.212752342224121094e+00 1.064589142799377441e+00 8.879137039184570312e+00 2.983117818832397461e+00 1.063008427619934082e+00
3.686000000000000000e+03 5.283173751831054688e+01 3.769702196121215820e+00 6.332604885101318359e-01 8.200543403625488281e+00 2.650141239166259766e+00 1.018683791160583496e+00
3.687000000000000000e+03 4.943824386596679688e+01 -1.564699554443359375e+01 6.951285600662231445e-01 8.726050376892089844e+00 2.826353549957275391e+00 -9.610731005668640137e-01
3.688000000000000000e+03 4.785617828369140625e+01 -1.810756111145019531e+01 9.103817865252494812e-03 8.783418655395507812e+00 2.637756824493408203e+00 -6.638589501380920410e-01
3.689000000000000000e+03 4.498215866088867188e+01 2.590257883071899414e+00 3.880850672721862793e-01 9.334901809692382812e+00 2.916896104812622070e+00 6.439000368118286133e-01
3.690000000000000000e+03 4.699872207641601562e+01 2.112508296966552734e+00 7.631878256797790527e-01 9.040684700012207031e+00 2.941161632537841797e+00 9.605706930160522461e-01
3.691000000000000000e+03 4.900200271606445312e+01 2.224577903747558594e+00 8.577585816383361816e-01 8.669501304626464844e+00 2.858177900314331055e+00 1.045713901519775391e+00
3.692000000000000000e+03 4.312613296508789062e+01 3.373033761978149414e+00 -5.844222009181976318e-02 9.247782707214355469e+00 2.756802320480346680e+00 4.371841996908187866e-02
3.693000000000000000e+03 4.835258102416992188e+01 -1.568333816528320312e+01 6.024391055107116699e-01 8.914973258972167969e+00 2.855223655700683594e+00 -9.320713877677917480e-01
3.694000000000000000e+03 4.802735519409179688e+01 2.070822715759277344e+00 8.682525753974914551e-01 8.875426292419433594e+00 2.923103570938110352e+00 1.043658137321472168e+00
3.695000000000000000e+03 4.328574371337890625e+01 4.909157752990722656e+00 -2.390989065170288086e-01 8.829981803894042969e+00 2.577264785766601562e+00 -4.805357009172439575e-02
3.696000000000000000e+03 4.626955032348632812e+01 7.214823722839355469e+00 -2.741624414920806885e-01 8.435738563537597656e+00 2.448472738265991211e+00 3.910312056541442871e-01
3.697000000000000000e+03 5.278886795043945312e+01 5.452344417572021484e+00 3.708664774894714355e-01 8.199698448181152344e+00 2.571169614791870117e+00 9.910681843757629395e-01
3.698000000000000000e+03 4.928485488891601562e+01 -1.290945529937744141e+01 1.472327709197998047e+00 8.688980102539062500e+00 3.048392295837402344e+00 -1.008469462394714355e+00
3.699000000000000000e+03 4.543421554565429688e+01 8.540970802307128906e+00 -4.547769129276275635e-01 8.185996055603027344e+00 2.319365978240966797e+00 1.615971028804779053e-01
3.700000000000000000e+03 4.562527847290039062e+01 1.104555225372314453e+01 -5.913459658622741699e-01 7.831235408782958984e+00 2.171966791152954102e+00 9.334757924079895020e-02
3.701000000000000000e+03 4.430681228637695312e+01 7.600105762481689453e+00 -4.399245679378509521e-01 8.285397529602050781e+00 2.353641748428344727e+00 8.346859365701675415e-03
3.702000000000000000e+03 4.417042160034179688e+01 5.671805858612060547e+00 -2.660159170627593994e-01 8.678774833679199219e+00 2.523827552795410156e+00 1.072346195578575134e-01
3.703000000000000000e+03 4.440329360961914062e+01 3.200900077819824219e+00 1.286024898290634155e-01 9.254431724548339844e+00 2.814910173416137695e+00 3.972730338573455811e-01
3.704000000000000000e+03 4.391742324829101562e+01 4.032308578491210938e+00 -6.298884004354476929e-02 9.084496498107910156e+00 2.706452131271362305e+00 1.948300749063491821e-01
3.705000000000000000e+03 4.901748275756835938e+01 1.280485510826110840e+00 1.106814503669738770e+00 8.665645599365234375e+00 2.931737899780273438e+00 1.064984440803527832e+00
3.706000000000000000e+03 4.978445434570312500e+01 8.890495896339416504e-01 1.250402569770812988e+00 8.544349670410156250e+00 2.938425779342651367e+00 1.081307649612426758e+00
3.707000000000000000e+03 4.932293319702148438e+01 -1.706934165954589844e+01 3.116566836833953857e-01 8.703268051147460938e+00 2.704477310180664062e+00 -8.393388390541076660e-01
3.708000000000000000e+03 5.046229553222656250e+01 -1.585030174255371094e+01 7.007772922515869141e-01 8.572712898254394531e+00 2.782047033309936523e+00 -9.448860287666320801e-01
3.709000000000000000e+03 4.587133789062500000e+01 5.307279586791992188e+00 -5.367734655737876892e-02 8.749645233154296875e+00 2.608790397644042969e+00 4.846618473529815674e-01
3.710000000000000000e+03 5.010894775390625000e+01 2.548204183578491211e+00 8.286620974540710449e-01 8.526586532592773438e+00 2.806574583053588867e+00 1.053627252578735352e+00
3.711000000000000000e+03 4.818959426879882812e+01 1.003065586090087891e+01 -4.159183204174041748e-01 8.059082984924316406e+00 2.292949438095092773e+00 4.433735907077789307e-01
3.712000000000000000e+03 4.752271270751953125e+01 7.890673160552978516e+00 -2.514220476150512695e-01 8.334343910217285156e+00 2.424876689910888672e+00 5.143012404441833496e-01
3.713000000000000000e+03 5.127468490600585938e+01 5.492101669311523438e+00 3.078888058662414551e-01 8.326537132263183594e+00 2.590327978134155273e+00 9.617059826850891113e-01
3.714000000000000000e+03 5.137726211547851562e+01 3.900917768478393555e+00 5.983432531356811523e-01 8.342141151428222656e+00 2.682145118713378906e+00 1.022070169448852539e+00
3.715000000000000000e+03 5.741474533081054688e+01 4.902562141418457031e+00 4.668573439121246338e-01 7.897038936614990234e+00 2.509168863296508789e+00 9.615315794944763184e-01
3.716000000000000000e+03 5.595766448974609375e+01 5.193373680114746094e+00 4.441281557083129883e-01 7.981510639190673828e+00 2.527691602706909180e+00 9.894965291023254395e-01
3.717000000000000000e+03 4.382306289672851562e+01 1.502979660034179688e+01 -7.233247160911560059e-01 7.058975219726562500e+00 1.900695204734802246e+00 -2.093670815229415894e-01
3.718000000000000000e+03 4.484331512451171875e+01 1.645551490783691406e+01 -7.468727231025695801e-01 7.062648296356201172e+00 1.894732713699340820e+00 -1.118641793727874756e-01
3.719000000000000000e+03 4.529338836669921875e+01 1.382673263549804688e+01 -6.847271323204040527e-01 7.434703350067138672e+00 2.024992942810058594e+00 -1.746942475438117981e-02
3.720000000000000000e+03 4.674412536621093750e+01 9.484379768371582031e+00 -4.549187421798706055e-01 8.119156837463378906e+00 2.299271345138549805e+00 3.100278079509735107e-01
3.721000000000000000e+03 4.515625381469726562e+01 6.448069095611572266e+00 -2.786631882190704346e-01 8.551206588745117188e+00 2.481763124465942383e+00 2.456860989332199097e-01
3.722000000000000000e+03 4.486113357543945312e+01 4.628078460693359375e+00 -5.548719689249992371e-02 8.918529510498046875e+00 2.658912658691406250e+00 3.635703921318054199e-01
3.723000000000000000e+03 4.618523406982421875e+01 3.426237583160400391e+00 2.902724742889404297e-01 8.995545387268066406e+00 2.785745382308959961e+00 6.997054219245910645e-01
3.724000000000000000e+03 4.741738128662109375e+01 4.987520694732666016e+00 1.158858239650726318e-01 8.691707611083984375e+00 2.642278194427490234e+00 7.165578603744506836e-01
3.725000000000000000e+03 4.813868331909179688e+01 6.507988929748535156e+00 -5.605542659759521484e-02 8.474913597106933594e+00 2.525657415390014648e+00 6.733711957931518555e-01
3.726000000000000000e+03 5.174211883544921875e+01 1.009851837158203125e+01 -2.210637927055358887e-01 8.072242736816406250e+00 2.355353832244873047e+00 7.466279268264770508e-01
3.727000000000000000e+03 5.803339767456054688e+01 6.070735454559326172e+00 3.384690284729003906e-01 7.895499706268310547e+00 2.470190763473510742e+00 9.643176794052124023e-01
3.728000000000000000e+03 5.434703445434570312e+01 7.011392593383789062e+00 2.021283209323883057e-01 8.073878288269042969e+00 2.482801914215087891e+00 9.633603096008300781e-01
3.729000000000000000e+03 4.660372161865234375e+01 4.431422233581542969e+00 1.468797773122787476e-01 8.833884239196777344e+00 2.694229125976562500e+00 6.629974246025085449e-01
3.730000000000000000e+03 5.436073303222656250e+01 5.310817718505859375e+00 4.080872535705566406e-01 8.081729888916015625e+00 2.546945333480834961e+00 9.981538057327270508e-01
3.731000000000000000e+03 5.272348022460937500e+01 7.277874469757080078e+00 9.948871284723281860e-02 8.163709640502929688e+00 2.478959560394287109e+00 9.209896922111511230e-01
3.732000000000000000e+03 5.733558654785156250e+01 7.450512886047363281e+00 2.134787440299987793e-01 7.933587551116943359e+00 2.444119930267333984e+00 9.626193642616271973e-01
3.733000000000000000e+03 4.692905044555664062e+01 6.005523681640625000e+00 -6.517684459686279297e-02 8.586961746215820312e+00 2.556535482406616211e+00 5.757247805595397949e-01
3.734000000000000000e+03 4.723477935791015625e+01 3.145845651626586914e+00 4.715919196605682373e-01 8.909223556518554688e+00 2.814244508743286133e+00 8.689590096473693848e-01
3.735000000000000000e+03 4.950193786621093750e+01 6.905149459838867188e+00 -1.706033013761043549e-02 8.359434127807617188e+00 2.502712011337280273e+00 7.662569880485534668e-01
3.736000000000000000e+03 4.947800827026367188e+01 1.056583881378173828e+01 -3.803147971630096436e-01 8.042346000671386719e+00 2.298609495162963867e+00 5.627556443214416504e-01
3.737000000000000000e+03 4.853297805786132812e+01 5.219609737396240234e+00 1.749155223369598389e-01 8.570678710937500000e+00 2.623678445816040039e+00 8.054544329643249512e-01
3.738000000000000000e+03 4.940050888061523438e+01 1.308128452301025391e+01 -5.434283614158630371e-01 7.820624351501464844e+00 2.183158636093139648e+00 4.304332137107849121e-01
3.739000000000000000e+03 4.984258651733398438e+01 5.387560844421386719e+00 2.338516116142272949e-01 8.445248603820800781e+00 2.603729963302612305e+00 8.921858668327331543e-01
3.740000000000000000e+03 4.749950027465820312e+01 4.086018085479736328e+00 3.087142407894134521e-01 8.802930831909179688e+00 2.733493566513061523e+00 8.170266151428222656e-01
3.741000000000000000e+03 5.041105651855468750e+01 9.046619415283203125e+00 -2.083150744438171387e-01 8.156880378723144531e+00 2.384569644927978516e+00 7.162398695945739746e-01
3.742000000000000000e+03 5.564419555664062500e+01 8.586833000183105469e+00 6.741198152303695679e-02 7.993658065795898438e+00 2.418321132659912109e+00 9.387126564979553223e-01
3.743000000000000000e+03 5.282844543457031250e+01 1.136223125457763672e+01 -2.817894816398620605e-01 7.986201286315917969e+00 2.311323404312133789e+00 7.490473389625549316e-01
3.744000000000000000e+03 5.956092453002929688e+01 1.018280410766601562e+01 1.286683324724435806e-02 7.875947952270507812e+00 2.366644382476806641e+00 9.220085144042968750e-01
3.745000000000000000e+03 5.631522750854492188e+01 1.077507591247558594e+01 -1.153515577316284180e-01 7.951777935028076172e+00 2.350927829742431641e+00 8.822621107101440430e-01
3.746000000000000000e+03 5.505756759643554688e+01 9.832214355468750000e+00 -8.495263755321502686e-02 8.008357048034667969e+00 2.377021312713623047e+00 8.893435001373291016e-01
3.747000000000000000e+03 5.823017120361328125e+01 9.711341857910156250e+00 3.080237098038196564e-02 7.910043716430664062e+00 2.382253885269165039e+00 9.345256090164184570e-01
3.748000000000000000e+03 5.571602630615234375e+01 1.262006568908691406e+01 -2.547223269939422607e-01 7.910252571105957031e+00 2.296659231185913086e+00 8.058530092239379883e-01
3.749000000000000000e+03 5.105126190185546875e+01 7.271440505981445312e+00 2.835652790963649750e-02 8.252532958984375000e+00 2.484266757965087891e+00 8.543326854705810547e-01
3.750000000000000000e+03 5.189095306396484375e+01 1.276386070251464844e+01 -4.099326133728027344e-01 7.920328617095947266e+00 2.253118753433227539e+00 6.404412388801574707e-01
3.751000000000000000e+03 5.061790466308593750e+01 1.161679935455322266e+01 -4.041235148906707764e-01 7.992103099822998047e+00 2.276393890380859375e+00 6.018397212028503418e-01
3.752000000000000000e+03 5.445075225830078125e+01 8.552459716796875000e+00 3.050877526402473450e-02 8.057506561279296875e+00 2.426404714584350586e+00 9.215207695960998535e-01
3.753000000000000000e+03 5.308106613159179688e+01 9.039975166320800781e+00 -6.906400620937347412e-02 8.095043182373046875e+00 2.407793760299682617e+00 8.615146875381469727e-01
3.754000000000000000e+03 5.076610946655273438e+01 1.440930652618408203e+01 -5.421891212463378906e-01 7.780881404876708984e+00 2.171607732772827148e+00 4.863603115081787109e-01
3.755000000000000000e+03 5.392286682128906250e+01 1.055362892150878906e+01 -1.758697628974914551e-01 7.994524955749511719e+00 2.345596551895141602e+00 8.206282258033752441e-01
3.756000000000000000e+03 5.787962341308593750e+01 1.139793014526367188e+01 -1.166975051164627075e-01 7.907474040985107422e+00 2.337232828140258789e+00 8.843415975570678711e-01
3.757000000000000000e+03 5.409572982788085938e+01 1.207956314086914062e+01 -2.813299894332885742e-01 7.942955017089843750e+00 2.298487424850463867e+00 7.730594277381896973e-01
3.758000000000000000e+03 5.708793258666992188e+01 1.544062614440917969e+01 -3.498045206069946289e-01 7.835953712463378906e+00 2.245844841003417969e+00 7.467752099037170410e-01
3.759000000000000000e+03 3.804526519775390625e+01 -2.753335571289062500e+01 -6.183129549026489258e-01 6.047348499298095703e+00 1.628710746765136719e+00 8.107343316078186035e-01
3.760000000000000000e+03 5.966276168823242188e+01 -7.477459430694580078e+00 1.150997161865234375e+00 7.536834239959716797e+00 2.606349468231201172e+00 -3.730827197432518005e-02
3.761000000000000000e+03 2.558257293701171875e+01 -2.186051750183105469e+01 3.384525775909423828e-01 1.716668963432312012e+00 6.165364980697631836e-01 6.782726645469665527e-01
3.762000000000000000e+03 2.404493713378906250e+01 -2.810531616210937500e+01 2.233585864305496216e-01 1.946192860603332520e+00 6.508654356002807617e-01 5.307784080505371094e-01
3.763000000000000000e+03 2.087483978271484375e+01 -2.862889289855957031e+01 2.679825425148010254e-01 1.263248085975646973e+00 4.593691825866699219e-01 2.901475727558135986e-01
3.764000000000000000e+03 1.026298904418945312e+01 3.748686218261718750e+01 6.833497434854507446e-02 3.532145917415618896e-01 1.264648735523223877e-01 3.417298197746276855e-02
3.765000000000000000e+03 1.361476802825927734e+01 3.411838912963867188e+01 9.670326113700866699e-02 7.501872181892395020e-01 2.540671527385711670e-01 -3.355584666132926941e-02
3.766000000000000000e+03 3.645557022094726562e+01 1.772566986083984375e+01 -5.410158038139343262e-01 5.220441341400146484e+00 1.403827667236328125e+00 -7.959201335906982422e-01
3.767000000000000000e+03 4.076767730712890625e+01 1.757865905761718750e+01 -7.012650966644287109e-01 6.257376194000244141e+00 1.666833400726318359e+00 -4.885081052780151367e-01
3.768000000000000000e+03 6.729830932617187500e+01 -3.729460525512695312e+01 -3.102470934391021729e-01 7.848785877227783203e+00 2.261561632156372070e+00 -2.096971124410629272e-01
3.769000000000000000e+03 5.390563964843750000e+01 -2.733913612365722656e+01 -5.615376234054565430e-01 8.010449409484863281e+00 2.234673500061035156e+00 -4.929559230804443359e-01
3.770000000000000000e+03 5.202165222167968750e+01 -2.452268028259277344e+01 -4.756633639335632324e-01 8.147131919860839844e+00 2.301440715789794922e+00 -5.448827743530273438e-01
3.771000000000000000e+03 3.212222290039062500e+01 -2.858207511901855469e+01 -2.004216015338897705e-01 4.187801361083984375e+00 1.196213960647583008e+00 8.657526969909667969e-01
3.772000000000000000e+03 6.716148376464843750e+01 -3.088219261169433594e+01 -2.272186577320098877e-01 7.787612438201904297e+00 2.268118143081665039e+00 -4.360417127609252930e-01
3.773000000000000000e+03 3.094824600219726562e+01 2.119202804565429688e+01 -3.255896568298339844e-01 3.800851583480834961e+00 1.042578577995300293e+00 -7.984194755554199219e-01
3.774000000000000000e+03 4.138391494750976562e+01 1.477552604675292969e+01 -7.002841234207153320e-01 6.655195236206054688e+00 1.786473393440246582e+00 -4.964339137077331543e-01
3.775000000000000000e+03 5.930269241333007812e+01 -2.394874572753906250e+01 -1.695506870746612549e-01 7.930676460266113281e+00 2.328337669372558594e+00 -6.915332078933715820e-01
3.776000000000000000e+03 2.533492469787597656e+01 2.850204849243164062e+01 -1.405621320009231567e-01 2.541135311126708984e+00 7.201719284057617188e-01 -4.232769608497619629e-01
3.777000000000000000e+03 4.731353378295898438e+01 -2.570777702331542969e+01 -7.452349662780761719e-01 7.909383773803710938e+00 2.149244546890258789e+00 -1.195654422044754028e-01
3.778000000000000000e+03 6.288286972045898438e+01 -2.577419471740722656e+01 -1.929916292428970337e-01 7.822886943817138672e+00 2.288968563079833984e+00 -6.246027350425720215e-01
3.779000000000000000e+03 6.667054748535156250e+01 3.294194412231445312e+01 -2.398957759141921997e-01 8.108803749084472656e+00 2.360672473907470703e+00 2.820150554180145264e-01
3.780000000000000000e+03 6.198143005371093750e+01 -3.222963333129882812e+01 -4.545938968658447266e-01 7.874935150146484375e+00 2.226102352142333984e+00 -4.293682277202606201e-01
3.781000000000000000e+03 8.291552543640136719e+00 3.628626632690429688e+01 6.654070317745208740e-02 1.527810990810394287e-01 6.579653918743133545e-02 5.551393702626228333e-02
3.782000000000000000e+03 2.016065025329589844e+01 3.006453704833984375e+01 2.902460284531116486e-02 1.613135695457458496e+00 4.926480650901794434e-01 -2.697826027870178223e-01
3.783000000000000000e+03 1.163273715972900391e+01 -3.450044631958007812e+01 2.192000895738601685e-01 7.814112305641174316e-02 8.920235931873321533e-02 -1.036190688610076904e-01
3.784000000000000000e+03 5.951138687133789062e+01 1.168739891052246094e+01 -8.833182603120803833e-02 7.876360416412353516e+00 2.336408615112304688e+00 8.881387710571289062e-01
3.785000000000000000e+03 5.755362319946289062e+01 1.328875637054443359e+01 -2.304292470216751099e-01 7.886669635772705078e+00 2.296872138977050781e+00 8.308097720146179199e-01
3.786000000000000000e+03 1.415783500671386719e+01 -2.595208740234375000e+01 2.292408943176269531e-01 -2.990697138011455536e-02 5.980017408728599548e-02 -1.412859261035919189e-01
3.787000000000000000e+03 5.932232284545898438e+01 1.592176914215087891e+01 -2.978637516498565674e-01 7.837822437286376953e+00 2.261987686157226562e+00 7.726493477821350098e-01
3.788000000000000000e+03 1.535995674133300781e+01 2.787122726440429688e+01 9.846617281436920166e-02 7.437044978141784668e-01 2.526512145996093750e-01 -1.082003340125083923e-01
3.789000000000000000e+03 7.214975738525390625e+01 3.303277587890625000e+01 -1.044302657246589661e-01 8.476097106933593750e+00 2.511500120162963867e+00 2.175766229629516602e-01
3.790000000000000000e+03 8.211131095886230469e+00 -4.094329833984375000e+01 1.089821159839630127e-01 -3.117156028747558594e-01 -6.082004308700561523e-02 -4.236621037125587463e-02
3.791000000000000000e+03 4.792036437988281250e+01 1.453244781494140625e+01 -6.477228403091430664e-01 7.592456340789794922e+00 2.083420038223266602e+00 2.386989593505859375e-01
3.792000000000000000e+03 4.664487075805664062e+01 2.078483772277832031e+01 -7.440588474273681641e-01 6.934848308563232422e+00 1.857236862182617188e+00 2.357916347682476044e-02
3.793000000000000000e+03 1.233073520660400391e+01 3.168951034545898438e+01 1.109256818890571594e-01 5.314763188362121582e-01 1.927206069231033325e-01 -1.328511908650398254e-02
3.794000000000000000e+03 2.315993309020996094e+01 2.752833557128906250e+01 -5.910311639308929443e-02 2.020621299743652344e+00 5.884554386138916016e-01 -4.548465609550476074e-01
3.795000000000000000e+03 5.237374496459960938e+01 1.554059410095214844e+01 -5.250343680381774902e-01 7.752620220184326172e+00 2.168275594711303711e+00 5.526396632194519043e-01
3.796000000000000000e+03 5.119437408447265625e+01 1.752011680603027344e+01 -6.191365718841552734e-01 7.568003654479980469e+00 2.084660053253173828e+00 4.064351916313171387e-01
3.797000000000000000e+03 2.638118362426757812e+01 2.543850898742675781e+01 -1.756306290626525879e-01 2.740081787109375000e+00 7.693353295326232910e-01 -5.559737086296081543e-01
3.798000000000000000e+03 2.885892295837402344e+01 2.185537528991699219e+01 -2.312552183866500854e-01 3.193439483642578125e+00 8.886552453041076660e-01 -7.421036958694458008e-01
3.799000000000000000e+03 1.432314300537109375e+01 -3.288864898681640625e+01 2.594172656536102295e-01 3.296362459659576416e-01 1.767160594463348389e-01 -6.480717658996582031e-02
3.800000000000000000e+03 6.639379882812500000e+01 2.936681556701660156e+01 -2.567173540592193604e-01 8.070351600646972656e+00 2.344090223312377930e+00 3.926930427551269531e-01
3.801000000000000000e+03 8.524088859558105469e+00 4.068232727050781250e+01 4.882770031690597534e-02 1.769088357686996460e-01 6.772095710039138794e-02 1.935596205294132233e-02
3.802000000000000000e+03 1.619123840332031250e+01 -3.528769683837890625e+01 2.477868646383285522e-01 7.013011574745178223e-01 2.847264111042022705e-01 1.016316935420036316e-02
3.803000000000000000e+03 1.275683593750000000e+01 -3.732238006591796875e+01 2.070673853158950806e-01 2.979403734207153320e-01 1.515023261308670044e-01 -5.152717232704162598e-02
3.804000000000000000e+03 2.350089454650878906e+01 -3.760600662231445312e+01 7.785528153181076050e-02 2.189173698425292969e+00 6.801087260246276855e-01 1.649005413055419922e-01
3.805000000000000000e+03 4.124689102172851562e+01 -3.729289245605468750e+01 -8.307291269302368164e-01 6.305266857147216797e+00 1.642361283302307129e+00 1.726484596729278564e-01
3.806000000000000000e+03 3.683750152587890625e+01 -3.767943572998046875e+01 -6.346345543861389160e-01 5.367093086242675781e+00 1.419737577438354492e+00 2.600787580013275146e-01
3.807000000000000000e+03 4.550226974487304688e+01 -3.647126770019531250e+01 -9.255653023719787598e-01 7.024243831634521484e+00 1.829603552818298340e+00 6.091427057981491089e-02
3.808000000000000000e+03 4.332992553710937500e+01 3.667930221557617188e+01 -6.256687641143798828e-01 5.774903297424316406e+00 1.544770359992980957e+00 -6.757034361362457275e-02
3.809000000000000000e+03 4.768560409545898438e+01 3.703724288940429688e+01 -6.509024500846862793e-01 6.348185062408447266e+00 1.709184885025024414e+00 1.680696569383144379e-02
3.810000000000000000e+03 3.664573669433593750e+01 3.631636810302734375e+01 -5.091517567634582520e-01 4.732123851776123047e+00 1.266891598701477051e+00 -1.682116538286209106e-01
3.811000000000000000e+03 6.094658279418945312e+01 -3.667987823486328125e+01 -5.595424175262451172e-01 7.870374202728271484e+00 2.193249464035034180e+00 -2.428705990314483643e-01
3.812000000000000000e+03 5.671618270874023438e+01 3.715171432495117188e+01 -5.227246284484863281e-01 7.328797340393066406e+00 2.041821718215942383e+00 1.252683997154235840e-01
3.813000000000000000e+03 6.117081069946289062e+01 3.668651962280273438e+01 -4.069488048553466797e-01 7.709385395050048828e+00 2.190731048583984375e+00 1.623336225748062134e-01
3.814000000000000000e+03 6.779535675048828125e+01 3.722504425048828125e+01 -2.148084789514541626e-01 8.179503440856933594e+00 2.389408349990844727e+00 1.498883366584777832e-01
3.815000000000000000e+03 7.178749847412109375e+01 -4.095702362060546875e+01 -1.428466886281967163e-01 7.873722076416015625e+00 2.319262504577636719e+00 -4.899723082780838013e-02
3.816000000000000000e+03 1.835024452209472656e+01 3.708299636840820312e+01 3.100471571087837219e-02 1.438434362411499023e+00 4.408317208290100098e-01 -9.033881127834320068e-02
3.817000000000000000e+03 2.293353271484375000e+01 3.717824172973632812e+01 -6.836221367120742798e-02 2.220072507858276367e+00 6.455131173133850098e-01 -1.424325853586196899e-01
3.818000000000000000e+03 1.395499801635742188e+01 3.727222824096679688e+01 6.489290297031402588e-02 8.265959620475769043e-01 2.674466669559478760e-01 -2.011676505208015442e-02
3.819000000000000000e+03 5.337123489379882812e+01 1.375232887268066406e+01 -4.027540981769561768e-01 7.868646621704101562e+00 2.239767789840698242e+00 6.758202910423278809e-01
3.820000000000000000e+03 4.956132507324218750e+01 -2.632724761962890625e+01 -6.926047205924987793e-01 7.997381687164306641e+00 2.191432952880859375e+00 -3.118812441825866699e-01
3.821000000000000000e+03 3.471146774291992188e+01 2.058908462524414062e+01 -4.779115915298461914e-01 4.622103691101074219e+00 1.243257641792297363e+00 -7.552546858787536621e-01
3.822000000000000000e+03 6.155876541137695312e+01 -2.678927040100097656e+01 -2.643935680389404297e-01 7.861283302307128906e+00 2.279066801071166992e+00 -6.044158935546875000e-01
3.823000000000000000e+03 6.349109649658203125e+01 2.351957130432128906e+01 -3.248077332973480225e-01 7.884893417358398438e+00 2.268025636672973633e+00 5.809690356254577637e-01
3.824000000000000000e+03 6.335054016113281250e+01 2.086760902404785156e+01 -3.008646070957183838e-01 7.880532741546630859e+00 2.273900508880615234e+00 6.560642719268798828e-01
3.825000000000000000e+03 1.456288337707519531e+01 -2.908297729492187500e+01 2.842214107513427734e-01 1.797617524862289429e-01 1.391949504613876343e-01 -8.101585507392883301e-02
3.826000000000000000e+03 2.654113388061523438e+01 -2.670027923583984375e+01 1.892587542533874512e-01 2.444969415664672852e+00 7.902684211730957031e-01 7.178709506988525391e-01
3.827000000000000000e+03 5.495763778686523438e+01 1.952803611755371094e+01 -5.396820902824401855e-01 7.636982917785644531e+00 2.129190206527709961e+00 5.372814536094665527e-01
3.828000000000000000e+03 3.998683929443359375e+01 2.071532058715820312e+01 -6.804364919662475586e-01 5.854774475097656250e+00 1.552301406860351562e+00 -4.687359333038330078e-01
3.829000000000000000e+03 2.308858108520507812e+01 -2.565068626403808594e+01 2.746786773204803467e-01 1.505324602127075195e+00 5.340009927749633789e-01 5.000665783882141113e-01
3.830000000000000000e+03 4.185606384277343750e+01 1.935022163391113281e+01 -7.227148413658142090e-01 6.310918807983398438e+00 1.676461100578308105e+00 -3.646793365478515625e-01
3.831000000000000000e+03 4.907991790771484375e+01 -2.846902084350585938e+01 -7.819277644157409668e-01 7.865080356597900391e+00 2.124945878982543945e+00 -2.126485258340835571e-01
3.832000000000000000e+03 6.434742736816406250e+01 2.880833435058593750e+01 -3.167832493782043457e-01 7.924469470977783203e+00 2.282305955886840820e+00 4.239647090435028076e-01
3.833000000000000000e+03 6.404655456542968750e+01 2.625795173645019531e+01 -3.258736133575439453e-01 7.914331436157226562e+00 2.276537418365478516e+00 4.915650784969329834e-01
3.834000000000000000e+03 6.249735260009765625e+01 -2.868298530578613281e+01 -3.111193180084228516e-01 7.851583003997802734e+00 2.262139081954956055e+00 -5.532032847404479980e-01
3.835000000000000000e+03 6.400429534912109375e+01 -3.515130996704101562e+01 -4.156308770179748535e-01 7.858072280883789062e+00 2.232732534408569336e+00 -3.016200363636016846e-01
3.836000000000000000e+03 4.800846862792968750e+01 1.842446136474609375e+01 -7.115184664726257324e-01 7.265521049499511719e+00 1.966200828552246094e+00 1.577931642532348633e-01
3.837000000000000000e+03 4.628118896484375000e+01 1.552520656585693359e+01 -7.019618153572082520e-01 7.355944156646728516e+00 1.996194720268249512e+00 6.920576095581054688e-02
3.838000000000000000e+03 5.307752227783203125e+01 1.859489631652832031e+01 -5.763886570930480957e-01 7.605415344238281250e+00 2.108707904815673828e+00 4.806452989578247070e-01
3.839000000000000000e+03 3.181371307373046875e+01 2.403484916687011719e+01 -3.673552572727203369e-01 3.833380937576293945e+00 1.039807677268981934e+00 -6.540018916130065918e-01
3.840000000000000000e+03 5.946682357788085938e+01 1.816586685180664062e+01 -3.667661845684051514e-01 7.804451465606689453e+00 2.231305599212646484e+00 7.073030471801757812e-01
3.841000000000000000e+03 3.626070022583007812e+01 -3.440705490112304688e+01 -5.819299221038818359e-01 5.301942348480224609e+00 1.416003704071044922e+00 4.499526619911193848e-01
3.842000000000000000e+03 5.606563949584960938e+01 -2.753960037231445312e+01 -4.888794124126434326e-01 7.993063449859619141e+00 2.251255273818969727e+00 -5.488649606704711914e-01
3.843000000000000000e+03 1.925374603271484375e+01 3.332966613769531250e+01 2.920549362897872925e-02 1.498794078826904297e+00 4.583998918533325195e-01 -1.697138100862503052e-01
3.844000000000000000e+03 5.956753540039062500e+01 1.362483692169189453e+01 -1.928543895483016968e-01 7.867362976074218750e+00 2.302352428436279297e+00 8.462601304054260254e-01
3.845000000000000000e+03 3.903267288208007812e+01 -3.060593605041503906e+01 -7.106443047523498535e-01 6.132711887359619141e+00 1.626620292663574219e+00 5.560378432273864746e-01
3.846000000000000000e+03 4.010616683959960938e+01 -3.387267303466796875e+01 -7.715555429458618164e-01 6.201580047607421875e+00 1.629007339477539062e+00 3.453978300094604492e-01
3.847000000000000000e+03 6.143222045898437500e+01 2.043508720397949219e+01 -3.584473431110382080e-01 7.829813480377197266e+00 2.241409778594970703e+00 6.602213382720947266e-01
3.848000000000000000e+03 5.765393447875976562e+01 1.880201339721679688e+01 -4.373051524162292480e-01 7.760805606842041016e+00 2.197050094604492188e+00 6.550145745277404785e-01
3.849000000000000000e+03 2.329212760925292969e+01 3.340874862670898438e+01 -8.009464293718338013e-02 2.230251789093017578e+00 6.450471282005310059e-01 -2.484857439994812012e-01
3.850000000000000000e+03 2.834619522094726562e+01 -3.118855667114257812e+01 -2.111913822591304779e-02 3.132430076599121094e+00 9.333932995796203613e-01 6.107976436614990234e-01
3.851000000000000000e+03 2.087254142761230469e+01 -3.391773223876953125e+01 2.184453606605529785e-01 1.523996472358703613e+00 5.227325558662414551e-01 2.149471342563629150e-01
3.852000000000000000e+03 5.865333175659179688e+01 -3.018727493286132812e+01 -5.112366080284118652e-01 7.908564090728759766e+00 2.219198226928710938e+00 -4.903433024883270264e-01
3.853000000000000000e+03 6.458596038818359375e+01 3.514754104614257812e+01 -3.071044087409973145e-01 7.947768211364746094e+00 2.292199134826660156e+00 2.205938845872879028e-01
3.854000000000000000e+03 5.319041061401367188e+01 -3.315001296997070312e+01 -7.855132818222045898e-01 7.782948017120361328e+00 2.099230527877807617e+00 -2.454698830842971802e-01
3.855000000000000000e+03 3.791345977783203125e+01 2.193448638916015625e+01 -6.191163063049316406e-01 5.330368041992187500e+00 1.413375496864318848e+00 -5.619680881500244141e-01
3.856000000000000000e+03 4.699529266357421875e+01 -2.805174827575683594e+01 -8.212651014328002930e-01 7.679611206054687500e+00 2.057503700256347656e+00 -4.305224120616912842e-02
3.857000000000000000e+03 5.817581939697265625e+01 -2.738113212585449219e+01 -3.876419067382812500e-01 7.945115566253662109e+00 2.267242193222045898e+00 -5.910294055938720703e-01
3.858000000000000000e+03 6.073484802246093750e+01 -2.959725570678710938e+01 -4.085832238197326660e-01 7.890693664550781250e+00 2.244633197784423828e+00 -5.282955765724182129e-01
3.859000000000000000e+03 2.117689895629882812e+01 -3.127443504333496094e+01 2.394021004438400269e-01 1.431501626968383789e+00 5.012711286544799805e-01 2.706128060817718506e-01
3.860000000000000000e+03 3.773587036132812500e+01 2.835098075866699219e+01 -5.632389783859252930e-01 5.067065715789794922e+00 1.351148009300231934e+00 -3.541980385780334473e-01
3.861000000000000000e+03 4.499963760375976562e+01 2.303895378112792969e+01 -7.421444058418273926e-01 6.559499263763427734e+00 1.745206475257873535e+00 -8.944480121135711670e-02
3.862000000000000000e+03 5.198814010620117188e+01 2.086605644226074219e+01 -6.447101831436157227e-01 7.420298099517822266e+00 2.032676458358764648e+00 3.572129309177398682e-01
3.863000000000000000e+03 3.147266387939453125e+01 2.659897804260253906e+01 -3.513671755790710449e-01 3.797191858291625977e+00 1.033747434616088867e+00 -5.520666837692260742e-01
3.864000000000000000e+03 6.034011077880859375e+01 2.189846229553222656e+01 -3.937184214591979980e-01 7.774313449859619141e+00 2.214178562164306641e+00 6.065841913223266602e-01
3.865000000000000000e+03 5.665632629394531250e+01 2.029552841186523438e+01 -4.950762987136840820e-01 7.680431365966796875e+00 2.155606508255004883e+00 5.734831690788269043e-01
3.866000000000000000e+03 5.612170791625976562e+01 1.752655410766601562e+01 -4.495667815208435059e-01 7.757155895233154297e+00 2.192276716232299805e+00 6.483018398284912109e-01
3.867000000000000000e+03 5.579471206665039062e+01 2.735458183288574219e+01 -5.762270092964172363e-01 7.419301509857177734e+00 2.052922487258911133e+00 3.463006615638732910e-01
3.868000000000000000e+03 5.218857574462890625e+01 3.719993591308593750e+01 -6.180470585823059082e-01 6.892785072326660156e+00 1.882421374320983887e+00 6.064848229289054871e-02
3.869000000000000000e+03 5.123159790039062500e+01 -2.941360092163085938e+01 -7.505517005920410156e-01 7.884828567504882812e+00 2.140283107757568359e+00 -2.962272763252258301e-01
3.870000000000000000e+03 5.646480941772460938e+01 -3.355926513671875000e+01 -6.851825118064880371e-01 7.844273090362548828e+00 2.147727251052856445e+00 -3.270366489887237549e-01
3.871000000000000000e+03 4.614867401123046875e+01 -3.164372253417968750e+01 -8.960946202278137207e-01 7.287698268890380859e+00 1.917481184005737305e+00 5.371051281690597534e-02
3.872000000000000000e+03 6.144204330444335938e+01 2.673529052734375000e+01 -4.081509411334991455e-01 7.770368576049804688e+00 2.208665370941162109e+00 4.691351652145385742e-01
3.873000000000000000e+03 4.491283798217773438e+01 1.937319564819335938e+01 -7.462717890739440918e-01 6.822005748748779297e+00 1.822720170021057129e+00 -9.850975871086120605e-02
3.874000000000000000e+03 3.276127243041992188e+01 2.193916702270507812e+01 -3.988026678562164307e-01 4.146515846252441406e+00 1.124313950538635254e+00 -7.449318766593933105e-01
3.875000000000000000e+03 3.369247055053710938e+01 2.385470390319824219e+01 -4.622160196304321289e-01 4.378479480743408203e+00 1.174878954887390137e+00 -6.387982368469238281e-01
3.876000000000000000e+03 6.189148330688476562e+01 2.942306709289550781e+01 -3.957534730434417725e-01 7.777273178100585938e+00 2.214455842971801758e+00 3.880824744701385498e-01
3.877000000000000000e+03 5.953291702270507812e+01 -3.322528457641601562e+01 -5.618277192115783691e-01 7.880896091461181641e+00 2.195720434188842773e+00 -3.881852924823760986e-01
3.878000000000000000e+03 3.220832061767578125e+01 -3.460844039916992188e+01 -3.275849521160125732e-01 4.239930629730224609e+00 1.173703789710998535e+00 4.856673777103424072e-01
3.879000000000000000e+03 2.748576927185058594e+01 3.712153625488281250e+01 -2.071282863616943359e-01 3.009541511535644531e+00 8.407239913940429688e-01 -1.696714758872985840e-01
3.880000000000000000e+03 3.234499740600585938e+01 -3.784298324584960938e+01 -3.741649389266967773e-01 4.285822391510009766e+00 1.173497319221496582e+00 2.776599824428558350e-01
3.881000000000000000e+03 5.236866378784179688e+01 -3.649716949462890625e+01 -8.677874207496643066e-01 7.635192394256591797e+00 2.030221462249755859e+00 -1.268983632326126099e-01
3.882000000000000000e+03 2.787053489685058594e+01 -3.781701660156250000e+01 -1.122629866003990173e-01 3.177055597305297852e+00 9.194377660751342773e-01 2.461837679147720337e-01
3.883000000000000000e+03 5.872644805908203125e+01 2.720073509216308594e+01 -4.927277863025665283e-01 7.614560127258300781e+00 2.136549711227416992e+00 4.159972667694091797e-01
3.884000000000000000e+03 5.834120559692382812e+01 2.236357498168945312e+01 -4.635670781135559082e-01 7.689600944519042969e+00 2.167810201644897461e+00 5.559143424034118652e-01
3.885000000000000000e+03 3.412541961669921875e+01 2.637125587463378906e+01 -4.623914659023284912e-01 4.387352943420410156e+00 1.177488446235656738e+00 -5.221797227859497070e-01
3.886000000000000000e+03 4.055179214477539062e+01 2.694731903076171875e+01 -6.570057868957519531e-01 5.633873939514160156e+00 1.493060350418090820e+00 -2.854980528354644775e-01
3.887000000000000000e+03 4.324744415283203125e+01 2.118336677551269531e+01 -7.381563782691955566e-01 6.411427497863769531e+00 1.701981306076049805e+00 -2.255273759365081787e-01
3.888000000000000000e+03 2.800148010253906250e+01 2.955282020568847656e+01 -2.238515913486480713e-01 3.067010402679443359e+00 8.529476523399353027e-01 -4.373579621315002441e-01
3.889000000000000000e+03 6.005496215820312500e+01 -2.721328735351562500e+01 -3.246518969535827637e-01 7.903486251831054688e+00 2.273650407791137695e+00 -6.034398674964904785e-01
3.890000000000000000e+03 5.581883621215820312e+01 3.035444450378417969e+01 -5.684861540794372559e-01 7.356921672821044922e+00 2.036530733108520508e+00 2.699778974056243896e-01
3.891000000000000000e+03 5.907651519775390625e+01 3.005130195617675781e+01 -4.814012050628662109e-01 7.593091487884521484e+00 2.133507013320922852e+00 3.394555151462554932e-01
3.892000000000000000e+03 1.807196044921875000e+01 -2.832966232299804688e+01 2.924953699111938477e-01 7.482286691665649414e-01 3.122172057628631592e-01 1.173803582787513733e-01
3.893000000000000000e+03 3.158138656616210938e+01 3.324182128906250000e+01 -3.522821962833404541e-01 3.823402881622314453e+00 1.041336178779602051e+00 -3.035420477390289307e-01
3.894000000000000000e+03 4.780239486694335938e+01 3.319548034667968750e+01 -6.635475158691406250e-01 6.441796779632568359e+00 1.733474731445312500e+00 1.355738565325737000e-02
3.895000000000000000e+03 4.525436019897460938e+01 2.763681411743164062e+01 -7.079356312751770020e-01 6.350617408752441406e+00 1.692804574966430664e+00 -7.566531002521514893e-02
3.896000000000000000e+03 3.668591690063476562e+01 2.554527473449707031e+01 -5.614461898803710938e-01 4.950235843658447266e+00 1.316636919975280762e+00 -4.736141264438629150e-01
3.897000000000000000e+03 5.338280487060546875e+01 2.423929023742675781e+01 -6.267073750495910645e-01 7.349682807922363281e+00 2.016892671585083008e+00 3.352947533130645752e-01
3.898000000000000000e+03 4.714654159545898438e+01 2.480457115173339844e+01 -7.235919237136840820e-01 6.750384330749511719e+00 1.808037638664245605e+00 2.607689425349235535e-02
3.899000000000000000e+03 4.976886367797851562e+01 2.621008491516113281e+01 -6.961594820022583008e-01 6.957360267639160156e+00 1.878360271453857422e+00 1.334059983491897583e-01
3.900000000000000000e+03 5.224598693847656250e+01 3.018198204040527344e+01 -6.359018087387084961e-01 7.040157794952392578e+00 1.921276807785034180e+00 1.884720027446746826e-01
3.901000000000000000e+03 5.026427078247070312e+01 -3.194747924804687500e+01 -8.470047116279602051e-01 7.710578918457031250e+00 2.059072256088256836e+00 -1.668584495782852173e-01
3.902000000000000000e+03 4.847338485717773438e+01 2.944878959655761719e+01 -6.818551421165466309e-01 6.649425029754638672e+00 1.790271043777465820e+00 4.425944387912750244e-02
3.903000000000000000e+03 3.466419219970703125e+01 2.932436180114746094e+01 -4.695061147212982178e-01 4.442000865936279297e+00 1.191748380661010742e+00 -4.109004437923431396e-01
3.904000000000000000e+03 5.091554260253906250e+01 2.339248657226562500e+01 -6.791546940803527832e-01 7.204844474792480469e+00 1.957706928253173828e+00 2.405050098896026611e-01
3.905000000000000000e+03 5.409631729125976562e+01 2.174569320678710938e+01 -5.927256345748901367e-01 7.503078460693359375e+00 2.073105812072753906e+00 4.319691658020019531e-01
3.906000000000000000e+03 5.852621078491210938e+01 2.460769844055175781e+01 -4.922312498092651367e-01 7.649140834808349609e+00 2.147073030471801758e+00 4.892309010028839111e-01
3.907000000000000000e+03 4.239830017089843750e+01 2.989884948730468750e+01 -6.671905517578125000e-01 5.863837242126464844e+00 1.558993935585021973e+00 -1.562232524156570435e-01
3.908000000000000000e+03 5.595560073852539062e+01 2.465891647338867188e+01 -5.653527975082397461e-01 7.503205776214599609e+00 2.081355810165405273e+00 4.205510020256042480e-01
3.909000000000000000e+03 4.041670227050781250e+01 3.474103164672851562e+01 -5.947666168212890625e-01 5.359303951263427734e+00 1.429361104965209961e+00 -1.361355930566787720e-01
3.910000000000000000e+03 1.771377944946289062e+01 -7.696238517761230469e+00 -1.526362746953964233e-01 -2.243156582117080688e-01 -1.130855828523635864e-01 -1.879805326461791992e-01
3.911000000000000000e+03 3.598901367187500000e+01 -5.046632289886474609e+00 3.593042135238647461e+00 1.975731730461120605e+00 1.670632123947143555e+00 -3.091335773468017578e+00
3.912000000000000000e+03 3.641114807128906250e+01 -4.748758316040039062e+00 4.116237640380859375e+00 3.974268436431884766e+00 2.427151918411254883e+00 -4.521917343139648438e+00
3.913000000000000000e+03 3.620614242553710938e+01 -4.764595031738281250e+00 3.875230789184570312e+00 3.282434463500976562e+00 2.147299528121948242e+00 -3.989294767379760742e+00
3.914000000000000000e+03 3.680999374389648438e+01 -4.766195297241210938e+00 4.259671211242675781e+00 5.877072334289550781e+00 3.041023015975952148e+00 -5.498161315917968750e+00
3.915000000000000000e+03 3.738079452514648438e+01 -5.017466545104980469e+00 4.358948707580566406e+00 9.846425056457519531e+00 4.261611938476562500e+00 -6.863780498504638672e+00
3.916000000000000000e+03 3.759100341796875000e+01 -5.000956058502197266e+00 3.934525012969970703e+00 1.202038478851318359e+01 4.786472797393798828e+00 -6.997503757476806641e+00
3.917000000000000000e+03 3.816189575195312500e+01 -4.999091148376464844e+00 2.705019235610961914e+00 1.764116096496582031e+01 6.103854179382324219e+00 -5.110908508300781250e+00
3.918000000000000000e+03 3.810979461669921875e+01 -4.749736785888671875e+00 2.400611162185668945e+00 1.611962699890136719e+01 5.556071281433105469e+00 -5.118634223937988281e+00
3.919000000000000000e+03 3.857426071166992188e+01 -5.023615837097167969e+00 2.706008195877075195e+00 2.010968971252441406e+01 6.844709396362304688e+00 -2.526606082916259766e+00
3.920000000000000000e+03 3.932562255859375000e+01 -5.006459712982177734e+00 4.355429172515869141e+00 1.867721366882324219e+01 6.909792900085449219e+00 9.590650200843811035e-01
3.921000000000000000e+03 3.971945953369140625e+01 -5.329229831695556641e+00 6.559229373931884766e+00 1.751203155517578125e+01 7.221378326416015625e+00 2.122828483581542969e+00
3.922000000000000000e+03 4.040858840942382812e+01 -5.324564933776855469e+00 6.842137336730957031e+00 1.484920692443847656e+01 6.507403373718261719e+00 1.966927528381347656e+00
3.923000000000000000e+03 3.974952316284179688e+01 -5.981456279754638672e+00 1.028421401977539062e+01 1.683104705810546875e+01 8.134578704833984375e+00 2.009780883789062500e+00
3.924000000000000000e+03 3.802534103393554688e+01 -8.591743469238281250e+00 1.769521832466125488e+00 1.516493606567382812e+01 5.080337524414062500e+00 5.088571548461914062e+00
3.925000000000000000e+03 3.746763229370117188e+01 -8.268963813781738281e+00 3.563194751739501953e+00 1.043482589721679688e+01 4.199406147003173828e+00 6.902774333953857422e+00
3.926000000000000000e+03 3.714905166625976562e+01 -8.600280761718750000e+00 3.173136234283447266e+00 8.279215812683105469e+00 3.435705423355102539e+00 5.973443508148193359e+00
3.927000000000000000e+03 3.646163940429687500e+01 -8.344963073730468750e+00 3.254315614700317383e+00 3.648459196090698242e+00 2.070832490921020508e+00 4.224873065948486328e+00
3.928000000000000000e+03 3.824095153808593750e+01 -8.636485099792480469e+00 1.543673038482666016e+00 1.636019515991210938e+01 5.371160030364990234e+00 4.296656131744384766e+00
3.929000000000000000e+03 4.000011825561523438e+01 -7.509313106536865234e+00 8.448956489562988281e+00 1.625030899047851562e+01 7.409779548645019531e+00 -2.359195947647094727e+00
3.930000000000000000e+03 4.018514633178710938e+01 -6.929177761077880859e+00 1.036888408660888672e+01 1.497374820709228516e+01 7.602789878845214844e+00 -1.093074440956115723e+00
3.931000000000000000e+03 4.019342803955078125e+01 -6.689300060272216797e+00 1.063185405731201172e+01 1.486738872528076172e+01 7.649772644042968750e+00 -3.942016363143920898e-01
3.932000000000000000e+03 4.028854751586914062e+01 -6.154492855072021484e+00 9.789731979370117188e+00 1.470903873443603516e+01 7.349631309509277344e+00 1.164988636970520020e+00
3.933000000000000000e+03 1.826650810241699219e+01 -7.698723316192626953e+00 -2.708888053894042969e-01 -1.481955647468566895e-01 -1.257253140211105347e-01 -2.472063601016998291e-01
3.934000000000000000e+03 1.792234802246093750e+01 -7.129365921020507812e+00 -2.671405300498008728e-02 -1.405390445142984390e-02 -1.223038695752620697e-02 -3.645825013518333435e-02
3.935000000000000000e+03 2.517377614974975586e+00 2.748003244400024414e+00 -3.226317930966615677e-04 5.212008545640856028e-05 -8.115350647130981088e-05 -1.314805995207279921e-04
3.936000000000000000e+03 1.385451698303222656e+01 2.567743539810180664e+00 -2.344119566259905696e-04 -1.867787213996052742e-04 -1.263572048628702760e-04 -1.304327452089637518e-04
3.937000000000000000e+03 4.085074996948242188e+01 -5.903762817382812500e+00 8.148010253906250000e+00 1.334228134155273438e+01 6.447087287902832031e+00 1.152188181877136230e+00
3.938000000000000000e+03 4.067675781250000000e+01 -5.478243350982666016e+00 7.196341037750244141e+00 1.406629753112792969e+01 6.378791809082031250e+00 1.823514342308044434e+00
3.939000000000000000e+03 4.034016799926757812e+01 -7.145581245422363281e+00 9.401117324829101562e+00 1.468282604217529297e+01 7.225183010101318359e+00 -1.543241381645202637e+00
3.940000000000000000e+03 4.030450057983398438e+01 -7.716335773468017578e+00 7.381751060485839844e+00 1.516272354125976562e+01 6.763342380523681641e+00 -2.226022958755493164e+00
3.941000000000000000e+03 4.066125869750976562e+01 -7.345697402954101562e+00 8.275574684143066406e+00 1.396345520019531250e+01 6.671709060668945312e+00 -1.650388121604919434e+00
3.942000000000000000e+03 4.015760803222656250e+01 -7.868239879608154297e+00 6.759130001068115234e+00 1.588046741485595703e+01 6.791879177093505859e+00 -2.344666957855224609e+00
3.943000000000000000e+03 3.975993728637695312e+01 -7.904290199279785156e+00 6.350913524627685547e+00 1.754401969909667969e+01 7.168479919433593750e+00 -2.376039266586303711e+00
3.944000000000000000e+03 3.999897003173828125e+01 -8.268053054809570312e+00 4.967784404754638672e+00 1.633997154235839844e+01 6.392326831817626953e+00 -1.998724102973937988e+00
3.945000000000000000e+03 3.799912643432617188e+01 -4.517635822296142578e+00 2.336327314376831055e+00 1.474942111968994141e+01 5.125724792480468750e+00 -5.162630081176757812e+00
3.946000000000000000e+03 3.896180343627929688e+01 -9.193924903869628906e+00 1.168371558189392090e+00 1.608586883544921875e+01 5.176271915435791016e+00 1.724087476730346680e+00
3.947000000000000000e+03 3.774795150756835938e+01 -8.816992759704589844e+00 1.896331548690795898e+00 1.249519920349121094e+01 4.317459106445312500e+00 5.518492221832275391e+00
3.948000000000000000e+03 3.544752883911132812e+01 -4.619819641113281250e+00 2.973893165588378906e+00 1.761091828346252441e+00 1.420495510101318359e+00 -2.653860092163085938e+00
3.949000000000000000e+03 1.785395431518554688e+01 -7.169110774993896484e+00 -2.006072318181395531e-03 -6.534466147422790527e-02 -2.020521834492683411e-02 -4.810598492622375488e-02
3.950000000000000000e+03 9.941186904907226562e+00 -2.115821266174316406e+01 -2.099352478981018066e-01 -5.561150312423706055e-01 -2.298150807619094849e-01 -4.742263853549957275e-01
3.951000000000000000e+03 3.600637054443359375e+01 -4.779832363128662109e+00 3.680884361267089844e+00 2.568087100982666016e+00 1.874691367149353027e+00 -3.479843378067016602e+00
3.952000000000000000e+03 3.952726745605468750e+01 -8.901393890380859375e+00 2.280951738357543945e+00 1.651839637756347656e+01 5.639804363250732422e+00 -2.609114944934844971e-01
3.953000000000000000e+03 3.838205337524414062e+01 -4.114862918853759766e+00 1.640131354331970215e+00 1.513337898254394531e+01 5.032052993774414062e+00 -3.551052808761596680e+00
3.954000000000000000e+03 3.700208663940429688e+01 -4.783889770507812500e+00 4.261426925659179688e+00 7.070453643798828125e+00 3.399564027786254883e+00 -5.902749061584472656e+00
3.955000000000000000e+03 3.703610992431640625e+01 -4.556687831878662109e+00 3.798971652984619141e+00 7.723669528961181641e+00 3.456792354583740234e+00 -5.842097759246826172e+00
3.956000000000000000e+03 3.684711837768554688e+01 -8.970788955688476562e+00 2.795319080352783203e+00 6.855682373046875000e+00 2.895300388336181641e+00 5.260942459106445312e+00
3.957000000000000000e+03 3.753672790527343750e+01 -4.533467769622802734e+00 3.100090742111206055e+00 1.162022495269775391e+01 4.416094779968261719e+00 -6.018938541412353516e+00
3.958000000000000000e+03 3.783940887451171875e+01 -4.316349983215332031e+00 2.325970649719238281e+00 1.321369361877441406e+01 4.661899089813232422e+00 -5.339206695556640625e+00
3.959000000000000000e+03 3.649831771850585938e+01 -8.930082321166992188e+00 2.953408718109130859e+00 5.233090400695800781e+00 2.455949783325195312e+00 4.848716259002685547e+00
3.960000000000000000e+03 4.083743667602539062e+01 -7.110077381134033203e+00 8.586080551147460938e+00 1.338773727416992188e+01 6.592145442962646484e+00 -1.102726817131042480e+00
3.961000000000000000e+03 4.022454071044921875e+01 -4.914480209350585938e+00 5.336909770965576172e+00 1.556188011169433594e+01 6.269637107849121094e+00 1.885136604309082031e+00
3.962000000000000000e+03 3.992436599731445312e+01 -4.497566223144531250e+00 3.821290969848632812e+00 1.611207771301269531e+01 5.980010509490966797e+00 1.200379729270935059e+00
3.963000000000000000e+03 3.923368072509765625e+01 -4.547335624694824219e+00 2.793830633163452148e+00 1.757799339294433594e+01 6.111546993255615234e+00 -2.325927168130874634e-01
3.964000000000000000e+03 3.065873384475708008e+00 3.705143356323242188e+01 3.186785429716110229e-02 -4.632498323917388916e-01 -1.294145882129669189e-01 -5.687817247235216200e-05
3.965000000000000000e+03 4.116313171386718750e+01 -7.307861804962158203e+00 7.641970634460449219e+00 1.280661296844482422e+01 6.134574890136718750e+00 -1.272550582885742188e+00
3.966000000000000000e+03 7.636032867431640625e+01 3.861334228515625000e+01 -6.305664777755737305e-02 8.984506607055664062e+00 2.676434993743896484e+00 3.794965147972106934e-02
3.967000000000000000e+03 4.277886390686035156e+00 -1.307881069183349609e+01 9.140294045209884644e-03 -1.167274825274944305e-02 -7.597362273372709751e-04 -1.388946548104286194e-03
3.968000000000000000e+03 1.360523605346679688e+01 2.208910369873046875e+01 -3.322172537446022034e-02 1.789658963680267334e-01 4.372325167059898376e-02 -5.741348490118980408e-02
3.969000000000000000e+03 7.545350074768066406e+00 2.134181022644042969e+01 -1.326388716697692871e-01 -4.833910614252090454e-02 -5.429339408874511719e-02 2.029724717140197754e-01
3.970000000000000000e+03 4.003467941284179688e+01 -9.092137336730957031e+00 2.582560062408447266e+00 1.551435184478759766e+01 5.429073333740234375e+00 -9.199094176292419434e-01
3.971000000000000000e+03 4.022977066040039062e+01 -8.589127540588378906e+00 4.156752109527587891e+00 1.554966545104980469e+01 5.911925315856933594e+00 -1.750722885131835938e+00
3.972000000000000000e+03 3.587358474731445312e+01 -9.660238265991210938e+00 2.436514139175415039e+00 4.227904319763183594e+00 1.999325513839721680e+00 4.071074485778808594e+00
3.973000000000000000e+03 3.579473876953125000e+01 -4.559791564941406250e+00 3.426731586456298828e+00 2.628938674926757812e+00 1.816701054573059082e+00 -3.378636837005615234e+00
3.974000000000000000e+03 3.599821853637695312e+01 -4.517121315002441406e+00 3.538008451461791992e+00 3.087479829788208008e+00 1.987646460533142090e+00 -3.751756906509399414e+00
3.975000000000000000e+03 3.818051147460937500e+01 -3.612382650375366211e+00 1.432683110237121582e+00 1.323467445373535156e+01 4.400207519531250000e+00 -3.846090078353881836e+00
3.976000000000000000e+03 4.057686233520507812e+01 -4.939609527587890625e+00 5.579943180084228516e+00 1.449209880828857422e+01 6.021612644195556641e+00 1.876224279403686523e+00
3.977000000000000000e+03 6.998141765594482422e+00 -2.206767654418945312e+01 -1.724969595670700073e-01 -3.036862909793853760e-01 -1.428549736738204956e-01 -4.579934775829315186e-01
3.978000000000000000e+03 4.099951934814453125e+01 -5.292944908142089844e+00 6.624836444854736328e+00 1.348074054718017578e+01 6.031672954559326172e+00 1.742319226264953613e+00
3.979000000000000000e+03 3.896365737915039062e+01 -4.414798736572265625e+00 2.159611701965332031e+00 1.733664131164550781e+01 5.848875999450683594e+00 -1.345480799674987793e+00
3.980000000000000000e+03 4.134395217895507812e+01 -7.079005718231201172e+00 7.720422267913818359e+00 1.239426136016845703e+01 6.034404754638671875e+00 -8.723253011703491211e-01
3.981000000000000000e+03 4.077854156494140625e+01 -8.038437843322753906e+00 6.180986404418945312e+00 1.408252620697021484e+01 6.079053878784179688e+00 -2.022260427474975586e+00
3.982000000000000000e+03 3.640348815917968750e+01 -9.328903198242187500e+00 2.551314353942871094e+00 5.562567234039306641e+00 2.434164524078369141e+00 4.617887496948242188e+00
3.983000000000000000e+03 3.618929290771484375e+01 -9.348231315612792969e+00 2.524136066436767578e+00 4.843821525573730469e+00 2.210387229919433594e+00 4.298023700714111328e+00
3.984000000000000000e+03 3.903664016723632812e+01 -9.943045616149902344e+00 7.069153785705566406e-01 1.418293571472167969e+01 4.466955661773681641e+00 1.835181355476379395e+00
3.985000000000000000e+03 3.825955963134765625e+01 -9.710311889648437500e+00 8.695657253265380859e-01 1.306958961486816406e+01 4.181746482849121094e+00 3.643629550933837891e+00
3.986000000000000000e+03 4.163581848144531250e+01 -7.249705314636230469e+00 7.135506629943847656e+00 1.201928520202636719e+01 5.746437549591064453e+00 -9.792669415473937988e-01
3.987000000000000000e+03 3.581427383422851562e+01 -9.361788749694824219e+00 2.387625455856323242e+00 3.654146671295166016e+00 1.812531590461730957e+00 3.790575981140136719e+00
3.988000000000000000e+03 3.615567779541015625e+01 -9.606425285339355469e+00 2.321485042572021484e+00 4.933010101318359375e+00 2.176348447799682617e+00 4.186255931854248047e+00
3.989000000000000000e+03 3.605542755126953125e+01 -8.962583541870117188e+00 2.757995367050170898e+00 3.862792730331420898e+00 1.986236453056335449e+00 4.033129692077636719e+00
3.990000000000000000e+03 4.045529937744140625e+01 -8.617391586303710938e+00 4.350287437438964844e+00 1.490467548370361328e+01 5.776488780975341797e+00 -1.834156394004821777e+00
3.991000000000000000e+03 4.209430217742919922e+00 -2.260702514648437500e+01 -7.172200083732604980e-02 -2.604894936084747314e-01 -9.966345131397247314e-02 -3.036589920520782471e-01
3.992000000000000000e+03 3.174240589141845703e+00 1.498623943328857422e+01 -2.305530942976474762e-03 -8.603215217590332031e-03 -3.272623755037784576e-03 -2.369926776736974716e-03
3.993000000000000000e+03 4.842749595642089844e+00 1.283242511749267578e+01 1.483633415773510933e-03 -7.066315971314907074e-03 -1.674804836511611938e-03 1.069552599801681936e-04
3.994000000000000000e+03 3.688825607299804688e+01 -1.002726459503173828e+01 1.678715229034423828e+00 7.730528354644775391e+00 2.822772979736328125e+00 4.590386390686035156e+00
3.995000000000000000e+03 3.746484756469726562e+01 -9.199178695678710938e+00 1.926251530647277832e+00 1.047501850128173828e+01 3.720381021499633789e+00 5.296230316162109375e+00
3.996000000000000000e+03 3.739620208740234375e+01 -8.844331741333007812e+00 2.384764194488525391e+00 1.018052196502685547e+01 3.769585847854614258e+00 5.779304504394531250e+00
3.997000000000000000e+03 4.805992889404296875e+01 -3.021461868286132812e+01 -8.739261031150817871e-01 7.613590240478515625e+00 2.021899223327636719e+00 -7.672332972288131714e-02
3.998000000000000000e+03 4.023719406127929688e+01 -8.823492050170898438e+00 3.582480192184448242e+00 1.554175853729248047e+01 5.737271785736083984e+00 -1.469487190246582031e+00
3.999000000000000000e+03 4.114651489257812500e+01 -8.190743446350097656e+00 5.701318740844726562e+00 1.328372001647949219e+01 5.695511341094970703e+00 -1.903650641441345215e+00
4.000000000000000000e+03 4.058195877075195312e+01 -4.226200580596923828e+00 3.831613540649414062e+00 1.436307144165039062e+01 5.458405494689941406e+00 1.446425914764404297e+00
4.001000000000000000e+03 9.727303504943847656e+00 -3.626194477081298828e+00 5.108005134388804436e-04 -9.816202800720930099e-04 -1.412459387211129069e-04 -8.038656960707157850e-05
4.002000000000000000e+03 3.569664382934570312e+01 -9.551988601684570312e+00 2.332050323486328125e+00 3.725859880447387695e+00 1.817373037338256836e+00 3.689374208450317383e+00
4.003000000000000000e+03 3.596731567382812500e+01 -9.507292747497558594e+00 2.437359809875488281e+00 4.190299510955810547e+00 1.988297700881958008e+00 4.055731773376464844e+00
4.004000000000000000e+03 4.032732391357421875e+01 -9.075570106506347656e+00 2.978366136550903320e+00 1.491750907897949219e+01 5.368762493133544922e+00 -1.260580778121948242e+00
4.005000000000000000e+03 3.577556610107421875e+01 -9.813288688659667969e+00 2.228097200393676758e+00 4.130488395690917969e+00 1.907575726509094238e+00 3.881469488143920898e+00
4.006000000000000000e+03 3.892567062377929688e+01 -1.047086143493652344e+01 4.209553599357604980e-01 1.300343036651611328e+01 4.027315616607666016e+00 2.134634494781494141e+00
4.007000000000000000e+03 4.083078384399414062e+00 4.436323642730712891e+00 -2.991446817759424448e-04 -2.107825857819989324e-04 -1.529781875433400273e-04 -1.449078699806705117e-04
4.008000000000000000e+03 2.904713153839111328e+00 1.300675392150878906e+01 6.073247059248387814e-04 -4.864531569182872772e-03 -1.277161994948983192e-03 -2.716637682169675827e-03
4.009000000000000000e+03 3.992452239990234375e+01 -1.033345222473144531e+01 9.563984870910644531e-01 1.370488357543945312e+01 4.398384571075439453e+00 4.053834676742553711e-01
4.010000000000000000e+03 3.850059890747070312e+01 -3.765057802200317383e+00 1.402992010116577148e+00 1.444598293304443359e+01 4.754692554473876953e+00 -3.104263782501220703e+00
4.011000000000000000e+03 3.620061492919921875e+01 -4.490865707397460938e+00 3.732870101928710938e+00 3.854996919631958008e+00 2.276360034942626953e+00 -4.205246925354003906e+00
4.012000000000000000e+03 3.672842788696289062e+01 -4.139636993408203125e+00 3.382188558578491211e+00 6.618807315826416016e+00 3.000298738479614258e+00 -5.199284553527832031e+00
4.013000000000000000e+03 3.745262145996093750e+01 -4.371243476867675781e+00 2.993106126785278320e+00 1.063001823425292969e+01 4.086937427520751953e+00 -5.790364265441894531e+00
4.014000000000000000e+03 3.618920516967773438e+01 -4.067476749420166016e+00 3.304203033447265625e+00 4.526436328887939453e+00 2.349191904067993164e+00 -4.311991691589355469e+00
4.015000000000000000e+03 4.859540462493896484e+00 -2.464206504821777344e+01 -6.487987935543060303e-03 -3.774042129516601562e-01 -1.151676625013351440e-01 -3.612076640129089355e-01
4.016000000000000000e+03 4.195360183715820312e+01 -7.380415916442871094e+00 6.652255535125732422e+00 1.168646430969238281e+01 5.501616001129150391e+00 -9.967508316040039062e-01
4.017000000000000000e+03 4.178417587280273438e+01 -7.024909973144531250e+00 7.131639957427978516e+00 1.173108673095703125e+01 5.658818244934082031e+00 -6.997481584548950195e-01
4.018000000000000000e+03 4.205337142944335938e+01 -7.134357452392578125e+00 6.835172176361083984e+00 1.154874610900878906e+01 5.515175342559814453e+00 -7.188845276832580566e-01
4.019000000000000000e+03 4.111728286743164062e+01 -8.742857933044433594e+00 4.459239482879638672e+00 1.353542041778564453e+01 5.398397922515869141e+00 -1.873341679573059082e+00
4.020000000000000000e+03 3.964806747436523438e+01 -3.546519517898559570e+00 1.717417359352111816e+00 1.479738712310791016e+01 4.954441547393798828e+00 -4.291689991950988770e-01
4.021000000000000000e+03 2.296978378295898438e+01 3.401177406311035156e+00 2.451868802309036255e-01 2.624384760856628418e-01 1.522876024246215820e-01 -1.606607884168624878e-01
4.022000000000000000e+03 2.340809249877929688e+01 2.256643772125244141e+00 2.995650768280029297e-01 2.445000112056732178e-01 1.632195264101028442e-01 -8.783315122127532959e-02
4.023000000000000000e+03 2.354360580444335938e+01 4.213763713836669922e+00 2.662959098815917969e-01 4.600318670272827148e-01 2.178983241319656372e-01 -2.931631207466125488e-01
4.024000000000000000e+03 4.135851669311523438e+01 -8.423258781433105469e+00 5.148413181304931641e+00 1.299167346954345703e+01 5.442026138305664062e+00 -1.847974777221679688e+00
4.025000000000000000e+03 3.666720962524414062e+01 -3.606126546859741211e+00 2.751609802246093750e+00 6.842680931091308594e+00 2.878287315368652344e+00 -4.794060230255126953e+00
4.026000000000000000e+03 4.966465950012207031e+00 2.364772415161132812e+01 -2.113285847008228302e-02 -9.276737272739410400e-02 -3.417006880044937134e-02 1.796490252017974854e-01
4.027000000000000000e+03 2.070840263366699219e+01 -2.608773422241210938e+01 2.826528251171112061e-01 1.064234852790832520e+00 4.040663242340087891e-01 3.053162395954132080e-01
4.028000000000000000e+03 3.400902938842773438e+01 -1.080140304565429688e+01 1.501942873001098633e+00 2.305433034896850586e+00 1.142212748527526855e+00 2.413505792617797852e+00
4.029000000000000000e+03 3.810860443115234375e+01 -3.935695409774780273e+00 1.684751391410827637e+00 1.345063114166259766e+01 4.540614604949951172e+00 -4.206878662109375000e+00
4.030000000000000000e+03 3.687846755981445312e+01 -1.101094341278076172e+01 1.142103672027587891e+00 7.797258377075195312e+00 2.681808710098266602e+00 4.029435157775878906e+00
4.031000000000000000e+03 4.028401947021484375e+01 -1.078993129730224609e+01 7.956830859184265137e-01 1.294082832336425781e+01 4.120953559875488281e+00 2.691964805126190186e-01
4.032000000000000000e+03 3.866111373901367188e+01 -1.066821002960205078e+01 4.141585826873779297e-01 1.220779991149902344e+01 3.786587715148925781e+00 2.584494352340698242e+00
4.033000000000000000e+03 5.689186573028564453e+00 2.533075141906738281e+01 1.056167203933000565e-02 -9.778431057929992676e-02 -2.616679109632968903e-02 1.877079606056213379e-01
4.034000000000000000e+03 5.207612991333007812e+00 -5.256159305572509766e+00 3.354517975822091103e-04 -4.586220893543213606e-04 -3.695108534884639084e-05 -2.435337810311466455e-04
4.035000000000000000e+03 3.297674942016601562e+01 -1.133979892730712891e+01 1.231088280677795410e+00 1.736464023590087891e+00 8.902657032012939453e-01 1.880276083946228027e+00
4.036000000000000000e+03 5.447412490844726562e+00 2.653166198730468750e+01 2.407451160252094269e-02 -1.102893054485321045e-01 -2.586443908512592316e-02 1.805359125137329102e-01
4.037000000000000000e+03 3.936527252197265625e+01 -3.398751258850097656e+00 1.391219377517700195e+00 1.454897403717041016e+01 4.782058238983154297e+00 -1.095983028411865234e+00
4.038000000000000000e+03 3.907949447631835938e+01 -3.227751731872558594e+00 1.138424754142761230e+00 1.404710388183593750e+01 4.555658340454101562e+00 -1.760306119918823242e+00
4.039000000000000000e+03 3.849295806884765625e+01 -1.039089870452880859e+01 5.111299157142639160e-01 1.238011932373046875e+01 3.867374897003173828e+00 2.972061395645141602e+00
4.040000000000000000e+03 4.230388259887695312e+01 -7.480009555816650391e+00 6.170948028564453125e+00 1.128480243682861328e+01 5.236725330352783203e+00 -1.011822104454040527e+00
4.041000000000000000e+03 4.234305191040039062e+01 -7.178859233856201172e+00 6.400949954986572266e+00 1.114589977264404297e+01 5.264054775238037109e+00 -7.185661196708679199e-01
4.042000000000000000e+03 4.221159744262695312e+01 -6.892421722412109375e+00 6.776925563812255859e+00 1.127272510528564453e+01 5.414895057678222656e+00 -4.068608283996582031e-01
4.043000000000000000e+03 3.544910812377929688e+01 -1.139691448211669922e+01 1.480933070182800293e+00 4.738282680511474609e+00 1.865764617919921875e+00 3.468750715255737305e+00
4.044000000000000000e+03 4.274570083618164062e+01 -7.154361248016357422e+00 5.985629558563232422e+00 1.079505443572998047e+01 5.034204959869384766e+00 -6.105875372886657715e-01
4.045000000000000000e+03 4.145540618896484375e+01 -8.744560241699218750e+00 4.488873004913330078e+00 1.292294788360595703e+01 5.223546504974365234e+00 -1.798539638519287109e+00
4.046000000000000000e+03 4.204152679443359375e+01 -8.621935844421386719e+00 4.686058998107910156e+00 1.194266891479492188e+01 4.988618373870849609e+00 -1.654700994491577148e+00
4.047000000000000000e+03 3.782011795043945312e+01 -3.517914533615112305e+00 1.685850858688354492e+00 1.155011272430419922e+01 3.970788955688476562e+00 -4.433473110198974609e+00
4.048000000000000000e+03 3.248808670043945312e+01 -2.302714109420776367e+00 1.675691008567810059e+00 1.359182000160217285e+00 9.104619026184082031e-01 -1.496542811393737793e+00
4.049000000000000000e+03 7.428863525390625000e+01 -3.334075546264648438e+01 -7.839399576187133789e-02 7.786072254180908203e+00 2.312303304672241211e+00 -2.242135852575302124e-01
4.050000000000000000e+03 1.754966735839843750e+01 2.161850547790527344e+01 -4.530978202819824219e-02 7.823519706726074219e-01 2.211126536130905151e-01 -2.870252132415771484e-01
4.051000000000000000e+03 3.786885452270507812e+01 -9.364354133605957031e+00 1.351588726043701172e+00 1.242799949645996094e+01 4.133876323699951172e+00 4.706332206726074219e+00
4.052000000000000000e+03 3.696152496337890625e+01 -4.252724647521972656e+00 3.365819454193115234e+00 7.802540779113769531e+00 3.350507974624633789e+00 -5.524751186370849609e+00
4.053000000000000000e+03 3.731616973876953125e+01 -4.205888748168945312e+00 2.934748649597167969e+00 9.720742225646972656e+00 3.796647071838378906e+00 -5.635169029235839844e+00
4.054000000000000000e+03 2.469202423095703125e+01 -2.082922220230102539e+00 1.542022377252578735e-01 7.066754251718521118e-02 6.746093183755874634e-02 2.276885062456130981e-01
4.055000000000000000e+03 3.928221130371093750e+01 -1.072063827514648438e+01 4.447126388549804688e-01 1.281906986236572266e+01 3.979134798049926758e+00 1.569737195968627930e+00
4.056000000000000000e+03 3.745472717285156250e+01 -3.509466171264648438e+00 1.978460907936096191e+00 1.020759868621826172e+01 3.655817747116088867e+00 -4.765662670135498047e+00
4.057000000000000000e+03 3.198849487304687500e+01 -2.316720247268676758e+00 1.493845939636230469e+00 1.077703118324279785e+00 7.714647054672241211e-01 -1.213388323783874512e+00
4.058000000000000000e+03 3.804130172729492188e+01 -1.023802852630615234e+01 7.263908386230468750e-01 1.159657382965087891e+01 3.696889400482177734e+00 3.651149749755859375e+00
4.059000000000000000e+03 2.100094604492187500e+01 2.187111282348632812e+01 -3.625407814979553223e-02 1.388793468475341797e+00 4.057618379592895508e-01 -4.786374866962432861e-01
4.060000000000000000e+03 3.783561325073242188e+01 -3.895820140838623047e+00 1.950252771377563477e+00 1.219482707977294922e+01 4.243524074554443359e+00 -4.796955585479736328e+00
4.061000000000000000e+03 3.773472213745117188e+01 -2.528947830200195312e+00 1.208690762519836426e+00 1.027495288848876953e+01 3.445093154907226562e+00 -3.752989053726196289e+00
4.062000000000000000e+03 3.735708236694335938e+01 -3.804117441177368164e+00 2.373843669891357422e+00 9.987357139587402344e+00 3.708360195159912109e+00 -5.072378158569335938e+00
4.063000000000000000e+03 3.801566314697265625e+01 -1.060352039337158203e+01 6.314105987548828125e-01 1.103089237213134766e+01 3.498690843582153320e+00 3.508582353591918945e+00
4.064000000000000000e+03 4.220212936401367188e+01 -8.182925224304199219e+00 5.331551074981689453e+00 1.157085323333740234e+01 5.070721149444580078e+00 -1.465457201004028320e+00
4.065000000000000000e+03 2.405682754516601562e+01 -2.281693267822265625e+01 2.953972816467285156e-01 1.459080457687377930e+00 5.263433456420898438e-01 5.478177070617675781e-01
4.066000000000000000e+03 3.625651931762695312e+01 -1.175099182128906250e+01 1.114785671234130859e+00 6.365249156951904297e+00 2.244010448455810547e+00 3.642622232437133789e+00
4.067000000000000000e+03 3.743257141113281250e+01 -1.147442913055419922e+01 6.284513473510742188e-01 9.072517395019531250e+00 2.910290718078613281e+00 3.558761596679687500e+00
4.068000000000000000e+03 3.753605270385742188e+01 -1.117885589599609375e+01 6.861430406570434570e-01 9.465846061706542969e+00 3.045596837997436523e+00 3.704725027084350586e+00
4.069000000000000000e+03 4.150093460083007812e+01 -2.915131568908691406e+00 2.317189693450927734e+00 1.249417495727539062e+01 4.443409442901611328e+00 1.016449451446533203e+00
4.070000000000000000e+03 3.989744949340820312e+01 -2.912934303283691406e+00 1.333290457725524902e+00 1.366918277740478516e+01 4.500741958618164062e+00 -4.590362310409545898e-01
4.071000000000000000e+03 4.174152755737304688e+01 -2.318045139312744141e+00 1.913889765739440918e+00 1.192412090301513672e+01 4.151402950286865234e+00 9.034367203712463379e-01
4.072000000000000000e+03 4.098185348510742188e+01 -3.490420103073120117e+00 2.764055252075195312e+00 1.331827449798583984e+01 4.824698925018310547e+00 1.076989054679870605e+00
4.073000000000000000e+03 2.409616661071777344e+01 2.000586032867431641e+00 3.645937144756317139e-01 3.405304849147796631e-01 2.115372568368911743e-01 -1.207178756594657898e-01
4.074000000000000000e+03 2.468398475646972656e+01 2.534901380538940430e+00 4.414230585098266602e-01 5.225221514701843262e-01 2.891835570335388184e-01 -2.615478038787841797e-01
4.075000000000000000e+03 2.508391761779785156e+01 1.903659701347351074e+00 5.007048249244689941e-01 5.127934217453002930e-01 3.040494918823242188e-01 -2.491835355758666992e-01
4.076000000000000000e+03 4.415097808837890625e+01 -2.260977935791015625e+01 -7.118559479713439941e-01 8.041224479675292969e+00 2.198810577392578125e+00 2.018059939146041870e-01
4.077000000000000000e+03 3.173120307922363281e+01 -2.210861396789550781e+01 1.717174053192138672e-01 3.789229631423950195e+00 1.188284158706665039e+00 1.383976936340332031e+00
4.078000000000000000e+03 2.032301139831542969e+01 -1.619963455200195312e+01 -1.979241967201232910e-01 2.775082588195800781e-01 2.387521974742412567e-02 -1.776095926761627197e-01
4.079000000000000000e+03 4.194003677368164062e+01 -8.391556739807128906e+00 5.157567501068115234e+00 1.203532886505126953e+01 5.157868862152099609e+00 -1.639461159706115723e+00
4.080000000000000000e+03 4.217972183227539062e+01 -8.886551856994628906e+00 4.272414684295654297e+00 1.185808086395263672e+01 4.839148521423339844e+00 -1.636775016784667969e+00
4.081000000000000000e+03 4.042112350463867188e+01 -1.172187232971191406e+01 3.889902234077453613e-01 1.197285461425781250e+01 3.708553314208984375e+00 5.332167744636535645e-01
4.082000000000000000e+03 3.925618362426757812e+01 -1.128002548217773438e+01 2.563851773738861084e-01 1.205693340301513672e+01 3.693995714187622070e+00 1.700715184211730957e+00
4.083000000000000000e+03 3.645149993896484375e+01 -1.204022407531738281e+01 9.276943206787109375e-01 6.720204353332519531e+00 2.294369459152221680e+00 3.536155223846435547e+00
4.084000000000000000e+03 5.820878219604492188e+01 2.046337890625000000e+01 -4.393430352210998535e-01 7.732841491699218750e+00 2.188049554824829102e+00 6.184498667716979980e-01
4.085000000000000000e+03 5.979080963134765625e+01 2.016672897338867188e+01 -4.072338640689849854e-01 7.773797988891601562e+00 2.209969282150268555e+00 6.464613676071166992e-01
4.086000000000000000e+03 4.268883514404296875e+01 -2.978364944458007812e+00 2.801991701126098633e+00 1.129574775695800781e+01 4.229321479797363281e+00 1.325821399688720703e+00
4.087000000000000000e+03 4.284075164794921875e+01 -2.532553672790527344e+00 2.495027542114257812e+00 1.117924785614013672e+01 4.102282524108886719e+00 1.265857100486755371e+00
4.088000000000000000e+03 3.655932235717773438e+01 -1.173466014862060547e+01 1.004449009895324707e+00 6.934090137481689453e+00 2.381561756134033203e+00 3.639030218124389648e+00
4.089000000000000000e+03 2.461706352233886719e+01 1.103106856346130371e+00 4.018226265907287598e-01 3.474366962909698486e-01 2.247777879238128662e-01 -8.688089251518249512e-02
4.090000000000000000e+03 5.848251342773437500e+00 6.649951457977294922e+00 -6.134153809398412704e-04 -5.921142874285578728e-04 -3.616588946897536516e-04 5.682799965143203735e-04
4.091000000000000000e+03 2.695040702819824219e+01 -2.083948516845703125e+01 3.925108611583709717e-01 1.992736816406250000e+00 7.155743241310119629e-01 8.338466882705688477e-01
4.092000000000000000e+03 4.280256652832031250e+01 -8.395374298095703125e+00 4.880141735076904297e+00 1.104556369781494141e+01 4.777711391448974609e+00 -1.381697654724121094e+00
4.093000000000000000e+03 2.544821548461914062e+01 1.140204238891601562e+01 1.183793395757675171e-01 1.800357699394226074e+00 5.756211280822753906e-01 -8.470516800880432129e-01
4.094000000000000000e+03 3.758286285400390625e+01 -2.909527063369750977e+00 1.524384617805480957e+00 1.018233299255371094e+01 3.512015342712402344e+00 -4.159309864044189453e+00
4.095000000000000000e+03 3.746369934082031250e+01 -2.434672355651855469e+00 1.338574409484863281e+00 9.511315345764160156e+00 3.254966974258422852e+00 -3.939761638641357422e+00
4.096000000000000000e+03 3.654764556884765625e+01 -1.784207105636596680e+00 1.591040730476379395e+00 7.125242233276367188e+00 2.614884853363037109e+00 -3.775199651718139648e+00
4.097000000000000000e+03 3.684466171264648438e+01 -1.829881191253662109e+00 1.458686709403991699e+00 7.730536460876464844e+00 2.756767034530639648e+00 -3.793391466140747070e+00
4.098000000000000000e+03 3.915815353393554688e+01 -1.205831050872802734e+01 4.447576031088829041e-02 1.110475063323974609e+01 3.344768047332763672e+00 1.873503208160400391e+00
4.099000000000000000e+03 7.082712554931640625e+01 -2.460311889648437500e+01 -3.167191520333290100e-02 7.560458660125732422e+00 2.258635997772216797e+00 -4.742794632911682129e-01
4.100000000000000000e+03 3.809941101074218750e+01 -2.128438711166381836e+00 8.618101477622985840e-01 1.072060680389404297e+01 3.474725246429443359e+00 -3.134430646896362305e+00
4.101000000000000000e+03 3.608254241943359375e+01 -1.282891273498535156e+01 7.896333932876586914e-01 6.219824790954589844e+00 2.102837324142456055e+00 3.193470239639282227e+00
4.102000000000000000e+03 3.648433685302734375e+01 -1.265672492980957031e+01 6.979883313179016113e-01 6.880700588226318359e+00 2.273606538772583008e+00 3.269019842147827148e+00
4.103000000000000000e+03 3.140824127197265625e+01 -9.789803624153137207e-01 1.436517715454101562e+00 1.472692251205444336e+00 8.727629780769348145e-01 -1.340144395828247070e+00
4.104000000000000000e+03 2.616143417358398438e+01 6.467067599296569824e-01 5.925149917602539062e-01 5.170829296112060547e-01 3.328793942928314209e-01 -2.403794229030609131e-01
4.105000000000000000e+03 2.601724624633789062e+01 4.896181821823120117e-02 5.502876043319702148e-01 4.209095537662506104e-01 2.913591265678405762e-01 -1.485342830419540405e-01
4.106000000000000000e+03 7.114052581787109375e+01 2.179706764221191406e+01 -1.033843830227851868e-01 8.147374153137207031e+00 2.413197040557861328e+00 5.000711083412170410e-01
4.107000000000000000e+03 2.647971153259277344e+01 1.486908054351806641e+01 -3.548344969749450684e-02 2.374383926391601562e+00 7.016701102256774902e-01 -8.868651390075683594e-01
4.108000000000000000e+03 7.143601989746093750e+01 1.610899734497070312e+01 -5.355008691549301147e-02 7.927302837371826172e+00 2.362125873565673828e+00 5.841901302337646484e-01
4.109000000000000000e+03 7.138956451416015625e+01 1.348912334442138672e+01 -2.859269082546234131e-02 7.816842555999755859e+00 2.336474895477294922e+00 6.126120686531066895e-01
4.110000000000000000e+03 3.934314727783203125e+01 -1.869224071502685547e+00 6.376109719276428223e-01 1.201407623291015625e+01 3.795506238937377930e+00 -1.565447211265563965e+00
4.111000000000000000e+03 3.776271820068359375e+01 -1.387599825859069824e+00 8.076311349868774414e-01 9.387273788452148438e+00 3.058471441268920898e+00 -3.148530960083007812e+00
4.112000000000000000e+03 3.839464950561523438e+01 -1.189631652832031250e+01 1.758677363395690918e-01 1.023936748504638672e+01 3.124570608139038086e+00 2.685505151748657227e+00
4.113000000000000000e+03 4.240310287475585938e+01 -1.061719894409179688e+01 2.169338703155517578e+00 1.160978603363037109e+01 4.133737564086914062e+00 -1.226768374443054199e+00
4.114000000000000000e+03 3.281237792968750000e+01 1.494973182678222656e+01 -2.930831909179687500e-01 4.298616409301757812e+00 1.201660037040710449e+00 -1.048430085182189941e+00
4.115000000000000000e+03 3.395898818969726562e+01 -1.942759132385253906e+01 1.694571673870086670e-01 4.636291980743408203e+00 1.441724658012390137e+00 1.795633435249328613e+00
4.116000000000000000e+03 3.811920166015625000e+01 -1.205940437316894531e+01 2.181016504764556885e-01 9.818667411804199219e+00 3.011030912399291992e+00 2.796320438385009766e+00
4.117000000000000000e+03 4.277413940429687500e+01 -1.109040927886962891e+01 1.850174903869628906e+00 1.120322418212890625e+01 3.916019678115844727e+00 -1.119262218475341797e+00
4.118000000000000000e+03 4.442695236206054688e+01 -9.301774978637695312e+00 3.601291894912719727e+00 1.005378055572509766e+01 4.096521854400634766e+00 -1.251302242279052734e+00
4.119000000000000000e+03 4.034948730468750000e+01 -2.007977724075317383e+00 9.654698967933654785e-01 1.239930057525634766e+01 4.009430885314941406e+00 -3.841552734375000000e-01
4.120000000000000000e+03 4.020530700683593750e+01 -2.268315553665161133e+00 1.077643990516662598e+00 1.268418216705322266e+01 4.128548145294189453e+00 -4.036251306533813477e-01
4.121000000000000000e+03 2.649271392822265625e+01 1.335839462280273438e+01 3.063699975609779358e-02 2.253081321716308594e+00 6.851155161857604980e-01 -9.193399548530578613e-01
4.122000000000000000e+03 4.248068237304687500e+01 -1.270610904693603516e+01 6.897957921028137207e-01 1.086250305175781250e+01 3.465689420700073242e+00 -4.897158741950988770e-01
4.123000000000000000e+03 2.777058601379394531e+01 1.327641773223876953e+01 1.058438699692487717e-02 2.606395721435546875e+00 7.850940227508544922e-01 -1.007643818855285645e+00
4.124000000000000000e+03 4.139344787597656250e+01 -6.465817689895629883e-01 6.889774203300476074e-01 1.109661102294921875e+01 3.535676479339599609e+00 2.043357864022254944e-02
4.125000000000000000e+03 4.075676727294921875e+01 -1.327891445159912109e+01 -1.401268970221281052e-02 1.072860717773437500e+01 3.214378118515014648e+00 6.575365066528320312e-01
4.126000000000000000e+03 4.059693908691406250e+01 -1.375345897674560547e+01 -1.116033419966697693e-01 1.038593387603759766e+01 3.082299232482910156e+00 8.320928215980529785e-01
4.127000000000000000e+03 4.208434677124023438e+01 -1.286990165710449219e+01 4.959401786327362061e-01 1.091449737548828125e+01 3.423131227493286133e+00 -2.405614256858825684e-01
4.128000000000000000e+03 4.594414138793945312e+01 -5.203431129455566406e+00 3.915009498596191406e+00 9.117259979248046875e+00 3.909680843353271484e+00 5.885944962501525879e-01
4.129000000000000000e+03 6.942086791992187500e+01 -2.892951488494873047e+00 3.377476632595062256e-01 7.255857944488525391e+00 2.278081655502319336e+00 2.700293362140655518e-01
4.130000000000000000e+03 6.878257751464843750e+01 9.130205154418945312e+00 6.721079349517822266e-02 7.664136409759521484e+00 2.319404125213623047e+00 7.172400355339050293e-01
4.131000000000000000e+03 3.326089859008789062e+01 -1.375642108917236328e+01 1.045207738876342773e+00 3.145577430725097656e+00 1.257235527038574219e+00 2.277375221252441406e+00
4.132000000000000000e+03 3.858998870849609375e+01 -1.284415149688720703e+01 9.279016521759331226e-04 9.795099258422851562e+00 2.938807964324951172e+00 2.351438522338867188e+00
4.133000000000000000e+03 3.424702453613281250e+01 -1.849122810363769531e+01 2.382396906614303589e-01 4.732590198516845703e+00 1.491248965263366699e+00 1.932577371597290039e+00
4.134000000000000000e+03 2.833020210266113281e+01 1.187603569030761719e+01 5.925514921545982361e-02 2.681676149368286133e+00 8.222793340682983398e-01 -1.067021727561950684e+00
4.135000000000000000e+03 4.595164489746093750e+01 -3.242102861404418945e+00 3.016892671585083008e+00 9.336215019226074219e+00 3.705932378768920898e+00 1.111810803413391113e+00
4.136000000000000000e+03 2.924431228637695312e+01 4.926032543182373047e+00 6.548898816108703613e-01 2.239099025726318359e+00 8.681966662406921387e-01 -1.230147361755371094e+00
4.137000000000000000e+03 2.817945480346679688e+01 3.093622446060180664e+00 7.669163346290588379e-01 1.471436500549316406e+00 6.715058684349060059e-01 -9.014359116554260254e-01
4.138000000000000000e+03 2.825843620300292969e+01 -1.025955379009246826e-01 8.561024069786071777e-01 7.615721821784973145e-01 4.853023588657379150e-01 -5.106550455093383789e-01
4.139000000000000000e+03 4.053365707397460938e+01 -1.293790459632873535e+00 7.031267285346984863e-01 1.171655368804931641e+01 3.725904226303100586e+00 -4.400019645690917969e-01
4.140000000000000000e+03 4.077201080322265625e+01 -9.245997071266174316e-01 6.090351343154907227e-01 1.135700893402099609e+01 3.589813232421875000e+00 -3.676390349864959717e-01
4.141000000000000000e+03 4.342107009887695312e+01 -1.266375637054443359e+01 1.006085634231567383e+00 1.057398891448974609e+01 3.474022388458251953e+00 -8.402813673019409180e-01
4.142000000000000000e+03 4.016873168945312500e+01 -1.454573988914489746e+00 6.090015769004821777e-01 1.177361488342285156e+01 3.714785099029541016e+00 -8.100996613502502441e-01
4.143000000000000000e+03 3.946575927734375000e+01 -1.275909304618835449e+00 4.614676535129547119e-01 1.142630386352539062e+01 3.566331624984741211e+00 -1.498721003532409668e+00
4.144000000000000000e+03 4.092367172241210938e+01 -4.470998644828796387e-01 4.838490188121795654e-01 1.100452995300292969e+01 3.446513891220092773e+00 -3.678267598152160645e-01
4.145000000000000000e+03 3.847672271728515625e+01 4.949110448360443115e-01 2.418055683374404907e-01 9.128541946411132812e+00 2.811104297637939453e+00 -2.170644044876098633e+00
4.146000000000000000e+03 3.827195358276367188e+01 -1.673645973205566406e+01 -2.799059450626373291e-01 7.707130908966064453e+00 2.228167533874511719e+00 1.814419746398925781e+00
4.147000000000000000e+03 4.245380783081054688e+01 -1.430825328826904297e+01 6.822036206722259521e-02 1.016983509063720703e+01 3.071416854858398438e+00 -2.863593026995658875e-02
4.148000000000000000e+03 2.976619148254394531e+01 4.449007987976074219e+00 7.177320718765258789e-01 2.343261003494262695e+00 9.182979464530944824e-01 -1.309571743011474609e+00
4.149000000000000000e+03 3.342604064941406250e+01 1.182913875579833984e+01 -1.869232505559921265e-01 4.507091522216796875e+00 1.296050429344177246e+00 -1.263252615928649902e+00
4.150000000000000000e+03 6.073680114746093750e+01 1.094339466094970703e+01 -2.774006128311157227e-02 7.849878787994384766e+00 2.346641540527343750e+00 8.977650403976440430e-01
4.151000000000000000e+03 3.808358383178710938e+01 -1.515912437438964844e+01 -1.373915672302246094e-01 8.113240242004394531e+00 2.392754554748535156e+00 2.128036022186279297e+00
4.152000000000000000e+03 3.968474578857421875e+01 -7.174445390701293945e-01 3.539800941944122314e-01 1.096397972106933594e+01 3.395387887954711914e+00 -1.319468975067138672e+00
4.153000000000000000e+03 4.010925292968750000e+01 -9.401884675025939941e-01 4.792114794254302979e-01 1.132773399353027344e+01 3.542083740234375000e+00 -9.144001007080078125e-01
4.154000000000000000e+03 4.024880981445312500e+01 -1.537017822265625000e+01 -3.661713004112243652e-01 9.333665847778320312e+00 2.690248250961303711e+00 1.163384318351745605e+00
4.155000000000000000e+03 4.890731811523437500e+01 8.442599296569824219e+00 -2.275083065032958984e-01 8.254205703735351562e+00 2.408009290695190430e+00 6.230953931808471680e-01
4.156000000000000000e+03 4.050269317626953125e+01 -3.843002021312713623e-01 3.780035674571990967e-01 1.095009326934814453e+01 3.398429155349731445e+00 -6.572607159614562988e-01
4.157000000000000000e+03 4.654757690429687500e+01 -8.543723821640014648e-01 1.813981413841247559e+00 9.272505760192871094e+00 3.325946092605590820e+00 1.173934221267700195e+00
4.158000000000000000e+03 4.735003280639648438e+01 -5.860546231269836426e-01 1.738740205764770508e+00 9.049497604370117188e+00 3.236471176147460938e+00 1.156276702880859375e+00
4.159000000000000000e+03 4.801309585571289062e+01 -1.053702735900878906e+01 2.380080938339233398e+00 8.806815147399902344e+00 3.356068849563598633e+00 -9.600239992141723633e-01
4.160000000000000000e+03 4.862760162353515625e+01 -1.082821273803710938e+01 2.229516744613647461e+00 8.699654579162597656e+00 3.278751134872436523e+00 -9.461629390716552734e-01
4.161000000000000000e+03 4.757759094238281250e+01 -3.060035705566406250e+00 2.698390722274780273e+00 8.829743385314941406e+00 3.458440065383911133e+00 9.797003865242004395e-01
4.162000000000000000e+03 4.826595306396484375e+01 -3.632189035415649414e+00 2.791172027587890625e+00 8.594885826110839844e+00 3.415817260742187500e+00 8.056061267852783203e-01
4.163000000000000000e+03 4.772168350219726562e+01 -6.843428134918212891e+00 3.357959032058715820e+00 8.579201698303222656e+00 3.581148147583007812e+00 -6.575408577919006348e-02
4.164000000000000000e+03 3.269909286499023438e+01 1.830981254577636719e+00 1.135969638824462891e+00 3.295425176620483398e+00 1.329418420791625977e+00 -2.028626441955566406e+00
4.165000000000000000e+03 4.400947952270507812e+01 -1.271922683715820312e+01 1.095354437828063965e+00 1.027376270294189453e+01 3.410735130310058594e+00 -9.260835051536560059e-01
4.166000000000000000e+03 4.600400924682617188e+01 -1.168793010711669922e+01 1.977164030075073242e+00 9.567297935485839844e+00 3.463338375091552734e+00 -1.181535005569458008e+00
4.167000000000000000e+03 4.028621673583984375e+01 -2.512809038162231445e-01 3.072311878204345703e-01 1.079558849334716797e+01 3.330845832824707031e+00 -8.598045706748962402e-01
4.168000000000000000e+03 4.041903305053710938e+01 5.903138592839241028e-02 2.485054433345794678e-01 1.063150310516357422e+01 3.264002561569213867e+00 -7.987170815467834473e-01
4.169000000000000000e+03 4.064159393310546875e+01 4.175691306591033936e-01 1.971219033002853394e-01 1.045284080505371094e+01 3.194988727569580078e+00 -7.081735730171203613e-01
4.170000000000000000e+03 3.891448211669921875e+01 -1.518097591400146484e+01 -2.571087777614593506e-01 8.685763359069824219e+00 2.528596401214599609e+00 1.792822957038879395e+00
4.171000000000000000e+03 3.934997558593750000e+01 -1.516128253936767578e+01 -3.196867108345031738e-01 9.001285552978515625e+00 2.604479551315307617e+00 1.623934984207153320e+00
4.172000000000000000e+03 3.970321273803710938e+01 -1.505797100067138672e+01 -3.321563601493835449e-01 9.290847778320312500e+00 2.687607288360595703e+00 1.417602419853210449e+00
4.173000000000000000e+03 3.987829589843750000e+01 -1.552556896209716797e+01 -3.641194999217987061e-01 9.140068054199218750e+00 2.632784605026245117e+00 1.313857674598693848e+00
4.174000000000000000e+03 4.645525741577148438e+01 -1.146924591064453125e+01 2.086536407470703125e+00 9.351533889770507812e+00 3.431421041488647461e+00 -1.145513534545898438e+00
4.175000000000000000e+03 4.658998870849609375e+01 -1.069247913360595703e+01 2.454892158508300781e+00 9.227231025695800781e+00 3.504637002944946289e+00 -1.106477379798889160e+00
4.176000000000000000e+03 4.692395019531250000e+01 -1.231864452362060547e+01 1.618552207946777344e+00 9.265083312988281250e+00 3.265090465545654297e+00 -1.134424805641174316e+00
4.177000000000000000e+03 4.091278457641601562e+01 8.512738943099975586e-01 1.424227207899093628e-01 1.020072460174560547e+01 3.102944374084472656e+00 -6.041018366813659668e-01
4.178000000000000000e+03 3.657532501220703125e+01 6.660783290863037109e+00 -1.099619865417480469e-01 6.100146770477294922e+00 1.797055363655090332e+00 -1.597434878349304199e+00
4.179000000000000000e+03 5.567888259887695312e+01 -1.097479629516601562e+01 1.389282464981079102e+00 7.812369346618652344e+00 2.760495662689208984e+00 -5.198805332183837891e-01
4.180000000000000000e+03 4.662577819824218750e+01 -1.188280773162841797e+01 1.803229928016662598e+00 9.317938804626464844e+00 3.336350679397583008e+00 -1.125700116157531738e+00
4.181000000000000000e+03 3.899775314331054688e+01 -1.564232826232910156e+01 -2.926283180713653564e-01 8.533390998840332031e+00 2.472229003906250000e+00 1.685614466667175293e+00
4.182000000000000000e+03 6.072290802001953125e+01 -1.378418064117431641e+01 7.120935320854187012e-01 7.643216133117675781e+00 2.506592988967895508e+00 -5.576976537704467773e-01
4.183000000000000000e+03 3.256037139892578125e+01 4.091791629791259766e+00 7.248412966728210449e-01 3.647776842117309570e+00 1.311785459518432617e+00 -1.836006760597229004e+00
4.184000000000000000e+03 5.108739471435546875e+01 -1.106147003173828125e+01 1.833549380302429199e+00 8.271576881408691406e+00 3.031537771224975586e+00 -7.757762074470520020e-01
4.185000000000000000e+03 6.561024475097656250e+01 -2.010674953460693359e+00 5.671950578689575195e-01 7.406344890594482422e+00 2.392061948776245117e+00 4.053459763526916504e-01
4.186000000000000000e+03 5.420131301879882812e+01 -9.870292663574218750e+00 1.656431913375854492e+00 7.881633281707763672e+00 2.861419439315795898e+00 -4.565829336643218994e-01
4.187000000000000000e+03 4.863013458251953125e+01 3.956409215927124023e+00 4.392030537128448486e-01 8.661695480346679688e+00 2.730269432067871094e+00 9.262844920158386230e-01
4.188000000000000000e+03 4.818638992309570312e+01 -3.686511218547821045e-01 1.663200497627258301e+00 8.842005729675292969e+00 3.151561737060546875e+00 1.132388710975646973e+00
4.189000000000000000e+03 6.712110137939453125e+01 -2.205090761184692383e+00 4.692437946796417236e-01 7.353023529052734375e+00 2.346680164337158203e+00 3.597594201564788818e-01
4.190000000000000000e+03 5.310876846313476562e+01 -9.693423271179199219e+00 1.813095569610595703e+00 7.959561347961425781e+00 2.931797027587890625e+00 -4.722473919391632080e-01
4.191000000000000000e+03 6.481468200683593750e+01 -1.066643524169921875e+01 6.184496879577636719e-01 7.413652896881103516e+00 2.409630775451660156e+00 -2.530155777931213379e-01
4.192000000000000000e+03 4.914627075195312500e+01 -3.922302007675170898e+00 2.654227733612060547e+00 8.407585144042968750e+00 3.318543910980224609e+00 6.980738639831542969e-01
4.193000000000000000e+03 4.984106063842773438e+01 -3.949205636978149414e+00 2.531775474548339844e+00 8.295416831970214844e+00 3.248157501220703125e+00 6.377996206283569336e-01
4.194000000000000000e+03 5.016949462890625000e+01 -3.169733762741088867e+00 2.299839973449707031e+00 8.289426803588867188e+00 3.176779985427856445e+00 7.622723579406738281e-01
4.195000000000000000e+03 5.123419570922851562e+01 -3.947940349578857422e+00 2.260597467422485352e+00 8.080924034118652344e+00 3.102456569671630859e+00 5.518830418586730957e-01
4.196000000000000000e+03 5.197126388549804688e+01 -2.780529022216796875e+00 1.968273401260375977e+00 8.069122314453125000e+00 3.011218547821044922e+00 7.090563774108886719e-01
4.197000000000000000e+03 5.297571182250976562e+01 -5.253111839294433594e+00 2.068415164947509766e+00 7.889449119567871094e+00 2.987359285354614258e+00 2.872480452060699463e-01
4.198000000000000000e+03 5.355440521240234375e+01 -8.343412399291992188e+00 1.957317590713500977e+00 7.858470439910888672e+00 2.944736480712890625e+00 -2.440410554409027100e-01
4.199000000000000000e+03 5.381514358520507812e+01 -9.225330352783203125e+00 1.796851277351379395e+00 7.879377365112304688e+00 2.902868509292602539e+00 -3.963797390460968018e-01
4.200000000000000000e+03 5.232272338867187500e+01 -9.991625785827636719e+00 1.923711299896240234e+00 8.058527946472167969e+00 2.994671583175659180e+00 -5.594648122787475586e-01
4.201000000000000000e+03 6.447645568847656250e+01 4.237783908843994141e+00 3.492689132690429688e-01 7.615204811096191406e+00 2.389342069625854492e+00 7.619818449020385742e-01
4.202000000000000000e+03 4.109162902832031250e+01 2.862489223480224609e+00 -1.537158340215682983e-01 9.209950447082519531e+00 2.716870307922363281e+00 -6.665803194046020508e-01
4.203000000000000000e+03 5.079497909545898438e+01 -3.518113851547241211e+00 2.256099700927734375e+00 8.175670623779296875e+00 3.129531145095825195e+00 6.714053153991699219e-01
4.204000000000000000e+03 5.177721786499023438e+01 -3.457633018493652344e+00 2.106575727462768555e+00 8.052404403686523438e+00 3.047693967819213867e+00 6.128565669059753418e-01
4.205000000000000000e+03 6.575920104980468750e+01 -9.954860687255859375e+00 5.733736753463745117e-01 7.372352600097656250e+00 2.383718013763427734e+00 -1.870780587196350098e-01
4.206000000000000000e+03 6.644120025634765625e+01 -8.304664611816406250e+00 5.580993294715881348e-01 7.329756259918212891e+00 2.366356611251831055e+00 -5.624048411846160889e-02
4.207000000000000000e+03 6.046815490722656250e+01 3.160782098770141602e+00 5.636119842529296875e-01 7.720060348510742188e+00 2.485101699829101562e+00 8.434081673622131348e-01
4.208000000000000000e+03 6.355742263793945312e+01 2.732487201690673828e+00 4.726879000663757324e-01 7.595853328704833984e+00 2.420562267303466797e+00 7.315866947174072266e-01
4.209000000000000000e+03 5.882952880859375000e+01 -6.845116138458251953e+00 1.258284926414489746e+00 7.564201354980468750e+00 2.646745920181274414e+00 3.849759697914123535e-02
4.210000000000000000e+03 5.942088699340820312e+01 -6.029373645782470703e+00 1.167430162429809570e+00 7.542841434478759766e+00 2.613081455230712891e+00 1.427601575851440430e-01
4.211000000000000000e+03 5.543115234375000000e+01 -2.604728460311889648e+00 1.505004048347473145e+00 7.779297828674316406e+00 2.785290718078613281e+00 5.962809920310974121e-01
4.212000000000000000e+03 5.960451507568359375e+01 -4.887656688690185547e+00 1.169402360916137695e+00 7.535128116607666016e+00 2.611359119415283203e+00 2.485981732606887817e-01
4.213000000000000000e+03 1.488040065765380859e+01 1.046121835708618164e+00 -3.044272598344832659e-04 -1.255536335520446301e-04 -1.289942738367244601e-04 5.638230140903033316e-05
4.214000000000000000e+03 1.433596038818359375e+01 8.109902739524841309e-01 -1.694385573500767350e-04 1.078255882021039724e-04 -1.848389183578547090e-05 4.938705387758091092e-06
4.215000000000000000e+03 1.339948463439941406e+01 9.943951964378356934e-01 1.578527298988774419e-04 -1.658559085626620799e-06 4.685825115302577615e-05 1.095269681172794662e-06
4.216000000000000000e+03 1.399857616424560547e+01 1.078236818313598633e+00 -2.251629339298233390e-04 5.963187504676170647e-05 -4.965931657352484763e-05 -8.810812914816779085e-07
4.217000000000000000e+03 1.342517852783203125e+01 2.516243755817413330e-01 -5.764166417066007853e-05 1.735623845888767391e-05 -1.208562753163278103e-05 1.165946741821244359e-05
4.218000000000000000e+03 1.503903388977050781e+01 3.840551078319549561e-01 -2.183347351092379540e-05 -1.637235618545673788e-05 -1.146174872701521963e-05 -5.975154635962098837e-06
4.219000000000000000e+03 1.424006271362304688e+01 2.423980534076690674e-01 4.550420271698385477e-05 9.658627277531195432e-06 1.654884908930398524e-05 -2.996822695422451943e-05
4.220000000000000000e+03 1.447602939605712891e+01 1.142013788223266602e+00 1.452983706258237362e-04 4.532740422291681170e-05 5.718773172702640295e-05 2.618652615637984127e-05
4.221000000000000000e+03 1.113503360748291016e+01 3.384475409984588623e-01 5.229548332863487303e-05 -3.784902219194918871e-06 1.455317396903410554e-05 1.080327933777880389e-06
4.222000000000000000e+03 1.115649890899658203e+01 1.078244447708129883e+00 -1.461918291170150042e-04 -4.137121140956878662e-05 -5.626890924759209156e-05 3.167810405102500226e-07
4.223000000000000000e+03 1.038435840606689453e+01 3.729175329208374023e-01 -4.200280091026797891e-05 -1.358540794171858579e-05 -1.667646210989914834e-05 -1.306172293880081270e-06
4.224000000000000000e+03 1.188578510284423828e+01 3.038018345832824707e-01 -4.963423998560756445e-05 1.478370086260838434e-05 -1.045516182784922421e-05 5.776415036962134764e-06
4.225000000000000000e+03 1.263660717010498047e+01 2.689834535121917725e-01 4.606059519574046135e-05 -1.936647640832234174e-05 8.008235454326495528e-06 -6.457572908402653411e-06
4.226000000000000000e+03 1.266393947601318359e+01 1.008509635925292969e+00 -1.327999198110774159e-04 -2.731874883465934545e-05 -4.803559932042844594e-05 1.946505835803691298e-05
4.227000000000000000e+03 1.040289020538330078e+01 1.112849831581115723e+00 1.721426378935575485e-04 7.905041275080293417e-05 7.535791519330814481e-05 3.194119562976993620e-05
4.228000000000000000e+03 1.191018390655517578e+01 1.043463349342346191e+00 1.637322711758315563e-04 3.197494515916332603e-05 5.871216126251965761e-05 -1.141384200309403241e-05
4.229000000000000000e+03 9.630480766296386719e+00 3.871794641017913818e-01 6.590510020032525063e-05 4.435990922502242029e-05 3.307950464659370482e-05 1.709505522740073502e-05
4.230000000000000000e+03 8.873666763305664062e+00 3.829238712787628174e-01 -1.755804078129585832e-05 -7.473368896171450615e-05 -2.768751801340840757e-05 -6.281802143348613754e-06
4.231000000000000000e+03 9.660673141479492188e+00 1.127179503440856934e+00 -1.031809442793019116e-04 -1.004750083666294813e-04 -6.109678361099213362e-05 -7.723139788140542805e-06
4.232000000000000000e+03 8.116720199584960938e+00 3.805542886257171631e-01 8.869909652275964618e-05 9.567175584379583597e-05 5.531125498237088323e-05 1.603082819201517850e-05
4.233000000000000000e+03 7.360193252563476562e+00 3.795430362224578857e-01 -3.011056605828343891e-06 -1.113436228479258716e-04 -3.430640572332777083e-05 -1.082004200725350529e-05
4.234000000000000000e+03 5.847065925598144531e+00 3.768712580204010010e-01 -3.670099658847902901e-06 -1.030436687869951129e-04 -3.201412982889451087e-05 -7.778992767271120101e-06
4.235000000000000000e+03 5.091114044189453125e+00 3.758820295333862305e-01 7.057643233565613627e-05 7.695959357079118490e-05 4.426080704433843493e-05 -1.074740703188581392e-05
4.236000000000000000e+03 3.579006433486938477e+00 3.681437373161315918e-01 6.482944445451721549e-05 3.449188807280734181e-05 2.979639975819736719e-05 -4.044717115903040394e-06
4.237000000000000000e+03 2.823871612548828125e+00 3.614119887351989746e-01 -7.159425149438902736e-05 -4.298146086512133479e-05 -3.437271516304463148e-05 -2.312475953658577055e-05
4.238000000000000000e+03 2.070111274719238281e+00 3.578882515430450439e-01 6.267782737268134952e-05 6.726456194883212447e-05 3.898271825164556503e-05 3.097751323366537690e-05
4.239000000000000000e+03 2.362852334976196289e+00 1.097888231277465820e+00 -1.309478393523022532e-04 -5.357444024411961436e-05 -5.535668242373503745e-05 -3.249663132010027766e-05
4.240000000000000000e+03 1.328713655471801758e+00 3.659794926643371582e-01 -4.873458601650781929e-05 -7.141518290154635906e-05 -3.604493031161837280e-05 -1.833314854593481869e-05
4.241000000000000000e+03 1.647709608078002930e+00 1.105979442596435547e+00 1.064423850039020181e-04 9.190433047479018569e-05 5.950401464360766113e-05 7.168443517002742738e-06
4.242000000000000000e+03 6.516475677490234375e-01 3.939257264137268066e-01 5.352467269403859973e-05 5.093074287287890911e-05 3.133662539767101407e-05 8.453071131953038275e-06
4.243000000000000000e+03 3.489431142807006836e-01 9.570703506469726562e-01 6.086018765927292407e-05 1.045838871505111456e-05 2.139557182090356946e-05 -4.190675463178195059e-05
4.244000000000000000e+03 3.090358018875122070e+00 1.101411938667297363e+00 1.929873978951945901e-04 5.766579488408751786e-05 7.519595965277403593e-05 -3.920148685665481025e-07
4.245000000000000000e+03 3.819237709045410156e+00 1.108143687248229980e+00 -1.241856516571715474e-04 -7.155929051805287600e-05 -5.872348265256732702e-05 4.205278855806682259e-06
4.246000000000000000e+03 4.335169315338134766e+00 3.733847737312316895e-01 -2.902843334595672786e-05 -4.842919588554650545e-05 -2.323728767805732787e-05 2.993050884469994344e-06
4.247000000000000000e+03 6.008533000946044922e+00 1.116871237754821777e+00 1.763160544214770198e-04 1.240162091562524438e-04 9.009968198370188475e-05 -2.463229611748829484e-05
4.248000000000000000e+03 6.603851795196533203e+00 3.786112964153289795e-01 9.225708345184102654e-05 1.112874087993986905e-04 6.106335058575496078e-05 9.290084562962874770e-06
4.249000000000000000e+03 8.930113792419433594e+00 1.122923851013183594e+00 1.808537926990538836e-04 1.155342761194333434e-04 8.891642210073769093e-05 3.520751124597154558e-05
4.250000000000000000e+03 8.199422836303710938e+00 1.120554327964782715e+00 -8.038451778702437878e-05 -1.317642017966136336e-04 -6.364462024066597223e-05 -6.533648502227151766e-07
4.251000000000000000e+03 7.469150543212890625e+00 1.119543075561523438e+00 1.921078073792159557e-04 1.265386381419375539e-04 9.559393220115453005e-05 1.207677996717393398e-05
4.252000000000000000e+03 6.739063739776611328e+00 1.118611335754394531e+00 -6.079427475924603641e-05 -1.396133884554728866e-04 -6.012230005580931902e-05 2.040377921730396338e-06
4.253000000000000000e+03 5.278835773468017578e+00 1.115882039070129395e+00 -5.710208279197104275e-05 -1.276726543437689543e-04 -5.543242514249868691e-05 1.355282620352227241e-05
4.254000000000000000e+03 4.549146175384521484e+00 1.113384723663330078e+00 1.695297978585585952e-04 1.039818816934712231e-04 8.205350604839622974e-05 -5.175985279493033886e-05
4.255000000000000000e+03 9.968983530998229980e-01 1.133925795555114746e+00 -1.057572953868657351e-04 -1.027556354529224336e-04 -6.255388143472373486e-05 7.205764268292114139e-05
4.256000000000000000e+03 7.947246074676513672e+00 -3.790149092674255371e-01 -1.704591995803639293e-04 -1.539831864647567272e-04 -9.733271872391924262e-05 9.371204941999167204e-05
4.257000000000000000e+03 8.798082351684570312e+00 -1.121163964271545410e+00 -1.322178432019427419e-04 -9.872672671917825937e-05 -6.928337097633630037e-05 2.442904515191912651e-04
4.258000000000000000e+03 9.582462310791015625e+00 -3.862577378749847412e-01 -1.087886339519172907e-04 -3.428803393035195768e-05 -4.292300218367017806e-05 9.403923468198627234e-05
4.259000000000000000e+03 7.128131389617919922e+00 -3.778152763843536377e-01 -1.364923373330384493e-04 1.956342894118279219e-04 1.774258453224319965e-05 -7.824728527339175344e-05
4.260000000000000000e+03 6.302709579467773438e+00 -3.771458566188812256e-01 -2.010110183618962765e-04 -2.106669271597638726e-04 -1.235033851116895676e-04 8.454747148789465427e-05
4.261000000000000000e+03 5.439445972442626953e+00 -3.834656774997711182e-01 -1.721288281260058284e-04 2.034304052358493209e-04 9.390470040671061724e-06 -6.065673005650751293e-05
4.262000000000000000e+03 4.549984931945800781e+00 -3.402172923088073730e-01 -1.380335888825356960e-04 -1.939134817803278565e-04 -9.958411828847602010e-05 3.077783276239642873e-06
4.263000000000000000e+03 4.365737915039062500e+00 -8.721476197242736816e-01 -8.513991633662953973e-05 1.220592457684688270e-04 1.107579919334966689e-05 -1.739775325404480100e-05
4.264000000000000000e+03 2.784216165542602539e+00 -7.810403704643249512e-01 -2.640055527081131004e-06 -3.100790127064101398e-05 -1.009438710752874613e-05 -3.725208443938754499e-05
4.265000000000000000e+03 1.180924773216247559e+00 -3.613742887973785400e-01 -7.235872180899605155e-05 3.157227911287918687e-05 -1.223593153554247692e-05 3.824621308012865484e-05
4.266000000000000000e+03 4.100910127162933350e-01 -5.529776215553283691e-01 -2.034460339928045869e-05 -5.765326932305470109e-05 -2.339936145290266722e-05 -4.578075822792015970e-05
4.267000000000000000e+03 7.475960254669189453e-01 -1.101374268531799316e+00 1.736486447043716908e-04 1.541941310279071331e-04 9.835282980930060148e-05 3.128228854620829225e-05
4.268000000000000000e+03 9.582078933715820312e+00 -1.126257777214050293e+00 -7.772282515361439437e-06 7.048332190606743097e-05 1.881331263575702906e-05 -1.842375495471060276e-04
4.269000000000000000e+03 8.013586997985839844e+00 -1.119014978408813477e+00 -4.464781886781565845e-05 1.246174942934885621e-04 2.399090226390399039e-05 -1.599657844053581357e-04
4.270000000000000000e+03 7.227835178375244141e+00 -1.117815256118774414e+00 -1.810563117032870650e-04 -1.127066207118332386e-04 -8.812887972453609109e-05 1.903045776998624206e-04
4.271000000000000000e+03 6.435775756835937500e+00 -1.117145895957946777e+00 -5.456068538478575647e-05 1.262420410057529807e-04 2.150440559489652514e-05 -1.483743835706263781e-04
4.272000000000000000e+03 5.605874538421630859e+00 -1.123465657234191895e+00 -1.940247602760791779e-04 -8.591312507633119822e-05 -8.398136560572311282e-05 1.411919074598699808e-04
4.273000000000000000e+03 4.870606899261474609e+00 -1.221678614616394043e+00 -2.219719317508861423e-05 3.841533543891273439e-05 4.865442861046176404e-06 -2.589122450444847345e-04
4.274000000000000000e+03 4.215381145477294922e+00 -1.291930317878723145e+00 -1.905446115415543318e-04 -2.447850238240789622e-05 -6.450693035731092095e-05 1.770335948094725609e-04
4.275000000000000000e+03 3.483533143997192383e+00 -1.264367222785949707e+00 1.945248004631139338e-05 4.358428486739285290e-05 1.891102874651551247e-05 -1.760956656653434038e-04
4.276000000000000000e+03 2.720056772232055664e+00 -1.259521603584289551e+00 -1.122446701629087329e-04 -6.118108285591006279e-05 -5.202772445045411587e-05 5.148444324731826782e-05
4.277000000000000000e+03 1.356012225151062012e+00 -1.203287243843078613e+00 -4.544957846519537270e-05 -3.293109766673296690e-04 -1.124281698139384389e-04 3.092282713623717427e-05
4.278000000000000000e+03 1.973117947578430176e+00 -8.476541042327880859e-01 -1.761062662808399182e-06 1.091932281269691885e-04 3.222964733140543103e-05 -1.042850344674661756e-04
4.279000000000000000e+03 8.765102386474609375e+00 -3.811639845371246338e-01 -9.826876339502632618e-05 1.006360616884194314e-04 7.101889991645293776e-07 -7.010303670540452003e-05
4.280000000000000000e+03 3.694828748703002930e+00 -2.827752828598022461e-01 -1.057128538377583027e-04 1.542386598885059357e-04 1.455774327041581273e-05 8.940759471443016082e-06
4.281000000000000000e+03 2.863922595977783203e+00 -2.815187871456146240e-01 -1.411469856975600123e-04 -8.252539555542171001e-05 -6.710171146551147103e-05 -2.272353958687745035e-05
4.282000000000000000e+03 1.994147539138793945e+00 -3.323310017585754395e-01 -3.081039540120400488e-05 -6.656119921899517067e-08 -9.263087122235447168e-06 -1.333386171609163284e-05
4.283000000000000000e+03 1.978801369667053223e+00 -1.275323033332824707e+00 -7.147792348405346274e-05 1.637233654037117958e-04 2.767363366729114205e-05 -1.863310608314350247e-04
4.284000000000000000e+03 3.578665971755981445e+00 -7.871425151824951172e-01 -1.791699323803186417e-04 -4.531197555479593575e-05 -6.734456837875768542e-05 2.090195494020008482e-06
4.285000000000000000e+03 1.511178874969482422e+01 -1.151870131492614746e+00 2.453737579344306141e-05 -1.684145900071598589e-05 2.308774810444447212e-06 -5.210461313254199922e-05
4.286000000000000000e+03 1.328532791137695312e+01 -1.267471551895141602e+00 -4.125055966142099351e-06 -3.490353265078738332e-05 -1.170857649412937462e-05 7.218686369014903903e-05
4.287000000000000000e+03 1.480503654479980469e+01 -5.744030475616455078e-01 4.784737029694952071e-05 2.200847484346013516e-05 2.095675336022395641e-05 -1.014276040223194286e-05
4.288000000000000000e+03 1.453040313720703125e+01 -1.313965797424316406e+00 -1.227935863425955176e-04 -3.138947067782282829e-05 -4.625491783372126520e-05 1.443677465431392193e-04
4.289000000000000000e+03 1.393833351135253906e+01 -1.278923630714416504e+00 2.418371877865865827e-05 6.477240822277963161e-05 2.668683737283572555e-05 -1.167451628134585917e-04
4.290000000000000000e+03 1.336329460144042969e+01 -5.279909372329711914e-01 9.647956176195293665e-06 -6.384982043527998030e-06 9.788921033759834245e-07 -3.216823461116291583e-05
4.291000000000000000e+03 1.411463356018066406e+01 -5.394020080566406250e-01 -3.945068783650640398e-06 -3.993738118879264221e-06 -2.381641934334766120e-06 4.021381027996540070e-05
4.292000000000000000e+03 1.111242771148681641e+01 -4.403275847434997559e-01 -6.185992242535576224e-05 6.715179188176989555e-05 1.587559836480068043e-06 6.702240352751687169e-05
4.293000000000000000e+03 1.260764503479003906e+01 -5.095726251602172852e-01 -1.319661259913118556e-05 2.897033846238628030e-05 4.732117758976528421e-06 2.600015068310312927e-05
4.294000000000000000e+03 1.185993289947509766e+01 -4.741277396678924561e-01 1.629754297027830034e-05 -6.900494918227195740e-05 -1.581222022650763392e-05 -2.100236088153906167e-05
4.295000000000000000e+03 1.109096240997314453e+01 -1.180124521255493164e+00 8.570905629312619567e-05 -4.554555562208406627e-05 1.204904947371687740e-05 -1.358086301479488611e-04
4.296000000000000000e+03 1.036482620239257812e+01 -4.067706167697906494e-01 -3.315153298899531364e-05 -2.858804145944304764e-05 -1.852187233453150839e-05 -5.911565312999300659e-05
4.297000000000000000e+03 1.034629440307617188e+01 -1.146702885627746582e+00 -1.275257091037929058e-04 -2.537853470130357891e-05 -4.587127477861940861e-05 2.610321098472923040e-04
4.298000000000000000e+03 1.258031177520751953e+01 -1.249099493026733398e+00 5.381858500186353922e-05 -4.728350540972314775e-05 1.960524514288408682e-06 -4.227857789373956621e-05
4.299000000000000000e+03 1.183553314208984375e+01 -1.213789224624633789e+00 -1.170644027297385037e-04 5.178094943403266370e-05 -1.958503708010539412e-05 1.231923233717679977e-04
4.300000000000000000e+03 3.801841354370117188e+01 -6.634882926940917969e+00 3.388766479492187500e+01 7.037129402160644531e+00 1.227743816375732422e+01 1.303459167480468750e+01
4.301000000000000000e+03 3.802287673950195312e+01 -6.653833389282226562e+00 3.046996498107910156e+01 1.996221542358398438e+01 1.512965393066406250e+01 2.372677230834960938e+01
4.302000000000000000e+03 3.803094100952148438e+01 -6.671552658081054688e+00 2.779557037353515625e+01 3.213789749145507812e+01 1.798004150390625000e+01 2.719872093200683594e+01
4.303000000000000000e+03 3.804230117797851562e+01 -6.687362670898437500e+00 2.382558059692382812e+01 4.452929687500000000e+01 2.050646400451660156e+01 2.782649803161621094e+01
4.304000000000000000e+03 3.805652236938476562e+01 -6.700658798217773438e+00 2.049829673767089844e+01 5.569807815551757812e+01 2.285891151428222656e+01 2.549259948730468750e+01
4.305000000000000000e+03 3.807305908203125000e+01 -6.710932254791259766e+00 1.748770332336425781e+01 6.505854797363281250e+01 2.476387405395507812e+01 2.074542427062988281e+01
4.306000000000000000e+03 3.809127807617187500e+01 -6.717789649963378906e+00 1.620698547363281250e+01 7.167955017089843750e+01 2.636596107482910156e+01 1.431753158569335938e+01
4.307000000000000000e+03 3.811048507690429688e+01 -6.720968246459960938e+00 1.662947654724121094e+01 7.512865447998046875e+01 2.752743911743164062e+01 6.970387458801269531e+00
4.308000000000000000e+03 3.812994384765625000e+01 -6.720347404479980469e+00 1.919980430603027344e+01 7.541683959960937500e+01 2.838499450683593750e+01 -8.122213184833526611e-02
4.309000000000000000e+03 3.814890670776367188e+01 -6.715950012207031250e+00 2.339115142822265625e+01 7.285279083251953125e+01 2.887318229675292969e+01 -6.048161983489990234e+00
4.310000000000000000e+03 3.816665267944335938e+01 -6.707944393157958984e+00 2.872451210021972656e+01 6.839434051513671875e+01 2.913565635681152344e+01 -1.006954860687255859e+01
4.311000000000000000e+03 3.818250274658203125e+01 -6.696637153625488281e+00 3.438676834106445312e+01 6.285398864746093750e+01 2.917222785949707031e+01 -1.194068527221679688e+01
4.312000000000000000e+03 3.819584655761718750e+01 -6.682461261749267578e+00 3.965896606445312500e+01 5.742059326171875000e+01 2.912386703491210938e+01 -1.163526248931884766e+01
4.313000000000000000e+03 3.820617294311523438e+01 -6.665958404541015625e+00 4.394507980346679688e+01 5.267665863037109375e+01 2.898652267456054688e+01 -9.537444114685058594e+00
4.314000000000000000e+03 3.821309280395507812e+01 -6.647761344909667969e+00 4.684803009033203125e+01 4.939984893798828125e+01 2.887436485290527344e+01 -6.172342777252197266e+00
4.315000000000000000e+03 3.821633529663085938e+01 -6.628564834594726562e+00 4.820713806152343750e+01 4.779301452636718750e+01 2.880004501342773438e+01 -2.061753988265991211e+00
4.316000000000000000e+03 3.821577835083007812e+01 -6.609104633331298828e+00 4.797735214233398438e+01 4.807094192504882812e+01 2.881448745727539062e+01 2.226340055465698242e+00
4.317000000000000000e+03 3.821144485473632812e+01 -6.590125083923339844e+00 4.613672637939453125e+01 5.005424118041992188e+01 2.885729026794433594e+01 6.132145404815673828e+00
4.318000000000000000e+03 3.820349884033203125e+01 -6.572352409362792969e+00 4.288746643066406250e+01 5.379840469360351562e+01 2.900576019287109375e+01 9.132461547851562500e+00
4.319000000000000000e+03 3.819224548339843750e+01 -6.556466579437255859e+00 3.836095809936523438e+01 5.864260482788085938e+01 2.910106849670410156e+01 1.072046470642089844e+01
4.320000000000000000e+03 3.817811203002929688e+01 -6.543076038360595703e+00 3.311708450317382812e+01 6.413793182373046875e+01 2.917650413513183594e+01 1.039767456054687500e+01
4.321000000000000000e+03 3.816164398193359375e+01 -6.532692909240722656e+00 2.768521499633789062e+01 6.943061065673828125e+01 2.913474655151367188e+01 7.902603626251220703e+00
4.322000000000000000e+03 3.814347076416015625e+01 -6.525714397430419922e+00 2.278263092041015625e+01 7.337692260742187500e+01 2.884786796569824219e+01 3.358424186706542969e+00
4.323000000000000000e+03 3.812428665161132812e+01 -6.522407531738281250e+00 1.929657745361328125e+01 7.524116516113281250e+01 2.836132240295410156e+01 -2.944906949996948242e+00
4.324000000000000000e+03 3.810482406616210938e+01 -6.522899150848388672e+00 1.755302238464355469e+01 7.415409851074218750e+01 2.751213645935058594e+01 -1.009348392486572266e+01
4.325000000000000000e+03 3.808582687377929688e+01 -6.527169704437255859e+00 1.785833740234375000e+01 6.983069610595703125e+01 2.630670928955078125e+01 -1.724369239807128906e+01
4.326000000000000000e+03 3.806803131103515625e+01 -6.535056591033935547e+00 1.981413269042968750e+01 6.253149032592773438e+01 2.470368766784667969e+01 -2.315741539001464844e+01
4.327000000000000000e+03 3.805210494995117188e+01 -6.546257972717285156e+00 2.331082344055175781e+01 5.266246795654296875e+01 2.279198646545410156e+01 -2.717716407775878906e+01
4.328000000000000000e+03 3.803866958618164062e+01 -6.560344696044921875e+00 2.678134918212890625e+01 4.125856018066406250e+01 2.041197204589843750e+01 -2.869244956970214844e+01
4.329000000000000000e+03 3.802823257446289062e+01 -6.576777935028076172e+00 3.057273483276367188e+01 2.899151992797851562e+01 1.786927604675292969e+01 -2.716396331787109375e+01
4.330000000000000000e+03 3.802119064331054688e+01 -6.594929218292236328e+00 3.276598739624023438e+01 1.730683326721191406e+01 1.502184581756591797e+01 -2.291317558288574219e+01
4.331000000000000000e+03 3.801782226562500000e+01 -6.614103317260742188e+00 3.489340591430664062e+01 5.617116928100585938e+00 1.215315723419189453e+01 -1.138237476348876953e+01
