# el_label, x, y, sXX, sYY, sZZ, sXY
1.000000000000000000e+00 4.981829452514648438e+01 -6.441609382629394531e+00 -3.999990940093994141e+00 -2.666040182113647461e+00 -1.999809265136718750e+00 -2.686953544616699219e+00
2.000000000000000000e+00 4.962054824829101562e+01 -6.464276313781738281e+00 -3.054080344736576080e-02 1.031637787818908691e+00 3.003291189670562744e-01 7.910738587379455566e-01
3.000000000000000000e+00 4.942280197143554688e+01 -6.486943244934082031e+00 -1.321894764900207520e+00 -4.215823113918304443e-01 -5.230430960655212402e-01 -1.410144288092851639e-02
4.000000000000000000e+00 4.922505569458007812e+01 -6.509610176086425781e+00 -1.662881374359130859e+00 2.156504541635513306e-01 -4.341692924499511719e-01 1.707390695810317993e-01
5.000000000000000000e+00 4.983058929443359375e+01 -6.498705387115478516e+00 1.103577995300292969e+01 -2.352903842926025391e+00 2.604862689971923828e+00 2.201934576034545898e+00
6.000000000000000000e+00 4.964104080200195312e+01 -6.559435844421386719e+00 3.876376628875732422e+00 3.946364521980285645e-01 1.281304001808166504e+00 1.475764751434326172e+00
7.000000000000000000e+00 4.945148849487304688e+01 -6.620166778564453125e+00 3.566126346588134766e+00 9.511872529983520508e-01 1.355194091796875000e+00 2.202638626098632812e+00
8.000000000000000000e+00 4.926194000244140625e+01 -6.680897235870361328e+00 2.291616439819335938e+00 2.189048528671264648e-01 7.531563639640808105e-01 1.413437366485595703e+00
9.000000000000000000e+00 4.985376358032226562e+01 -6.552315235137939453e+00 1.586219406127929688e+01 2.879341125488281250e+00 5.622460365295410156e+00 9.223471641540527344e+00
1.000000000000000000e+01 4.967966461181640625e+01 -6.648785591125488281e+00 9.568411827087402344e+00 1.734911322593688965e+00 3.390996932983398438e+00 5.391221046447753906e+00
1.100000000000000000e+01 4.950556564331054688e+01 -6.745255947113037109e+00 6.364523410797119141e+00 2.222936153411865234e+00 2.576237916946411133e+00 4.295690059661865234e+00
1.200000000000000000e+01 4.933146286010742188e+01 -6.841726779937744141e+00 5.397722244262695312e+00 2.127778291702270508e+00 2.257650136947631836e+00 4.038007259368896484e+00
1.300000000000000000e+01 4.988693237304687500e+01 -6.600387573242187500e+00 1.721679687500000000e+01 9.977519035339355469e+00 8.158294677734375000e+00 1.450450515747070312e+01
1.400000000000000000e+01 4.973494338989257812e+01 -6.728906154632568359e+00 1.106987571716308594e+01 6.212521553039550781e+00 5.184719085693359375e+00 9.469388961791992188e+00
1.500000000000000000e+01 4.958295822143554688e+01 -6.857425212860107422e+00 8.646992683410644531e+00 5.050374031066894531e+00 4.109210014343261719e+00 7.515985012054443359e+00
1.600000000000000000e+01 4.943096923828125000e+01 -6.985943794250488281e+00 6.804808139801025391e+00 4.603844642639160156e+00 3.422595977783203125e+00 6.391438484191894531e+00
1.700000000000000000e+01 4.992882537841796875e+01 -6.641082763671875000e+00 1.520307540893554688e+01 1.869388771057128906e+01 1.016908931732177734e+01 1.758900260925292969e+01
1.800000000000000000e+01 4.980476379394531250e+01 -6.796731948852539062e+00 1.095756244659423828e+01 1.215875053405761719e+01 6.934894084930419922e+00 1.239011955261230469e+01
1.900000000000000000e+01 4.968070602416992188e+01 -6.952380657196044922e+00 8.499261856079101562e+00 9.612112998962402344e+00 5.433412551879882812e+00 9.899661064147949219e+00
2.000000000000000000e+01 4.955664825439453125e+01 -7.108029842376708984e+00 7.089621067047119141e+00 8.276774406433105469e+00 4.609918594360351562e+00 8.646376609802246094e+00
2.100000000000000000e+01 4.997784042358398438e+01 -6.672843933105468750e+00 1.234812736511230469e+01 2.759237480163574219e+01 1.198215103149414062e+01 1.801225471496582031e+01
2.200000000000000000e+01 4.988645553588867188e+01 -6.849666595458984375e+00 9.124995231628417969e+00 1.882548141479492188e+01 8.385143280029296875e+00 1.340204238891601562e+01
2.300000000000000000e+01 4.979507064819335938e+01 -7.026489734649658203e+00 7.466104984283447266e+00 1.509726715087890625e+01 6.769011974334716797e+00 1.113707828521728516e+01
2.400000000000000000e+01 4.970368576049804688e+01 -7.203312397003173828e+00 5.996361732482910156e+00 1.284943866729736328e+01 5.653740406036376953e+00 9.639404296875000000e+00
2.500000000000000000e+01 5.003209686279296875e+01 -6.694455146789550781e+00 9.218535423278808594e+00 3.557083892822265625e+01 1.343681240081787109e+01 1.582079887390136719e+01
2.600000000000000000e+01 4.997688674926757812e+01 -6.885685443878173828e+00 7.310544490814208984e+00 2.527724456787109375e+01 9.776336669921875000e+00 1.258080005645751953e+01
2.700000000000000000e+01 4.992167663574218750e+01 -7.076915740966796875e+00 5.668938159942626953e+00 2.054062271118164062e+01 7.862868309020996094e+00 1.069430351257324219e+01
2.800000000000000000e+01 4.986646270751953125e+01 -7.268146038055419922e+00 4.782833099365234375e+00 1.787692832946777344e+01 6.797928810119628906e+00 9.522888183593750000e+00
2.900000000000000000e+01 5.008952713012695312e+01 -6.705089569091796875e+00 7.548632144927978516e+00 4.172052383422851562e+01 1.478074645996093750e+01 1.175237941741943359e+01
3.000000000000000000e+01 5.007260131835937500e+01 -6.903409957885742188e+00 5.705682754516601562e+00 3.064006614685058594e+01 1.090372467041015625e+01 1.006002235412597656e+01
3.100000000000000000e+01 5.005567550659179688e+01 -7.101729869842529297e+00 4.450803279876708984e+00 2.539150047302246094e+01 8.952691078186035156e+00 8.897747039794921875e+00
3.200000000000000000e+01 5.003874969482421875e+01 -7.300049781799316406e+00 3.572804212570190430e+00 2.205973243713378906e+01 7.689761161804199219e+00 7.990413665771484375e+00
3.300000000000000000e+01 5.014792633056640625e+01 -6.704340457916259766e+00 7.543545722961425781e+00 4.540065765380859375e+01 1.588326168060302734e+01 6.585498332977294922e+00
3.400000000000000000e+01 5.016993331909179688e+01 -6.902161121368408203e+00 5.300990581512451172e+00 3.447855758666992188e+01 1.193386363983154297e+01 6.573751449584960938e+00
3.500000000000000000e+01 5.019194030761718750e+01 -7.099981784820556641e+00 4.001626491546630859e+00 2.888008308410644531e+01 9.864512443542480469e+00 5.970286369323730469e+00
3.600000000000000000e+01 5.021394729614257812e+01 -7.297802448272705078e+00 3.092228412628173828e+00 2.535370063781738281e+01 8.533779144287109375e+00 5.496160030364990234e+00
3.700000000000000000e+01 5.020505905151367188e+01 -6.692236423492431641e+00 9.429991722106933594e+00 4.664162063598632812e+01 1.682148361206054688e+01 1.533272743225097656e+00
3.800000000000000000e+01 5.026515960693359375e+01 -6.881987571716308594e+00 6.296802997589111328e+00 3.640682220458984375e+01 1.281108760833740234e+01 2.664088964462280273e+00
3.900000000000000000e+01 5.032525634765625000e+01 -7.071738719940185547e+00 4.619427204132080078e+00 3.088218116760253906e+01 1.065048217773437500e+01 2.650415420532226562e+00
4.000000000000000000e+01 5.038535690307617188e+01 -7.261489868164062500e+00 3.706266880035400391e+00 2.734434318542480469e+01 9.315182685852050781e+00 2.571894645690917969e+00
4.100000000000000000e+01 5.025874710083007812e+01 -6.669240474700927734e+00 1.288576221466064453e+01 4.578808212280273438e+01 1.760215377807617188e+01 -2.589975118637084961e+00
4.200000000000000000e+01 5.035463714599609375e+01 -6.843660831451416016e+00 8.566410064697265625e+00 3.659692001342773438e+01 1.354899883270263672e+01 -9.028999209403991699e-01
4.300000000000000000e+01 5.045052719116210938e+01 -7.018081665039062500e+00 6.464825153350830078e+00 3.129757881164550781e+01 1.132872104644775391e+01 -4.404825568199157715e-01
4.400000000000000000e+01 5.054641723632812500e+01 -7.192502021789550781e+00 5.248949527740478516e+00 2.781491470336914062e+01 9.919158935546875000e+00 -2.080383449792861938e-01
4.500000000000000000e+01 5.030693054199218750e+01 -6.636232376098632812e+00 1.723717689514160156e+01 4.360167312622070312e+01 1.825165557861328125e+01 -5.185724258422851562e+00
4.600000000000000000e+01 5.043494415283203125e+01 -6.788647651672363281e+00 1.178878116607666016e+01 3.533682250976562500e+01 1.413768100738525391e+01 -3.553707122802734375e+00
4.700000000000000000e+01 5.056295394897460938e+01 -6.941062927246093750e+00 9.268058776855468750e+00 3.042226791381835938e+01 1.190709781646728516e+01 -2.758792161941528320e+00
4.800000000000000000e+01 5.069096374511718750e+01 -7.093478202819824219e+00 7.589632987976074219e+00 2.703498077392578125e+01 1.038738441467285156e+01 -2.387819766998291016e+00
4.900000000000000000e+01 5.034776687622070312e+01 -6.594476222991943359e+00 2.164988517761230469e+01 4.075588226318359375e+01 1.872173118591308594e+01 -6.136770248413085938e+00
5.000000000000000000e+01 5.050300216674804688e+01 -6.719053745269775391e+00 1.548666286468505859e+01 3.329775619506835938e+01 1.463532638549804688e+01 -4.828309535980224609e+00
5.100000000000000000e+01 5.065823745727539062e+01 -6.843631267547607422e+00 1.246663284301757812e+01 2.862657928466796875e+01 1.232796382904052734e+01 -4.048465251922607422e+00
5.200000000000000000e+01 5.081346893310546875e+01 -6.968208789825439453e+00 1.049547100067138672e+01 2.565211677551269531e+01 1.084427642822265625e+01 -3.514382362365722656e+00
5.300000000000000000e+01 5.037969207763671875e+01 -6.545568466186523438e+00 2.548995399475097656e+01 3.815557861328125000e+01 1.909366035461425781e+01 -5.537897586822509766e+00
5.400000000000000000e+01 5.055620956420898438e+01 -6.637541294097900391e+00 1.899829673767089844e+01 3.092890739440917969e+01 1.497816085815429688e+01 -4.715411186218261719e+00
5.500000000000000000e+01 5.073272705078125000e+01 -6.729514122009277344e+00 1.550920581817626953e+01 2.671974563598632812e+01 1.266868495941162109e+01 -4.056978225708007812e+00
5.600000000000000000e+01 5.090924072265625000e+01 -6.821486473083496094e+00 1.333050727844238281e+01 2.387417984008789062e+01 1.116140651702880859e+01 -3.573577165603637695e+00
5.700000000000000000e+01 5.040148162841796875e+01 -6.491381645202636719e+00 2.829055595397949219e+01 3.613086318969726562e+01 1.932642555236816406e+01 -3.750418186187744141e+00
5.800000000000000000e+01 5.059252929687500000e+01 -6.547230243682861328e+00 2.167827033996582031e+01 2.903026771545410156e+01 1.521256160736083984e+01 -3.389110088348388672e+00
5.900000000000000000e+01 5.078357315063476562e+01 -6.603078365325927734e+00 1.792502212524414062e+01 2.504937553405761719e+01 1.289231872558593750e+01 -2.912270069122314453e+00
6.000000000000000000e+01 5.097461700439453125e+01 -6.658926486968994141e+00 1.543570804595947266e+01 2.239561080932617188e+01 1.134939575195312500e+01 -2.631906986236572266e+00
6.100000000000000000e+01 5.041230773925781250e+01 -6.433989524841308594e+00 2.969926261901855469e+01 3.508309555053710938e+01 1.943470764160156250e+01 -1.310572624206542969e+00
6.200000000000000000e+01 5.061056900024414062e+01 -6.451576232910156250e+00 2.312811279296875000e+01 2.798064041137695312e+01 1.533262634277343750e+01 -1.180128931999206543e+00
6.300000000000000000e+01 5.080883407592773438e+01 -6.469162940979003906e+00 1.920390892028808594e+01 2.412172508239746094e+01 1.299769020080566406e+01 -1.055867075920104980e+00
6.400000000000000000e+01 5.100709533691406250e+01 -6.486749172210693359e+00 1.661362457275390625e+01 2.155413246154785156e+01 1.145032691955566406e+01 -9.142762422561645508e-01
6.500000000000000000e+01 5.041175460815429688e+01 -6.375587940216064453e+00 2.964410018920898438e+01 3.515559005737304688e+01 1.943990707397460938e+01 1.396157503128051758e+00
6.600000000000000000e+01 5.060964584350585938e+01 -6.354239940643310547e+00 2.306194877624511719e+01 2.801189231872558594e+01 1.532215213775634766e+01 1.254144430160522461e+00
6.700000000000000000e+01 5.080753707885742188e+01 -6.332891941070556641e+00 1.915433502197265625e+01 2.418468284606933594e+01 1.300170516967773438e+01 1.108128905296325684e+00
6.800000000000000000e+01 5.100543212890625000e+01 -6.311543941497802734e+00 1.660966491699218750e+01 2.157981681823730469e+01 1.145684432983398438e+01 9.508180022239685059e-01
6.900000000000000000e+01 5.039984130859375000e+01 -6.318411350250244141e+00 2.809920310974121094e+01 3.625164413452148438e+01 1.930525398254394531e+01 3.794738531112670898e+00
7.000000000000000000e+01 5.058979034423828125e+01 -6.258945465087890625e+00 2.151482200622558594e+01 2.919826698303222656e+01 1.521392726898193359e+01 3.402839660644531250e+00
7.100000000000000000e+01 5.077973937988281250e+01 -6.199480056762695312e+00 1.778357124328613281e+01 2.514506721496582031e+01 1.287859153747558594e+01 2.920319318771362305e+00
7.200000000000000000e+01 5.096969223022460938e+01 -6.140014171600341797e+00 1.534042167663574219e+01 2.255424118041992188e+01 1.136839866638183594e+01 2.578179359436035156e+00
7.300000000000000000e+01 5.037702178955078125e+01 -6.264647960662841797e+00 2.522576332092285156e+01 3.838137435913085938e+01 1.908214187622070312e+01 5.469324588775634766e+00
7.400000000000000000e+01 5.055176162719726562e+01 -6.169340133666992188e+00 1.874671554565429688e+01 3.111055946350097656e+01 1.495718193054199219e+01 4.653002262115478516e+00
7.500000000000000000e+01 5.072650146484375000e+01 -6.074032783508300781e+00 1.532231903076171875e+01 2.691396331787109375e+01 1.267088508605957031e+01 3.953449010848999023e+00
7.600000000000000000e+01 5.090124130249023438e+01 -5.978724956512451172e+00 1.309032344818115234e+01 2.404306602478027344e+01 1.114001655578613281e+01 3.480842351913452148e+00
7.700000000000000000e+01 5.034417343139648438e+01 -6.216355800628662109e+00 2.131201934814453125e+01 4.100794219970703125e+01 1.869598770141601562e+01 5.944754123687744141e+00
7.800000000000000000e+01 5.049701690673828125e+01 -6.088852882385253906e+00 1.523932266235351562e+01 3.347760391235351562e+01 1.461507797241210938e+01 4.632030487060546875e+00
7.900000000000000000e+01 5.064985656738281250e+01 -5.961350440979003906e+00 1.222590446472167969e+01 2.882311630249023438e+01 1.231470584869384766e+01 3.860775709152221680e+00
8.000000000000000000e+01 5.080270004272460938e+01 -5.833847999572753906e+00 1.030543422698974609e+01 2.582811546325683594e+01 1.084006500244140625e+01 3.354929685592651367e+00
8.100000000000000000e+01 5.030255508422851562e+01 -6.175382137298583984e+00 1.689838409423828125e+01 4.381748962402343750e+01 1.821476173400878906e+01 4.853520870208740234e+00
8.200000000000000000e+01 5.042765045166015625e+01 -6.020563602447509766e+00 1.157857322692871094e+01 3.546689224243164062e+01 1.411363983154296875e+01 3.206026077270507812e+00
8.300000000000000000e+01 5.055274581909179688e+01 -5.865745067596435547e+00 9.075535774230957031e+00 3.051821327209472656e+01 1.187812423706054688e+01 2.510583400726318359e+00
8.400000000000000000e+01 5.067783737182617188e+01 -5.710926532745361328e+00 7.478544235229492188e+00 2.718754196166992188e+01 1.039982604980468750e+01 2.118463516235351562e+00
8.500000000000000000e+01 5.025375366210937500e+01 -6.143294811248779297e+00 1.264200019836425781e+01 4.587773895263671875e+01 1.755592155456542969e+01 2.118808984756469727e+00
8.600000000000000000e+01 5.034631347656250000e+01 -5.967084884643554688e+00 8.414692878723144531e+00 3.665408325195312500e+01 1.352063274383544922e+01 4.627979993820190430e-01
8.700000000000000000e+01 5.043887710571289062e+01 -5.790875434875488281e+00 6.416265964508056641e+00 3.123603439331054688e+01 1.129568958282470703e+01 7.147665321826934814e-02
8.800000000000000000e+01 5.053143692016601562e+01 -5.614665508270263672e+00 5.129854679107666016e+00 2.779823493957519531e+01 9.878426551818847656e+00 -9.322209656238555908e-02
8.900000000000000000e+01 5.019964218139648438e+01 -6.121322631835937500e+00 9.336067199707031250e+00 4.660218811035156250e+01 1.678147697448730469e+01 -2.133503437042236328e+00
9.000000000000000000e+01 5.025612640380859375e+01 -5.930464267730712891e+00 6.259486675262451172e+00 3.627878570556640625e+01 1.276148128509521484e+01 -3.117764472961425781e+00
9.100000000000000000e+01 5.031261062622070312e+01 -5.739606380462646484e+00 4.676578044891357422e+00 3.077118301391601562e+01 1.063432788848876953e+01 -3.121916770935058594e+00
9.200000000000000000e+01 5.036909484863281250e+01 -5.548748493194580078e+00 3.689500570297241211e+00 2.706888580322265625e+01 9.227516174316406250e+00 -2.915822267532348633e+00
9.300000000000000000e+01 5.014228439331054688e+01 -6.110305309295654297e+00 7.584507465362548828e+00 4.512850189208984375e+01 1.581390285491943359e+01 -7.181071758270263672e+00
9.400000000000000000e+01 5.016053390502929688e+01 -5.912102222442626953e+00 5.449651241302490234e+00 3.420999908447265625e+01 1.189789485931396484e+01 -7.047928810119628906e+00
9.500000000000000000e+01 5.017877960205078125e+01 -5.713899612426757812e+00 4.095245838165283203e+00 2.864352989196777344e+01 9.821632385253906250e+00 -6.376291275024414062e+00
9.600000000000000000e+01 5.019702911376953125e+01 -5.515697002410888672e+00 3.270712614059448242e+00 2.516535949707031250e+01 8.530821800231933594e+00 -5.903371810913085938e+00
9.700000000000000000e+01 5.008388137817382812e+01 -6.110665321350097656e+00 7.798163890838623047e+00 4.123110961914062500e+01 1.470878219604492188e+01 -1.228697490692138672e+01
9.800000000000000000e+01 5.006319427490234375e+01 -5.912702083587646484e+00 5.944747924804687500e+00 3.024104499816894531e+01 1.085573768615722656e+01 -1.043534660339355469e+01
9.900000000000000000e+01 5.004250717163085938e+01 -5.714739322662353516e+00 4.659920215606689453e+00 2.505568313598632812e+01 8.914681434631347656e+00 -9.231686592102050781e+00
1.000000000000000000e+02 5.002181625366210938e+01 -5.516776561737060547e+00 3.838186264038085938e+00 2.186585998535156250e+01 7.711214065551757812e+00 -8.225162506103515625e+00
1.010000000000000000e+02 5.002666473388671875e+01 -6.122388362884521484e+00 9.644625663757324219e+00 3.491969680786132812e+01 1.336929607391357422e+01 -1.618740272521972656e+01
1.020000000000000000e+02 4.996783447265625000e+01 -5.932240486145019531e+00 7.591393470764160156e+00 2.476668548583984375e+01 9.707424163818359375e+00 -1.282192802429199219e+01
1.030000000000000000e+02 4.990900039672851562e+01 -5.742093086242675781e+00 5.954760551452636719e+00 2.017623138427734375e+01 7.839297294616699219e+00 -1.086887454986572266e+01
1.040000000000000000e+02 4.985017013549804688e+01 -5.551945686340332031e+00 5.103177547454833984e+00 1.747718620300292969e+01 6.774109363555908203e+00 -9.662051200866699219e+00
1.050000000000000000e+02 4.997282791137695312e+01 -6.145025730133056641e+00 1.281328773498535156e+01 2.682189559936523438e+01 1.189055442810058594e+01 -1.817586708068847656e+01
1.060000000000000000e+02 4.987810134887695312e+01 -5.969969749450683594e+00 9.447920799255371094e+00 1.830541419982910156e+01 8.326000213623046875e+00 -1.344402790069580078e+01
1.070000000000000000e+02 4.978337860107421875e+01 -5.794914245605468750e+00 7.707058906555175781e+00 1.465157318115234375e+01 6.707589626312255859e+00 -1.116181755065917969e+01
1.080000000000000000e+02 4.968865203857421875e+01 -5.619858264923095703e+00 6.293529510498046875e+00 1.250864696502685547e+01 5.640653133392333984e+00 -9.690319061279296875e+00
1.090000000000000000e+02 4.992442321777343750e+01 -6.177711486816406250e+00 1.560222434997558594e+01 1.796096611022949219e+01 1.006895732879638672e+01 -1.751360130310058594e+01
1.100000000000000000e+02 4.979743194580078125e+01 -6.024446487426757812e+00 1.124697780609130859e+01 1.165130424499511719e+01 6.869484424591064453e+00 -1.226062107086181641e+01
1.110000000000000000e+02 4.967044067382812500e+01 -5.871181011199951172e+00 8.658776283264160156e+00 9.208085060119628906e+00 5.360058307647705078e+00 -9.786854743957519531e+00
1.120000000000000000e+02 4.954344940185546875e+01 -5.717916011810302734e+00 7.233859539031982422e+00 7.882449150085449219e+00 4.534892559051513672e+00 -8.523633956909179688e+00
1.130000000000000000e+02 4.988331222534179688e+01 -6.219194889068603516e+00 1.748258399963378906e+01 9.409485816955566406e+00 8.067621231079101562e+00 -1.420103740692138672e+01
1.140000000000000000e+02 4.972891235351562500e+01 -6.093585491180419922e+00 1.120863151550292969e+01 5.788146972656250000e+00 5.099033355712890625e+00 -9.269096374511718750e+00
1.150000000000000000e+02 4.957451248168945312e+01 -5.967975616455078125e+00 8.763710021972656250e+00 4.739408016204833984e+00 4.050935268402099609e+00 -7.266523838043212891e+00
1.160000000000000000e+02 4.942011260986328125e+01 -5.842366218566894531e+00 6.801674842834472656e+00 4.107750892639160156e+00 3.272827863693237305e+00 -6.228634357452392578e+00
1.170000000000000000e+02 4.985106277465820312e+01 -6.267888545989990234e+00 1.588652992248535156e+01 2.497919321060180664e+00 5.515335083007812500e+00 -8.830384254455566406e+00
1.180000000000000000e+02 4.967516326904296875e+01 -6.174741268157958984e+00 9.521659851074218750e+00 1.519565105438232422e+00 3.312367677688598633e+00 -5.147582530975341797e+00
1.190000000000000000e+02 4.949926376342773438e+01 -6.081593990325927734e+00 6.402150630950927734e+00 1.940158963203430176e+00 2.502692937850952148e+00 -4.092467308044433594e+00
1.200000000000000000e+02 4.932336425781250000e+01 -5.988446712493896484e+00 5.425817966461181641e+00 1.850712418556213379e+00 2.182959079742431641e+00 -3.919729471206665039e+00
1.210000000000000000e+02 4.982891082763671875e+01 -6.321928977966308594e+00 1.075352382659912109e+01 -2.434668064117431641e+00 2.495656728744506836e+00 -1.854073286056518555e+00
1.220000000000000000e+02 4.963824081420898438e+01 -6.264808177947998047e+00 3.674699068069458008e+00 3.290516138076782227e-01 1.201125264167785645e+00 -1.317859292030334473e+00
1.230000000000000000e+02 4.944757461547851562e+01 -6.207687854766845703e+00 3.485839843750000000e+00 7.619918584823608398e-01 1.274349570274353027e+00 -2.134272575378417969e+00
1.240000000000000000e+02 4.925690460205078125e+01 -6.150567054748535156e+00 2.325871229171752930e+00 2.162164747714996338e-01 7.626262903213500977e-01 -1.391952395439147949e+00
1.250000000000000000e+02 4.981770324707031250e+01 -6.379247665405273438e+00 -4.514203548431396484e+00 -2.573100090026855469e+00 -2.126191139221191406e+00 2.696332216262817383e+00
1.260000000000000000e+02 4.961956024169921875e+01 -6.360340118408203125e+00 -2.279860824346542358e-01 1.010512232780456543e+00 2.347578555345535278e-01 -7.607076168060302734e-01
1.270000000000000000e+02 4.942142105102539062e+01 -6.341432094573974609e+00 -1.522141456604003906e+00 -4.688658118247985840e-01 -5.973021984100341797e-01 -2.555213309824466705e-02
1.280000000000000000e+02 4.922327804565429688e+01 -6.322524070739746094e+00 -1.896197795867919922e+00 2.620409429073333740e-01 -4.902470707893371582e-01 -2.104377746582031250e-01
1.290000000000000000e+02 2.196186065673828125e+01 -6.700578212738037109e+00 -4.811609089374542236e-01 8.872554637491703033e-03 -1.416864991188049316e-01 -8.863974362611770630e-04
1.300000000000000000e+02 2.033289909362792969e+01 -7.179516792297363281e+00 -3.133888244628906250e-01 1.922116056084632874e-02 -8.825029432773590088e-02 -1.117958724498748779e-01
1.310000000000000000e+02 2.261169624328613281e+01 -7.556783676147460938e+00 -6.813502311706542969e-01 2.275852300226688385e-02 -1.975775212049484253e-01 -1.426755785942077637e-01
1.320000000000000000e+02 2.185197448730468750e+01 -7.432458400726318359e+00 -5.592915415763854980e-01 3.003020025789737701e-02 -1.587783992290496826e-01 -1.324969977140426636e-01
1.330000000000000000e+02 2.270871162414550781e+01 -6.822772979736328125e+00 -6.637604832649230957e-01 -1.078251167200505733e-03 -1.994516253471374512e-01 6.496923044323921204e-03
1.340000000000000000e+02 2.121509361267089844e+01 -6.576943874359130859e+00 -3.335743844509124756e-01 5.728040356189012527e-03 -9.835390746593475342e-02 -1.361189689487218857e-02
1.350000000000000000e+02 2.046852302551269531e+01 -6.451897144317626953e+00 -2.077530622482299805e-01 1.133167929947376251e-02 -5.892641842365264893e-02 -2.365873754024505615e-02
1.360000000000000000e+02 2.109233665466308594e+01 -7.306693553924560547e+00 -4.285736680030822754e-01 2.842431515455245972e-02 -1.200448051095008850e-01 -1.244561746716499329e-01
1.370000000000000000e+02 2.421343040466308594e+01 -6.977969646453857422e+00 -9.710484743118286133e-01 3.388668410480022430e-03 -2.902979254722595215e-01 4.981512669473886490e-03
1.380000000000000000e+02 2.414235687255859375e+01 -7.714632511138916016e+00 -9.438129067420959473e-01 1.605371199548244476e-02 -2.783277630805969238e-01 -1.278752535581588745e-01
1.390000000000000000e+02 2.337517356872558594e+01 -7.650850772857666016e+00 -8.078621625900268555e-01 1.449956838041543961e-02 -2.380087673664093018e-01 -1.346558034420013428e-01
1.400000000000000000e+02 2.490980529785156250e+01 -7.777047634124755859e+00 -1.073618769645690918e+00 1.197504810988903046e-02 -3.184931278228759766e-01 -1.353329271078109741e-01
1.410000000000000000e+02 2.496787261962890625e+01 -7.039327144622802734e+00 -1.123600363731384277e+00 2.203221200034022331e-03 -3.364191353321075439e-01 1.182682439684867859e-02
1.420000000000000000e+02 2.567740631103515625e+01 -7.838097095489501953e+00 -1.185207843780517578e+00 -4.189824219793081284e-03 -3.568193018436431885e-01 -1.406270712614059448e-01
1.430000000000000000e+02 2.572246742248535156e+01 -7.099318504333496094e+00 -1.302442669868469238e+00 -8.454775437712669373e-03 -3.932692110538482666e-01 6.315192673355340958e-03
1.440000000000000000e+02 2.345925331115722656e+01 -6.915245532989501953e+00 -8.327888250350952148e-01 -3.113288898020982742e-03 -2.507706284523010254e-01 3.302324330434203148e-03
1.450000000000000000e+02 2.796761512756347656e+01 -7.914083957672119141e+00 -1.527062177658081055e+00 -4.675099160522222519e-03 -4.595211744308471680e-01 -1.441848874092102051e-01
1.460000000000000000e+02 2.720497512817382812e+01 -7.896495819091796875e+00 -1.422181487083435059e+00 -5.179448984563350677e-03 -4.282082617282867432e-01 -1.320910006761550903e-01
1.470000000000000000e+02 2.644245719909667969e+01 -7.877746582031250000e+00 -1.299885272979736328e+00 -1.045120507478713989e-02 -3.931009173393249512e-01 -1.321047097444534302e-01
1.480000000000000000e+02 2.873032188415527344e+01 -7.930514812469482422e+00 -1.617714166641235352e+00 -1.655470207333564758e-02 -4.902806580066680908e-01 -1.504976451396942139e-01
1.490000000000000000e+02 2.798519706726074219e+01 -7.174292564392089844e+00 -1.675152540206909180e+00 -1.068260287865996361e-03 -5.028662681579589844e-01 -2.564971521496772766e-02
1.500000000000000000e+02 2.723094940185546875e+01 -7.156898498535156250e+00 -1.553316354751586914e+00 8.856789645506069064e-05 -4.659683406352996826e-01 -2.349060401320457458e-02
1.510000000000000000e+02 2.873951339721679688e+01 -7.190530300140380859e+00 -1.816103458404541016e+00 -8.232375606894493103e-03 -5.473007559776306152e-01 -3.650233894586563110e-02
1.520000000000000000e+02 2.647681999206542969e+01 -7.138342857360839844e+00 -1.448853015899658203e+00 -1.042599231004714966e-02 -4.377837181091308594e-01 -1.271427143365144730e-02
1.530000000000000000e+02 2.949276733398437500e+01 -7.195246696472167969e+00 -1.930257678031921387e+00 -1.093697268515825272e-02 -5.823584198951721191e-01 -5.618004128336906433e-02
1.540000000000000000e+02 2.948995018005371094e+01 -7.935307502746582031e+00 -1.711059093475341797e+00 -1.711484044790267944e-02 -5.184521675109863281e-01 -1.469211429357528687e-01
1.550000000000000000e+02 3.024649810791015625e+01 -7.928795814514160156e+00 -1.808296680450439453e+00 -1.228924747556447983e-02 -5.461757779121398926e-01 -1.506553292274475098e-01
1.560000000000000000e+02 3.099722290039062500e+01 -7.181584835052490234e+00 -2.110463857650756836e+00 -3.870722837746143341e-03 -6.343003511428833008e-01 -7.217423617839813232e-02
1.570000000000000000e+02 3.175983238220214844e+01 -7.913609027862548828e+00 -1.962983489036560059e+00 -1.596520841121673584e-02 -5.936846137046813965e-01 -1.643945574760437012e-01
1.580000000000000000e+02 3.174956512451171875e+01 -7.173673152923583984e+00 -2.218070030212402344e+00 -6.267110351473093033e-03 -6.673011183738708496e-01 -8.071040362119674683e-02
1.590000000000000000e+02 3.024495315551757812e+01 -7.188776493072509766e+00 -2.013473987579345703e+00 -1.922650146298110485e-03 -6.046190261840820312e-01 -6.781391054391860962e-02
1.600000000000000000e+02 3.100312805175781250e+01 -7.921562194824218750e+00 -1.889835596084594727e+00 -8.953341282904148102e-03 -5.696367025375366211e-01 -1.601481586694717407e-01
1.610000000000000000e+02 3.325168609619140625e+01 -7.142140388488769531e+00 -2.386750936508178711e+00 -3.042975673452019691e-03 -7.169381380081176758e-01 -1.011180877685546875e-01
1.620000000000000000e+02 3.401905441284179688e+01 -7.863194465637207031e+00 -2.174900054931640625e+00 -7.613406516611576080e-03 -6.547539830207824707e-01 -1.696214079856872559e-01
1.630000000000000000e+02 3.251437759399414062e+01 -7.900443077087402344e+00 -2.036709308624267578e+00 -1.379133388400077820e-02 -6.151502132415771484e-01 -1.630649417638778687e-01
1.640000000000000000e+02 3.477159881591796875e+01 -7.845397949218750000e+00 -2.232408523559570312e+00 -1.118261367082595825e-02 -6.730773448944091797e-01 -1.703276634216308594e-01
1.650000000000000000e+02 3.475299453735351562e+01 -7.105631351470947266e+00 -2.555869102478027344e+00 -4.812655970454216003e-03 -7.682045698165893555e-01 -1.091118305921554565e-01
1.660000000000000000e+02 3.400221252441406250e+01 -7.123385429382324219e+00 -2.469596147537231445e+00 -5.367531906813383102e-03 -7.424891591072082520e-01 -1.043007746338844299e-01
1.670000000000000000e+02 3.250104904174804688e+01 -7.160549640655517578e+00 -2.310701847076416016e+00 -9.468180127441883087e-03 -6.960510015487670898e-01 -9.333152323961257935e-02
1.680000000000000000e+02 3.326676940917968750e+01 -7.881991863250732422e+00 -2.110804080963134766e+00 -1.180400792509317398e-02 -6.367824077606201172e-01 -1.651972830295562744e-01
1.690000000000000000e+02 3.550323104858398438e+01 -7.085636138916015625e+00 -2.635910034179687500e+00 -7.510278373956680298e-03 -7.930260896682739258e-01 -1.151632815599441528e-01
1.700000000000000000e+02 3.627172470092773438e+01 -7.801253795623779297e+00 -2.341656208038330078e+00 -6.959257647395133972e-03 -7.045846581459045410e-01 -1.652688831090927124e-01
1.710000000000000000e+02 3.552280426025390625e+01 -7.825378894805908203e+00 -2.287181615829467773e+00 -7.604117970913648605e-03 -6.884357333183288574e-01 -1.676361262798309326e-01
1.720000000000000000e+02 3.700176620483398438e+01 -7.040159225463867188e+00 -2.781417369842529297e+00 -5.147699266672134399e-03 -8.359695076942443848e-01 -1.189304888248443604e-01
1.730000000000000000e+02 3.775260925292968750e+01 -7.021411418914794922e+00 -2.848511457443237305e+00 -1.824482227675616741e-03 -8.551007509231567383e-01 -1.187537983059883118e-01
1.740000000000000000e+02 3.777272796630859375e+01 -7.761138439178466797e+00 -2.422164678573608398e+00 -1.468116999603807926e-03 -7.270898222923278809e-01 -1.577777266502380371e-01
1.750000000000000000e+02 3.702170562744140625e+01 -7.779891967773437500e+00 -2.384909629821777344e+00 -1.861232798546552658e-03 -7.160312533378601074e-01 -1.631430089473724365e-01
1.760000000000000000e+02 3.625196838378906250e+01 -7.061516284942626953e+00 -2.708932876586914062e+00 -2.624428598210215569e-03 -8.134672045707702637e-01 -1.184199228882789612e-01
1.770000000000000000e+02 3.925203704833984375e+01 -6.983466625213623047e+00 -2.982723712921142578e+00 -1.385110663250088692e-03 -8.952326774597167969e-01 -1.156039014458656311e-01
1.780000000000000000e+02 3.850259399414062500e+01 -7.002532482147216797e+00 -2.916075944900512695e+00 -3.579782554879784584e-03 -8.758967518806457520e-01 -1.171436682343482971e-01
1.790000000000000000e+02 3.852244567871093750e+01 -7.742266178131103516e+00 -2.450960159301757812e+00 2.905169734731316566e-03 -7.344164848327636719e-01 -1.507093757390975952e-01
1.800000000000000000e+02 4.076818847656250000e+01 -7.683057308197021484e+00 -2.476886987686157227e+00 1.343366410583257675e-02 -7.390359640121459961e-01 -1.067756861448287964e-01
1.810000000000000000e+02 4.001962661743164062e+01 -7.703031063079833984e+00 -2.478911638259887695e+00 9.068480692803859711e-03 -7.409529685974121094e-01 -1.238799095153808594e-01
1.820000000000000000e+02 4.075049972534179688e+01 -6.943266868591308594e+00 -3.088716030120849609e+00 3.198873018845915794e-03 -9.256551265716552734e-01 -1.078915894031524658e-01
1.830000000000000000e+02 3.927116775512695312e+01 -7.723219394683837891e+00 -2.469899415969848633e+00 2.779799979180097580e-03 -7.401359081268310547e-01 -1.399151086807250977e-01
1.840000000000000000e+02 4.000121688842773438e+01 -6.963259696960449219e+00 -3.041621923446655273e+00 -3.459807485342025757e-03 -9.135245084762573242e-01 -1.138321608304977417e-01
1.850000000000000000e+02 4.226616287231445312e+01 -7.653321743011474609e+00 -2.394272089004516602e+00 2.076431736350059509e-02 -7.120523452758789062e-01 -5.860575661063194275e-02
1.860000000000000000e+02 4.225036239624023438e+01 -6.913490295410156250e+00 -3.172504425048828125e+00 2.923887223005294800e-03 -9.508742094039916992e-01 -9.023859351873397827e-02
1.870000000000000000e+02 4.151683807373046875e+01 -7.666196823120117188e+00 -2.452189207077026367e+00 1.967275515198707581e-02 -7.297549843788146973e-01 -8.720871061086654663e-02
1.880000000000000000e+02 4.299967193603515625e+01 -6.897992610931396484e+00 -3.195188522338867188e+00 -2.096843440085649490e-03 -9.591856002807617188e-01 -8.502311259508132935e-02
1.890000000000000000e+02 4.301445007324218750e+01 -7.637845039367675781e+00 -2.309205770492553711e+00 3.092301823198795319e-02 -6.834847927093505859e-01 -1.487312186509370804e-02
1.900000000000000000e+02 4.376168441772460938e+01 -7.619610786437988281e+00 -2.187364339828491211e+00 4.778892546892166138e-02 -6.418725848197937012e-01 3.651481121778488159e-02
1.910000000000000000e+02 4.374792480468750000e+01 -6.879736900329589844e+00 -3.197500467300415039e+00 1.127979904413223267e-02 -9.558662176132202148e-01 -7.230907678604125977e-02
1.920000000000000000e+02 4.150001907348632812e+01 -6.926386356353759766e+00 -3.133171796798706055e+00 7.284222519956529140e-04 -9.397330284118652344e-01 -9.833493828773498535e-02
1.930000000000000000e+02 4.690150451660156250e+01 -6.966584682464599609e+00 -1.949710965156555176e+00 1.698442697525024414e-01 -5.339599847793579102e-01 1.383666545152664185e-01
1.940000000000000000e+02 4.449176406860351562e+01 -7.612531185150146484e+00 -1.968576431274414062e+00 5.969480052590370178e-02 -5.726644992828369141e-01 9.351502358913421631e-02
1.950000000000000000e+02 4.683518981933593750e+01 -7.792182445526123047e+00 1.578623615205287933e-02 4.159104824066162109e-01 1.295090168714523315e-01 1.050066709518432617e+00
1.960000000000000000e+02 4.666380310058593750e+01 -6.875353336334228516e+00 -2.664801120758056641e+00 -3.613017126917839050e-02 -8.102794289588928223e-01 3.238501399755477905e-02
1.970000000000000000e+02 4.507487487792968750e+01 -6.870699882507324219e+00 -3.158818483352661133e+00 -5.208836868405342102e-03 -9.492081999778747559e-01 -4.072964936494827271e-02
1.980000000000000000e+02 4.695230102539062500e+01 -7.552128791809082031e+00 -4.151048064231872559e-01 1.706839650869369507e-01 -7.332625240087509155e-02 7.869823575019836426e-01
1.990000000000000000e+02 4.704548263549804688e+01 -6.978624343872070312e+00 -1.804260492324829102e+00 1.864730380475521088e-02 -5.356839299201965332e-01 4.045722633600234985e-02
2.000000000000000000e+02 4.623539733886718750e+01 -6.812709331512451172e+00 -3.138398408889770508e+00 4.653451591730117798e-02 -9.275591969490051270e-01 -6.150378659367561340e-02
2.010000000000000000e+02 4.701383590698242188e+01 -6.811113834381103516e+00 -2.260551691055297852e+00 1.579083502292633057e-01 -6.307930350303649902e-01 9.389464557170867920e-02
2.020000000000000000e+02 4.588113021850585938e+01 -7.587781906127929688e+00 -1.271948575973510742e+00 1.154083982110023499e-01 -3.469620347023010254e-01 3.959598243236541748e-01
2.030000000000000000e+02 4.444154357910156250e+01 -6.873201847076416016e+00 -3.182927846908569336e+00 1.143063791096210480e-02 -9.514491558074951172e-01 -4.901835322380065918e-02
2.040000000000000000e+02 4.519903945922851562e+01 -7.608917713165283203e+00 -1.642879843711853027e+00 8.539947122335433960e-02 -4.672440886497497559e-01 2.118469774723052979e-01
2.050000000000000000e+02 4.689759826660156250e+01 -6.595848560333251953e+00 -3.490985631942749023e+00 3.292456641793251038e-02 -1.037418365478515625e+00 -8.166022598743438721e-02
2.060000000000000000e+02 4.698474884033203125e+01 -7.337782382965087891e+00 -1.033934354782104492e+00 7.129410654306411743e-02 -2.887920737266540527e-01 5.202630162239074707e-01
2.070000000000000000e+02 4.568302154541015625e+01 -6.850675106048583984e+00 -3.139136314392089844e+00 -3.117014095187187195e-02 -9.510918855667114258e-01 -6.246126443147659302e-02
2.080000000000000000e+02 4.671202468872070312e+01 -7.303100109100341797e+00 -1.253449678421020508e+00 2.724095806479454041e-02 -3.678626120090484619e-01 4.388329684734344482e-01
2.090000000000000000e+02 4.700944137573242188e+01 -7.140094757080078125e+00 -1.508941769599914551e+00 4.762399196624755859e-02 -4.383953511714935303e-01 2.405568808317184448e-01
2.100000000000000000e+02 4.639680099487304688e+01 -7.454946994781494141e+00 -1.024284482002258301e+00 1.578878313302993774e-01 -2.599189877510070801e-01 4.484785199165344238e-01
2.110000000000000000e+02 4.721562194824218750e+01 -6.559524059295654297e+00 -3.479573488235473633e+00 -5.579447001218795776e-02 -1.060610413551330566e+00 -3.585467115044593811e-02
2.120000000000000000e+02 4.760805130004882812e+01 -6.563877582550048828e+00 -3.344834089279174805e+00 7.385582663118839264e-03 -1.001234531402587891e+00 -2.165286056697368622e-02
2.130000000000000000e+02 5.021080780029296875e+01 -5.334482192993164062e+00 2.731558561325073242e+00 2.277085304260253906e+01 7.650723457336425781e+00 -5.497045993804931641e+00
2.140000000000000000e+02 4.969921112060546875e+01 -5.215229034423828125e+00 4.127432823181152344e+00 1.367546939849853516e+01 5.340870380401611328e+00 -8.234375953674316406e+00
2.150000000000000000e+02 5.001420593261718750e+01 -4.970848560333251953e+00 2.399823665618896484e+00 1.736946105957031250e+01 5.930785655975341797e+00 -6.595777988433837891e+00
2.160000000000000000e+02 5.097484970092773438e+01 -7.109692096710205078e+00 8.928475379943847656e+00 2.337629508972167969e+01 9.691431045532226562e+00 -3.106182098388671875e+00
2.170000000000000000e+02 5.022542190551757812e+01 -7.773338317871093750e+00 1.935265779495239258e+00 2.012637329101562500e+01 6.618491649627685547e+00 5.007780075073242188e+00
2.180000000000000000e+02 4.723521041870117188e+01 -7.827055931091308594e+00 8.612247705459594727e-01 1.006360054016113281e+00 5.602754354476928711e-01 1.647455215454101562e+00
2.190000000000000000e+02 4.724045944213867188e+01 -7.393763542175292969e+00 -4.084265232086181641e-01 3.541933596134185791e-01 -1.626995578408241272e-02 6.998500227928161621e-01
2.200000000000000000e+02 4.906619262695312500e+01 -6.741664409637451172e+00 1.674383521080017090e+00 4.761673808097839355e-01 6.451652646064758301e-01 1.477038383483886719e+00
2.210000000000000000e+02 4.863581085205078125e+01 -7.788486957550048828e+00 3.461188554763793945e+00 3.334875583648681641e+00 2.038819313049316406e+00 4.372324466705322266e+00
2.220000000000000000e+02 4.985131835937500000e+01 -7.574026584625244141e+00 3.413468122482299805e+00 1.658654785156250000e+01 6.000004768371582031e+00 8.023450851440429688e+00
2.230000000000000000e+02 4.883678817749023438e+01 -7.788825988769531250e+00 3.934794902801513672e+00 4.466950893402099609e+00 2.520523786544799805e+00 5.289268016815185547e+00
2.240000000000000000e+02 4.743872833251953125e+01 -7.822231292724609375e+00 1.037847757339477539e+00 9.398573040962219238e-01 5.933114886283874512e-01 1.779769539833068848e+00
2.250000000000000000e+02 5.122773742675781250e+01 -6.314670085906982422e+00 1.463965320587158203e+01 1.960131072998046875e+01 1.027228927612304688e+01 6.801334619522094727e-01
2.260000000000000000e+02 5.069425582885742188e+01 -7.367750644683837891e+00 4.570852756500244141e+00 2.513028144836425781e+01 8.910340309143066406e+00 -3.939335942268371582e-01
2.270000000000000000e+02 5.040869903564453125e+01 -7.492145538330078125e+00 2.794687032699584961e+00 2.436463737487792969e+01 8.147797584533691406e+00 2.876785993576049805e+00
2.280000000000000000e+02 4.720135116577148438e+01 -5.045588970184326172e+00 6.953058242797851562e-01 6.937608122825622559e-01 4.167199730873107910e-01 -1.350318312644958496e+00
2.290000000000000000e+02 4.760939407348632812e+01 -5.056963443756103516e+00 1.564019083976745605e+00 1.028241991996765137e+00 7.776783108711242676e-01 -2.021361589431762695e+00
2.300000000000000000e+02 4.941675949096679688e+01 -5.555701732635498047e+00 6.215555191040039062e+00 7.001236915588378906e+00 3.965037584304809570e+00 -7.497590065002441406e+00
2.310000000000000000e+02 4.887195968627929688e+01 -5.307762622833251953e+00 4.214004039764404297e+00 3.509576797485351562e+00 2.317074298858642578e+00 -4.747426033020019531e+00
2.320000000000000000e+02 4.978659820556640625e+01 -5.380764484405517578e+00 4.527171611785888672e+00 1.537933254241943359e+01 5.971951007843017578e+00 -8.835108757019042969e+00
2.330000000000000000e+02 4.999265289306640625e+01 -5.332027912139892578e+00 3.309983730316162109e+00 1.957332420349121094e+01 6.864992141723632812e+00 -7.625240325927734375e+00
2.340000000000000000e+02 4.721372222900390625e+01 -6.305968761444091797e+00 -3.559647798538208008e+00 -1.375303119421005249e-01 -1.109153389930725098e+00 -1.342981457710266113e-01
2.350000000000000000e+02 4.762432098388671875e+01 -6.274736404418945312e+00 -3.285198926925659180e+00 1.153577957302331924e-02 -9.820989966392517090e-01 -6.358131021261215210e-02
2.360000000000000000e+02 4.720644378662109375e+01 -5.263771533966064453e+00 2.844446897506713867e-01 4.903514087200164795e-01 2.324388325214385986e-01 -1.014968633651733398e+00
2.370000000000000000e+02 4.818072891235351562e+01 -6.125080585479736328e+00 -1.862235307693481445e+00 1.679716408252716064e-01 -5.082790851593017578e-01 -3.874233961105346680e-01
2.380000000000000000e+02 4.839018630981445312e+01 -5.202596664428710938e+00 3.042126655578613281e+00 2.318494319915771484e+00 1.608186244964599609e+00 -3.381655216217041016e+00
2.390000000000000000e+02 4.880749511718750000e+01 -6.077846527099609375e+00 5.384126305580139160e-01 3.721442520618438721e-01 2.731670737266540527e-01 -1.001404166221618652e+00
2.400000000000000000e+02 4.901934432983398438e+01 -6.305545806884765625e+00 -2.294259071350097656e+00 -1.500305980443954468e-01 -7.332869172096252441e-01 -1.453140527009963989e-01
2.410000000000000000e+02 5.151124572753906250e+01 -6.502247810363769531e+00 1.295446205139160156e+01 1.774944686889648438e+01 9.211173057556152344e+00 -5.251911878585815430e-01
2.420000000000000000e+02 5.126149368286132812e+01 -5.645500183105468750e+00 8.719164848327636719e+00 2.028124809265136719e+01 8.700123786926269531e+00 2.768395662307739258e+00
2.430000000000000000e+02 5.097247695922851562e+01 -5.680774688720703125e+00 8.746026039123535156e+00 2.339640808105468750e+01 9.642730712890625000e+00 2.913243532180786133e+00
2.440000000000000000e+02 5.041593933105468750e+01 -5.385603904724121094e+00 3.145045995712280273e+00 2.502617645263671875e+01 8.451366424560546875e+00 -2.746073961257934570e+00
2.450000000000000000e+02 4.924378585815429688e+01 -5.690834045410156250e+00 5.842668533325195312e+00 3.899291753768920898e+00 2.922588109970092773e+00 -5.685894012451171875e+00
2.460000000000000000e+02 4.903252792358398438e+01 -6.084182739257812500e+00 1.627613306045532227e+00 3.412301838397979736e-01 5.906530618667602539e-01 -1.420783281326293945e+00
2.470000000000000000e+02 4.902629089355468750e+01 -6.532172679901123047e+00 -2.018146514892578125e+00 -8.466838300228118896e-02 -6.308444738388061523e-01 8.375618606805801392e-02
2.480000000000000000e+02 4.924877166748046875e+01 -7.133803844451904297e+00 5.648396492004394531e+00 4.000579833984375000e+00 2.894692897796630859e+00 5.698386192321777344e+00
2.490000000000000000e+02 4.950249862670898438e+01 -7.567741394042968750e+00 4.609466552734375000e+00 1.040979480743408203e+01 4.505778312683105469e+00 7.927600860595703125e+00
2.500000000000000000e+02 4.964641571044921875e+01 -7.803608417510986328e+00 3.407514095306396484e+00 1.274472332000732422e+01 4.845671176910400391e+00 7.621300697326660156e+00
2.510000000000000000e+02 5.003443145751953125e+01 -7.531276226043701172e+00 2.918353319168090820e+00 1.986051177978515625e+01 6.833659648895263672e+00 7.143529891967773438e+00
2.520000000000000000e+02 4.741337585449218750e+01 -6.556761264801025391e+00 -3.415909051895141602e+00 3.037621825933456421e-02 -1.015659809112548828e+00 -5.645912513136863708e-02
2.530000000000000000e+02 5.121146392822265625e+01 -6.525061607360839844e+00 1.470925331115722656e+01 1.963798332214355469e+01 1.030417060852050781e+01 -9.127918481826782227e-01
2.540000000000000000e+02 5.132939529418945312e+01 -6.800781250000000000e+00 1.223175621032714844e+01 1.939094734191894531e+01 9.486811637878417969e+00 -2.286982059478759766e+00
2.550000000000000000e+02 4.959753799438476562e+01 -7.375835895538330078e+00 5.361947059631347656e+00 1.148361587524414062e+01 5.053668975830078125e+00 8.755170822143554688e+00
2.560000000000000000e+02 4.984156036376953125e+01 -7.797971725463867188e+00 2.740317106246948242e+00 1.577547264099121094e+01 5.554737091064453125e+00 7.221352100372314453e+00
2.570000000000000000e+02 5.059047317504882812e+01 -7.522891044616699219e+00 3.399273395538330078e+00 2.401610755920410156e+01 8.224614143371582031e+00 1.175647020339965820e+00
2.580000000000000000e+02 4.924833679199218750e+01 -7.782987594604492188e+00 4.027240753173828125e+00 7.831491470336914062e+00 3.557619571685791016e+00 6.719248771667480469e+00
2.590000000000000000e+02 5.146929550170898438e+01 -6.839276313781738281e+00 1.131302356719970703e+01 1.814860916137695312e+01 8.838489532470703125e+00 -2.088490009307861328e+00
2.600000000000000000e+02 5.116355895996093750e+01 -6.742559432983398438e+00 1.337385559082031250e+01 2.061160850524902344e+01 1.019563865661621094e+01 -2.527887105941772461e+00
2.610000000000000000e+02 4.840526199340820312e+01 -6.877745151519775391e+00 -1.577322632074356079e-01 1.782840490341186523e-01 6.165535654872655869e-03 7.442593574523925781e-01
2.620000000000000000e+02 4.861829757690429688e+01 -6.570066928863525391e+00 -2.516103029251098633e+00 -1.053791865706443787e-02 -7.579923272132873535e-01 8.533548563718795776e-02
2.630000000000000000e+02 5.022440719604492188e+01 -7.521596431732177734e+00 2.516196966171264648e+00 2.264197731018066406e+01 7.547452449798583984e+00 5.229759216308593750e+00
2.640000000000000000e+02 5.046737289428710938e+01 -5.241587638854980469e+00 2.808865308761596680e+00 2.351691246032714844e+01 7.897733211517333984e+00 -2.592358350753784180e+00
2.650000000000000000e+02 4.960140228271484375e+01 -5.458260536193847656e+00 5.659529209136962891e+00 1.159054470062255859e+01 5.175022125244140625e+00 -8.856719017028808594e+00
2.660000000000000000e+02 5.102504348754882812e+01 -5.362294197082519531e+00 5.837017059326171875e+00 2.204222106933593750e+01 8.363771438598632812e+00 1.878263115882873535e+00
2.670000000000000000e+02 4.940723800659179688e+01 -5.021999359130859375e+00 4.094056129455566406e+00 9.790618896484375000e+00 4.165402412414550781e+00 -7.300510406494140625e+00
2.680000000000000000e+02 4.920103454589843750e+01 -5.012279510498046875e+00 4.240992069244384766e+00 7.483534812927246094e+00 3.517358064651489258e+00 -6.667574405670166016e+00
2.690000000000000000e+02 4.801282119750976562e+01 -5.050109863281250000e+00 2.368771076202392578e+00 1.551278710365295410e+00 1.176014900207519531e+00 -2.768544673919677734e+00
2.700000000000000000e+02 5.119821548461914062e+01 -6.119304180145263672e+00 1.365434169769287109e+01 2.024203681945800781e+01 1.016891384124755859e+01 2.176957368850708008e+00
2.710000000000000000e+02 5.136647796630859375e+01 -5.786023616790771484e+00 1.014489173889160156e+01 1.944485664367675781e+01 8.876924514770507812e+00 2.800228357315063477e+00
2.720000000000000000e+02 4.910443115234375000e+01 -5.871748924255371094e+00 4.083023548126220703e+00 1.299302577972412109e+00 1.614697813987731934e+00 -3.156137704849243164e+00
2.730000000000000000e+02 4.824527359008789062e+01 -5.241944313049316406e+00 2.735360145568847656e+00 1.461585879325866699e+00 1.259083867073059082e+00 -2.870528697967529297e+00
2.740000000000000000e+02 5.064570617675781250e+01 -5.313027381896972656e+00 3.743089675903320312e+00 2.403159141540527344e+01 8.332404136657714844e+00 -5.518609881401062012e-01
2.750000000000000000e+02 4.880356597900390625e+01 -5.054055690765380859e+00 3.962174654006958008e+00 4.060598373413085938e+00 2.406831979751586914e+00 -5.046339988708496094e+00
2.760000000000000000e+02 5.035343551635742188e+01 -5.019929885864257812e+00 2.080692052841186523e+00 2.064828491210937500e+01 6.818692684173583984e+00 -3.974293470382690430e+00
2.770000000000000000e+02 5.073663330078125000e+01 -7.658353805541992188e+00 3.377532005310058594e+00 2.279466056823730469e+01 7.851657867431640625e+00 2.472529709339141846e-01
2.780000000000000000e+02 5.087620544433593750e+01 -7.549991130828857422e+00 4.329502582550048828e+00 2.254882431030273438e+01 8.063498497009277344e+00 -8.116564750671386719e-01
2.790000000000000000e+02 5.127453613281250000e+01 -7.123666763305664062e+00 9.303433418273925781e+00 2.037956809997558594e+01 8.904900550842285156e+00 -2.908211231231689453e+00
2.800000000000000000e+02 5.138825225830078125e+01 -6.980236530303955078e+00 1.056444072723388672e+01 1.923918533325195312e+01 8.941087722778320312e+00 -2.804234266281127930e+00
2.810000000000000000e+02 5.074542617797851562e+01 -5.546586036682128906e+00 6.190005779266357422e+00 2.532046699523925781e+01 9.453141212463378906e+00 1.598710656166076660e+00
2.820000000000000000e+02 5.079222488403320312e+01 -5.394209384918212891e+00 4.756213665008544922e+00 2.385210418701171875e+01 8.582495689392089844e+00 7.498182654380798340e-01
2.830000000000000000e+02 5.115409851074218750e+01 -7.286334514617919922e+00 7.664318561553955078e+00 2.153394699096679688e+01 8.759479522705078125e+00 -2.749592781066894531e+00
2.840000000000000000e+02 5.041141891479492188e+01 -7.750362396240234375e+00 2.005404949188232422e+00 2.131766319274902344e+01 6.996920108795166016e+00 3.457397699356079102e+00
2.850000000000000000e+02 5.145593261718750000e+01 -6.115001201629638672e+00 1.230924034118652344e+01 1.806982231140136719e+01 9.113718986511230469e+00 1.605432152748107910e+00
2.860000000000000000e+02 5.084064102172851562e+01 -7.251149654388427734e+00 6.695328712463378906e+00 2.466387176513671875e+01 9.407759666442871094e+00 -2.136293411254882812e+00
2.870000000000000000e+02 5.151396560668945312e+01 -6.671099662780761719e+00 1.196786880493164062e+01 1.789524459838867188e+01 8.958933830261230469e+00 -1.557908177375793457e+00
2.880000000000000000e+02 5.072119522094726562e+01 -5.147619247436523438e+00 3.320443868637084961e+00 2.256876182556152344e+01 7.766761779785156250e+00 -7.057284116744995117e-01
2.890000000000000000e+02 5.058543395996093750e+01 -7.723331451416015625e+00 2.297996282577514648e+00 2.223261260986328125e+01 7.359182834625244141e+00 2.124708414077758789e+00
2.900000000000000000e+02 5.142937850952148438e+01 -5.938210487365722656e+00 1.162481403350830078e+01 1.856037902832031250e+01 9.055558204650878906e+00 2.325841903686523438e+00
2.910000000000000000e+02 5.123031997680664062e+01 -5.933890819549560547e+00 1.185706520080566406e+01 2.041865730285644531e+01 9.682716369628906250e+00 2.618854999542236328e+00
2.920000000000000000e+02 5.114833831787109375e+01 -5.500761032104492188e+00 7.375439167022705078e+00 2.130860900878906250e+01 8.605214118957519531e+00 2.574692487716674805e+00
2.930000000000000000e+02 5.003393554687500000e+01 -7.785915851593017578e+00 2.187591314315795898e+00 1.798257827758789062e+01 6.051050662994384766e+00 6.299974918365478516e+00
2.940000000000000000e+02 4.944903182983398438e+01 -7.794856548309326172e+00 3.794113874435424805e+00 1.000160884857177734e+01 4.138716697692871094e+00 7.300452232360839844e+00
2.950000000000000000e+02 4.800597763061523438e+01 -6.575607299804687500e+00 -3.085673332214355469e+00 6.363914813846349716e-03 -9.237927794456481934e-01 3.213595226407051086e-02
2.960000000000000000e+02 4.843722915649414062e+01 -7.785895347595214844e+00 3.080687046051025391e+00 2.701068162918090820e+00 1.734526515007019043e+00 3.800749063491821289e+00
2.970000000000000000e+02 4.784039306640625000e+01 -7.590909004211425781e+00 1.327720522880554199e+00 9.403532743453979492e-01 6.804221272468566895e-01 1.896890640258789062e+00
2.980000000000000000e+02 4.904286193847656250e+01 -7.781308174133300781e+00 4.088215827941894531e+00 6.088897228240966797e+00 3.053133964538574219e+00 6.027410030364990234e+00
2.990000000000000000e+02 4.865692901611328125e+01 -7.525570392608642578e+00 3.385555028915405273e+00 2.452316761016845703e+00 1.751361489295959473e+00 3.816372632980346680e+00
3.000000000000000000e+02 4.823691177368164062e+01 -7.793944835662841797e+00 2.636687755584716797e+00 2.051564931869506836e+00 1.406475782394409180e+00 3.253799200057983398e+00
3.010000000000000000e+02 4.783638381958007812e+01 -7.815021514892578125e+00 1.617890119552612305e+00 1.215277314186096191e+00 8.499502539634704590e-01 2.294635534286499023e+00
3.020000000000000000e+02 4.740374374389648438e+01 -6.756624698638916016e+00 -2.569354057312011719e+00 -3.267440944910049438e-02 -7.806085944175720215e-01 3.826194629073143005e-02
3.030000000000000000e+02 4.841306686401367188e+01 -6.579152584075927734e+00 -2.723064422607421875e+00 2.085033431649208069e-02 -8.106642365455627441e-01 7.955779135227203369e-02
3.040000000000000000e+02 4.757152938842773438e+01 -6.791863918304443359e+00 -2.139384269714355469e+00 1.433363258838653564e-01 -5.988144278526306152e-01 1.322800517082214355e-01
3.050000000000000000e+02 4.804155349731445312e+01 -6.288249492645263672e+00 -3.142551660537719727e+00 -5.612421408295631409e-02 -9.596027731895446777e-01 2.661155164241790771e-02
3.060000000000000000e+02 4.720679473876953125e+01 -6.090800285339355469e+00 -2.646637201309204102e+00 -1.205173730850219727e-01 -8.301463723182678223e-01 -1.143572106957435608e-01
3.070000000000000000e+02 4.881473159790039062e+01 -6.301814079284667969e+00 -2.581356525421142578e+00 1.570760160684585571e-01 -7.272841930389404297e-01 -1.374841779470443726e-01
3.080000000000000000e+02 4.861438751220703125e+01 -6.303577423095703125e+00 -2.828980922698974609e+00 -9.667786955833435059e-02 -8.776976466178894043e-01 -8.604176342487335205e-02
3.090000000000000000e+02 4.868173599243164062e+01 -5.892941474914550781e+00 1.604076623916625977e+00 4.473474025726318359e-01 6.154271960258483887e-01 -1.511254429817199707e+00
3.100000000000000000e+02 4.861513137817382812e+01 -6.092264175415039062e+00 -7.769623398780822754e-01 9.378919005393981934e-02 -2.049519419670104980e-01 -5.731908082962036133e-01
3.110000000000000000e+02 4.853239059448242188e+01 -5.260641098022460938e+00 3.226430892944335938e+00 2.298114776611328125e+00 1.657363772392272949e+00 -3.620872020721435547e+00
3.120000000000000000e+02 4.962298965454101562e+01 -5.019115924835205078e+00 3.634433507919311523e+00 1.240054130554199219e+01 4.810492515563964844e+00 -7.560028076171875000e+00
3.130000000000000000e+02 4.806059265136718750e+01 -5.303791046142578125e+00 2.007557392120361328e+00 1.013238430023193359e+00 9.062387943267822266e-01 -2.178131341934204102e+00
3.140000000000000000e+02 4.740662765502929688e+01 -5.052158832550048828e+00 1.055771946907043457e+00 8.180614113807678223e-01 5.621500015258789062e-01 -1.630871415138244629e+00
3.150000000000000000e+02 4.723852157592773438e+01 -7.610837459564208984e+00 3.382927179336547852e-02 6.974814534187316895e-01 2.193932086229324341e-01 1.163374185562133789e+00
3.160000000000000000e+02 4.741669464111328125e+01 -6.293504238128662109e+00 -3.384827375411987305e+00 2.481787838041782379e-02 -1.008002877235412598e+00 -3.610794991254806519e-02
3.170000000000000000e+02 4.720296859741210938e+01 -5.476243972778320312e+00 -2.623069882392883301e-01 2.292085438966751099e-01 -9.929535910487174988e-03 -6.838832497596740723e-01
3.180000000000000000e+02 4.906220245361328125e+01 -7.505870819091796875e+00 4.659366130828857422e+00 4.824779033660888672e+00 2.845243453979492188e+00 5.781818866729736328e+00
3.190000000000000000e+02 4.803467178344726562e+01 -7.569093704223632812e+00 1.684195399284362793e+00 1.022724986076354980e+00 8.120761513710021973e-01 2.114821910858154297e+00
3.200000000000000000e+02 4.929476547241210938e+01 -7.515711784362792969e+00 4.904045581817626953e+00 7.097305297851562500e+00 3.600405216217041016e+00 6.985082626342773438e+00
3.210000000000000000e+02 4.741767501831054688e+01 -5.286757469177246094e+00 6.002889871597290039e-01 4.790428280830383301e-01 3.237995505332946777e-01 -1.188813567161560059e+00
3.220000000000000000e+02 4.822056198120117188e+01 -6.313446521759033203e+00 -3.159752368927001953e+00 7.600264996290206909e-02 -9.251248836517333984e-01 2.367759309709072113e-02
3.230000000000000000e+02 4.785313796997070312e+01 -5.938138961791992188e+00 -1.162414669990539551e+00 5.901772156357765198e-02 -3.310190737247467041e-01 -4.442150294780731201e-01
3.240000000000000000e+02 4.781146240234375000e+01 -5.057898998260498047e+00 1.989284634590148926e+00 1.144788980484008789e+00 9.402220845222473145e-01 -2.314660549163818359e+00
3.250000000000000000e+02 4.935087966918945312e+01 -5.381702899932861328e+00 5.411461353302001953e+00 7.286215782165527344e+00 3.809303045272827148e+00 -7.333928108215332031e+00
3.260000000000000000e+02 4.783668518066406250e+01 -5.322093486785888672e+00 1.406968116760253906e+00 7.409155368804931641e-01 6.443650722503662109e-01 -1.782519102096557617e+00
3.270000000000000000e+02 4.723794937133789062e+01 -7.178965568542480469e+00 -1.181737780570983887e+00 2.137133926153182983e-01 -2.904072999954223633e-01 4.209575057029724121e-01
3.280000000000000000e+02 4.719577026367187500e+01 -5.884321689605712891e+00 -1.823353171348571777e+00 -1.843883469700813293e-02 -5.525376200675964355e-01 -2.330138683319091797e-01
3.290000000000000000e+02 4.914057159423828125e+01 -6.941097736358642578e+00 4.170531272888183594e+00 1.388202667236328125e+00 1.667620182037353516e+00 3.296947240829467773e+00
3.300000000000000000e+02 4.766567230224609375e+01 -7.365885734558105469e+00 3.918196856975555420e-01 5.754747390747070312e-01 2.901883423328399658e-01 1.212681412696838379e+00
3.310000000000000000e+02 4.863554382324218750e+01 -6.846730709075927734e+00 4.224993288516998291e-01 3.502058088779449463e-01 2.318115383386611938e-01 9.984936118125915527e-01
3.320000000000000000e+02 4.790476226806640625e+01 -7.193015575408935547e+00 2.046891599893569946e-01 3.619186878204345703e-01 1.699823588132858276e-01 1.036954164505004883e+00
3.330000000000000000e+02 4.776738357543945312e+01 -6.848018169403076172e+00 -1.730412006378173828e+00 6.614129990339279175e-02 -4.992811977863311768e-01 2.276439964771270752e-01
3.340000000000000000e+02 4.841424179077148438e+01 -5.833760738372802734e+00 1.009735822677612305e+00 4.484013020992279053e-01 4.374411106109619141e-01 -1.249199032783508301e+00
3.350000000000000000e+02 4.784228897094726562e+01 -6.259082794189453125e+00 -3.191430568695068359e+00 -5.413706973195075989e-02 -9.736702442169189453e-01 -4.260734096169471741e-02
3.360000000000000000e+02 4.763805770874023438e+01 -7.819296360015869141e+00 1.437384486198425293e+00 1.127159714698791504e+00 7.693632841110229492e-01 2.031538486480712891e+00
3.370000000000000000e+02 4.839594650268554688e+01 -5.553442001342773438e+00 2.144865036010742188e+00 9.447112679481506348e-01 9.268729090690612793e-01 -2.165463685989379883e+00
3.380000000000000000e+02 4.866072845458984375e+01 -5.452667713165283203e+00 3.359890460968017578e+00 1.917922139167785645e+00 1.583343863487243652e+00 -3.400510072708129883e+00
3.390000000000000000e+02 4.744979858398437500e+01 -7.599095344543457031e+00 5.836653113365173340e-01 7.694240808486938477e-01 4.059268236160278320e-01 1.447580575942993164e+00
3.400000000000000000e+02 4.904018783569335938e+01 -5.514778614044189453e+00 4.938814163208007812e+00 3.493982315063476562e+00 2.529839038848876953e+00 -5.038523674011230469e+00
3.410000000000000000e+02 4.892268753051757812e+01 -7.032857418060302734e+00 3.409207105636596680e+00 1.369326233863830566e+00 1.433560013771057129e+00 2.888142108917236328e+00
3.420000000000000000e+02 4.819649124145507812e+01 -7.260206222534179688e+00 1.219094276428222656e+00 7.075912952423095703e-01 5.780056715011596680e-01 1.651595234870910645e+00
3.430000000000000000e+02 4.845430374145507812e+01 -7.498394966125488281e+00 2.775413513183593750e+00 1.791011691093444824e+00 1.369927644729614258e+00 3.059540987014770508e+00
3.440000000000000000e+02 4.823720932006835938e+01 -7.529591560363769531e+00 2.212064981460571289e+00 1.382534980773925781e+00 1.078379988670349121e+00 2.539347171783447266e+00
3.450000000000000000e+02 4.812462234497070312e+01 -5.886605739593505859e+00 -3.508644402027130127e-01 2.058174610137939453e-01 -4.351409152150154114e-02 -6.878497600555419922e-01
3.460000000000000000e+02 4.784229278564453125e+01 -5.615079402923583984e+00 3.356978297233581543e-01 3.349633514881134033e-01 2.011983543634414673e-01 -1.038047313690185547e+00
3.470000000000000000e+02 4.771033477783203125e+01 -7.120006561279296875e+00 -4.848794043064117432e-01 2.502311766147613525e-01 -7.039447128772735596e-02 6.829680204391479492e-01
3.480000000000000000e+02 4.761429595947265625e+01 -5.994615554809570312e+00 -1.822757244110107422e+00 5.229613184928894043e-02 -5.311383008956909180e-01 -2.613193094730377197e-01
3.490000000000000000e+02 4.719477081298828125e+01 -5.682022094726562500e+00 -8.266693353652954102e-01 2.839781530201435089e-02 -2.394814491271972656e-01 -4.515970051288604736e-01
3.500000000000000000e+02 4.736975097656250000e+01 -5.702373027801513672e+00 -6.883024573326110840e-01 1.017935723066329956e-01 -1.759526729583740234e-01 -5.411342382431030273e-01
3.510000000000000000e+02 4.762611770629882812e+01 -5.310890674591064453e+00 9.460011720657348633e-01 5.786529779434204102e-01 4.573962390422821045e-01 -1.424794197082519531e+00
3.520000000000000000e+02 4.820663833618164062e+01 -5.033818721771240234e+00 2.687534332275390625e+00 1.944413781166076660e+00 1.389584422111511230e+00 -3.182294845581054688e+00
3.530000000000000000e+02 4.839840698242187500e+01 -5.027327060699462891e+00 3.027776479721069336e+00 2.601385354995727539e+00 1.688748598098754883e+00 -3.632006406784057617e+00
3.540000000000000000e+02 4.859690856933593750e+01 -5.051370620727539062e+00 3.526795387268066406e+00 3.168029308319091797e+00 2.008447408676147461e+00 -4.257012367248535156e+00
3.550000000000000000e+02 4.904644393920898438e+01 -5.218325614929199219e+00 4.745589256286621094e+00 4.962880134582519531e+00 2.912540674209594727e+00 -5.911882400512695312e+00
3.560000000000000000e+02 4.736886978149414062e+01 -5.869082927703857422e+00 -1.598902702331542969e+00 -1.112921163439750671e-02 -4.830095767974853516e-01 -2.499393671751022339e-01
3.570000000000000000e+02 4.740439605712890625e+01 -6.061901569366455078e+00 -2.455179929733276367e+00 -2.166105248034000397e-02 -7.430522441864013672e-01 -2.230709791183471680e-01
3.580000000000000000e+02 4.841358947753906250e+01 -6.303046703338623047e+00 -3.043002605438232422e+00 7.031363993883132935e-02 -8.918066620826721191e-01 -1.104314029216766357e-01
3.590000000000000000e+02 4.840597915649414062e+01 -6.081202983856201172e+00 -1.164199471473693848e+00 8.234523981809616089e-02 -3.245562911033630371e-01 -3.936261236667633057e-01
3.600000000000000000e+02 4.884849548339843750e+01 -5.696434020996093750e+00 3.543450117111206055e+00 1.521339178085327148e+00 1.519436717033386230e+00 -3.041010141372680664e+00
3.610000000000000000e+02 4.916690063476562500e+01 -5.353043556213378906e+00 5.201983928680419922e+00 5.664123058319091797e+00 3.259831905364990234e+00 -6.365208625793457031e+00
3.620000000000000000e+02 4.938146209716796875e+01 -5.211476325988769531e+00 4.730164051055908203e+00 8.854922294616699219e+00 4.075525760650634766e+00 -7.402692794799804688e+00
3.630000000000000000e+02 5.026468276977539062e+01 -5.177676677703857422e+00 2.411900758743286133e+00 2.159818267822265625e+01 7.203025341033935547e+00 -4.879153251647949219e+00
3.640000000000000000e+02 4.721694946289062500e+01 -6.768503189086914062e+00 -2.690245628356933594e+00 -6.807110458612442017e-02 -8.274949789047241211e-01 9.714474529027938843e-02
3.650000000000000000e+02 4.722641754150390625e+01 -6.972718238830566406e+00 -1.589197278022766113e+00 3.700131177902221680e-02 -4.656587839126586914e-01 4.932423681020736694e-02
3.660000000000000000e+02 4.747325897216796875e+01 -7.134235382080078125e+00 -8.448631167411804199e-01 1.975393593311309814e-01 -1.941971331834793091e-01 4.550210535526275635e-01
3.670000000000000000e+02 4.743662643432617188e+01 -6.932397842407226562e+00 -1.816555500030517578e+00 5.022583529353141785e-02 -5.298988819122314453e-01 2.588161826133728027e-01
3.680000000000000000e+02 4.780381393432617188e+01 -6.574916362762451172e+00 -3.228165149688720703e+00 2.843019925057888031e-02 -9.599204659461975098e-01 1.018785499036312103e-02
3.690000000000000000e+02 4.798847198486328125e+01 -6.838360786437988281e+00 -1.480118155479431152e+00 1.161208003759384155e-01 -4.091992080211639404e-01 3.155993521213531494e-01
3.700000000000000000e+02 4.819034194946289062e+01 -6.850865840911865234e+00 -8.262631893157958984e-01 1.626034379005432129e-01 -1.990979313850402832e-01 5.578439831733703613e-01
3.710000000000000000e+02 4.820977020263671875e+01 -6.576972961425781250e+00 -2.910950660705566406e+00 2.163236215710639954e-02 -8.667954802513122559e-01 5.363396555185317993e-02
3.720000000000000000e+02 4.803610610961914062e+01 -7.806212902069091797e+00 2.144942045211791992e+00 1.641861081123352051e+00 1.136040925979614258e+00 2.782215356826782227e+00
3.730000000000000000e+02 4.764820861816406250e+01 -7.595044136047363281e+00 8.209255337715148926e-01 7.857114076614379883e-01 4.819910824298858643e-01 1.638475298881530762e+00
3.740000000000000000e+02 4.884376907348632812e+01 -7.543840885162353516e+00 4.068942070007324219e+00 3.440060853958129883e+00 2.252700805664062500e+00 4.664501667022705078e+00
3.750000000000000000e+02 4.940895462036132812e+01 -7.283688545227050781e+00 5.829477310180664062e+00 7.199550628662109375e+00 3.908708333969116211e+00 7.424698352813720703e+00
3.760000000000000000e+02 4.976875686645507812e+01 -7.438285827636718750e+00 4.289681434631347656e+00 1.537135028839111328e+01 5.898309707641601562e+00 8.730353355407714844e+00
3.770000000000000000e+02 4.968081283569335938e+01 -7.603872299194335938e+00 3.961016416549682617e+00 1.309945297241210938e+01 5.118140697479248047e+00 8.073676109313964844e+00
3.780000000000000000e+02 5.101938629150390625e+01 -7.428073406219482422e+00 5.806220054626464844e+00 2.219101715087890625e+01 8.399171829223632812e+00 -1.905052542686462402e+00
3.790000000000000000e+02 5.108964157104492188e+01 -6.943738937377929688e+00 1.135900115966796875e+01 2.188921165466308594e+01 9.974464416503906250e+00 -3.226471662521362305e+00
3.800000000000000000e+02 5.137948989868164062e+01 -6.605556011199951172e+00 1.329997253417968750e+01 1.859154129028320312e+01 9.567454338073730469e+00 -1.287592887878417969e+00
3.810000000000000000e+02 5.147930145263671875e+01 -6.312004566192626953e+00 1.287410545349121094e+01 1.786656188964843750e+01 9.222200393676757812e+00 5.247079133987426758e-01
3.820000000000000000e+02 5.108005142211914062e+01 -5.828905582427978516e+00 1.105885887145996094e+01 2.205163764953613281e+01 9.933149337768554688e+00 3.198838233947753906e+00
3.830000000000000000e+02 5.088431167602539062e+01 -5.242000102996826172e+00 4.334335327148437500e+00 2.265640640258789062e+01 8.097222328186035156e+00 6.405867338180541992e-01
3.840000000000000000e+02 5.054138183593750000e+01 -5.075519084930419922e+00 2.460003137588500977e+00 2.196534347534179688e+01 7.327604293823242188e+00 -2.350427865982055664e+00
3.850000000000000000e+02 5.017842864990234375e+01 -4.976205825805664062e+00 1.992220759391784668e+00 1.961093711853027344e+01 6.480947494506835938e+00 -5.183098793029785156e+00
3.860000000000000000e+02 4.983077621459960938e+01 -4.995656490325927734e+00 2.880081176757812500e+00 1.532488155364990234e+01 5.461488723754882812e+00 -7.167283535003662109e+00
3.870000000000000000e+02 4.746220397949218750e+01 -7.370756626129150391e+00 -1.247916594147682190e-01 4.634582400321960449e-01 1.015999764204025269e-01 9.745607972145080566e-01
3.880000000000000000e+02 4.900625991821289062e+01 -5.023993015289306641e+00 4.274752140045166016e+00 5.658943653106689453e+00 2.980108737945556641e+00 -5.985462188720703125e+00
3.890000000000000000e+02 4.885699844360351562e+01 -6.798404693603515625e+00 1.009385585784912109e+00 2.943539321422576904e-01 3.911218643188476562e-01 1.224393129348754883e+00
3.900000000000000000e+02 4.951914215087890625e+01 -5.303777694702148438e+00 4.972309589385986328e+00 1.044098854064941406e+01 4.623989105224609375e+00 -8.132100105285644531e+00
3.910000000000000000e+02 5.059544372558593750e+01 -5.458166599273681641e+00 4.370977401733398438e+00 2.570365905761718750e+01 9.022391319274902344e+00 -3.426253497600555420e-01
3.920000000000000000e+02 5.088530349731445312e+01 -5.522267341613769531e+00 6.690288543701171875e+00 2.398381042480468750e+01 9.202229499816894531e+00 2.076244115829467773e+00
3.930000000000000000e+02 4.882403182983398438e+01 -6.553155422210693359e+00 -2.281343698501586914e+00 4.705299064517021179e-02 -6.702871918678283691e-01 1.044038608670234680e-01
3.940000000000000000e+02 4.901688003540039062e+01 -7.256847858428955078e+00 4.452824115753173828e+00 3.032756805419921875e+00 2.245674133300781250e+00 4.606491088867187500e+00
3.950000000000000000e+02 4.843262863159179688e+01 -7.190463066101074219e+00 1.774753212928771973e+00 9.171525835990905762e-01 8.075717091560363770e-01 1.977282404899597168e+00
3.960000000000000000e+02 4.868467712402343750e+01 -7.123750686645507812e+00 2.575415849685668945e+00 1.046764612197875977e+00 1.086654186248779297e+00 2.419433116912841797e+00
3.970000000000000000e+02 4.878236389160156250e+01 -7.346110820770263672e+00 3.515788078308105469e+00 2.368122816085815430e+00 1.765173196792602539e+00 3.741866588592529297e+00
3.980000000000000000e+02 4.761336517333984375e+01 -5.576752662658691406e+00 -1.238336553797125816e-03 2.659951150417327881e-01 7.942703366279602051e-02 -9.208145737648010254e-01
3.990000000000000000e+02 4.810372543334960938e+01 -5.585982322692871094e+00 1.103176832199096680e+00 5.460446476936340332e-01 4.947664439678192139e-01 -1.517120838165283203e+00
4.000000000000000000e+02 4.837251663208007812e+01 -5.341235637664794922e+00 2.809995174407958984e+00 1.604150056838989258e+00 1.324243545532226562e+00 -2.928510904312133789e+00
4.010000000000000000e+02 4.807034301757812500e+01 -7.045308589935302734e+00 4.003809392452239990e-02 2.979002892971038818e-01 1.013815104961395264e-01 8.528213500976562500e-01
4.020000000000000000e+02 4.740557479858398438e+01 -5.510582923889160156e+00 -1.278916597366333008e-01 2.915069758892059326e-01 4.908460006117820740e-02 -8.448027372360229492e-01
4.030000000000000000e+02 4.920296096801757812e+01 -5.190532684326171875e+00 4.773600578308105469e+00 7.173623085021972656e+00 3.584167003631591797e+00 -6.799044609069824219e+00
4.040000000000000000e+02 4.991755676269531250e+01 -5.163522243499755859e+00 3.066468238830566406e+00 1.736232566833496094e+01 6.128638267517089844e+00 -7.359189510345458984e+00
4.050000000000000000e+02 5.009284973144531250e+01 -5.089635372161865234e+00 2.405449151992797852e+00 1.928727912902832031e+01 6.507818698883056641e+00 -6.206464290618896484e+00
4.060000000000000000e+02 4.800656509399414062e+01 -7.352904319763183594e+00 1.016956567764282227e+00 7.552219033241271973e-01 5.316535234451293945e-01 1.624870061874389648e+00
4.070000000000000000e+02 4.784279632568359375e+01 -7.381318569183349609e+00 6.559627056121826172e-01 5.914418101310729980e-01 3.742213547229766846e-01 1.411824941635131836e+00
4.080000000000000000e+02 4.752523422241210938e+01 -5.785643577575683594e+00 -9.323259592056274414e-01 5.213541537523269653e-02 -2.640571594238281250e-01 -4.800170361995697021e-01
4.090000000000000000e+02 4.679154968261718750e+01 -6.298313617706298828e+00 -3.585920095443725586e+00 7.597381621599197388e-02 -1.052983880043029785e+00 1.337920548394322395e-03
4.100000000000000000e+02 4.576208114624023438e+01 -5.867794513702392578e+00 -2.587174654006958008e+00 2.319688349962234497e-02 -7.691932916641235352e-01 -5.319651961326599121e-02
4.110000000000000000e+02 4.669296264648437500e+01 -5.719725608825683594e+00 -1.534905791282653809e+00 1.688842326402664185e-01 -4.098064899444580078e-01 -2.787027060985565186e-01
4.120000000000000000e+02 4.502925872802734375e+01 -5.320842742919921875e+00 -1.521875739097595215e+00 6.055903807282447815e-02 -4.383949935436248779e-01 -1.816125810146331787e-01
4.130000000000000000e+02 4.696013259887695312e+01 -5.290897369384765625e+00 -1.468012779951095581e-01 1.918812841176986694e-01 1.352400239557027817e-02 -7.801541686058044434e-01
4.140000000000000000e+02 4.655918121337890625e+01 -5.234294891357421875e+00 -3.247931301593780518e-01 3.071509003639221191e-01 -5.292668472975492477e-03 -6.996662616729736328e-01
4.150000000000000000e+02 4.441101074218750000e+01 -5.345889091491699219e+00 -1.879761695861816406e+00 1.765755191445350647e-02 -5.586312413215637207e-01 -8.628023415803909302e-02
4.160000000000000000e+02 4.515374755859375000e+01 -6.059055805206298828e+00 -3.106572866439819336e+00 -2.392355166375637054e-02 -9.391489028930664062e-01 -2.079598233103752136e-02
4.170000000000000000e+02 4.617233276367187500e+01 -6.234114646911621094e+00 -3.396929502487182617e+00 -4.140325635671615601e-02 -1.031499743461608887e+00 4.897441249340772629e-03
4.180000000000000000e+02 4.446133804321289062e+01 -6.085216522216796875e+00 -3.095192909240722656e+00 1.733730547130107880e-02 -9.233567118644714355e-01 -3.233577683568000793e-02
4.190000000000000000e+02 4.688390350341796875e+01 -6.062467575073242188e+00 -2.709136724472045898e+00 1.363809406757354736e-01 -7.718267440795898438e-01 -1.172942593693733215e-01
4.200000000000000000e+02 4.617156982421875000e+01 -5.185671329498291016e+00 -6.948887109756469727e-01 1.782852411270141602e-01 -1.549810469150543213e-01 -5.926070213317871094e-01
4.210000000000000000e+02 4.695445632934570312e+01 -5.849069595336914062e+00 -1.713189840316772461e+00 1.078291907906532288e-01 -4.816082119941711426e-01 -2.379899919033050537e-01
4.220000000000000000e+02 4.562084197998046875e+01 -5.256197929382324219e+00 -1.187399148941040039e+00 7.629610598087310791e-02 -3.333309292793273926e-01 -3.779487311840057373e-01
4.230000000000000000e+02 4.700510787963867188e+01 -5.659246921539306641e+00 -1.048497200012207031e+00 1.721486896276473999e-01 -2.629045546054840088e-01 -3.882132768630981445e-01
4.240000000000000000e+02 4.648131942749023438e+01 -5.918955802917480469e+00 -2.230063438415527344e+00 5.289795994758605957e-02 -6.531496644020080566e-01 -1.687405407428741455e-01
4.250000000000000000e+02 4.686377334594726562e+01 -5.064071655273437500e+00 2.993756830692291260e-01 3.915438354015350342e-01 2.072758525609970093e-01 -1.005736827850341797e+00
4.260000000000000000e+02 4.700720596313476562e+01 -5.482379913330078125e+00 -3.470990359783172607e-01 1.590449213981628418e-01 -5.641623213887214661e-02 -6.048086285591125488e-01
4.270000000000000000e+02 4.673505020141601562e+01 -5.401427745819091797e+00 -5.030686855316162109e-01 2.638584673404693604e-01 -7.176306098699569702e-02 -6.271006464958190918e-01
4.280000000000000000e+02 4.622733306884765625e+01 -5.616767406463623047e+00 -1.601989626884460449e+00 3.878589347004890442e-02 -4.689611196517944336e-01 -2.182827889919281006e-01
4.290000000000000000e+02 4.653705596923828125e+01 -5.505611896514892578e+00 -1.143048644065856934e+00 2.317329198122024536e-01 -2.733947038650512695e-01 -4.257954657077789307e-01
4.300000000000000000e+02 4.684466552734375000e+01 -5.568400859832763672e+00 -8.778584599494934082e-01 1.627548038959503174e-01 -2.145310938358306885e-01 -5.066916942596435547e-01
4.310000000000000000e+02 4.221790313720703125e+01 -5.393723964691162109e+00 -2.176461219787597656e+00 1.891400665044784546e-02 -6.472641229629516602e-01 1.724351383745670319e-02
4.320000000000000000e+02 4.296930313110351562e+01 -5.378180980682373047e+00 -2.132564067840576172e+00 2.363247796893119812e-02 -6.326794624328613281e-01 -2.108248183503746986e-03
4.330000000000000000e+02 4.371966171264648438e+01 -5.359966278076171875e+00 -2.024720430374145508e+00 2.778216823935508728e-02 -5.990815162658691406e-01 -5.406010150909423828e-02
4.340000000000000000e+02 4.146546936035156250e+01 -5.406748771667480469e+00 -2.185817241668701172e+00 8.698804304003715515e-03 -6.531355381011962891e-01 4.267257079482078552e-02
4.350000000000000000e+02 4.148228836059570312e+01 -6.146559238433837891e+00 -2.868044376373291016e+00 -6.215159082785248756e-04 -8.605997562408447266e-01 -1.085633412003517151e-02
4.360000000000000000e+02 4.373342132568359375e+01 -6.099840164184570312e+00 -3.067969322204589844e+00 -1.021190453320741653e-02 -9.234543442726135254e-01 -2.407715469598770142e-02
4.370000000000000000e+02 4.223369979858398438e+01 -6.133555889129638672e+00 -2.946615219116210938e+00 1.277092378586530685e-03 -8.836014270782470703e-01 -1.197680458426475525e-02
4.380000000000000000e+02 4.298408126831054688e+01 -6.118033409118652344e+00 -3.013749837875366211e+00 9.733657352626323700e-03 -9.012048244476318359e-01 -2.398508787155151367e-02
4.390000000000000000e+02 3.846181488037109375e+01 -5.483074665069580078e+00 -2.034650564193725586e+00 8.766805753111839294e-03 -6.077651381492614746e-01 9.395267814397811890e-02
4.400000000000000000e+02 3.848166656494140625e+01 -6.222808361053466797e+00 -2.458052873611450195e+00 1.063243835233151913e-03 -7.370968461036682129e-01 -3.277073381468653679e-03
4.410000000000000000e+02 3.923187255859375000e+01 -6.203719139099121094e+00 -2.566576004028320312e+00 2.018123632296919823e-03 -7.693673968315124512e-01 -6.688125897198915482e-03
4.420000000000000000e+02 3.998181152343750000e+01 -6.183495998382568359e+00 -2.672015666961669922e+00 1.307372003793716431e-03 -8.012124300003051758e-01 -1.042914763092994690e-02
4.430000000000000000e+02 4.073185729980468750e+01 -6.163486957550048828e+00 -2.776089429855346680e+00 -5.939643597230315208e-04 -8.330050706863403320e-01 -1.164385490119457245e-02
4.440000000000000000e+02 4.071416854858398438e+01 -5.423696517944335938e+00 -2.173705101013183594e+00 1.001321431249380112e-02 -6.491075754165649414e-01 6.124234572052955627e-02
4.450000000000000000e+02 3.921274185180664062e+01 -5.463966846466064453e+00 -2.096982717514038086e+00 1.119024865329265594e-02 -6.257377266883850098e-01 8.444368839263916016e-02
4.460000000000000000e+02 3.996340179443359375e+01 -5.443724155426025391e+00 -2.145011425018310547e+00 9.486039169132709503e-03 -6.406576633453369141e-01 7.508235424757003784e-02
4.470000000000000000e+02 3.698171997070312500e+01 -6.262598514556884766e+00 -2.221656322479248047e+00 1.699432614259421825e-03 -6.659870147705078125e-01 2.106480300426483154e-03
4.480000000000000000e+02 3.621255493164062500e+01 -5.544963359832763672e+00 -1.799242377281188965e+00 1.153741125017404556e-02 -5.363115072250366211e-01 1.193790957331657410e-01
4.490000000000000000e+02 3.548279571533203125e+01 -6.306656837463378906e+00 -1.973954558372497559e+00 3.443889785557985306e-03 -5.911532044410705566e-01 1.140101999044418335e-02
4.500000000000000000e+02 3.771127700805664062e+01 -5.501970291137695312e+00 -1.962537646293640137e+00 9.583527222275733948e-03 -5.858862400054931641e-01 1.036276668310165405e-01
4.510000000000000000e+02 3.773139953613281250e+01 -6.241697311401367188e+00 -2.342580556869506836e+00 1.258186297491192818e-03 -7.023967504501342773e-01 -8.515432127751410007e-04
4.520000000000000000e+02 3.546322250366210938e+01 -5.566914081573486328e+00 -1.710280537605285645e+00 1.241209916770458221e-02 -5.093605518341064453e-01 1.258181333541870117e-01
4.530000000000000000e+02 3.696178054809570312e+01 -5.522866249084472656e+00 -1.884558677673339844e+00 9.903140366077423096e-03 -5.623966455459594727e-01 1.119962409138679504e-01
4.540000000000000000e+02 3.623231124877929688e+01 -6.284700870513916016e+00 -2.099507570266723633e+00 2.380821853876113892e-03 -6.291379928588867188e-01 5.973023362457752228e-03
4.550000000000000000e+02 3.323463058471679688e+01 -6.359344959259033203e+00 -1.603111624717712402e+00 2.172772539779543877e-03 -4.802816510200500488e-01 2.797208726406097412e-02
4.560000000000000000e+02 3.321954727172851562e+01 -5.619493961334228516e+00 -1.416788458824157715e+00 1.113768015056848526e-02 -4.216952323913574219e-01 1.460500061511993408e-01
4.570000000000000000e+02 3.248681640625000000e+01 -6.379900932312011719e+00 -1.472567319869995117e+00 5.045059602707624435e-03 -4.402566850185394287e-01 3.384664282202720642e-02
4.580000000000000000e+02 3.398349380493164062e+01 -6.341384410858154297e+00 -1.728419542312622070e+00 2.619954291731119156e-03 -5.177398920059204102e-01 2.434556744992733002e-02
4.590000000000000000e+02 3.471478271484375000e+01 -5.586100101470947266e+00 -1.615952730178833008e+00 1.233180612325668335e-02 -4.810862839221954346e-01 1.309924125671386719e-01
4.600000000000000000e+02 3.473338699340820312e+01 -6.325866699218750000e+00 -1.850446343421936035e+00 4.179755225777626038e-03 -5.538799762725830078e-01 1.836874336004257202e-02
4.610000000000000000e+02 3.247348785400390625e+01 -5.640007495880126953e+00 -1.321363925933837891e+00 1.289677806198596954e-02 -3.925401568412780762e-01 1.501587480306625366e-01
4.620000000000000000e+02 3.396664810180664062e+01 -5.601575374603271484e+00 -1.516233801841735840e+00 1.043619401752948761e-02 -4.517392814159393311e-01 1.377542912960052490e-01
4.630000000000000000e+02 3.099083137512207031e+01 -6.399948596954345703e+00 -1.238785505294799805e+00 1.477139885537326336e-03 -3.711925148963928223e-01 4.902012273669242859e-02
4.640000000000000000e+02 3.024179267883300781e+01 -5.667771339416503906e+00 -1.016826987266540527e+00 6.732983514666557312e-03 -3.030281960964202881e-01 1.637037396430969238e-01
4.650000000000000000e+02 2.949573898315429688e+01 -6.414954185485839844e+00 -9.922093749046325684e-01 4.594367928802967072e-03 -2.962844967842102051e-01 5.712294951081275940e-02
4.660000000000000000e+02 3.172830200195312500e+01 -5.652883052825927734e+00 -1.220015645027160645e+00 1.166875846683979034e-02 -3.625040948390960693e-01 1.519507318735122681e-01
4.670000000000000000e+02 3.173856925964355469e+01 -6.392818927764892578e+00 -1.351600766181945801e+00 5.105854012072086334e-03 -4.039484560489654541e-01 4.301600903272628784e-02
4.680000000000000000e+02 2.949855422973632812e+01 -5.674893379211425781e+00 -9.229609966278076172e-01 8.405712433159351349e-03 -2.743665874004364014e-01 1.651652306318283081e-01
4.690000000000000000e+02 3.098492622375488281e+01 -5.659971237182617188e+00 -1.116338133811950684e+00 7.590004242956638336e-03 -3.326244354248046875e-01 1.570768952369689941e-01
4.700000000000000000e+02 3.024333572387695312e+01 -6.407790660858154297e+00 -1.118786454200744629e+00 1.757775782607495785e-03 -3.351086080074310303e-01 5.149311944842338562e-02
4.710000000000000000e+02 2.800358009338378906e+01 -6.392907142639160156e+00 -7.848902344703674316e-01 -2.254046499729156494e-03 -2.361432760953903198e-01 7.073897123336791992e-02
4.720000000000000000e+02 2.728431129455566406e+01 -5.636834621429443359e+00 -6.386074423789978027e-01 -5.759885068982839584e-03 -1.933102011680603027e-01 1.677985191345214844e-01
4.730000000000000000e+02 2.651304817199707031e+01 -6.358762741088867188e+00 -5.691551566123962402e-01 -5.181449814699590206e-04 -1.709019988775253296e-01 7.012967020273208618e-02
4.740000000000000000e+02 2.875823974609375000e+01 -5.669638156890869141e+00 -8.264174461364746094e-01 5.048248916864395142e-03 -2.464107573032379150e-01 1.633552163839340210e-01
4.750000000000000000e+02 2.874904632568359375e+01 -6.409622669219970703e+00 -8.816956877708435059e-01 3.297349670901894569e-03 -2.635194957256317139e-01 6.630530208349227905e-02
4.760000000000000000e+02 2.654741096496582031e+01 -5.619358539581298828e+00 -5.557098388671875000e-01 -5.901868455111980438e-03 -1.684835255146026611e-01 1.634850800037384033e-01
4.770000000000000000e+02 2.802116203308105469e+01 -5.653115749359130859e+00 -7.286619544029235840e-01 -1.941221416927874088e-03 -2.191809564828872681e-01 1.652160435914993286e-01
4.780000000000000000e+02 2.725833702087402344e+01 -6.376431941986083984e+00 -6.795662045478820801e-01 -2.435709582641720772e-03 -2.046005725860595703e-01 6.949021667242050171e-02
4.790000000000000000e+02 2.428754043579101562e+01 -6.197861671447753906e+00 -3.199079930782318115e-01 -9.145425632596015930e-03 -9.871602803468704224e-02 6.730787456035614014e-02
4.800000000000000000e+02 2.435861396789550781e+01 -5.461198806762695312e+00 -3.209885656833648682e-01 -2.457187511026859283e-02 -1.036681309342384338e-01 1.441446840763092041e-01
4.810000000000000000e+02 2.354777717590332031e+01 -6.138960838317871094e+00 -2.388537079095840454e-01 -8.969425223767757416e-03 -7.434694468975067139e-02 5.967883765697479248e-02
4.820000000000000000e+02 2.502826499938964844e+01 -6.258197307586669922e+00 -4.010775387287139893e-01 -9.147494100034236908e-03 -1.230675131082534790e-01 7.392131537199020386e-02
4.830000000000000000e+02 2.581491851806640625e+01 -5.581003189086914062e+00 -4.732592701911926270e-01 -1.090176682919263840e-02 -1.452483087778091431e-01 1.550332456827163696e-01
4.840000000000000000e+02 2.576985549926757812e+01 -6.319781780242919922e+00 -4.772855937480926514e-01 -3.136350540444254875e-03 -1.441265791654586792e-01 7.427657395601272583e-02
4.850000000000000000e+02 2.363185691833496094e+01 -5.403356075286865234e+00 -2.572148144245147705e-01 -2.501425147056579590e-02 -8.466871827840805054e-02 1.322026997804641724e-01
4.860000000000000000e+02 2.508633232116699219e+01 -5.520476818084716797e+00 -3.920599520206451416e-01 -1.894112676382064819e-02 -1.233003214001655579e-01 1.503718644380569458e-01
4.870000000000000000e+02 2.146717453002929688e+01 -5.077126979827880859e+00 -9.755331277847290039e-02 -3.826152905821800232e-02 -4.074445366859436035e-02 8.575956523418426514e-02
4.880000000000000000e+02 2.134441947937011719e+01 -5.806876659393310547e+00 -7.147929817438125610e-02 -1.044706348329782486e-02 -2.457790821790695190e-02 3.574790060520172119e-02
4.890000000000000000e+02 2.061148262023925781e+01 -5.684748649597167969e+00 -3.001042641699314117e-02 -1.106572430580854416e-02 -1.232284493744373322e-02 2.392510510981082916e-02
4.900000000000000000e+02 2.207760429382324219e+01 -5.928263664245605469e+00 -1.207365915179252625e-01 -1.476816926151514053e-02 -4.065142944455146790e-02 4.668654128909111023e-02
4.910000000000000000e+02 2.290797805786132812e+01 -5.314875125885009766e+00 -1.977288275957107544e-01 -2.951969951391220093e-02 -6.817456334829330444e-02 1.167774349451065063e-01
4.920000000000000000e+02 2.281096076965332031e+01 -6.048885822296142578e+00 -1.728464961051940918e-01 -9.724660776555538177e-03 -5.477134510874748230e-02 5.495651438832283020e-02
4.930000000000000000e+02 2.074710655212402344e+01 -4.957129478454589844e+00 -6.530572474002838135e-02 -3.277633339166641235e-02 -2.942461706697940826e-02 6.431506574153900146e-02
4.940000000000000000e+02 2.218749046325683594e+01 -5.196383476257324219e+00 -1.424332410097122192e-01 -3.441853448748588562e-02 -5.305553227663040161e-02 1.039678826928138733e-01
4.950000000000000000e+02 1.905580329895019531e+01 -4.613489627838134766e+00 -6.085052154958248138e-03 -2.087346464395523071e-02 -8.087554946541786194e-03 8.441636338829994202e-03
4.960000000000000000e+02 1.978026580810546875e+01 -5.523462295532226562e+00 -5.428252276033163071e-03 -8.855531923472881317e-03 -4.285135306417942047e-03 7.688459008932113647e-03
4.970000000000000000e+02 1.992511749267578125e+01 -4.797539234161376953e+00 -3.151924163103103638e-02 -3.674124553799629211e-02 -2.047814615070819855e-02 3.920765221118927002e-02
4.980000000000000000e+02 1.847771644592285156e+01 -4.667171001434326172e+00 6.897139246575534344e-04 1.098970323801040649e-02 3.503825049847364426e-03 -4.202002193778753281e-03
4.990000000000000000e+02 1.890536689758300781e+01 -5.338151454925537109e+00 1.318443217314779758e-03 -3.914158442057669163e-04 2.781082293950021267e-04 -2.096842799801379442e-04
5.000000000000000000e+02 1.882146453857421875e+01 -6.111851215362548828e+00 -1.236034277826547623e-02 -2.722827717661857605e-03 -4.524951335042715073e-03 -1.124399062246084213e-02
5.010000000000000000e+02 1.800308799743652344e+01 -6.754832744598388672e+00 9.752869606018066406e-03 -6.945955008268356323e-02 -1.791200414299964905e-02 -2.153337746858596802e-02
5.020000000000000000e+02 1.831862449645996094e+01 -6.817986488342285156e+00 -5.526206642389297485e-02 -3.683358430862426758e-02 -2.762869559228420258e-02 -5.471567064523696899e-02
5.030000000000000000e+02 1.959215354919433594e+01 -7.028707504272460938e+00 -2.136777341365814209e-01 2.602038905024528503e-03 -6.332270801067352295e-02 -9.257973730564117432e-02
5.040000000000000000e+02 1.890554809570312500e+01 -6.889476776123046875e+00 -1.285853832960128784e-01 -2.136731892824172974e-02 -4.498581215739250183e-02 -7.272310554981231689e-02
5.050000000000000000e+02 1.965883255004882812e+01 -6.285129547119140625e+00 -8.851268887519836426e-02 -4.389228342915885150e-05 -2.656697295606136322e-02 -2.568095736205577850e-02
5.060000000000000000e+02 1.828899765014648438e+01 -6.266255378723144531e+00 -1.767276204191148281e-03 6.175587885081768036e-03 1.322493422776460648e-03 1.233940245583653450e-03
5.070000000000000000e+02 1.796524238586425781e+01 -6.500696659088134766e+00 1.201200578361749649e-02 -5.352046806365251541e-03 1.997987739741802216e-03 1.285011041909456253e-02
5.080000000000000000e+02 1.788599205017089844e+01 -7.395644664764404297e+00 -8.348149061203002930e-02 -9.333501011133193970e-02 -5.304494872689247131e-02 -9.547185152769088745e-02
5.090000000000000000e+02 1.885807609558105469e+01 -7.605313301086425781e+00 -2.124272584915161133e-01 -3.114345297217369080e-02 -7.307121157646179199e-02 -1.403319239616394043e-01
5.100000000000000000e+02 1.717128372192382812e+01 -9.287392616271972656e+00 -2.169112265110015869e-01 -2.754355370998382568e-01 -1.477040350437164307e-01 -2.562033236026763916e-01
5.110000000000000000e+02 2.168115425109863281e+01 -8.993869781494140625e+00 -6.310461163520812988e-01 3.915439173579216003e-02 -1.775675117969512939e-01 -3.293305337429046631e-01
5.120000000000000000e+02 2.719616699218750000e+01 -8.630345344543457031e+00 -1.285718321800231934e+00 -5.733799654990434647e-03 -3.874356150627136230e-01 -2.341839373111724854e-01
5.130000000000000000e+02 2.409497261047363281e+01 -8.455611228942871094e+00 -9.066373705863952637e-01 2.551169134676456451e-02 -2.643377184867858887e-01 -2.457445859909057617e-01
5.140000000000000000e+02 1.507842254638671875e+01 -1.281548881530761719e+01 -5.090506076812744141e-01 -7.426981329917907715e-01 -3.755246400833129883e-01 -5.988979935646057129e-01
5.150000000000000000e+02 1.240146541595458984e+01 -1.607397270202636719e+01 -7.475737929344177246e-01 -7.842121124267578125e-01 -4.595357775688171387e-01 -7.539620995521545410e-01
5.160000000000000000e+02 1.429249382019042969e+01 -1.592915058135986328e+01 -6.398757696151733398e-01 -6.174533963203430176e-01 -3.771987557411193848e-01 -6.041895151138305664e-01
5.170000000000000000e+02 1.573640918731689453e+01 -2.349541473388671875e+01 2.775208558887243271e-03 -3.319596052169799805e-01 -9.875531494617462158e-02 -3.466704189777374268e-01
5.180000000000000000e+02 1.866708946228027344e+01 -2.942411231994628906e+01 2.868063747882843018e-01 -7.033126801252365112e-02 6.494253128767013550e-02 -2.362811565399169922e-01
5.190000000000000000e+02 1.781247329711914062e+01 -4.052769851684570312e+01 3.968265950679779053e-01 -3.892820561304688454e-03 1.178801283240318298e-01 -4.300308600068092346e-02
5.200000000000000000e+02 2.274244689941406250e+01 -4.079708862304687500e+01 4.836309552192687988e-01 4.402731060981750488e-01 2.771712243556976318e-01 -1.542662829160690308e-02
5.210000000000000000e+02 1.905176925659179688e+01 -3.669181442260742188e+01 4.124269783496856689e-01 5.914511159062385559e-02 1.414716243743896484e-01 -1.060776188969612122e-01
5.220000000000000000e+02 2.059650039672851562e+01 -3.318103790283203125e+01 4.078437387943267822e-01 1.498168259859085083e-01 1.672981679439544678e-01 -1.406243294477462769e-01
5.230000000000000000e+02 2.184466743469238281e+01 -2.390460586547851562e+01 9.597679972648620605e-02 4.838507995009422302e-02 4.330856353044509888e-02 -2.806965112686157227e-01
5.240000000000000000e+02 2.438229560852050781e+01 -1.387371063232421875e+01 -5.716904997825622559e-01 7.576292008161544800e-02 -1.487782746553421021e-01 -5.169431567192077637e-01
5.250000000000000000e+02 1.332797145843505859e+01 -1.500331974029541016e+01 -6.989848017692565918e-01 -7.930504083633422852e-01 -4.476105570793151855e-01 -7.276263833045959473e-01
5.260000000000000000e+02 1.143844223022460938e+01 -1.721016693115234375e+01 -9.074077606201171875e-01 -7.560211420059204102e-01 -4.990286529064178467e-01 -7.322797775268554688e-01
5.270000000000000000e+02 1.025407505035400391e+01 -1.810353660583496094e+01 -1.103556036949157715e+00 -6.034808158874511719e-01 -5.121110677719116211e-01 -6.095286011695861816e-01
5.280000000000000000e+02 8.970934867858886719e+00 -1.839894294738769531e+01 -7.993671298027038574e-01 -2.105708718299865723e-01 -3.029814064502716064e-01 -3.271062672138214111e-01
5.290000000000000000e+02 7.181087970733642578e+00 -1.739220046997070312e+01 -1.510066688060760498e-01 5.482051521539688110e-02 -2.885584533214569092e-02 -2.706079371273517609e-02
5.300000000000000000e+02 6.350220680236816406e+00 -1.641348266601562500e+01 7.547779387095943093e-05 1.125215925276279449e-02 3.398291068151593208e-03 -1.205323077738285065e-02
5.310000000000000000e+02 7.057724475860595703e+00 -1.512037944793701172e+01 1.004358381032943726e-02 4.639135673642158508e-02 1.693048141896724701e-02 -1.438136864453554153e-02
5.320000000000000000e+02 8.908994674682617188e+00 -1.145342922210693359e+01 -1.582065597176551819e-03 -1.421493361704051495e-03 -9.010676876641809940e-04 1.307647442445158958e-03
5.330000000000000000e+02 9.676745414733886719e+00 -1.031152629852294922e+01 8.222806500270962715e-04 7.083337404765188694e-04 4.591843171510845423e-04 -1.158862258307635784e-03
5.340000000000000000e+02 1.213025283813476562e+01 -7.053431510925292969e+00 -2.969541819766163826e-04 -2.711645211093127728e-04 -1.704356109257787466e-04 1.735358091536909342e-04
5.350000000000000000e+02 1.173257255554199219e+01 -2.748719215393066406e+00 -1.152362019638530910e-04 2.142503799404948950e-04 2.970425521198194474e-05 1.935222389874979854e-04
5.360000000000000000e+02 1.224980735778808594e+01 -4.638557434082031250e+00 1.241335994563996792e-04 -5.224305823503527790e-06 3.567278690752573311e-05 -2.367477572988718748e-04
5.370000000000000000e+02 1.105266475677490234e+01 -1.910914778709411621e+00 -6.642222433583810925e-05 1.612720225239172578e-04 2.845494054781738669e-05 2.090930647682398558e-04
5.380000000000000000e+02 4.275709152221679688e+00 -1.927782535552978516e+00 -5.391236481955274940e-05 -4.412293037603376433e-06 -1.749739749357104301e-05 -2.280719490954652429e-04
5.390000000000000000e+02 1.569732427597045898e+00 -1.474677562713623047e+01 3.583006793633103371e-03 7.660704199224710464e-03 3.373113228008151054e-03 1.181730628013610840e-02
5.400000000000000000e+02 4.416007995605468750e+00 -1.866254425048828125e+01 -1.461600363254547119e-01 -4.578219354152679443e-02 -5.758266896009445190e-02 -7.378198206424713135e-02
5.410000000000000000e+02 6.508620381355285645e-01 -2.478809547424316406e+01 -5.058957263827323914e-03 -2.649493813514709473e-01 -8.100250363349914551e-02 -5.332805961370468140e-02
5.420000000000000000e+02 7.705025672912597656e-01 -3.187484359741210938e+01 5.100928246974945068e-03 -8.152204751968383789e-01 -2.430358678102493286e-01 -4.694823548197746277e-02
5.430000000000000000e+02 2.849712133407592773e+00 -3.787483596801757812e+01 3.251354396343231201e-02 -9.049572944641113281e-01 -2.617331147193908691e-01 -4.117055609822273254e-02
5.440000000000000000e+02 8.132693171501159668e-01 -3.727510452270507812e+01 3.921061288565397263e-03 -1.024297118186950684e+00 -3.061128258705139160e-01 -2.609255490824580193e-03
5.450000000000000000e+02 8.868602752685546875e+00 -3.797908782958984375e+01 1.716664284467697144e-01 -5.366456508636474609e-01 -1.094937697052955627e-01 -1.324670612812042236e-01
5.460000000000000000e+02 7.820277690887451172e+00 -3.286762619018554688e+01 1.261589378118515015e-01 -5.418721437454223633e-01 -1.247139647603034973e-01 -2.637371718883514404e-01
5.470000000000000000e+02 1.238805866241455078e+01 -2.145154571533203125e+01 -1.496115773916244507e-01 -5.584086775779724121e-01 -2.124060690402984619e-01 -4.146000444889068604e-01
5.480000000000000000e+02 1.114831161499023438e+01 -2.289404869079589844e+01 -4.816231876611709595e-02 -5.284301042556762695e-01 -1.729777306318283081e-01 -4.277710318565368652e-01
5.490000000000000000e+02 6.301486492156982422e-01 -2.335902595520019531e+01 -2.452494809404015541e-03 -1.567878276109695435e-01 -4.777209460735321045e-02 -4.480914399027824402e-02
5.500000000000000000e+02 1.254633235931396484e+01 -1.999842643737792969e+00 6.115357246017083526e-05 7.910536078270524740e-05 4.207768142805434763e-05 7.509469287469983101e-05
5.510000000000000000e+02 2.760957336425781250e+01 -4.090385437011718750e+01 4.949544668197631836e-01 1.014119744300842285e+00 4.527222812175750732e-01 9.827460162341594696e-03
5.520000000000000000e+02 2.787736892700195312e+01 -3.764662933349609375e+01 4.909216463565826416e-01 1.008846044540405273e+00 4.499303102493286133e-01 2.918340265750885010e-02
5.530000000000000000e+02 2.856929969787597656e+01 -3.107502365112304688e+01 4.523265063762664795e-01 9.350313544273376465e-01 4.162073731422424316e-01 4.986394569277763367e-02
5.540000000000000000e+02 2.682738685607910156e+01 -2.460093688964843750e+01 2.763168215751647949e-01 4.672912061214447021e-01 2.230824083089828491e-01 -1.197368353605270386e-01
5.550000000000000000e+02 3.054666137695312500e+01 -1.385847473144531250e+01 -5.017452239990234375e-01 1.306132227182388306e-01 -1.113396063446998596e-01 -3.460730016231536865e-01
5.560000000000000000e+02 3.026229476928710938e+01 -8.657935142517089844e+00 -1.603218793869018555e+00 -1.498580724000930786e-02 -4.854613840579986572e-01 -2.265581339597702026e-01
5.570000000000000000e+02 2.875570678710937500e+01 -9.386215209960937500e+00 -1.299874186515808105e+00 -9.284617379307746887e-03 -3.927476406097412109e-01 -2.997997403144836426e-01
5.580000000000000000e+02 4.232244110107421875e+01 -4.075218582153320312e+01 1.204939931631088257e-02 3.772867202758789062e+00 1.135474920272827148e+00 9.251747280359268188e-02
5.590000000000000000e+02 3.739286422729492188e+01 -4.085614776611328125e+01 2.593391537666320801e-01 2.700409889221191406e+00 8.879246711730957031e-01 7.421229779720306396e-02
5.600000000000000000e+02 3.659029006958007812e+01 -3.426291275024414062e+01 3.217309713363647461e-01 2.414301872253417969e+00 8.208098411560058594e-01 3.036019206047058105e-01
5.610000000000000000e+02 3.899325561523437500e+01 -2.201377677917480469e+01 4.449270665645599365e-01 2.091327190399169922e+00 7.608762979507446289e-01 8.907577991485595703e-01
5.620000000000000000e+02 3.831192398071289062e+01 -1.350173377990722656e+01 -3.516920655965805054e-02 5.380434989929199219e-01 1.508622914552688599e-01 3.645587861537933350e-01
5.630000000000000000e+02 3.855655670166015625e+01 -8.458327293395996094e+00 -2.016224384307861328e+00 1.506730541586875916e-02 -6.003471016883850098e-01 -1.453766524791717529e-01
5.640000000000000000e+02 3.710848617553710938e+01 -9.209602355957031250e+00 -1.661474823951721191e+00 2.347454242408275604e-02 -4.914000928401947021e-01 -1.674198061227798462e-01
5.650000000000000000e+02 3.555640411376953125e+01 -8.550442695617675781e+00 -1.964146256446838379e+00 -5.137540865689516068e-03 -5.907851457595825195e-01 -1.994575113058090210e-01
5.660000000000000000e+02 4.399693298339843750e+01 -3.189177703857421875e+01 -4.025500267744064331e-02 4.100000381469726562e+00 1.217923641204833984e+00 5.988456606864929199e-01
5.670000000000000000e+02 4.231455230712890625e+01 -2.235754013061523438e+01 2.739673554897308350e-01 3.205179929733276367e+00 1.043744206428527832e+00 1.234090447425842285e+00
5.680000000000000000e+02 4.126539611816406250e+01 -1.366696262359619141e+01 3.915692269802093506e-01 1.170871138572692871e+00 4.687321186065673828e-01 1.042326927185058594e+00
5.690000000000000000e+02 4.522128295898437500e+01 -8.262696266174316406e+00 -6.666724085807800293e-01 2.809229791164398193e-01 -1.157248318195343018e-01 6.113117933273315430e-01
5.700000000000000000e+02 4.302206420898437500e+01 -8.292161941528320312e+00 -1.603159308433532715e+00 8.975193649530410767e-02 -4.540221989154815674e-01 1.144381240010261536e-01
5.710000000000000000e+02 4.303657150268554688e+01 -8.876386642456054688e+00 -1.047846913337707520e+00 1.794222444295883179e-01 -2.605274021625518799e-01 2.944985330104827881e-01
5.720000000000000000e+02 4.154317855834960938e+01 -8.353031158447265625e+00 -1.847427845001220703e+00 5.280827730894088745e-02 -5.383858680725097656e-01 -1.347052212804555893e-02
5.730000000000000000e+02 5.215166091918945312e+01 -4.074762344360351562e+01 -4.590114057064056396e-01 5.825457572937011719e+00 1.609933853149414062e+00 6.654823571443557739e-02
5.740000000000000000e+02 5.080084609985351562e+01 -3.125391769409179688e+01 -4.808119535446166992e-01 5.828611850738525391e+00 1.604339957237243652e+00 4.720087051391601562e-01
5.750000000000000000e+02 4.673582458496093750e+01 -2.368000411987304688e+01 -1.955628693103790283e-01 5.078961849212646484e+00 1.465019583702087402e+00 1.320047855377197266e+00
5.760000000000000000e+02 4.646530914306640625e+01 -1.451960659027099609e+01 4.536725282669067383e-01 4.510556697845458984e+00 1.489268779754638672e+00 2.591491460800170898e+00
5.770000000000000000e+02 6.212478637695312500e+01 -4.056308746337890625e+01 -5.157966613769531250e-01 7.241886615753173828e+00 2.017827033996582031e+00 -3.409663960337638855e-02
5.780000000000000000e+02 5.708851242065429688e+01 -4.053022766113281250e+01 -5.526019930839538574e-01 6.684548377990722656e+00 1.839583873748779297e+00 9.393317624926567078e-03
5.790000000000000000e+02 5.653946304321289062e+01 -3.238415145874023438e+01 -6.410080194473266602e-01 6.848100185394287109e+00 1.862127661705017090e+00 8.030304312705993652e-02
5.800000000000000000e+02 5.510936355590820312e+01 -2.268492698669433594e+01 -7.670301198959350586e-01 7.745036602020263672e+00 2.093401908874511719e+00 3.070110678672790527e-01
5.810000000000000000e+02 6.057949447631835938e+01 -1.695639038085937500e+01 -3.048126213252544403e-02 8.673630714416503906e+00 2.592944860458374023e+00 -8.742858767509460449e-01
5.820000000000000000e+02 5.333670043945312500e+01 -7.634532451629638672e+00 5.917428493499755859e+00 1.288662147521972656e+01 5.641214847564697266e+00 -1.603338241577148438e+00
5.830000000000000000e+02 6.075474548339843750e+01 4.529342651367187500e+00 -2.599350176751613617e-02 8.607607841491699219e+00 2.574484348297119141e+00 9.169792532920837402e-01
5.840000000000000000e+02 5.904904937744140625e+01 1.166128635406494141e+01 -6.368909478187561035e-01 7.877177715301513672e+00 2.172086000442504883e+00 3.074086308479309082e-01
5.850000000000000000e+02 5.855992507934570312e+01 1.580524539947509766e+01 -6.332003474235534668e-01 7.401227951049804688e+00 2.030408382415771484e+00 1.546896547079086304e-01
5.860000000000000000e+02 5.698605728149414062e+01 2.617343330383300781e+01 -4.111955165863037109e-01 6.474276065826416016e+00 1.818924069404602051e+00 -2.275810949504375458e-02
5.870000000000000000e+02 5.044461822509765625e+01 3.298595046997070312e+01 -2.223704606294631958e-01 5.196162700653076172e+00 1.492137670516967773e+00 -1.496907770633697510e-01
5.880000000000000000e+02 5.843064880371093750e+01 4.013769149780273438e+01 -2.090486288070678711e-01 6.350144386291503906e+00 1.842328667640686035e+00 6.820307113230228424e-03
5.890000000000000000e+02 5.489391326904296875e+01 3.809743118286132812e+01 -2.192601710557937622e-01 5.863782405853271484e+00 1.693356633186340332e+00 -3.405801206827163696e-02
5.900000000000000000e+02 5.155180358886718750e+01 4.043998718261718750e+01 -1.646820008754730225e-01 5.350129127502441406e+00 1.555634140968322754e+00 -1.648525893688201904e-02
5.910000000000000000e+02 5.158291625976562500e+01 3.068939018249511719e+01 -2.718163132667541504e-01 5.428732395172119141e+00 1.547074913978576660e+00 -1.626921147108078003e-01
5.920000000000000000e+02 4.780994033813476562e+01 2.341023445129394531e+01 -2.759364843368530273e-01 4.903161525726318359e+00 1.388167500495910645e+00 -4.757158160209655762e-01
5.930000000000000000e+02 5.440350341796875000e+01 1.573402976989746094e+01 -6.385112404823303223e-01 6.807543277740478516e+00 1.850709557533264160e+00 -2.803504168987274170e-01
5.940000000000000000e+02 4.836071395874023438e+01 1.317044830322265625e+01 -3.806677162647247314e-01 5.513464927673339844e+00 1.539839148521423340e+00 -9.637042880058288574e-01
5.950000000000000000e+02 4.739696884155273438e+01 -4.777987957000732422e+00 1.697270512580871582e+00 1.296537280082702637e+00 8.981423377990722656e-01 -2.159320831298828125e+00
5.960000000000000000e+02 5.143443298339843750e+01 -7.521012783050537109e+00 6.279953956604003906e+00 1.917947578430175781e+01 7.637828826904296875e+00 -2.376673221588134766e+00
5.970000000000000000e+02 6.223351669311523438e+01 -3.700569534301757812e+01 -5.279836654663085938e-01 7.307179450988769531e+00 2.033758640289306641e+00 -1.049435436725616455e-01
5.980000000000000000e+02 6.042085647583007812e+01 -3.259127426147460938e+01 -6.060670614242553711e-01 7.353001594543457031e+00 2.024080276489257812e+00 -1.405641287565231323e-01
5.990000000000000000e+02 6.540377044677734375e+01 -2.483308219909667969e+01 -4.065284729003906250e-01 7.922614574432373047e+00 2.254825830459594727e+00 -6.780898571014404297e-01
6.000000000000000000e+02 6.664636230468750000e+01 -1.655023574829101562e+01 2.207784354686737061e-01 7.909787654876708984e+00 2.439169883728027344e+00 -9.586719274520874023e-01
6.010000000000000000e+02 6.561096954345703125e+01 -1.099530315399169922e+01 1.011564612388610840e+00 7.810836315155029297e+00 2.646720170974731445e+00 -6.965128183364868164e-01
6.020000000000000000e+02 6.594700622558593750e+01 -4.959619045257568359e+00 1.292761683464050293e+00 7.655209064483642578e+00 2.684391260147094727e+00 2.587677538394927979e-01
6.030000000000000000e+02 6.635717010498046875e+01 1.514150023460388184e+00 5.372174382209777832e-01 7.870913028717041016e+00 2.522439002990722656e+00 9.525325298309326172e-01
6.040000000000000000e+02 6.236627960205078125e+01 1.032949924468994141e+01 -4.499519467353820801e-01 8.085989952087402344e+00 2.290811300277709961e+00 6.942751407623291016e-01
6.050000000000000000e+02 6.394989776611328125e+01 1.802849769592285156e+01 -4.707657396793365479e-01 7.655029773712158203e+00 2.155279159545898438e+00 4.502469003200531006e-01
6.060000000000000000e+02 6.636411285400390625e+01 2.695256996154785156e+01 -2.704598903656005859e-01 7.603821754455566406e+00 2.200008630752563477e+00 2.559732198715209961e-01
6.070000000000000000e+02 6.132704925537109375e+01 3.220843505859375000e+01 -2.596678733825683594e-01 6.919752120971679688e+00 1.998025178909301758e+00 8.461189270019531250e-02
6.080000000000000000e+02 6.285592651367187500e+01 4.059519577026367188e+01 -1.777807027101516724e-01 7.032732009887695312e+00 2.056485414505004883e+00 2.264155447483062744e-02
6.090000000000000000e+02 6.699810791015625000e+01 -4.081646728515625000e+01 -3.727564513683319092e-01 7.676640987396240234e+00 2.191165447235107422e+00 -6.053270399570465088e-02
6.100000000000000000e+02 7.369309234619140625e+01 -3.757933425903320312e+01 -1.562562137842178345e-01 8.113110542297363281e+00 2.387056112289428711e+00 -1.725829988718032837e-01
6.110000000000000000e+02 7.046268463134765625e+01 -2.322363281250000000e+01 -1.596466451883316040e-01 7.742636203765869141e+00 2.274896860122680664e+00 -7.600699663162231445e-01
6.120000000000000000e+02 7.054016113281250000e+01 -1.617102050781250000e+01 1.878030747175216675e-01 7.481843471527099609e+00 2.300894021987915039e+00 -8.076866865158081055e-01
6.130000000000000000e+02 7.303197479248046875e+01 -1.104441356658935547e+01 3.129724562168121338e-01 6.948945999145507812e+00 2.178575515747070312e+00 -4.037980735301971436e-01
6.140000000000000000e+02 7.155006408691406250e+01 -2.151335000991821289e+00 4.461299777030944824e-01 7.126389026641845703e+00 2.271755695343017578e+00 4.533568024635314941e-01
6.150000000000000000e+02 7.296056365966796875e+01 4.532029151916503906e+00 8.448316156864166260e-02 7.332116127014160156e+00 2.224979639053344727e+00 7.393181920051574707e-01
6.160000000000000000e+02 7.282854461669921875e+01 1.124915695190429688e+01 -9.437179565429687500e-02 7.742593288421630859e+00 2.294466495513916016e+00 7.106782793998718262e-01
6.170000000000000000e+02 7.190364837646484375e+01 1.878287887573242188e+01 -1.588801741600036621e-01 8.023690223693847656e+00 2.359442949295043945e+00 5.108981132507324219e-01
6.180000000000000000e+02 7.211872863769531250e+01 2.616667556762695312e+01 -1.301789134740829468e-01 8.171897888183593750e+00 2.412515878677368164e+00 2.873448431491851807e-01
6.190000000000000000e+02 7.217632293701171875e+01 2.928076744079589844e+01 -9.163907915353775024e-02 8.239563941955566406e+00 2.444377422332763672e+00 1.989148855209350586e-01
6.200000000000000000e+02 6.765054321289062500e+01 3.740436553955078125e+01 -1.326177716255187988e-01 7.691791057586669922e+00 2.267751932144165039e+00 7.620951533317565918e-02
6.210000000000000000e+02 7.793678283691406250e+01 -4.161721038818359375e+01 4.269621800631284714e-03 8.620010375976562500e+00 2.587284088134765625e+00 1.203592400997877121e-03
6.220000000000000000e+02 7.798160552978515625e+01 -3.686626052856445312e+01 -1.831411756575107574e-02 8.513556480407714844e+00 2.548572778701782227e+00 -5.169793590903282166e-02
6.230000000000000000e+02 7.796622467041015625e+01 -3.034895324707031250e+01 -1.785854622721672058e-02 8.147326469421386719e+00 2.438840150833129883e+00 -1.733519434928894043e-01
6.240000000000000000e+02 7.818279266357421875e+01 -2.345029067993164062e+01 -7.796126883476972580e-03 7.485629558563232422e+00 2.243350028991699219e+00 -2.419430911540985107e-01
6.250000000000000000e+02 7.814585876464843750e+01 -1.660157012939453125e+01 9.733993560075759888e-03 6.649826049804687500e+00 1.997867941856384277e+00 -2.495075464248657227e-01
6.260000000000000000e+02 7.808658599853515625e+01 -9.590272903442382812e+00 3.551305830478668213e-02 6.039059162139892578e+00 1.822371602058410645e+00 -1.048859953880310059e-01
6.270000000000000000e+02 7.809117126464843750e+01 -2.602164030075073242e+00 3.493688255548477173e-02 6.077987670898437500e+00 1.833877325057983398e+00 1.331365406513214111e-01
6.280000000000000000e+02 7.808649444580078125e+01 4.348019123077392578e+00 9.494044817984104156e-03 6.753357410430908203e+00 2.028855562210083008e+00 2.746390700340270996e-01
6.290000000000000000e+02 7.802402496337890625e+01 1.130765628814697266e+01 -8.891347795724868774e-03 7.633960723876953125e+00 2.287520885467529297e+00 2.736296653747558594e-01
6.300000000000000000e+02 7.791198730468750000e+01 1.978394317626953125e+01 -1.409443933516740799e-02 8.462940216064453125e+00 2.534653663635253906e+00 1.844491660594940186e-01
6.310000000000000000e+02 7.651725769042968750e+01 2.282223320007324219e+01 -3.837791830301284790e-02 8.517816543579101562e+00 2.543831586837768555e+00 2.239299416542053223e-01
6.320000000000000000e+02 7.932463073730468750e+01 3.207690429687500000e+01 -4.311679862439632416e-03 9.257804870605468750e+00 2.776048183441162109e+00 1.685903035104274750e-02
6.330000000000000000e+02 7.692155456542968750e+01 3.736313247680664062e+01 -7.970770820975303650e-04 8.982012748718261719e+00 2.694364786148071289e+00 1.018894952721893787e-03
6.340000000000000000e+02 7.894974517822265625e+01 3.757970809936523438e+01 3.846726147457957268e-03 9.292062759399414062e+00 2.788772821426391602e+00 1.110809948295354843e-02
6.350000000000000000e+02 3.844175720214843750e+01 4.036150360107421875e+01 1.232140511274337769e-01 2.929671525955200195e+00 9.158656597137451172e-01 -4.667019098997116089e-02
6.360000000000000000e+02 4.273864364624023438e+01 4.078358459472656250e+01 3.968480043113231659e-03 3.775675773620605469e+00 1.133893251419067383e+00 -3.955032303929328918e-02
6.370000000000000000e+02 4.149844360351562500e+01 3.371173858642578125e+01 2.428510412573814392e-02 3.571920394897460938e+00 1.078861713409423828e+00 -2.282326668500900269e-01
6.380000000000000000e+02 4.595446777343750000e+01 2.485753822326660156e+01 -2.275312989950180054e-01 4.539288520812988281e+00 1.293527126312255859e+00 -4.650572538375854492e-01
6.390000000000000000e+02 4.238932037353515625e+01 1.542203235626220703e+01 -2.054011635482311249e-02 3.648952245712280273e+00 1.088523626327514648e+00 -8.557718396186828613e-01
6.400000000000000000e+02 4.013842010498046875e+01 7.888154506683349609e+00 4.090681672096252441e-01 2.334806442260742188e+00 8.231623768806457520e-01 -9.496966600418090820e-01
6.410000000000000000e+02 4.168934249877929688e+01 -7.535141706466674805e-02 5.787783265113830566e-01 1.039924860000610352e+00 4.856109619140625000e-01 -9.055288434028625488e-01
6.420000000000000000e+02 3.993186187744140625e+01 -4.758504390716552734e+00 -1.676291704177856445e+00 3.009308129549026489e-02 -4.938595592975616455e-01 1.024401113390922546e-01
6.430000000000000000e+02 4.430917739868164062e+01 -4.120862007141113281e+00 -3.436274230480194092e-01 2.774079144001007080e-01 -1.986585557460784912e-02 -5.763269066810607910e-01
6.440000000000000000e+02 4.495999145507812500e+01 -4.723720550537109375e+00 -7.652518153190612793e-01 2.116314023733139038e-01 -1.660861074924468994e-01 -4.798053205013275146e-01
6.450000000000000000e+02 4.008496093750000000e+01 3.657537841796875000e+01 5.638815090060234070e-02 3.282326698303222656e+00 1.001614451408386230e+00 -1.771958619356155396e-01
6.460000000000000000e+02 3.943899154663085938e+01 3.163195037841796875e+01 3.984628990292549133e-02 3.184672355651855469e+00 9.673555493354797363e-01 -2.807494103908538818e-01
6.470000000000000000e+02 3.936086273193359375e+01 2.304421997070312500e+01 -8.375588804483413696e-03 3.134584426879882812e+00 9.378626942634582520e-01 -5.385463833808898926e-01
6.480000000000000000e+02 3.307433319091796875e+01 1.616724586486816406e+01 8.230822533369064331e-02 1.514834403991699219e+00 4.791427850723266602e-01 -3.348408341407775879e-01
6.490000000000000000e+02 3.814972305297851562e+01 6.615945816040039062e+00 4.397898912429809570e-01 1.621435999870300293e+00 6.183677911758422852e-01 -6.475913524627685547e-01
6.500000000000000000e+02 3.631330871582031250e+01 2.282247692346572876e-02 -7.827100157737731934e-02 3.206142485141754150e-01 7.270297408103942871e-02 1.132815703749656677e-01
6.510000000000000000e+02 3.394878387451171875e+01 -4.900708675384521484e+00 -1.321413516998291016e+00 2.044417895376682281e-02 -3.902907967567443848e-01 2.249418944120407104e-01
6.520000000000000000e+02 3.469422531127929688e+01 -4.882627487182617188e+00 -1.393055200576782227e+00 2.056676149368286133e-02 -4.117465317249298096e-01 2.161496132612228394e-01
6.530000000000000000e+02 3.693752288818359375e+01 -4.823383331298828125e+00 -1.574212431907653809e+00 2.277114614844322205e-02 -4.654323756694793701e-01 1.824669688940048218e-01
6.540000000000000000e+02 3.167471885681152344e+01 4.039699172973632812e+01 2.701713740825653076e-01 1.876483321189880371e+00 6.439964175224304199e-01 -3.397190943360328674e-02
6.550000000000000000e+02 3.032961273193359375e+01 3.658714675903320312e+01 2.921625077724456787e-01 1.621665358543395996e+00 5.741483569145202637e-01 -1.253434419631958008e-01
6.560000000000000000e+02 2.960065841674804688e+01 3.338514328002929688e+01 2.751953601837158203e-01 1.418865084648132324e+00 5.082181096076965332e-01 -1.774484068155288696e-01
6.570000000000000000e+02 3.008586311340332031e+01 2.298781585693359375e+01 1.116511523723602295e-01 1.266478657722473145e+00 4.134389162063598633e-01 -2.893163859844207764e-01
6.580000000000000000e+02 2.762379646301269531e+01 1.715087509155273438e+01 -5.875978246331214905e-02 6.620444655418395996e-01 1.809854060411453247e-01 -9.759581834077835083e-02
6.590000000000000000e+02 2.871363067626953125e+01 1.002915000915527344e+01 -5.497922003269195557e-02 4.527852833271026611e-01 1.193418204784393311e-01 1.737635880708694458e-01
6.600000000000000000e+02 2.466728591918945312e+01 2.877408027648925781e+00 -1.589795500040054321e-01 -2.404243350028991699e-01 -1.198211610317230225e-01 5.479341149330139160e-01
6.610000000000000000e+02 2.731340026855468750e+01 -4.924592494964599609e+00 -6.011016964912414551e-01 -8.984753862023353577e-03 -1.830259412527084351e-01 2.456343919038772583e-01
6.620000000000000000e+02 3.024395751953125000e+01 -4.962366580963134766e+00 -9.236392974853515625e-01 1.114269625395536423e-02 -2.737489938735961914e-01 2.489221394062042236e-01
6.630000000000000000e+02 2.879442214965820312e+01 -4.285819530487060547e+00 -6.949762701988220215e-01 1.133397920057177544e-03 -2.081528604030609131e-01 3.183088004589080811e-01
6.640000000000000000e+02 3.320398712158203125e+01 -4.918618202209472656e+00 -1.246454596519470215e+00 1.905902475118637085e-02 -3.682186603546142578e-01 2.316193580627441406e-01
6.650000000000000000e+02 1.779237556457519531e+01 4.069948577880859375e+01 3.681223988533020020e-01 5.330637097358703613e-02 1.264286339282989502e-01 1.996682956814765930e-02
6.660000000000000000e+02 2.256638336181640625e+01 4.078732681274414062e+01 3.920884132385253906e-01 5.396477580070495605e-01 2.795208394527435303e-01 -5.429522134363651276e-03
6.670000000000000000e+02 2.348197174072265625e+01 3.356094360351562500e+01 3.537657856941223145e-01 5.431738495826721191e-01 2.690818905830383301e-01 -3.545902296900749207e-02
6.680000000000000000e+02 2.202923774719238281e+01 2.306999969482421875e+01 7.431659102439880371e-02 4.468614980578422546e-02 3.570082038640975952e-02 -2.846875414252281189e-02
6.690000000000000000e+02 2.191056251525878906e+01 1.562767887115478516e+01 -3.564838767051696777e-01 -3.345372676849365234e-01 -2.073063403367996216e-01 2.062449455261230469e-01
6.700000000000000000e+02 2.011011695861816406e+01 9.829748153686523438e+00 -3.825254440307617188e-01 -1.074319005012512207e+00 -4.370533227920532227e-01 5.382727980613708496e-01
6.710000000000000000e+02 1.991236114501953125e+01 5.328659057617187500e+00 -1.373301595449447632e-01 -1.001195073127746582e+00 -3.415575623512268066e-01 3.822511434555053711e-01
6.720000000000000000e+02 2.158736801147460938e+01 -4.390950679779052734e+00 -1.133456006646156311e-01 -6.645850092172622681e-02 -5.394123122096061707e-02 1.318481415510177612e-01
6.730000000000000000e+02 2.446227455139160156e+01 -4.028799533843994141e+00 -3.060956299304962158e-01 -6.141365319490432739e-02 -1.102527827024459839e-01 2.682834863662719727e-01
6.740000000000000000e+02 2.370311355590820312e+01 -4.678861618041992188e+00 -2.585017383098602295e-01 -4.784783348441123962e-02 -9.190487116575241089e-02 1.927598565816879272e-01
6.750000000000000000e+02 1.699235725402832031e+01 3.201501083374023438e+01 3.356784880161285400e-01 -1.391675472259521484e-01 5.895327776670455933e-02 1.351559758186340332e-01
6.760000000000000000e+02 1.689343070983886719e+01 2.289091110229492188e+01 1.155705098062753677e-02 -5.884243845939636230e-01 -1.730601936578750610e-01 2.305996716022491455e-01
6.770000000000000000e+02 1.297397994995117188e+01 1.751968955993652344e+01 -1.288690924644470215e+00 -9.885969758033752441e-01 -6.831863522529602051e-01 1.000879526138305664e+00
6.780000000000000000e+02 1.509692382812500000e+01 1.554667377471923828e+01 -1.059307336807250977e+00 -1.590324163436889648e+00 -7.948894500732421875e-01 1.153573751449584961e+00
6.790000000000000000e+02 1.885860824584960938e+01 1.577040004730224609e+01 -5.463154315948486328e-01 -8.613842129707336426e-01 -4.223099052906036377e-01 4.243099391460418701e-01
6.800000000000000000e+02 1.593169212341308594e+01 1.436451053619384766e+01 -8.447111845016479492e-01 -1.837202310562133789e+00 -8.045740127563476562e-01 1.094054102897644043e+00
6.810000000000000000e+02 1.800636482238769531e+01 9.090224266052246094e+00 -2.295159101486206055e-01 -1.902250409126281738e+00 -6.395298838615417480e-01 5.594664812088012695e-01
6.820000000000000000e+02 1.856499099731445312e+01 6.376782417297363281e+00 -8.593117445707321167e-02 -1.449589252471923828e+00 -4.606561064720153809e-01 3.246146142482757568e-01
6.830000000000000000e+02 1.898233604431152344e+01 2.208732843399047852e+00 -1.854941248893737793e-02 -7.362186312675476074e-01 -2.264304012060165405e-01 1.175579652190208435e-01
6.840000000000000000e+02 1.890792655944824219e+01 -5.144200325012207031e-01 -1.075218245387077332e-02 -3.096240460872650146e-01 -9.611286222934722900e-02 6.411290168762207031e-02
6.850000000000000000e+02 1.968665695190429688e+01 -3.076115131378173828e+00 -3.407722339034080505e-02 -9.929437935352325439e-02 -4.001148045063018799e-02 8.311177790164947510e-02
6.860000000000000000e+02 1.290900230407714844e+01 4.080788421630859375e+01 2.845968306064605713e-01 -2.955871820449829102e-01 -3.297111717984080315e-03 3.958756104111671448e-02
6.870000000000000000e+02 9.228087425231933594e+00 3.805909347534179688e+01 1.840452998876571655e-01 -5.117226839065551758e-01 -9.830321371555328369e-02 1.323276311159133911e-01
6.880000000000000000e+02 7.367926120758056641e+00 3.237116241455078125e+01 1.274506747722625732e-01 -5.471365451812744141e-01 -1.259057670831680298e-01 2.803085744380950928e-01
6.890000000000000000e+02 6.234250068664550781e+00 2.409444999694824219e+01 -8.889812231063842773e-02 -3.383686542510986328e-01 -1.281800270080566406e-01 3.748719990253448486e-01
6.900000000000000000e+02 1.038313674926757812e+01 1.895369529724121094e+01 -1.084431290626525879e+00 -3.760888278484344482e-01 -4.381560385227203369e-01 5.062778592109680176e-01
6.910000000000000000e+02 1.175335407257080078e+01 1.832381820678710938e+01 -1.291599035263061523e+00 -6.522423028945922852e-01 -5.831523537635803223e-01 8.146219253540039062e-01
6.920000000000000000e+02 2.030516862869262695e+00 4.163100051879882812e+01 -1.074863132089376450e-02 -9.831628799438476562e-01 -2.981734573841094971e-01 -3.047654172405600548e-03
6.930000000000000000e+02 4.662839412689208984e+00 3.744199371337890625e+01 6.925383955240249634e-02 -7.579897642135620117e-01 -2.066207677125930786e-01 1.319832652807235718e-01
6.940000000000000000e+02 2.151531457901000977e+00 3.578903579711914062e+01 2.366345934569835663e-02 -8.555258512496948242e-01 -2.495587170124053955e-01 6.171830371022224426e-02
6.950000000000000000e+02 2.052795648574829102e+00 2.869297409057617188e+01 8.264096453785896301e-03 -5.042080879211425781e-01 -1.487831920385360718e-01 1.559443622827529907e-01
6.960000000000000000e+02 1.804437756538391113e+00 2.305387878417968750e+01 -2.192877419292926788e-02 -1.310059875249862671e-01 -4.588042944669723511e-02 1.016428843140602112e-01
6.970000000000000000e+02 4.257532119750976562e+00 1.575461387634277344e+01 -1.904846285469830036e-03 -2.751897275447845459e-02 -8.827146142721176147e-03 -4.505862016230821609e-03
6.980000000000000000e+02 4.920368790626525879e-01 6.428622722625732422e+00 3.800932317972183228e-04 -1.642667921259999275e-04 6.474793190136551857e-05 6.810968625359237194e-05
6.990000000000000000e+02 6.064986705780029297e+00 1.859152317047119141e+00 -1.784511259756982327e-04 -6.532727857120335102e-04 -2.495171793270856142e-04 -1.281249715248122811e-04
7.000000000000000000e+02 8.101559638977050781e+00 2.590414762496948242e+00 -2.113208756782114506e-04 -8.643749752081930637e-04 -3.227087436243891716e-04 -5.643545300699770451e-04
7.010000000000000000e+02 9.631415367126464844e+00 1.865762948989868164e+00 2.286982053192332387e-04 4.770563682541251183e-04 2.117263793479651213e-04 4.871099081356078386e-04
7.020000000000000000e+02 1.392568492889404297e+01 1.748848676681518555e+00 5.642889882437884808e-04 -1.386270450893789530e-04 1.276985858567059040e-04 7.778701547067612410e-05
7.030000000000000000e+02 1.445229434967041016e+01 6.254823684692382812e+00 -2.153592184185981750e-03 -3.946358337998390198e-04 -7.644683937542140484e-04 -4.750813241116702557e-04
7.040000000000000000e+02 1.183161640167236328e+01 9.568890571594238281e+00 -2.112653339281678200e-03 -2.469396917149424553e-03 -1.374615007080137730e-03 -2.011081203818321228e-03
7.050000000000000000e+02 1.132982540130615234e+01 1.234355735778808594e+01 4.641876090317964554e-03 3.039504634216427803e-03 2.304414287209510803e-03 3.736070590093731880e-03
7.060000000000000000e+02 1.217422485351562500e+01 1.123818111419677734e+01 -4.359078593552112579e-03 -2.354558557271957397e-03 -2.014091238379478455e-03 -2.595415106043219566e-03
7.070000000000000000e+02 9.418461799621582031e+00 1.446301937103271484e+01 6.457272451370954514e-03 5.644404329359531403e-03 3.630503080785274506e-03 3.993900492787361145e-03
7.080000000000000000e+02 7.864754199981689453e+00 1.688698005676269531e+01 1.652269810438156128e-02 8.995396643877029419e-02 3.194300085306167603e-02 7.447204552590847015e-03
7.090000000000000000e+02 1.700395822525024414e+00 2.168962860107421875e+01 -2.712575718760490417e-02 -6.659815460443496704e-02 -2.811717428267002106e-02 7.009137421846389771e-02
7.100000000000000000e+02 1.154945254325866699e+00 3.862820863723754883e+00 -2.382943421253003180e-06 -1.452948636142536998e-04 -4.430334229255095124e-05 2.657980949152261019e-04
7.110000000000000000e+02 1.325582313537597656e+01 2.475344181060791016e+00 6.568506796611472964e-05 3.830752102658152580e-04 1.346280769212171435e-04 -7.001300400588661432e-05
7.120000000000000000e+02 2.175561904907226562e+01 -8.192913055419921875e+00 -5.970273017883300781e-01 3.631170094013214111e-02 -1.682146787643432617e-01 -2.409253418445587158e-01
7.130000000000000000e+02 6.610432434082031250e+01 -9.069313049316406250e+00 1.183805346488952637e+00 7.674384593963623047e+00 2.657457113265991211e+00 -4.237968027591705322e-01
7.140000000000000000e+02 7.285794830322265625e+01 -1.249227428436279297e+01 2.691171765327453613e-01 7.044511318206787109e+00 2.194088459014892578e+00 -5.215313434600830078e-01
7.150000000000000000e+02 7.937033081054687500e+01 -1.249113273620605469e+01 5.353104788810014725e-03 5.962913036346435547e+00 1.790479779243469238e+00 -6.585720181465148926e-02
7.160000000000000000e+02 7.936050415039062500e+01 -5.513069629669189453e+00 7.612016983330249786e-03 5.640205383300781250e+00 1.694345116615295410e+00 1.450298633426427841e-02
7.170000000000000000e+02 7.277318572998046875e+01 -4.921062946319580078e+00 3.977923691272735596e-01 6.899101257324218750e+00 2.189068078994750977e+00 1.572619080543518066e-01
7.180000000000000000e+02 6.713635253906250000e+01 -4.440911769866943359e+00 1.092519998550415039e+00 7.533781528472900391e+00 2.587890386581420898e+00 3.073960542678833008e-01
7.190000000000000000e+02 5.299412918090820312e+01 -5.646992683410644531e+00 7.159817695617675781e+00 1.318630790710449219e+01 6.103837490081787109e+00 1.258103370666503906e+00
7.200000000000000000e+02 2.460752677917480469e+01 -2.381067276000976562e+01 1.745529025793075562e-01 2.778450548648834229e-01 1.357193887233734131e-01 -2.244932651519775391e-01
7.210000000000000000e+02 2.985481834411621094e+01 -1.388170242309570312e+01 -5.062206983566284180e-01 1.167960166931152344e-01 -1.168274134397506714e-01 -3.812721669673919678e-01
7.220000000000000000e+02 3.841080856323242188e+01 -1.427663230895996094e+01 1.114448383450508118e-01 6.874477863311767578e-01 2.396677881479263306e-01 4.620032608509063721e-01
7.230000000000000000e+02 4.127860260009765625e+01 -1.425050067901611328e+01 4.470159709453582764e-01 1.334559559822082520e+00 5.344726443290710449e-01 1.121565580368041992e+00
7.240000000000000000e+02 4.620440292358398438e+01 -1.535836505889892578e+01 3.664724528789520264e-01 4.440410614013671875e+00 1.442065000534057617e+00 2.418578624725341797e+00
7.250000000000000000e+02 6.040828704833984375e+01 -1.877548217773437500e+01 -2.937169075012207031e-01 8.545430183410644531e+00 2.475513935089111328e+00 -7.228906750679016113e-01
7.260000000000000000e+02 7.322634124755859375e+01 -1.961951637268066406e+01 -5.584753584116697311e-03 7.416175365447998047e+00 2.223177194595336914e+00 -7.001413702964782715e-01
7.270000000000000000e+02 7.939792633056640625e+01 -2.222244071960449219e+01 -5.674781277775764465e-04 7.299003601074218750e+00 2.189530849456787109e+00 -9.032939374446868896e-02
7.280000000000000000e+02 5.335584640502929688e+00 -1.565004444122314453e+01 -1.989930897252634168e-04 -3.097348846495151520e-02 -9.351744316518306732e-03 -9.514525532722473145e-03
7.290000000000000000e+02 1.760518312454223633e+00 -1.744958305358886719e+01 -9.440557099878787994e-03 -7.911270367912948132e-04 -3.069505328312516212e-03 6.749069783836603165e-03
7.300000000000000000e+02 5.571173429489135742e-01 -1.068081760406494141e+01 1.376247149892151356e-03 1.698988489806652069e-03 9.225707035511732101e-04 8.264012285508215427e-04
7.310000000000000000e+02 2.421618652343750000e+01 -3.388964462280273438e+01 4.505724310874938965e-01 4.930809140205383301e-01 2.830960154533386230e-01 -6.313035637140274048e-02
7.320000000000000000e+02 1.640494918823242188e+01 -2.839981269836425781e+01 2.297093272209167480e-01 -2.328857481479644775e-01 -9.529265225864946842e-04 -2.945278882980346680e-01
7.330000000000000000e+02 3.483201980590820312e+01 -2.533467864990234375e+01 4.297918677330017090e-01 1.547958493232727051e+00 5.933251380920410156e-01 4.352041780948638916e-01
7.340000000000000000e+02 3.838726806640625000e+01 -2.499652481079101562e+01 3.855822384357452393e-01 2.236656665802001953e+00 7.866716980934143066e-01 7.508998513221740723e-01
7.350000000000000000e+02 4.968636703491210938e+01 -2.344159126281738281e+01 -4.818814396858215332e-01 6.158253669738769531e+00 1.702911734580993652e+00 1.146051645278930664e+00
7.360000000000000000e+02 5.848088455200195312e+01 -2.341464805603027344e+01 -6.978818178176879883e-01 7.973989486694335938e+00 2.182832479476928711e+00 -2.064900398254394531e-01
7.370000000000000000e+02 7.330747222900390625e+01 -2.525637054443359375e+01 -1.115931719541549683e-01 7.724864482879638672e+00 2.283981323242187500e+00 -5.991714000701904297e-01
7.380000000000000000e+02 7.936998748779296875e+01 -2.638417625427246094e+01 -2.757060807198286057e-03 7.850880622863769531e+00 2.354437112808227539e+00 -7.935773581266403198e-02
7.390000000000000000e+02 7.316251397132873535e-01 -3.044905471801757812e+01 -1.785621279850602150e-03 -7.234082818031311035e-01 -2.175581604242324829e-01 -5.031687021255493164e-02
7.400000000000000000e+02 8.524605751037597656e+00 -3.531633377075195312e+01 1.688126027584075928e-01 -5.227774977684020996e-01 -1.061894744634628296e-01 -2.053940594196319580e-01
7.410000000000000000e+02 3.237649536132812500e+01 -3.447098922729492188e+01 4.357067048549652100e-01 1.632500410079956055e+00 6.204621195793151855e-01 1.760435700416564941e-01
7.420000000000000000e+02 3.709926986694335938e+01 -3.755218124389648438e+01 2.851453423500061035e-01 2.575677394866943359e+00 8.582468032836914062e-01 2.038011997938156128e-01
7.430000000000000000e+02 6.311281204223632812e+01 -3.397915649414062500e+01 -5.261476635932922363e-01 7.487654685974121094e+00 2.088452100753784180e+00 -2.177844196557998657e-01
7.440000000000000000e+02 7.406909179687500000e+01 -3.173382949829101562e+01 -1.214462146162986755e-01 8.008838653564453125e+00 2.366217851638793945e+00 -3.443682193756103516e-01
7.450000000000000000e+02 7.932019042968750000e+01 -3.334875869750976562e+01 6.414416129700839520e-04 8.483018875122070312e+00 2.545098066329956055e+00 -4.613961279392242432e-02
7.460000000000000000e+02 7.936418914794921875e+01 2.847833633422851562e+00 2.834635786712169647e-03 6.368504047393798828e+00 1.911401629447937012e+00 9.538735449314117432e-02
7.470000000000000000e+02 6.771694946289062500e+01 5.739598751068115234e+00 5.998713895678520203e-02 7.861129760742187500e+00 2.376335144042968750e+00 9.794464707374572754e-01
7.480000000000000000e+02 6.054890060424804688e+01 3.267615556716918945e+00 1.813276857137680054e-01 8.725522041320800781e+00 2.672054767608642578e+00 9.842907786369323730e-01
7.490000000000000000e+02 7.935366058349609375e+01 8.417773246765136719e+00 -7.266750908456742764e-04 7.203930854797363281e+00 2.160961151123046875e+00 1.070211753249168396e-01
7.500000000000000000e+02 7.292980957031250000e+01 9.885619163513183594e+00 -6.770776957273483276e-02 7.663396358489990234e+00 2.278706550598144531e+00 7.330781817436218262e-01
7.510000000000000000e+02 6.569316101074218750e+01 8.883169174194335938e+00 -2.252208441495895386e-01 8.009469985961914062e+00 2.335274696350097656e+00 9.030691385269165039e-01
7.520000000000000000e+02 5.341103363037109375e+01 7.270446777343750000e+00 -6.928052902221679688e-01 7.948648452758789062e+00 2.176752805709838867e+00 -6.045874953269958496e-01
7.530000000000000000e+02 6.025638961791992188e+01 9.379397392272949219e+00 -5.286846160888671875e-01 8.188170433044433594e+00 2.297845602035522461e+00 5.497154593467712402e-01
7.540000000000000000e+02 4.347268295288085938e+01 -4.656823575496673584e-01 8.397727012634277344e-01 1.569622635841369629e+00 7.228186130523681641e-01 -1.478024125099182129e+00
7.550000000000000000e+02 3.561964035034179688e+01 -4.742208868265151978e-02 -1.353204250335693359e-01 2.720818817615509033e-01 4.102843627333641052e-02 1.852678507566452026e-01
7.560000000000000000e+02 2.953980827331542969e+01 -3.610273897647857666e-01 -3.239053189754486084e-01 3.324184939265251160e-02 -8.719904720783233643e-02 5.048639774322509766e-01
7.570000000000000000e+02 2.021034049987792969e+01 3.873327493667602539e+00 -1.051046177744865417e-01 -8.030710816383361816e-01 -2.724527120590209961e-01 3.595556616783142090e-01
7.580000000000000000e+02 1.894353866577148438e+01 3.606308221817016602e+00 -3.794582933187484741e-02 -9.914975762367248535e-01 -3.088330030441284180e-01 1.678834855556488037e-01
7.590000000000000000e+02 7.931089019775390625e+01 1.680214500427246094e+01 -3.969016019254922867e-03 8.313274383544921875e+00 2.492791652679443359e+00 8.312578499317169189e-02
7.600000000000000000e+02 7.209404754638671875e+01 1.717570686340332031e+01 -1.558159142732620239e-01 7.984786987304687500e+00 2.348691225051879883e+00 5.588846206665039062e-01
7.610000000000000000e+02 6.731900024414062500e+01 1.913981437683105469e+01 -3.274046480655670166e-01 7.806768894195556641e+00 2.243809223175048828e+00 5.175099372863769531e-01
7.620000000000000000e+02 5.085226058959960938e+01 1.936892700195312500e+01 -4.642204344272613525e-01 5.783724308013916016e+00 1.595851182937622070e+00 -4.730490446090698242e-01
7.630000000000000000e+02 5.622333526611328125e+01 1.492944717407226562e+01 -6.679695844650268555e-01 7.192713260650634766e+00 1.957423090934753418e+00 -8.052989840507507324e-02
7.640000000000000000e+02 4.305053710937500000e+01 7.376708507537841797e+00 3.271976709365844727e-01 3.343462705612182617e+00 1.101198077201843262e+00 -1.364678621292114258e+00
7.650000000000000000e+02 3.379063415527343750e+01 1.183698558807373047e+01 1.620687842369079590e-01 1.372289538383483887e+00 4.603075087070465088e-01 -2.860903441905975342e-01
7.660000000000000000e+02 2.747512626647949219e+01 1.033773326873779297e+01 -1.098764315247535706e-01 3.127845227718353271e-01 6.087242439389228821e-02 2.233202457427978516e-01
7.670000000000000000e+02 1.978380584716796875e+01 1.120315742492675781e+01 -4.505460262298583984e-01 -1.098171949386596680e+00 -4.646153748035430908e-01 5.491738915443420410e-01
7.680000000000000000e+02 7.930425262451171875e+01 2.379658317565917969e+01 -2.333000767976045609e-03 8.908423423767089844e+00 2.671827316284179688e+00 5.155149847269058228e-02
7.690000000000000000e+02 7.238459777832031250e+01 2.470712280273437500e+01 -1.308786273002624512e-01 8.179542541503906250e+00 2.414599180221557617e+00 3.200866281986236572e-01
7.700000000000000000e+02 6.661169433593750000e+01 2.352777862548828125e+01 -3.080802559852600098e-01 7.699117183685302734e+00 2.217311143875122070e+00 3.536212146282196045e-01
7.710000000000000000e+02 4.945293807983398438e+01 2.717393302917480469e+01 -2.862771153450012207e-01 5.122596263885498047e+00 1.450895667076110840e+00 -3.074496984481811523e-01
7.720000000000000000e+02 5.505154037475585938e+01 2.370943641662597656e+01 -4.529374241828918457e-01 6.295903682708740234e+00 1.752889871597290039e+00 -1.168957278132438660e-01
7.730000000000000000e+02 4.398920822143554688e+01 1.618456840515136719e+01 -1.277384757995605469e-01 4.113214492797851562e+00 1.195642828941345215e+00 -8.588429689407348633e-01
7.740000000000000000e+02 3.479711914062500000e+01 1.733051872253417969e+01 9.242772310972213745e-02 1.957755804061889648e+00 6.150550246238708496e-01 -4.557460844516754150e-01
7.750000000000000000e+02 3.039813804626464844e+01 1.641108703613281250e+01 1.176898833364248276e-02 1.066191554069519043e+00 3.233881592750549316e-01 -1.956513524055480957e-01
7.760000000000000000e+02 2.077248573303222656e+01 1.736004638671875000e+01 -3.340774178504943848e-01 -4.140595495700836182e-01 -2.244410961866378784e-01 1.854099184274673462e-01
7.770000000000000000e+02 2.625844478607177734e+00 2.092952537536621094e+01 -4.834493622183799744e-02 -7.627552002668380737e-02 -3.738613799214363098e-02 7.562564313411712646e-02
7.780000000000000000e+02 7.933224487304687500e+01 2.932948875427246094e+01 -4.521981347352266312e-03 9.184338569641113281e+00 2.753945112228393555e+00 2.885628119111061096e-02
7.790000000000000000e+02 7.304227447509765625e+01 3.027286720275878906e+01 -7.606810331344604492e-02 8.333172798156738281e+00 2.477131605148315430e+00 1.770104765892028809e-01
7.800000000000000000e+02 6.235641860961914062e+01 2.887000083923339844e+01 -3.123165965080261230e-01 7.132627964019775391e+00 2.046093463897705078e+00 1.473003476858139038e-01
7.810000000000000000e+02 4.871775436401367188e+01 3.422812271118164062e+01 -1.877853870391845703e-01 4.865701198577880859e+00 1.403374671936035156e+00 -1.670082509517669678e-01
7.820000000000000000e+02 5.837316894531250000e+01 3.082809448242187500e+01 -3.145087361335754395e-01 6.555902957916259766e+00 1.872418284416198730e+00 2.599012851715087891e-02
7.830000000000000000e+02 4.387438201904296875e+01 2.587422752380371094e+01 -1.406947672367095947e-01 4.042627811431884766e+00 1.170579910278320312e+00 -4.195980131626129150e-01
7.840000000000000000e+02 3.585026168823242188e+01 2.474300765991210938e+01 7.700128108263015747e-02 2.407621860504150391e+00 7.453869581222534180e-01 -4.066662788391113281e-01
7.850000000000000000e+02 2.555972099304199219e+01 2.779380035400390625e+01 2.545001804828643799e-01 7.319929003715515137e-01 2.959479391574859619e-01 -1.623745709657669067e-01
7.860000000000000000e+02 1.914995384216308594e+01 2.335658836364746094e+01 6.464968621730804443e-02 -3.135592341423034668e-01 -7.467287033796310425e-02 9.972070902585983276e-02
7.870000000000000000e+02 6.407126903533935547e+00 2.218873786926269531e+01 -1.882644295692443848e-01 -2.345398813486099243e-01 -1.268412917852401733e-01 3.370791077613830566e-01
7.880000000000000000e+02 3.318379974365234375e+01 3.525831985473632812e+01 2.171014696359634399e-01 2.012058734893798828e+00 6.687480807304382324e-01 -1.476731747388839722e-01
7.890000000000000000e+02 2.664808082580566406e+01 3.384773254394531250e+01 3.178622424602508545e-01 9.971318840980529785e-01 3.944982290267944336e-01 -1.063040122389793396e-01
7.900000000000000000e+02 2.235558891296386719e+01 2.935486602783203125e+01 3.050794303417205811e-01 3.129681944847106934e-01 1.854142844676971436e-01 -3.679451346397399902e-02
7.910000000000000000e+02 1.475448417663574219e+01 3.356395339965820312e+01 3.129448592662811279e-01 -2.824255824089050293e-01 9.155781939625740051e-03 1.795395612716674805e-01
7.920000000000000000e+02 2.296078681945800781e+00 3.154005432128906250e+01 1.479571312665939331e-02 -6.596392989158630371e-01 -1.934530884027481079e-01 1.430657058954238892e-01
7.930000000000000000e+02 1.583082318305969238e+00 9.081665992736816406e+00 -3.826502652373164892e-04 7.645390578545629978e-04 1.145666319644078612e-04 -9.767008014023303986e-04
7.940000000000000000e+02 1.761390304565429688e+01 -7.532782077789306641e+00 -5.500728636980056763e-02 -1.201955825090408325e-01 -5.256086215376853943e-02 -8.264774084091186523e-02
7.950000000000000000e+02 1.951286315917968750e+01 -7.782237529754638672e+00 -2.925535440444946289e-01 -1.551149599254131317e-02 -9.241951256990432739e-02 -1.718388199806213379e-01
7.960000000000000000e+02 1.423210716247558594e+01 -1.393295764923095703e+01 -6.344731450080871582e-01 -8.105806708335876465e-01 -4.335161447525024414e-01 -6.922171115875244141e-01
7.970000000000000000e+02 7.520716190338134766e+00 -1.384689235687255859e+01 -3.292267443612217903e-03 7.696557324379682541e-03 1.321286894381046295e-03 3.846888663247227669e-03
7.980000000000000000e+02 1.131593418121337891e+01 -8.124717712402343750e+00 3.783070133067667484e-04 1.425911323167383671e-04 1.562694378662854433e-04 -4.545563715510070324e-04
7.990000000000000000e+02 1.016596221923828125e+01 -3.122442722320556641e+00 -3.378405745024792850e-05 1.205113439937122166e-04 2.601818778202868998e-05 -4.341401217970997095e-04
8.000000000000000000e+02 1.320974922180175781e+01 -1.961533188819885254e+00 -6.008457057760097086e-05 -1.017088361550122499e-04 -4.853802238358184695e-05 -1.064031530404463410e-04
8.010000000000000000e+02 1.491120052337646484e+01 -2.293852090835571289e+00 2.750396743067540228e-05 -1.878558759926818311e-05 2.615513949422165751e-06 4.808788071386516094e-05
8.020000000000000000e+02 1.430485630035400391e+01 -2.141256809234619141e+00 4.612012162397149950e-06 4.205195364193059504e-05 1.399918983224779367e-05 -8.726854139240458608e-05
8.030000000000000000e+02 1.375135517120361328e+01 -1.996607899665832520e+00 -1.067885477823438123e-06 -3.534628194756805897e-05 -1.092425100068794563e-05 8.675245044287294149e-05
8.040000000000000000e+02 1.179817581176757812e+01 -1.970273137092590332e+00 9.432626029592938721e-06 -1.822850172175094485e-04 -5.185572081245481968e-05 -4.816389264306053519e-05
8.050000000000000000e+02 1.031682491302490234e+01 -1.853092312812805176e+00 -3.334052507852902636e-06 -1.482415391365066171e-04 -4.547267963062040508e-05 -1.895506429718807340e-04
8.060000000000000000e+02 9.576841354370117188e+00 -1.827286481857299805e+00 -4.079107748111709952e-05 1.165392604889348149e-04 2.272445271955803037e-05 3.118908207397907972e-04
8.070000000000000000e+02 8.829698562622070312e+00 -1.833996891975402832e+00 -7.097279740264639258e-05 -7.725902105448767543e-05 -4.446954699233174324e-05 -2.255145809613168240e-04
8.080000000000000000e+02 7.323029041290283203e+00 -1.858266592025756836e+00 -7.876892777858301997e-05 -2.176833368139341474e-05 -3.016117807419504970e-05 -2.214800479123368859e-04
8.090000000000000000e+02 5.798035144805908203e+00 -1.878171205520629883e+00 -3.511149770929478109e-05 -2.051150659099221230e-05 -1.668690129008609802e-05 -2.459742827340960503e-04
8.100000000000000000e+02 3.512942790985107422e+00 -1.973142743110656738e+00 -1.301235806749900803e-05 3.333440326969139278e-05 6.096613560657715425e-06 1.317532442044466734e-04
8.110000000000000000e+02 5.036283969879150391e+00 -1.896968245506286621e+00 -1.277578703593462706e-04 7.372034451691433787e-05 -1.621125738893169910e-05 1.839632896007969975e-04
8.120000000000000000e+02 4.420814037322998047e+00 -2.764391183853149414e+00 -5.081926065031439066e-05 1.191971314256079495e-04 2.051336014119442552e-05 2.166368358302861452e-04
8.130000000000000000e+02 2.747016668319702148e+00 -2.028569698333740234e+00 -1.216793752973899245e-04 -2.371839400439057499e-05 -4.361933315522037446e-05 -2.093557559419423342e-04
8.140000000000000000e+02 1.974039196968078613e+00 -2.074789524078369141e+00 5.562444493989460170e-05 3.196473699063062668e-05 2.627675530675332993e-05 5.274328577797859907e-05
8.150000000000000000e+02 5.003913640975952148e-01 -3.605880737304687500e+00 -2.985031751450151205e-04 -1.375444408040493727e-04 -1.308142818743363023e-04 -1.461171777918934822e-04
8.160000000000000000e+02 2.038739204406738281e+00 -4.162819290161132812e+01 -1.371435075998306274e-02 -1.017626404762268066e+00 -3.094022274017333984e-01 3.888736246153712273e-03
8.170000000000000000e+02 6.222815990447998047e+00 -3.802054977416992188e+01 1.084992587566375732e-01 -6.573076844215393066e-01 -1.646425127983093262e-01 -1.182132139801979065e-01
8.180000000000000000e+02 1.027260065078735352e+00 -3.864214706420898438e+01 -2.578403335064649582e-03 -1.029646158218383789e+00 -3.096673786640167236e-01 -3.791716182604432106e-03
8.190000000000000000e+02 6.635541319847106934e-01 -3.474969100952148438e+01 1.081482041627168655e-02 -9.559586644172668457e-01 -2.835431396961212158e-01 -3.065085411071777344e-02
8.200000000000000000e+02 8.107810616493225098e-01 -3.334724426269531250e+01 2.026779809966683388e-03 -8.938928246498107910e-01 -2.675598263740539551e-01 -4.062449187040328979e-02
8.210000000000000000e+02 6.954409480094909668e-01 -2.903488159179687500e+01 6.381732411682605743e-03 -6.191835403442382812e-01 -1.838405430316925049e-01 -5.441529676318168640e-02
8.220000000000000000e+02 6.704853177070617676e-01 -2.762538719177246094e+01 -4.239979665726423264e-03 -5.028121471405029297e-01 -1.521156281232833862e-01 -5.712597444653511047e-02
8.230000000000000000e+02 6.587457656860351562e-01 -2.621081542968750000e+01 2.869660500437021255e-03 -3.823530375957489014e-01 -1.138450056314468384e-01 -5.527026206254959106e-02
8.240000000000000000e+02 6.000778079032897949e-01 -2.193021965026855469e+01 -5.104885902255773544e-03 -6.237101182341575623e-02 -2.024276927113533020e-02 -3.643023967742919922e-02
8.250000000000000000e+02 1.711827635765075684e+00 -2.036211967468261719e+01 -2.584437653422355652e-02 -5.460923165082931519e-02 -2.413608320057392120e-02 -6.503048539161682129e-02
8.260000000000000000e+02 5.413827300071716309e-01 -1.626130676269531250e+01 2.430878579616546631e-03 3.912125900387763977e-02 1.246564183384180069e-02 7.230773102492094040e-03
8.270000000000000000e+02 5.223056077957153320e-01 -1.487050056457519531e+01 -7.871731068007647991e-04 2.290027774870395660e-02 6.633931770920753479e-03 4.626126028597354889e-03
8.280000000000000000e+02 5.275439023971557617e-01 -1.348022365570068359e+01 1.839625067077577114e-03 1.179582066833972931e-02 4.090633708983659744e-03 3.379849717020988464e-03
8.290000000000000000e+02 4.366652488708496094e+00 -1.489002227783203125e+01 8.650622330605983734e-03 -2.204819209873676300e-02 -4.019271116703748703e-03 -2.243587048724293709e-03
8.300000000000000000e+02 5.563925504684448242e-01 -9.280644416809082031e+00 -9.467131458222866058e-04 3.230923612136393785e-04 -1.870862324722111225e-04 2.993145899381488562e-04
8.310000000000000000e+02 5.467463135719299316e-01 -7.886568069458007812e+00 1.020011492073535919e-03 -2.742916694842278957e-04 2.237159496871754527e-04 1.316140405833721161e-04
8.320000000000000000e+02 5.384562611579895020e-01 -6.493991374969482422e+00 -7.340450538322329521e-04 -2.466976293362677097e-04 -2.942227874882519245e-04 -1.014335648505948484e-04
8.330000000000000000e+02 7.473069000244140625e+01 -3.995740509033203125e+01 -5.457140132784843445e-02 8.262193679809570312e+00 2.462286710739135742e+00 -1.042378246784210205e-01
8.340000000000000000e+02 3.248851013183593750e+01 -4.091956710815429688e+01 4.282284080982208252e-01 1.753411173820495605e+00 6.544918417930603027e-01 3.242656961083412170e-02
8.350000000000000000e+02 1.283177852630615234e+01 -4.061316680908203125e+01 2.859050631523132324e-01 -3.103130757808685303e-01 -7.322398014366626740e-03 -5.182491615414619446e-02
8.360000000000000000e+02 7.597748565673828125e+01 4.055065917968750000e+01 -5.341842304915189743e-03 8.975116729736328125e+00 2.690932512283325195e+00 6.990262120962142944e-02
8.370000000000000000e+02 7.808786773681640625e+01 4.176346969604492188e+01 8.768823742866516113e-02 9.176900863647460938e+00 2.779376745223999023e+00 -2.456571906805038452e-02
8.380000000000000000e+02 7.878087615966796875e+01 3.897114181518554688e+01 -6.022469699382781982e-02 9.278853416442871094e+00 2.765588521957397461e+00 -2.667948044836521149e-02
8.390000000000000000e+02 7.721743011474609375e+01 3.601581954956054688e+01 -1.419356837868690491e-02 9.044579505920410156e+00 2.709115982055664062e+00 3.045872040092945099e-02
8.400000000000000000e+02 7.919680786132812500e+01 3.482804489135742188e+01 -1.954438164830207825e-02 9.293146133422851562e+00 2.782080411911010742e+00 2.398319076746702194e-03
8.410000000000000000e+02 7.787816619873046875e+01 3.341867065429687500e+01 -6.772504188120365143e-03 9.061934471130371094e+00 2.716548442840576172e+00 3.790888935327529907e-02
8.420000000000000000e+02 7.928249359130859375e+01 3.345195770263671875e+01 4.276291001588106155e-03 9.282258987426757812e+00 2.785960674285888672e+00 1.659915596246719360e-02
8.430000000000000000e+02 7.933685302734375000e+01 3.070340347290039062e+01 -1.195808290503919125e-03 9.226635932922363281e+00 2.767632007598876953e+00 2.252077870070934296e-02
8.440000000000000000e+02 7.793888092041015625e+01 2.814711189270019531e+01 -1.162267103791236877e-02 8.932321548461914062e+00 2.676209688186645508e+00 8.908274769783020020e-02
8.450000000000000000e+02 7.930929565429687500e+01 2.657658576965332031e+01 -1.822635531425476074e-03 9.064371109008789062e+00 2.718764543533325195e+00 4.071781784296035767e-02
8.460000000000000000e+02 7.647920989990234375e+01 2.563899993896484375e+01 -3.061777539551258087e-02 8.640618324279785156e+00 2.582999944686889648e+00 1.760062724351882935e-01
8.470000000000000000e+02 7.930455017089843750e+01 2.518959808349609375e+01 -3.188888775184750557e-03 8.991108894348144531e+00 2.696376085281372070e+00 4.608688130974769592e-02
8.480000000000000000e+02 7.930867004394531250e+01 2.099959182739257812e+01 -1.932641607709228992e-03 8.707050323486328125e+00 2.611535310745239258e+00 6.417582184076309204e-02
8.490000000000000000e+02 7.930844879150390625e+01 1.960041999816894531e+01 -4.466990008950233459e-03 8.587709426879882812e+00 2.574972867965698242e+00 7.119189947843551636e-02
8.500000000000000000e+02 7.930857086181640625e+01 1.820180702209472656e+01 -1.544241211377084255e-03 8.456498146057128906e+00 2.536486148834228516e+00 7.702221721410751343e-02
8.510000000000000000e+02 7.932671356201171875e+01 1.400383281707763672e+01 -3.237838856875896454e-03 7.989226341247558594e+00 2.395796537399291992e+00 9.396614879369735718e-02
8.520000000000000000e+02 7.933370971679687500e+01 1.260429191589355469e+01 -1.383130904287099838e-03 7.808219909667968750e+00 2.342051029205322266e+00 9.883590042591094971e-02
8.530000000000000000e+02 7.934141540527343750e+01 1.120697879791259766e+01 -2.030281582847237587e-03 7.615595817565917969e+00 2.284069538116455078e+00 1.027890667319297791e-01
8.540000000000000000e+02 7.935747528076171875e+01 7.025159358978271484e+00 9.080316522158682346e-04 6.990795612335205078e+00 2.097511053085327148e+00 1.069477647542953491e-01
8.550000000000000000e+02 7.936017608642578125e+01 5.632365703582763672e+00 8.116374374367296696e-04 6.777448177337646484e+00 2.033478021621704102e+00 1.053747609257698059e-01
8.560000000000000000e+02 7.936231231689453125e+01 4.240441799163818359e+00 2.871330361813306808e-03 6.568424224853515625e+00 1.971388697624206543e+00 1.013993024826049805e-01
8.570000000000000000e+02 7.936605834960937500e+01 6.564237177371978760e-02 4.842439200729131699e-03 6.016463756561279297e+00 1.806391954421997070e+00 7.629010826349258423e-02
8.580000000000000000e+02 7.936521911621093750e+01 -1.327786445617675781e+00 6.709463428705930710e-03 5.874642372131347656e+00 1.764405488967895508e+00 6.348431855440139771e-02
8.590000000000000000e+02 7.808420562744140625e+01 -3.998918771743774414e+00 3.730700537562370300e-02 6.010563850402832031e+00 1.814361214637756348e+00 8.743150532245635986e-02
8.600000000000000000e+02 7.936205291748046875e+01 -4.117240428924560547e+00 8.215792477130889893e-03 5.683344364166259766e+00 1.707468152046203613e+00 3.172491863369941711e-02
8.610000000000000000e+02 7.936308288574218750e+01 -8.298813819885253906e+00 7.233735173940658569e-03 5.664456367492675781e+00 1.701507091522216797e+00 -2.069345861673355103e-02
8.620000000000000000e+02 7.809713745117187500e+01 -1.099931049346923828e+01 3.206036612391471863e-02 6.117517948150634766e+00 1.844873547554016113e+00 -1.469169259071350098e-01
8.630000000000000000e+02 7.936720275878906250e+01 -1.109237670898437500e+01 6.135556381195783615e-03 5.832105636596679688e+00 1.751472353935241699e+00 -5.322892218828201294e-02
8.640000000000000000e+02 7.937862396240234375e+01 -1.528113555908203125e+01 2.404261846095323563e-03 6.295217990875244141e+00 1.889286637306213379e+00 -8.431722223758697510e-02
8.650000000000000000e+02 7.816240692138671875e+01 -1.798732757568359375e+01 5.686271935701370239e-03 6.814223766326904297e+00 2.045973062515258789e+00 -2.575447261333465576e-01
8.660000000000000000e+02 7.938792419433593750e+01 -1.806629180908203125e+01 2.135780086973682046e-04 6.686020374298095703e+00 2.005870103836059570e+00 -9.271744638681411743e-02
8.670000000000000000e+02 7.939229583740234375e+01 -2.360729217529296875e+01 -1.801620353944599628e-03 7.493789672851562500e+00 2.247596502304077148e+00 -8.730655163526535034e-02
8.680000000000000000e+02 7.815303039550781250e+01 -2.482164001464843750e+01 -1.094886101782321930e-02 7.642262935638427734e+00 2.289394140243530273e+00 -2.312957793474197388e-01
8.690000000000000000e+02 7.938277435302734375e+01 -2.499506759643554688e+01 -1.073067309334874153e-03 7.678554058074951172e+00 2.303244352340698242e+00 -8.400048315525054932e-02
8.700000000000000000e+02 7.933805084228515625e+01 -2.916211509704589844e+01 -2.478391397744417191e-03 8.151459693908691406e+00 2.444694280624389648e+00 -6.907114386558532715e-02
8.710000000000000000e+02 7.793408966064453125e+01 -3.176177978515625000e+01 -2.048674412071704865e-02 8.249448776245117188e+00 2.468688726425170898e+00 -1.574936956167221069e-01
8.720000000000000000e+02 7.931475830078125000e+01 -3.195342063903808594e+01 -8.023690432310104370e-03 8.390707015991210938e+00 2.514804840087890625e+00 -5.253783613443374634e-02
8.730000000000000000e+02 7.936267852783203125e+01 -3.608589935302734375e+01 4.364998079836368561e-03 8.606297492980957031e+00 2.583198785781860352e+00 -2.339863963425159454e-02
8.740000000000000000e+02 7.926828002929687500e+01 -3.740186309814453125e+01 -1.781034655869007111e-02 8.625164985656738281e+00 2.582206487655639648e+00 -2.874682424589991570e-03
8.750000000000000000e+02 7.902249145507812500e+01 -3.869248580932617188e+01 7.322629913687705994e-03 8.625852584838867188e+00 2.589952468872070312e+00 -2.165848622098565102e-03
8.760000000000000000e+02 7.862110900878906250e+01 -4.003570175170898438e+01 -7.247094996273517609e-03 8.622546195983886719e+00 2.584589719772338867e+00 2.482027513906359673e-03
8.770000000000000000e+02 2.724049377441406250e+01 4.072105789184570312e+01 3.494951426982879639e-01 1.151138782501220703e+00 4.501901865005493164e-01 -2.306979522109031677e-02
8.780000000000000000e+02 4.670472717285156250e+01 3.756694412231445312e+01 -8.316021412611007690e-02 4.508772373199462891e+00 1.327683687210083008e+00 -8.940552175045013428e-02
8.790000000000000000e+02 6.752466583251953125e+01 4.082496261596679688e+01 -1.188915073871612549e-01 7.667528629302978516e+00 2.264590978622436523e+00 1.818998530507087708e-02
8.800000000000000000e+02 6.953157782554626465e-01 3.052945375442504883e+00 -2.759384224191308022e-04 -1.501908409409224987e-04 -1.278387790080159903e-04 -4.038441111333668232e-04
8.810000000000000000e+02 3.195686817169189453e+00 2.744437456130981445e+00 3.207522968295961618e-04 3.581359924282878637e-04 2.036664809565991163e-04 -8.531660569133237004e-05
8.820000000000000000e+02 5.312610149383544922e+00 2.601368904113769531e+00 -1.234880473930388689e-04 -6.021357257850468159e-04 -2.176871348638087511e-04 -3.125045259366743267e-05
8.830000000000000000e+02 1.514055728912353516e+00 6.365267276763916016e+00 -4.273201921023428440e-04 -1.175639918074011803e-04 -1.634652580833062530e-04 -1.743950269883498549e-04
8.840000000000000000e+02 5.244718790054321289e-01 9.214447975158691406e+00 2.111428620992228389e-04 4.629623144865036011e-04 2.022315456997603178e-04 -1.278672425542026758e-04
8.850000000000000000e+02 5.833960771560668945e-01 1.201657772064208984e+01 2.101392019540071487e-04 5.665728356689214706e-03 1.762760221026837826e-03 -1.701082685030996799e-03
8.860000000000000000e+02 1.765096664428710938e+00 1.181355953216552734e+01 1.460588886402547359e-03 1.981264445930719376e-03 1.032556057907640934e-03 -4.531275480985641479e-03
8.870000000000000000e+02 6.281806826591491699e-01 1.765868186950683594e+01 -2.577527659013867378e-03 4.913711175322532654e-02 1.396787539124488831e-02 -3.941194619983434677e-03
8.880000000000000000e+02 7.700098991394042969e+00 1.848244476318359375e+01 -2.194092720746994019e-01 6.011969968676567078e-02 -4.778687283396720886e-02 4.153009876608848572e-02
8.890000000000000000e+02 5.666204690933227539e-01 2.190313529968261719e+01 -5.103406496345996857e-03 -8.854812942445278168e-03 -4.187465645372867584e-03 2.425998449325561523e-02
8.900000000000000000e+02 5.901777148246765137e-01 2.330298042297363281e+01 -4.720590543001890182e-03 -8.380372077226638794e-02 -2.655729278922080994e-02 3.607944771647453308e-02
8.910000000000000000e+02 5.907257199287414551e-01 2.472401237487792969e+01 -3.276028670370578766e-03 -1.826253384351730347e-01 -5.577040836215019226e-02 4.534652084112167358e-02
8.920000000000000000e+02 6.820034980773925781e-01 2.895952796936035156e+01 -2.175930421799421310e-03 -5.419957041740417480e-01 -1.632514894008636475e-01 5.431718379259109497e-02
8.930000000000000000e+02 7.305035591125488281e-01 3.036537361145019531e+01 2.793367253616452217e-03 -6.488264799118041992e-01 -1.938099265098571777e-01 5.295238643884658813e-02
8.940000000000000000e+02 2.229572296142578125e+00 3.009954452514648438e+01 9.734931401908397675e-03 -5.861372947692871094e-01 -1.729207187891006470e-01 1.530484259128570557e-01
8.950000000000000000e+02 7.520494461059570312e-01 3.177634620666503906e+01 1.216640579514205456e-03 -7.451483607292175293e-01 -2.231795191764831543e-01 4.946368560194969177e-02
8.960000000000000000e+02 7.231490015983581543e-01 3.601213455200195312e+01 -2.437609073240309954e-04 -9.459511041641235352e-01 -2.838584780693054199e-01 2.298249863088130951e-02
8.970000000000000000e+02 3.339391231536865234e+00 3.702220153808593750e+01 4.269677773118019104e-02 -8.380030393600463867e-01 -2.385918647050857544e-01 7.958371192216873169e-02
8.980000000000000000e+02 9.384643435478210449e-01 3.871982955932617188e+01 -2.510960213840007782e-03 -9.904346466064453125e-01 -2.978836894035339355e-01 6.336604245007038116e-03
8.990000000000000000e+02 1.318365693092346191e+00 4.006915664672851562e+01 1.481320243328809738e-02 -9.871832728385925293e-01 -2.917110323905944824e-01 -6.470257416367530823e-03
9.000000000000000000e+02 1.037124061584472656e+01 1.854719758033752441e+00 -4.396374861244112253e-04 -2.875489881262183189e-04 -2.181559393648058176e-04 -5.218181759119033813e-04
9.010000000000000000e+02 8.911293029785156250e+00 1.863390088081359863e+00 -3.113552811555564404e-04 -5.603851168416440487e-04 -2.615221019368618727e-04 -5.501081468537449837e-04
9.020000000000000000e+02 8.197463035583496094e+00 1.859824538230895996e+00 1.038045375025831163e-04 6.754372734576463699e-04 2.337725309189409018e-04 4.498350608628243208e-04
9.030000000000000000e+02 7.486351966857910156e+00 1.857073307037353516e+00 -2.255968429381027818e-04 -6.788057507947087288e-04 -2.713207795750349760e-04 -3.875471011269837618e-04
9.040000000000000000e+02 5.351895809173583984e+00 1.866777539253234863e+00 3.029514118679799139e-05 6.508653168566524982e-04 2.043481363216415048e-04 7.374263805104419589e-05
9.050000000000000000e+02 4.637898921966552734e+00 1.879715681076049805e+00 -1.820563775254413486e-04 -5.525357555598020554e-04 -2.203776384703814983e-04 9.540102473692968488e-05
9.060000000000000000e+02 3.924813270568847656e+00 1.894419312477111816e+00 1.045963581418618560e-04 5.161521839909255505e-04 1.862245699157938361e-04 -5.072508065495640039e-05
9.070000000000000000e+02 3.215694665908813477e+00 1.903890013694763184e+00 -3.202322695869952440e-04 -3.827957843896001577e-04 -2.109084161929786205e-04 1.725219335639849305e-04
9.080000000000000000e+02 2.516251564025878906e+00 1.902465939521789551e+00 2.863610279746353626e-04 2.943852159660309553e-04 1.742238819133490324e-04 8.504634752171114087e-05
9.090000000000000000e+02 1.821821093559265137e+00 1.900385975837707520e+00 -2.025052817771211267e-04 -3.009192587342113256e-04 -1.510273723397403955e-04 -4.285412433091551065e-05
9.100000000000000000e+02 1.263378047943115234e+01 1.764097213745117188e+00 2.426815335638821125e-04 1.754914992488920689e-04 1.254519156645983458e-04 -2.944388688774779439e-05
9.110000000000000000e+02 1.331541824340820312e+01 1.739901423454284668e+00 -3.960223402827978134e-04 -2.560862340033054352e-04 -1.956325722858309746e-04 -3.034619730897247791e-04
9.120000000000000000e+02 1.513097286224365234e+01 1.858850240707397461e+00 2.410246233921498060e-04 5.213306867517530918e-04 2.287065872224047780e-04 4.106780688744038343e-04
9.130000000000000000e+02 1.340468406677246094e+01 3.116193294525146484e+00 -7.577949436381459236e-04 9.443632443435490131e-04 5.597049312200397253e-05 3.718176158145070076e-04
9.140000000000000000e+02 1.475932788848876953e+01 3.608735084533691406e+00 -8.835947955958545208e-04 4.813086343347094953e-05 -2.506391901988536119e-04 -1.605933066457509995e-04
9.150000000000000000e+02 1.406021499633789062e+01 7.557626247406005859e+00 2.736587775871157646e-03 2.945042797364294529e-04 9.093275875784456730e-04 9.702470852062106133e-04
9.160000000000000000e+02 1.352292537689208984e+01 8.820620536804199219e+00 -3.291906323283910751e-03 -1.098182867281138897e-03 -1.317026792094111443e-03 -1.354686450213193893e-03
9.170000000000000000e+02 1.289023113250732422e+01 1.005116939544677734e+01 3.728783223778009415e-03 1.130464370362460613e-03 1.457774313166737556e-03 2.177993301302194595e-03
9.180000000000000000e+02 1.030402946472167969e+01 1.168877220153808594e+01 -2.040654188022017479e-03 -2.563323359936475754e-03 -1.381193171255290508e-03 -2.469148021191358566e-03
9.190000000000000000e+02 9.406465530395507812e+00 1.273026466369628906e+01 1.440549269318580627e-03 5.268205888569355011e-03 2.012626500800251961e-03 3.126634517684578896e-03
9.200000000000000000e+02 8.451958656311035156e+00 1.557469081878662109e+01 -6.267141550779342651e-03 2.980722300708293915e-02 7.062024436891078949e-03 -9.719713591039180756e-03
9.210000000000000000e+02 1.634404182434082031e+01 1.667336654663085938e+01 -7.118016481399536133e-01 -1.172516226768493652e+00 -5.652953386306762695e-01 6.432765722274780273e-01
9.220000000000000000e+02 1.657274055480957031e+01 1.306344413757324219e+01 -5.770297050476074219e-01 -1.858516931533813477e+00 -7.306639552116394043e-01 9.588467478752136230e-01
9.230000000000000000e+02 1.761437034606933594e+01 1.042751693725585938e+01 -3.564818799495697021e-01 -1.969031572341918945e+00 -6.976540684700012207e-01 7.400687336921691895e-01
9.240000000000000000e+02 1.830365562438964844e+01 7.737589359283447266e+00 -1.174811944365501404e-01 -1.654742360115051270e+00 -5.316670536994934082e-01 4.083044230937957764e-01
9.250000000000000000e+02 1.878944587707519531e+01 4.999359130859375000e+00 -6.592410802841186523e-02 -1.244556307792663574e+00 -3.931441307067871094e-01 2.432934939861297607e-01
9.260000000000000000e+02 1.923797035217285156e+01 -3.804552793502807617e+00 -1.730831898748874664e-02 -6.105842813849449158e-02 -2.351002395153045654e-02 4.023751616477966309e-02
9.270000000000000000e+02 1.913530158996582031e+01 -2.654391527175903320e+00 -1.372802536934614182e-02 -1.149723604321479797e-01 -3.861011564731597900e-02 5.712567269802093506e-02
9.280000000000000000e+02 2.009711074829101562e+01 -4.065961360931396484e+00 -4.828594997525215149e-02 -6.129292398691177368e-02 -3.287366032600402832e-02 7.132076472043991089e-02
9.290000000000000000e+02 2.088165283203125000e+01 -4.256850242614746094e+00 -7.514942437410354614e-02 -6.970614939928054810e-02 -4.345667362213134766e-02 9.959428757429122925e-02
9.300000000000000000e+02 2.299475479125976562e+01 -4.601119518280029297e+00 -2.048229873180389404e-01 -5.331752449274063110e-02 -7.744215428829193115e-02 1.755465269088745117e-01
9.310000000000000000e+02 2.441826629638671875e+01 -4.739018440246582031e+00 -3.176330029964447021e-01 -4.032790660858154297e-02 -1.073882728815078735e-01 2.094131410121917725e-01
9.320000000000000000e+02 2.513762474060058594e+01 -4.799140453338623047e+00 -3.832910656929016113e-01 -3.230129554867744446e-02 -1.246777102351188660e-01 2.221338748931884766e-01
9.330000000000000000e+02 2.585885238647460938e+01 -4.857570648193359375e+00 -4.521548151969909668e-01 -2.373782731592655182e-02 -1.427677869796752930e-01 2.324180305004119873e-01
9.340000000000000000e+02 2.807035446166992188e+01 -4.270769596099853516e+00 -6.268798708915710449e-01 -6.736239418387413025e-03 -1.900848448276519775e-01 3.157673478126525879e-01
9.350000000000000000e+02 2.804372406005859375e+01 -4.944122314453125000e+00 -6.794601082801818848e-01 -2.759005641564726830e-03 -2.046657353639602661e-01 2.489613741636276245e-01
9.360000000000000000e+02 2.877388572692871094e+01 -4.960219383239746094e+00 -7.600747942924499512e-01 2.925080480054020882e-03 -2.271449118852615356e-01 2.499010264873504639e-01
9.370000000000000000e+02 3.097936630249023438e+01 -4.287300109863281250e+00 -8.978497982025146484e-01 1.724410615861415863e-02 -2.641817033290863037e-01 3.143729269504547119e-01
9.380000000000000000e+02 3.098182296752929688e+01 -4.956117153167724609e+00 -1.005040645599365234e+00 1.358528714627027512e-02 -2.974366247653961182e-01 2.462788522243499756e-01
9.390000000000000000e+02 3.171983718872070312e+01 -4.948322772979736328e+00 -1.087372183799743652e+00 1.563428901135921478e-02 -3.215213716030120850e-01 2.423132359981536865e-01
9.400000000000000000e+02 3.318153762817382812e+01 -4.249580383300781250e+00 -1.083279371261596680e+00 2.766815200448036194e-02 -3.166833519935607910e-01 2.960101664066314697e-01
9.410000000000000000e+02 3.466727066040039062e+01 -4.214290142059326172e+00 -1.188260316848754883e+00 3.298500925302505493e-02 -3.465825915336608887e-01 2.735731303691864014e-01
9.420000000000000000e+02 3.618899917602539062e+01 -4.843243122100830078e+00 -1.521517038345336914e+00 2.152416296303272247e-02 -4.499978721141815186e-01 1.956413835287094116e-01
9.430000000000000000e+02 3.843489074707031250e+01 -4.787339210510253906e+00 -1.652579545974731445e+00 2.513351291418075562e-02 -4.882338047027587891e-01 1.490750312805175781e-01
9.440000000000000000e+02 3.768588638305664062e+01 -4.804471969604492188e+00 -1.619272589683532715e+00 2.167498320341110229e-02 -4.792792797088623047e-01 1.674421578645706177e-01
9.450000000000000000e+02 3.918384170532226562e+01 -4.772282123565673828e+00 -1.673475623130798340e+00 2.378647774457931519e-02 -4.949067533016204834e-01 1.289903521537780762e-01
9.460000000000000000e+02 4.291962051391601562e+01 -4.712660312652587891e+00 -1.396103739738464355e+00 6.906477361917495728e-02 -3.981116712093353271e-01 -9.012420475482940674e-02
9.470000000000000000e+02 4.366493606567382812e+01 -4.699939727783203125e+00 -1.206212520599365234e+00 9.785614162683486938e-02 -3.325069248676300049e-01 -1.820517033338546753e-01
9.480000000000000000e+02 4.435116195678710938e+01 -4.698449611663818359e+00 -9.226160645484924316e-01 1.019971221685409546e-01 -2.461856752634048462e-01 -3.257514834403991699e-01
9.490000000000000000e+02 4.612704467773437500e+01 -4.711871623992919922e+00 8.400872349739074707e-02 3.642192184925079346e-01 1.344683766365051270e-01 -9.796592593193054199e-01
9.500000000000000000e+02 4.859233474731445312e+01 -4.776415824890136719e+00 3.501888513565063477e+00 4.099698543548583984e+00 2.280476093292236328e+00 -4.756644725799560547e+00
9.510000000000000000e+02 4.980841445922851562e+01 -4.789844512939453125e+00 2.565924882888793945e+00 1.437398719787597656e+01 5.081973552703857422e+00 -6.769261837005615234e+00
9.520000000000000000e+02 5.139884185791015625e+01 -5.298701763153076172e+00 6.336222648620605469e+00 1.935886192321777344e+01 7.708525180816650391e+00 2.312701225280761719e+00
9.530000000000000000e+02 5.176311111450195312e+01 -6.278357982635498047e+00 1.134823894500732422e+01 1.640166091918945312e+01 8.324970245361328125e+00 5.440086126327514648e-01
9.540000000000000000e+02 5.163040161132812500e+01 -7.118583202362060547e+00 9.288228034973144531e+00 1.788141822814941406e+01 8.150893211364746094e+00 -2.598156452178955078e+00
9.550000000000000000e+02 5.108124542236328125e+01 -7.822297573089599609e+00 3.595063447952270508e+00 2.038421821594238281e+01 7.193784713745117188e+00 -8.000599145889282227e-01
9.560000000000000000e+02 5.045084762573242188e+01 -8.003203392028808594e+00 1.547216057777404785e+00 1.958473777770996094e+01 6.339586257934570312e+00 3.411809206008911133e+00
9.570000000000000000e+02 5.065981292724609375e+01 -7.974167346954345703e+00 1.845360636711120605e+00 2.037690353393554688e+01 6.666679382324218750e+00 1.867251873016357422e+00
9.580000000000000000e+02 4.925520706176757812e+01 -8.099583625793457031e+00 3.258519411087036133e+00 8.725441932678222656e+00 3.595188379287719727e+00 6.461622238159179688e+00
9.590000000000000000e+02 4.737860488891601562e+01 -8.123067855834960938e+00 1.457099199295043945e+00 1.456126093864440918e+00 8.739675879478454590e-01 2.213942766189575195e+00
9.600000000000000000e+02 4.716508102416992188e+01 -8.118790626525878906e+00 1.070003271102905273e+00 9.631701111793518066e-01 6.099520325660705566e-01 1.875016570091247559e+00
9.610000000000000000e+02 4.598258209228515625e+01 -8.255746841430664062e+00 -4.933174699544906616e-02 4.054495096206665039e-01 1.068353280425071716e-01 9.477217793464660645e-01
9.620000000000000000e+02 4.448232269287109375e+01 -8.242084503173828125e+00 -1.137350082397460938e+00 1.590174138545989990e-01 -2.934997975826263428e-01 3.582240641117095947e-01
9.630000000000000000e+02 4.228446578979492188e+01 -8.323546409606933594e+00 -1.745105504989624023e+00 6.761671602725982666e-02 -5.032466650009155273e-01 4.283734411001205444e-02
9.640000000000000000e+02 4.231861495971679688e+01 -8.937247276306152344e+00 -1.207624316215515137e+00 1.455352455377578735e-01 -3.186267316341400146e-01 1.938370764255523682e-01
9.650000000000000000e+02 4.079911041259765625e+01 -8.381403923034667969e+00 -1.921726942062377930e+00 4.235520586371421814e-02 -5.638115406036376953e-01 -5.820079147815704346e-02
9.660000000000000000e+02 3.930493927001953125e+01 -8.434259414672851562e+00 -2.000557661056518555e+00 2.403536252677440643e-02 -5.929566621780395508e-01 -1.220770403742790222e-01
9.670000000000000000e+02 3.780742645263671875e+01 -8.481716156005859375e+00 -2.018137693405151367e+00 1.083775330334901810e-02 -6.021900177001953125e-01 -1.637380719184875488e-01
9.680000000000000000e+02 3.480408477783203125e+01 -8.571243286132812500e+00 -1.929766297340393066e+00 -5.713492631912231445e-03 -5.806439518928527832e-01 -2.069183140993118286e-01
9.690000000000000000e+02 3.630709075927734375e+01 -8.527967453002929688e+00 -1.989288806915283203e+00 4.411731497384607792e-04 -5.966542959213256836e-01 -1.900882571935653687e-01
9.700000000000000000e+02 3.329572296142578125e+01 -8.609104156494140625e+00 -1.842735528945922852e+00 -1.116664987057447433e-02 -5.561706423759460449e-01 -2.164253741502761841e-01
9.710000000000000000e+02 3.254059600830078125e+01 -8.626736640930175781e+00 -1.790621876716613770e+00 -1.492181234061717987e-02 -5.416631102561950684e-01 -2.207960486412048340e-01
9.720000000000000000e+02 2.950009155273437500e+01 -8.664013862609863281e+00 -1.530682086944580078e+00 -1.611259765923023224e-02 -4.640384018421173096e-01 -2.303742021322250366e-01
9.730000000000000000e+02 2.796554183959960938e+01 -8.646891593933105469e+00 -1.373731613159179688e+00 -1.028682291507720947e-02 -4.152055084705352783e-01 -2.329389452934265137e-01
9.740000000000000000e+02 2.642496490478515625e+01 -8.609866142272949219e+00 -1.195425391197204590e+00 -9.230347350239753723e-04 -3.589045107364654541e-01 -2.390026152133941650e-01
9.750000000000000000e+02 2.253262901306152344e+01 -8.305563926696777344e+00 -7.020834088325500488e-01 3.701050207018852234e-02 -1.995218694210052490e-01 -2.464049905538558960e-01
9.760000000000000000e+02 2.331405830383300781e+01 -8.392449378967285156e+00 -8.044537901878356934e-01 3.314628079533576965e-02 -2.313922494649887085e-01 -2.487528324127197266e-01
9.770000000000000000e+02 2.098493576049804688e+01 -8.070791244506835938e+00 -4.968442618846893311e-01 3.048470430076122284e-02 -1.399078667163848877e-01 -2.242387086153030396e-01
9.780000000000000000e+02 2.022475624084472656e+01 -7.937068939208984375e+00 -3.911626636981964111e-01 1.034858077764511108e-02 -1.142442300915718079e-01 -2.030049115419387817e-01
9.790000000000000000e+02 1.825591087341308594e+01 -7.428359985351562500e+00 -1.329249292612075806e-01 -5.939237028360366821e-02 -5.769519135355949402e-02 -1.031262949109077454e-01
9.800000000000000000e+02 1.816226959228515625e+01 -7.971251010894775391e+00 -1.860582083463668823e-01 -7.591512054204940796e-02 -7.859200239181518555e-02 -1.624220758676528931e-01
9.810000000000000000e+02 5.020677566528320312e+01 -4.773748874664306641e+00 1.691433429718017578e+00 1.824249458312988281e+01 5.980178833007812500e+00 -4.917067050933837891e+00
9.820000000000000000e+02 4.879370880126953125e+01 -4.762305259704589844e+00 3.608573436737060547e+00 5.199436664581298828e+00 2.642402887344360352e+00 -5.356792926788330078e+00
9.830000000000000000e+02 5.087662887573242188e+01 -7.928063869476318359e+00 2.524223804473876953e+00 2.055883979797363281e+01 6.924919128417968750e+00 3.960790634155273438e-01
9.840000000000000000e+02 5.178479385375976562e+01 -6.490157604217529297e+00 1.145249748229980469e+01 1.630776977539062500e+01 8.328080177307128906e+00 -4.467333853244781494e-01
9.850000000000000000e+02 5.166165161132812500e+01 -5.880988597869873047e+00 1.049412822723388672e+01 1.741800308227539062e+01 8.373640060424804688e+00 2.121694564819335938e+00
9.860000000000000000e+02 5.126137161254882812e+01 -7.673609733581542969e+00 4.888255119323730469e+00 1.991412544250488281e+01 7.440713882446289062e+00 -1.758358240127563477e+00
9.870000000000000000e+02 5.172445678710937500e+01 -6.076307773590087891e+00 1.115933132171630859e+01 1.681441688537597656e+01 8.392124176025390625e+00 1.326441884040832520e+00
9.880000000000000000e+02 5.155818176269531250e+01 -7.328880310058593750e+00 7.677764892578125000e+00 1.850630760192871094e+01 7.855221748352050781e+00 -2.636611700057983398e+00
9.890000000000000000e+02 5.175859832763671875e+01 -6.708287239074707031e+00 1.099869060516357422e+01 1.662823486328125000e+01 8.288078308105468750e+00 -1.336140036582946777e+00
9.900000000000000000e+02 5.132588958740234375e+01 -4.674473285675048828e+00 3.058294534683227539e+00 1.851269721984863281e+01 6.471297264099121094e+00 6.883216500282287598e-01
9.910000000000000000e+02 5.199594116210937500e+01 -6.996102333068847656e+00 9.335028648376464844e+00 1.598523139953613281e+01 7.596077919006347656e+00 -1.886852383613586426e+00
9.920000000000000000e+02 5.195880508422851562e+01 -7.211881160736083984e+00 8.331213951110839844e+00 1.644737243652343750e+01 7.433575630187988281e+00 -2.227949857711791992e+00
9.930000000000000000e+02 5.150429153442382812e+01 -4.879791736602783203e+00 4.335001945495605469e+00 1.844877243041992188e+01 6.835132122039794922e+00 1.609304904937744141e+00
9.940000000000000000e+02 5.066344833374023438e+01 -4.433501243591308594e+00 1.385664343833923340e+00 1.815073966979980469e+01 5.860920906066894531e+00 -2.357673883438110352e+00
9.950000000000000000e+02 5.151198577880859375e+01 -5.489299774169921875e+00 7.701819419860839844e+00 1.877842330932617188e+01 7.944072723388671875e+00 2.588191509246826172e+00
9.960000000000000000e+02 5.123274230957031250e+01 -5.133073329925537109e+00 4.869323253631591797e+00 2.005280494689941406e+01 7.476638317108154297e+00 1.658798813819885254e+00
9.970000000000000000e+02 5.125102996826171875e+01 -8.337271690368652344e+00 2.194976329803466797e+00 1.824357032775878906e+01 6.131564140319824219e+00 -1.276002079248428345e-01
9.980000000000000000e+02 4.966266632080078125e+01 -8.076141357421875000e+00 2.622806072235107422e+00 1.280022144317626953e+01 4.626908302307128906e+00 6.889348506927490234e+00
9.990000000000000000e+02 4.985577011108398438e+01 -8.053009033203125000e+00 2.202293634414672852e+00 1.485725688934326172e+01 5.117865085601806641e+00 6.494901180267333984e+00
1.000000000000000000e+03 4.670515060424804688e+01 -8.183971405029296875e+00 4.874508976936340332e-01 7.949271202087402344e-01 3.847134113311767578e-01 1.472873210906982422e+00
1.001000000000000000e+03 4.904444122314453125e+01 -8.104489326477050781e+00 3.325778007507324219e+00 7.044024467468261719e+00 3.110940694808959961e+00 6.026453971862792969e+00
1.002000000000000000e+03 4.823530960083007812e+01 -8.064779281616210938e+00 2.817108392715454102e+00 2.659505844116210938e+00 1.642984271049499512e+00 3.719057321548461914e+00
1.003000000000000000e+03 4.862960815429687500e+01 -8.090380668640136719e+00 3.260684013366699219e+00 4.441851615905761719e+00 2.310760736465454102e+00 4.884035587310791016e+00
1.004000000000000000e+03 4.824321365356445312e+01 -8.313420295715332031e+00 2.607280015945434570e+00 3.177575349807739258e+00 1.735456585884094238e+00 3.934589147567749023e+00
1.005000000000000000e+03 4.790436935424804688e+01 -8.481123924255371094e+00 2.189155101776123047e+00 2.703483104705810547e+00 1.467791438102722168e+00 3.488391399383544922e+00
1.006000000000000000e+03 4.843082427978515625e+01 -8.069211959838867188e+00 3.001922130584716797e+00 3.459653377532958984e+00 1.938472628593444824e+00 4.176326274871826172e+00
1.007000000000000000e+03 4.946234130859375000e+01 -8.090910911560058594e+00 3.033900499343872070e+00 1.066812705993652344e+01 4.110608100891113281e+00 6.822247505187988281e+00
1.008000000000000000e+03 4.803720474243164062e+01 -8.087535858154296875e+00 2.543947219848632812e+00 2.194714784622192383e+00 1.421598672866821289e+00 3.348371982574462891e+00
1.009000000000000000e+03 4.759019470214843750e+01 -8.178424835205078125e+00 1.811059713363647461e+00 1.633444666862487793e+00 1.033351302146911621e+00 2.593519926071166992e+00
1.010000000000000000e+03 4.777824020385742188e+01 -4.772363185882568359e+00 2.272482872009277344e+00 1.676299095153808594e+00 1.184634566307067871e+00 -2.775399684906005859e+00
1.011000000000000000e+03 4.715018081665039062e+01 -4.688573837280273438e+00 1.345581769943237305e+00 1.045128941535949707e+00 7.172132134437561035e-01 -1.890363574028015137e+00
1.012000000000000000e+03 4.839088439941406250e+01 -4.785120487213134766e+00 3.159944295883178711e+00 3.185415983200073242e+00 1.903608083724975586e+00 -4.120162487030029297e+00
1.013000000000000000e+03 4.818923187255859375e+01 -4.778770446777343750e+00 2.765960931777954102e+00 2.570486545562744141e+00 1.600934267044067383e+00 -3.526557207107543945e+00
1.014000000000000000e+03 4.899437713623046875e+01 -4.756250381469726562e+00 3.639235973358154297e+00 6.409480094909667969e+00 3.014614820480346680e+00 -5.969013690948486328e+00
1.015000000000000000e+03 4.940298080444335938e+01 -4.761534214019775391e+00 3.272945880889892578e+00 1.022730731964111328e+01 4.050076007843017578e+00 -6.845644950866699219e+00
1.016000000000000000e+03 4.898778152465820312e+01 -4.417934417724609375e+00 3.084105014801025391e+00 7.300126552581787109e+00 3.115269422531127930e+00 -5.877524852752685547e+00
1.017000000000000000e+03 4.960948944091796875e+01 -4.774311542510986328e+00 2.929525136947631836e+00 1.216152667999267578e+01 4.527315616607666016e+00 -6.900084018707275391e+00
1.018000000000000000e+03 5.000641250610351562e+01 -4.782609462738037109e+00 2.018406391143798828e+00 1.660809898376464844e+01 5.587951660156250000e+00 -6.089560508728027344e+00
1.019000000000000000e+03 1.452318859100341797e+01 1.738971590995788574e+00 7.030353299342095852e-05 -2.027248701779171824e-04 -3.972640115534886718e-05 -8.742458885535597801e-05
1.020000000000000000e+03 1.463385200500488281e+01 2.563046455383300781e+00 1.688619959168136120e-04 -5.594151443801820278e-04 -1.171659459942020476e-04 -1.363799528917297721e-04
1.021000000000000000e+03 1.188568401336669922e+01 1.798112511634826660e+00 -5.153020028956234455e-04 -6.378773105097934604e-05 -1.737269194563850760e-04 -2.435563073959201574e-04
1.022000000000000000e+03 4.554549789428710938e+01 -4.737366199493408203e+00 -3.797160089015960693e-01 2.726559042930603027e-01 -3.211802989244461060e-02 -6.739628911018371582e-01
1.023000000000000000e+03 4.670901107788085938e+01 -4.662943363189697266e+00 7.160197496414184570e-01 7.226588129997253418e-01 4.316035807132720947e-01 -1.461455583572387695e+00
1.024000000000000000e+03 4.494000625610351562e+01 -4.232547283172607422e+00 -1.135742217302322388e-01 3.774964809417724609e-01 7.917667180299758911e-02 -7.304798960685729980e-01
1.025000000000000000e+03 4.421046829223632812e+01 -3.510863065719604492e+00 1.497517526149749756e-01 4.845072925090789795e-01 1.902777105569839478e-01 -8.154178261756896973e-01
1.026000000000000000e+03 4.692737579345703125e+01 -3.874831914901733398e+00 1.653162837028503418e+00 1.767673373222351074e+00 1.026250839233398438e+00 -2.508973121643066406e+00
1.027000000000000000e+03 4.520315933227539062e+01 -3.897582054138183594e+00 3.512578010559082031e-01 5.711760520935058594e-01 2.767301499843597412e-01 -1.041519761085510254e+00
1.028000000000000000e+03 1.446696853637695312e+01 -3.373704910278320312e+00 6.728840617142850533e-06 2.955149684567004442e-04 9.067314385902136564e-05 -7.332206587307155132e-05
1.029000000000000000e+03 1.384830856323242188e+01 -2.963080406188964844e+00 6.731195026077330112e-05 -1.677178515819832683e-04 -3.012177148775663227e-05 -2.176112866436596960e-05
1.030000000000000000e+03 1.842899703979492188e+01 -9.082169532775878906e+00 -3.260476291179656982e-01 -1.267469972372055054e-01 -1.358383893966674805e-01 -2.896241247653961182e-01
1.031000000000000000e+03 3.924001693725585938e+00 3.528338909149169922e+00 2.985854807775467634e-04 4.338798462413251400e-04 2.197396097471937537e-04 1.060305203282041475e-05
1.032000000000000000e+03 9.531523704528808594e+00 2.611694812774658203e+00 -3.668015415314584970e-04 -6.872757803648710251e-04 -3.162231878377497196e-04 -7.118896464817225933e-04
1.033000000000000000e+03 7.403867721557617188e+00 2.581062793731689453e+00 9.718842920847237110e-05 9.232336888089776039e-04 3.061266324948519468e-04 4.256030370015650988e-04
1.034000000000000000e+03 6.776031970977783203e+00 1.856510877609252930e+00 3.546912193996831775e-05 7.244814187288284302e-04 2.279851614730432630e-04 2.758357150014489889e-04
1.035000000000000000e+03 6.708930969238281250e+00 2.576969861984252930e+00 -1.150814059656113386e-04 -7.939498173072934151e-04 -2.727093524299561977e-04 -2.864447305910289288e-04
1.036000000000000000e+03 7.990481376647949219e+00 3.352320909500122070e+00 1.767568028299137950e-04 1.186259323731064796e-03 4.089048306923359632e-04 5.402440438047051430e-04
1.037000000000000000e+03 5.883148193359375000e+00 4.019671440124511719e+00 3.858821874018758535e-04 7.084442768245935440e-04 3.282979305367916822e-04 2.638799742271658033e-05
1.038000000000000000e+03 1.554197669029235840e+00 7.732653617858886719e+00 8.482233970426023006e-04 2.077211393043398857e-04 3.167833783663809299e-04 -1.830322580644860864e-04
1.039000000000000000e+03 1.710456252098083496e+00 3.396818876266479492e+00 -3.990768454968929291e-04 -3.109859826508909464e-04 -2.130188513547182083e-04 -1.180069884867407382e-04
1.040000000000000000e+03 2.407045125961303711e+00 3.698447942733764648e+00 7.018118631094694138e-04 2.110732602886855602e-04 2.738655311986804008e-04 -3.985543662565760314e-05
1.041000000000000000e+03 3.879286348819732666e-01 2.100218296051025391e+00 -2.388880384387448430e-04 -1.827921078074723482e-04 -1.265040482394397259e-04 5.247196895652450621e-05
1.042000000000000000e+03 1.124912500381469727e+00 1.947831869125366211e+00 -1.636518754821736366e-05 2.293379802722483873e-04 6.389183545252308249e-05 1.337824069196358323e-04
1.043000000000000000e+03 1.112828636169433594e+01 1.829073429107666016e+00 3.841022844426333904e-04 1.835993462009355426e-04 1.703104935586452484e-04 3.171687130816280842e-04
1.044000000000000000e+03 8.687346458435058594e+00 3.371943473815917969e+00 -2.242298942292109132e-04 -1.057785819284617901e-03 -3.846047329716384411e-04 -6.843997980467975140e-04
1.045000000000000000e+03 2.658391571044921875e+01 -4.899889945983886719e+00 -5.251726508140563965e-01 -1.621231064200401306e-02 -1.624154895544052124e-01 2.396303117275238037e-01
1.046000000000000000e+03 2.601262664794921875e+01 -2.838529825210571289e+00 -3.736644089221954346e-01 -6.231828033924102783e-02 -1.307948082685470581e-01 3.983160853385925293e-01
1.047000000000000000e+03 2.305588722229003906e+01 -3.908797502517700195e+00 -2.041250020265579224e-01 -8.062087744474411011e-02 -8.542376756668090820e-02 2.246715426445007324e-01
1.048000000000000000e+03 2.518048858642578125e+01 -4.095759868621826172e+00 -3.644324243068695068e-01 -4.926169291138648987e-02 -1.241082400083541870e-01 2.845506966114044189e-01
1.049000000000000000e+03 2.375263023376464844e+01 -3.966561794281005859e+00 -2.516204416751861572e-01 -7.198184728622436523e-02 -9.708068519830703735e-02 2.489269971847534180e-01
1.050000000000000000e+03 2.308028030395507812e+01 -3.210405588150024414e+00 -1.933777034282684326e-01 -1.126364022493362427e-01 -9.180422872304916382e-02 2.708220183849334717e-01
1.051000000000000000e+03 2.229103279113769531e+01 -4.502283573150634766e+00 -1.572428345680236816e-01 -6.007930263876914978e-02 -6.519664078950881958e-02 1.549003720283508301e-01
1.052000000000000000e+03 2.237376594543457031e+01 -3.849519968032836914e+00 -1.606622338294982910e-01 -8.708395808935165405e-02 -7.432385534048080444e-02 1.991030424833297729e-01
1.053000000000000000e+03 2.950701904296875000e+01 -4.966325283050537109e+00 -8.413826227188110352e-01 7.539966609328985214e-03 -2.501527965068817139e-01 2.497905194759368896e-01
1.054000000000000000e+03 2.662436485290527344e+01 -4.211599349975585938e+00 -4.919646978378295898e-01 -2.598931826651096344e-02 -1.553861945867538452e-01 3.052711784839630127e-01
1.055000000000000000e+03 2.882217216491699219e+01 -2.972744226455688477e+00 -5.621231198310852051e-01 -2.153094392269849777e-03 -1.692828685045242310e-01 4.203903079032897949e-01
1.056000000000000000e+03 2.734692382812500000e+01 -4.247521877288818359e+00 -5.590966939926147461e-01 -1.575369760394096375e-02 -1.724551171064376831e-01 3.114569783210754395e-01
1.057000000000000000e+03 3.246036529541015625e+01 -4.935797214508056641e+00 -1.167203426361083984e+00 1.787957362830638885e-02 -3.447971343994140625e-01 2.372917979955673218e-01
1.058000000000000000e+03 2.953137207031250000e+01 -3.628187656402587891e+00 -6.843072175979614258e-01 8.341379463672637939e-03 -2.027897536754608154e-01 3.747728765010833740e-01
1.059000000000000000e+03 3.234498214721679688e+01 -2.209537744522094727e+00 -6.165070533752441406e-01 5.919229239225387573e-02 -1.671944260597229004e-01 4.152015745639801025e-01
1.060000000000000000e+03 2.952056121826171875e+01 -4.293231487274169922e+00 -7.633531689643859863e-01 7.803064305335283279e-03 -2.266650199890136719e-01 3.185556530952453613e-01
1.061000000000000000e+03 1.346231746673583984e+01 -4.837739467620849609e+00 -5.956196400802582502e-05 -3.792997449636459351e-05 -2.924758155131712556e-05 8.261041512014344335e-05
1.062000000000000000e+03 1.286940479278564453e+01 -5.959067344665527344e+00 1.851865235948935151e-04 8.744446859054733068e-06 5.817929195472970605e-05 -1.415864535374566913e-04
1.063000000000000000e+03 8.156259536743164062e+00 -2.563573122024536133e+00 -6.742717960150912404e-05 -1.986415736610069871e-05 -2.618740109028294683e-05 -2.788655110634863377e-04
1.064000000000000000e+03 3.244359970092773438e+01 -4.265516281127929688e+00 -1.024665594100952148e+00 2.417795546352863312e-02 -3.001462817192077637e-01 3.039906322956085205e-01
1.065000000000000000e+03 3.544067382812500000e+01 -4.863508224487304688e+00 -1.460411071777343750e+00 2.223057858645915985e-02 -4.314541220664978027e-01 2.061533331871032715e-01
1.066000000000000000e+03 3.384642791748046875e+01 -2.889860630035400391e+00 -7.952421307563781738e-01 5.977391079068183899e-02 -2.206404656171798706e-01 3.568092584609985352e-01
1.067000000000000000e+03 3.392337799072265625e+01 -4.232145309448242188e+00 -1.138494253158569336e+00 2.954380586743354797e-02 -3.326851427555084229e-01 2.858746647834777832e-01
1.068000000000000000e+03 4.375483322143554688e+01 -8.261971473693847656e+00 -1.407715082168579102e+00 1.183482855558395386e-01 -3.868100345134735107e-01 2.096596956253051758e-01
1.069000000000000000e+03 4.441363906860351562e+01 -8.772939682006835938e+00 -5.674042105674743652e-01 2.898994982242584229e-01 -8.325141668319702148e-02 5.866966843605041504e-01
1.070000000000000000e+03 4.544479370117187500e+01 -9.079081535339355469e+00 3.222985267639160156e-01 7.012059688568115234e-01 3.070513606071472168e-01 1.281883835792541504e+00
1.071000000000000000e+03 4.740860748291015625e+01 -8.687763214111328125e+00 1.819327235221862793e+00 2.119269132614135742e+00 1.181578993797302246e+00 2.929157257080078125e+00
1.072000000000000000e+03 4.165261840820312500e+01 -9.640131950378417969e+00 -8.761199712753295898e-01 2.157278954982757568e-01 -1.981176286935806274e-01 2.685530781745910645e-01
1.073000000000000000e+03 4.158886718750000000e+01 -8.992471694946289062e+00 -1.336887478828430176e+00 1.165615841746330261e-01 -3.660977482795715332e-01 1.077609881758689880e-01
1.074000000000000000e+03 4.005273437500000000e+01 -8.408629417419433594e+00 -1.970945358276367188e+00 3.161510452628135681e-02 -5.817990899085998535e-01 -9.352660924196243286e-02
1.075000000000000000e+03 4.010610961914062500e+01 -9.082062721252441406e+00 -1.516851544380187988e+00 7.514795660972595215e-02 -4.325110614299774170e-01 -2.052070386707782745e-02
1.076000000000000000e+03 4.091518020629882812e+01 -9.704063415527343750e+00 -1.001379370689392090e+00 1.766599118709564209e-01 -2.474158257246017456e-01 1.676727831363677979e-01
1.077000000000000000e+03 3.935829162597656250e+01 -9.118821144104003906e+00 -1.576580882072448730e+00 5.782723054289817810e-02 -4.556261003017425537e-01 -6.856361776590347290e-02
1.078000000000000000e+03 3.705740737915039062e+01 -8.505049705505371094e+00 -2.009342908859252930e+00 3.916674293577671051e-03 -6.016278862953186035e-01 -1.775145977735519409e-01
1.079000000000000000e+03 3.860900497436523438e+01 -9.152019500732421875e+00 -1.618325352668762207e+00 4.445394501090049744e-02 -4.721614420413970947e-01 -1.079737395048141479e-01
1.080000000000000000e+03 3.541136932373046875e+01 -4.196252822875976562e+00 -1.231864213943481445e+00 3.412109613418579102e-02 -3.593229651451110840e-01 2.590767443180084229e-01
1.081000000000000000e+03 3.537288284301757812e+01 -3.529486894607543945e+00 -1.015007495880126953e+00 5.311392247676849365e-02 -2.885680496692657471e-01 2.906405925750732422e-01
1.082000000000000000e+03 3.615772628784179688e+01 -4.178071975708007812e+00 -1.267385482788085938e+00 3.716894611716270447e-02 -3.690649867057800293e-01 2.412463277578353882e-01
1.083000000000000000e+03 3.791661071777343750e+01 -9.883183479309082031e+00 -1.300534009933471680e+00 7.053282111883163452e-02 -3.690003454685211182e-01 -9.305416047573089600e-02
1.084000000000000000e+03 3.635725402832031250e+01 -9.235839843750000000e+00 -1.666393160820007324e+00 1.432160567492246628e-02 -4.956214725971221924e-01 -1.889955699443817139e-01
1.085000000000000000e+03 3.405016708374023438e+01 -8.590468406677246094e+00 -1.889941930770874023e+00 -1.071734726428985596e-02 -5.701977610588073730e-01 -2.120777666568756104e-01
1.086000000000000000e+03 3.485134124755859375e+01 -9.283823966979980469e+00 -1.645703792572021484e+00 1.796141033992171288e-03 -4.931723177433013916e-01 -2.237329930067062378e-01
1.087000000000000000e+03 4.067937469482421875e+01 -4.745577335357666016e+00 -1.658936262130737305e+00 2.869834005832672119e-02 -4.890713691711425781e-01 7.262600958347320557e-02
1.088000000000000000e+03 3.765109634399414062e+01 -4.146284580230712891e+00 -1.310451149940490723e+00 4.330157861113548279e-02 -3.801448941230773926e-01 1.955249458551406860e-01
1.089000000000000000e+03 4.142670440673828125e+01 -4.734402179718017578e+00 -1.612479329109191895e+00 4.180100932717323303e-02 -4.712034761905670166e-01 3.040869347751140594e-02
1.090000000000000000e+03 3.988471221923828125e+01 -4.123767852783203125e+00 -1.278048515319824219e+00 5.711303651332855225e-02 -3.662806451320648193e-01 9.030064940452575684e-02
1.091000000000000000e+03 4.217302703857421875e+01 -4.724116802215576172e+00 -1.534631609916687012e+00 4.646286740899085999e-02 -4.464506208896636963e-01 -1.607757620513439178e-02
1.092000000000000000e+03 3.839803314208984375e+01 -4.134537220001220703e+00 -1.315593123435974121e+00 4.512844234704971313e-02 -3.811393976211547852e-01 1.670108884572982788e-01
1.093000000000000000e+03 3.914305877685546875e+01 -4.127227783203125000e+00 -1.304638862609863281e+00 5.334778130054473877e-02 -3.753873109817504883e-01 1.302342414855957031e-01
1.094000000000000000e+03 4.062433624267578125e+01 -4.122749805450439453e+00 -1.225836753845214844e+00 7.233227789402008057e-02 -3.460513353347778320e-01 3.555133566260337830e-02
1.095000000000000000e+03 4.357439422607421875e+01 -4.117730140686035156e+00 -6.146539449691772461e-01 2.169318050146102905e-01 -1.193166449666023254e-01 -3.732383251190185547e-01
1.096000000000000000e+03 4.283404541015625000e+01 -4.122709274291992188e+00 -8.678807616233825684e-01 1.364056169986724854e-01 -2.194425463676452637e-01 -2.110219597816467285e-01
1.097000000000000000e+03 3.178305625915527344e+01 -8.640305519104003906e+00 -1.733910679817199707e+00 -1.310854870826005936e-02 -5.241057872772216797e-01 -2.235017418861389160e-01
1.098000000000000000e+03 3.258112716674804688e+01 -9.342018127441406250e+00 -1.559113264083862305e+00 -7.419834379106760025e-03 -4.699599444866180420e-01 -2.586154937744140625e-01
1.099000000000000000e+03 3.409581756591796875e+01 -9.304833412170410156e+00 -1.623457670211791992e+00 -1.233205432072281837e-03 -4.874072372913360596e-01 -2.371999919414520264e-01
1.100000000000000000e+03 8.807658195495605469e+00 2.602214574813842773e+00 2.312189753865823150e-04 8.638814324513077736e-04 3.285301208961755037e-04 5.954125663265585899e-04
1.101000000000000000e+03 1.360627841949462891e+01 3.921964168548583984e+00 1.394346007145941257e-03 -3.354478976689279079e-04 3.176694444846361876e-04 5.988750490359961987e-04
1.102000000000000000e+03 1.257288074493408203e+01 2.538298368453979492e+00 -7.499420898966491222e-04 1.005825979518704116e-04 -1.948078424902632833e-04 -1.084879186237230897e-04
1.103000000000000000e+03 1.104655361175537109e+01 2.599184513092041016e+00 -6.447687628678977489e-04 -2.971546491608023643e-04 -2.825770352501422167e-04 -6.772558554075658321e-04
1.104000000000000000e+03 2.952669334411621094e+01 -9.386278152465820312e+00 -1.360949397087097168e+00 -9.964909404516220093e-03 -4.112743139266967773e-01 -2.918651401996612549e-01
1.105000000000000000e+03 3.029449844360351562e+01 -9.380073547363281250e+00 -1.418667793273925781e+00 -1.191196963191032410e-02 -4.291739165782928467e-01 -2.850052714347839355e-01
1.106000000000000000e+03 3.102309989929199219e+01 -8.649809837341308594e+00 -1.672803997993469238e+00 -1.565299928188323975e-02 -5.065370798110961914e-01 -2.252151817083358765e-01
1.107000000000000000e+03 3.105941963195800781e+01 -9.369997978210449219e+00 -1.470390915870666504e+00 -1.030320394784212112e-02 -4.442082345485687256e-01 -2.759974002838134766e-01
1.108000000000000000e+03 3.333899307250976562e+01 -9.324356079101562500e+00 -1.594261765480041504e+00 -6.673891562968492508e-03 -4.802806973457336426e-01 -2.488524019718170166e-01
1.109000000000000000e+03 8.079494476318359375e+00 -1.847528457641601562e+00 -3.939137968700379133e-05 6.952026888029649854e-05 9.038666576088871807e-06 2.976596879307180643e-04
1.110000000000000000e+03 1.254002189636230469e+01 -3.691096782684326172e+00 -7.645646110177040100e-05 1.721356093185022473e-04 2.870374555641319603e-05 1.697109400993213058e-04
1.111000000000000000e+03 7.412878036499023438e+00 -2.587066411972045898e+00 -3.024233228643424809e-05 6.360329280141741037e-05 1.000828888209071010e-05 3.451358352322131395e-04
1.112000000000000000e+03 1.174178981781005859e+01 -5.608906745910644531e+00 -1.160966276074759662e-04 -3.334696812089532614e-04 -1.348699006484821439e-04 2.815712650772184134e-04
1.113000000000000000e+03 7.475301742553710938e+00 -4.766985416412353516e+00 -3.957954177167266607e-04 8.451530011370778084e-04 1.348072837572544813e-04 -2.317317412234842777e-04
1.114000000000000000e+03 6.561265468597412109e+00 -1.866990685462951660e+00 -9.031904482981190085e-05 6.248946010600775480e-05 -8.348874871444422752e-06 2.568976196926087141e-04
1.115000000000000000e+03 6.657130718231201172e+00 -2.603348255157470703e+00 -4.091232040082104504e-05 1.049765359084631200e-07 -1.224220250151120126e-05 -2.870065800379961729e-04
1.116000000000000000e+03 5.158630847930908203e+00 -2.681272506713867188e+00 -2.415763265162240714e-05 -2.282032619405072182e-05 -1.409338710800511762e-05 -3.083944320678710938e-04
1.117000000000000000e+03 1.664030194282531738e+00 -7.932070255279541016e+00 -3.794219228439033031e-04 1.881047355709597468e-04 -5.739515836467035115e-05 -3.319206734886392951e-05
1.118000000000000000e+03 3.917850017547607422e+00 -3.724340677261352539e+00 2.194107764807995409e-05 1.811607071431353688e-04 6.093053525546565652e-05 2.793142339214682579e-04
1.119000000000000000e+03 1.630180835723876953e+00 -6.605460166931152344e+00 6.158964242786169052e-04 -1.778117002686485648e-04 1.314254186581820250e-04 2.483901917003095150e-04
1.120000000000000000e+03 1.194183349609375000e+00 -2.134415626525878906e+00 -1.636848319321870804e-04 -8.684833301231265068e-05 -7.515995093854144216e-05 -1.906255492940545082e-04
1.121000000000000000e+03 5.582182407379150391e-01 -5.062549114227294922e+00 4.907245747745037079e-04 -2.749724371824413538e-04 6.472564564319327474e-05 6.930506788194179535e-05
1.122000000000000000e+03 2.487264823913574219e+01 -8.515198707580566406e+00 -1.005797863006591797e+00 1.602178625762462616e-02 -2.969328165054321289e-01 -2.440666109323501587e-01
1.123000000000000000e+03 2.642752838134765625e+01 -9.342932701110839844e+00 -1.095642924308776855e+00 7.538399193435907364e-03 -3.264313638210296631e-01 -3.188670873641967773e-01
1.124000000000000000e+03 2.798224639892578125e+01 -9.379024505615234375e+00 -1.234259963035583496e+00 -4.546695854514837265e-03 -3.716419935226440430e-01 -3.058665394783020020e-01
1.125000000000000000e+03 2.873427772521972656e+01 -8.660414695739746094e+00 -1.453758597373962402e+00 -1.196504384279251099e-02 -4.397170841693878174e-01 -2.317071557044982910e-01
1.126000000000000000e+03 2.564443397521972656e+01 -9.308233261108398438e+00 -1.022175788879394531e+00 1.550410874187946320e-02 -3.020015060901641846e-01 -3.259928226470947266e-01
1.127000000000000000e+03 2.328337097167968750e+01 -9.146513938903808594e+00 -7.931176424026489258e-01 4.191250354051589966e-02 -2.253615260124206543e-01 -3.354551196098327637e-01
1.128000000000000000e+03 1.998796463012695312e+01 -9.641400337219238281e+00 -5.098387002944946289e-01 -2.657558955252170563e-02 -1.609242856502532959e-01 -3.749426603317260742e-01
1.129000000000000000e+03 2.012096977233886719e+01 -8.757406234741210938e+00 -4.589082300662994385e-01 -3.980169072747230530e-03 -1.388665139675140381e-01 -2.913647592067718506e-01
1.130000000000000000e+03 2.248208236694335938e+01 -9.077033996582031250e+00 -7.104535698890686035e-01 4.401553794741630554e-02 -1.999313980340957642e-01 -3.357721567153930664e-01
1.131000000000000000e+03 2.486085128784179688e+01 -9.261266708374023438e+00 -9.474543333053588867e-01 2.564867027103900909e-02 -2.765417098999023438e-01 -3.301673233509063721e-01
1.132000000000000000e+03 2.564987564086914062e+01 -8.571350097656250000e+00 -1.101679563522338867e+00 7.487140130251646042e-03 -3.282577395439147949e-01 -2.412180304527282715e-01
1.133000000000000000e+03 2.407600021362304688e+01 -9.206655502319335938e+00 -8.709900379180908203e-01 3.473789989948272705e-02 -2.508756518363952637e-01 -3.348225057125091553e-01
1.134000000000000000e+03 2.720675086975097656e+01 -9.365123748779296875e+00 -1.166972160339355469e+00 -1.216638120240531862e-04 -3.501281440258026123e-01 -3.136793375015258789e-01
1.135000000000000000e+03 1.858870315551757812e+01 -3.517693519592285156e+00 -3.228077897801995277e-03 -4.074539244174957275e-02 -1.319204177707433701e-02 1.192503422498703003e-02
1.136000000000000000e+03 2.170488739013671875e+01 -3.764822721481323242e+00 -1.211622878909111023e-01 -9.558878839015960693e-02 -6.502532213926315308e-02 1.724456548690795898e-01
1.137000000000000000e+03 2.037825775146484375e+01 -3.353164196014404297e+00 -4.770010709762573242e-02 -1.091019138693809509e-01 -4.704060778021812439e-02 1.036179363727569580e-01
1.138000000000000000e+03 1.226194190979003906e+01 -1.976949882507324219e+01 -4.077407717704772949e-01 -5.896769762039184570e-01 -2.992253303527832031e-01 -4.057250916957855225e-01
1.139000000000000000e+03 3.613161802291870117e+00 -1.966744995117187500e+01 -8.862826973199844360e-02 -8.848965167999267578e-02 -5.313537642359733582e-02 -1.065515205264091492e-01
1.140000000000000000e+03 1.256396198272705078e+01 1.966813850402832031e+01 -6.770386099815368652e-01 -8.323721885681152344e-01 -4.528232216835021973e-01 6.098822951316833496e-01
1.141000000000000000e+03 8.723541259765625000e+00 2.056830596923828125e+01 -5.051023364067077637e-01 -2.500829100608825684e-01 -2.265555709600448608e-01 4.774022400379180908e-01
1.142000000000000000e+03 1.933936500549316406e+01 8.095718383789062500e+00 -2.367101013660430908e-01 -1.341156840324401855e+00 -4.733600616455078125e-01 5.101071596145629883e-01
1.143000000000000000e+03 1.902730560302734375e+01 9.460108757019042969e+00 -3.500806093215942383e-01 -1.419856071472167969e+00 -5.309810042381286621e-01 5.692672729492187500e-01
1.144000000000000000e+03 1.385492420196533203e+01 1.875825309753417969e+01 -7.563758492469787598e-01 -9.638571143150329590e-01 -5.160698890686035156e-01 6.694703102111816406e-01
1.145000000000000000e+03 1.408390712738037109e+01 1.658529090881347656e+01 -1.165241599082946777e+00 -1.251330494880676270e+00 -7.249716520309448242e-01 1.114655971527099609e+00
1.146000000000000000e+03 1.712456512451171875e+01 1.174689769744873047e+01 -4.508429169654846191e-01 -1.888017892837524414e+00 -7.016582489013671875e-01 8.559556603431701660e-01
1.147000000000000000e+03 1.727338409423828125e+01 1.526457118988037109e+01 -7.139613628387451172e-01 -1.208400964736938477e+00 -5.767086744308471680e-01 6.572105288505554199e-01
1.148000000000000000e+03 2.025768089294433594e+01 2.366638660430908203e+00 -6.331170350313186646e-02 -6.434906721115112305e-01 -2.120407074689865112e-01 3.143773972988128662e-01
1.149000000000000000e+03 6.296121478080749512e-01 1.623042678833007812e+01 6.644991226494312286e-04 3.760948032140731812e-02 1.148219406604766846e-02 -6.712823174893856049e-03
1.150000000000000000e+03 1.962709045410156250e+01 6.726332187652587891e+00 -1.644842922687530518e-01 -1.187617778778076172e+00 -4.056306183338165283e-01 4.247234761714935303e-01
1.151000000000000000e+03 1.825195884704589844e+01 1.223114109039306641e+01 -4.887968301773071289e-01 -1.481537938117980957e+00 -5.911004543304443359e-01 6.912015080451965332e-01
1.152000000000000000e+03 1.509762668609619141e+01 1.777122879028320312e+01 -7.676303982734680176e-01 -1.106404066085815430e+00 -5.622103214263916016e-01 6.930596828460693359e-01
1.153000000000000000e+03 1.893994903564453125e+01 8.268985152244567871e-01 -7.583745289593935013e-03 -4.969321191310882568e-01 -1.513547599315643311e-01 8.783972263336181641e-02
1.154000000000000000e+03 2.008162307739257812e+01 9.393994212150573730e-01 -3.444594889879226685e-02 -4.887931644916534424e-01 -1.569717377424240112e-01 2.375423312187194824e-01
1.155000000000000000e+03 1.780176544189453125e+01 1.368696308135986328e+01 -6.251958012580871582e-01 -1.372462868690490723e+00 -5.992975831031799316e-01 7.405493259429931641e-01
1.156000000000000000e+03 2.219072532653808594e+01 -1.860003232955932617e+00 -1.220204159617424011e-01 -2.076380699872970581e-01 -9.889754652976989746e-02 3.007725477218627930e-01
1.157000000000000000e+03 1.891427230834960938e+01 -1.771013975143432617e+00 -3.200497245416045189e-03 -1.684113442897796631e-01 -5.148354917764663696e-02 4.786790162324905396e-02
1.158000000000000000e+03 3.676301956176757812e+00 -1.603177642822265625e+01 -5.431983619928359985e-03 -3.569054976105690002e-02 -1.233675982803106308e-02 5.458575673401355743e-03
1.159000000000000000e+03 5.790295600891113281e-01 -1.766417884826660156e+01 -4.571855999529361725e-03 5.202217772603034973e-02 1.423509698361158371e-02 3.391220467165112495e-03
1.160000000000000000e+03 1.260727310180664062e+01 -1.825245666503906250e+01 -6.731309294700622559e-01 -5.787903070449829102e-01 -3.755763769149780273e-01 -4.916662573814392090e-01
1.161000000000000000e+03 1.026326942443847656e+01 -2.511041879653930664e+00 -4.908811024506576359e-05 8.037486259127035737e-05 9.386025340063497424e-06 4.390846006572246552e-04
1.162000000000000000e+03 1.653738784790039062e+01 -1.046183013916015625e+01 -2.874469459056854248e-01 -4.382127225399017334e-01 -2.176979035139083862e-01 -3.681274950504302979e-01
1.163000000000000000e+03 1.759497642517089844e+01 -1.129717540740966797e+01 -4.725219011306762695e-01 -2.618933320045471191e-01 -2.203245609998703003e-01 -4.540533423423767090e-01
1.164000000000000000e+03 1.585065269470214844e+01 -1.165795803070068359e+01 -3.837060034275054932e-01 -6.050662398338317871e-01 -2.966316640377044678e-01 -4.787285327911376953e-01
1.165000000000000000e+03 1.342042732238769531e+01 -1.702649307250976562e+01 -7.114384770393371582e-01 -6.099068522453308105e-01 -3.964035809040069580e-01 -6.065954566001892090e-01
1.166000000000000000e+03 1.693760681152343750e+01 -1.258465862274169922e+01 -5.452376008033752441e-01 -3.488403558731079102e-01 -2.682233750820159912e-01 -5.115119218826293945e-01
1.167000000000000000e+03 1.363963127136230469e+01 -3.801404953002929688e+00 -6.794985529268160462e-05 -3.221936058253049850e-04 -1.170430332422256470e-04 3.303076027805218473e-06
1.168000000000000000e+03 1.606096839904785156e+01 -1.373294067382812500e+01 -5.964503288269042969e-01 -4.693201482295989990e-01 -3.197311460971832275e-01 -5.435925722122192383e-01
1.169000000000000000e+03 1.518173122406005859e+01 -1.484723091125488281e+01 -6.215175986289978027e-01 -5.572245121002197266e-01 -3.536226451396942139e-01 -5.675042271614074707e-01
1.170000000000000000e+03 1.048323154449462891e+01 -9.202752113342285156e+00 -6.964691565372049809e-04 -8.225345518440008163e-04 -4.557011125143617392e-04 4.456637252587825060e-04
1.171000000000000000e+03 1.333075809478759766e+01 -2.561102628707885742e+00 8.734081347938627005e-05 1.840004551922902465e-04 8.140238060150295496e-05 5.321770458976970986e-06
1.172000000000000000e+03 9.469101905822753906e+00 -8.672274589538574219e+00 2.488026802893728018e-04 9.766952134668827057e-04 3.676493652164936066e-04 -6.583913345821201801e-04
1.173000000000000000e+03 1.106203937530517578e+01 -6.604962348937988281e+00 2.278198662679642439e-04 3.123627393506467342e-04 1.620547845959663391e-04 -3.709259035531431437e-04
1.174000000000000000e+03 1.028350448608398438e+01 -7.621025562286376953e+00 -1.408576936228200793e-04 -8.050188771449029446e-04 -2.837629872374236584e-04 4.748243663925677538e-04
1.175000000000000000e+03 1.692707419395446777e+00 -1.066920948028564453e+01 4.244450537953525782e-04 9.625779930502176285e-04 4.161069227848201990e-04 2.051261020824313164e-03
1.176000000000000000e+03 8.173602104187011719e+00 -1.262327384948730469e+01 2.004258334636688232e-03 4.491926170885562897e-03 1.948855351656675339e-03 -2.205383498221635818e-03
1.177000000000000000e+03 1.042943382263183594e+01 -4.028012752532958984e+00 -6.627697439398616552e-05 4.713065281976014376e-04 1.215088705066591501e-04 -3.085263015236705542e-04
1.178000000000000000e+03 7.797772979736328125e+01 3.211631774902343750e+01 -5.278076045215129852e-03 9.060835838317871094e+00 2.716667175292968750e+00 4.717525839805603027e-02
1.179000000000000000e+03 7.907758331298828125e+01 3.619768524169921875e+01 1.421711407601833344e-02 9.288257598876953125e+00 2.790742397308349609e+00 -1.326473080553114414e-03
1.180000000000000000e+03 7.935463714599609375e+01 -2.777253341674804688e+01 -2.062734449282288551e-03 8.008429527282714844e+00 2.401909828186035156e+00 -7.406879961490631104e-02
1.181000000000000000e+03 7.735893249511718750e+01 -3.780705642700195312e+01 -3.672233596444129944e-02 8.488986968994140625e+00 2.535679340362548828e+00 -4.140653833746910095e-02
1.182000000000000000e+03 7.934630584716796875e+01 -3.473028564453125000e+01 -1.374847907572984695e-02 8.554382324218750000e+00 2.562190294265747070e+00 -3.047569654881954193e-02
1.183000000000000000e+03 7.939889526367187500e+01 -2.084008789062500000e+01 -9.925919584929943085e-04 7.096758365631103516e+00 2.128729820251464844e+00 -9.222581982612609863e-02
1.184000000000000000e+03 7.806462860107421875e+01 -2.757403564453125000e+01 -1.647286675870418549e-02 7.923470973968505859e+00 2.372099399566650391e+00 -2.067850828170776367e-01
1.185000000000000000e+03 7.811248779296875000e+01 -2.619855690002441406e+01 -1.128444913774728775e-02 7.788247108459472656e+00 2.333088874816894531e+00 -2.207740098237991333e-01
1.186000000000000000e+03 7.932324981689453125e+01 -3.055603408813476562e+01 -2.328770468011498451e-03 8.280776023864746094e+00 2.483534336090087891e+00 -6.400719285011291504e-02
1.187000000000000000e+03 7.801894378662109375e+01 -3.457906341552734375e+01 -1.809423044323921204e-02 8.418078422546386719e+00 2.519995212554931641e+00 -1.002117320895195007e-01
1.188000000000000000e+03 7.792980194091796875e+01 -3.318569564819335938e+01 -2.700029313564300537e-02 8.338518142700195312e+00 2.493455410003662109e+00 -1.230502575635910034e-01
1.189000000000000000e+03 7.521450805664062500e+01 -3.733185577392578125e+01 -1.019014194607734680e-01 8.297704696655273438e+00 2.458740949630737305e+00 -1.550260931253433228e-01
1.190000000000000000e+03 7.639624786376953125e+01 -3.884656524658203125e+01 -2.037389203906059265e-02 8.463827133178710938e+00 2.533035993576049805e+00 -7.508296519517898560e-02
1.191000000000000000e+03 7.797434234619140625e+01 1.412583827972412109e+01 -1.284661237150430679e-02 7.952403068542480469e+00 2.381866931915283203e+00 2.492858916521072388e-01
1.192000000000000000e+03 7.931806182861328125e+01 1.540287303924560547e+01 -1.512418035417795181e-03 8.158077239990234375e+00 2.446969509124755859e+00 8.860883861780166626e-02
1.193000000000000000e+03 7.791676330566406250e+01 2.119592666625976562e+01 -1.608274690806865692e-02 8.566266059875488281e+00 2.565054893493652344e+00 1.671074032783508301e-01
1.194000000000000000e+03 7.930658721923828125e+01 2.239910888671875000e+01 -4.028690978884696960e-03 8.813728332519531250e+00 2.642909765243530273e+00 5.836455151438713074e-02
1.195000000000000000e+03 7.800117492675781250e+01 3.080251312255859375e+01 -1.578553952276706696e-02 9.033074378967285156e+00 2.705186605453491211e+00 5.664787814021110535e-02
1.196000000000000000e+03 7.932001495361328125e+01 2.795574951171875000e+01 -2.690742723643779755e-03 9.128954887390136719e+00 2.737879276275634766e+00 3.621894121170043945e-02
1.197000000000000000e+03 7.790180206298828125e+01 2.541054534912109375e+01 -1.188672240823507309e-02 8.810794830322265625e+00 2.639672279357910156e+00 1.161238327622413635e-01
1.198000000000000000e+03 7.790711212158203125e+01 2.401450920104980469e+01 -1.473058853298425674e-02 8.738732337951660156e+00 2.617200613021850586e+00 1.322262287139892578e-01
1.199000000000000000e+03 7.791053009033203125e+01 1.837217903137207031e+01 -1.519817207008600235e-02 8.350988388061523438e+00 2.500737190246582031e+00 2.019212841987609863e-01
1.200000000000000000e+03 7.794454956054687500e+01 1.553879165649414062e+01 -1.501506101340055466e-02 8.095847129821777344e+00 2.424249649047851562e+00 2.342212498188018799e-01
1.201000000000000000e+03 7.792058563232421875e+01 1.695498085021972656e+01 -1.369842234998941422e-02 8.228185653686523438e+00 2.464345932006835938e+00 2.188660800457000732e-01
1.202000000000000000e+03 7.799890136718750000e+01 1.271300220489501953e+01 -1.206740736961364746e-02 7.797120094299316406e+00 2.335515737533569336e+00 2.625940442085266113e-01
1.203000000000000000e+03 7.670687866210937500e+01 1.136651611328125000e+01 -2.442022226750850677e-02 7.656426906585693359e+00 2.289602041244506836e+00 4.170050024986267090e-01
1.204000000000000000e+03 7.806168365478515625e+01 8.515897750854492188e+00 -2.867181552574038506e-03 7.286415576934814453e+00 2.185064554214477539e+00 2.870058119297027588e-01
1.205000000000000000e+03 7.934834289550781250e+01 9.811361312866210938e+00 -3.859559074044227600e-04 7.413309097290039062e+00 2.223876953125000000e+00 1.054858043789863586e-01
1.206000000000000000e+03 7.937450408935546875e+01 -1.388704776763916016e+01 4.535126965492963791e-03 6.118823051452636719e+00 1.837007403373718262e+00 -7.676328718662261963e-02
1.207000000000000000e+03 7.936121368408203125e+01 -6.906548976898193359e+00 8.686448447406291962e-03 5.633871078491210938e+00 1.692767262458801270e+00 -3.385846037417650223e-03
1.208000000000000000e+03 7.939441680908203125e+01 -1.945495605468750000e+01 3.315216745249927044e-04 6.890906333923339844e+00 2.067371368408203125e+00 -9.323985129594802856e-02
1.209000000000000000e+03 7.809819030761718750e+01 1.861288547515869141e-01 2.544511109590530396e-02 6.291495323181152344e+00 1.895082235336303711e+00 2.078890204429626465e-01
1.210000000000000000e+03 7.936568450927734375e+01 1.456446886062622070e+00 4.907857161015272141e-03 6.182807922363281250e+00 1.856314659118652344e+00 8.685763180255889893e-02
1.211000000000000000e+03 7.678939819335937500e+01 7.193589210510253906e+00 6.053737015463411808e-04 7.214592933654785156e+00 2.164559364318847656e+00 4.394300282001495361e-01
1.212000000000000000e+03 7.798079681396484375e+01 2.947767829895019531e+01 -1.468026544898748398e-02 8.986312866210937500e+00 2.691489934921264648e+00 7.636108249425888062e-02
1.213000000000000000e+03 7.867564392089843750e+01 4.034503936767578125e+01 -1.924412325024604797e-02 9.226276397705078125e+00 2.762109756469726562e+00 -6.717782467603683472e-02
1.214000000000000000e+03 7.485894775390625000e+01 3.735863876342773438e+01 -4.902538284659385681e-02 8.715844154357910156e+00 2.600045442581176758e+00 7.078551501035690308e-02
1.215000000000000000e+03 7.174314117431640625e+01 3.755669403076171875e+01 -7.371804863214492798e-02 8.261755943298339844e+00 2.456411361694335938e+00 7.001980394124984741e-02
1.216000000000000000e+03 7.804595184326171875e+01 9.909399986267089844e+00 -6.916875019669532776e-03 7.462653636932373047e+00 2.236721038818359375e+00 2.818616926670074463e-01
1.217000000000000000e+03 7.682925415039062500e+01 2.821042239665985107e-01 6.059097126126289368e-02 6.526818275451660156e+00 1.976222753524780273e+00 3.205503225326538086e-01
1.218000000000000000e+03 7.809207153320312500e+01 2.958172559738159180e+00 1.528380624949932098e-02 6.585690021514892578e+00 1.980292081832885742e+00 2.587037086486816406e-01
1.219000000000000000e+03 7.809622192382812500e+01 -1.205861806869506836e+00 2.898842096328735352e-02 6.172858715057373047e+00 1.860554218292236328e+00 1.734439730644226074e-01
1.220000000000000000e+03 7.936379241943359375e+01 -2.722364425659179688e+00 6.992211099714040756e-03 5.762170314788818359e+00 1.730748772621154785e+00 4.848252981901168823e-02
1.221000000000000000e+03 7.807888031005859375e+01 -8.187866210937500000e+00 3.843101486563682556e-02 5.987171173095703125e+00 1.807680726051330566e+00 -5.845609679818153381e-02
1.222000000000000000e+03 7.807627105712890625e+01 -5.399902820587158203e+00 3.894327580928802490e-02 5.974059104919433594e+00 1.803900718688964844e+00 3.876236081123352051e-02
1.223000000000000000e+03 7.936466217041015625e+01 -9.694484710693359375e+00 8.149119094014167786e-03 5.731165885925292969e+00 1.721794486045837402e+00 -3.767805173993110657e-02
1.224000000000000000e+03 7.813252258300781250e+01 -1.520646762847900391e+01 1.551812235265970230e-02 6.492461204528808594e+00 1.952393770217895508e+00 -2.345559298992156982e-01
1.225000000000000000e+03 7.810756683349609375e+01 -1.240899944305419922e+01 2.638450823724269867e-02 6.223815917968750000e+00 1.875060081481933594e+00 -1.849852949380874634e-01
1.226000000000000000e+03 7.938253784179687500e+01 -1.667528152465820312e+01 2.558940555900335312e-03 6.485716819763183594e+00 1.946482777595520020e+00 -8.984753489494323730e-02
1.227000000000000000e+03 7.818220520019531250e+01 -1.936484336853027344e+01 3.111821133643388748e-04 6.983682155609130859e+00 2.095197916030883789e+00 -2.592192590236663818e-01
1.228000000000000000e+03 7.484205722808837891e+00 2.004113388061523438e+01 -4.558830261230468750e-01 -5.141677707433700562e-02 -1.521899402141571045e-01 2.439727336168289185e-01
1.229000000000000000e+03 8.942440986633300781e+00 1.889947509765625000e+01 -5.921393036842346191e-01 -1.039495617151260376e-01 -2.088266611099243164e-01 2.194192260503768921e-01
1.230000000000000000e+03 1.354966163635253906e+00 -4.004885482788085938e+01 1.517807971686124802e-02 -1.022797346115112305e+00 -3.022857904434204102e-01 9.218364953994750977e-03
1.231000000000000000e+03 7.634642720222473145e-01 3.738373947143554688e+01 1.088690944015979767e-02 -9.766452312469482422e-01 -2.897274792194366455e-01 1.045644190162420273e-02
1.232000000000000000e+03 7.282779812812805176e-01 3.461529922485351562e+01 7.213432807475328445e-03 -8.959765434265136719e-01 -2.666289210319519043e-01 2.863874100148677826e-02
1.233000000000000000e+03 7.447437644004821777e-01 3.319810104370117188e+01 6.246446631848812103e-03 -8.297796249389648438e-01 -2.470599561929702759e-01 4.171337932348251343e-02
1.234000000000000000e+03 6.312325000762939453e-01 2.755081939697265625e+01 1.792485592886805534e-03 -4.251597523689270020e-01 -1.270101815462112427e-01 5.319296196103096008e-02
1.235000000000000000e+03 5.986268520355224609e-01 2.614105796813964844e+01 -2.853019861504435539e-03 -3.018954694271087646e-01 -9.142454713582992554e-02 5.271961167454719543e-02
1.236000000000000000e+03 5.995821952819824219e-01 -3.600160217285156250e+01 3.755920566618442535e-03 -1.013437390327453613e+00 -3.029044270515441895e-01 -1.032125018537044525e-02
1.237000000000000000e+03 2.421466112136840820e+00 -3.323534393310546875e+01 2.599957026541233063e-02 -7.852511405944824219e-01 -2.277754694223403931e-01 -1.129092946648597717e-01
1.238000000000000000e+03 2.897201061248779297e+00 2.568495941162109375e+01 -1.620766147971153259e-02 -3.239470720291137695e-01 -1.020464226603507996e-01 2.068907767534255981e-01
1.239000000000000000e+03 2.828429698944091797e+00 2.439921379089355469e+01 -2.131771296262741089e-02 -2.515355050563812256e-01 -8.185596764087677002e-02 1.904365867376327515e-01
1.240000000000000000e+03 2.187653064727783203e+00 3.443133544921875000e+01 2.530075982213020325e-02 -8.066781759262084961e-01 -2.344132214784622192e-01 9.588880091905593872e-02
1.241000000000000000e+03 2.247900247573852539e+00 3.300311279296875000e+01 2.283676341176033020e-02 -7.333338856697082520e-01 -2.131491452455520630e-01 1.197384372353553772e-01
1.242000000000000000e+03 2.514615297317504883e+00 3.806288909912109375e+01 3.222480043768882751e-02 -8.894302845001220703e-01 -2.571616470813751221e-01 4.034411534667015076e-02
1.243000000000000000e+03 3.457167625427246094e+00 3.903464889526367188e+01 3.499013558030128479e-02 -8.899710178375244141e-01 -2.564942836761474609e-01 5.925690010190010071e-02
1.244000000000000000e+03 2.189663410186767578e+00 -3.035260200500488281e+01 1.993981562554836273e-02 -6.573224067687988281e-01 -1.912147700786590576e-01 -1.444841474294662476e-01
1.245000000000000000e+03 2.002393245697021484e+00 -2.756417083740234375e+01 8.711539208889007568e-03 -4.889768660068511963e-01 -1.440795958042144775e-01 -1.566094011068344116e-01
1.246000000000000000e+03 2.354230165481567383e+00 -3.656760025024414062e+01 2.326579950749874115e-02 -9.074024558067321777e-01 -2.652409970760345459e-01 -6.231940165162086487e-02
1.247000000000000000e+03 5.333218097686767578e+00 -1.761491012573242188e+01 -1.040603220462799072e-01 -4.048924148082733154e-02 -4.336487129330635071e-02 -6.257006432861089706e-03
1.248000000000000000e+03 5.803161263465881348e-01 2.051221275329589844e+01 -5.804961081594228745e-03 3.791373595595359802e-02 9.632633067667484283e-03 1.027383375912904739e-02
1.249000000000000000e+03 6.213752627372741699e-01 1.909368705749511719e+01 -1.890219631604850292e-03 5.181861668825149536e-02 1.497851870954036713e-02 9.425968746654689312e-04
1.250000000000000000e+03 6.294098496437072754e-01 1.481712436676025391e+01 2.141686418326571584e-04 2.365342341363430023e-02 7.160277571529150009e-03 -5.580030381679534912e-03
1.251000000000000000e+03 6.148603558540344238e-01 1.341668033599853516e+01 1.479540020227432251e-03 1.259736996144056320e-02 4.223072901368141174e-03 -3.951358143240213394e-03
1.252000000000000000e+03 5.101767778396606445e-01 7.821183681488037109e+00 -2.286226372234523296e-04 -3.758483944693580270e-05 -7.986224227352067828e-05 -1.939269277499988675e-04
1.253000000000000000e+03 5.918760895729064941e-01 -1.908284950256347656e+01 -4.229653626680374146e-03 4.622322693467140198e-02 1.259807217866182327e-02 -6.950423587113618851e-03
1.254000000000000000e+03 1.692990779876708984e+00 -9.288259506225585938e+00 1.368944998830556870e-03 1.573361441842280328e-05 4.154035705141723156e-04 8.887557778507471085e-04
1.255000000000000000e+03 5.008793830871582031e+00 -4.028276443481445312e+01 4.778078943490982056e-02 -7.914917469024658203e-01 -2.231132984161376953e-01 -6.561806052923202515e-02
1.256000000000000000e+03 3.497476816177368164e+00 -3.908929443359375000e+01 3.090787865221500397e-02 -9.245182275772094727e-01 -2.680830955505371094e-01 -5.804719775915145874e-02
1.257000000000000000e+03 4.786715984344482422e+00 -3.612303161621093750e+01 6.952529400587081909e-02 -7.443280220031738281e-01 -2.024408280849456787e-01 -1.353382170200347900e-01
1.258000000000000000e+03 1.652687668800354004e+00 -3.536845397949218750e+01 1.843659393489360809e-02 -9.005355834960937500e-01 -2.646296918392181396e-01 -5.241502076387405396e-02
1.259000000000000000e+03 2.313858985900878906e+00 -3.177952575683593750e+01 1.179700531065464020e-02 -7.257698774337768555e-01 -2.141918540000915527e-01 -1.304963827133178711e-01
1.260000000000000000e+03 3.319927930831909180e+00 -2.750684356689453125e+01 6.730537395924329758e-03 -4.809419810771942139e-01 -1.422634273767471313e-01 -2.336667627096176147e-01
1.261000000000000000e+03 1.951796770095825195e+00 -2.471082115173339844e+01 -6.569721736013889313e-03 -2.961094379425048828e-01 -9.080374240875244141e-02 -1.446545124053955078e-01
1.262000000000000000e+03 1.968430519104003906e+00 -2.615809631347656250e+01 -7.460001856088638306e-03 -3.918408751487731934e-01 -1.197902634739875793e-01 -1.577812880277633667e-01
1.263000000000000000e+03 5.833947658538818359e-01 -2.050636291503906250e+01 -7.409848272800445557e-03 9.508688002824783325e-03 6.296518840827047825e-04 -2.150901779532432556e-02
1.264000000000000000e+03 2.916756391525268555e+00 -2.156459045410156250e+01 -5.174928158521652222e-02 -1.458866894245147705e-01 -5.929078906774520874e-02 -1.475744992494583130e-01
1.265000000000000000e+03 1.620807647705078125e+00 -1.606802940368652344e+01 1.262391218915581703e-03 8.307980373501777649e-03 2.871111501008272171e-03 1.393081340938806534e-02
1.266000000000000000e+03 1.658075928688049316e+00 -1.206043720245361328e+01 2.886425470933318138e-03 2.141504781320691109e-03 1.508379005827009678e-03 4.119751509279012680e-03
1.267000000000000000e+03 5.460020899772644043e-01 -1.208328914642333984e+01 -6.516061257570981979e-04 5.036944989114999771e-03 1.315601635724306107e-03 1.734890509396791458e-03
1.268000000000000000e+03 8.700782775878906250e+00 -9.784821510314941406e+00 -1.046142060658894479e-04 -1.385370967909693718e-03 -4.469955456443130970e-04 8.505175355821847916e-04
1.269000000000000000e+03 5.303678989410400391e+00 -3.442489385604858398e+00 -3.143142384942620993e-05 1.595480716787278652e-04 3.843499507638625801e-05 3.178086481057107449e-04
1.270000000000000000e+03 3.679890394210815430e+00 -2.889316320419311523e+00 -7.405343785649165511e-05 -4.423525024321861565e-05 -3.548660606611520052e-05 -3.109191602561622858e-04
1.271000000000000000e+03 2.911601066589355469e+00 -3.087096929550170898e+00 1.051048384397290647e-04 5.158053318154998124e-05 4.700561112258583307e-05 1.521593367215245962e-04
1.272000000000000000e+03 2.122808933258056641e+00 -3.188827276229858398e+00 -1.560175878694280982e-04 -2.584796857263427228e-05 -5.455966675071977079e-05 -1.591012987773865461e-04
1.273000000000000000e+03 1.365156292915344238e+00 -3.378965854644775391e+00 5.137306288816034794e-05 1.453011936973780394e-04 5.900227552046999335e-05 1.406385999871417880e-04
1.274000000000000000e+03 4.509135186672210693e-01 5.057351112365722656e+00 -4.728307540062814951e-04 -3.335395304020494223e-04 -2.419110824121162295e-04 -1.412878627888858318e-04
1.275000000000000000e+03 3.192742586135864258e+00 3.652381420135498047e+00 -2.619851729832589626e-04 -3.464656183496117592e-04 -1.825352373998612165e-04 1.835605216911062598e-04
1.276000000000000000e+03 1.649672031402587891e+00 1.043844890594482422e+01 1.902307616546750069e-03 1.208742149174213409e-03 9.333149646408855915e-04 -1.549670705571770668e-03
1.277000000000000000e+03 5.488715767860412598e-01 1.061303329467773438e+01 3.972811100538820028e-04 2.075960161164402962e-03 7.419723551720380783e-04 -1.044108066707849503e-03
1.278000000000000000e+03 1.880208969116210938e+00 1.318948268890380859e+01 4.214643500745296478e-03 3.009192179888486862e-03 2.167150611057877541e-03 -7.678973954170942307e-03
1.279000000000000000e+03 1.913963913917541504e+00 1.458332633972167969e+01 3.289814107120037079e-03 3.799534635618329048e-03 2.126804552972316742e-03 -1.206693053245544434e-02
1.280000000000000000e+03 1.883031845092773438e+00 1.601185607910156250e+01 3.765865985769778490e-04 5.182458553463220596e-03 1.667713513597846031e-03 -1.343819219619035721e-02
1.281000000000000000e+03 1.747319936752319336e+00 2.452998352050781250e+01 -1.726618781685829163e-02 -2.227815687656402588e-01 -7.201432436704635620e-02 1.301783174276351929e-01
1.282000000000000000e+03 9.358265876770019531e+00 1.104131031036376953e+01 9.410546226717997342e-06 4.139247816056013107e-03 1.244597486220300198e-03 1.597283058799803257e-03
1.283000000000000000e+03 1.245772743225097656e+01 8.457768440246582031e+00 2.153735607862472534e-03 1.721830922178924084e-03 1.162669970653951168e-03 1.761990948580205441e-03
1.284000000000000000e+03 1.468064785003662109e+01 4.924693107604980469e+00 1.565472572110593319e-03 -3.638864654931239784e-05 4.587252042256295681e-04 2.002094115596264601e-04
1.285000000000000000e+03 1.181804943084716797e+01 2.576341152191162109e+00 7.458279724232852459e-04 6.930685776751488447e-05 2.445404534228146076e-04 3.908001235686242580e-04
1.286000000000000000e+03 1.039015007019042969e+01 1.340023612976074219e+01 -5.540328100323677063e-03 -2.611651783809065819e-03 -2.445593941956758499e-03 -4.464273806661367416e-03
1.287000000000000000e+03 8.499549865722656250e+00 1.037293434143066406e+01 8.110364433377981186e-04 -3.274853806942701340e-04 1.450653071515262127e-04 8.004634291864931583e-04
1.288000000000000000e+03 8.448225021362304688e+00 1.382799243927001953e+01 -3.304464276880025864e-03 7.608994375914335251e-03 1.291359076276421547e-03 -3.642879892140626907e-03
1.289000000000000000e+03 1.176887798309326172e+01 3.363689661026000977e+00 -1.026354962959885597e-03 -2.168634673580527306e-04 -3.729655290953814983e-04 -9.550479007884860039e-04
1.290000000000000000e+03 7.992635250091552734e+00 -1.094115352630615234e+01 7.043406185403000563e-06 3.352681640535593033e-03 1.007917569950222969e-03 -1.602067844942212105e-03
1.291000000000000000e+03 5.004968261718750000e+01 -8.033263206481933594e+00 1.784451961517333984e+00 1.701847457885742188e+01 5.640877723693847656e+00 5.702012062072753906e+00
1.292000000000000000e+03 4.717343521118164062e+01 -8.438985824584960938e+00 1.360711097717285156e+00 1.358536124229431152e+00 8.157741427421569824e-01 2.295560359954833984e+00
1.293000000000000000e+03 4.883438873291015625e+01 -8.104277610778808594e+00 3.326171159744262695e+00 5.569478034973144531e+00 2.668694734573364258e+00 5.462477684020996094e+00
1.294000000000000000e+03 4.595346069335937500e+01 -4.228737354278564453e+00 5.357335805892944336e-01 6.226142644882202148e-01 3.475043475627899170e-01 -1.245123028755187988e+00
1.295000000000000000e+03 4.798435592651367188e+01 -4.767949104309082031e+00 2.518344879150390625e+00 1.992059350013732910e+00 1.353121280670166016e+00 -3.082057714462280273e+00
1.296000000000000000e+03 5.020166397094726562e+01 -4.486727714538574219e+00 1.355154275894165039e+00 1.673896980285644531e+01 5.428237438201904297e+00 -4.671795845031738281e+00
1.297000000000000000e+03 5.024800109863281250e+01 -8.021084785461425781e+00 1.504747748374938965e+00 1.845331001281738281e+01 5.987417221069335938e+00 4.696555614471435547e+00
1.298000000000000000e+03 5.084798812866210938e+01 -4.850371837615966797e+00 2.496371030807495117e+00 2.027503013610839844e+01 6.831419944763183594e+00 -7.559513449668884277e-01
1.299000000000000000e+03 5.122782135009765625e+01 -4.360208988189697266e+00 2.069825410842895508e+00 1.775038528442382812e+01 5.946063041687011719e+00 -2.451594173908233643e-01
1.300000000000000000e+03 5.182614517211914062e+01 -5.620126724243164062e+00 8.718378067016601562e+00 1.702791213989257812e+01 7.723886966705322266e+00 2.350268363952636719e+00
1.301000000000000000e+03 5.202454757690429688e+01 -6.011414527893066406e+00 9.918137550354003906e+00 1.562091159820556641e+01 7.661714553833007812e+00 1.220907926559448242e+00
1.302000000000000000e+03 5.000114440917968750e+01 -4.533254623413085938e+00 1.714670777320861816e+00 1.542903709411621094e+01 5.143112182617187500e+00 -5.531630992889404297e+00
1.303000000000000000e+03 4.726425170898437500e+01 -4.270547389984130859e+00 1.806278705596923828e+00 1.686199665069580078e+00 1.047743558883666992e+00 -2.575294017791748047e+00
1.304000000000000000e+03 4.544786834716796875e+01 -4.305125236511230469e+00 9.480153024196624756e-02 4.071276783943176270e-01 1.505787670612335205e-01 -9.204607605934143066e-01
1.305000000000000000e+03 4.571060180664062500e+01 -3.752301931381225586e+00 8.530264496803283691e-01 8.879070878028869629e-01 5.222800374031066895e-01 -1.513571381568908691e+00
1.306000000000000000e+03 4.273641586303710938e+01 -3.518456697463989258e+00 -4.136607050895690918e-01 2.598592638969421387e-01 -4.614043235778808594e-02 -3.724141418933868408e-01
1.307000000000000000e+03 4.488940429687500000e+01 -3.412267446517944336e+00 5.489363670349121094e-01 7.204676270484924316e-01 3.808211982250213623e-01 -1.182291030883789062e+00
1.308000000000000000e+03 2.136579132080078125e+01 -2.074639320373535156e+00 -8.668619394302368164e-02 -2.020205110311508179e-01 -8.661201596260070801e-02 2.353904992341995239e-01
1.309000000000000000e+03 2.074372863769531250e+01 -2.619601011276245117e+00 -5.878102406859397888e-02 -1.728451997041702271e-01 -6.948786973953247070e-02 1.692118644714355469e-01
1.310000000000000000e+03 4.136285781860351562e+01 -4.123482227325439453e+00 -1.150072336196899414e+00 8.052487671375274658e-02 -3.208642303943634033e-01 -2.358919382095336914e-02
1.311000000000000000e+03 2.378499794006347656e+01 -3.251880884170532227e+00 -2.394927144050598145e-01 -1.002353355288505554e-01 -1.019184142351150513e-01 2.992568016052246094e-01
1.312000000000000000e+03 2.590228271484375000e+01 -4.159849643707275391e+00 -4.278187453746795654e-01 -3.710298985242843628e-02 -1.394765228033065796e-01 2.962021827697753906e-01
1.313000000000000000e+03 1.775775337219238281e+01 -8.455320358276367188e+00 -1.887996643781661987e-01 -1.493054181337356567e-01 -1.014315187931060791e-01 -1.831683814525604248e-01
1.314000000000000000e+03 3.024928092956542969e+01 -4.292818546295166016e+00 -8.307546973228454590e-01 1.308769639581441879e-02 -2.453000992536544800e-01 3.171157240867614746e-01
1.315000000000000000e+03 2.666890716552734375e+01 -3.545642614364624023e+00 -4.582953453063964844e-01 -3.547880798578262329e-02 -1.481322497129440308e-01 3.603796064853668213e-01
1.316000000000000000e+03 3.902384519577026367e+00 2.699611902236938477e+00 -2.052249183179810643e-04 -4.413824644871056080e-04 -1.939822250278666615e-04 1.506039116065949202e-04
1.317000000000000000e+03 4.608706474304199219e+00 2.644206285476684570e+00 1.281661679968237877e-04 5.870388122275471687e-04 2.145614998880773783e-04 3.280087184975855052e-05
1.318000000000000000e+03 6.013482093811035156e+00 2.580865144729614258e+00 7.123717659851536155e-05 7.747849449515342712e-04 2.538066182751208544e-04 2.006470022024586797e-04
1.319000000000000000e+03 5.288864612579345703e+00 3.324651479721069336e+00 1.806012296583503485e-04 6.769914180040359497e-04 2.572778030298650265e-04 1.172545526060275733e-04
1.320000000000000000e+03 5.962062835693359375e+00 3.304033279418945312e+00 -7.569136505480855703e-05 -7.198425009846687317e-04 -2.386601554462686181e-04 -1.185218716273084283e-04
1.321000000000000000e+03 1.027961921691894531e+01 2.611618041992187500e+00 4.279878630768507719e-04 5.540209240280091763e-04 2.946026506833732128e-04 6.149725522845983505e-04
1.322000000000000000e+03 7.308800220489501953e+00 3.330140829086303711e+00 -4.042457294417545199e-05 -1.020673429593443871e-03 -3.183294029440730810e-04 -3.837991098407655954e-04
1.323000000000000000e+03 6.632898807525634766e+00 3.312581539154052734e+00 1.096872874768450856e-04 9.758929372765123844e-04 3.256740747019648552e-04 2.523172297514975071e-04
1.324000000000000000e+03 4.614969253540039062e+00 3.407922744750976562e+00 -1.314969704253599048e-04 -4.736233095172792673e-04 -1.815360737964510918e-04 5.770256393589079380e-05
1.325000000000000000e+03 1.874517202377319336e+00 2.675143718719482422e+00 3.281013632658869028e-04 2.158362185582518578e-04 1.631812774576246738e-04 3.196428297087550163e-04
1.326000000000000000e+03 1.017243385314941406e+01 3.390097141265869141e+00 -4.376064462121576071e-04 -8.246508659794926643e-04 -3.786771849263459444e-04 -9.094349807128310204e-04
1.327000000000000000e+03 2.522843933105468750e+01 -3.403146505355834961e+00 -3.434346914291381836e-01 -6.736109405755996704e-02 -1.232387423515319824e-01 3.388724625110626221e-01
1.328000000000000000e+03 2.170968627929687500e+01 -2.659884214401245117e+00 -1.096967309713363647e-01 -1.562282294034957886e-01 -7.977748662233352661e-02 2.283960431814193726e-01
1.329000000000000000e+03 2.128564643859863281e+01 -3.017092466354370117e+00 -9.222231060266494751e-02 -1.398854702711105347e-01 -6.963233649730682373e-02 1.879669874906539917e-01
1.330000000000000000e+03 2.104913139343261719e+01 -3.602271556854248047e+00 -8.036531507968902588e-02 -1.095129549503326416e-01 -5.696348100900650024e-02 1.440062075853347778e-01
1.331000000000000000e+03 9.573446273803710938e+00 -2.476470470428466797e+00 -2.688798849703744054e-05 -1.004930236376821995e-04 -3.821430436801165342e-05 -3.322348929941654205e-04
1.332000000000000000e+03 2.595126914978027344e+01 -3.483879327774047852e+00 -3.994369804859161377e-01 -5.102092400193214417e-02 -1.351373791694641113e-01 3.517233729362487793e-01
1.333000000000000000e+03 2.809473800659179688e+01 -3.608159542083740234e+00 -5.717355608940124512e-01 -1.131556741893291473e-02 -1.749153435230255127e-01 3.722086846828460693e-01
1.334000000000000000e+03 3.171001625061035156e+01 -4.278149604797363281e+00 -9.618294835090637207e-01 2.106810733675956726e-02 -2.822284102439880371e-01 3.098187744617462158e-01
1.335000000000000000e+03 2.881156349182128906e+01 -3.621984481811523438e+00 -6.286792159080505371e-01 -8.255101856775581837e-04 -1.888514310121536255e-01 3.745254278182983398e-01
1.336000000000000000e+03 3.097206115722656250e+01 -3.616496562957763672e+00 -7.895075678825378418e-01 2.162850275635719299e-02 -2.303637117147445679e-01 3.686747252941131592e-01
1.337000000000000000e+03 1.157592487335205078e+01 -3.548667430877685547e+00 1.336085406364873052e-04 -1.263245649170130491e-04 2.185193579862243496e-06 -2.803142997436225414e-04
1.338000000000000000e+03 1.096960639953613281e+01 -2.625790596008300781e+00 9.438213601242750883e-05 -1.771690731402486563e-04 -2.483607931935694069e-05 -2.636322169564664364e-04
1.339000000000000000e+03 1.124374485015869141e+01 -4.369364261627197266e+00 -4.870880729868076742e-05 -2.771646832115948200e-04 -9.776204387890174985e-05 3.910955856554210186e-04
1.340000000000000000e+03 4.375170135498046875e+01 -9.384120941162109375e+00 -3.569300174713134766e-01 4.006405472755432129e-01 1.311315223574638367e-02 6.765006184577941895e-01
1.341000000000000000e+03 4.373791503906250000e+01 -8.816417694091796875e+00 -8.383840322494506836e-01 2.370249629020690918e-01 -1.804077178239822388e-01 4.272143244743347168e-01
1.342000000000000000e+03 1.257812500000000000e+01 -2.799350023269653320e+00 -2.420693635940551758e-05 -2.697249583434313536e-04 -8.817957132123410702e-05 1.801856160454917699e-05
1.343000000000000000e+03 4.085062408447265625e+01 -9.040797233581542969e+00 -1.437161922454833984e+00 9.401187300682067871e-02 -4.029450118541717529e-01 3.827204182744026184e-02
1.344000000000000000e+03 3.241894149780273438e+01 -3.592052459716796875e+00 -8.837990760803222656e-01 3.298494592308998108e-02 -2.552442550659179688e-01 3.546603918075561523e-01
1.345000000000000000e+03 3.169356155395507812e+01 -3.604960441589355469e+00 -8.388151526451110840e-01 2.698094956576824188e-02 -2.435502558946609497e-01 3.632221519947052002e-01
1.346000000000000000e+03 3.388925170898437500e+01 -3.562468767166137695e+00 -9.622150063514709473e-01 4.350684955716133118e-02 -2.756124436855316162e-01 3.292995989322662354e-01
1.347000000000000000e+03 4.016886901855468750e+01 -9.756640434265136719e+00 -1.104206919670104980e+00 1.416049003601074219e-01 -2.887805998325347900e-01 8.356505632400512695e-02
1.348000000000000000e+03 3.785910034179687500e+01 -9.182010650634765625e+00 -1.647218704223632812e+00 3.208070248365402222e-02 -4.845414161682128906e-01 -1.401762366294860840e-01
1.349000000000000000e+03 4.438439178466796875e+01 -9.302412033081054688e+00 -7.791593670845031738e-02 5.203162431716918945e-01 1.327200829982757568e-01 9.077535271644592285e-01
1.350000000000000000e+03 4.505299758911132812e+01 -8.792679786682128906e+00 -1.149614751338958740e-01 4.650793969631195068e-01 1.050353720784187317e-01 8.905144333839416504e-01
1.351000000000000000e+03 4.307722854614257812e+01 -9.475626945495605469e+00 -5.578506588935852051e-01 3.237176239490509033e-01 -7.023990154266357422e-02 5.204756855964660645e-01
1.352000000000000000e+03 4.237493515014648438e+01 -9.563152313232421875e+00 -7.322620749473571777e-01 2.623038887977600098e-01 -1.409874558448791504e-01 3.813801109790802002e-01
1.353000000000000000e+03 3.880496215820312500e+01 -1.123504257202148438e+01 -6.303275227546691895e-01 2.396313250064849854e-01 -1.172088533639907837e-01 1.407186239957809448e-01
1.354000000000000000e+03 3.866861343383789062e+01 -9.845601081848144531e+00 -1.253020405769348145e+00 8.949855715036392212e-02 -3.490565717220306396e-01 -4.393301531672477722e-02
1.355000000000000000e+03 3.690435028076171875e+01 -4.161143302917480469e+00 -1.294793248176574707e+00 3.833677992224693298e-02 -3.769369423389434814e-01 2.212141901254653931e-01
1.356000000000000000e+03 3.463109588623046875e+01 -3.546158313751220703e+00 -9.927137494087219238e-01 4.722046852111816406e-02 -2.836479842662811279e-01 3.117868900299072266e-01
1.357000000000000000e+03 3.458545684814453125e+01 -2.877692937850952148e+00 -8.088413476943969727e-01 6.860142201185226440e-02 -2.220719754695892334e-01 3.329687118530273438e-01
1.358000000000000000e+03 3.532426071166992188e+01 -2.862883806228637695e+00 -8.144543766975402832e-01 7.574164867401123047e-02 -2.216138243675231934e-01 3.050545156002044678e-01
1.359000000000000000e+03 3.560515594482421875e+01 -9.260911941528320312e+00 -1.659259080886840820e+00 8.683547377586364746e-03 -4.951726794242858887e-01 -2.083631753921508789e-01
1.360000000000000000e+03 3.722540664672851562e+01 -1.062673759460449219e+01 -1.035760283470153809e+00 1.005146577954292297e-01 -2.805736660957336426e-01 -8.192548155784606934e-02
1.361000000000000000e+03 3.716417312622070312e+01 -9.916379928588867188e+00 -1.337133765220642090e+00 5.387341231107711792e-02 -3.849780857563018799e-01 -1.334786713123321533e-01
1.362000000000000000e+03 3.641137695312500000e+01 -9.947048187255859375e+00 -1.358941435813903809e+00 4.131320491433143616e-02 -3.952884674072265625e-01 -1.686490923166275024e-01
1.363000000000000000e+03 3.835063934326171875e+01 -3.474829435348510742e+00 -1.002316832542419434e+00 8.241610229015350342e-02 -2.759702205657958984e-01 1.562630385160446167e-01
1.364000000000000000e+03 3.909358215332031250e+01 -3.471964597702026367e+00 -9.671820402145385742e-01 9.100136160850524902e-02 -2.628541886806488037e-01 1.072117537260055542e-01
1.365000000000000000e+03 3.982966613769531250e+01 -3.475439548492431641e+00 -9.117291569709777832e-01 1.098039448261260986e-01 -2.405775636434555054e-01 4.404042661190032959e-02
1.366000000000000000e+03 4.209772872924804688e+01 -4.124254226684570312e+00 -1.028930187225341797e+00 1.132560148835182190e-01 -2.747022509574890137e-01 -1.103036627173423767e-01
1.367000000000000000e+03 4.055895614624023438e+01 -3.483007669448852539e+00 -8.397172093391418457e-01 1.260163635015487671e-01 -2.141102403402328491e-01 -2.418129704892635345e-02
1.368000000000000000e+03 4.128786087036132812e+01 -3.494397878646850586e+00 -7.325606942176818848e-01 1.576689928770065308e-01 -1.724674999713897705e-01 -1.177621856331825256e-01
1.369000000000000000e+03 3.760613632202148438e+01 -3.484011650085449219e+00 -1.025063395500183105e+00 7.030099630355834961e-02 -2.864287197589874268e-01 2.010813057422637939e-01
1.370000000000000000e+03 4.346769714355468750e+01 -3.522331237792968750e+00 -2.031072676181793213e-01 3.411921262741088867e-01 4.142546281218528748e-02 -5.431088209152221680e-01
1.371000000000000000e+03 4.402555465698242188e+01 -2.890365600585937500e+00 4.432601332664489746e-01 7.184559702873229980e-01 3.485148251056671143e-01 -1.026280403137207031e+00
1.372000000000000000e+03 3.414356613159179688e+01 -1.002510738372802734e+01 -1.369061350822448730e+00 1.299210451543331146e-02 -4.068207740783691406e-01 -2.451801151037216187e-01
1.373000000000000000e+03 3.182163429260253906e+01 -9.357327461242675781e+00 -1.518013954162597656e+00 -1.073040720075368881e-02 -4.586233198642730713e-01 -2.680400311946868896e-01
1.374000000000000000e+03 3.338397216796875000e+01 -1.004544830322265625e+01 -1.357158064842224121e+00 8.514215238392353058e-03 -4.045931398868560791e-01 -2.643860578536987305e-01
1.375000000000000000e+03 3.262488555908203125e+01 -1.006441783905029297e+01 -1.337252974510192871e+00 2.909541828557848930e-03 -4.003030359745025635e-01 -2.820676863193511963e-01
1.376000000000000000e+03 3.490166854858398438e+01 -1.000188064575195312e+01 -1.374333381652832031e+00 2.154342271387577057e-02 -4.058369994163513184e-01 -2.235665619373321533e-01
1.377000000000000000e+03 1.356991767883300781e+01 5.008368015289306641e+00 -1.482230145484209061e-03 -4.138685471843928099e-04 -5.688295932486653328e-04 -9.218108025379478931e-04
1.378000000000000000e+03 9.413046836853027344e+00 3.384860277175903320e+00 3.268437576480209827e-04 1.060931244865059853e-03 4.163324774708598852e-04 7.216690573841333389e-04
1.379000000000000000e+03 1.262107753753662109e+01 4.114209651947021484e+00 -1.437944476492702961e-03 -1.837210584199056029e-04 -4.864996590185910463e-04 -1.241660444065928459e-03
1.380000000000000000e+03 1.258813762664794922e+01 3.304639101028442383e+00 1.380347297526896000e-03 -3.899885923601686954e-04 2.971076173707842827e-04 4.898913903161883354e-04
1.381000000000000000e+03 3.033294677734375000e+01 -1.010697841644287109e+01 -1.241751313209533691e+00 -1.048805657774209976e-03 -3.728400170803070068e-01 -3.260069489479064941e-01
1.382000000000000000e+03 3.110179519653320312e+01 -1.009568023681640625e+01 -1.279680728912353516e+00 -1.304327393881976604e-03 -3.842955231666564941e-01 -3.129073083400726318e-01
1.383000000000000000e+03 2.956092834472656250e+01 -1.011581325531005859e+01 -1.199983716011047363e+00 -1.988383475691080093e-03 -3.605916202068328857e-01 -3.401127457618713379e-01
1.384000000000000000e+03 9.283849716186523438e+00 4.191964626312255859e+00 -1.685100141912698746e-04 -1.286915270611643791e-03 -4.366275970824062824e-04 -7.736692787148058414e-04
1.385000000000000000e+03 1.939310073852539062e+01 -8.573734283447265625e+00 -3.654391765594482422e-01 -3.912770748138427734e-02 -1.213700622320175171e-01 -2.609066069126129150e-01
1.386000000000000000e+03 6.751457214355468750e+00 -3.336827754974365234e+00 5.100122962176101282e-06 6.529768870677798986e-05 2.111934372805990279e-05 4.134680493734776974e-04
1.387000000000000000e+03 2.749834775924682617e+00 -6.697287082672119141e+00 -1.361607282888144255e-04 1.616828521946445107e-04 7.656637535546906292e-06 -4.085011605639010668e-04
1.388000000000000000e+03 7.559258460998535156e+00 -4.079854488372802734e+00 1.524895924376323819e-04 -1.580144598847255111e-04 -1.657461211834743153e-06 6.003506714478135109e-04
1.389000000000000000e+03 8.875487327575683594e+00 -2.517668724060058594e+00 -2.500369419067283161e-06 9.135852451436221600e-05 2.665744614205323160e-05 4.170318425167351961e-04
1.390000000000000000e+03 5.459547042846679688e+00 -4.174586772918701172e+00 -2.142995754184084944e-06 1.367744880553800613e-05 3.460335847194073722e-06 -3.785910375881940126e-04
1.391000000000000000e+03 5.903166770935058594e+00 -2.630750417709350586e+00 -7.303350867005065084e-05 1.041360737872309983e-04 9.330770808446686715e-06 2.948517794720828533e-04
1.392000000000000000e+03 6.015949249267578125e+00 -3.370512723922729492e+00 -4.230331251164898276e-05 3.769443719647824764e-05 -1.382662730975425802e-06 -3.582923673093318939e-04
1.393000000000000000e+03 4.164803504943847656e+00 -4.523391246795654297e+00 -3.880428630509413779e-05 -7.687997276661917567e-05 -3.470527735771611333e-05 -5.147203337401151657e-04
1.394000000000000000e+03 1.659537434577941895e+00 -5.275091648101806641e+00 -4.298601415939629078e-04 7.143961556721478701e-05 -1.075261607184074819e-04 -2.608622307889163494e-04
1.395000000000000000e+03 2.722453308105468750e+01 -1.010749912261962891e+01 -1.052602052688598633e+00 9.680355899035930634e-03 -3.128764927387237549e-01 -3.723350763320922852e-01
1.396000000000000000e+03 2.800708961486816406e+01 -1.011763000488281250e+01 -1.104354143142700195e+00 2.972343470901250839e-03 -3.304145336151123047e-01 -3.635090589523315430e-01
1.397000000000000000e+03 2.643779754638671875e+01 -1.008903598785400391e+01 -9.994928836822509766e-01 1.621627062559127808e-02 -2.949829697608947754e-01 -3.834365010261535645e-01
1.398000000000000000e+03 2.089052391052246094e+01 -8.891422271728515625e+00 -5.442311167716979980e-01 2.120109833776950836e-02 -1.569090038537979126e-01 -3.164581954479217529e-01
1.399000000000000000e+03 2.327057838439941406e+01 -9.904757499694824219e+00 -7.726021409034729004e-01 4.752529785037040710e-02 -2.175230532884597778e-01 -4.040982425212860107e-01
1.400000000000000000e+03 2.080727577209472656e+01 -9.746385574340820312e+00 -5.857625007629394531e-01 1.416390109807252884e-02 -1.714795827865600586e-01 -3.919145166873931885e-01
1.401000000000000000e+03 2.406851768493652344e+01 -9.961137771606445312e+00 -8.325025439262390137e-01 4.257655888795852661e-02 -2.369778007268905640e-01 -4.006899893283843994e-01
1.402000000000000000e+03 2.485778999328613281e+01 -1.001547622680664062e+01 -8.888438344001770020e-01 3.407414630055427551e-02 -2.564308941364288330e-01 -3.978190720081329346e-01
1.403000000000000000e+03 1.981538963317871094e+01 -1.429736328125000000e+01 -5.782490372657775879e-01 -6.991502642631530762e-02 -1.944492161273956299e-01 -5.173206925392150879e-01
1.404000000000000000e+03 1.999542617797851562e+01 -2.370436906814575195e+00 -2.893072925508022308e-02 -1.758349537849426270e-01 -6.142970547080039978e-02 1.247191429138183594e-01
1.405000000000000000e+03 2.163320541381835938e+01 -9.806788444519042969e+00 -6.485381722450256348e-01 3.748590126633644104e-02 -1.833156794309616089e-01 -3.999229371547698975e-01
1.406000000000000000e+03 2.245721244812011719e+01 -9.854128837585449219e+00 -7.126610875129699707e-01 4.753047227859497070e-02 -1.995391845703125000e-01 -4.027159810066223145e-01
1.407000000000000000e+03 2.148784255981445312e+01 2.194022417068481445e+00 -9.941635280847549438e-02 -5.151791572570800781e-01 -1.843786537647247314e-01 4.151523411273956299e-01
1.408000000000000000e+03 2.102980804443359375e+01 5.777586936950683594e+00 -1.848263591527938843e-01 -8.092036247253417969e-01 -2.982089817523956299e-01 4.679356813430786133e-01
1.409000000000000000e+03 1.802923774719238281e+01 -1.003834533691406250e+01 -3.864904046058654785e-01 -1.853488236665725708e-01 -1.715517640113830566e-01 -3.644174337387084961e-01
1.410000000000000000e+03 1.086074733734130859e+01 9.071971893310546875e+00 8.026033174246549606e-04 3.255961462855339050e-03 1.217569457367062569e-03 1.480086240917444229e-03
1.411000000000000000e+03 1.111386489868164062e+01 1.064604568481445312e+01 2.218004548922181129e-03 3.470636205747723579e-03 1.706592272967100143e-03 2.367470180615782738e-03
1.412000000000000000e+03 1.334952831268310547e+01 6.167150020599365234e+00 1.821649726480245590e-03 6.734195048920810223e-04 7.485207752324640751e-04 1.132197561673820019e-03
1.413000000000000000e+03 6.043977260589599609e+00 -1.449716472625732422e+01 9.585829451680183411e-03 -6.162274628877639771e-03 1.027066493406891823e-03 -2.005043439567089081e-02
1.414000000000000000e+03 6.666047096252441406e+00 -1.331748580932617188e+01 -1.289936830289661884e-03 1.555110793560743332e-02 4.278351087123155594e-03 -8.514176122844219208e-03
1.415000000000000000e+03 1.866460609436035156e+01 1.083460998535156250e+01 -4.240290224552154541e-01 -1.478127241134643555e+00 -5.706468820571899414e-01 6.182564496994018555e-01
1.416000000000000000e+03 2.069579315185546875e+01 7.125578880310058594e+00 -2.332478016614913940e-01 -9.318661093711853027e-01 -3.495341837406158447e-01 4.994136989116668701e-01
1.417000000000000000e+03 1.079162025451660156e+01 -3.335732460021972656e+00 -5.003491969546303153e-05 -1.085058975149877369e-04 -4.756224734592251480e-05 4.739227588288486004e-04
1.418000000000000000e+03 8.522577285766601562e+00 -2.040028190612792969e+01 -4.139865934848785400e-01 -3.535701930522918701e-01 -2.302670329809188843e-01 -5.235649943351745605e-01
1.419000000000000000e+03 7.845730304718017578e+00 -1.886786651611328125e+01 -4.467884004116058350e-01 -7.550534605979919434e-02 -1.566881239414215088e-01 -2.503056526184082031e-01
1.420000000000000000e+03 1.005845355987548828e+01 4.186009407043457031e+00 3.560462209861725569e-04 1.337662688456475735e-03 5.081126582808792591e-04 9.346887818537652493e-04
1.421000000000000000e+03 3.931306898593902588e-01 3.801104784011840820e+00 6.055388366803526878e-04 7.660767005290836096e-05 2.046439476544037461e-04 3.117709129583090544e-04
1.422000000000000000e+03 1.004983711242675781e+01 -6.113763809204101562e+00 1.139553714892826974e-04 -8.048848831094801426e-04 -2.072788629448041320e-04 4.340665473137050867e-04
1.423000000000000000e+03 1.561798191070556641e+01 -1.894972038269042969e+01 -3.781402409076690674e-01 -3.837889134883880615e-01 -2.285787463188171387e-01 -4.038355052471160889e-01
1.424000000000000000e+03 1.619820785522460938e+01 -1.586211299896240234e+01 -5.886756777763366699e-01 -3.865965306758880615e-01 -2.925816476345062256e-01 -5.054252743721008301e-01
1.425000000000000000e+03 9.564249038696289062e+00 -1.998078727722167969e+01 -3.615075647830963135e-01 -5.667052268981933594e-01 -2.784638404846191406e-01 -5.684372186660766602e-01
1.426000000000000000e+03 1.999692726135253906e+01 -3.343329429626464844e-01 -2.807686850428581238e-02 -3.520565927028656006e-01 -1.140400394797325134e-01 1.904509514570236206e-01
1.427000000000000000e+03 1.988133239746093750e+01 -1.061048889160156250e+01 -5.639427900314331055e-01 -3.883785754442214966e-02 -1.808342039585113525e-01 -4.422759711742401123e-01
1.428000000000000000e+03 3.499220848083496094e+00 2.171590042114257812e+01 -8.435607701539993286e-02 -1.170220822095870972e-01 -6.041345000267028809e-02 1.349708884954452515e-01
1.429000000000000000e+03 7.423994445800781250e+01 -3.389228439331054688e+01 -1.059438064694404602e-01 8.088357925415039062e+00 2.394724369049072266e+00 -2.727093994617462158e-01
1.430000000000000000e+03 7.715817260742187500e+01 -3.597510528564453125e+01 -5.136864259839057922e-02 8.403346061706542969e+00 2.505593299865722656e+00 -1.062126755714416504e-01
1.431000000000000000e+03 7.583626556396484375e+01 -2.190957069396972656e+01 -2.448707260191440582e-02 7.409202098846435547e+00 2.215414524078369141e+00 -4.957289695739746094e-01
1.432000000000000000e+03 7.801324462890625000e+01 -2.895381546020507812e+01 -1.343483291566371918e-02 8.043535232543945312e+00 2.409029960632324219e+00 -1.915601193904876709e-01
1.433000000000000000e+03 7.523082733154296875e+01 1.423549079895019531e+01 -6.207253411412239075e-02 7.903965950012207031e+00 2.352567911148071289e+00 4.893769323825836182e-01
1.434000000000000000e+03 7.654819488525390625e+01 1.563967132568359375e+01 -3.666723147034645081e-02 8.044426918029785156e+00 2.402327775955200195e+00 3.589152991771697998e-01
1.435000000000000000e+03 7.761894989013671875e+01 3.471392822265625000e+01 -2.623768337070941925e-02 9.052373886108398438e+00 2.707840919494628906e+00 4.188627004623413086e-02
1.436000000000000000e+03 7.663233947753906250e+01 3.216092300415039062e+01 -1.811203174293041229e-02 8.875062942504882812e+00 2.657085418701171875e+00 7.400603592395782471e-02
1.437000000000000000e+03 7.819747161865234375e+01 -2.208708763122558594e+01 -6.063040345907211304e-03 7.321256160736083984e+00 2.194557905197143555e+00 -2.498123347759246826e-01
1.438000000000000000e+03 7.699105072021484375e+01 -2.330841636657714844e+01 -2.067304216325283051e-02 7.495542049407958984e+00 2.242460727691650391e+00 -3.721393942832946777e-01
1.439000000000000000e+03 7.660269927978515625e+01 -3.012637138366699219e+01 -4.059431701898574829e-02 8.056759834289550781e+00 2.404849767684936523e+00 -2.714810967445373535e-01
1.440000000000000000e+03 7.668643951416015625e+01 -2.872851943969726562e+01 -4.423968121409416199e-02 7.962242603302001953e+00 2.375400781631469727e+00 -2.993585169315338135e-01
1.441000000000000000e+03 7.562828063964843750e+01 -2.580887031555175781e+01 -5.690901353955268860e-02 7.732530117034912109e+00 2.302686214447021484e+00 -4.447863698005676270e-01
1.442000000000000000e+03 7.677462768554687500e+01 -2.736200332641601562e+01 -3.345094993710517883e-02 7.859698772430419922e+00 2.347874402999877930e+00 -3.240837752819061279e-01
1.443000000000000000e+03 7.694098663330078125e+01 -2.465344238281250000e+01 -2.601985633373260498e-02 7.627923488616943359e+00 2.280570983886718750e+00 -3.582269549369812012e-01
1.444000000000000000e+03 7.655485534667968750e+01 -3.156077384948730469e+01 -4.864856228232383728e-02 8.126233100891113281e+00 2.423275470733642578e+00 -2.392924875020980835e-01
1.445000000000000000e+03 7.663215637207031250e+01 -3.463808822631835938e+01 -6.570049375295639038e-02 8.296996116638183594e+00 2.469388723373413086e+00 -1.651517450809478760e-01
1.446000000000000000e+03 7.791399383544921875e+01 2.260821151733398438e+01 -1.458339579403400421e-02 8.658493041992187500e+00 2.593173027038574219e+00 1.483235955238342285e-01
1.447000000000000000e+03 7.648692321777343750e+01 1.997161293029785156e+01 -3.759213536977767944e-02 8.352222442626953125e+00 2.494389057159423828e+00 2.809186279773712158e-01
1.448000000000000000e+03 7.514102935791015625e+01 2.304276275634765625e+01 -6.554605811834335327e-02 8.391472816467285156e+00 2.497777938842773438e+00 2.824318408966064453e-01
1.449000000000000000e+03 7.651216125488281250e+01 2.139748954772949219e+01 -3.773977980017662048e-02 8.439907073974609375e+00 2.520650148391723633e+00 2.516361176967620850e-01
1.450000000000000000e+03 7.666089630126953125e+01 1.278103923797607422e+01 -2.938327565789222717e-02 7.794750213623046875e+00 2.329610109329223633e+00 4.003399014472961426e-01
1.451000000000000000e+03 7.548937225341796875e+01 8.600135803222656250e+00 -1.703545823693275452e-02 7.439880371093750000e+00 2.226853370666503906e+00 5.628830194473266602e-01
1.452000000000000000e+03 7.660883331298828125e+01 1.420708560943603516e+01 -3.383904695510864258e-02 7.924007892608642578e+00 2.367050647735595703e+00 3.800778985023498535e-01
1.453000000000000000e+03 7.650213623046875000e+01 2.423575782775878906e+01 -3.330993652343750000e-02 8.585350036621093750e+00 2.565612077713012695e+00 1.969461441040039062e-01
1.454000000000000000e+03 7.790951538085937500e+01 2.679161262512207031e+01 -1.038809958845376968e-02 8.873899459838867188e+00 2.659053325653076172e+00 1.031697094440460205e-01
1.455000000000000000e+03 7.819702148437500000e+01 -2.073031806945800781e+01 -2.291537821292877197e-03 7.153656005859375000e+00 2.145409345626831055e+00 -2.557394504547119141e-01
1.456000000000000000e+03 7.700792694091796875e+01 -2.197768592834472656e+01 -1.323224138468503952e-02 7.359358310699462891e+00 2.203837871551513672e+00 -3.843165338039398193e-01
1.457000000000000000e+03 7.650987243652343750e+01 2.838640975952148438e+01 -2.474600076675415039e-02 8.743400573730468750e+00 2.615596294403076172e+00 1.384391635656356812e-01
1.458000000000000000e+03 7.564463806152343750e+01 -1.660723304748535156e+01 4.613291472196578979e-02 6.964437007904052734e+00 2.103170871734619141e+00 -5.002856850624084473e-01
1.459000000000000000e+03 7.548996734619140625e+01 -9.505672454833984375e+00 1.685398966073989868e-01 6.543132305145263672e+00 2.013501644134521484e+00 -2.066902816295623779e-01
1.460000000000000000e+03 7.685137176513671875e+01 -1.377609443664550781e+01 5.147614702582359314e-02 6.560193538665771484e+00 1.983500838279724121e+00 -3.263227641582489014e-01
1.461000000000000000e+03 7.553693389892578125e+01 -2.409352540969848633e+00 1.499007642269134521e-01 6.575506687164306641e+00 2.017622232437133789e+00 2.730981409549713135e-01
1.462000000000000000e+03 7.677127075195312500e+01 -8.104279518127441406e+00 9.517721086740493774e-02 6.267609119415283203e+00 1.908835887908935547e+00 -8.532029390335083008e-02
1.463000000000000000e+03 7.808036041259765625e+01 5.735502243041992188e+00 5.324666388332843781e-03 6.928109645843505859e+00 2.080030202865600586e+00 2.840188443660736084e-01
1.464000000000000000e+03 7.681837463378906250e+01 3.041771173477172852e+00 3.553376346826553345e-02 6.775883674621582031e+00 2.043425321578979492e+00 3.967459499835968018e-01
1.465000000000000000e+03 7.620768737792968750e+01 3.435660934448242188e+01 -2.161712571978569031e-02 8.843868255615234375e+00 2.646675348281860352e+00 6.729889661073684692e-02
1.466000000000000000e+03 7.807270812988281250e+01 7.125210285186767578e+00 2.981926663778722286e-04 7.106968879699707031e+00 2.132179975509643555e+00 2.880884110927581787e-01
1.467000000000000000e+03 7.680086517333984375e+01 5.809665203094482422e+00 1.085256598889827728e-02 7.064607620239257812e+00 2.122637987136840820e+00 4.344462752342224121e-01
1.468000000000000000e+03 7.681768035888671875e+01 -2.498865365982055664e+00 8.234630525112152100e-02 6.345995426177978516e+00 1.928502559661865234e+00 2.076465487480163574e-01
1.469000000000000000e+03 7.679326629638671875e+01 -9.521735191345214844e+00 9.007410705089569092e-02 6.304946899414062500e+00 1.918506264686584473e+00 -1.581829488277435303e-01
1.470000000000000000e+03 7.690055847167968750e+01 -1.657342338562011719e+01 2.583009190857410431e-02 6.808142662048339844e+00 2.050191879272460938e+00 -3.840132951736450195e-01
1.471000000000000000e+03 7.659339904785156250e+01 3.331452560424804688e+01 -1.722392812371253967e-02 8.896062850952148438e+00 2.663651704788208008e+00 6.624934077262878418e-02
1.472000000000000000e+03 7.665952301025390625e+01 3.092067337036132812e+01 -3.540515154600143433e-02 8.842664718627929688e+00 2.642178058624267578e+00 9.641061723232269287e-02
1.473000000000000000e+03 7.647317504882812500e+01 1.853663825988769531e+01 -3.625314682722091675e-02 8.256730079650878906e+00 2.466143131256103516e+00 3.079827725887298584e-01
1.474000000000000000e+03 7.674568176269531250e+01 9.967153549194335938e+00 -1.700917072594165802e-02 7.512994766235351562e+00 2.248795747756958008e+00 4.296941161155700684e-01
1.475000000000000000e+03 7.811933898925781250e+01 -1.381073760986328125e+01 2.001459896564483643e-02 6.350389003753662109e+00 1.911121129989624023e+00 -2.125289887189865112e-01
1.476000000000000000e+03 7.687496185302734375e+01 -1.517523097991943359e+01 3.802323713898658752e-02 6.679265975952148438e+00 2.015186786651611328e+00 -3.602086603641510010e-01
1.477000000000000000e+03 7.807399749755859375e+01 -6.795864105224609375e+00 3.880256786942481995e-02 5.965905666351318359e+00 1.801412463188171387e+00 -9.847733192145824432e-03
1.478000000000000000e+03 7.809648132324218750e+01 1.570748209953308105e+00 1.964554749429225922e-02 6.430046081542968750e+00 1.934907436370849609e+00 2.365113645792007446e-01
1.479000000000000000e+03 7.682756042480468750e+01 -1.104482054710388184e+00 7.248827815055847168e-02 6.426032543182373047e+00 1.949556231498718262e+00 2.678141593933105469e-01
1.480000000000000000e+03 7.681027984619140625e+01 4.426077365875244141e+00 2.333009056746959686e-02 6.917386054992675781e+00 2.082214832305908203e+00 4.203897118568420410e-01
1.481000000000000000e+03 7.680020904541015625e+01 -3.896147966384887695e+00 9.379398822784423828e-02 6.288824081420898438e+00 1.914785385131835938e+00 1.394318193197250366e-01
1.482000000000000000e+03 7.677680206298828125e+01 -5.302730560302734375e+00 9.703867137432098389e-02 6.257023334503173828e+00 1.906218647956848145e+00 6.368514895439147949e-02
1.483000000000000000e+03 7.683168792724609375e+01 -1.237035274505615234e+01 6.354895234107971191e-02 6.458162307739257812e+00 1.956513404846191406e+00 -2.810147702693939209e-01
1.484000000000000000e+03 7.681437683105468750e+01 -1.094981002807617188e+01 8.015003055334091187e-02 6.371793746948242188e+00 1.935583114624023438e+00 -2.271205633878707886e-01
1.485000000000000000e+03 7.699754333496093750e+01 -2.065552520751953125e+01 -6.915249861776828766e-03 7.221838951110839844e+00 2.164477109909057617e+00 -3.933489024639129639e-01
1.486000000000000000e+03 7.693166351318359375e+01 -1.795578956604003906e+01 1.267734263092279434e-02 6.945278167724609375e+00 2.087386608123779297e+00 -3.966182768344879150e-01
1.487000000000000000e+03 7.569292449951171875e+01 -1.798924827575683594e+01 2.172796241939067841e-02 7.076870918273925781e+00 2.129579544067382812e+00 -5.142040848731994629e-01
1.488000000000000000e+03 7.491793632507324219e+00 1.312440204620361328e+01 -3.318200120702385902e-03 8.405758067965507507e-03 1.526267384178936481e-03 8.279620669782161713e-03
1.489000000000000000e+03 1.147400569915771484e+01 8.070926666259765625e+00 -8.787712431512773037e-04 -2.515976317226886749e-03 -1.018424285575747490e-03 -1.562290592119097710e-03
1.490000000000000000e+03 1.297058582305908203e+01 7.323155403137207031e+00 -1.962554641067981720e-03 -1.413141726516187191e-03 -1.012708875350654125e-03 -1.453841105103492737e-03
1.491000000000000000e+03 1.911459159851074219e+01 1.410175323486328125e+01 -5.787204504013061523e-01 -9.930239915847778320e-01 -4.715233147144317627e-01 5.227181911468505859e-01
1.492000000000000000e+03 1.881464958190917969e+00 2.730344200134277344e+01 -1.826110994443297386e-03 -4.094396233558654785e-01 -1.233797222375869751e-01 1.505666971206665039e-01
1.493000000000000000e+03 3.837536096572875977e+00 2.974507904052734375e+01 2.937624417245388031e-02 -5.422002673149108887e-01 -1.538472026586532593e-01 2.417791187763214111e-01
1.494000000000000000e+03 1.772936105728149414e+00 2.592841720581054688e+01 -1.643056748434901237e-03 -3.165513575077056885e-01 -9.545832127332687378e-02 1.384652704000473022e-01
1.495000000000000000e+03 3.090247631072998047e+00 2.696345901489257812e+01 2.152684610337018967e-04 -4.003615677356719971e-01 -1.200438961386680603e-01 2.230750918388366699e-01
1.496000000000000000e+03 7.337733745574951172e+00 2.794952392578125000e+01 5.653437227010726929e-02 -4.844608008861541748e-01 -1.283779293298721313e-01 3.830545246601104736e-01
1.497000000000000000e+03 3.969114780426025391e+00 3.134264755249023438e+01 4.016022756695747375e-02 -5.997226238250732422e-01 -1.678687185049057007e-01 2.216584384441375732e-01
1.498000000000000000e+03 3.403249979019165039e+00 2.830116462707519531e+01 1.045876927673816681e-02 -4.705927968025207520e-01 -1.380402147769927979e-01 2.370336651802062988e-01
1.499000000000000000e+03 3.642907381057739258e+00 3.434591293334960938e+01 5.427986383438110352e-02 -7.230195999145507812e-01 -2.006219178438186646e-01 1.496872752904891968e-01
1.500000000000000000e+03 3.760374784469604492e+00 3.291709899902343750e+01 4.865369945764541626e-02 -6.695616245269775391e-01 -1.862723678350448608e-01 1.881558299064636230e-01
1.501000000000000000e+03 3.500564575195312500e+00 -3.557332229614257812e+01 5.985764786601066589e-02 -8.094803094863891602e-01 -2.248867899179458618e-01 -1.125852838158607483e-01
1.502000000000000000e+03 3.999562025070190430e+00 -3.440235900878906250e+01 5.975783988833427429e-02 -7.217789888381958008e-01 -1.986063420772552490e-01 -1.611403226852416992e-01
1.503000000000000000e+03 3.630230426788330078e+00 -3.019566535949707031e+01 3.114056028425693512e-02 -6.011631488800048828e-01 -1.710067689418792725e-01 -2.192798405885696411e-01
1.504000000000000000e+03 2.077856540679931641e+00 -2.895017433166503906e+01 6.281405687332153320e-03 -5.753496289253234863e-01 -1.707204729318618774e-01 -1.530380398035049438e-01
1.505000000000000000e+03 4.676729202270507812e+00 -2.745214080810546875e+01 3.033188171684741974e-02 -4.825560450553894043e-01 -1.356672495603561401e-01 -2.974343001842498779e-01
1.506000000000000000e+03 2.977014541625976562e+00 2.303336334228515625e+01 -6.193033605813980103e-02 -1.690676808357238770e-01 -6.929939985275268555e-02 1.670908629894256592e-01
1.507000000000000000e+03 1.589351773262023926e+00 -1.342416954040527344e+01 2.060717670246958733e-03 3.833854338154196739e-03 1.768371672369539738e-03 7.190871518105268478e-03
1.508000000000000000e+03 1.726120233535766602e+00 2.042004966735839844e+01 -2.027698792517185211e-02 -2.159806713461875916e-02 -1.256251707673072815e-02 3.060548193752765656e-02
1.509000000000000000e+03 1.885216712951660156e+00 1.897456359863281250e+01 -1.568833738565444946e-02 -8.633515797555446625e-03 -7.296555675566196442e-03 1.128246635198593140e-02
1.510000000000000000e+03 5.533874034881591797e+00 1.826273155212402344e+01 -8.994786441326141357e-02 -4.238690808415412903e-02 -3.970043361186981201e-02 2.746482752263545990e-02
1.511000000000000000e+03 1.783677816390991211e+00 -1.891556358337402344e+01 -3.070277534425258636e-02 -1.404130272567272186e-02 -1.342322304844856262e-02 -2.022874541580677032e-02
1.512000000000000000e+03 3.579195022583007812e+00 -1.787368202209472656e+01 -5.958179384469985962e-02 -4.154218733310699463e-02 -3.033719398081302643e-02 -5.300404038280248642e-03
1.513000000000000000e+03 5.447055339813232422e+00 1.338941001892089844e+01 5.965568590909242630e-03 -1.244876254349946976e-02 -1.944958232343196869e-03 5.167520605027675629e-03
1.514000000000000000e+03 1.777007222175598145e+00 -2.177737808227539062e+01 -1.969879865646362305e-02 -1.184718608856201172e-01 -4.145119711756706238e-02 -9.368082880973815918e-02
1.515000000000000000e+03 6.818401336669921875e+00 -1.990822029113769531e+01 -2.862055301666259766e-01 -1.249954774975776672e-01 -1.233602985739707947e-01 -2.830636799335479736e-01
1.516000000000000000e+03 3.952450037002563477e+00 5.215349674224853516e+00 1.231437199749052525e-03 9.914486145135015249e-05 3.991746052633970976e-04 -1.287427130591822788e-05
1.517000000000000000e+03 2.645798206329345703e+00 7.653609752655029297e+00 -4.773561668116599321e-04 8.916930528357625008e-05 -1.164560599136166275e-04 -4.220285045448690653e-04
1.518000000000000000e+03 4.520959854125976562e+00 1.455912208557128906e+01 1.235974580049514771e-02 -1.879176311194896698e-02 -1.929605263285338879e-03 -1.623764284886419773e-03
1.519000000000000000e+03 1.867366313934326172e+00 1.746636390686035156e+01 -8.071472868323326111e-03 4.206309095025062561e-03 -1.159549225121736526e-03 -7.578174117952585220e-03
1.520000000000000000e+03 3.449999570846557617e+00 1.994336509704589844e+01 -6.538295000791549683e-02 -6.299152225255966187e-02 -3.851234167814254761e-02 6.021475791931152344e-02
1.521000000000000000e+03 2.653887748718261719e+00 8.946106910705566406e+00 2.191697014495730400e-03 8.097377576632425189e-05 6.818012334406375885e-04 -9.994568536058068275e-04
1.522000000000000000e+03 4.811391353607177734e+00 -4.322567462921142578e+00 -3.040936098841484636e-05 3.024928446393460035e-04 8.162504673236981034e-05 3.672231105156242847e-04
1.523000000000000000e+03 2.791805744171142578e+00 -4.541112422943115234e+00 -3.960032190661877394e-04 2.928788599092513323e-04 -3.093730265391059220e-05 -2.120760327670723200e-04
1.524000000000000000e+03 1.958757877349853516e+00 -4.164183616638183594e+00 3.686804557219147682e-04 -3.722153487615287304e-04 -1.060470822267234325e-06 -1.341510942438617349e-04
1.525000000000000000e+03 2.711373567581176758e+00 -1.581294059753417969e+01 2.905449829995632172e-03 -1.331115886569023132e-02 -3.121712710708379745e-03 1.205207128077745438e-02
1.526000000000000000e+03 7.617259979248046875e+00 -9.248246192932128906e+00 -1.575895730638876557e-04 1.988540170714259148e-03 5.492851487360894680e-04 -9.311272879131138325e-04
1.527000000000000000e+03 3.444009065628051758e+00 -2.883122062683105469e+01 2.720064483582973480e-02 -5.443519949913024902e-01 -1.551454067230224609e-01 -2.281947880983352661e-01
1.528000000000000000e+03 4.428572654724121094e+00 -3.765645217895507812e+01 6.002401188015937805e-02 -8.153021335601806641e-01 -2.265834361314773560e-01 -1.196385845541954041e-01
1.529000000000000000e+03 2.837296724319458008e+00 -7.952093124389648438e+00 9.749578894115984440e-04 -3.000255674123764038e-04 2.024796995101496577e-04 5.702378111891448498e-04
1.530000000000000000e+03 2.727607250213623047e+00 -3.457959365844726562e+01 3.142299875617027283e-02 -8.364797234535217285e-01 -2.415170222520828247e-01 -1.066272780299186707e-01
1.531000000000000000e+03 5.454767704010009766e+00 -3.475974273681640625e+01 9.668976068496704102e-02 -6.659477353096008301e-01 -1.707773953676223755e-01 -1.825031936168670654e-01
1.532000000000000000e+03 4.043368816375732422e+00 -3.307386398315429688e+01 4.643663391470909119e-02 -6.967813968658447266e-01 -1.951034367084503174e-01 -1.816982328891754150e-01
1.533000000000000000e+03 2.752238512039184570e+00 -2.023641014099121094e+01 -5.980741232633590698e-02 -8.627188950777053833e-02 -4.382378980517387390e-02 -9.147104620933532715e-02
1.534000000000000000e+03 1.882014751434326172e+00 -2.323728179931640625e+01 -1.836583949625492096e-02 -2.036755084991455078e-01 -6.661240756511688232e-02 -1.290083378553390503e-01
1.535000000000000000e+03 3.255276918411254883e+00 -2.614203643798828125e+01 2.218702109530568123e-03 -4.091239273548126221e-01 -1.220715716481208801e-01 -2.362903952598571777e-01
1.536000000000000000e+03 6.091672897338867188e+00 -2.530645561218261719e+01 -1.813899353146553040e-02 -4.169517755508422852e-01 -1.305272281169891357e-01 -3.644589781761169434e-01
1.537000000000000000e+03 2.635362863540649414e+00 -1.461216449737548828e+01 5.768988747149705887e-03 -8.793250657618045807e-03 -9.072785614989697933e-04 1.110538002103567123e-02
1.538000000000000000e+03 2.648175716400146484e+00 -1.343520259857177734e+01 6.209111772477626801e-03 -3.241889877244830132e-03 8.901665569283068180e-04 6.987255066633224487e-03
1.539000000000000000e+03 5.942800521850585938e+00 -9.933983802795410156e+00 4.465761885512620211e-04 1.525089144706726074e-03 5.914996145293116570e-04 -6.443248712457716465e-04
1.540000000000000000e+03 2.737261056900024414e+00 1.022177505493164062e+01 3.755483485292643309e-04 1.946144766407087445e-04 1.710488431854173541e-04 -1.978248590603470802e-03
1.541000000000000000e+03 3.275414943695068359e+00 1.437885093688964844e+01 8.833834901452064514e-03 -1.208780333399772644e-02 -9.761903202161192894e-04 -7.711471058428287506e-03
1.542000000000000000e+03 6.841393947601318359e+00 1.667208099365234375e+01 -9.795452468097209930e-03 -1.327499281615018845e-02 -6.921133492141962051e-03 1.297341659665107727e-02
1.543000000000000000e+03 5.607103347778320312e+00 1.672950363159179688e+01 -2.037188597023487091e-02 -3.487374261021614075e-02 -1.657368801534175873e-02 9.855088777840137482e-03
1.544000000000000000e+03 4.322154521942138672e+00 1.702944564819335938e+01 -2.112287096679210663e-02 -4.223006591200828552e-02 -1.900588162243366241e-02 3.391096601262688637e-03
1.545000000000000000e+03 5.345929145812988281e+00 1.537509441375732422e+01 3.099377499893307686e-03 -3.119297325611114502e-02 -8.428078144788742065e-03 5.675578489899635315e-03
1.546000000000000000e+03 7.460190773010253906e+00 1.510912036895751953e+01 8.344981470145285130e-04 1.773351430892944336e-02 5.570403765887022018e-03 2.263864874839782715e-02
1.547000000000000000e+03 4.152384281158447266e+00 -9.281967163085937500e+00 2.091243630275130272e-03 -1.457552774809300900e-03 1.901072828331962228e-04 3.657698398455977440e-04
1.548000000000000000e+03 9.267256736755371094e+00 -7.072520256042480469e+00 -8.299969522340688854e-06 9.207008988596498966e-04 2.737202739808708429e-04 -3.356800007168203592e-04
1.549000000000000000e+03 8.378480911254882812e+00 -8.089385032653808594e+00 3.615352325141429901e-04 -1.161151798442006111e-03 -2.398849901510402560e-04 3.277696669101715088e-04
1.550000000000000000e+03 1.197278881072998047e+01 7.064629554748535156e+00 1.192581607028841972e-03 2.010577358305454254e-03 9.609477128833532333e-04 1.538577140308916569e-03
1.551000000000000000e+03 2.146675491333007812e+01 4.429145336151123047e+00 -1.501085758209228516e-01 -6.521568894386291504e-01 -2.406796514987945557e-01 4.664871394634246826e-01
1.552000000000000000e+03 1.609005928039550781e+01 1.911305999755859375e+01 -4.490296542644500732e-01 -9.262421727180480957e-01 -4.125815629959106445e-01 4.328173100948333740e-01
1.553000000000000000e+03 2.219113922119140625e+01 7.254737615585327148e-01 -1.082632914185523987e-01 -3.673290014266967773e-01 -1.426776796579360962e-01 4.180432856082916260e-01
1.554000000000000000e+03 2.320141220092773438e+01 4.265665054321289062e+00 -1.695910841226577759e-01 -4.219563901424407959e-01 -1.774642467498779297e-01 5.310109257698059082e-01
1.555000000000000000e+03 1.907238769531250000e+01 1.756207466125488281e+01 -4.274011850357055664e-01 -6.793842911720275879e-01 -3.320356309413909912e-01 2.986437678337097168e-01
1.556000000000000000e+03 1.943595504760742188e+01 1.260709190368652344e+01 -5.105673074722290039e-01 -1.078081965446472168e+00 -4.765947759151458740e-01 5.630759596824645996e-01
1.557000000000000000e+03 1.707832145690917969e+01 -1.478265380859375000e+01 -5.898215770721435547e-01 -3.040597438812255859e-01 -2.681643962860107422e-01 -5.080996155738830566e-01
1.558000000000000000e+03 1.799964332580566406e+01 -1.374391460418701172e+01 -5.912551283836364746e-01 -2.067681849002838135e-01 -2.394069880247116089e-01 -5.104244947433471680e-01
1.559000000000000000e+03 1.532184028625488281e+01 -1.689590454101562500e+01 -5.852389931678771973e-01 -4.330533444881439209e-01 -3.054876923561096191e-01 -5.052605271339416504e-01
1.560000000000000000e+03 2.040465927124023438e+01 8.472641944885253906e+00 -3.094083368778228760e-01 -1.012895703315734863e+00 -3.966912031173706055e-01 5.201435685157775879e-01
1.561000000000000000e+03 2.098417091369628906e+01 1.154181480407714844e+01 -4.428740739822387695e-01 -7.690994143486022949e-01 -3.635920286178588867e-01 4.773487448692321777e-01
1.562000000000000000e+03 1.082732963562011719e+01 -1.970621299743652344e+01 -3.572121262550354004e-01 -6.426112055778503418e-01 -2.999469935894012451e-01 -4.435265660285949707e-01
1.563000000000000000e+03 1.362544345855712891e+01 -2.006886482238769531e+01 -3.278333246707916260e-01 -5.061445236206054688e-01 -2.501933574676513672e-01 -4.075694978237152100e-01
1.564000000000000000e+03 1.235118484497070312e+01 2.206686019897460938e+01 -1.895053088665008545e-01 -7.387059926986694336e-01 -2.784633934497833252e-01 5.187100768089294434e-01
1.565000000000000000e+03 1.120875644683837891e+01 2.053598022460937500e+01 -4.792730808258056641e-01 -6.582494974136352539e-01 -3.412567675113677979e-01 5.798545479774475098e-01
1.566000000000000000e+03 5.341434955596923828e+00 -9.086973190307617188e+00 7.802370237186551094e-04 5.556899704970419407e-04 4.007781099062412977e-04 -1.622104435227811337e-03
1.567000000000000000e+03 5.303042411804199219e+00 -1.100834941864013672e+01 3.780703060328960419e-03 -3.191726515069603920e-03 1.766929635778069496e-04 -3.379883943125605583e-03
1.568000000000000000e+03 5.057403564453125000e+00 4.026327514648437500e+01 5.222757905721664429e-02 -7.590457201004028320e-01 -2.120454460382461548e-01 6.948510557413101196e-02
1.569000000000000000e+03 4.882898330688476562e+01 -8.487459182739257812e+00 2.818667888641357422e+00 6.470588207244873047e+00 2.786776781082153320e+00 5.532081127166748047e+00
1.570000000000000000e+03 4.887533569335937500e+01 -8.829848289489746094e+00 2.236433744430541992e+00 7.036521911621093750e+00 2.781886577606201172e+00 5.430350303649902344e+00
1.571000000000000000e+03 4.876969146728515625e+01 -4.439638614654541016e+00 3.108960390090942383e+00 5.983008861541748047e+00 2.727590799331665039e+00 -5.402710914611816406e+00
1.572000000000000000e+03 4.942843246459960938e+01 -4.288006782531738281e+00 2.343086957931518555e+00 1.064928722381591797e+01 3.897712230682373047e+00 -6.112841129302978516e+00
1.573000000000000000e+03 4.961215209960937500e+01 -8.807193756103515625e+00 1.481700301170349121e+00 1.167489242553710938e+01 3.946977853775024414e+00 5.530519485473632812e+00
1.574000000000000000e+03 5.014377593994140625e+01 -4.175488948822021484e+00 1.157232284545898438e+00 1.515285301208496094e+01 4.893025398254394531e+00 -4.526624679565429688e+00
1.575000000000000000e+03 4.749377441406250000e+01 -4.548112869262695312e+00 2.055593729019165039e+00 1.629993200302124023e+00 1.105676054954528809e+00 -2.607478380203247070e+00
1.576000000000000000e+03 5.211726760864257812e+01 -6.450047492980957031e+00 1.011406135559082031e+01 1.510528469085693359e+01 7.565804004669189453e+00 -1.786220520734786987e-01
1.577000000000000000e+03 5.153485870361328125e+01 -7.965270519256591797e+00 4.201092243194580078e+00 1.827146530151367188e+01 6.741766929626464844e+00 -1.656271934509277344e+00
1.578000000000000000e+03 5.257366180419921875e+01 -5.809974193572998047e+00 8.236507415771484375e+00 1.406175804138183594e+01 6.689479827880859375e+00 1.324651002883911133e+00
1.579000000000000000e+03 5.221601486206054688e+01 -5.346927165985107422e+00 7.128261089324951172e+00 1.543344974517822266e+01 6.768513202667236328e+00 2.069964170455932617e+00
1.580000000000000000e+03 5.098139190673828125e+01 -8.305203437805175781e+00 1.777369260787963867e+00 1.864567756652832031e+01 6.126914024353027344e+00 7.965022921562194824e-01
1.581000000000000000e+03 5.030150222778320312e+01 -8.495281219482421875e+00 1.004134178161621094e+00 1.627768516540527344e+01 5.184545993804931641e+00 4.023822784423828125e+00
1.582000000000000000e+03 4.605294036865234375e+01 -8.882863044738769531e+00 6.568843722343444824e-01 9.925768375396728516e-01 4.948383569717407227e-01 1.597925186157226562e+00
1.583000000000000000e+03 4.611006164550781250e+01 -9.518131256103515625e+00 1.062264680862426758e+00 1.579765200614929199e+00 7.926089763641357422e-01 2.109629392623901367e+00
1.584000000000000000e+03 4.647397232055664062e+01 -4.119439601898193359e+00 1.179253816604614258e+00 1.048578619956970215e+00 6.683497428894042969e-01 -1.828990459442138672e+00
1.585000000000000000e+03 4.467281723022460938e+01 -2.827062606811523438e+00 7.438155412673950195e-01 9.625973701477050781e-01 5.119238495826721191e-01 -1.361910820007324219e+00
1.586000000000000000e+03 4.546006011962890625e+01 -3.269952058792114258e+00 9.721571803092956543e-01 1.124194383621215820e+00 6.289054751396179199e-01 -1.630762219429016113e+00
1.587000000000000000e+03 4.191323089599609375e+01 -2.866913080215454102e+00 -2.337496429681777954e-01 3.144968152046203613e-01 2.422415465116500854e-02 -3.604308366775512695e-01
1.588000000000000000e+03 2.240782356262207031e+01 -3.194463253021240234e+00 -1.541419327259063721e-01 -1.197382062673568726e-01 -8.216404169797897339e-02 2.377416640520095825e-01
1.589000000000000000e+03 2.220692825317382812e+01 3.372258186340332031e+00 -1.402390301227569580e-01 -5.113033652305603027e-01 -1.954627186059951782e-01 4.812459349632263184e-01
1.590000000000000000e+03 4.619269943237304688e+01 -3.626123905181884766e+00 1.243730187416076660e+00 1.318598866462707520e+00 7.686986923217773438e-01 -1.988343000411987305e+00
1.591000000000000000e+03 2.380250549316406250e+01 -2.530834197998046875e+00 -2.246573716402053833e-01 -1.291826516389846802e-01 -1.061520129442214966e-01 3.469687104225158691e-01
1.592000000000000000e+03 2.002391624450683594e+01 -1.464330434799194336e+00 -3.331387042999267578e-02 -2.508127987384796143e-01 -8.523800224065780640e-02 1.612024009227752686e-01
1.593000000000000000e+03 2.455502700805664062e+01 -2.610611438751220703e+00 -2.709010243415832520e-01 -1.080610305070877075e-01 -1.136886179447174072e-01 3.692416250705718994e-01
1.594000000000000000e+03 2.671718406677246094e+01 -2.906513929367065430e+00 -4.227455854415893555e-01 -4.485139995813369751e-02 -1.402790993452072144e-01 4.058935344219207764e-01
1.595000000000000000e+03 8.547910690307617188e+00 4.186626911163330078e+00 2.844052214641124010e-04 1.420595566742122173e-03 5.115002277307212353e-04 6.011275108903646469e-04
1.596000000000000000e+03 2.741336631774902344e+01 -2.940488338470458984e+00 -4.707793891429901123e-01 -2.957433648407459259e-02 -1.501061171293258667e-01 4.128980040550231934e-01
1.597000000000000000e+03 9.608101844787597656e+00 -3.096075057983398438e+00 -4.775098568643443286e-05 2.161093871109187603e-04 5.050752224633470178e-05 5.533865769393742085e-04
1.598000000000000000e+03 8.984682083129882812e+00 -3.242180824279785156e+00 -1.882469587144441903e-05 -1.471693540224805474e-04 -4.979821824235841632e-05 -3.542439080774784088e-04
1.599000000000000000e+03 7.853079319000244141e+00 4.158172607421875000e+00 -4.070078375661978498e-06 -1.307682367041707039e-03 -3.935257263947278261e-04 -4.680790589191019535e-04
1.600000000000000000e+03 7.668728351593017578e+00 5.015625000000000000e+00 1.206696615554392338e-04 1.731000258587300777e-03 5.555009702220559120e-04 3.220630751457065344e-04
1.601000000000000000e+03 3.758682966232299805e+00 6.314716815948486328e+00 -5.918404785916209221e-04 -1.642715506022796035e-04 -2.268336102133616805e-04 -1.452175347367301583e-04
1.602000000000000000e+03 2.455964326858520508e+00 4.891195774078369141e+00 -5.210518138483166695e-04 -8.955771045293658972e-05 -1.831828558351844549e-04 7.506101974286139011e-05
1.603000000000000000e+03 1.411056399345397949e+00 4.998482227325439453e+00 3.789355396293103695e-04 7.611856563016772270e-05 1.365162315778434277e-04 1.022567012114450336e-04
1.604000000000000000e+03 3.024579238891601562e+01 -2.959165096282958984e+00 -6.467705965042114258e-01 1.940027251839637756e-02 -1.882110834121704102e-01 4.162208735942840576e-01
1.605000000000000000e+03 2.609211730957031250e+01 -2.237489938735961914e+00 -3.451646268367767334e-01 -7.379303872585296631e-02 -1.256873011589050293e-01 4.356428682804107666e-01
1.606000000000000000e+03 2.450458335876464844e+01 -3.319171428680419922e+00 -2.890169918537139893e-01 -8.431731909513473511e-02 -1.120002940297126770e-01 3.225035965442657471e-01
1.607000000000000000e+03 2.305687332153320312e+01 -2.507502317428588867e+00 -1.781793236732482910e-01 -1.503008455038070679e-01 -9.854404628276824951e-02 3.140183389186859131e-01
1.608000000000000000e+03 2.882027435302734375e+01 -1.745321154594421387e+00 -4.393229782581329346e-01 -3.542578779160976410e-03 -1.328596621751785278e-01 4.810420274734497070e-01
1.609000000000000000e+03 2.738160514831542969e+01 -3.585154294967651367e+00 -5.148174762725830078e-01 -2.301682159304618835e-02 -1.613502800464630127e-01 3.669522702693939209e-01
1.610000000000000000e+03 3.022044944763183594e+01 -2.290572643280029297e+00 -5.587503910064697266e-01 2.500221692025661469e-02 -1.601244509220123291e-01 4.487041234970092773e-01
1.611000000000000000e+03 7.506639957427978516e+00 -3.336130619049072266e+00 -2.838225736923050135e-05 3.305042264400981367e-05 1.400449150423810352e-06 -3.442392335273325443e-04
1.612000000000000000e+03 1.072087383270263672e+01 -5.214986324310302734e+00 5.974632222205400467e-05 4.558544605970382690e-04 1.546802377561107278e-04 -3.053814871236681938e-04
1.613000000000000000e+03 3.238570785522460938e+01 -2.909241676330566406e+00 -7.476749420166015625e-01 4.354846850037574768e-02 -2.112379521131515503e-01 3.920326530933380127e-01
1.614000000000000000e+03 2.953535270690917969e+01 -2.973199844360351562e+00 -6.070954203605651855e-01 9.877651929855346680e-03 -1.791653335094451904e-01 4.192200005054473877e-01
1.615000000000000000e+03 3.025172424316406250e+01 -3.625377178192138672e+00 -7.388619184494018555e-01 1.563764363527297974e-02 -2.169672846794128418e-01 3.726941645145416260e-01
1.616000000000000000e+03 4.245480346679687500e+01 -1.020239448547363281e+01 -3.210145235061645508e-01 4.265745580196380615e-01 3.166801109910011292e-02 6.033444404602050781e-01
1.617000000000000000e+03 4.380907821655273438e+01 -9.955080986022949219e+00 3.877281025052070618e-02 6.296644806861877441e-01 2.005311846733093262e-01 9.572103619575500488e-01
1.618000000000000000e+03 4.173147964477539062e+01 -1.029607963562011719e+01 -4.799784421920776367e-01 3.552918732166290283e-01 -3.740596398711204529e-02 4.521539807319641113e-01
1.619000000000000000e+03 4.023759841918945312e+01 -1.043164157867431641e+01 -7.408019304275512695e-01 2.341739982366561890e-01 -1.519883722066879272e-01 2.110729366540908813e-01
1.620000000000000000e+03 3.453295898437500000e+01 -2.208871841430664062e+00 -6.404209733009338379e-01 9.356098622083663940e-02 -1.640579998493194580e-01 3.398732841014862061e-01
1.621000000000000000e+03 3.315060806274414062e+01 -3.577822208404541016e+00 -9.256644845008850098e-01 3.763533011078834534e-02 -2.664087414741516113e-01 3.437865674495697021e-01
1.622000000000000000e+03 4.442244720458984375e+01 -9.825548171997070312e+00 2.013583630323410034e-01 7.988014817237854004e-01 3.000479340553283691e-01 1.166408181190490723e+00
1.623000000000000000e+03 3.611732864379882812e+01 -3.512607336044311523e+00 -1.029257059097290039e+00 5.692875757813453674e-02 -2.916984856128692627e-01 2.659478187561035156e-01
1.624000000000000000e+03 3.948625183105468750e+01 -1.048742485046386719e+01 -8.421208262443542480e-01 1.904118806123733521e-01 -1.955126821994781494e-01 1.185983344912528992e-01
1.625000000000000000e+03 4.106325912475585938e+01 -1.103817653656005859e+01 -3.012270033359527588e-01 4.320188462734222412e-01 3.923755511641502380e-02 4.872572124004364014e-01
1.626000000000000000e+03 4.098841476440429688e+01 -1.037020683288574219e+01 -6.176137328147888184e-01 2.897594571113586426e-01 -9.835629165172576904e-02 3.213027715682983398e-01
1.627000000000000000e+03 3.941946029663085938e+01 -9.803174018859863281e+00 -1.187316894531250000e+00 1.131209805607795715e-01 -3.222587704658508301e-01 1.401201542466878891e-02
1.628000000000000000e+03 3.798012542724609375e+01 -1.058555793762207031e+01 -9.868835806846618652e-01 1.246870607137680054e-01 -2.586589455604553223e-01 -2.514961734414100647e-02
1.629000000000000000e+03 3.686207962036132812e+01 -3.497028112411499023e+00 -1.031973123550415039e+00 6.420795619487762451e-02 -2.903295457363128662e-01 2.352434098720550537e-01
1.630000000000000000e+03 3.599665451049804688e+01 -2.174305438995361328e+00 -6.100513935089111328e-01 1.207716986536979675e-01 -1.467839032411575317e-01 2.630725800991058350e-01
1.631000000000000000e+03 3.565746688842773438e+01 -9.975680351257324219e+00 -1.371927499771118164e+00 2.981953509151935577e-02 -4.026323854923248291e-01 -1.974918544292449951e-01
1.632000000000000000e+03 3.729298019409179688e+01 -1.134420013427734375e+01 -7.635627388954162598e-01 1.626230180263519287e-01 -1.802819222211837769e-01 -1.340792328119277954e-02
1.633000000000000000e+03 4.201242065429687500e+01 -3.507556915283203125e+00 -6.043089032173156738e-01 1.929963976144790649e-01 -1.233937591314315796e-01 -2.198259234428405762e-01
1.634000000000000000e+03 1.096092510223388672e+01 3.383190870285034180e+00 6.845074240118265152e-04 6.238340283744037151e-04 3.925024357158690691e-04 8.704052306711673737e-04
1.635000000000000000e+03 1.163118171691894531e+01 5.015347957611083984e+00 -7.321641896851360798e-04 -1.394602120853960514e-03 -6.380298873409628868e-04 -1.734447432681918144e-03
1.636000000000000000e+03 3.873421096801757812e+01 -1.053911113739013672e+01 -9.209491610527038574e-01 1.547906547784805298e-01 -2.298475503921508789e-01 4.044739156961441040e-02
1.637000000000000000e+03 3.606481933593750000e+01 -2.845859527587890625e+00 -8.083099722862243652e-01 8.636096864938735962e-02 -2.165846973657608032e-01 2.710742652416229248e-01
1.638000000000000000e+03 3.902746582031250000e+01 -2.799203872680664062e+00 -6.604802608489990234e-01 1.519176959991455078e-01 -1.525687575340270996e-01 5.793333798646926880e-02
1.639000000000000000e+03 3.680598449707031250e+01 -2.828407526016235352e+00 -7.927748560905456543e-01 9.602137655019760132e-02 -2.090260535478591919e-01 2.321600615978240967e-01
1.640000000000000000e+03 3.343216705322265625e+01 -1.077973365783691406e+01 -1.129532337188720703e+00 2.895248308777809143e-02 -3.301739692687988281e-01 -2.654095888137817383e-01
1.641000000000000000e+03 3.419489288330078125e+01 -1.075533580780029297e+01 -1.128397703170776367e+00 3.879254683852195740e-02 -3.268815279006958008e-01 -2.377922832965850830e-01
1.642000000000000000e+03 4.494881820678710938e+01 -9.246139526367187500e+00 1.136381700634956360e-01 7.167513370513916016e-01 2.491168528795242310e-01 1.135050296783447266e+00
1.643000000000000000e+03 4.047690963745117188e+01 -2.816700696945190430e+00 -4.914169609546661377e-01 2.111419141292572021e-01 -8.408250659704208374e-02 -1.141861081123352051e-01
1.644000000000000000e+03 4.119660186767578125e+01 -2.838810920715332031e+00 -3.830617964267730713e-01 2.511489987373352051e-01 -3.957384079694747925e-02 -2.193330228328704834e-01
1.645000000000000000e+03 3.647056579589843750e+01 -1.066351413726806641e+01 -1.074399828910827637e+00 7.971542328596115112e-02 -2.984053194522857666e-01 -1.291278898715972900e-01
1.646000000000000000e+03 2.960404396057128906e+01 -1.085397529602050781e+01 -1.045695543289184570e+00 1.306183636188507080e-02 -3.097901046276092529e-01 -3.721374273300170898e-01
1.647000000000000000e+03 3.037928390502929688e+01 -1.084254932403564453e+01 -1.074452519416809082e+00 1.330453716218471527e-02 -3.183444142341613770e-01 -3.545987308025360107e-01
1.648000000000000000e+03 3.186548423767089844e+01 -1.008171463012695312e+01 -1.311270236968994141e+00 1.601631520316004753e-03 -3.929005861282348633e-01 -2.973064184188842773e-01
1.649000000000000000e+03 3.191513252258300781e+01 -1.082024002075195312e+01 -1.113328814506530762e+00 1.840703375637531281e-02 -3.284765183925628662e-01 -3.132309913635253906e-01
1.650000000000000000e+03 1.077312278747558594e+01 4.979948997497558594e+00 2.656633150763809681e-04 1.825571060180664062e-03 6.273703183978796005e-04 1.369332661852240562e-03
1.651000000000000000e+03 2.725312232971191406e+01 -1.086201095581054688e+01 -9.428626298904418945e-01 1.950714923441410065e-02 -2.770066559314727783e-01 -4.180571734905242920e-01
1.652000000000000000e+03 9.819511413574218750e+00 -4.716038227081298828e+00 2.257024752907454967e-04 -8.094658842310309410e-04 -1.751290255924686790e-04 2.407213905826210976e-04
1.653000000000000000e+03 4.606312274932861328e+00 -3.560228347778320312e+00 -1.362667171633802354e-05 -5.966956814518198371e-05 -2.198887159465812147e-05 -3.842831065412610769e-04
1.654000000000000000e+03 6.232890605926513672e+00 -4.818533897399902344e+00 -1.487717963755130768e-04 2.220625901827588677e-04 2.198723996116314083e-05 -3.433666715864092112e-04
1.655000000000000000e+03 6.865572929382324219e+00 -4.707639694213867188e+00 2.859440282918512821e-04 -1.166469228337518871e-04 5.078913454781286418e-05 4.934552707709372044e-04
1.656000000000000000e+03 8.265359878540039062e+00 -3.330588340759277344e+00 8.126949069264810532e-06 8.078004611888900399e-05 2.667209992068819702e-05 4.266340110916644335e-04
1.657000000000000000e+03 4.084471702575683594e+00 -7.898333072662353516e+00 3.239146026317030191e-04 3.692263271659612656e-04 2.079422702081501484e-04 -4.908884293399751186e-04
1.658000000000000000e+03 3.235051393508911133e+00 -3.953193902969360352e+00 -6.361423584166914225e-05 -1.447646209271624684e-04 -6.251365994103252888e-05 -4.456570313777774572e-04
1.659000000000000000e+03 3.638065576553344727e+00 -5.578314304351806641e+00 -7.169335003709420562e-05 2.005295755225233734e-05 -1.549211810925044119e-05 -4.544234543573111296e-04
1.660000000000000000e+03 2.691600084304809570e+00 -5.543852806091308594e+00 3.615780442487448454e-04 -3.464000837993808091e-05 9.808140748646110296e-05 2.922814746852964163e-04
1.661000000000000000e+03 3.115089035034179688e+01 -1.083191299438476562e+01 -1.096491932868957520e+00 1.631892099976539612e-02 -3.240518867969512939e-01 -3.335811793804168701e-01
1.662000000000000000e+03 2.878591346740722656e+01 -1.012010955810546875e+01 -1.153307437896728516e+00 6.754720816388726234e-04 -3.457895815372467041e-01 -3.515541851520538330e-01
1.663000000000000000e+03 2.327562332153320312e+01 -1.066055679321289062e+01 -7.482323646545410156e-01 5.231254920363426208e-02 -2.087759524583816528e-01 -4.524094164371490479e-01
1.664000000000000000e+03 2.406901741027832031e+01 -1.072537231445312500e+01 -7.881401181221008301e-01 4.842474311590194702e-02 -2.219146043062210083e-01 -4.519574046134948730e-01
1.665000000000000000e+03 2.564745712280273438e+01 -1.005916309356689453e+01 -9.443439841270446777e-01 2.549022808670997620e-02 -2.756561338901519775e-01 -3.904894888401031494e-01
1.666000000000000000e+03 4.332904434204101562e+01 -2.905377149581909180e+00 1.740190535783767700e-01 5.089269876480102539e-01 2.048838287591934204e-01 -7.353748083114624023e-01
1.667000000000000000e+03 4.262163162231445312e+01 -2.891925811767578125e+00 -7.203157246112823486e-02 3.988490998744964600e-01 9.804525971412658691e-02 -5.181828737258911133e-01
1.668000000000000000e+03 2.882536506652832031e+01 -1.086288452148437500e+01 -1.014191746711730957e+00 1.227704901248216629e-02 -3.005744218826293945e-01 -3.894340395927429199e-01
1.669000000000000000e+03 1.172280406951904297e+01 4.168257713317871094e+00 1.039401278831064701e-03 7.425741059705615044e-04 5.345926037989556789e-04 1.295991824008524418e-03
1.670000000000000000e+03 2.804173088073730469e+01 -1.086585044860839844e+01 -9.798028469085693359e-01 1.590472273528575897e-02 -2.891694307327270508e-01 -4.034904539585113525e-01
1.671000000000000000e+03 1.907121467590332031e+01 -1.308040714263916016e+01 -5.899586081504821777e-01 -1.149583533406257629e-01 -2.114750891923904419e-01 -5.098190307617187500e-01
1.672000000000000000e+03 1.878297996520996094e+01 -1.170780086517333984e+01 -5.578381419181823730e-01 -1.319105178117752075e-01 -2.069246023893356323e-01 -4.823227524757385254e-01
1.673000000000000000e+03 2.485919761657714844e+01 -1.078654479980468750e+01 -8.274052143096923828e-01 4.298159480094909668e-02 -2.353270798921585083e-01 -4.468592107295989990e-01
1.674000000000000000e+03 1.872219657897949219e+01 -8.318674087524414062e+00 -2.644548118114471436e-01 -6.965920329093933105e-02 -1.002342030405998230e-01 -2.093252539634704590e-01
1.675000000000000000e+03 2.163358116149902344e+01 -1.062569999694824219e+01 -6.574547886848449707e-01 3.478373587131500244e-02 -1.868013292551040649e-01 -4.511266350746154785e-01
1.676000000000000000e+03 2.246507453918457031e+01 -1.062425136566162109e+01 -7.019899487495422363e-01 4.824426025152206421e-02 -1.961237043142318726e-01 -4.543527066707611084e-01
1.677000000000000000e+03 1.895723342895507812e+01 -1.045948219299316406e+01 -4.895937740802764893e-01 -1.126986742019653320e-01 -1.806877255439758301e-01 -4.187198281288146973e-01
1.678000000000000000e+03 1.919153594970703125e+01 -9.445359230041503906e+00 -4.287621080875396729e-01 -6.978712230920791626e-02 -1.495647728443145752e-01 -3.399854302406311035e-01
1.679000000000000000e+03 1.015251731872558594e+01 1.005954074859619141e+01 -3.908321086782962084e-04 -2.620418090373277664e-03 -9.033750393427908421e-04 -1.082765171304345131e-03
1.680000000000000000e+03 9.991048812866210938e+00 8.561730384826660156e+00 3.818882105406373739e-04 -2.463385695591568947e-03 -6.244492833502590656e-04 -3.890374209731817245e-04
1.681000000000000000e+03 2.962576627731323242e+00 1.152998256683349609e+01 5.665670614689588547e-03 -1.402644673362374306e-03 1.278907759115099907e-03 -3.185920650139451027e-03
1.682000000000000000e+03 6.633116722106933594e+00 1.831296730041503906e+01 -1.363024711608886719e-01 -2.759069576859474182e-02 -4.916794970631599426e-02 3.598773479461669922e-02
1.683000000000000000e+03 3.083677291870117188e+00 1.726232910156250000e+01 -1.498273294419050217e-02 -2.336118556559085846e-02 -1.150317490100860596e-02 -5.059699993580579758e-03
1.684000000000000000e+03 9.956415176391601562e+00 4.998801231384277344e+00 8.078663995547685772e-06 -1.708684838376939297e-03 -5.101818242110311985e-04 -1.007496844977140427e-03
1.685000000000000000e+03 4.141754150390625000e+00 1.106405639648437500e+01 2.639113692566752434e-03 -3.369804937392473221e-03 -2.192073734477162361e-04 -1.159106031991541386e-03
1.686000000000000000e+03 7.432568550109863281e+00 -2.531350135803222656e+01 1.704925321973860264e-03 -4.487491548061370850e-01 -1.341132670640945435e-01 -4.011756479740142822e-01
1.687000000000000000e+03 7.904225826263427734e+00 -2.311021995544433594e+01 -1.081131398677825928e-01 -4.090063273906707764e-01 -1.551358401775360107e-01 -4.439895153045654297e-01
1.688000000000000000e+03 2.851633071899414062e+00 -1.902750015258789062e+01 -5.820463597774505615e-02 -4.037398472428321838e-02 -2.957358770072460175e-02 -5.172874405980110168e-02
1.689000000000000000e+03 6.091039180755615234e+00 -1.859833526611328125e+01 -2.679947316646575928e-01 -3.742261603474617004e-02 -9.162519872188568115e-02 -1.076123416423797607e-01
1.690000000000000000e+03 9.857789039611816406e+00 -3.615717887878417969e+00 2.995382819790393114e-04 -7.539353682659566402e-04 -1.363191258860751987e-04 7.922617078293114901e-05
1.691000000000000000e+03 7.624378204345703125e+00 -2.118263626098632812e+01 -2.729302644729614258e-01 -2.727401256561279297e-01 -1.637011170387268066e-01 -4.175069034099578857e-01
1.692000000000000000e+03 2.176856994628906250e+01 7.551721096038818359e+00 -2.705852091312408447e-01 -6.928369402885437012e-01 -2.890266478061676025e-01 5.094224214553833008e-01
1.693000000000000000e+03 2.105431556701660156e+01 -2.426342815160751343e-01 -6.131944060325622559e-02 -3.496028482913970947e-01 -1.232766807079315186e-01 2.893766164779663086e-01
1.694000000000000000e+03 9.289414405822753906e+00 9.463787078857421875e+00 -2.904217399191111326e-04 3.082083771005272865e-03 8.374986355192959309e-04 5.747585673816502094e-04
1.695000000000000000e+03 1.255321216583251953e+01 5.039678096771240234e+00 1.330147264525294304e-03 7.541878148913383484e-04 6.253005121834576130e-04 1.369356643408536911e-03
1.696000000000000000e+03 2.291454124450683594e+01 -1.091508507728576660e+00 -1.510011404752731323e-01 -2.251490354537963867e-01 -1.128450483083724976e-01 3.804261088371276855e-01
1.697000000000000000e+03 2.117537117004394531e+01 9.049754738807678223e-01 -6.998123228549957275e-02 -4.420018494129180908e-01 -1.535949259996414185e-01 3.442572653293609619e-01
1.698000000000000000e+03 7.609615325927734375e+00 -5.838127136230468750e+00 -2.074438525596633554e-04 9.547063382342457771e-04 2.241787442471832037e-04 2.578396815806627274e-04
1.699000000000000000e+03 8.470487594604492188e+00 1.204625797271728516e+01 1.882197684608399868e-04 1.159570529125630856e-03 4.043370718136429787e-04 -3.453411336522549391e-04
1.700000000000000000e+03 5.840934753417968750e+00 1.138744068145751953e+01 3.135832725092768669e-03 -5.062273237854242325e-03 -5.779321654699742794e-04 3.035023109987378120e-03
1.701000000000000000e+03 1.355438709259033203e+01 2.107198715209960938e+01 -2.851959466934204102e-01 -8.310977220535278320e-01 -3.348881006240844727e-01 4.874781370162963867e-01
1.702000000000000000e+03 7.532049560546875000e+01 1.279711437225341797e+01 -5.442935600876808167e-02 7.796895027160644531e+00 2.322739601135253906e+00 5.144034028053283691e-01
1.703000000000000000e+03 7.555300140380859375e+01 -1.025002837181091309e+00 1.309932768344879150e-01 6.644222259521484375e+00 2.032564640045166016e+00 3.511933684349060059e-01
1.704000000000000000e+03 7.559977722167968750e+01 -1.520348548889160156e+01 7.148919254541397095e-02 6.853228569030761719e+00 2.077415227890014648e+00 -4.688993692398071289e-01
1.705000000000000000e+03 7.423036193847656250e+01 -1.388084220886230469e+01 1.486442536115646362e-01 6.937964439392089844e+00 2.125982761383056641e+00 -5.153041481971740723e-01
1.706000000000000000e+03 7.552546691894531250e+01 -1.095282268524169922e+01 1.418621242046356201e-01 6.594838619232177734e+00 2.021010160446166992e+00 -2.930949926376342773e-01
1.707000000000000000e+03 7.422071838378906250e+01 -1.243728637695312500e+01 1.849852502346038818e-01 6.859366893768310547e+00 2.113305568695068359e+00 -4.433093369007110596e-01
1.708000000000000000e+03 7.676233673095703125e+01 -6.705677986145019531e+00 9.734388440847396851e-02 6.252278327941894531e+00 1.904886603355407715e+00 -1.215968281030654907e-02
1.709000000000000000e+03 7.543032073974609375e+01 -8.057676315307617188e+00 1.766614615917205811e-01 6.511035442352294922e+00 2.006309032440185547e+00 -1.079146638512611389e-01
1.710000000000000000e+03 7.550508880615234375e+01 -3.800845861434936523e+00 1.670623570680618286e-01 6.528856754302978516e+00 2.008775711059570312e+00 1.880394667387008667e-01
1.711000000000000000e+03 7.375032043457031250e+01 3.233667755126953125e+01 -8.278411626815795898e-02 8.438268661499023438e+00 2.506645441055297852e+00 1.397474110126495361e-01
1.712000000000000000e+03 7.540214538574218750e+01 3.351611709594726562e+01 -2.721560187637805939e-02 8.733771324157714844e+00 2.611966848373413086e+00 8.628718554973602295e-02
1.713000000000000000e+03 7.537162017822265625e+01 3.105498123168945312e+01 -5.568126589059829712e-02 8.662884712219238281e+00 2.582160949707031250e+00 1.339944452047348022e-01
1.714000000000000000e+03 7.437879943847656250e+01 -1.671837425231933594e+01 6.519473344087600708e-02 7.116244792938232422e+00 2.154431819915771484e+00 -6.002897620201110840e-01
1.715000000000000000e+03 7.582643127441406250e+01 -2.318736076354980469e+01 -3.479647263884544373e-02 7.519377708435058594e+00 2.245374441146850586e+00 -4.804051220417022705e-01
1.716000000000000000e+03 7.682505035400390625e+01 1.660159707069396973e+00 4.856075718998908997e-02 6.644775390625000000e+00 2.008000850677490234e+00 3.632661998271942139e-01
1.717000000000000000e+03 7.554883575439453125e+01 1.722792506217956543e+00 8.748415857553482056e-02 6.833072185516357422e+00 2.076166868209838867e+00 4.723735451698303223e-01
1.718000000000000000e+03 7.552281188964843750e+01 5.852212905883789062e+00 1.914089173078536987e-02 7.189163684844970703e+00 2.162491321563720703e+00 5.602583289146423340e-01
1.719000000000000000e+03 7.545481109619140625e+01 -5.211724281311035156e+00 1.836619824171066284e-01 6.504576206207275391e+00 2.006471395492553711e+00 9.100712090730667114e-02
1.720000000000000000e+03 7.677251434326171875e+01 8.577838897705078125e+00 -9.226192720234394073e-03 7.364292144775390625e+00 2.206519842147827148e+00 4.375075697898864746e-01
1.721000000000000000e+03 7.551000976562500000e+01 7.227357864379882812e+00 -2.531468926463276148e-04 7.314527511596679688e+00 2.194282293319702148e+00 5.663877725601196289e-01
1.722000000000000000e+03 7.512985992431640625e+01 1.569308471679687500e+01 -6.723064929246902466e-02 8.000599861145019531e+00 2.380010843276977539e+00 4.615195691585540771e-01
1.723000000000000000e+03 7.574845886230468750e+01 -1.933354568481445312e+01 2.821646397933363914e-03 7.189055442810058594e+00 2.157562971115112305e+00 -5.154296755790710449e-01
1.724000000000000000e+03 7.696797943115234375e+01 -1.931843757629394531e+01 2.140917349606752396e-03 7.083560943603515625e+00 2.125710487365722656e+00 -3.982877135276794434e-01
1.725000000000000000e+03 7.580239105224609375e+01 -2.063540840148925781e+01 -1.169224642217159271e-02 7.299056529998779297e+00 2.186209440231323242e+00 -5.085427761077880859e-01
1.726000000000000000e+03 7.554096984863281250e+01 3.099031448364257812e+00 6.415124982595443726e-02 6.945860385894775391e+00 2.103003501892089844e+00 5.146380066871643066e-01
1.727000000000000000e+03 7.555474853515625000e+01 3.512640893459320068e-01 1.098740473389625549e-01 6.731998443603515625e+00 2.052561759948730469e+00 4.173541367053985596e-01
1.728000000000000000e+03 7.425790405273437500e+01 3.136892318725585938e+00 9.822937101125717163e-02 7.099967002868652344e+00 2.159458875656127930e+00 6.160922050476074219e-01
1.729000000000000000e+03 7.519676971435546875e+01 -2.990878486633300781e+01 -8.549243211746215820e-02 7.977625846862792969e+00 2.367640018463134766e+00 -3.603888750076293945e-01
1.730000000000000000e+03 7.462168884277343750e+01 -2.432121849060058594e+01 -6.802995502948760986e-02 7.641058444976806641e+00 2.271908521652221680e+00 -5.493826270103454590e-01
1.731000000000000000e+03 7.649650573730468750e+01 1.708568191528320312e+01 -3.760222345590591431e-02 8.155835151672363281e+00 2.435469865798950195e+00 3.335853517055511475e-01
1.732000000000000000e+03 7.503820037841796875e+01 1.718397521972656250e+01 -7.171832025051116943e-02 8.091102600097656250e+00 2.405815124511718750e+00 4.303973615169525146e-01
1.733000000000000000e+03 7.502745819091796875e+01 2.018360900878906250e+01 -6.840273737907409668e-02 8.250681877136230469e+00 2.454683780670166016e+00 3.572091460227966309e-01
1.734000000000000000e+03 7.356903839111328125e+01 1.722736740112304688e+01 -1.105400025844573975e-01 8.032794952392578125e+00 2.376676321029663086e+00 5.049692392349243164e-01
1.735000000000000000e+03 7.545259857177734375e+01 9.979955673217773438e+00 -3.176192939281463623e-02 7.562235832214355469e+00 2.259142160415649414e+00 5.524458885192871094e-01
1.736000000000000000e+03 7.421820068359375000e+01 8.586027145385742188e+00 -2.671087905764579773e-02 7.511564254760742188e+00 2.245455980300903320e+00 6.662614941596984863e-01
1.737000000000000000e+03 7.511376190185546875e+01 2.161950111389160156e+01 -6.985348463058471680e-02 8.324835777282714844e+00 2.476494789123535156e+00 3.189478516578674316e-01
1.738000000000000000e+03 7.412712097167968750e+01 -2.690514945983886719e+01 -1.009392961859703064e-01 7.801327705383300781e+00 2.310116529464721680e+00 -5.083369016647338867e-01
1.739000000000000000e+03 7.686409759521484375e+01 -2.600859451293945312e+01 -3.136762231588363647e-02 7.750189304351806641e+00 2.315646409988403320e+00 -3.393979668617248535e-01
1.740000000000000000e+03 7.575675201416015625e+01 -2.448793983459472656e+01 -4.663483053445816040e-02 7.627163887023925781e+00 2.274158716201782227e+00 -4.630722999572753906e-01
1.741000000000000000e+03 7.352332305908203125e+01 2.749869155883789062e+01 -7.384618371725082397e-02 8.366487503051757812e+00 2.487792253494262695e+00 2.184361070394515991e-01
1.742000000000000000e+03 7.372608184814453125e+01 2.463324928283691406e+01 -9.226758778095245361e-02 8.308341979980468750e+00 2.464822292327880859e+00 2.929024100303649902e-01
1.743000000000000000e+03 7.647218322753906250e+01 2.703220558166503906e+01 -2.614923566579818726e-02 8.692939758300781250e+00 2.600037097930908203e+00 1.541205346584320068e-01
1.744000000000000000e+03 7.500668334960937500e+01 2.728039169311523438e+01 -5.063044652342796326e-02 8.517970085144042969e+00 2.540201902389526367e+00 1.952924579381942749e-01
1.745000000000000000e+03 7.660612487792968750e+01 2.966726684570312500e+01 -3.574220836162567139e-02 8.796348571777343750e+00 2.628181934356689453e+00 1.183421686291694641e-01
1.746000000000000000e+03 7.500207519531250000e+01 2.872521972656250000e+01 -4.255727678537368774e-02 8.552011489868164062e+00 2.552836179733276367e+00 1.684802770614624023e-01
1.747000000000000000e+03 7.506565856933593750e+01 -3.270331954956054688e+01 -8.028896898031234741e-02 8.099349975585937500e+00 2.405718326568603516e+00 -2.740309238433837891e-01
1.748000000000000000e+03 7.428774261474609375e+01 -3.616823959350585938e+01 -1.369016766548156738e-01 8.130937576293945312e+00 2.398210763931274414e+00 -2.223032563924789429e-01
1.749000000000000000e+03 7.623960113525390625e+01 -3.658399963378906250e+01 -7.867197692394256592e-02 8.376441001892089844e+00 2.489330768585205078e+00 -1.266132593154907227e-01
1.750000000000000000e+03 7.536334991455078125e+01 -2.848482704162597656e+01 -7.029338926076889038e-02 7.898213863372802734e+00 2.348376274108886719e+00 -3.962103426456451416e-01
1.751000000000000000e+03 7.534807586669921875e+01 -3.520201873779296875e+01 -9.617102891206741333e-02 8.208218574523925781e+00 2.433614253997802734e+00 -2.188607454299926758e-01
1.752000000000000000e+03 7.646146392822265625e+01 -3.308340454101562500e+01 -5.374322459101676941e-02 8.211317062377929688e+00 2.447272300720214844e+00 -2.165513038635253906e-01
1.753000000000000000e+03 7.519541931152343750e+01 -3.134888076782226562e+01 -8.516710996627807617e-02 8.056791305541992188e+00 2.391487360000610352e+00 -3.186076283454895020e-01
1.754000000000000000e+03 3.109394788742065430e+00 1.584225082397460938e+01 3.995430688519263640e-06 -1.833150349557399750e-02 -5.498252343386411667e-03 -1.165923383086919785e-02
1.755000000000000000e+03 2.881814002990722656e+00 -1.697355651855468750e+01 -1.458409894257783890e-02 -2.387033402919769287e-02 -1.153632998466491699e-02 4.431019071489572525e-03
1.756000000000000000e+03 3.525143146514892578e+00 -1.398598575592041016e+01 8.669110015034675598e-03 -1.690528914332389832e-02 -2.470853505656123161e-03 5.440328270196914673e-03
1.757000000000000000e+03 5.389999866485595703e+00 1.965131378173828125e+01 -1.682168245315551758e-01 -5.869442969560623169e-02 -6.807337701320648193e-02 8.924000710248947144e-02
1.758000000000000000e+03 3.141265392303466797e+00 1.871361351013183594e+01 -3.899563103914260864e-02 -4.090358316898345947e-02 -2.396976388990879059e-02 2.298581786453723907e-02
1.759000000000000000e+03 5.117572307586669922e+00 2.098577117919921875e+01 -1.688173413276672363e-01 -1.051770746707916260e-01 -8.219832926988601685e-02 1.729340851306915283e-01
1.760000000000000000e+03 4.510101795196533203e+00 -1.678746604919433594e+01 -1.547461748123168945e-02 -3.777701780200004578e-02 -1.597549021244049072e-02 -3.118162043392658234e-03
1.761000000000000000e+03 4.362308025360107422e+00 1.838731002807617188e+01 -6.693653762340545654e-02 -4.930537939071655273e-02 -3.487257286906242371e-02 2.626249939203262329e-02
1.762000000000000000e+03 3.805539608001708984e+00 2.429842948913574219e+01 -4.833797737956047058e-02 -2.690285444259643555e-01 -9.520995616912841797e-02 2.417049556970596313e-01
1.763000000000000000e+03 5.351762771606445312e+00 2.895059776306152344e+01 4.223869740962982178e-02 -5.037862062454223633e-01 -1.384642422199249268e-01 3.065061271190643311e-01
1.764000000000000000e+03 7.148947238922119141e+00 -2.373055648803710938e+01 -7.479487359523773193e-02 -3.893336653709411621e-01 -1.392385661602020264e-01 -4.072996377944946289e-01
1.765000000000000000e+03 3.254256963729858398e+00 1.290785884857177734e+01 5.017019808292388916e-03 -6.585102993994951248e-03 -4.704249440692365170e-04 -5.471525713801383972e-03
1.766000000000000000e+03 4.285768985748291016e+00 -1.308406352996826172e+01 8.404384367167949677e-03 -9.402396157383918762e-03 -2.994036476593464613e-04 -1.735378522425889969e-03
1.767000000000000000e+03 2.885293245315551758e+00 -9.289271354675292969e+00 7.479477790184319019e-04 1.534243783680722117e-04 2.704116341192275286e-04 5.043166456744074821e-04
1.768000000000000000e+03 2.868273496627807617e+00 -1.066966915130615234e+01 3.135655075311660767e-03 -1.578973722644150257e-03 4.670044290833175182e-04 1.716458820737898350e-03
1.769000000000000000e+03 5.145648002624511719e+00 -1.956972694396972656e+01 -1.701247543096542358e-01 -9.045110642910003662e-02 -7.817275822162628174e-02 -1.640614718198776245e-01
1.770000000000000000e+03 3.124886751174926758e+00 -2.308519554138183594e+01 -3.803221136331558228e-02 -2.343946695327758789e-01 -8.172806352376937866e-02 -1.921532005071640015e-01
1.771000000000000000e+03 4.826119422912597656e+00 -2.123877716064453125e+01 -1.300967633724212646e-01 -1.834506690502166748e-01 -9.406422823667526245e-02 -2.362492084503173828e-01
1.772000000000000000e+03 5.494230270385742188e+00 2.302324295043945312e+01 -1.400745809078216553e-01 -2.409263551235198975e-01 -1.143002808094024658e-01 3.145534396171569824e-01
1.773000000000000000e+03 3.998631477355957031e+00 2.535666275024414062e+01 -2.208979800343513489e-02 -3.313478529453277588e-01 -1.060312911868095398e-01 2.647504508495330811e-01
1.774000000000000000e+03 4.658997058868408203e+00 2.388880538940429688e+01 -7.515715807676315308e-02 -2.725548148155212402e-01 -1.043135970830917358e-01 2.832768857479095459e-01
1.775000000000000000e+03 3.274100780487060547e+00 -2.464984893798828125e+01 -2.924886345863342285e-02 -3.176542818546295166e-01 -1.040709391236305237e-01 -2.308720201253890991e-01
1.776000000000000000e+03 5.070282459259033203e+00 -2.236877632141113281e+01 -1.114870384335517883e-01 -2.349430918693542480e-01 -1.039290428161621094e-01 -2.835114896297454834e-01
1.777000000000000000e+03 4.665829181671142578e+00 -2.485251426696777344e+01 -2.264305017888545990e-02 -3.650154769420623779e-01 -1.162975579500198364e-01 -2.971656024456024170e-01
1.778000000000000000e+03 3.883807182312011719e+00 -3.162476730346679688e+01 4.907003790140151978e-02 -6.532250046730041504e-01 -1.812464892864227295e-01 -2.027361840009689331e-01
1.779000000000000000e+03 4.828524112701416016e+00 -2.869507217407226562e+01 3.653232753276824951e-02 -5.209707617759704590e-01 -1.453315317630767822e-01 -2.862410247325897217e-01
1.780000000000000000e+03 4.595571517944335938e+00 9.371674537658691406e+00 2.064849017187952995e-03 -1.716620172373950481e-03 1.044686578097753227e-04 -3.161815111525356770e-04
1.781000000000000000e+03 5.671592712402343750e+00 3.159812927246093750e+01 6.562421470880508423e-02 -5.726766586303710938e-01 -1.521157324314117432e-01 2.684616446495056152e-01
1.782000000000000000e+03 5.109286308288574219e+00 3.576451110839843750e+01 7.483050972223281860e-02 -6.801375746726989746e-01 -1.815921217203140259e-01 1.604799628257751465e-01
1.783000000000000000e+03 3.575399637222290039e+00 3.571828460693359375e+01 5.282371863722801208e-02 -7.836903333663940430e-01 -2.192599773406982422e-01 1.258233040571212769e-01
1.784000000000000000e+03 6.367004394531250000e+00 -1.157703590393066406e+01 -6.241194205358624458e-04 5.302166566252708435e-03 1.403414178639650345e-03 -3.298933850601315498e-03
1.785000000000000000e+03 2.821074724197387695e+00 -1.209818458557128906e+01 4.050310701131820679e-03 -2.419790485873818398e-03 4.891560529358685017e-04 4.384678322821855545e-03
1.786000000000000000e+03 4.099737167358398438e+00 -1.069395542144775391e+01 2.842077985405921936e-03 -1.331311417743563652e-03 4.532299935817718506e-04 4.333976248744875193e-04
1.787000000000000000e+03 6.150476455688476562e+00 9.621817588806152344e+00 1.738018123432993889e-03 -2.181006828323006630e-03 -1.328966172877699137e-04 1.309238374233245850e-03
1.788000000000000000e+03 3.912000417709350586e+00 -6.650354862213134766e+00 3.254638286307454109e-04 1.902336807688698173e-04 1.547092542750760913e-04 5.083352443762123585e-04
1.789000000000000000e+03 7.043773651123046875e+00 -3.081514930725097656e+01 9.703826904296875000e-02 -5.323571562767028809e-01 -1.305956542491912842e-01 -2.991705834865570068e-01
1.790000000000000000e+03 4.990373611450195312e+00 -2.995550727844238281e+01 5.843167379498481750e-02 -5.637709498405456543e-01 -1.516017764806747437e-01 -2.690361440181732178e-01
1.791000000000000000e+03 5.488988876342773438e+00 -3.138383102416992188e+01 6.928277015686035156e-02 -5.838631987571716309e-01 -1.543741226196289062e-01 -2.581592202186584473e-01
1.792000000000000000e+03 4.632037162780761719e+00 2.771210289001464844e+01 1.532451063394546509e-02 -4.557001888751983643e-01 -1.321126967668533325e-01 2.969354093074798584e-01
1.793000000000000000e+03 6.405481338500976562e+00 3.005354499816894531e+01 7.778794318437576294e-02 -5.303413271903991699e-01 -1.357659995555877686e-01 3.181048333644866943e-01
1.794000000000000000e+03 3.824189901351928711e+00 7.650187969207763672e+00 1.920334761962294579e-03 1.140723543358035386e-04 6.103221094235777855e-04 -4.522687813732773066e-04
1.795000000000000000e+03 3.497412443161010742e+00 -4.684707164764404297e+00 2.091145288432016969e-04 9.140447218669578433e-05 9.015569958137348294e-05 4.184891295153647661e-04
1.796000000000000000e+03 5.573605537414550781e+00 5.379078865051269531e+00 5.832365714013576508e-04 7.048187544569373131e-04 3.864165919367223978e-04 -5.987233598716557026e-04
1.797000000000000000e+03 6.382468223571777344e+00 -3.597058486938476562e+01 1.031011566519737244e-01 -6.470901966094970703e-01 -1.631967127323150635e-01 -1.735237091779708862e-01
1.798000000000000000e+03 7.444728851318359375e+00 -7.309076786041259766e+00 -2.017902879742905498e-04 1.226545195095241070e-03 3.074264968745410442e-04 3.570038825273513794e-04
1.799000000000000000e+03 1.450975990295410156e+01 -1.791720771789550781e+01 -5.504070520401000977e-01 -4.794789552688598633e-01 -3.089658021926879883e-01 -4.518220424652099609e-01
1.800000000000000000e+03 1.812156295776367188e+01 -1.588023281097412109e+01 -5.414029955863952637e-01 -1.892746835947036743e-01 -2.192033082246780396e-01 -4.840869903564453125e-01
1.801000000000000000e+03 2.085812759399414062e+01 -1.156089401245117188e+01 -6.249936819076538086e-01 6.974365096539258957e-03 -1.854057908058166504e-01 -4.867860674858093262e-01
1.802000000000000000e+03 6.414635658264160156e+00 1.978331756591796875e+01 -2.327474802732467651e-01 -3.500372543931007385e-02 -8.032535761594772339e-02 1.022763401269912720e-01
1.803000000000000000e+03 4.400729656219482422e+00 1.959695625305175781e+01 -1.021797582507133484e-01 -6.303283572196960449e-02 -4.956378042697906494e-02 6.850387901067733765e-02
1.804000000000000000e+03 1.108116626739501953e+01 -2.135108757019042969e+01 -2.011023759841918945e-01 -5.507772564888000488e-01 -2.255638837814331055e-01 -4.613005518913269043e-01
1.805000000000000000e+03 1.689187812805175781e+01 -1.941636466979980469e+01 -3.274051249027252197e-01 -2.875533103942871094e-01 -1.844875216484069824e-01 -3.928792774677276611e-01
1.806000000000000000e+03 2.126189804077148438e+01 1.018430614471435547e+01 -3.888773918151855469e-01 -7.576034069061279297e-01 -3.439442515373229980e-01 4.945908486843109131e-01
1.807000000000000000e+03 7.313588142395019531e+00 -1.211591815948486328e+01 -2.194238768424838781e-04 5.761646752944216132e-05 -4.854222061112523079e-05 1.942675735335797071e-04
1.808000000000000000e+03 6.995254993438720703e+00 -1.043891906738281250e+01 9.156230953522026539e-04 -1.144101028330624104e-03 -6.854338425910100341e-05 -5.372312152758240700e-04
1.809000000000000000e+03 2.066650962829589844e+01 1.289011478424072266e+01 -4.816166758537292480e-01 -7.473194003105163574e-01 -3.686808347702026367e-01 4.452820420265197754e-01
1.810000000000000000e+03 8.056132316589355469e+00 2.194828987121582031e+01 -2.509440779685974121e-01 -3.197166919708251953e-01 -1.711982339620590210e-01 4.430875182151794434e-01
1.811000000000000000e+03 2.258473396301269531e+01 5.185842037200927734e+00 -1.875237226486206055e-01 -5.135146379470825195e-01 -2.103115022182464600e-01 5.228469967842102051e-01
1.812000000000000000e+03 2.211129188537597656e+01 6.312053680419921875e+00 -2.199753373861312866e-01 -6.124150156974792480e-01 -2.497171163558959961e-01 5.175104737281799316e-01
1.813000000000000000e+03 1.894744110107421875e+01 -1.496757888793945312e+01 -5.629181265830993652e-01 -1.254857778549194336e-01 -2.065211832523345947e-01 -5.018281936645507812e-01
1.814000000000000000e+03 3.930487394332885742e+00 -1.204409122467041016e+01 6.528857164084911346e-03 -7.435572333633899689e-03 -2.720145275816321373e-04 5.658426671288907528e-04
1.815000000000000000e+03 1.731201934814453125e+01 -1.701631355285644531e+01 -4.993326663970947266e-01 -2.592137753963470459e-01 -2.275639325380325317e-01 -4.547864794731140137e-01
1.816000000000000000e+03 2.077619171142578125e+01 -1.063836097717285156e+01 -6.118247509002685547e-01 9.399318136274814606e-03 -1.807276308536529541e-01 -4.478086829185485840e-01
1.817000000000000000e+03 1.989758872985839844e+01 -1.167070960998535156e+01 -5.949835181236267090e-01 -3.906952217221260071e-02 -1.902159005403518677e-01 -4.854145348072052002e-01
1.818000000000000000e+03 1.829293632507324219e+01 1.976792144775390625e+01 -2.323791533708572388e-01 -6.214224100112915039e-01 -2.561404705047607422e-01 2.240887582302093506e-01
1.819000000000000000e+03 1.746131324768066406e+01 1.814013099670410156e+01 -4.787552952766418457e-01 -8.537328839302062988e-01 -3.997464478015899658e-01 3.803196549415588379e-01
1.820000000000000000e+03 2.254608345031738281e+01 1.730093479156494141e+00 -1.252742707729339600e-01 -3.856101036071777344e-01 -1.532653123140335083e-01 4.694260656833648682e-01
1.821000000000000000e+03 2.046506690979003906e+01 1.578406333923339844e+01 -4.408733248710632324e-01 -5.487383604049682617e-01 -2.968834936618804932e-01 2.870913445949554443e-01
1.822000000000000000e+03 1.481027793884277344e+01 2.009536933898925781e+01 -4.001501202583312988e-01 -8.969990015029907227e-01 -3.891447484493255615e-01 4.628028869628906250e-01
1.823000000000000000e+03 1.383442592620849609e+01 -1.892184257507324219e+01 -4.482893943786621094e-01 -5.144195556640625000e-01 -2.888126671314239502e-01 -4.197050333023071289e-01
1.824000000000000000e+03 1.479999351501464844e+01 -1.986276626586914062e+01 -3.362165689468383789e-01 -4.298429787158966064e-01 -2.298178672790527344e-01 -3.907795548439025879e-01
1.825000000000000000e+03 2.387044525146484375e+01 8.210412979125976562e+00 -2.508336007595062256e-01 -2.974338233470916748e-01 -1.644802242517471313e-01 4.730287194252014160e-01
1.826000000000000000e+03 4.930849075317382812e+01 -8.457783699035644531e+00 2.458194971084594727e+00 9.632032394409179688e+00 3.627068281173706055e+00 6.143990993499755859e+00
1.827000000000000000e+03 4.775605773925781250e+01 -8.859055519104003906e+00 2.093358755111694336e+00 3.060587167739868164e+00 1.546183824539184570e+00 3.555489540100097656e+00
1.828000000000000000e+03 4.978171920776367188e+01 -4.401138782501220703e+00 1.905923247337341309e+00 1.334901714324951172e+01 4.576481819152832031e+00 -5.921708583831787109e+00
1.829000000000000000e+03 4.967589950561523438e+01 -4.259712219238281250e+00 1.920837998390197754e+00 1.240788841247558594e+01 4.298617839813232422e+00 -5.898062229156494141e+00
1.830000000000000000e+03 4.904974746704101562e+01 -4.060681343078613281e+00 2.452986717224121094e+00 8.136551856994628906e+00 3.176861763000488281e+00 -5.658717155456542969e+00
1.831000000000000000e+03 4.837633132934570312e+01 -4.529768466949462891e+00 3.097306966781616211e+00 3.818693161010742188e+00 2.074800014495849609e+00 -4.450762748718261719e+00
1.832000000000000000e+03 4.771610260009765625e+01 -4.450999259948730469e+00 2.239205598831176758e+00 2.090842962265014648e+00 1.299014568328857422e+00 -2.993849992752075195e+00
1.833000000000000000e+03 4.819301605224609375e+01 -4.491682052612304688e+00 2.847177267074584961e+00 3.291232109069824219e+00 1.841522812843322754e+00 -3.992822885513305664e+00
1.834000000000000000e+03 4.986121368408203125e+01 -8.785399436950683594e+00 1.214891791343688965e+00 1.315049648284912109e+01 4.309616565704345703e+00 5.217816829681396484e+00
1.835000000000000000e+03 5.011326980590820312e+01 -8.764573097229003906e+00 9.805422425270080566e-01 1.446920967102050781e+01 4.634925365447998047e+00 4.539708614349365234e+00
1.836000000000000000e+03 5.063138580322265625e+01 -4.048455238342285156e+00 9.345514178276062012e-01 1.637166595458984375e+01 5.191865444183349609e+00 -2.672263860702514648e+00
1.837000000000000000e+03 5.201971817016601562e+01 -7.681377887725830078e+00 5.964988231658935547e+00 1.641706085205078125e+01 6.714614868164062500e+00 -2.227800130844116211e+00
1.838000000000000000e+03 5.233420944213867188e+01 -5.750078678131103516e+00 8.485311508178710938e+00 1.477934455871582031e+01 6.979396820068359375e+00 1.581601858139038086e+00
1.839000000000000000e+03 5.240520477294921875e+01 -6.175827503204345703e+00 9.212469100952148438e+00 1.429096508026123047e+01 7.051030158996582031e+00 5.854887962341308594e-01
1.840000000000000000e+03 5.091438674926757812e+01 -3.971000909805297852e+00 1.007387042045593262e+00 1.648596954345703125e+01 5.248006820678710938e+00 -1.801433563232421875e+00
1.841000000000000000e+03 5.038145065307617188e+01 -4.113708019256591797e+00 9.856094121932983398e-01 1.592514514923095703e+01 5.073226451873779297e+00 -3.780556440353393555e+00
1.842000000000000000e+03 5.072137069702148438e+01 -8.288343429565429688e+00 1.364965438842773438e+00 1.868767166137695312e+01 6.015790939331054688e+00 1.979324340820312500e+00
1.843000000000000000e+03 5.191532897949218750e+01 -7.435815811157226562e+00 7.267781257629394531e+00 1.674961280822753906e+01 7.205217838287353516e+00 -2.365802526473999023e+00
1.844000000000000000e+03 5.176446151733398438e+01 -8.287407875061035156e+00 3.299601554870605469e+00 1.679734420776367188e+01 6.029083728790283203e+00 -1.306913375854492188e+00
1.845000000000000000e+03 5.246084594726562500e+01 -5.112534999847412109e+00 6.167801380157470703e+00 1.486336803436279297e+01 6.309350967407226562e+00 2.032668352127075195e+00
1.846000000000000000e+03 5.154273605346679688e+01 -3.949323415756225586e+00 1.729380130767822266e+00 1.631260871887207031e+01 5.412596702575683594e+00 8.706944435834884644e-02
1.847000000000000000e+03 4.892565917968750000e+01 -9.124810218811035156e+00 1.902621507644653320e+00 7.816126823425292969e+00 2.915624618530273438e+00 5.260586738586425781e+00
1.848000000000000000e+03 4.672426605224609375e+01 -8.699407577514648438e+00 1.119329810142517090e+00 1.265666365623474121e+00 7.154988646507263184e-01 2.000713825225830078e+00
1.849000000000000000e+03 4.700791168212890625e+01 -9.155057907104492188e+00 1.546555876731872559e+00 2.132269144058227539e+00 1.103647470474243164e+00 2.767010927200317383e+00
1.850000000000000000e+03 4.761296844482421875e+01 -4.081295013427734375e+00 2.147080183029174805e+00 2.636322021484375000e+00 1.435020685195922852e+00 -3.286101818084716797e+00
1.851000000000000000e+03 4.554108810424804688e+01 -9.585680007934570312e+00 7.297207713127136230e-01 1.086064338684082031e+00 5.447355508804321289e-01 1.688493490219116211e+00
1.852000000000000000e+03 4.775860977172851562e+01 -9.398144721984863281e+00 1.843250632286071777e+00 3.804912805557250977e+00 1.694449067115783691e+00 3.822794914245605469e+00
1.853000000000000000e+03 4.595859909057617188e+01 -3.166649818420410156e+00 1.257708907127380371e+00 1.521355390548706055e+00 8.337193131446838379e-01 -2.059473752975463867e+00
1.854000000000000000e+03 4.449480819702148438e+01 -2.218301057815551758e+00 8.647696375846862793e-01 1.228274226188659668e+00 6.279131770133972168e-01 -1.515830874443054199e+00
1.855000000000000000e+03 2.381085205078125000e+01 -1.794199109077453613e+00 -2.073091566562652588e-01 -1.610485017299652100e-01 -1.105073019862174988e-01 3.900757431983947754e-01
1.856000000000000000e+03 4.526031875610351562e+01 -2.747246503829956055e+00 1.011563062667846680e+00 1.319583296775817871e+00 6.993439197540283203e-01 -1.739039182662963867e+00
1.857000000000000000e+03 2.463644409179687500e+01 -1.893305778503417969e+00 -2.527043223381042480e-01 -1.306536346673965454e-01 -1.150073856115341187e-01 4.159426391124725342e-01
1.858000000000000000e+03 2.684910202026367188e+01 -8.078140616416931152e-01 -3.043895959854125977e-01 -7.122986018657684326e-02 -1.126858443021774292e-01 5.065671205520629883e-01
1.859000000000000000e+03 2.234380912780761719e+01 -2.537528753280639648e+00 -1.374863237142562866e-01 -1.610806882381439209e-01 -8.957009762525558472e-02 2.708885669708251953e-01
1.860000000000000000e+03 2.427345085144042969e+01 -8.021890521049499512e-01 -2.082042247056961060e-01 -1.761630773544311523e-01 -1.153101921081542969e-01 4.527800679206848145e-01
1.861000000000000000e+03 2.529289054870605469e+01 -2.730398893356323242e+00 -3.197442293167114258e-01 -8.576495200395584106e-02 -1.216527596116065979e-01 3.876265287399291992e-01
1.862000000000000000e+03 4.055038452148437500e+00 4.359146595001220703e+00 -4.513477615546435118e-04 -8.002721733646467328e-05 -1.594124914845451713e-04 1.324867298535536975e-05
1.863000000000000000e+03 4.702599048614501953e+00 4.154548168182373047e+00 2.007127914112061262e-04 4.320024745538830757e-04 1.898145710583776236e-04 -5.204321132623590529e-05
1.864000000000000000e+03 6.718324184417724609e+00 5.691390037536621094e+00 5.945183802396059036e-04 8.389853755943477154e-04 4.300511209294199944e-04 -2.649220114108175039e-04
1.865000000000000000e+03 6.526720046997070312e+00 4.058019161224365234e+00 6.206050602486357093e-05 -9.173430735245347023e-04 -2.565847535151988268e-04 7.176014605647651479e-06
1.866000000000000000e+03 5.093974590301513672e+00 4.601984977722167969e+00 1.034932327456772327e-03 5.752392098656855524e-05 3.277368668932467699e-04 -4.609534153132699430e-05
1.867000000000000000e+03 4.249890518188476562e+01 -2.242189407348632812e+00 2.228568196296691895e-01 5.659898519515991211e-01 2.366540133953094482e-01 -6.780962944030761719e-01
1.868000000000000000e+03 2.676205635070800781e+01 -2.297457218170166016e+00 -3.904513716697692871e-01 -5.091926082968711853e-02 -1.324111968278884888e-01 4.443571567535400391e-01
1.869000000000000000e+03 5.276275634765625000e+00 3.994917869567871094e+00 -1.724265748634934425e-04 -4.904333618469536304e-04 -1.988579751923680305e-04 -9.987988596549257636e-05
1.870000000000000000e+03 2.882344627380371094e+01 -2.343900203704833984e+00 -4.983791708946228027e-01 -2.962478902190923691e-03 -1.504025012254714966e-01 4.555983245372772217e-01
1.871000000000000000e+03 2.811326599121093750e+01 -2.960498809814453125e+00 -5.164123773574829102e-01 -1.596193201839923859e-02 -1.597122848033905029e-01 4.175093472003936768e-01
1.872000000000000000e+03 8.388917922973632812e+00 5.063602924346923828e+00 -3.599952833610586822e-05 -1.472531585022807121e-03 -4.525593540165573359e-04 -4.915068275295197964e-04
1.873000000000000000e+03 7.004449367523193359e+00 4.904322147369384766e+00 2.729399129748344421e-04 -1.255292561836540699e-03 -2.947057946585118771e-04 1.418330939486622810e-04
1.874000000000000000e+03 7.184229850769042969e+00 4.108841896057128906e+00 8.421909296885132790e-05 1.319059985689818859e-03 4.209837352391332388e-04 2.681469195522367954e-04
1.875000000000000000e+03 9.226149559020996094e+00 8.044021606445312500e+00 -4.347913491073995829e-04 2.546872245147824287e-03 6.336242659017443657e-04 1.517574419267475605e-04
1.876000000000000000e+03 3.166745758056640625e+01 -2.921451091766357422e+00 -7.167194485664367676e-01 3.538023307919502258e-02 -2.044017612934112549e-01 4.027929902076721191e-01
1.877000000000000000e+03 2.948429679870605469e+01 -1.722082614898681641e+00 -4.612251818180084229e-01 1.701295375823974609e-02 -1.332636624574661255e-01 4.789654314517974854e-01
1.878000000000000000e+03 2.952458572387695312e+01 -2.333511829376220703e+00 -5.314578413963317871e-01 1.333371456712484360e-02 -1.554372310638427734e-01 4.540290236473083496e-01
1.879000000000000000e+03 3.095487785339355469e+01 -2.938611507415771484e+00 -6.841650009155273438e-01 2.743470668792724609e-02 -1.970190852880477905e-01 4.111399352550506592e-01
1.880000000000000000e+03 3.311157989501953125e+01 -2.899554729461669922e+00 -7.742194533348083496e-01 5.260212346911430359e-02 -2.164851874113082886e-01 3.761616945266723633e-01
1.881000000000000000e+03 3.306803131103515625e+01 -2.211438655853271484e+00 -6.302651762962341309e-01 7.028423994779586792e-02 -1.679942756891250610e-01 3.954720795154571533e-01
1.882000000000000000e+03 4.255895996093750000e+01 -1.086143112182617188e+01 1.683767884969711304e-02 6.419005393981933594e-01 1.976214498281478882e-01 8.359843492507934570e-01
1.883000000000000000e+03 4.315019607543945312e+01 -1.008654499053955078e+01 -1.531325429677963257e-01 5.169263482093811035e-01 1.091381460428237915e-01 7.630737423896789551e-01
1.884000000000000000e+03 4.030801773071289062e+01 -1.110710239410400391e+01 -4.322987198829650879e-01 3.518103659152984619e-01 -2.414650283753871918e-02 3.510390520095825195e-01
1.885000000000000000e+03 3.955634307861328125e+01 -1.117274856567382812e+01 -5.391298532485961914e-01 2.909258604049682617e-01 -7.446120679378509521e-02 2.369419038295745850e-01
1.886000000000000000e+03 3.805009841918945312e+01 -1.129273223876953125e+01 -7.021258473396301270e-01 1.981779187917709351e-01 -1.511843800544738770e-01 5.741925537586212158e-02
1.887000000000000000e+03 8.393013954162597656e+00 -4.176809310913085938e+00 1.692742262093815953e-05 4.286191324354149401e-05 1.793679984984919429e-05 -4.890012787654995918e-04
1.888000000000000000e+03 3.526539993286132812e+01 -2.195175647735595703e+00 -6.298381090164184570e-01 1.070492416620254517e-01 -1.568366587162017822e-01 3.041155636310577393e-01
1.889000000000000000e+03 4.326358032226562500e+01 -1.071187496185302734e+01 1.750295162200927734e-01 7.609895467758178711e-01 2.808057367801666260e-01 1.023795485496520996e+00
1.890000000000000000e+03 3.754643249511718750e+01 -2.813291311264038086e+00 -7.616277337074279785e-01 1.116325557231903076e-01 -1.949985474348068237e-01 1.833005398511886597e-01
1.891000000000000000e+03 3.447702407836914062e+01 -1.540895462036132812e+00 -4.868269264698028564e-01 1.255467236042022705e-01 -1.083840578794479370e-01 3.345007300376892090e-01
1.892000000000000000e+03 3.571474075317382812e+01 -1.069717597961425781e+01 -1.100566864013671875e+00 6.351180374622344971e-02 -3.111165165901184082e-01 -1.705674380064010620e-01
1.893000000000000000e+03 3.495659255981445312e+01 -1.072822189331054688e+01 -1.118486523628234863e+00 4.981404915452003479e-02 -3.206017315387725830e-01 -2.055863589048385620e-01
1.894000000000000000e+03 3.888165664672851562e+01 -1.193885517120361328e+01 -3.727620542049407959e-01 3.468906581401824951e-01 -7.761423010379076004e-03 2.511683404445648193e-01
1.895000000000000000e+03 3.828717422485351562e+01 -2.802471160888671875e+00 -7.203091979026794434e-01 1.280527263879776001e-01 -1.776769310235977173e-01 1.289615482091903687e-01
1.896000000000000000e+03 5.748991966247558594e+00 -7.033641338348388672e+00 7.876663585193455219e-05 7.448759279213845730e-04 2.470927720423787832e-04 1.677204854786396027e-04
1.897000000000000000e+03 3.975848007202148438e+01 -2.804355859756469727e+00 -5.881820917129516602e-01 1.746188253164291382e-01 -1.240689828991889954e-01 -1.850716024637222290e-02
1.898000000000000000e+03 4.181842422485351562e+01 -1.096085262298583984e+01 -1.427163034677505493e-01 5.336499810218811035e-01 1.172801032662391663e-01 6.518201231956481934e-01
1.899000000000000000e+03 4.113058471679687500e+01 -1.170533084869384766e+01 -4.845375940203666687e-02 5.936390161514282227e-01 1.635555773973464966e-01 6.500985026359558105e-01
1.900000000000000000e+03 6.339201450347900391e+00 -5.610889434814453125e+00 2.905169676523655653e-04 1.045058743329718709e-04 1.185068540507927537e-04 5.122825386933982372e-04
1.901000000000000000e+03 3.672956466674804688e+01 -2.150096893310546875e+00 -5.745720267295837402e-01 1.402872502803802490e-01 -1.302854269742965698e-01 2.121161520481109619e-01
1.902000000000000000e+03 3.267300796508789062e+01 -1.080258750915527344e+01 -1.125214934349060059e+00 2.383369952440261841e-02 -3.304143846035003662e-01 -2.897371351718902588e-01
1.903000000000000000e+03 3.425372695922851562e+01 -1.150129413604736328e+01 -8.995472788810729980e-01 7.429233193397521973e-02 -2.475764900445938110e-01 -2.140381336212158203e-01
1.904000000000000000e+03 3.893663024902343750e+01 -2.097459554672241211e+00 -3.915899693965911865e-01 2.259873747825622559e-01 -4.968078061938285828e-02 -6.089739035815000534e-04
1.905000000000000000e+03 3.820167160034179688e+01 -2.108607769012451172e+00 -4.652163088321685791e-01 1.910728216171264648e-01 -8.224304020404815674e-02 8.094486594200134277e-02
1.906000000000000000e+03 3.501911544799804688e+01 -1.146582603454589844e+01 -8.781018257141113281e-01 8.907273411750793457e-02 -2.367087304592132568e-01 -1.738533675670623779e-01
1.907000000000000000e+03 3.653573989868164062e+01 -1.138852405548095703e+01 -8.115791082382202148e-01 1.334208548069000244e-01 -2.034474760293960571e-01 -7.547355443239212036e-02
1.908000000000000000e+03 2.965508079528808594e+01 -1.160159111022949219e+01 -8.992319107055664062e-01 3.008883260190486908e-02 -2.607429325580596924e-01 -3.912104070186614990e-01
1.909000000000000000e+03 3.348628997802734375e+01 -1.153682231903076172e+01 -9.141918420791625977e-01 6.092787161469459534e-02 -2.559791803359985352e-01 -2.516934275627136230e-01
1.910000000000000000e+03 3.966281890869140625e+01 -2.096880674362182617e+00 -2.996394336223602295e-01 2.673736214637756348e-01 -9.679738432168960571e-03 -1.023717597126960754e-01
1.911000000000000000e+03 4.108921813964843750e+01 -2.145009279251098633e+00 -7.634197920560836792e-02 3.768067359924316406e-01 9.013942629098892212e-02 -3.427893817424774170e-01
1.912000000000000000e+03 6.821426868438720703e+00 -4.046512126922607422e+00 -1.410171098541468382e-04 2.231495745945721865e-04 2.463974124111700803e-05 -4.224933218210935593e-04
1.913000000000000000e+03 6.126030921936035156e+00 -4.091461658477783203e+00 9.169007535092532635e-05 6.432764348573982716e-05 4.680531492340378463e-05 3.999567707069218159e-04
1.914000000000000000e+03 5.607951641082763672e+00 -4.870632648468017578e+00 7.516144978580996394e-05 1.520255900686606765e-04 6.815611413912847638e-05 3.090835816692560911e-04
1.915000000000000000e+03 2.645858001708984375e+01 -1.085094165802001953e+01 -9.046871066093444824e-01 2.811689116060733795e-02 -2.629710733890533447e-01 -4.282817244529724121e-01
1.916000000000000000e+03 3.120398712158203125e+01 -1.158561611175537109e+01 -9.220397472381591797e-01 3.945930674672126770e-02 -2.647741138935089111e-01 -3.426836133003234863e-01
1.917000000000000000e+03 3.196881103515625000e+01 -1.158380699157714844e+01 -9.229730963706970215e-01 4.565079137682914734e-02 -2.631967067718505859e-01 -3.130004703998565674e-01
1.918000000000000000e+03 3.047999954223632812e+01 -1.234523582458496094e+01 -7.611729502677917480e-01 5.833654850721359253e-02 -2.108509242534637451e-01 -3.705076873302459717e-01
1.919000000000000000e+03 2.328163337707519531e+01 -1.140212821960449219e+01 -7.132777571678161621e-01 5.541123822331428528e-02 -1.973599642515182495e-01 -4.897256493568420410e-01
1.920000000000000000e+03 2.565748596191406250e+01 -1.082789134979248047e+01 -8.665544986724853516e-01 3.510103747248649597e-02 -2.494360357522964478e-01 -4.405457973480224609e-01
1.921000000000000000e+03 4.318403625488281250e+01 -2.275092840194702148e+00 4.069030880928039551e-01 7.136822938919067383e-01 3.361756205558776855e-01 -9.053358435630798340e-01
1.922000000000000000e+03 4.391640853881835938e+01 -1.052226448059082031e+01 3.238046169281005859e-01 9.277166128158569336e-01 3.754563629627227783e-01 1.225094795227050781e+00
1.923000000000000000e+03 4.602647399902343750e+01 -1.007364177703857422e+01 1.119324207305908203e+00 1.986857056617736816e+00 9.318543672561645508e-01 2.360138177871704102e+00
1.924000000000000000e+03 4.499462509155273438e+01 -9.706459999084472656e+00 4.292084872722625732e-01 8.926839828491210938e-01 3.965677618980407715e-01 1.360422015190124512e+00
1.925000000000000000e+03 2.808799171447753906e+01 -1.162877273559570312e+01 -8.599252700805664062e-01 3.020497970283031464e-02 -2.489160895347595215e-01 -4.311918914318084717e-01
1.926000000000000000e+03 2.887481880187988281e+01 -1.161685562133789062e+01 -8.813261985778808594e-01 3.042566217482089996e-02 -2.552701532840728760e-01 -4.110641777515411377e-01
1.927000000000000000e+03 2.729475402832031250e+01 -1.163410282135009766e+01 -8.365657925605773926e-01 3.399732336401939392e-02 -2.407705336809158325e-01 -4.467074871063232422e-01
1.928000000000000000e+03 1.087212085723876953e+01 4.178400516510009766e+00 -5.219792947173118591e-04 -1.072234357707202435e-03 -4.782640899065881968e-04 -1.261844532564282417e-03
1.929000000000000000e+03 3.043102645874023438e+01 -1.158945655822753906e+01 -9.127880930900573730e-01 3.527595102787017822e-02 -2.632536590099334717e-01 -3.679538071155548096e-01
1.930000000000000000e+03 4.385348129272460938e+01 -2.275774002075195312e+00 6.249201893806457520e-01 9.232548475265502930e-01 4.644525051116943359e-01 -1.170809268951416016e+00
1.931000000000000000e+03 1.143482303619384766e+01 5.901329994201660156e+00 6.120366742834448814e-04 1.976385712623596191e-03 7.765267509967088699e-04 1.610695268027484417e-03
1.932000000000000000e+03 2.485726356506347656e+01 -1.159271717071533203e+01 -7.619513273239135742e-01 5.138259381055831909e-02 -2.131706327199935913e-01 -4.834243059158325195e-01
1.933000000000000000e+03 2.398146629333496094e+01 -1.236403369903564453e+01 -6.763572692871093750e-01 6.116319447755813599e-02 -1.845582276582717896e-01 -5.122839212417602539e-01
1.934000000000000000e+03 2.567550659179687500e+01 -1.161926841735839844e+01 -7.847108840942382812e-01 4.758450761437416077e-02 -2.211379259824752808e-01 -4.720377624034881592e-01
1.935000000000000000e+03 2.017438316345214844e+01 -1.277026367187500000e+01 -6.016042232513427734e-01 -3.252731263637542725e-02 -1.902394741773605347e-01 -5.121098756790161133e-01
1.936000000000000000e+03 2.171429824829101562e+01 -1.144061660766601562e+01 -6.549922823905944824e-01 3.310466930270195007e-02 -1.865662783384323120e-01 -4.882105886936187744e-01
1.937000000000000000e+03 2.405812263488769531e+01 -1.151315307617187500e+01 -7.399996519088745117e-01 5.502478033304214478e-02 -2.054924666881561279e-01 -4.870007932186126709e-01
1.938000000000000000e+03 2.109427070617675781e+01 -1.264825344085693359e+00 -6.845491379499435425e-02 -2.626325488090515137e-01 -9.932623803615570068e-02 2.503044009208679199e-01
1.939000000000000000e+03 2.150824928283691406e+01 8.845712661743164062e+00 -3.288368582725524902e-01 -7.379868030548095703e-01 -3.200471103191375732e-01 5.099602937698364258e-01
1.940000000000000000e+03 7.611168384552001953e+00 1.131138134002685547e+01 -1.302378252148628235e-03 3.080413211137056351e-03 5.334104644134640694e-04 2.649510046467185020e-03
1.941000000000000000e+03 6.603879928588867188e+00 1.230800342559814453e+01 4.790664650499820709e-03 -8.459459058940410614e-04 1.183415646664798260e-03 6.781940348446369171e-03
1.942000000000000000e+03 8.529067039489746094e+00 8.846499443054199219e+00 7.767515489831566811e-04 -6.327106966637074947e-04 4.321224696468561888e-05 8.080476545728743076e-04
1.943000000000000000e+03 8.586075782775878906e+00 7.544324874877929688e+00 5.824544932693243027e-04 -6.262630340643227100e-04 -1.314256769546773285e-05 4.476772446651011705e-04
1.944000000000000000e+03 4.883424758911132812e+00 -1.219287490844726562e+01 5.241736769676208496e-03 -4.831210244446992874e-03 1.231579226441681385e-04 -2.356466604396700859e-03
1.945000000000000000e+03 9.164126396179199219e+00 5.047155380249023438e+00 2.591783122625201941e-04 1.704139518551528454e-03 5.889953463338315487e-04 6.615272141061723232e-04
1.946000000000000000e+03 1.059010410308837891e+01 7.657840728759765625e+00 1.025898600346408784e-04 3.020629519596695900e-03 9.369658073410391808e-04 9.025486651808023453e-04
1.947000000000000000e+03 5.774757862091064453e+00 -1.273156929016113281e+01 5.708681419491767883e-03 -3.810838563367724419e-03 5.693528219126164913e-04 -9.624836035072803497e-03
1.948000000000000000e+03 1.233903694152832031e+01 6.047935962677001953e+00 -1.156660844571888447e-03 -1.443296438083052635e-03 -7.799871964380145073e-04 -1.578580588102340698e-03
1.949000000000000000e+03 2.169069099426269531e+01 1.433119773864746094e+01 -4.269918203353881836e-01 -4.329666793346405029e-01 -2.579875290393829346e-01 2.937873899936676025e-01
1.950000000000000000e+03 7.050488471984863281e+00 8.890079498291015625e+00 1.150138908997178078e-03 5.825796979479491711e-04 5.198155995458364487e-04 1.342304400168359280e-03
1.951000000000000000e+03 2.614242792129516602e+00 6.278351306915283203e+00 9.335356298834085464e-04 2.312234864803031087e-04 3.494277480058372021e-04 -1.487828994868323207e-04
1.952000000000000000e+03 9.113698005676269531e+00 -5.542753219604492188e+00 -2.144170284736901522e-04 9.045040933415293694e-04 2.070261107292026281e-04 -2.055540680885314941e-04
1.953000000000000000e+03 9.230436325073242188e+00 -4.023987293243408203e+00 -1.867129030870273709e-04 6.084610940888524055e-04 1.265244645765051246e-04 4.571844474412500858e-04
1.954000000000000000e+03 6.434284687042236328e+00 1.435342884063720703e+01 1.069834548979997635e-02 -6.672124844044446945e-03 1.207866240292787552e-03 1.434134971350431442e-02
1.955000000000000000e+03 2.205499267578125000e+01 -1.108405709266662598e+00 -1.108051910996437073e-01 -2.565071582794189453e-01 -1.101937070488929749e-01 3.315879404544830322e-01
1.956000000000000000e+03 2.311655426025390625e+01 4.736537337303161621e-01 -1.436793208122253418e-01 -2.876871824264526367e-01 -1.294099539518356323e-01 4.590581059455871582e-01
1.957000000000000000e+03 5.205120086669921875e+00 1.037834262847900391e+01 4.082198720425367355e-03 -1.728072762489318848e-03 7.062377990223467350e-04 2.339688799111172557e-04
1.958000000000000000e+03 7.525988006591796875e+01 3.228316497802734375e+01 -4.620452970266342163e-02 8.692819595336914062e+00 2.593984603881835938e+00 1.135784685611724854e-01
1.959000000000000000e+03 7.547785949707031250e+01 -2.713587760925292969e+01 -6.364466249942779541e-02 7.821131706237792969e+00 2.327246189117431641e+00 -4.173564016819000244e-01
1.960000000000000000e+03 7.387831878662109375e+01 -2.950587272644042969e+01 -1.220787987112998962e-01 7.926332950592041016e+00 2.341276407241821289e+00 -4.312521815299987793e-01
1.961000000000000000e+03 7.376527404785156250e+01 2.189182472229003906e+01 -1.037620306015014648e-01 8.226598739624023438e+00 2.436851024627685547e+00 3.652266263961791992e-01
1.962000000000000000e+03 7.510360717773437500e+01 2.445249557495117188e+01 -6.402614712715148926e-02 8.444126129150390625e+00 2.514029979705810547e+00 2.503338456153869629e-01
1.963000000000000000e+03 7.498734283447265625e+01 1.870027542114257812e+01 -6.814251095056533813e-02 8.175310134887695312e+00 2.432150363922119141e+00 3.935346007347106934e-01
1.964000000000000000e+03 7.469856262207031250e+01 -2.309239578247070312e+01 -5.296448618173599243e-02 7.552453517913818359e+00 2.249846696853637695e+00 -5.681669116020202637e-01
1.965000000000000000e+03 7.539476013183593750e+01 1.137705802917480469e+01 -4.424356669187545776e-02 7.682938098907470703e+00 2.291608333587646484e+00 5.362839102745056152e-01
1.966000000000000000e+03 7.385138702392578125e+01 1.420718193054199219e+01 -9.693237394094467163e-02 7.889746665954589844e+00 2.337844133377075195e+00 5.772526860237121582e-01
1.967000000000000000e+03 7.423484802246093750e+01 7.233852863311767578e+00 -1.454695360735058784e-03 7.409927368164062500e+00 2.222541809082031250e+00 6.714175343513488770e-01
1.968000000000000000e+03 7.426265716552734375e+01 -9.602298140525817871e-01 2.029673457145690918e-01 6.837921142578125000e+00 2.112266540527343750e+00 4.251730144023895264e-01
1.969000000000000000e+03 7.426527404785156250e+01 1.764587402343750000e+00 1.353733837604522705e-01 7.002663612365722656e+00 2.141411066055297852e+00 5.674012899398803711e-01
1.970000000000000000e+03 7.555895233154296875e+01 -1.379775047302246094e+01 9.357120096683502197e-02 6.756815910339355469e+00 2.055116176605224609e+00 -4.241857528686523438e-01
1.971000000000000000e+03 7.430538940429687500e+01 -1.530835914611816406e+01 1.108278036117553711e-01 7.025700569152832031e+00 2.140958547592163086e+00 -5.693591237068176270e-01
1.972000000000000000e+03 7.301438903808593750e+01 -1.549618911743164062e+01 1.410699188709259033e-01 7.188690662384033203e+00 2.198928117752075195e+00 -6.573532223701477051e-01
1.973000000000000000e+03 7.504579925537109375e+01 2.586029243469238281e+01 -5.278805270791053772e-02 8.485963821411132812e+00 2.529952764511108398e+00 2.186700850725173950e-01
1.974000000000000000e+03 7.404338836669921875e+01 -8.074902534484863281e+00 2.859254181385040283e-01 6.735244274139404297e+00 2.106350898742675781e+00 -1.327789276838302612e-01
1.975000000000000000e+03 7.541056060791015625e+01 -6.631958961486816406e+00 1.813248395919799805e-01 6.499796867370605469e+00 2.004336357116699219e+00 -1.162693090736865997e-02
1.976000000000000000e+03 7.359661102294921875e+01 2.604942512512207031e+01 -9.432132542133331299e-02 8.340202331542968750e+00 2.473764181137084961e+00 2.579852342605590820e-01
1.977000000000000000e+03 7.421792602539062500e+01 -9.563440322875976562e+00 2.506202757358551025e-01 6.741971015930175781e+00 2.097777366638183594e+00 -2.516242861747741699e-01
1.978000000000000000e+03 7.553247833251953125e+01 4.476150512695312500e+00 4.065251722931861877e-02 7.065175056457519531e+00 2.131748199462890625e+00 5.436067581176757812e-01
1.979000000000000000e+03 7.417606353759765625e+01 9.950914382934570312e+00 -4.893006384372711182e-02 7.613416194915771484e+00 2.269345760345458984e+00 6.529306173324584961e-01
1.980000000000000000e+03 7.553774261474609375e+01 -1.238281059265136719e+01 1.186266019940376282e-01 6.668601512908935547e+00 2.036168336868286133e+00 -3.667273223400115967e-01
1.981000000000000000e+03 7.419818878173828125e+01 -3.697545289993286133e+00 2.585451304912567139e-01 6.735269069671630859e+00 2.098144292831420898e+00 2.326684594154357910e-01
1.982000000000000000e+03 7.411606597900390625e+01 -5.100427627563476562e+00 2.852398455142974854e-01 6.718522548675537109e+00 2.101128578186035156e+00 1.214356645941734314e-01
1.983000000000000000e+03 7.443955993652343750e+01 -1.809953117370605469e+01 3.062142059206962585e-02 7.208860397338867188e+00 2.171844482421875000e+00 -6.139407157897949219e-01
1.984000000000000000e+03 7.450942230224609375e+01 -1.942842483520507812e+01 2.404881874099373817e-03 7.298292636871337891e+00 2.190209150314331055e+00 -6.157712340354919434e-01
1.985000000000000000e+03 7.370609283447265625e+01 1.568996047973632812e+01 -1.052505224943161011e-01 7.965775966644287109e+00 2.358157634735107422e+00 5.427662134170532227e-01
1.986000000000000000e+03 7.442340850830078125e+01 -2.557855415344238281e+01 -8.566568791866302490e-02 7.720657348632812500e+00 2.290497541427612305e+00 -5.290016531944274902e-01
1.987000000000000000e+03 7.354342651367187500e+01 2.891696548461914062e+01 -6.483862549066543579e-02 8.383677482604980469e+00 2.495651721954345703e+00 1.973808258771896362e-01
1.988000000000000000e+03 7.405213165283203125e+01 -2.824878692626953125e+01 -1.117180734872817993e-01 7.866049289703369141e+00 2.326299190521240234e+00 -4.696265161037445068e-01
1.989000000000000000e+03 7.424053955078125000e+01 -2.325856208801269531e+00 2.343820929527282715e-01 6.776706695556640625e+00 2.103326559066772461e+00 3.356378674507141113e-01
1.990000000000000000e+03 7.137146759033203125e+01 3.434531402587890625e+01 -9.821685403585433960e-02 8.182385444641113281e+00 2.425250530242919922e+00 1.132921576499938965e-01
1.991000000000000000e+03 7.467649078369140625e+01 -2.189372825622558594e+01 -3.702273592352867126e-02 7.468101501464843750e+00 2.229323625564575195e+00 -5.875409841537475586e-01
1.992000000000000000e+03 7.424218750000000000e+01 5.875045776367187500e+00 2.801031619310379028e-02 7.306214332580566406e+00 2.200267314910888672e+00 6.668126583099365234e-01
1.993000000000000000e+03 7.424933624267578125e+01 4.508024692535400391e+00 6.174759939312934875e-02 7.202553272247314453e+00 2.179290294647216797e+00 6.490577459335327148e-01
1.994000000000000000e+03 7.310169219970703125e+01 -3.066664314270019531e+01 -1.597518026828765869e-01 7.936973094940185547e+00 2.333166360855102539e+00 -4.246075153350830078e-01
1.995000000000000000e+03 7.352432250976562500e+01 2.046853446960449219e+01 -1.074219495058059692e-01 8.157814979553222656e+00 2.415117979049682617e+00 4.128608703613281250e-01
1.996000000000000000e+03 7.398719024658203125e+01 1.275636196136474609e+01 -8.480572700500488281e-02 7.804928779602050781e+00 2.316036939620971680e+00 6.082289218902587891e-01
1.997000000000000000e+03 7.409758758544921875e+01 1.133775901794433594e+01 -6.813936680555343628e-02 7.710778236389160156e+00 2.292791604995727539e+00 6.334274411201477051e-01
1.998000000000000000e+03 7.305281829833984375e+01 -3.496582412719726562e+01 -1.454250514507293701e-01 8.046683311462402344e+00 2.370377540588378906e+00 -2.665146589279174805e-01
1.999000000000000000e+03 7.422904968261718750e+01 3.083257102966308594e+01 -7.130590081214904785e-02 8.476702690124511719e+00 2.521618843078613281e+00 1.641682237386703491e-01
2.000000000000000000e+03 7.523224639892578125e+01 2.996406555175781250e+01 -5.564353242516517639e-02 8.597355842590332031e+00 2.562513828277587891e+00 1.575187444686889648e-01
2.001000000000000000e+03 7.758770465850830078e+00 3.061421966552734375e+01 1.187911704182624817e-01 -5.302034616470336914e-01 -1.234236806631088257e-01 3.255440294742584229e-01
2.002000000000000000e+03 1.030676269531250000e+01 6.435454368591308594e+00 -5.675336578860878944e-04 2.449359046295285225e-03 5.645476048812270164e-04 2.655626740306615829e-04
2.003000000000000000e+03 4.239838600158691406e+00 2.650572586059570312e+01 -1.125447358936071396e-02 -3.886371254920959473e-01 -1.199674755334854126e-01 2.818092405796051025e-01
2.004000000000000000e+03 6.299455165863037109e+00 2.781524276733398438e+01 4.434972256422042847e-02 -4.726742804050445557e-01 -1.284973770380020142e-01 3.578547835350036621e-01
2.005000000000000000e+03 4.518754005432128906e+00 -2.623366355895996094e+01 -1.070689596235752106e-02 -4.150523841381072998e-01 -1.277277916669845581e-01 -2.959103882312774658e-01
2.006000000000000000e+03 6.460969924926757812e+00 -8.937432289123535156e+00 7.547120912931859493e-04 -6.572703714482486248e-04 2.923252031905576587e-05 4.321012529544532299e-04
2.007000000000000000e+03 3.967253208160400391e+00 2.330265998840332031e+01 -7.690936326980590820e-02 -2.178892046213150024e-01 -8.843957632780075073e-02 2.338971793651580811e-01
2.008000000000000000e+03 1.122306823730468750e+01 2.311865615844726562e+01 -1.258100271224975586e-01 -6.461260318756103516e-01 -2.315808087587356567e-01 5.201091766357421875e-01
2.009000000000000000e+03 1.193766689300537109e+01 2.734852600097656250e+01 1.508965790271759033e-01 -5.498514175415039062e-01 -1.196864545345306396e-01 3.834208846092224121e-01
2.010000000000000000e+03 5.791686534881591797e+00 -2.074396324157714844e+01 -1.948293745517730713e-01 -1.726150363683700562e-01 -1.102333217859268188e-01 -2.616761326789855957e-01
2.011000000000000000e+03 3.931319236755371094e+00 -2.144718933105468750e+01 -7.821822166442871094e-02 -1.717822253704071045e-01 -7.500013709068298340e-02 -1.837712377309799194e-01
2.012000000000000000e+03 6.073715209960937500e+00 -2.372620201110839844e+01 -5.513653531670570374e-02 -3.621804416179656982e-01 -1.251951009035110474e-01 -3.659152388572692871e-01
2.013000000000000000e+03 6.075611591339111328e+00 -2.222131919860839844e+01 -1.601176708936691284e-01 -2.580042481422424316e-01 -1.254365742206573486e-01 -3.422223031520843506e-01
2.014000000000000000e+03 4.642564296722412109e+00 1.229526710510253906e+01 8.601306937634944916e-03 -5.988534539937973022e-03 7.838318124413490295e-04 -5.270381807349622250e-04
2.015000000000000000e+03 4.285644054412841797e+00 -2.040948295593261719e+01 -1.282517760992050171e-01 -1.219120472669601440e-01 -7.504914700984954834e-02 -1.602372080087661743e-01
2.016000000000000000e+03 5.606074810028076172e+00 2.701986694335937500e+01 1.624852232635021210e-02 -4.450397193431854248e-01 -1.286373585462570190e-01 3.379208445549011230e-01
2.017000000000000000e+03 8.360480308532714844e+00 -6.457438468933105469e+00 4.261590074747800827e-04 -1.001288532279431820e-03 -1.725388428894802928e-04 1.542357349535450339e-04
2.018000000000000000e+03 5.738348007202148438e+00 -2.679719924926757812e+01 2.005635946989059448e-02 -4.613146483898162842e-01 -1.323774904012680054e-01 -3.450801372528076172e-01
2.019000000000000000e+03 4.149467468261718750e+00 2.062178230285644531e+01 -1.137014180421829224e-01 -9.183862805366516113e-02 -6.166201457381248474e-02 1.140697598457336426e-01
2.020000000000000000e+03 4.572731971740722656e+00 2.223563385009765625e+01 -1.435766071081161499e-01 -1.661441624164581299e-01 -9.291623532772064209e-02 2.238725870847702026e-01
2.021000000000000000e+03 5.205844402313232422e+00 3.307320404052734375e+01 8.234408497810363770e-02 -6.226258277893066406e-01 -1.620845347642898560e-01 2.285551279783248901e-01
2.022000000000000000e+03 5.819846630096435547e+00 -3.315364074707031250e+01 9.329822659492492676e-02 -6.106249094009399414e-01 -1.551980078220367432e-01 -2.289492934942245483e-01
2.023000000000000000e+03 1.162867259979248047e+01 -3.039791297912597656e+01 1.891659051179885864e-01 -4.311477839946746826e-01 -7.259456813335418701e-02 -3.136152923107147217e-01
2.024000000000000000e+03 7.097719192504882812e+00 2.130452728271484375e+01 -3.216722905635833740e-01 -1.835334748029708862e-01 -1.515617370605468750e-01 3.828309774398803711e-01
2.025000000000000000e+03 3.758088350296020508e+00 9.954759597778320312e+00 4.126583226025104523e-03 -1.209404086694121361e-03 8.751537534408271313e-04 -1.534980954602360725e-03
2.026000000000000000e+03 3.736318588256835938e+00 8.882832527160644531e+00 -7.315155380638316274e-05 -1.662741124164313078e-04 -7.182770059444010258e-05 -7.219915278255939484e-04
2.027000000000000000e+03 5.478848457336425781e+00 8.639242172241210938e+00 2.102384809404611588e-03 -1.948908029589802027e-04 5.722482455894351006e-04 -8.959187107393518090e-05
2.028000000000000000e+03 5.269882202148437500e+00 -7.937804698944091797e+00 9.095891728065907955e-04 -5.457393708638846874e-04 1.091549493139609694e-04 5.677831941284239292e-04
2.029000000000000000e+03 4.971521377563476562e+00 -6.243797779083251953e+00 4.383985069580376148e-04 -4.331622621975839138e-04 1.570867652844754048e-06 -3.928558144252747297e-04
2.030000000000000000e+03 4.453623294830322266e+00 -5.364270210266113281e+00 4.508053098106756806e-05 3.960669273510575294e-04 1.323442411376163363e-04 4.768093349412083626e-04
2.031000000000000000e+03 1.462732887268066406e+01 2.251435470581054688e+01 -7.337186485528945923e-02 -7.489125728607177734e-01 -2.466853260993957520e-01 3.857215344905853271e-01
2.032000000000000000e+03 2.044834899902343750e+01 1.428951263427734375e+01 -4.914898574352264404e-01 -6.704615950584411621e-01 -3.485854268074035645e-01 3.781165778636932373e-01
2.033000000000000000e+03 6.378760814666748047e+00 -7.876262187957763672e+00 5.238989833742380142e-04 -3.813154023646347923e-07 1.570552849443629384e-04 -1.041617942973971367e-03
2.034000000000000000e+03 1.920060348510742188e+01 -1.682433509826660156e+01 -4.727491438388824463e-01 -1.183735281229019165e-01 -1.773367971181869507e-01 -4.674034118652343750e-01
2.035000000000000000e+03 1.971900939941406250e+01 1.927999305725097656e+01 -2.401904910802841187e-01 -4.529755413532257080e-01 -2.079498171806335449e-01 1.575089991092681885e-01
2.036000000000000000e+03 1.581613636016845703e+01 2.148915863037109375e+01 -1.448147296905517578e-01 -7.673375010490417480e-01 -2.736456692218780518e-01 3.296112120151519775e-01
2.037000000000000000e+03 1.855526351928710938e+01 -1.792548179626464844e+01 -4.138205051422119141e-01 -1.649311929941177368e-01 -1.736255139112472534e-01 -4.321403205394744873e-01
2.038000000000000000e+03 2.359248924255371094e+01 5.856343746185302734e+00 -2.004168331623077393e-01 -3.844380676746368408e-01 -1.754564642906188965e-01 5.308359861373901367e-01
2.039000000000000000e+03 2.415531539916992188e+01 5.028432369232177734e+00 -1.803882569074630737e-01 -3.143524825572967529e-01 -1.484222263097763062e-01 5.397179126739501953e-01
2.040000000000000000e+03 2.314086151123046875e+01 2.680416822433471680e+00 -1.413911432027816772e-01 -3.711182177066802979e-01 -1.537528038024902344e-01 5.081331729888916016e-01
2.041000000000000000e+03 1.991170120239257812e+01 -1.597588062286376953e+01 -5.042010545730590820e-01 -7.145144790410995483e-02 -1.726957559585571289e-01 -4.923678636550903320e-01
2.042000000000000000e+03 1.540821361541748047e+01 -2.145953178405761719e+01 -1.755328625440597534e-01 -3.800677359104156494e-01 -1.666801869869232178e-01 -3.697522282600402832e-01
2.043000000000000000e+03 1.834297561645507812e+01 -1.939933776855468750e+01 -2.890362143516540527e-01 -1.857658177614212036e-01 -1.424406170845031738e-01 -3.931246995925903320e-01
2.044000000000000000e+03 2.248425292968750000e+01 1.049226570129394531e+01 -3.577363491058349609e-01 -4.789251387119293213e-01 -2.509984374046325684e-01 4.402342140674591064e-01
2.045000000000000000e+03 7.224594879150390625e+01 4.085557174682617188e+01 -4.468609765172004700e-02 8.330775260925292969e+00 2.485826969146728516e+00 2.925611846148967743e-02
2.046000000000000000e+03 7.524890899658203125e+01 3.553279495239257812e+01 -4.503265768289566040e-02 8.699757575988769531e+00 2.596417427062988281e+00 7.523272186517715454e-02
2.047000000000000000e+03 2.282980346679687500e+01 7.942650318145751953e+00 -2.718711495399475098e-01 -4.851081073284149170e-01 -2.270937711000442505e-01 5.046296119689941406e-01
2.048000000000000000e+03 2.384600639343261719e+01 9.372878074645996094e+00 -2.866596579551696777e-01 -2.724697291851043701e-01 -1.677388101816177368e-01 4.353116750717163086e-01
2.049000000000000000e+03 4.937837219238281250e+01 -9.121906280517578125e+00 1.420786499977111816e+00 1.004564666748046875e+01 3.439929962158203125e+00 5.240919113159179688e+00
2.050000000000000000e+03 4.915595626831054688e+01 -9.101039886474609375e+00 1.694424867630004883e+00 8.677339553833007812e+00 3.111529111862182617e+00 5.342609882354736328e+00
2.051000000000000000e+03 4.848492050170898438e+01 -4.066323757171630859e+00 2.738035678863525391e+00 5.392077445983886719e+00 2.439033985137939453e+00 -4.888452053070068359e+00
2.052000000000000000e+03 4.866572189331054688e+01 -9.018902778625488281e+00 2.194792509078979492e+00 6.477243423461914062e+00 2.601610660552978516e+00 5.060643672943115234e+00
2.053000000000000000e+03 4.703717803955078125e+01 -9.948519706726074219e+00 1.523521304130554199e+00 3.013003349304199219e+00 1.360957384109497070e+00 3.201908588409423828e+00
2.054000000000000000e+03 5.122890090942382812e+01 -3.959096908569335938e+00 1.291820645332336426e+00 1.641674232482910156e+01 5.312568664550781250e+00 -8.638238906860351562e-01
2.055000000000000000e+03 5.217850494384765625e+01 -4.962313652038574219e+00 5.482744693756103516e+00 1.585389995574951172e+01 6.400993347167968750e+00 2.109449863433837891e+00
2.056000000000000000e+03 5.066919326782226562e+01 -8.873502731323242188e+00 7.089062333106994629e-01 1.603763580322265625e+01 5.023962497711181641e+00 2.721302032470703125e+00
2.057000000000000000e+03 5.194413757324218750e+01 -4.814643859863281250e+00 4.722555637359619141e+00 1.656820678710937500e+01 6.387228965759277344e+00 1.914484739303588867e+00
2.058000000000000000e+03 5.023478698730468750e+01 -3.319610118865966797e+00 5.643017292022705078e-01 1.313023185729980469e+01 4.108360290527343750e+00 -3.707208871841430664e+00
2.059000000000000000e+03 4.663737106323242188e+01 -9.663182258605957031e+00 1.355936765670776367e+00 2.208907604217529297e+00 1.069453358650207520e+00 2.647557973861694336e+00
2.060000000000000000e+03 4.660122680664062500e+01 -3.446353197097778320e+00 1.508481025695800781e+00 1.887366175651550293e+00 1.018754243850708008e+00 -2.444063186645507812e+00
2.061000000000000000e+03 4.581457519531250000e+01 -2.677508592605590820e+00 1.285637021064758301e+00 1.838333129882812500e+00 9.371910691261291504e-01 -2.182597398757934570e+00
2.062000000000000000e+03 4.511065673828125000e+01 -2.188199520111083984e+00 1.092080950736999512e+00 1.569968342781066895e+00 7.986147999763488770e-01 -1.864114522933959961e+00
2.063000000000000000e+03 2.478450775146484375e+01 1.581813931465148926e+00 -1.720258891582489014e-01 -2.090027034282684326e-01 -1.143085807561874390e-01 5.353183746337890625e-01
2.064000000000000000e+03 4.451108932495117188e+01 -1.033702659606933594e+01 5.040486454963684082e-01 1.046065211296081543e+00 4.650341868400573730e-01 1.424933552742004395e+00
2.065000000000000000e+03 4.645853424072265625e+01 -1.022135543823242188e+01 1.242936372756958008e+00 2.518322467803955078e+00 1.128377676010131836e+00 2.694696426391601562e+00
2.066000000000000000e+03 4.568402862548828125e+01 -2.180545806884765625e+00 1.277873158454895020e+00 2.072415590286254883e+00 1.005086541175842285e+00 -2.264775037765502930e+00
2.067000000000000000e+03 2.299095726013183594e+01 -1.806108117103576660e+00 -1.626756042242050171e-01 -1.890137642621994019e-01 -1.055068150162696838e-01 3.497722148895263672e-01
2.068000000000000000e+03 2.558917808532714844e+01 -1.485157251358032227e+00 -2.891472280025482178e-01 -1.037245318293571472e-01 -1.178615242242813110e-01 4.603954255580902100e-01
2.069000000000000000e+03 2.743511772155761719e+01 -2.305308580398559570e+00 -4.262690544128417969e-01 -3.595552593469619751e-02 -1.386673748493194580e-01 4.486986100673675537e-01
2.070000000000000000e+03 2.742578887939453125e+01 -1.649212121963500977e+00 -3.794548809528350830e-01 -4.101501405239105225e-02 -1.261409670114517212e-01 4.816726148128509521e-01
2.071000000000000000e+03 5.733009338378906250e+00 4.706253051757812500e+00 -2.426017745165154338e-04 -5.128515185788273811e-04 -2.266359952045604587e-04 4.046050889883190393e-04
2.072000000000000000e+03 4.839539051055908203e+00 5.353008270263671875e+00 -6.421654834412038326e-04 -1.393056736560538411e-04 -2.344413514947518706e-04 3.433594538364559412e-04
2.073000000000000000e+03 2.539619445800781250e+01 -2.090207099914550781e+00 -3.035967350006103516e-01 -9.777776896953582764e-02 -1.204123497009277344e-01 4.274059236049652100e-01
2.074000000000000000e+03 8.214241981506347656e+00 6.023205280303955078e+00 9.281195525545626879e-05 2.230079844594001770e-03 6.968675297684967518e-04 3.949468082282692194e-04
2.075000000000000000e+03 2.648110771179199219e+01 -1.258221507072448730e+00 -3.138389885425567627e-01 -7.586793601512908936e-02 -1.169120743870735168e-01 4.888630807399749756e-01
2.076000000000000000e+03 9.930681228637695312e+00 5.825932502746582031e+00 1.992843463085591793e-04 1.781757338903844357e-03 5.943124997429549694e-04 1.445264788344502449e-03
2.077000000000000000e+03 2.676958274841308594e+01 -1.715090751647949219e+00 -3.525137901306152344e-01 -5.893585085868835449e-02 -1.234348937869071960e-01 4.739123582839965820e-01
2.078000000000000000e+03 3.162813568115234375e+01 -2.216773033142089844e+00 -5.990988016128540039e-01 4.662958905100822449e-02 -1.657407730817794800e-01 4.319398999214172363e-01
2.079000000000000000e+03 3.015025138854980469e+01 -1.614078164100646973e+00 -4.709770381450653076e-01 3.294958174228668213e-02 -1.314082443714141846e-01 4.740020334720611572e-01
2.080000000000000000e+03 6.144328117370605469e+00 5.464155197143554688e+00 1.972467289306223392e-04 -7.976267952471971512e-04 -1.801140315365046263e-04 3.699145163409411907e-04
2.081000000000000000e+03 6.367883205413818359e+00 4.785942554473876953e+00 3.136014565825462341e-04 9.986876975744962692e-04 3.936867578886449337e-04 -1.862075441749766469e-04
2.082000000000000000e+03 2.812427711486816406e+01 -2.324529409408569336e+00 -4.615494906902313232e-01 -2.016916126012802124e-02 -1.445155888795852661e-01 4.541613757610321045e-01
2.083000000000000000e+03 2.938482475280761719e+01 -1.174513459205627441e+00 -4.031856656074523926e-01 1.549947913736104965e-02 -1.163058504462242126e-01 4.941028356552124023e-01
2.084000000000000000e+03 3.084967041015625000e+01 -1.515284061431884766e+00 -4.788666069507598877e-01 4.627135023474693298e-02 -1.297785788774490356e-01 4.636250138282775879e-01
2.085000000000000000e+03 3.302830886840820312e+01 -1.513933658599853516e+00 -4.978545904159545898e-01 9.446490556001663208e-02 -1.210169047117233276e-01 4.016358852386474609e-01
2.086000000000000000e+03 3.091901016235351562e+01 -2.243613004684448242e+00 -5.782194137573242188e-01 3.505830094218254089e-02 -1.629483401775360107e-01 4.420293569564819336e-01
2.087000000000000000e+03 3.228195190429687500e+01 -7.351595163345336914e-01 -3.761872351169586182e-01 1.047563925385475159e-01 -8.142925798892974854e-02 4.262410700321197510e-01
2.088000000000000000e+03 3.379871749877929688e+01 -2.213597297668457031e+00 -6.395717263221740723e-01 8.281564712524414062e-02 -1.670268326997756958e-01 3.700762987136840820e-01
2.089000000000000000e+03 3.230356979370117188e+01 -1.486555218696594238e+00 -4.905785024166107178e-01 7.864922285079956055e-02 -1.235787793993949890e-01 4.277997910976409912e-01
2.090000000000000000e+03 3.375393676757812500e+01 -1.537118196487426758e+00 -4.971191883087158203e-01 1.098894700407981873e-01 -1.161689236760139465e-01 3.706738948822021484e-01
2.091000000000000000e+03 3.962854385375976562e+01 -1.186225223541259766e+01 -2.843228876590728760e-01 4.101578593254089355e-01 3.775049000978469849e-02 3.623218536376953125e-01
2.092000000000000000e+03 3.590633010864257812e+01 -1.490444421768188477e+00 -4.298424422740936279e-01 1.655189692974090576e-01 -7.929704338312149048e-02 2.423164993524551392e-01
2.093000000000000000e+03 4.037608337402343750e+01 -1.178305625915527344e+01 -1.762673109769821167e-01 4.952095746994018555e-01 9.568267315626144409e-02 4.935545027256011963e-01
2.094000000000000000e+03 3.736729812622070312e+01 -1.207453727722167969e+01 -5.169494748115539551e-01 2.431623041629791260e-01 -8.213614672422409058e-02 6.636866927146911621e-02
2.095000000000000000e+03 3.746507644653320312e+01 -2.127145767211914062e+00 -5.294474363327026367e-01 1.614520996809005737e-01 -1.103985980153083801e-01 1.537515223026275635e-01
2.096000000000000000e+03 3.519334793090820312e+01 -1.522917866706848145e+00 -4.664923548698425293e-01 1.429857462644577026e-01 -9.705197811126708984e-02 2.929462790489196777e-01
2.097000000000000000e+03 3.441758728027343750e+01 -8.770824074745178223e-01 -3.535580933094024658e-01 1.621843129396438599e-01 -5.741213262081146240e-02 3.213778734207153320e-01
2.098000000000000000e+03 3.577863693237304688e+01 -1.142807483673095703e+01 -8.498718142509460449e-01 1.087893694639205933e-01 -2.223247438669204712e-01 -1.280865222215652466e-01
2.099000000000000000e+03 3.812751007080078125e+01 -1.201069736480712891e+01 -4.521471858024597168e-01 2.904832959175109863e-01 -4.849916696548461914e-02 1.529179513454437256e-01
2.100000000000000000e+03 4.268284606933593750e+01 -1.155955696105957031e+01 2.922265529632568359e-01 9.170497655868530273e-01 3.627828955650329590e-01 1.085431098937988281e+00
2.101000000000000000e+03 5.556015968322753906e+00 -5.559354782104492188e+00 -2.679981989786028862e-04 8.014973718672990799e-04 1.600497489562258124e-04 -1.780560705810785294e-04
2.102000000000000000e+03 7.077977657318115234e+00 -5.283723354339599609e+00 1.515695621492341161e-04 -3.454008256085216999e-04 -5.814938049297779799e-05 -4.309361393097788095e-04
2.103000000000000000e+03 3.744833755493164062e+01 -1.282391929626464844e+01 -3.005403578281402588e-01 3.442587852478027344e-01 1.311553176492452621e-02 1.549235582351684570e-01
2.104000000000000000e+03 3.662505340576171875e+01 -1.452895402908325195e+00 -3.844181299209594727e-01 1.907953768968582153e-01 -5.808683112263679504e-02 1.846077740192413330e-01
2.105000000000000000e+03 3.808539581298828125e+01 -1.385550498962402344e+00 -2.500603199005126953e-01 2.656598985195159912e-01 4.679872188717126846e-03 2.742671407759189606e-02
2.106000000000000000e+03 3.272558593750000000e+01 -1.156837368011474609e+01 -9.186428785324096680e-01 5.087409913539886475e-02 -2.603306472301483154e-01 -2.841003537178039551e-01
2.107000000000000000e+03 3.278089904785156250e+01 -1.237992668151855469e+01 -7.232642769813537598e-01 8.987817913293838501e-02 -1.900158226490020752e-01 -2.628525495529174805e-01
2.108000000000000000e+03 3.432680511474609375e+01 -1.226569938659667969e+01 -6.833826303482055664e-01 1.181893721222877502e-01 -1.695579737424850464e-01 -1.772167831659317017e-01
2.109000000000000000e+03 3.660700225830078125e+01 -1.212778568267822266e+01 -5.736090540885925293e-01 2.023144215345382690e-01 -1.113883778452873230e-01 -8.426954969763755798e-03
2.110000000000000000e+03 4.037518310546875000e+01 -2.110075235366821289e+00 -2.005041390657424927e-01 3.143993914127349854e-01 3.416857495903968811e-02 -2.106740027666091919e-01
2.111000000000000000e+03 3.954335403442382812e+01 -1.343011021614074707e+00 -5.626327171921730042e-02 3.804366886615753174e-01 9.725202620029449463e-02 -1.893355399370193481e-01
2.112000000000000000e+03 2.971162986755371094e+01 -1.235729885101318359e+01 -7.606627941131591797e-01 5.352041125297546387e-02 -2.121427059173583984e-01 -3.944830000400543213e-01
2.113000000000000000e+03 3.355198287963867188e+01 -1.232461452484130859e+01 -7.038685679435729980e-01 1.051489114761352539e-01 -1.796158999204635620e-01 -2.210236936807632446e-01
2.114000000000000000e+03 4.097910690307617188e+01 -1.399993181228637695e+00 1.581568866968154907e-01 5.250804424285888672e-01 2.049711942672729492e-01 -4.595924913883209229e-01
2.115000000000000000e+03 4.180227279663085938e+01 -2.195132970809936523e+00 5.065078660845756531e-02 4.580101668834686279e-01 1.525982916355133057e-01 -4.902728497982025146e-01
2.116000000000000000e+03 3.124938964843750000e+01 -1.235841178894042969e+01 -7.528237700462341309e-01 7.380823045969009399e-02 -2.037046700716018677e-01 -3.383107483386993408e-01
2.117000000000000000e+03 4.427529525756835938e+01 -1.624010920524597168e+00 9.289242625236511230e-01 1.430317044258117676e+00 7.077723741531372070e-01 -1.588847994804382324e+00
2.118000000000000000e+03 4.305920410156250000e+01 -1.647864341735839844e+00 5.824586749076843262e-01 9.160244464874267578e-01 4.495449364185333252e-01 -1.039972901344299316e+00
2.119000000000000000e+03 4.239266967773437500e+01 -1.580807328224182129e+00 4.244638085365295410e-01 7.558452486991882324e-01 3.540927171707153320e-01 -8.247836232185363770e-01
2.120000000000000000e+03 2.649270820617675781e+01 -1.163125419616699219e+01 -8.106084465980529785e-01 3.825343400239944458e-02 -2.317065000534057617e-01 -4.619026184082031250e-01
2.121000000000000000e+03 2.654053878784179688e+01 -1.243244457244873047e+01 -7.195072174072265625e-01 5.233010649681091309e-02 -2.001531273126602173e-01 -4.787868261337280273e-01
2.122000000000000000e+03 2.893646812438964844e+01 -1.238401794433593750e+01 -7.542876601219177246e-01 5.173131078481674194e-02 -2.107669115066528320e-01 -4.208169281482696533e-01
2.123000000000000000e+03 2.814858055114746094e+01 -1.241286277770996094e+01 -7.435716390609741211e-01 5.081558600068092346e-02 -2.078268080949783325e-01 -4.435997605323791504e-01
2.124000000000000000e+03 4.343423080444335938e+01 -1.136567211151123047e+01 4.379145205020904541e-01 1.092278480529785156e+00 4.590578973293304443e-01 1.300614118576049805e+00
2.125000000000000000e+03 2.251027297973632812e+01 -1.136873340606689453e+01 -6.856142282485961914e-01 4.780262708663940430e-02 -1.913434863090515137e-01 -4.867879450321197510e-01
2.126000000000000000e+03 2.064255905151367188e+01 -1.528968811035156250e+01 -5.237657427787780762e-01 -2.863369882106781006e-02 -1.657198369503021240e-01 -5.047703385353088379e-01
2.127000000000000000e+03 4.369359588623046875e+01 -1.674698233604431152e+00 7.474243044853210449e-01 1.124573826789855957e+00 5.615994334220886230e-01 -1.294036149978637695e+00
2.128000000000000000e+03 4.170010757446289062e+01 -1.492932438850402832e+00 2.879059016704559326e-01 6.352403759956359863e-01 2.769438922405242920e-01 -6.335536837577819824e-01
2.129000000000000000e+03 2.112131309509277344e+01 -1.249393749237060547e+01 -6.229989528656005859e-01 1.029741577804088593e-02 -1.838104575872421265e-01 -5.144395828247070312e-01
2.130000000000000000e+03 2.734925842285156250e+01 -1.243313121795654297e+01 -7.307061553001403809e-01 4.908995330333709717e-02 -2.044848650693893433e-01 -4.643232822418212891e-01
2.131000000000000000e+03 4.557295989990234375e+01 -1.049003601074218750e+01 9.729127287864685059e-01 1.829676508903503418e+00 8.407768011093139648e-01 2.175202608108520508e+00
2.132000000000000000e+03 2.484607505798339844e+01 -1.247050952911376953e+01 -6.829099059104919434e-01 6.330187618732452393e-02 -1.858824044466018677e-01 -5.053486227989196777e-01
2.133000000000000000e+03 2.071980667114257812e+01 -1.380241203308105469e+01 -5.883266329765319824e-01 -1.685087382793426514e-02 -1.815532445907592773e-01 -5.246780514717102051e-01
2.134000000000000000e+03 2.294622611999511719e+01 -1.261985778808593750e+01 -6.492863297462463379e-01 5.241428688168525696e-02 -1.790616065263748169e-01 -5.202763080596923828e-01
2.135000000000000000e+03 2.260922622680664062e+01 -1.205403709411621094e+01 -6.652071475982666016e-01 4.674229770898818970e-02 -1.855394542217254639e-01 -5.083750486373901367e-01
2.136000000000000000e+03 1.065353298187255859e+01 5.753762722015380859e+00 2.380774240009486675e-04 -2.293905010446906090e-03 -6.167482351884245872e-04 -1.675651175901293755e-03
2.137000000000000000e+03 1.108141231536865234e+01 6.778545379638671875e+00 -2.069946349365636706e-04 -2.440889133140444756e-03 -7.943651289679110050e-04 -1.314434339292347431e-03
2.138000000000000000e+03 7.730603218078613281e+00 9.663084983825683594e+00 -1.098352659028023481e-04 1.064028590917587280e-03 2.862580004148185253e-04 7.437344756908714771e-04
2.139000000000000000e+03 8.212673187255859375e+00 6.914754390716552734e+00 4.436223534867167473e-04 -1.721493899822235107e-03 -3.833614464383572340e-04 -5.277702002786099911e-04
2.140000000000000000e+03 6.842154026031494141e+00 1.050834655761718750e+01 2.190257422626018524e-03 5.324888043105602264e-04 8.168238564394414425e-04 3.044682322070002556e-03
2.141000000000000000e+03 2.203874778747558594e+01 -2.408500164747238159e-01 -1.028364971280097961e-01 -3.118233680725097656e-01 -1.243979632854461670e-01 3.668783009052276611e-01
2.142000000000000000e+03 2.312865638732910156e+01 6.828961372375488281e+00 -2.326659560203552246e-01 -4.395212829113006592e-01 -2.016561776399612427e-01 5.196278691291809082e-01
2.143000000000000000e+03 2.192060661315917969e+01 1.317851352691650391e+01 -4.179235100746154785e-01 -4.510092735290527344e-01 -2.606798410415649414e-01 3.476744294166564941e-01
2.144000000000000000e+03 2.295520210266113281e+01 1.870469665527343750e+01 -1.658490598201751709e-01 -5.084207747131586075e-03 -5.127998068928718567e-02 1.643148995935916901e-02
2.145000000000000000e+03 2.288562393188476562e+01 -1.510674953460693359e+01 -4.945792257785797119e-01 6.281089782714843750e-02 -1.295305043458938599e-01 -5.138525962829589844e-01
2.146000000000000000e+03 6.151536464691162109e+00 2.110530471801757812e+01 -2.900830507278442383e-01 -1.093066856265068054e-01 -1.198169216513633728e-01 2.603522539138793945e-01
2.147000000000000000e+03 2.392230033874511719e+01 3.524880409240722656e+00 -1.627400815486907959e-01 -3.293943405151367188e-01 -1.476403325796127319e-01 5.405651926994323730e-01
2.148000000000000000e+03 9.786042213439941406e+00 7.193325042724609375e+00 8.337125764228403568e-04 -2.572929952293634415e-03 -5.217652069404721260e-04 -8.751876885071396828e-05
2.149000000000000000e+03 7.095514678955078125e+01 -2.663221549987792969e+01 -2.030976265668869019e-01 7.796025276184082031e+00 2.277878284454345703e+00 -6.306887269020080566e-01
2.150000000000000000e+03 6.974642944335937500e+01 -3.193906021118164062e+01 -2.856225669384002686e-01 7.840474605560302734e+00 2.266455650329589844e+00 -4.251362383365631104e-01
2.151000000000000000e+03 7.204572296142578125e+01 -3.337066650390625000e+01 -1.883563399314880371e-01 7.957851886749267578e+00 2.330848693847656250e+00 -3.452246189117431641e-01
2.152000000000000000e+03 7.362384033203125000e+01 -2.305376434326171875e+01 -7.429459691047668457e-02 7.598104476928710938e+00 2.257143020629882812e+00 -6.361724138259887695e-01
2.153000000000000000e+03 7.357228088378906250e+01 -2.415647506713867188e+01 -8.967038989067077637e-02 7.655311107635498047e+00 2.269692182540893555e+00 -6.120709180831909180e-01
2.154000000000000000e+03 9.055368423461914062e+00 2.881584358215332031e+01 1.143587231636047363e-01 -5.140557289123535156e-01 -1.199091002345085144e-01 3.843523263931274414e-01
2.155000000000000000e+03 9.373657226562500000e+00 3.270663833618164062e+01 1.769542843103408813e-01 -5.103660821914672852e-01 -1.000235378742218018e-01 2.743546962738037109e-01
2.156000000000000000e+03 7.166196441650390625e+01 2.321498107910156250e+01 -1.511854827404022217e-01 8.082257270812988281e+00 2.379321336746215820e+00 3.788535892963409424e-01
2.157000000000000000e+03 7.056152343750000000e+01 1.708101272583007812e+01 -2.079845219850540161e-01 7.937133312225341797e+00 2.318744659423828125e+00 5.993849635124206543e-01
2.158000000000000000e+03 7.227504730224609375e+01 1.562534046173095703e+01 -1.498970836400985718e-01 7.938234329223632812e+00 2.336501121520996094e+00 6.052393913269042969e-01
2.159000000000000000e+03 7.159862518310546875e+01 1.111020946502685547e+01 -1.210316792130470276e-01 7.773167133331298828e+00 2.295640707015991211e+00 7.663386464118957520e-01
2.160000000000000000e+03 7.296504211425781250e+01 8.550416946411132812e+00 -3.827180713415145874e-02 7.583734989166259766e+00 2.263638973236083984e+00 7.499569058418273926e-01
2.161000000000000000e+03 7.310943603515625000e+01 -1.690917396545410156e+01 8.459457010030746460e-02 7.260529518127441406e+00 2.203537225723266602e+00 -6.857422590255737305e-01
2.162000000000000000e+03 7.304542541503906250e+01 -9.704638481140136719e+00 3.297536969184875488e-01 6.898324489593505859e+00 2.168423414230346680e+00 -2.963568866252899170e-01
2.163000000000000000e+03 7.199289703369140625e+01 -9.833649635314941406e+00 4.315651655197143555e-01 7.042335987091064453e+00 2.242170333862304688e+00 -3.328975141048431396e-01
2.164000000000000000e+03 7.167151641845703125e+01 4.557082176208496094e+00 1.067374944686889648e-01 7.458066463470458984e+00 2.269441127777099609e+00 8.178090453147888184e-01
2.165000000000000000e+03 7.297274780273437500e+01 1.796583056449890137e+00 1.899550259113311768e-01 7.158445358276367188e+00 2.204519987106323242e+00 6.514701247215270996e-01
2.166000000000000000e+03 7.316388702392578125e+01 -1.828617095947265625e+01 3.640116378664970398e-02 7.339579582214355469e+00 2.212794065475463867e+00 -7.032501101493835449e-01
2.167000000000000000e+03 7.284400939941406250e+01 -1.401912212371826172e+01 2.128887027502059937e-01 7.122647285461425781e+00 2.200660943984985352e+00 -6.035695075988769531e-01
2.168000000000000000e+03 7.425251007080078125e+01 -1.100165939331054688e+01 2.214777320623397827e-01 6.788713455200195312e+00 2.103057384490966797e+00 -3.525853455066680908e-01
2.169000000000000000e+03 7.280263519287109375e+01 -8.393513679504394531e+00 3.890478312969207764e-01 6.903372764587402344e+00 2.187726020812988281e+00 -1.797603368759155273e-01
2.170000000000000000e+03 7.287320709228515625e+01 -3.574461698532104492e+00 3.700215220451354980e-01 6.918643474578857422e+00 2.186599493026733398e+00 2.818135023117065430e-01
2.171000000000000000e+03 7.459708404541015625e+01 -2.069181823730468750e+01 -2.066609449684619904e-02 7.384981155395507812e+00 2.209294557571411133e+00 -6.047286391258239746e-01
2.172000000000000000e+03 7.165019226074218750e+01 5.918590545654296875e+00 4.164958745241165161e-02 7.532885074615478516e+00 2.272360324859619141e+00 8.324249386787414551e-01
2.173000000000000000e+03 7.294562530517578125e+01 -9.015488624572753906e-01 2.901518046855926514e-01 7.012176036834716797e+00 2.190698385238647461e+00 4.947405755519866943e-01
2.174000000000000000e+03 7.159514617919921875e+01 -8.375779986381530762e-01 3.892827033996582031e-01 7.178779125213623047e+00 2.270418643951416016e+00 5.639104843139648438e-01
2.175000000000000000e+03 7.173523712158203125e+01 9.798702239990234375e+00 -9.113160520792007446e-02 7.718473911285400391e+00 2.288202762603759766e+00 7.951707839965820312e-01
2.176000000000000000e+03 7.198590850830078125e+01 2.774714660644531250e+01 -1.188634261488914490e-01 8.192209243774414062e+00 2.422003746032714844e+00 2.493795305490493774e-01
2.177000000000000000e+03 7.205143737792968750e+01 -2.757605743408203125e+01 -1.716357618570327759e-01 7.823951721191406250e+00 2.295694828033447266e+00 -5.678673386573791504e-01
2.178000000000000000e+03 7.294593048095703125e+01 -2.863108825683593750e+01 -1.497508883476257324e-01 7.856455802917480469e+00 2.312011480331420898e+00 -5.081303715705871582e-01
2.179000000000000000e+03 7.343753814697265625e+01 1.886671829223632812e+01 -1.130452379584312439e-01 8.094932556152343750e+00 2.394566059112548828e+00 4.606052339076995850e-01
2.180000000000000000e+03 6.440873146057128906e+00 3.384014511108398438e+01 1.146994456648826599e-01 -5.845581889152526855e-01 -1.409576237201690674e-01 2.326051592826843262e-01
2.181000000000000000e+03 5.337320804595947266e+00 2.602003288269042969e+01 -1.681187003850936890e-02 -3.943994343280792236e-01 -1.233633980154991150e-01 3.420122265815734863e-01
2.182000000000000000e+03 5.129921436309814453e+00 2.488153457641601562e+01 -5.507247522473335266e-02 -3.330779671669006348e-01 -1.164451315999031067e-01 3.219092488288879395e-01
2.183000000000000000e+03 1.004871368408203125e+01 2.163812637329101562e+01 -3.221371173858642578e-01 -5.009521842002868652e-01 -2.469267845153808594e-01 5.608151555061340332e-01
2.184000000000000000e+03 8.846684455871582031e+00 -2.381330680847167969e+01 -4.246567562222480774e-02 -4.829512834548950195e-01 -1.576250791549682617e-01 -4.533019959926605225e-01
2.185000000000000000e+03 6.732991218566894531e+00 -6.435597896575927734e+00 2.516168751753866673e-04 -3.680602239910513163e-04 -3.493300391710363328e-05 -4.336920392233878374e-04
2.186000000000000000e+03 7.880456447601318359e+00 8.179313659667968750e+00 2.072854113066568971e-04 3.560752084013074636e-04 1.690081844571977854e-04 3.245146217523142695e-05
2.187000000000000000e+03 4.852529048919677734e+00 6.335196495056152344e+00 1.330990926362574100e-03 2.547837793827056885e-04 4.757324350066483021e-04 -3.885208279825747013e-04
2.188000000000000000e+03 7.376954555511474609e+00 7.421645641326904297e+00 4.790190432686358690e-04 8.978132973425090313e-04 4.130497109144926071e-04 1.186652458272874355e-03
2.189000000000000000e+03 2.498845863342285156e+01 9.572239875793457031e+00 -2.432819157838821411e-01 -8.970488607883453369e-02 -9.989603608846664429e-02 3.859208524227142334e-01
2.190000000000000000e+03 9.032497406005859375e+00 -2.157116889953613281e+01 -1.533385664224624634e-01 -5.083723068237304688e-01 -1.985132545232772827e-01 -4.900622069835662842e-01
2.191000000000000000e+03 1.246057319641113281e+01 -2.316080284118652344e+01 -5.251679569482803345e-02 -5.030417442321777344e-01 -1.666675657033920288e-01 -4.069246649742126465e-01
2.192000000000000000e+03 1.384106159210205078e+01 -2.157271957397460938e+01 -1.747053116559982300e-01 -4.864040315151214600e-01 -1.983328014612197876e-01 -3.778111338615417480e-01
2.193000000000000000e+03 7.390501403808593750e+01 3.418014526367187500e+01 -4.609556868672370911e-02 8.508333206176757812e+00 2.538671255111694336e+00 1.068024560809135437e-01
2.194000000000000000e+03 6.842123413085937500e+01 2.783569335937500000e+01 -2.101754546165466309e-01 7.799486637115478516e+00 2.276793479919433594e+00 2.503633797168731689e-01
2.195000000000000000e+03 1.639994621276855469e+01 -1.798817253112792969e+01 -4.601405560970306396e-01 -3.187784850597381592e-01 -2.336757034063339233e-01 -4.234202206134796143e-01
2.196000000000000000e+03 1.963257408142089844e+01 -1.947466278076171875e+01 -2.505777180194854736e-01 -9.662985801696777344e-02 -1.041622683405876160e-01 -3.986062705516815186e-01
2.197000000000000000e+03 8.112690925598144531e+00 2.405534362792968750e+01 -9.821855276823043823e-02 -4.144702255725860596e-01 -1.538066267967224121e-01 4.547258913516998291e-01
2.198000000000000000e+03 1.345889377593994141e+01 2.358796501159667969e+01 -1.539786159992218018e-02 -6.981989741325378418e-01 -2.140790522098541260e-01 4.160461425781250000e-01
2.199000000000000000e+03 2.230813598632812500e+01 1.190387439727783203e+01 -4.009549021720886230e-01 -4.479059278964996338e-01 -2.546582520008087158e-01 3.858668506145477295e-01
2.200000000000000000e+03 2.443649291992187500e+01 1.482939052581787109e+01 -2.486183345317840576e-01 5.535265058279037476e-02 -5.797970294952392578e-02 1.312960982322692871e-01
2.201000000000000000e+03 2.140887260437011719e+01 -1.471339702606201172e+01 -5.404941439628601074e-01 1.000502798706293106e-02 -1.591467410326004028e-01 -5.204051733016967773e-01
2.202000000000000000e+03 2.027049064636230469e+01 -1.761464881896972656e+01 -3.870783448219299316e-01 -5.800553038716316223e-02 -1.335251629352569580e-01 -4.491902291774749756e-01
2.203000000000000000e+03 8.521157264709472656e+00 -2.980089759826660156e+01 1.173768490552902222e-01 -5.056398510932922363e-01 -1.164788976311683655e-01 -3.349000215530395508e-01
2.204000000000000000e+03 6.066631317138671875e+00 -2.927502441406250000e+01 6.089016795158386230e-02 -5.227411389350891113e-01 -1.385553032159805298e-01 -3.118356764316558838e-01
2.205000000000000000e+03 1.227880287170410156e+01 2.467043113708496094e+01 3.211049363017082214e-02 -6.343938112258911133e-01 -1.806849986314773560e-01 4.414144456386566162e-01
2.206000000000000000e+03 1.707244110107421875e+01 -2.126624679565429688e+01 -1.683967858552932739e-01 -2.694412171840667725e-01 -1.313514113426208496e-01 -3.580508828163146973e-01
2.207000000000000000e+03 2.404648971557617188e+01 7.294512748718261719e+00 -2.285587489604949951e-01 -3.054344356060028076e-01 -1.601979583501815796e-01 5.020571947097778320e-01
2.208000000000000000e+03 5.130601882934570312e+00 -1.381995105743408203e+01 8.611092343926429749e-03 -1.382459327578544617e-02 -1.564050093293190002e-03 -5.456342361867427826e-03
2.209000000000000000e+03 7.141163635253906250e+01 2.013322067260742188e+01 -1.742086261510848999e-01 8.026207923889160156e+00 2.355599880218505859e+00 4.730325937271118164e-01
2.210000000000000000e+03 7.426885223388671875e+01 4.015669524669647217e-01 1.712053716182708740e-01 6.913230419158935547e+00 2.125330686569213867e+00 5.032333731651306152e-01
2.211000000000000000e+03 7.295918273925781250e+01 7.231391906738281250e+00 -3.826980013400316238e-03 7.502669334411621094e+00 2.249652624130249023e+00 7.591266632080078125e-01
2.212000000000000000e+03 7.090155601501464844e+00 -2.806956100463867188e+01 6.664910912513732910e-02 -4.959356486797332764e-01 -1.287859678268432617e-01 -3.536922633647918701e-01
2.213000000000000000e+03 1.093098258972167969e+01 -2.435256576538085938e+01 7.293715141713619232e-03 -5.004765987396240234e-01 -1.479548662900924683e-01 -4.255503714084625244e-01
2.214000000000000000e+03 7.398709106445312500e+01 -6.563410758972167969e+00 3.011689782142639160e-01 6.728930950164794922e+00 2.109030008316040039e+00 -8.743610233068466187e-03
2.215000000000000000e+03 4.966239547729492188e+01 -9.205073356628417969e+00 1.054052233695983887e+00 1.149979591369628906e+01 3.766154289245605469e+00 5.012532234191894531e+00
2.216000000000000000e+03 4.943757629394531250e+01 -3.974762916564941406e+00 1.944892764091491699e+00 1.042644786834716797e+01 3.711402177810668945e+00 -5.631644725799560547e+00
2.217000000000000000e+03 4.937847900390625000e+01 -3.718403339385986328e+00 1.673234820365905762e+00 1.011433124542236328e+01 3.536269903182983398e+00 -5.430933952331542969e+00
2.218000000000000000e+03 4.880367660522460938e+01 -3.943909645080566406e+00 2.485740661621093750e+00 7.016463756561279297e+00 2.850661277770996094e+00 -5.306748867034912109e+00
2.219000000000000000e+03 4.975423812866210938e+01 -3.542973995208740234e+00 1.069100022315979004e+00 1.166246891021728516e+01 3.819470882415771484e+00 -4.675008296966552734e+00
2.220000000000000000e+03 5.023022460937500000e+01 -9.104563713073730469e+00 6.342290043830871582e-01 1.401348686218261719e+01 4.394314765930175781e+00 3.944490432739257812e+00
2.221000000000000000e+03 5.095088577270507812e+01 -3.492792129516601562e+00 6.167668104171752930e-01 1.512135219573974609e+01 4.721435546875000000e+00 -1.957001209259033203e+00
2.222000000000000000e+03 5.047997283935546875e+01 -9.010812759399414062e+00 5.962815880775451660e-01 1.518650627136230469e+01 4.734836101531982422e+00 3.270746707916259766e+00
2.223000000000000000e+03 5.262406921386718750e+01 -7.239183425903320312e+00 7.383983612060546875e+00 1.413745784759521484e+01 6.456432342529296875e+00 -1.663891315460205078e+00
2.224000000000000000e+03 5.255632019042968750e+01 -6.797993659973144531e+00 8.632036209106445312e+00 1.408045768737792969e+01 6.813747882843017578e+00 -9.702327847480773926e-01
2.225000000000000000e+03 5.279841613769531250e+01 -7.062112808227539062e+00 7.579782962799072266e+00 1.356341171264648438e+01 6.342958450317382812e+00 -1.311871409416198730e+00
2.226000000000000000e+03 5.265998458862304688e+01 -6.444970607757568359e+00 8.749839782714843750e+00 1.366059494018554688e+01 6.723130226135253906e+00 -1.035003140568733215e-01
2.227000000000000000e+03 4.998109436035156250e+01 -3.903620719909667969e+00 1.131758213043212891e+00 1.357756233215332031e+01 4.412796497344970703e+00 -4.691393852233886719e+00
2.228000000000000000e+03 5.128778076171875000e+01 -3.555045366287231445e+00 8.982396125793457031e-01 1.542831325531005859e+01 4.897965908050537109e+00 -1.073764204978942871e+00
2.229000000000000000e+03 5.105226898193359375e+01 -8.664297103881835938e+00 1.242262601852416992e+00 1.720139694213867188e+01 5.533097743988037109e+00 1.145696878433227539e+00
2.230000000000000000e+03 5.150054168701171875e+01 -8.347985267639160156e+00 2.644228696823120117e+00 1.748697662353515625e+01 6.039361953735351562e+00 -7.379553914070129395e-01
2.231000000000000000e+03 5.258502960205078125e+01 -7.717764854431152344e+00 6.064176559448242188e+00 1.451558780670166016e+01 6.173929214477539062e+00 -2.027906179428100586e+00
2.232000000000000000e+03 5.203041458129882812e+01 -8.149767875671386719e+00 4.154932498931884766e+00 1.619027328491210938e+01 6.103561878204345703e+00 -1.806609988212585449e+00
2.233000000000000000e+03 5.131320190429687500e+01 -8.654441833496093750e+00 1.686273574829101562e+00 1.717331886291503906e+01 5.657877445220947266e+00 2.361836582422256470e-01
2.234000000000000000e+03 5.228241729736328125e+01 -7.938492298126220703e+00 5.113000869750976562e+00 1.553352832794189453e+01 6.193958759307861328e+00 -2.095613956451416016e+00
2.235000000000000000e+03 5.015812683105468750e+01 -3.646680355072021484e+00 8.296852707862854004e-01 1.363978004455566406e+01 4.340839385986328125e+00 -4.100732326507568359e+00
2.236000000000000000e+03 4.664392852783203125e+01 -2.879145622253417969e+00 1.626852869987487793e+00 2.546161651611328125e+00 1.251904368400573730e+00 -2.803147077560424805e+00
2.237000000000000000e+03 4.725067901611328125e+01 -3.476312398910522461e+00 1.966427803039550781e+00 2.760148048400878906e+00 1.417972803115844727e+00 -3.205840826034545898e+00
2.238000000000000000e+03 4.734730529785156250e+01 -9.563921928405761719e+00 1.722700715065002441e+00 3.221697092056274414e+00 1.483319401741027832e+00 3.389118909835815430e+00
2.239000000000000000e+03 4.750055694580078125e+01 -3.066474199295043945e+00 1.938172340393066406e+00 3.788059473037719727e+00 1.717869520187377930e+00 -3.669665336608886719e+00
2.240000000000000000e+03 4.636378860473632812e+01 -3.067920684814453125e+00 1.458514571189880371e+00 1.966153979301452637e+00 1.027400612831115723e+00 -2.418421983718872070e+00
2.241000000000000000e+03 4.558137893676757812e+01 -1.741909027099609375e+00 1.217517137527465820e+00 2.244991064071655273e+00 1.038752436637878418e+00 -2.275690317153930664e+00
2.242000000000000000e+03 4.485118103027343750e+01 -1.025200366973876953e+00 1.096643209457397461e+00 2.114615917205810547e+00 9.633777141571044922e-01 -2.040611267089843750e+00
2.243000000000000000e+03 4.468754959106445312e+01 -1.409081816673278809e+00 1.054102063179016113e+00 1.756151318550109863e+00 8.430759906768798828e-01 -1.846384525299072266e+00
2.244000000000000000e+03 4.505275344848632812e+01 -1.017928791046142578e+01 6.957215666770935059e-01 1.204121351242065430e+00 5.699529051780700684e-01 1.670602083206176758e+00
2.245000000000000000e+03 2.370469284057617188e+01 -1.102035284042358398e+00 -1.901839226484298706e-01 -1.930893808603286743e-01 -1.149819940328598022e-01 4.220581352710723877e-01
2.246000000000000000e+03 2.503053283691406250e+01 4.394770264625549316e-01 -2.017609924077987671e-01 -1.706800311803817749e-01 -1.117323115468025208e-01 5.167162418365478516e-01
2.247000000000000000e+03 4.408761215209960938e+01 -1.107712650299072266e+01 5.791849493980407715e-01 1.240906834602355957e+00 5.460275411605834961e-01 1.503867983818054199e+00
2.248000000000000000e+03 4.628015136718750000e+01 -1.069827556610107422e+01 1.190368294715881348e+00 2.649817466735839844e+00 1.152055740356445312e+00 2.710311174392700195e+00
2.249000000000000000e+03 2.527874946594238281e+01 -5.793347358703613281e-01 -2.403367459774017334e-01 -1.377283334732055664e-01 -1.134195253252983093e-01 4.930170476436614990e-01
2.250000000000000000e+03 2.590110397338867188e+01 -9.242725372314453125e-01 -2.752119004726409912e-01 -1.067389547824859619e-01 -1.145852506160736084e-01 4.922126233577728271e-01
2.251000000000000000e+03 9.113297462463378906e+00 5.967618942260742188e+00 1.627621822990477085e-04 -1.987215364351868629e-03 -5.473359487950801849e-04 -8.701218175701797009e-04
2.252000000000000000e+03 2.488719940185546875e+01 -1.205167531967163086e+00 -2.451947927474975586e-01 -1.407597213983535767e-01 -1.157863587141036987e-01 4.571064710617065430e-01
2.253000000000000000e+03 2.813819122314453125e+01 -1.691675543785095215e+00 -4.111458659172058105e-01 -2.149675413966178894e-02 -1.297927945852279663e-01 4.819344282150268555e-01
2.254000000000000000e+03 2.847497367858886719e+01 -4.268467724323272705e-01 -3.162038922309875488e-01 -6.924577057361602783e-03 -9.693854302167892456e-02 5.197288990020751953e-01
2.255000000000000000e+03 6.249029636383056641e+00 6.432317733764648438e+00 -4.519917420111596584e-04 -1.637621171539649367e-04 -1.847261592047289014e-04 3.732569748535752296e-04
2.256000000000000000e+03 2.819928741455078125e+01 -1.036593198776245117e+00 -3.611365556716918945e-01 -2.047825604677200317e-02 -1.144844442605972290e-01 5.049737095832824707e-01
2.257000000000000000e+03 3.157634925842285156e+01 -1.478201150894165039e+00 -4.829712808132171631e-01 6.270526349544525146e-02 -1.260797977447509766e-01 4.473005235195159912e-01
2.258000000000000000e+03 2.997710990905761719e+01 -9.221814870834350586e-01 -3.872669935226440430e-01 3.869606181979179382e-02 -1.045712754130363464e-01 4.906186461448669434e-01
2.259000000000000000e+03 2.884204864501953125e+01 -1.204222798347473145e+00 -3.938820362091064453e-01 2.094754017889499664e-03 -1.175361871719360352e-01 4.981414675712585449e-01
2.260000000000000000e+03 3.066482162475585938e+01 9.870255738496780396e-02 -2.824643850326538086e-01 8.320591598749160767e-02 -5.977754294872283936e-02 4.788097441196441650e-01
2.261000000000000000e+03 4.297061920166015625e+01 -1.022674322128295898e+00 6.905506253242492676e-01 1.130448222160339355e+00 5.462996363639831543e-01 -1.167143940925598145e+00
2.262000000000000000e+03 3.372156906127929688e+01 -8.708236217498779297e-01 -3.699661195278167725e-01 1.404641717672348022e-01 -6.885059177875518799e-02 3.605080544948577881e-01
2.263000000000000000e+03 3.896706771850585938e+01 -1.265844917297363281e+01 -1.536831408739089966e-01 4.711187183856964111e-01 9.523067623376846313e-02 3.687330186367034912e-01
2.264000000000000000e+03 3.970446014404296875e+01 -1.256276035308837891e+01 -6.603941321372985840e-02 5.542833209037780762e-01 1.464731693267822266e-01 4.904287755489349365e-01
2.265000000000000000e+03 3.510067749023437500e+01 -8.399869799613952637e-01 -3.187120556831359863e-01 1.876445710659027100e-01 -3.932024538516998291e-02 2.716366946697235107e-01
2.266000000000000000e+03 3.735264968872070312e+01 -1.417025089263916016e+00 -3.219295144081115723e-01 2.264564484357833862e-01 -2.864192239940166473e-02 1.115409955382347107e-01
2.267000000000000000e+03 3.648637008666992188e+01 -7.298715114593505859e-01 -2.150464802980422974e-01 2.532716095447540283e-01 1.146754156798124313e-02 1.478997319936752319e-01
2.268000000000000000e+03 3.578459548950195312e+01 -7.847710847854614258e-01 -2.746805250644683838e-01 2.149962484836578369e-01 -1.790528558194637299e-02 2.168406099081039429e-01
2.269000000000000000e+03 3.585032272338867188e+01 -1.217342376708984375e+01 -6.202934980392456055e-01 1.682135909795761108e-01 -1.356239616870880127e-01 -7.357109338045120239e-02
2.270000000000000000e+03 3.821447753906250000e+01 -1.274534988403320312e+01 -2.305506914854049683e-01 4.062131345272064209e-01 5.269873514771461487e-02 2.589308917522430420e-01
2.271000000000000000e+03 3.703698348999023438e+01 7.708974182605743408e-02 -4.264282062649726868e-03 3.826428353786468506e-01 1.135135665535926819e-01 1.802316680550575256e-02
2.272000000000000000e+03 3.509325790405273438e+01 -1.221766757965087891e+01 -6.561571955680847168e-01 1.402276903390884399e-01 -1.547788530588150024e-01 -1.294996589422225952e-01
2.273000000000000000e+03 3.753666305541992188e+01 -1.359608745574951172e+01 -1.048850193619728088e-01 4.617935419082641602e-01 1.070725619792938232e-01 2.580158710479736328e-01
2.274000000000000000e+03 4.189596176147460938e+01 -1.163179492950439453e+01 9.942971915006637573e-02 7.385419011116027832e-01 2.513915002346038818e-01 8.391915559768676758e-01
2.275000000000000000e+03 3.881645965576171875e+01 -1.358952045440673828e+00 -1.573928892612457275e-01 3.185286223888397217e-01 4.834072291851043701e-02 -7.478215545415878296e-02
2.276000000000000000e+03 3.364646530151367188e+01 -1.313482856750488281e+01 -5.047923326492309570e-01 1.533599197864532471e-01 -1.054297238588333130e-01 -1.785306185483932495e-01
2.277000000000000000e+03 4.268360137939453125e+01 -1.229090690612792969e+01 4.451185464859008789e-01 1.182186841964721680e+00 4.881916046142578125e-01 1.258504390716552734e+00
2.278000000000000000e+03 3.793836975097656250e+01 -6.372535228729248047e-01 -6.653512269258499146e-02 3.567344546318054199e-01 8.705979585647583008e-02 -3.167255595326423645e-02
2.279000000000000000e+03 3.442198181152343750e+01 -1.304119777679443359e+01 -4.883856177330017090e-01 1.730945110321044922e-01 -9.458733350038528442e-02 -1.327131390571594238e-01
2.280000000000000000e+03 3.668192672729492188e+01 -1.288911628723144531e+01 -3.588218092918395996e-01 2.856887876987457275e-01 -2.193991281092166901e-02 6.761105358600616455e-02
2.281000000000000000e+03 3.201693725585937500e+01 -1.238718891143798828e+01 -7.380216121673583984e-01 8.131568133831024170e-02 -1.970117688179016113e-01 -3.008041679859161377e-01
2.282000000000000000e+03 4.193034362792968750e+01 -1.230895996093750000e+01 2.859752476215362549e-01 9.252790212631225586e-01 3.633762896060943604e-01 9.963251948356628418e-01
2.283000000000000000e+03 4.044126129150390625e+01 -1.246150588989257812e+01 2.748140506446361542e-02 6.496490836143493652e-01 2.031391412019729614e-01 6.286205649375915527e-01
2.284000000000000000e+03 4.118350601196289062e+01 -1.237170886993408203e+01 1.435843259096145630e-01 7.846045494079589844e-01 2.784566581249237061e-01 8.033493161201477051e-01
2.285000000000000000e+03 3.051608085632324219e+01 -1.310131835937500000e+01 -6.280208230018615723e-01 9.049114584922790527e-02 -1.612589061260223389e-01 -3.581574261188507080e-01
2.286000000000000000e+03 3.125811195373535156e+01 -1.313578891754150391e+01 -6.017380356788635254e-01 1.073951795697212219e-01 -1.483028531074523926e-01 -3.240142464637756348e-01
2.287000000000000000e+03 4.025904083251953125e+01 -1.347055912017822266e+00 5.619779974222183228e-02 4.473327696323394775e-01 1.510591655969619751e-01 -3.227158188819885254e-01
2.288000000000000000e+03 3.866883468627929688e+01 -5.939865112304687500e-01 2.363265678286552429e-02 4.207716882228851318e-01 1.333213001489639282e-01 -1.447619497776031494e-01
2.289000000000000000e+03 3.283959197998046875e+01 -1.326996994018554688e+01 -5.167483091354370117e-01 1.446261256933212280e-01 -1.116366535425186157e-01 -2.228226959705352783e-01
2.290000000000000000e+03 4.090204620361328125e+01 -5.843156576156616211e-01 3.671684265136718750e-01 7.207529544830322266e-01 3.263764381408691406e-01 -6.003081798553466797e-01
2.291000000000000000e+03 4.013565826416015625e+01 -5.034693479537963867e-01 2.543482482433319092e-01 6.139891147613525391e-01 2.605012059211730957e-01 -4.380700886249542236e-01
2.292000000000000000e+03 2.977521514892578125e+01 -1.311792373657226562e+01 -6.335659623146057129e-01 8.078151196241378784e-02 -1.658353358507156372e-01 -3.931640088558197021e-01
2.293000000000000000e+03 4.233043670654296875e+01 -9.190676808357238770e-01 5.741293430328369141e-01 9.576641917228698730e-01 4.595380723476409912e-01 -9.553755521774291992e-01
2.294000000000000000e+03 2.741409683227539062e+01 -1.327785301208496094e+01 -6.261516213417053223e-01 7.175686955451965332e-02 -1.663184314966201782e-01 -4.653886854648590088e-01
2.295000000000000000e+03 2.901766204833984375e+01 -1.316339111328125000e+01 -6.280297040939331055e-01 7.611938565969467163e-02 -1.655731052160263062e-01 -4.176861047744750977e-01
2.296000000000000000e+03 2.571218872070312500e+01 -1.242278289794921875e+01 -7.040235996246337891e-01 5.779649689793586731e-02 -1.938681304454803467e-01 -4.943841099739074707e-01
2.297000000000000000e+03 2.361488151550292969e+01 -1.315253353118896484e+01 -6.223338246345520020e-01 6.154048815369606018e-02 -1.682379990816116333e-01 -5.229014158248901367e-01
2.298000000000000000e+03 4.333150863647460938e+01 -1.245064830780029297e+01 5.906454324722290039e-01 1.447577834129333496e+00 6.114670038223266602e-01 1.505927801132202148e+00
2.299000000000000000e+03 4.406535339355468750e+01 -1.057575225830078125e+00 9.151101112365722656e-01 1.609104990959167480e+00 7.572645545005798340e-01 -1.620396733283996582e+00
2.300000000000000000e+03 4.355915069580078125e+01 -1.074207425117492676e+00 8.265702724456787109e-01 1.343337893486022949e+00 6.509724259376525879e-01 -1.398953318595886230e+00
2.301000000000000000e+03 4.164813995361328125e+01 -7.728193998336791992e-01 4.664780497550964355e-01 8.316812515258789062e-01 3.894477784633636475e-01 -7.726320028305053711e-01
2.302000000000000000e+03 2.368982124328613281e+01 -4.758291840553283691e-01 -1.748261600732803345e-01 -2.195268273353576660e-01 -1.183058992028236389e-01 4.484611749649047852e-01
2.303000000000000000e+03 2.504974174499511719e+01 -1.332147026062011719e+01 -6.143127083778381348e-01 6.836325675249099731e-02 -1.637848466634750366e-01 -5.117587447166442871e-01
2.304000000000000000e+03 2.193003273010253906e+01 -1.224537658691406250e+01 -6.457695364952087402e-01 3.663232177495956421e-02 -1.827411651611328125e-01 -5.108683705329895020e-01
2.305000000000000000e+03 2.658228492736816406e+01 -1.327094554901123047e+01 -6.265839934349060059e-01 6.772460043430328369e-02 -1.676578074693679810e-01 -4.862401485443115234e-01
2.306000000000000000e+03 2.158924102783203125e+01 -1.338987064361572266e+01 -6.012272834777832031e-01 2.316548116505146027e-02 -1.734185516834259033e-01 -5.276508331298828125e-01
2.307000000000000000e+03 6.895735740661621094e+00 6.768141746520996094e+00 6.669287686236202717e-04 9.284610769100254402e-07 2.003571717068552971e-04 -4.897222388535737991e-04
2.308000000000000000e+03 4.376956558227539062e+01 -1.195425415039062500e+01 6.217717528343200684e-01 1.480233073234558105e+00 6.306014657020568848e-01 1.579110503196716309e+00
2.309000000000000000e+03 8.222036361694335938e+00 -5.060105800628662109e+00 3.862496814690530300e-04 -7.504087407141923904e-04 -1.092477250494994223e-04 3.601225034799426794e-04
2.310000000000000000e+03 2.372749519348144531e+01 1.206144332885742188e+01 -3.293128609657287598e-01 -1.880679726600646973e-01 -1.552142500877380371e-01 3.174531757831573486e-01
2.311000000000000000e+03 2.264953422546386719e+01 9.168172836303710938e+00 -3.242584466934204102e-01 -4.948718845844268799e-01 -2.457391023635864258e-01 4.740031063556671143e-01
2.312000000000000000e+03 2.393524932861328125e+01 1.736576259136199951e-01 -1.736845821142196655e-01 -2.279577702283859253e-01 -1.204927042126655579e-01 4.768439531326293945e-01
2.313000000000000000e+03 2.347261238098144531e+01 1.292688608169555664e+00 -1.479333341121673584e-01 -2.948386371135711670e-01 -1.328315883874893188e-01 4.922737479209899902e-01
2.314000000000000000e+03 7.267530059814453125e+01 1.265484714508056641e+01 -1.176975816488265991e-01 7.814491748809814453e+00 2.309038400650024414e+00 6.820346713066101074e-01
2.315000000000000000e+03 5.693828582763671875e+00 6.032157897949218750e+00 6.037027342244982719e-04 -2.905778528656810522e-04 9.393745858687907457e-05 1.352061080979183316e-04
2.316000000000000000e+03 2.540892601013183594e+01 7.238493919372558594e+00 -1.850690245628356934e-01 -1.066089868545532227e-01 -8.750340342521667480e-02 4.690659046173095703e-01
2.317000000000000000e+03 2.474351310729980469e+01 7.950074195861816406e+00 -2.202688604593276978e-01 -1.747620105743408203e-01 -1.185092628002166748e-01 4.595797955989837646e-01
2.318000000000000000e+03 2.091077423095703125e+01 -1.685170555114746094e+01 -4.234483242034912109e-01 -1.944514177739620209e-02 -1.328680366277694702e-01 -4.751091599464416504e-01
2.319000000000000000e+03 2.154894447326660156e+01 -1.615908622741699219e+01 -4.608217775821685791e-01 1.264048367738723755e-02 -1.344543993473052979e-01 -4.947828054428100586e-01
2.320000000000000000e+03 7.256174468994140625e+01 -6.282363891601562500e+00 4.323674142360687256e-01 6.917926311492919922e+00 2.205088138580322266e+00 1.694516465067863464e-02
2.321000000000000000e+03 7.190212249755859375e+01 -1.097362327575683594e+01 3.941878676414489746e-01 7.084447383880615234e+00 2.243590593338012695e+00 -4.392339587211608887e-01
2.322000000000000000e+03 7.297046661376953125e+01 3.163603305816650391e+00 1.364550590515136719e-01 7.244013309478759766e+00 2.214140653610229492e+00 7.044492959976196289e-01
2.323000000000000000e+03 2.478161239624023438e+01 4.294051170349121094e+00 -1.661207526922225952e-01 -2.386851608753204346e-01 -1.214417740702629089e-01 5.464010834693908691e-01
2.324000000000000000e+03 7.334493255615234375e+01 -2.086352729797363281e+01 -3.332913294434547424e-02 7.477709293365478516e+00 2.233314037322998047e+00 -6.856001615524291992e-01
2.325000000000000000e+03 7.171778106689453125e+01 -2.562343978881835938e+01 -1.740740984678268433e-01 7.771703720092773438e+00 2.279289007186889648e+00 -6.476271152496337891e-01
2.326000000000000000e+03 7.019322967529296875e+01 -4.591517925262451172e+00 6.841812133789062500e-01 7.213872909545898438e+00 2.369416236877441406e+00 2.300045639276504517e-01
2.327000000000000000e+03 7.291861724853515625e+01 -2.240334510803222656e+00 3.308866918087005615e-01 6.958488464355468750e+00 2.186812400817871094e+00 3.942613899707794189e-01
2.328000000000000000e+03 7.067146301269531250e+00 2.510124206542968750e+01 -5.394599214196205139e-02 -4.014452993869781494e-01 -1.366173923015594482e-01 4.068718850612640381e-01
2.329000000000000000e+03 7.382459259033203125e+01 2.325360107421875000e+01 -9.858048707246780396e-02 8.275007247924804688e+00 2.452928066253662109e+00 3.230019509792327881e-01
2.330000000000000000e+03 7.264051818847656250e+01 -2.400908279418945312e+01 -1.046207100152969360e-01 7.674356937408447266e+00 2.270920753479003906e+00 -6.658348441123962402e-01
2.331000000000000000e+03 7.282749938964843750e+01 -2.642389869689941406e+01 -1.388773173093795776e-01 7.781166553497314453e+00 2.292686939239501953e+00 -5.784010887145996094e-01
2.332000000000000000e+03 7.295411682128906250e+01 5.892945766448974609e+00 3.632186725735664368e-02 7.419680118560791016e+00 2.236800670623779297e+00 7.565951943397521973e-01
2.333000000000000000e+03 7.042889404296875000e+01 3.231502532958984375e+00 2.154185175895690918e-01 7.510165214538574219e+00 2.317675113677978516e+00 8.500593304634094238e-01
2.334000000000000000e+03 7.149462127685546875e+01 -1.444189262390136719e+01 2.564009130001068115e-01 7.291806221008300781e+00 2.264462232589721680e+00 -6.911554932594299316e-01
2.335000000000000000e+03 7.184722900390625000e+01 -1.715882682800292969e+01 9.965722262859344482e-02 7.398046016693115234e+00 2.249310970306396484e+00 -7.637624144554138184e-01
2.336000000000000000e+03 7.187154388427734375e+01 -1.851825904846191406e+01 3.483355790376663208e-02 7.467838764190673828e+00 2.250801563262939453e+00 -7.760922908782958984e-01
2.337000000000000000e+03 7.158446502685546875e+01 -1.224130058288574219e+01 3.691916465759277344e-01 7.181528568267822266e+00 2.265216112136840820e+00 -5.617759823799133301e-01
2.338000000000000000e+03 7.187424468994140625e+01 -8.854971885681152344e+00 4.753575026988983154e-01 7.038763046264648438e+00 2.254236221313476562e+00 -2.446937710046768188e-01
2.339000000000000000e+03 7.041128540039062500e+01 1.862128257751464844e+01 -2.221053093671798706e-01 7.950493812561035156e+00 2.318516492843627930e+00 5.432981252670288086e-01
2.340000000000000000e+03 7.144845581054687500e+01 -4.713631629943847656e+00 5.401794910430908203e-01 7.073870182037353516e+00 2.284214973449707031e+00 1.973605304956436157e-01
2.341000000000000000e+03 2.508611297607421875e+01 5.755274295806884766e+00 -1.744188219308853149e-01 -1.896193921566009521e-01 -1.092114672064781189e-01 5.223752260208129883e-01
2.342000000000000000e+03 7.247998046875000000e+01 1.411789417266845703e+01 -1.373898535966873169e-01 7.881529808044433594e+00 2.323241949081420898e+00 6.471703052520751953e-01
2.343000000000000000e+03 7.139898681640625000e+01 1.248707294464111328e+01 -1.481967568397521973e-01 7.827176570892333984e+00 2.303694009780883789e+00 7.406783103942871094e-01
2.344000000000000000e+03 7.210732269287109375e+01 2.112304496765136719e+01 -1.488180309534072876e-01 8.084695816040039062e+00 2.380763292312622070e+00 4.329722523689270020e-01
2.345000000000000000e+03 7.030296325683593750e+01 1.992447090148925781e+01 -2.076678574085235596e-01 7.961734771728515625e+00 2.326220035552978516e+00 4.987813532352447510e-01
2.346000000000000000e+03 7.630973815917968750e+00 2.921318626403808594e+01 8.832267671823501587e-02 -5.050830245018005371e-01 -1.250281035900115967e-01 3.584577739238739014e-01
2.347000000000000000e+03 1.108161067962646484e+01 3.006369209289550781e+01 1.939888149499893188e-01 -5.001237988471984863e-01 -9.184049814939498901e-02 3.330999314785003662e-01
2.348000000000000000e+03 7.063047790527343750e+01 2.612052917480468750e+01 -1.671272367238998413e-01 8.017166137695312500e+00 2.355011701583862305e+00 3.025739192962646484e-01
2.349000000000000000e+03 7.251858520507812500e+01 2.230939865112304688e+01 -1.375217139720916748e-01 8.138456344604492188e+00 2.400280475616455078e+00 3.848907351493835449e-01
2.350000000000000000e+03 2.599767112731933594e+01 6.498150348663330078e+00 -1.585281342267990112e-01 -6.347054243087768555e-02 -6.659960746765136719e-02 4.763576090335845947e-01
2.351000000000000000e+03 2.397980117797851562e+01 1.348322963714599609e+01 -3.008782267570495605e-01 -8.440455794334411621e-02 -1.155848354101181030e-01 2.288808375597000122e-01
2.352000000000000000e+03 2.277647590637207031e+01 1.397598934173583984e+01 -3.601251542568206787e-01 -2.583718299865722656e-01 -1.855490952730178833e-01 2.492064684629440308e-01
2.353000000000000000e+03 7.201242065429687500e+01 -2.969321250915527344e+01 -1.898170262575149536e-01 7.875773429870605469e+00 2.305786848068237305e+00 -4.973018467426300049e-01
2.354000000000000000e+03 7.167532348632812500e+01 1.832966566085815430e+00 2.478054314851760864e-01 7.306115150451660156e+00 2.266176223754882812e+00 7.269815802574157715e-01
2.355000000000000000e+03 7.296391296386718750e+01 4.436043202877044678e-01 2.419832497835159302e-01 7.080948829650878906e+00 2.196879625320434570e+00 5.817487835884094238e-01
2.356000000000000000e+03 1.012197494506835938e+01 2.420530128479003906e+01 -6.633374840021133423e-02 -5.414254665374755859e-01 -1.823277622461318970e-01 5.045568943023681641e-01
2.357000000000000000e+03 7.021432495117187500e+01 -7.407956719398498535e-01 4.920619130134582520e-01 7.340483188629150391e+00 2.349763393402099609e+00 6.364791989326477051e-01
2.358000000000000000e+03 8.573385238647460938e+00 2.736557388305664062e+01 6.249849498271942139e-02 -4.994725584983825684e-01 -1.310922205448150635e-01 4.092641472816467285e-01
2.359000000000000000e+03 1.905922698974609375e+01 2.121405220031738281e+01 -1.004694029688835144e-01 -4.684044420719146729e-01 -1.706621497869491577e-01 1.393365710973739624e-01
2.360000000000000000e+03 1.800811958312988281e+01 2.197083473205566406e+01 -5.018695443868637085e-02 -5.341114997863769531e-01 -1.752895414829254150e-01 1.745389997959136963e-01
2.361000000000000000e+03 7.089807128906250000e+01 -6.939797878265380859e+00 6.049730181694030762e-01 7.117954730987548828e+00 2.316878318786621094e+00 -4.550379887223243713e-02
2.362000000000000000e+03 7.202660369873046875e+01 -7.420726776123046875e+00 4.721615612506866455e-01 6.983123779296875000e+00 2.236585617065429688e+00 -9.596281498670578003e-02
2.363000000000000000e+03 1.724039649963378906e+01 -2.646347999572753906e+01 1.704464703798294067e-01 -2.172978371381759644e-01 -1.405541226267814636e-02 -3.012648820877075195e-01
2.364000000000000000e+03 1.013883113861083984e+01 -2.537718963623046875e+01 4.906395077705383301e-02 -5.004935860633850098e-01 -1.354288905858993530e-01 -4.257009923458099365e-01
2.365000000000000000e+03 6.272981166839599609e+00 2.615056610107421875e+01 -5.144455004483461380e-03 -4.190645217895507812e-01 -1.272626966238021851e-01 3.771965503692626953e-01
2.366000000000000000e+03 7.113278198242187500e+01 1.395887088775634766e+01 -1.825791746377944946e-01 7.878780841827392578e+00 2.308860540390014648e+00 7.008687257766723633e-01
2.367000000000000000e+03 1.867491722106933594e+01 -2.109542274475097656e+01 -1.512747555971145630e-01 -1.620188802480697632e-01 -9.398809075355529785e-02 -3.584925532341003418e-01
2.368000000000000000e+03 2.024995994567871094e+01 2.086575698852539062e+01 -8.737945556640625000e-02 -2.800223231315612793e-01 -1.102205291390419006e-01 9.539942443370819092e-02
2.369000000000000000e+03 2.232956123352050781e+01 1.708227729797363281e+01 -2.805945277214050293e-01 -1.788564771413803101e-01 -1.378353089094161987e-01 1.118028908967971802e-01
2.370000000000000000e+03 7.235136413574218750e+01 -2.228070449829101562e+01 -8.733581751585006714e-02 7.620320796966552734e+00 2.259895563125610352e+00 -7.185610532760620117e-01
2.371000000000000000e+03 7.051557922363281250e+01 -3.397075271606445312e+01 -2.592566013336181641e-01 7.889267444610595703e+00 2.289003372192382812e+00 -3.474969863891601562e-01
2.372000000000000000e+03 6.902117919921875000e+01 2.025445556640625000e+01 -2.510654628276824951e-01 7.891198158264160156e+00 2.292039871215820312e+00 4.903655350208282471e-01
2.373000000000000000e+03 1.972062110900878906e+01 -1.844525718688964844e+01 -3.242948651313781738e-01 -9.116145223379135132e-02 -1.246368959546089172e-01 -4.220876991748809814e-01
2.374000000000000000e+03 2.127234840393066406e+01 -1.846209335327148438e+01 -2.697110772132873535e-01 -6.128636188805103302e-03 -8.275190740823745728e-02 -4.297523796558380127e-01
2.375000000000000000e+03 9.916029930114746094e+00 -2.401744651794433594e+01 -2.129791304469108582e-02 -5.031560063362121582e-01 -1.573361754417419434e-01 -4.276582002639770508e-01
2.376000000000000000e+03 9.380821228027343750e+00 3.528738784790039062e+01 1.943322718143463135e-01 -4.893783032894134521e-01 -8.851381391286849976e-02 2.049834877252578735e-01
2.377000000000000000e+03 5.066794872283935547e+00 3.432466506958007812e+01 8.537392318248748779e-02 -6.665130853652954102e-01 -1.743417531251907349e-01 1.869101524353027344e-01
2.378000000000000000e+03 6.990698814392089844e+00 2.691569137573242188e+01 1.433855853974819183e-02 -4.502922594547271729e-01 -1.307861059904098511e-01 3.903071582317352295e-01
2.379000000000000000e+03 2.008720970153808594e+01 -2.078315353393554688e+01 -1.468438655138015747e-01 -7.522018253803253174e-02 -6.661921739578247070e-02 -3.617703020572662354e-01
2.380000000000000000e+03 2.468099212646484375e+01 -1.547597980499267578e+01 -4.350742995738983154e-01 9.443643689155578613e-02 -1.021913588047027588e-01 -4.909282028675079346e-01
2.381000000000000000e+03 7.213603973388671875e+01 -3.187003517150878906e+01 -2.069198787212371826e-01 7.934123992919921875e+00 2.318161249160766602e+00 -4.002536833286285400e-01
2.382000000000000000e+03 7.929111003875732422e+00 2.613431930541992188e+01 6.844083778560161591e-03 -4.639711380004882812e-01 -1.371381133794784546e-01 4.267583489418029785e-01
2.383000000000000000e+03 2.321031379699707031e+01 1.527201652526855469e+01 -2.971640825271606445e-01 -1.200412735342979431e-01 -1.251616030931472778e-01 1.599690318107604980e-01
2.384000000000000000e+03 9.833114624023437500e+00 -3.186349868774414062e+01 1.636264324188232422e-01 -4.723722934722900391e-01 -9.262375533580780029e-02 -2.942387759685516357e-01
2.385000000000000000e+03 4.884066772460937500e+01 -3.309793710708618164e+00 1.811491012573242188e+00 7.677464008331298828e+00 2.846686601638793945e+00 -4.990396499633789062e+00
2.386000000000000000e+03 4.828693008422851562e+01 -3.733949422836303711e+00 2.348867654800415039e+00 5.008988857269287109e+00 2.207356929779052734e+00 -4.533368110656738281e+00
2.387000000000000000e+03 4.996532821655273438e+01 -9.196043968200683594e+00 7.766683101654052734e-01 1.271781635284423828e+01 4.048345088958740234e+00 4.487158298492431641e+00
2.388000000000000000e+03 5.288479614257812500e+01 -7.465010643005371094e+00 6.574588298797607422e+00 1.369671154022216797e+01 6.081389904022216797e+00 -1.706296205520629883e+00
2.389000000000000000e+03 5.248165130615234375e+01 -6.585585594177246094e+00 9.086673736572265625e+00 1.409886932373046875e+01 6.955662727355957031e+00 -4.575804173946380615e-01
2.390000000000000000e+03 5.386468124389648438e+01 -7.745105743408203125e+00 5.295698165893554688e+00 1.201358699798583984e+01 5.192785263061523438e+00 -1.394801020622253418e+00
2.391000000000000000e+03 5.273447799682617188e+01 -6.202046871185302734e+00 8.433594703674316406e+00 1.352426147460937500e+01 6.587357044219970703e+00 4.650404751300811768e-01
2.392000000000000000e+03 5.325400161743164062e+01 -6.620927810668945312e+00 7.335857868194580078e+00 1.246943283081054688e+01 5.941586971282958984e+00 -4.327041804790496826e-01
2.393000000000000000e+03 5.318277740478515625e+01 -6.100061893463134766e+00 7.497118949890136719e+00 1.263228607177734375e+01 6.038821697235107422e+00 5.373834967613220215e-01
2.394000000000000000e+03 5.266078186035156250e+01 -4.829346656799316406e+00 5.188849449157714844e+00 1.444159030914306641e+01 5.889132022857666016e+00 1.943437933921813965e+00
2.395000000000000000e+03 5.193655014038085938e+01 -3.616616249084472656e+00 1.638781547546386719e+00 1.518614768981933594e+01 5.047478675842285156e+00 3.699558675289154053e-01
2.396000000000000000e+03 5.252773284912109375e+01 -8.159234046936035156e+00 4.694861412048339844e+00 1.493212890625000000e+01 5.888097286224365234e+00 -1.965793967247009277e+00
2.397000000000000000e+03 5.146753692626953125e+01 -9.319453239440917969e+00 8.462328910827636719e-01 1.530507850646972656e+01 4.845393657684326172e+00 7.067854404449462891e-01
2.398000000000000000e+03 5.113241958618164062e+01 -8.976432800292968750e+00 9.632697701454162598e-01 1.610306549072265625e+01 5.119900703430175781e+00 1.202700614929199219e+00
2.399000000000000000e+03 4.859065628051757812e+01 -9.419024467468261719e+00 1.866840243339538574e+00 6.494102001190185547e+00 2.508282661437988281e+00 4.813988208770751953e+00
2.400000000000000000e+03 4.798668670654296875e+01 -3.691431045532226562e+00 2.344143867492675781e+00 4.216106891632080078e+00 1.968075156211853027e+00 -4.158802509307861328e+00
2.401000000000000000e+03 4.824639892578125000e+01 -4.062787055969238281e+00 2.707632541656494141e+00 4.383798599243164062e+00 2.127429246902465820e+00 -4.464075565338134766e+00
2.402000000000000000e+03 4.889914321899414062e+01 -3.614629507064819336e+00 2.031316280364990234e+00 7.757290840148925781e+00 2.936582088470458984e+00 -5.201456069946289062e+00
2.403000000000000000e+03 4.592958450317382812e+01 -1.050573158264160156e+01 1.077397227287292480e+00 2.179555654525756836e+00 9.770858883857727051e-01 2.414234161376953125e+00
2.404000000000000000e+03 4.807973480224609375e+01 -3.311066865921020508e+00 2.039847612380981445e+00 4.968821525573730469e+00 2.102600812911987305e+00 -4.253022670745849609e+00
2.405000000000000000e+03 4.613093566894531250e+01 -2.011614084243774414e+00 1.386514663696289062e+00 2.585293531417846680e+00 1.191542506217956543e+00 -2.624475479125976562e+00
2.406000000000000000e+03 4.629634094238281250e+01 -2.691662311553955078e+00 1.469137668609619141e+00 2.252104520797729492e+00 1.116372704505920410e+00 -2.557927846908569336e+00
2.407000000000000000e+03 4.487266921997070312e+01 -1.131323719024658203e+01 8.541502952575683594e-01 1.794264793395996094e+00 7.945245504379272461e-01 1.993291258811950684e+00
2.408000000000000000e+03 4.591299438476562500e+01 -1.656762123107910156e+00 1.294262528419494629e+00 2.653914451599121094e+00 1.184453010559082031e+00 -2.549979448318481445e+00
2.409000000000000000e+03 4.527932739257812500e+01 -1.166408896446228027e+00 1.150976657867431641e+00 2.393481969833374023e+00 1.063337564468383789e+00 -2.221319437026977539e+00
2.410000000000000000e+03 2.568720817565917969e+01 1.394182257354259491e-02 -2.319224476814270020e-01 -1.311540156602859497e-01 -1.089229434728622437e-01 5.197792053222656250e-01
2.411000000000000000e+03 2.463916969299316406e+01 -1.937559843063354492e-01 -2.085177302360534668e-01 -1.773405224084854126e-01 -1.157574802637100220e-01 4.908853471279144287e-01
2.412000000000000000e+03 2.747709655761718750e+01 -9.764569401741027832e-01 -3.334535956382751465e-01 -4.134416952729225159e-02 -1.124393269419670105e-01 5.071303844451904297e-01
2.413000000000000000e+03 2.675454902648925781e+01 1.130870804190635681e-01 -2.523261010646820068e-01 -7.914347201585769653e-02 -9.944087266921997070e-02 5.322771668434143066e-01
2.414000000000000000e+03 4.515915679931640625e+01 -1.177514743804931641e+01 8.939154148101806641e-01 2.289446115493774414e+00 9.550085067749023438e-01 2.241616964340209961e+00
2.415000000000000000e+03 4.465555572509765625e+01 -1.083506870269775391e+01 7.119131088256835938e-01 1.392113685607910156e+00 6.312080025672912598e-01 1.716716289520263672e+00
2.416000000000000000e+03 4.447549819946289062e+01 -9.911892414093017578e-01 1.001093745231628418e+00 1.809514641761779785e+00 8.431825041770935059e-01 -1.807949900627136230e+00
2.417000000000000000e+03 2.991429138183593750e+01 1.699027270078659058e-01 -2.810726463794708252e-01 5.624420568346977234e-02 -6.744853407144546509e-02 4.970424473285675049e-01
2.418000000000000000e+03 2.785469436645507812e+01 5.157981067895889282e-02 -2.746046185493469238e-01 -2.903667464852333069e-02 -9.109238535165786743e-02 5.293845534324645996e-01
2.419000000000000000e+03 3.072419166564941406e+01 -7.304206490516662598e-01 -3.720637857913970947e-01 6.200721859931945801e-02 -9.301697462797164917e-02 4.775306880474090576e-01
2.420000000000000000e+03 3.032286262512207031e+01 1.695578932762145996e+00 -1.463965326547622681e-01 1.267013698816299438e-01 -5.908549763262271881e-03 4.642730951309204102e-01
2.421000000000000000e+03 2.729414176940917969e+01 -3.846108019351959229e-01 -2.910228967666625977e-01 -5.122900009155273438e-02 -1.026755720376968384e-01 5.244346261024475098e-01
2.422000000000000000e+03 3.152658843994140625e+01 -6.938152313232421875e-01 -3.734684288501739502e-01 8.652313798666000366e-02 -8.608358353376388550e-02 4.543950259685516357e-01
2.423000000000000000e+03 2.906375503540039062e+01 -7.667214870452880859e-01 -3.625960350036621094e-01 1.130575314164161682e-02 -1.053870841860771179e-01 5.056066513061523438e-01
2.424000000000000000e+03 3.300990676879882812e+01 -8.151654005050659180e-01 -3.749780356884002686e-01 1.252226084470748901e-01 -7.492662966251373291e-02 3.951094746589660645e-01
2.425000000000000000e+03 3.304662322998046875e+01 -1.430552750825881958e-01 -2.701308727264404297e-01 1.552588790655136108e-01 -3.446160256862640381e-02 3.747390508651733398e-01
2.426000000000000000e+03 3.233007049560546875e+01 5.911418050527572632e-02 -2.608574628829956055e-01 1.474245488643646240e-01 -3.402987122535705566e-02 4.124985635280609131e-01
2.427000000000000000e+03 3.906589126586914062e+01 -1.340776634216308594e+01 3.397024795413017273e-02 6.253469586372375488e-01 1.977951675653457642e-01 4.903322458267211914e-01
2.428000000000000000e+03 3.979310226440429688e+01 -1.328576469421386719e+01 1.044146567583084106e-01 7.120426297187805176e-01 2.449371963739395142e-01 6.156088709831237793e-01
2.429000000000000000e+03 3.371016311645507812e+01 -2.358642965555191040e-01 -2.650659978389739990e-01 1.722261458635330200e-01 -2.785195596516132355e-02 3.475289046764373779e-01
2.430000000000000000e+03 3.675762176513671875e+01 -1.368379878997802734e+01 -1.764521151781082153e-01 3.948124647140502930e-01 6.550810486078262329e-02 1.539902240037918091e-01
2.431000000000000000e+03 3.496920776367187500e+01 -1.406477093696594238e-01 -1.933823376893997192e-01 2.349244803190231323e-01 1.246264390647411346e-02 2.458313256502151489e-01
2.432000000000000000e+03 3.720740890502929688e+01 -6.810878515243530273e-01 -1.491334140300750732e-01 2.976562678813934326e-01 4.455685615539550781e-02 6.834598630666732788e-02
2.433000000000000000e+03 3.668691253662109375e+01 1.652915000915527344e+00 2.019869387149810791e-01 5.641546249389648438e-01 2.298424690961837769e-01 -8.089870214462280273e-02
2.434000000000000000e+03 3.776865768432617188e+01 1.284248381853103638e-01 7.683271169662475586e-02 4.491851627826690674e-01 1.578053683042526245e-01 -8.649648725986480713e-02
2.435000000000000000e+03 3.592702484130859375e+01 -1.294026088714599609e+01 -4.119850397109985352e-01 2.431722879409790039e-01 -5.064382404088973999e-02 -6.599654443562030792e-03
2.436000000000000000e+03 3.684391021728515625e+01 -1.451179790496826172e+01 -2.296516031492501497e-04 5.317439436912536621e-01 1.594542860984802246e-01 2.545728981494903564e-01
2.437000000000000000e+03 3.849260711669921875e+01 1.853349357843399048e-01 1.710523068904876709e-01 5.355277061462402344e-01 2.119740098714828491e-01 -2.103638052940368652e-01
2.438000000000000000e+03 3.517999267578125000e+01 -1.298473262786865234e+01 -4.576847851276397705e-01 2.059687823057174683e-01 -7.551480084657669067e-02 -7.405456900596618652e-02
2.439000000000000000e+03 3.603803253173828125e+01 -1.465907382965087891e+01 -5.472993850708007812e-02 4.559876024723052979e-01 1.203772947192192078e-01 1.401376426219940186e-01
2.440000000000000000e+03 3.304540252685546875e+01 -1.413992691040039062e+01 -3.465893566608428955e-01 2.077248394489288330e-01 -4.165935516357421875e-02 -1.689915806055068970e-01
2.441000000000000000e+03 3.380220413208007812e+01 -1.393026351928710938e+01 -3.468761742115020752e-01 2.054588794708251953e-01 -4.242518544197082520e-02 -1.218788400292396545e-01
2.442000000000000000e+03 3.599885559082031250e+01 -1.374913787841796875e+01 -2.310484200716018677e-01 3.317612111568450928e-01 3.021383471786975861e-02 6.349413096904754639e-02
2.443000000000000000e+03 4.122622299194335938e+01 -1.303238582611083984e+01 2.952922880649566650e-01 9.605946540832519531e-01 3.767660856246948242e-01 9.312026500701904297e-01
2.444000000000000000e+03 4.192602920532226562e+01 -1.298647880554199219e+01 4.129784703254699707e-01 1.152442932128906250e+00 4.696263968944549561e-01 1.143808364868164062e+00
2.445000000000000000e+03 2.913285636901855469e+01 -1.395148658752441406e+01 -5.117843151092529297e-01 9.572237730026245117e-02 -1.248185858130455017e-01 -4.044442772865295410e-01
2.446000000000000000e+03 3.202911758422851562e+01 -1.325747966766357422e+01 -5.521713495254516602e-01 1.362128853797912598e-01 -1.247875317931175232e-01 -2.720517218112945557e-01
2.447000000000000000e+03 3.920047378540039062e+01 2.559408247470855713e-01 2.667126059532165527e-01 6.304877996444702148e-01 2.691601216793060303e-01 -3.456093966960906982e-01
2.448000000000000000e+03 3.120236968994140625e+01 -1.386766433715820312e+01 -4.919249713420867920e-01 1.391025781631469727e-01 -1.058467179536819458e-01 -3.112454414367675781e-01
2.449000000000000000e+03 3.181951332092285156e+01 -1.406608104705810547e+01 -4.090992212295532227e-01 1.827778667211532593e-01 -6.789641082286834717e-02 -2.524793446063995361e-01
2.450000000000000000e+03 2.823117446899414062e+01 -1.322173690795898438e+01 -6.256004571914672852e-01 7.421705126762390137e-02 -1.654150187969207764e-01 -4.419254660606384277e-01
2.451000000000000000e+03 2.996569633483886719e+01 -1.463340854644775391e+01 -4.007616043090820312e-01 1.458680927753448486e-01 -7.646805047988891602e-02 -3.557170033454895020e-01
2.452000000000000000e+03 4.051173019409179688e+01 -1.314066505432128906e+01 1.953766196966171265e-01 8.367444872856140137e-01 3.096363544464111328e-01 7.671912312507629395e-01
2.453000000000000000e+03 4.291631698608398438e+01 2.183110862970352173e-01 7.944214940071105957e-01 1.589396119117736816e+00 7.151452898979187012e-01 -1.370257854461669922e+00
2.454000000000000000e+03 2.655217170715332031e+01 -1.418833923339843750e+01 -5.172861814498901367e-01 8.929248899221420288e-02 -1.283981055021286011e-01 -4.779994785785675049e-01
2.455000000000000000e+03 4.259498596191406250e+01 -1.300482654571533203e+01 5.205484032630920410e-01 1.410266041755676270e+00 5.792443752288818359e-01 1.356617927551269531e+00
2.456000000000000000e+03 2.293038177490234375e+01 -3.297915458679199219e-01 -1.429940909147262573e-01 -2.656326889991760254e-01 -1.225880384445190430e-01 4.213166534900665283e-01
2.457000000000000000e+03 2.750168609619140625e+01 -1.419890213012695312e+01 -5.053042769432067871e-01 1.008014604449272156e-01 -1.213508397340774536e-01 -4.568202793598175049e-01
2.458000000000000000e+03 2.835991096496582031e+01 -1.403900527954101562e+01 -5.133987069129943848e-01 1.027165427803993225e-01 -1.232046484947204590e-01 -4.259248673915863037e-01
2.459000000000000000e+03 4.232598114013671875e+01 -2.687246501445770264e-01 6.660819649696350098e-01 1.185850739479064941e+00 5.555797815322875977e-01 -1.081583261489868164e+00
2.460000000000000000e+03 2.578254318237304688e+01 -1.319522762298583984e+01 -6.310346722602844238e-01 7.054200023412704468e-02 -1.681478023529052734e-01 -4.994003474712371826e-01
2.461000000000000000e+03 2.234912490844726562e+01 -1.300971794128417969e+01 -6.236326098442077637e-01 4.183354228734970093e-02 -1.745397299528121948e-01 -5.263195037841796875e-01
2.462000000000000000e+03 2.296454238891601562e+01 -1.375284862518310547e+01 -5.857165455818176270e-01 5.632491782307624817e-02 -1.588174998760223389e-01 -5.280587673187255859e-01
2.463000000000000000e+03 2.565793800354003906e+01 -1.388786125183105469e+01 -5.558704137802124023e-01 8.217738568782806396e-02 -1.421079188585281372e-01 -4.997783601284027100e-01
2.464000000000000000e+03 4.292440032958984375e+01 -3.980234265327453613e-01 7.655444145202636719e-01 1.349852681159973145e+00 6.346191167831420898e-01 -1.277441859245300293e+00
2.465000000000000000e+03 7.402764797210693359e+00 5.940124511718750000e+00 3.831851063296198845e-04 -1.455515623092651367e-03 -3.216991317458450794e-04 5.570268840529024601e-04
2.466000000000000000e+03 9.008063316345214844e+00 6.852336406707763672e+00 -2.488309401087462902e-04 3.096325322985649109e-03 8.542482974007725716e-04 6.209756247699260712e-04
2.467000000000000000e+03 2.221051597595214844e+01 -1.422942733764648438e+01 -5.630939006805419922e-01 3.865205124020576477e-02 -1.573325544595718384e-01 -5.284605026245117188e-01
2.468000000000000000e+03 4.374125671386718750e+01 -1.287442207336425781e+01 6.806085705757141113e-01 1.889621257781982422e+00 7.710689306259155273e-01 1.757851719856262207e+00
2.469000000000000000e+03 2.567441177368164062e+01 5.029370307922363281e+00 -1.582058668136596680e-01 -1.391723006963729858e-01 -8.921345323324203491e-02 5.278254151344299316e-01
2.470000000000000000e+03 7.030711364746093750e+01 5.756752490997314453e-01 3.950734436511993408e-01 7.392060756683349609e+00 2.336140155792236328e+00 7.248873710632324219e-01
2.471000000000000000e+03 7.013871765136718750e+01 -3.375931024551391602e+00 6.451937556266784668e-01 7.254488945007324219e+00 2.369904756546020508e+00 3.818478882312774658e-01
2.472000000000000000e+03 6.477955341339111328e+00 8.058653831481933594e+00 5.666124634444713593e-04 -9.349858737550675869e-04 -1.105120245483703911e-04 2.951505011878907681e-04
2.473000000000000000e+03 7.124940490722656250e+01 -5.893795013427734375e+00 5.805680155754089355e-01 7.085220336914062500e+00 2.299736499786376953e+00 6.713347136974334717e-02
2.474000000000000000e+03 7.039962005615234375e+01 4.579132080078125000e+00 1.263898164033889771e-01 7.578838825225830078e+00 2.311568498611450195e+00 8.826702237129211426e-01
2.475000000000000000e+03 2.399756622314453125e+01 2.102485656738281250e+00 -1.552209109067916870e-01 -2.852911055088043213e-01 -1.321536153554916382e-01 5.267346501350402832e-01
2.476000000000000000e+03 2.429846382141113281e+01 8.705601692199707031e-01 -1.739427894353866577e-01 -2.282651215791702271e-01 -1.206623688340187073e-01 5.114446282386779785e-01
2.477000000000000000e+03 2.500629425048828125e+01 1.072217559814453125e+01 -2.664858102798461914e-01 -3.793460503220558167e-02 -9.132612496614456177e-02 3.299660086631774902e-01
2.478000000000000000e+03 2.543865203857421875e+01 3.615997791290283203e+00 -1.606759577989578247e-01 -1.785985827445983887e-01 -1.017823666334152222e-01 5.508652925491333008e-01
2.479000000000000000e+03 7.151857757568359375e+01 -3.447110176086425781e+00 4.939895272254943848e-01 7.088646888732910156e+00 2.274791002273559570e+00 3.343258798122406006e-01
2.480000000000000000e+03 7.010938262939453125e+01 -2.064577341079711914e+00 5.846464037895202637e-01 7.297105789184570312e+00 2.364525556564331055e+00 5.173073410987854004e-01
2.481000000000000000e+03 7.060085296630859375e+01 -1.741377067565917969e+01 1.030978411436080933e-01 7.531299591064453125e+00 2.290319204330444336e+00 -8.278001546859741211e-01
2.482000000000000000e+03 7.057419586181640625e+01 -1.873633003234863281e+01 2.983835712075233459e-02 7.588934898376464844e+00 2.285631895065307617e+00 -8.368248939514160156e-01
2.483000000000000000e+03 6.886920166015625000e+01 -2.344464683532714844e+01 -2.192384004592895508e-01 7.819239616394042969e+00 2.280000209808349609e+00 -7.810968160629272461e-01
2.484000000000000000e+03 7.168702697753906250e+01 3.191397190093994141e+00 1.771950572729110718e-01 7.379230022430419922e+00 2.266927480697631836e+00 7.813890576362609863e-01
2.485000000000000000e+03 2.658595657348632812e+01 5.760770320892333984e+00 -1.303898096084594727e-01 -1.124068815261125565e-02 -4.248914867639541626e-02 4.851748347282409668e-01
2.486000000000000000e+03 2.453536415100097656e+01 6.512405872344970703e+00 -2.025157809257507324e-01 -2.519846856594085693e-01 -1.363501399755477905e-01 5.125775337219238281e-01
2.487000000000000000e+03 6.890366363525390625e+01 1.875341796875000000e+01 -2.741009294986724854e-01 7.888503551483154297e+00 2.284320831298828125e+00 5.445715785026550293e-01
2.488000000000000000e+03 7.080892944335937500e+01 1.549968814849853516e+01 -2.028430998325347900e-01 7.913579463958740234e+00 2.313220977783203125e+00 6.488728523254394531e-01
2.489000000000000000e+03 7.017380523681640625e+01 1.226132011413574219e+01 -1.837380975484848022e-01 7.850107192993164062e+00 2.299910783767700195e+00 7.829036116600036621e-01
2.490000000000000000e+03 7.173254394531250000e+01 8.527979850769042969e+00 -4.940213635563850403e-02 7.653838157653808594e+00 2.281330823898315430e+00 8.180085420608520508e-01
2.491000000000000000e+03 7.222973823547363281e+00 2.308001899719238281e+01 -1.705941706895828247e-01 -3.203693032264709473e-01 -1.472890377044677734e-01 4.121653437614440918e-01
2.492000000000000000e+03 9.007737159729003906e+00 2.522584915161132812e+01 -2.643864229321479797e-02 -4.856540858745574951e-01 -1.536278128623962402e-01 4.575878679752349854e-01
2.493000000000000000e+03 2.692674446105957031e+01 7.257308483123779297e+00 -1.250854879617691040e-01 8.460733294486999512e-02 -1.214344799518585205e-02 4.129688143730163574e-01
2.494000000000000000e+03 7.087530517578125000e+01 -1.077038478851318359e+01 5.005166530609130859e-01 7.211756229400634766e+00 2.313681840896606445e+00 -4.570287466049194336e-01
2.495000000000000000e+03 7.083859252929687500e+01 -1.334657859802246094e+01 3.463936448097229004e-01 7.313410758972167969e+00 2.297941446304321289e+00 -6.654170155525207520e-01
2.496000000000000000e+03 6.988750457763671875e+01 1.371206283569335938e+01 -2.214425057172775269e-01 7.880123138427734375e+00 2.297604322433471680e+00 7.344853878021240234e-01
2.497000000000000000e+03 7.171198272705078125e+01 -2.308371925354003906e+01 -1.143143400549888611e-01 7.678215503692626953e+00 2.269170284271240234e+00 -7.321040034294128418e-01
2.498000000000000000e+03 7.189375305175781250e+01 -1.988949584960937500e+01 -1.913312263786792755e-02 7.534469127655029297e+00 2.254600763320922852e+00 -7.754506468772888184e-01
2.499000000000000000e+03 7.164025878906250000e+01 4.924572110176086426e-01 3.190996348857879639e-01 7.238906860351562500e+00 2.267401933670043945e+00 6.554231047630310059e-01
2.500000000000000000e+03 7.032977294921875000e+01 5.951925277709960938e+00 4.386990889906883240e-02 7.646153450012207031e+00 2.307007074356079102e+00 8.961133956909179688e-01
2.501000000000000000e+03 1.577481937408447266e+01 2.399270439147949219e+01 6.473659723997116089e-02 -6.077801585197448730e-01 -1.629130691289901733e-01 2.736455202102661133e-01
2.502000000000000000e+03 9.809124946594238281e+00 2.660514450073242188e+01 6.362929195165634155e-02 -5.282183289527893066e-01 -1.393767148256301880e-01 4.402363598346710205e-01
2.503000000000000000e+03 1.372427654266357422e+01 3.128587913513183594e+01 2.788294553756713867e-01 -3.905046284198760986e-01 -3.350255638360977173e-02 2.422599494457244873e-01
2.504000000000000000e+03 9.356041908264160156e+00 3.055560111999511719e+01 1.581742167472839355e-01 -5.127109289169311523e-01 -1.063610166311264038e-01 3.318503499031066895e-01
2.505000000000000000e+03 6.931147003173828125e+01 1.526806926727294922e+01 -2.581099867820739746e-01 7.890992641448974609e+00 2.289864778518676758e+00 6.796923279762268066e-01
2.506000000000000000e+03 7.351473236083984375e+01 -2.197546195983886719e+01 -5.506949871778488159e-02 7.535941600799560547e+00 2.244261503219604492e+00 -6.646626591682434082e-01
2.507000000000000000e+03 7.052080535888671875e+01 -2.162435531616210938e+01 -1.049296632409095764e-01 7.697714328765869141e+00 2.277835369110107422e+00 -8.050394654273986816e-01
2.508000000000000000e+03 6.879001617431640625e+01 -3.053559303283691406e+01 -3.428983986377716064e-01 7.809468269348144531e+00 2.239970922470092773e+00 -4.878194630146026611e-01
2.509000000000000000e+03 7.099045562744140625e+01 -3.091639328002929688e+01 -2.440268397331237793e-01 7.875452518463134766e+00 2.289427757263183594e+00 -4.575262963771820068e-01
2.510000000000000000e+03 7.199614715576171875e+01 -2.123747253417968750e+01 -6.485490500926971436e-02 7.591687202453613281e+00 2.258049726486206055e+00 -7.531793713569641113e-01
2.511000000000000000e+03 7.091491699218750000e+01 2.177437210083007812e+01 -1.821169257164001465e-01 8.012296676635742188e+00 2.349053859710693359e+00 4.317856132984161377e-01
2.512000000000000000e+03 6.938069915771484375e+01 2.147681808471679688e+01 -2.278558611869812012e-01 7.911320686340332031e+00 2.305039405822753906e+00 4.431549608707427979e-01
2.513000000000000000e+03 6.927037048339843750e+01 -1.547625923156738281e+01 2.825124561786651611e-01 7.588115692138671875e+00 2.361188411712646484e+00 -8.416835665702819824e-01
2.514000000000000000e+03 7.175168609619140625e+01 -1.580158710479736328e+01 1.657682061195373535e-01 7.333193302154541016e+00 2.249688386917114258e+00 -7.323316931724548340e-01
2.515000000000000000e+03 2.493700027465820312e+01 1.610755348205566406e+01 -1.788891404867172241e-01 1.776069849729537964e-01 -3.846467297989875078e-04 4.881878569722175598e-02
2.516000000000000000e+03 6.997635650634765625e+01 2.417645645141601562e+01 -1.937813609838485718e-01 7.955307006835937500e+00 2.328457832336425781e+00 3.619278073310852051e-01
2.517000000000000000e+03 7.073720550537109375e+01 2.286818122863769531e+01 -1.918040812015533447e-01 8.009389877319335938e+00 2.345275640487670898e+00 3.988597989082336426e-01
2.518000000000000000e+03 1.136310958862304688e+01 -2.686585807800292969e+01 1.097834035754203796e-01 -4.680489897727966309e-01 -1.074796766042709351e-01 -3.829310238361358643e-01
2.519000000000000000e+03 2.014371490478515625e+01 2.237601852416992188e+01 2.220377512276172638e-02 -2.475710958242416382e-01 -6.761019676923751831e-02 6.004713475704193115e-02
2.520000000000000000e+03 2.132004547119140625e+01 1.902496528625488281e+01 -2.125873416662216187e-01 -2.380958199501037598e-01 -1.352049410343170166e-01 8.024015277624130249e-02
2.521000000000000000e+03 1.227567195892333984e+01 -2.507095909118652344e+01 7.436842471361160278e-02 -4.808790087699890137e-01 -1.219531819224357605e-01 -3.970231115818023682e-01
2.522000000000000000e+03 2.056612205505371094e+01 -1.915698432922363281e+01 -2.477018684148788452e-01 -4.659685865044593811e-02 -8.828961849212646484e-02 -4.073194861412048340e-01
2.523000000000000000e+03 2.544694519042968750e+01 -1.717174530029296875e+01 -2.624819874763488770e-01 1.409987062215805054e-01 -3.644498810172080994e-02 -4.303278923034667969e-01
2.524000000000000000e+03 1.004608726501464844e+01 -2.273131561279296875e+01 -8.204674720764160156e-02 -5.209313631057739258e-01 -1.808934360742568970e-01 -4.691306352615356445e-01
2.525000000000000000e+03 8.383932113647460938e+00 -2.211505317687988281e+01 -1.615252196788787842e-01 -4.516265690326690674e-01 -1.839455366134643555e-01 -4.925751090049743652e-01
2.526000000000000000e+03 6.983157348632812500e+01 -2.573370552062988281e+01 -2.399744540452957153e-01 7.805073261260986328e+00 2.269529581069946289e+00 -6.872540116310119629e-01
2.527000000000000000e+03 7.101490020751953125e+01 -9.817688941955566406e+00 5.310353636741638184e-01 7.160626888275146484e+00 2.307498693466186523e+00 -3.567067384719848633e-01
2.528000000000000000e+03 6.870391082763671875e+01 1.114941787719726562e+01 -2.094237506389617920e-01 7.875707149505615234e+00 2.299885034561157227e+00 8.362802267074584961e-01
2.529000000000000000e+03 1.584053134918212891e+01 2.678865814208984375e+01 2.079398036003112793e-01 -4.576143920421600342e-01 -7.490237802267074585e-02 2.380589246749877930e-01
2.530000000000000000e+03 1.759431076049804688e+01 -2.334786796569824219e+01 3.686442971229553223e-03 -2.190905511379241943e-01 -6.462123245000839233e-02 -3.332535922527313232e-01
2.531000000000000000e+03 2.374640464782714844e+01 1.067789173126220703e+01 -3.216738998889923096e-01 -2.431971728801727295e-01 -1.694613248109817505e-01 3.859104216098785400e-01
2.532000000000000000e+03 1.703045463562011719e+01 2.055264091491699219e+01 -2.221676409244537354e-01 -7.279164791107177734e-01 -2.850252389907836914e-01 2.707554399967193604e-01
2.533000000000000000e+03 2.225984001159667969e+01 -1.943558692932128906e+01 -1.680293530225753784e-01 5.312224477529525757e-02 -3.447213396430015564e-02 -3.962468206882476807e-01
2.534000000000000000e+03 7.108312225341796875e+01 -2.864964866638183594e+01 -2.207207977771759033e-01 7.841092586517333984e+00 2.286111593246459961e+00 -5.546127557754516602e-01
2.535000000000000000e+03 7.073655128479003906e+00 -2.236963462829589844e+01 -1.549927592277526855e-01 -3.127790093421936035e-01 -1.403315365314483643e-01 -4.001522362232208252e-01
2.536000000000000000e+03 9.124464988708496094e+00 -2.261312294006347656e+01 -1.230158656835556030e-01 -4.798500537872314453e-01 -1.808597743511199951e-01 -4.514362514019012451e-01
2.537000000000000000e+03 6.893782043457031250e+01 2.347681045532226562e+01 -2.364908605813980103e-01 7.872869491577148438e+00 2.290913581848144531e+00 3.817267715930938721e-01
2.538000000000000000e+03 4.777827072143554688e+01 -2.055058002471923828e+00 1.412417888641357422e+00 5.225450038909912109e+00 1.991360306739807129e+00 -3.787680387496948242e+00
2.539000000000000000e+03 4.897601318359375000e+01 -9.477304458618164062e+00 1.522353649139404297e+00 8.290692329406738281e+00 2.943913698196411133e+00 5.001734733581542969e+00
2.540000000000000000e+03 4.912751770019531250e+01 -3.124285936355590820e+00 1.374480724334716797e+00 8.839576721191406250e+00 3.064217090606689453e+00 -4.773847103118896484e+00
2.541000000000000000e+03 4.818590164184570312e+01 -9.377004623413085938e+00 1.917674779891967773e+00 5.103942871093750000e+00 2.106485366821289062e+00 4.386559963226318359e+00
2.542000000000000000e+03 4.855492019653320312e+01 -3.815490722656250000e+00 2.393819808959960938e+00 5.917633056640625000e+00 2.493435859680175781e+00 -4.869374752044677734e+00
2.543000000000000000e+03 4.713368606567382812e+01 -2.211600303649902344e+00 1.576145172119140625e+00 3.852366685867309570e+00 1.628553509712219238e+00 -3.393476486206054688e+00
2.544000000000000000e+03 5.062358474731445312e+01 -3.007554054260253906e+00 3.657737970352172852e-01 1.350338745117187500e+01 4.160748481750488281e+00 -2.783483028411865234e+00
2.545000000000000000e+03 4.687975692749023438e+01 -1.044871139526367188e+01 1.375811815261840820e+00 3.253038167953491211e+00 1.388655066490173340e+00 3.159213304519653320e+00
2.546000000000000000e+03 5.046277618408203125e+01 -9.828353881835937500e+00 1.729581207036972046e-01 1.301886653900146484e+01 3.957547426223754883e+00 3.190161228179931641e+00
2.547000000000000000e+03 5.089513015747070312e+01 -9.233568191528320312e+00 5.183315873146057129e-01 1.541055583953857422e+01 4.778666019439697266e+00 2.109541177749633789e+00
2.548000000000000000e+03 5.286324310302734375e+01 -6.818177700042724609e+00 7.962460517883300781e+00 1.331017589569091797e+01 6.381790637969970703e+00 -8.560239076614379883e-01
2.549000000000000000e+03 5.227521896362304688e+01 -3.690220832824707031e+00 2.129673242568969727e+00 1.472144508361816406e+01 5.055335521697998047e+00 8.822992444038391113e-01
2.550000000000000000e+03 5.185798263549804688e+01 -3.969675064086914062e+00 2.232054948806762695e+00 1.581951332092285156e+01 5.415470600128173828e+00 6.837330460548400879e-01
2.551000000000000000e+03 5.087640762329101562e+01 -8.978183746337890625e+00 7.094845771789550781e-01 1.602275276184082031e+01 5.019671440124511719e+00 1.987162947654724121e+00
2.552000000000000000e+03 5.341702270507812500e+01 -5.909529209136962891e+00 7.062676906585693359e+00 1.238842678070068359e+01 5.835330963134765625e+00 7.284931540489196777e-01
2.553000000000000000e+03 5.281036758422851562e+01 -4.530832290649414062e+00 4.451425552368164062e+00 1.411659145355224609e+01 5.570405006408691406e+00 1.816747665405273438e+00
2.554000000000000000e+03 5.215910720825195312e+01 -3.989885807037353516e+00 2.615830183029174805e+00 1.526618862152099609e+01 5.364605903625488281e+00 1.059031844139099121e+00
2.555000000000000000e+03 5.239623641967773438e+01 -3.382359027862548828e+00 1.784681439399719238e+00 1.431035804748535156e+01 4.828511714935302734e+00 7.428244948387145996e-01
2.556000000000000000e+03 5.152126312255859375e+01 -3.265944480895996094e+00 7.893002629280090332e-01 1.480411148071289062e+01 4.678023815155029297e+00 -7.593221664428710938e-01
2.557000000000000000e+03 5.064572906494140625e+01 -2.614757776260375977e+00 2.175886183977127075e-01 1.270899772644042969e+01 3.877975940704345703e+00 -2.697596073150634766e+00
2.558000000000000000e+03 5.280167007446289062e+01 -7.993128299713134766e+00 5.210713863372802734e+00 1.414128398895263672e+01 5.805599212646484375e+00 -1.932687401771545410e+00
2.559000000000000000e+03 5.312208557128906250e+01 -4.579484939575195312e+00 4.650442600250244141e+00 1.339281558990478516e+01 5.412977218627929688e+00 1.782445669174194336e+00
2.560000000000000000e+03 5.222797775268554688e+01 -8.769108772277832031e+00 2.692578792572021484e+00 1.524236392974853516e+01 5.380482673645019531e+00 -1.207462310791015625e+00
2.561000000000000000e+03 4.731361389160156250e+01 -1.016047573089599609e+01 1.520413041114807129e+00 3.627574443817138672e+00 1.544396162033081055e+00 3.469657421112060547e+00
2.562000000000000000e+03 4.720005416870117188e+01 -2.826754570007324219e+00 1.828553676605224609e+00 3.422001361846923828e+00 1.575166463851928711e+00 -3.415057897567749023e+00
2.563000000000000000e+03 4.860214996337890625e+01 -3.040104866027832031e+00 1.712941288948059082e+00 6.861992835998535156e+00 2.572480201721191406e+00 -4.657295703887939453e+00
2.564000000000000000e+03 4.747216033935546875e+01 -2.455327749252319336e+00 1.645920276641845703e+00 4.286255836486816406e+00 1.779652833938598633e+00 -3.653445005416870117e+00
2.565000000000000000e+03 4.617026901245117188e+01 -1.441741824150085449e+00 1.312173366546630859e+00 2.928007841110229492e+00 1.272054314613342285e+00 -2.725861310958862305e+00
2.566000000000000000e+03 4.776818466186523438e+01 -2.710994005203247070e+00 1.759249567985534668e+00 4.769224166870117188e+00 1.958542108535766602e+00 -3.911298513412475586e+00
2.567000000000000000e+03 4.644163894653320312e+01 -1.710454940795898438e+00 1.390959262847900391e+00 3.184523105621337891e+00 1.372644662857055664e+00 -2.872872352600097656e+00
2.568000000000000000e+03 4.534545516967773438e+01 -6.294766664505004883e-01 1.115696430206298828e+00 2.690896034240722656e+00 1.141977787017822266e+00 -2.314699649810791016e+00
2.569000000000000000e+03 4.599838256835937500e+01 -1.110911846160888672e+01 1.095073461532592773e+00 2.650597333908081055e+00 1.123701214790344238e+00 2.620036125183105469e+00
2.570000000000000000e+03 4.668946456909179688e+01 -1.096967983245849609e+01 1.214696526527404785e+00 3.415537357330322266e+00 1.389070153236389160e+00 3.088001966476440430e+00
2.571000000000000000e+03 4.571196746826171875e+01 -1.081360816955566406e+01 1.041938900947570801e+00 2.172092437744140625e+00 9.642094373703002930e-01 2.358814716339111328e+00
2.572000000000000000e+03 4.451392364501953125e+01 -1.288666820526123047e+01 7.900344133377075195e-01 2.309082984924316406e+00 9.297352433204650879e-01 2.085209131240844727e+00
2.573000000000000000e+03 4.434622192382812500e+01 -1.160059547424316406e+01 7.194276452064514160e-01 1.630753397941589355e+00 7.050542831420898438e-01 1.786452054977416992e+00
2.574000000000000000e+03 2.893794441223144531e+01 7.691739499568939209e-02 -2.787287831306457520e-01 1.874396018683910370e-02 -7.799544930458068848e-02 5.177754759788513184e-01
2.575000000000000000e+03 2.786044883728027344e+01 1.138017416000366211e+00 -2.147471606731414795e-01 -1.940788142383098602e-02 -7.024651020765304565e-02 5.376428961753845215e-01
2.576000000000000000e+03 2.850064086914062500e+01 1.637817502021789551e+00 -1.835914552211761475e-01 2.542546391487121582e-02 -4.744979739189147949e-02 5.247498750686645508e-01
2.577000000000000000e+03 3.263574981689453125e+01 7.271371483802795410e-01 -1.709429472684860229e-01 1.947474181652069092e-01 7.141341455280780792e-03 3.772600293159484863e-01
2.578000000000000000e+03 3.058635902404785156e+01 9.174286127090454102e-01 -2.033620029687881470e-01 1.079981327056884766e-01 -2.860916033387184143e-02 4.711200594902038574e-01
2.579000000000000000e+03 3.918429946899414062e+01 -1.421536159515380859e+01 1.934692263603210449e-01 8.300055265426635742e-01 3.070424199104309082e-01 6.239881515502929688e-01
2.580000000000000000e+03 3.763705825805664062e+01 -1.438682365417480469e+01 5.348657071590423584e-02 5.749953985214233398e-01 1.885446012020111084e-01 3.560911417007446289e-01
2.581000000000000000e+03 4.485658264160156250e+01 -9.837079793214797974e-03 1.022404789924621582e+00 2.571717739105224609e+00 1.078236699104309082e+00 -2.130571126937866211e+00
2.582000000000000000e+03 4.396097564697265625e+01 -4.854766130447387695e-01 9.280229210853576660e-01 1.777654767036437988e+00 8.117033243179321289e-01 -1.666221976280212402e+00
2.583000000000000000e+03 3.611430740356445312e+01 8.097652792930603027e-01 3.741248697042465210e-02 4.010271728038787842e-01 1.315318942070007324e-01 6.918256729841232300e-02
2.584000000000000000e+03 3.530178070068359375e+01 -1.461754798889160156e+01 -1.139379143714904785e-01 3.762836158275604248e-01 7.870371639728546143e-02 5.824094265699386597e-02
2.585000000000000000e+03 3.758863830566406250e+01 9.107106328010559082e-01 1.925079077482223511e-01 5.524340867996215820e-01 2.234826087951660156e-01 -1.446424573659896851e-01
2.586000000000000000e+03 3.539552307128906250e+01 7.368639111518859863e-01 -3.131924569606781006e-02 3.331038653850555420e-01 9.053538739681243896e-02 1.585316210985183716e-01
2.587000000000000000e+03 3.434401321411132812e+01 -2.263342440128326416e-01 -2.398817837238311768e-01 2.079449445009231567e-01 -9.581053629517555237e-03 2.993687093257904053e-01
2.588000000000000000e+03 3.992794799804687500e+01 -1.404874134063720703e+01 2.690007984638214111e-01 9.147303700447082520e-01 3.551193475723266602e-01 7.693683505058288574e-01
2.589000000000000000e+03 3.685547256469726562e+01 8.563892841339111328e-01 1.096574962139129639e-01 4.701957106590270996e-01 1.739559620618820190e-01 -2.919919416308403015e-02
2.590000000000000000e+03 3.526848602294921875e+01 -1.377446937561035156e+01 -2.738212347030639648e-01 2.894468903541564941e-01 4.687701351940631866e-03 -1.107085403054952621e-02
2.591000000000000000e+03 3.624922561645507812e+01 -1.562881660461425781e+01 1.156395226716995239e-01 6.030446887016296387e-01 2.156052589416503906e-01 2.453959584236145020e-01
2.592000000000000000e+03 3.453899383544921875e+01 -1.381374168395996094e+01 -3.148785233497619629e-01 2.383407354354858398e-01 -2.296133525669574738e-02 -7.707253098487854004e-02
2.593000000000000000e+03 3.474937057495117188e+01 5.851498246192932129e-01 -8.431599289178848267e-02 2.827280461788177490e-01 5.952361598610877991e-02 2.220814228057861328e-01
2.594000000000000000e+03 3.236011505126953125e+01 -1.463050270080566406e+01 -2.963476181030273438e-01 2.230014652013778687e-01 -2.200384810566902161e-02 -1.961840838193893433e-01
2.595000000000000000e+03 3.169294738769531250e+01 -1.533499813079833984e+01 -2.194836735725402832e-01 2.570287585258483887e-01 1.126352883875370026e-02 -2.090836763381958008e-01
2.596000000000000000e+03 3.127182388305664062e+01 -1.458234405517578125e+01 -3.365250527858734131e-01 1.993985623121261597e-01 -4.113794490694999695e-02 -2.694810628890991211e-01
2.597000000000000000e+03 4.180522537231445312e+01 5.924191474914550781e-01 6.653004288673400879e-01 1.299616694450378418e+00 5.894751548767089844e-01 -1.050245523452758789e+00
2.598000000000000000e+03 4.077716064453125000e+01 -1.435653495788574219e+01 3.896519541740417480e-01 1.181266069412231445e+00 4.712754189968109131e-01 9.741960167884826660e-01
2.599000000000000000e+03 4.190240859985351562e+01 -1.365295410156250000e+01 4.750209450721740723e-01 1.355403542518615723e+00 5.491273403167724609e-01 1.241910934448242188e+00
2.600000000000000000e+03 4.252903747558593750e+01 -1.368934535980224609e+01 5.423195362091064453e-01 1.568170309066772461e+00 6.331469416618347168e-01 1.410956621170043945e+00
2.601000000000000000e+03 2.785973930358886719e+01 -1.505409812927246094e+01 -4.021226465702056885e-01 1.347551643848419189e-01 -8.021024614572525024e-02 -4.267758131027221680e-01
2.602000000000000000e+03 4.061286544799804688e+01 -1.379290199279785156e+01 3.279572129249572754e-01 9.902815222740173340e-01 3.954716324806213379e-01 8.802080154418945312e-01
2.603000000000000000e+03 2.856740188598632812e+01 -1.482617568969726562e+01 -4.142734110355377197e-01 1.248871684074401855e-01 -8.681587874889373779e-02 -4.052832722663879395e-01
2.604000000000000000e+03 2.930240440368652344e+01 -1.476572418212890625e+01 -4.086726903915405273e-01 1.331662386655807495e-01 -8.265193551778793335e-02 -3.790459334850311279e-01
2.605000000000000000e+03 2.370564079284667969e+01 -1.462600612640380859e+01 -5.191977620124816895e-01 7.213120907545089722e-02 -1.341199576854705811e-01 -5.158483386039733887e-01
2.606000000000000000e+03 4.100909423828125000e+01 1.903202235698699951e-01 5.073308348655700684e-01 9.407985806465148926e-01 4.344388246536254883e-01 -7.459821105003356934e-01
2.607000000000000000e+03 4.441679382324218750e+01 -4.957920014858245850e-01 1.005398988723754883e+00 2.027698040008544922e+00 9.099290966987609863e-01 -1.873900175094604492e+00
2.608000000000000000e+03 4.293273162841796875e+01 7.977094650268554688e-01 8.217012882232666016e-01 1.783338904380798340e+00 7.815120220184326172e-01 -1.449869513511657715e+00
2.609000000000000000e+03 4.237247848510742188e+01 3.681814968585968018e-01 7.302503585815429688e-01 1.406350374221801758e+00 6.409802436828613281e-01 -1.199411869049072266e+00
2.610000000000000000e+03 4.343001174926757812e+01 1.436778604984283447e-01 8.734215497970581055e-01 1.770146369934082031e+00 7.930703759193420410e-01 -1.549502611160278320e+00
2.611000000000000000e+03 2.214332771301269531e+01 -1.552282333374023438e+01 -4.835785925388336182e-01 3.424848988652229309e-02 -1.347990334033966064e-01 -5.033730268478393555e-01
2.612000000000000000e+03 4.323003768920898438e+01 -1.307036113739013672e+01 6.072357296943664551e-01 1.664776206016540527e+00 6.816035509109497070e-01 1.576317429542541504e+00
2.613000000000000000e+03 2.895897483825683594e+01 1.040273070335388184e+00 -2.177432030439376831e-01 3.563438728451728821e-02 -5.463264882564544678e-02 5.189828276634216309e-01
2.614000000000000000e+03 2.523569869995117188e+01 -1.460868453979492188e+01 -5.018522739410400391e-01 8.736894279718399048e-02 -1.243449971079826355e-01 -5.004218816757202148e-01
2.615000000000000000e+03 2.627230262756347656e+01 -1.513345146179199219e+01 -4.312466681003570557e-01 1.119320616126060486e-01 -9.579437971115112305e-02 -4.676349461078643799e-01
2.616000000000000000e+03 2.728355407714843750e+01 6.179178357124328613e-01 -2.348652184009552002e-01 -5.209131166338920593e-02 -8.608695864677429199e-02 5.402447581291198730e-01
2.617000000000000000e+03 2.838964653015136719e+01 5.755041837692260742e-01 -2.465315908193588257e-01 1.735317171551287174e-03 -7.343888282775878906e-02 5.293783545494079590e-01
2.618000000000000000e+03 6.867276000976562500e+01 -1.850436925888061523e+00 7.206037044525146484e-01 7.460871696472167969e+00 2.454442501068115234e+00 5.958885550498962402e-01
2.619000000000000000e+03 7.005535125732421875e+01 -5.677814960479736328e+00 7.135853767395019531e-01 7.210970401763916016e+00 2.377366781234741211e+00 1.030969470739364624e-01
2.620000000000000000e+03 6.917430877685546875e+01 4.570044040679931641e+00 1.415729820728302002e-01 7.693515777587890625e+00 2.350526571273803711e+00 9.331468939781188965e-01
2.621000000000000000e+03 6.923027801513671875e+01 3.291406393051147461e+00 2.464707344770431519e-01 7.635626316070556641e+00 2.364629030227661133e+00 9.067530632019042969e-01
2.622000000000000000e+03 2.938279914855957031e+01 5.166682004928588867e-01 -2.524777054786682129e-01 4.080301150679588318e-02 -6.350240856409072876e-02 5.119624137878417969e-01
2.623000000000000000e+03 9.104236602783203125e+00 2.291975402832031250e+01 -1.950285732746124268e-01 -4.329893887042999268e-01 -1.884053945541381836e-01 4.908458292484283447e-01
2.624000000000000000e+03 2.550150680541992188e+01 1.079767107963562012e+00 -1.947318315505981445e-01 -1.575380712747573853e-01 -1.056809648871421814e-01 5.389121770858764648e-01
2.625000000000000000e+03 2.538915252685546875e+01 2.287672996520996094e+00 -1.694077998399734497e-01 -1.788876652717590332e-01 -1.044886410236358643e-01 5.506582260131835938e-01
2.626000000000000000e+03 2.629239845275878906e+01 -3.950182795524597168e-01 -2.663056254386901855e-01 -9.501114487648010254e-02 -1.083950251340866089e-01 5.154329538345336914e-01
2.627000000000000000e+03 6.936361694335937500e+01 -1.760534858703613281e+01 1.044025272130966187e-01 7.658216476440429688e+00 2.328785657882690430e+00 -8.784451484680175781e-01
2.628000000000000000e+03 7.052752685546875000e+01 -2.014216232299804688e+01 -4.023122787475585938e-02 7.646459579467773438e+00 2.281868457794189453e+00 -8.300492763519287109e-01
2.629000000000000000e+03 7.052564239501953125e+01 -1.172793960571289062e+01 4.917292892932891846e-01 7.289769172668457031e+00 2.334449529647827148e+00 -5.703130960464477539e-01
2.630000000000000000e+03 7.031000518798828125e+01 -1.503930950164794922e+01 2.752998769283294678e-01 7.459229469299316406e+00 2.320358753204345703e+00 -7.791002988815307617e-01
2.631000000000000000e+03 6.885018157958984375e+01 1.333705615997314453e+01 -2.453915625810623169e-01 7.883898735046386719e+00 2.291552066802978516e+00 7.586692571640014648e-01
2.632000000000000000e+03 6.906913757324218750e+01 1.221139526367187500e+01 -2.201231718063354492e-01 7.873891353607177734e+00 2.296130418777465820e+00 7.977496981620788574e-01
2.633000000000000000e+03 2.194823265075683594e+01 -1.770888710021972656e+01 -3.255115747451782227e-01 3.166022151708602905e-02 -8.815540373325347900e-02 -4.538877904415130615e-01
2.634000000000000000e+03 2.582338714599609375e+01 -1.608658981323242188e+01 -3.466524779796600342e-01 1.286231130361557007e-01 -6.540880352258682251e-02 -4.514984488487243652e-01
2.635000000000000000e+03 2.717667388916015625e+01 5.026766777038574219e+00 -1.196047067642211914e-01 1.601973921060562134e-02 -3.107548877596855164e-02 4.866919815540313721e-01
2.636000000000000000e+03 2.704197502136230469e+01 9.104370117187500000e+00 -1.336135417222976685e-01 1.828674376010894775e-01 1.477616932243108749e-02 3.143906295299530029e-01
2.637000000000000000e+03 2.512816810607910156e+01 1.195162010192871094e+01 -2.479551136493682861e-01 4.675752669572830200e-02 -6.035927683115005493e-02 2.570117115974426270e-01
2.638000000000000000e+03 6.847594451904296875e+01 -2.522159004211425781e+01 -2.800218462944030762e-01 7.831707954406738281e+00 2.265505790710449219e+00 -7.123541235923767090e-01
2.639000000000000000e+03 2.372052192687988281e+01 1.665071868896484375e+01 -2.277639508247375488e-01 1.943417824804782867e-02 -6.249893084168434143e-02 6.437462568283081055e-02
2.640000000000000000e+03 2.447320365905761719e+01 1.815446662902832031e+01 -1.473002433776855469e-01 1.883328706026077271e-01 1.230978593230247498e-02 -2.036952972412109375e-02
2.641000000000000000e+03 6.939421081542968750e+01 -1.646975326538085938e+01 1.925173550844192505e-01 7.616951942443847656e+00 2.342840909957885742e+00 -8.634625673294067383e-01
2.642000000000000000e+03 6.830097198486328125e+01 -1.658245468139648438e+01 2.051632553339004517e-01 7.738208293914794922e+00 2.383011341094970703e+00 -9.095948934555053711e-01
2.643000000000000000e+03 7.166511535644531250e+01 7.252107620239257812e+00 -1.087103318423032761e-02 7.596770286560058594e+00 2.275769948959350586e+00 8.290912508964538574e-01
2.644000000000000000e+03 7.029748535156250000e+01 7.370346546173095703e+00 -2.823877707123756409e-02 7.702376365661621094e+00 2.302241325378417969e+00 8.883332014083862305e-01
2.645000000000000000e+03 6.902445983886718750e+01 -2.179194068908691406e+01 -1.477601081132888794e-01 7.793298244476318359e+00 2.293661355972290039e+00 -8.328800201416015625e-01
2.646000000000000000e+03 6.936820983886718750e+01 1.043265247344970703e+01 -1.634322404861450195e-01 7.843780040740966797e+00 2.304104328155517578e+00 8.560014367103576660e-01
2.647000000000000000e+03 7.039909362792968750e+01 1.089643001556396484e+01 -1.442482024431228638e-01 7.805810451507568359e+00 2.298468589782714844e+00 8.174937963485717773e-01
2.648000000000000000e+03 6.755884552001953125e+01 2.085960197448730469e+01 -2.966123223304748535e-01 7.800153732299804688e+00 2.251062393188476562e+00 4.579198360443115234e-01
2.649000000000000000e+03 6.679494476318359375e+01 1.555523300170898438e+01 -3.579925298690795898e-01 7.853482723236083984e+00 2.248646974563598633e+00 6.489980220794677734e-01
2.650000000000000000e+03 6.892726135253906250e+01 1.701824760437011719e+01 -2.796925902366638184e-01 7.888148784637451172e+00 2.282536983489990234e+00 6.131397485733032227e-01
2.651000000000000000e+03 7.049891662597656250e+01 -7.878101825714111328e+00 6.254673004150390625e-01 7.168855667114257812e+00 2.338296890258789062e+00 -1.669315844774246216e-01
2.652000000000000000e+03 7.107819366455078125e+01 -8.952872276306152344e+00 5.518925786018371582e-01 7.128067970275878906e+00 2.303988218307495117e+00 -2.771391272544860840e-01
2.653000000000000000e+03 7.065251922607421875e+01 9.702187538146972656e+00 -1.083368211984634399e-01 7.757622718811035156e+00 2.294785737991333008e+00 8.322460651397705078e-01
2.654000000000000000e+03 6.932918548583984375e+01 -2.842675018310546875e+01 -2.869019210338592529e-01 7.824987411499023438e+00 2.261425733566284180e+00 -5.750797986984252930e-01
2.655000000000000000e+03 6.926371765136718750e+01 -2.714135742187500000e+01 -2.862701117992401123e-01 7.822691917419433594e+00 2.260926485061645508e+00 -6.310355663299560547e-01
2.656000000000000000e+03 6.996762084960937500e+01 -1.054523468017578125e+01 6.140839457511901855e-01 7.298060417175292969e+00 2.373643398284912109e+00 -4.673171937465667725e-01
2.657000000000000000e+03 1.804670715332031250e+01 2.418795776367187500e+01 1.002539396286010742e-01 -4.082033932209014893e-01 -9.238483756780624390e-02 1.482669115066528320e-01
2.658000000000000000e+03 1.280679416656494141e+01 2.920278739929199219e+01 2.163192927837371826e-01 -4.830391407012939453e-01 -8.001595735549926758e-02 3.143007159233093262e-01
2.659000000000000000e+03 2.543995094299316406e+01 8.711441993713378906e+00 -2.056153863668441772e-01 -5.678668618202209473e-02 -7.872062176465988159e-02 4.100255072116851807e-01
2.660000000000000000e+03 1.390858554840087891e+01 -2.531273651123046875e+01 8.479927480220794678e-02 -4.214217662811279297e-01 -1.009867414832115173e-01 -3.718663454055786133e-01
2.661000000000000000e+03 1.331950187683105469e+01 2.631220245361328125e+01 1.408467590808868408e-01 -5.757767558097839355e-01 -1.304790079593658447e-01 3.627521097660064697e-01
2.662000000000000000e+03 1.459650611877441406e+01 2.515901947021484375e+01 1.108484417200088501e-01 -5.971204638481140137e-01 -1.458816081285476685e-01 3.265570998191833496e-01
2.663000000000000000e+03 7.050077056884765625e+01 2.088745880126953125e+01 -1.935794055461883545e-01 7.991371631622314453e+00 2.339337587356567383e+00 4.617640972137451172e-01
2.664000000000000000e+03 7.003102874755859375e+01 -2.963644599914550781e+01 -2.830142378807067871e-01 7.839504718780517578e+00 2.266947269439697266e+00 -5.331533551216125488e-01
2.665000000000000000e+03 6.856614685058593750e+01 -3.456235885620117188e+01 -3.500147759914398193e-01 7.788591861724853516e+00 2.231573104858398438e+00 -3.184976279735565186e-01
2.666000000000000000e+03 1.049308586120605469e+01 2.819627571105957031e+01 1.362015753984451294e-01 -5.294075608253479004e-01 -1.179617866873741150e-01 3.879344761371612549e-01
2.667000000000000000e+03 6.915393829345703125e+01 2.577034378051757812e+01 -2.192757129669189453e-01 7.869504928588867188e+00 2.295068740844726562e+00 3.115213513374328613e-01
2.668000000000000000e+03 7.031022644042968750e+01 2.798227691650390625e+01 -1.661379933357238770e-01 7.982978820800781250e+00 2.345052242279052734e+00 2.527903020381927490e-01
2.669000000000000000e+03 6.896886444091796875e+01 7.291794419288635254e-01 4.719259738922119141e-01 7.538619518280029297e+00 2.403163671493530273e+00 7.958344221115112305e-01
2.670000000000000000e+03 5.355529022216796875e+01 -6.959339618682861328e+00 6.701409339904785156e+00 1.218949794769287109e+01 5.667272090911865234e+00 -7.811617255210876465e-01
2.671000000000000000e+03 4.998690032958984375e+01 -9.800583839416503906e+00 4.481284022331237793e-01 1.183946704864501953e+01 3.686278581619262695e+00 3.979363203048706055e+00
2.672000000000000000e+03 5.017075347900390625e+01 -9.559732437133789062e+00 4.320832490921020508e-01 1.275402069091796875e+01 3.955831289291381836e+00 3.882046461105346680e+00
2.673000000000000000e+03 5.293539810180664062e+01 -6.555623531341552734e+00 8.054092407226562500e+00 1.316055011749267578e+01 6.364392757415771484e+00 -2.973480522632598877e-01
2.674000000000000000e+03 5.060491180419921875e+01 -9.656286239624023438e+00 2.458682060241699219e-01 1.359783649444580078e+01 4.153111457824707031e+00 2.904734849929809570e+00
2.675000000000000000e+03 4.990745162963867188e+01 -2.787317752838134766e+00 5.619687438011169434e-01 1.124960899353027344e+01 3.543473243713378906e+00 -3.931298494338989258e+00
2.676000000000000000e+03 5.270621490478515625e+01 -8.546487808227539062e+00 3.625894308090209961e+00 1.427012634277343750e+01 5.368806362152099609e+00 -1.700914144515991211e+00
2.677000000000000000e+03 5.098269271850585938e+01 -3.028678894042968750e+00 3.991650938987731934e-01 1.398899459838867188e+01 4.316448211669921875e+00 -1.989306211471557617e+00
2.678000000000000000e+03 5.064061355590820312e+01 -9.294666290283203125e+00 4.780745506286621094e-01 1.474621677398681641e+01 4.567287445068359375e+00 2.770871162414550781e+00
2.679000000000000000e+03 4.956677627563476562e+01 -2.572728872299194336e+00 7.054460644721984863e-01 9.971661567687988281e+00 3.203132152557373047e+00 -4.139890193939208984e+00
2.680000000000000000e+03 4.754390716552734375e+01 -9.975647926330566406e+00 1.582422018051147461e+00 4.162637233734130859e+00 1.723517775535583496e+00 3.676982402801513672e+00
2.681000000000000000e+03 5.300659179687500000e+01 -4.919575214385986328e+00 5.427874088287353516e+00 1.352616119384765625e+01 5.686210632324218750e+00 1.813868284225463867e+00
2.682000000000000000e+03 5.135660934448242188e+01 -2.914227008819580078e+00 4.666324257850646973e-01 1.407731056213378906e+01 4.363183021545410156e+00 -1.322719335556030273e+00
2.683000000000000000e+03 5.172686386108398438e+01 -2.702092170715332031e+00 5.366237163543701172e-01 1.375747680664062500e+01 4.288229942321777344e+00 -7.242141366004943848e-01
2.684000000000000000e+03 5.183076858520507812e+01 -9.252808570861816406e+00 1.336829662322998047e+00 1.513884067535400391e+01 4.942700862884521484e+00 -1.396622806787490845e-01
2.685000000000000000e+03 5.222769165039062500e+01 -9.210488319396972656e+00 1.816200733184814453e+00 1.477118206024169922e+01 4.976214885711669922e+00 -7.421820163726806641e-01
2.686000000000000000e+03 5.388530731201171875e+01 -5.176247119903564453e+00 5.601092815399169922e+00 1.196214389801025391e+01 5.268970966339111328e+00 1.311892390251159668e+00
2.687000000000000000e+03 5.115361022949218750e+01 -9.787727355957031250e+00 2.890825569629669189e-01 1.423038387298583984e+01 4.355840206146240234e+00 1.650515079498291016e+00
2.688000000000000000e+03 5.151842498779296875e+01 -9.738965034484863281e+00 5.316155552864074707e-01 1.441366195678710938e+01 4.483583450317382812e+00 9.214508533477783203e-01
2.689000000000000000e+03 4.927112960815429688e+01 -9.380880355834960938e+00 1.369747638702392578e+00 9.384603500366210938e+00 3.226305484771728516e+00 5.066153526306152344e+00
2.690000000000000000e+03 4.824476242065429688e+01 -9.854738235473632812e+00 1.608075857162475586e+00 5.759894847869873047e+00 2.210391044616699219e+00 4.382639408111572266e+00
2.691000000000000000e+03 4.701232528686523438e+01 -1.610843777656555176e+00 1.348120212554931641e+00 4.081758499145507812e+00 1.628963589668273926e+00 -3.249132633209228516e+00
2.692000000000000000e+03 4.633779144287109375e+01 -1.141385316848754883e+00 1.223197460174560547e+00 3.411468744277954102e+00 1.390399813652038574e+00 -2.836296796798706055e+00
2.693000000000000000e+03 4.787632751464843750e+01 -9.895311355590820312e+00 1.639312744140625000e+00 4.809274673461914062e+00 1.934576272964477539e+00 4.052721023559570312e+00
2.694000000000000000e+03 4.566975402832031250e+01 -1.364243388175964355e+00 1.199807524681091309e+00 2.579030990600585938e+00 1.133651494979858398e+00 -2.409461975097656250e+00
2.695000000000000000e+03 4.487184906005859375e+01 -5.454783439636230469e-01 1.054414272308349609e+00 2.345189571380615234e+00 1.019881129264831543e+00 -2.093009233474731445e+00
2.696000000000000000e+03 4.561249160766601562e+01 -1.145942115783691406e+01 9.963716864585876465e-01 2.501095056533813477e+00 1.049239993095397949e+00 2.448308944702148438e+00
2.697000000000000000e+03 4.726559448242187500e+01 -1.051535415649414062e+01 1.414892435073852539e+00 3.961020708084106445e+00 1.612774014472961426e+00 3.509727239608764648e+00
2.698000000000000000e+03 4.548656082153320312e+01 -1.224429702758789062e+01 8.984214663505554199e-01 2.823252677917480469e+00 1.116502285003662109e+00 2.472536325454711914e+00
2.699000000000000000e+03 2.989596176147460938e+01 7.846247553825378418e-01 -2.256133258342742920e-01 7.311321049928665161e-02 -4.575003311038017273e-02 4.951710700988769531e-01
2.700000000000000000e+03 3.221809768676757812e+01 1.378947854042053223e+00 -1.190004870295524597e-01 2.103466987609863281e-01 2.740386500954627991e-02 3.797622621059417725e-01
2.701000000000000000e+03 2.960097885131835938e+01 1.411894321441650391e+00 -1.823436468839645386e-01 7.696969807147979736e-02 -3.161218389868736267e-02 4.965571761131286621e-01
2.702000000000000000e+03 2.825551223754882812e+01 3.508552551269531250e+00 -1.112753376364707947e-01 6.373053044080734253e-02 -1.426344178617000580e-02 4.968037903308868408e-01
2.703000000000000000e+03 4.414955902099609375e+01 -1.332166099548339844e+01 7.292528748512268066e-01 2.285221815109252930e+00 9.043423533439636230e-01 1.965706229209899902e+00
2.704000000000000000e+03 4.417842483520507812e+01 -1.244621658325195312e+01 7.564687132835388184e-01 1.995792984962463379e+00 8.256785273551940918e-01 1.899903178215026855e+00
2.705000000000000000e+03 4.438381958007812500e+01 5.251409113407135010e-02 9.699487686157226562e-01 2.263196706771850586e+00 9.699436426162719727e-01 -1.924636244773864746e+00
2.706000000000000000e+03 2.909423828125000000e+01 4.002064228057861328e+00 -6.794238835573196411e-02 1.492101103067398071e-01 2.438031323254108429e-02 4.467564523220062256e-01
2.707000000000000000e+03 3.776510238647460938e+01 -1.520670795440673828e+01 1.687771081924438477e-01 7.263792753219604492e-01 2.685469090938568115e-01 4.440692663192749023e-01
2.708000000000000000e+03 3.829913330078125000e+01 9.818363785743713379e-01 2.774748206138610840e-01 6.476848125457763672e-01 2.775478959083557129e-01 -2.676135003566741943e-01
2.709000000000000000e+03 3.741585922241210938e+01 1.702776789665222168e+00 2.739200592041015625e-01 6.578087210655212402e-01 2.795186340808868408e-01 -1.948759108781814575e-01
2.710000000000000000e+03 3.592230224609375000e+01 1.634053468704223633e+00 1.329178512096405029e-01 4.879204332828521729e-01 1.862514764070510864e-01 2.408191561698913574e-02
2.711000000000000000e+03 3.811155319213867188e+01 1.790256142616271973e+00 3.549655079841613770e-01 7.666376233100891113e-01 3.364809453487396240e-01 -3.249478042125701904e-01
2.712000000000000000e+03 3.465282058715820312e+01 -1.456372737884521484e+01 -1.894457191228866577e-01 3.034854233264923096e-01 3.421191126108169556e-02 -1.307735312730073929e-02
2.713000000000000000e+03 3.688432693481445312e+01 -1.708510589599609375e+01 2.922992706298828125e-01 8.958297371864318848e-01 3.564386963844299316e-01 4.232241511344909668e-01
2.714000000000000000e+03 3.091625022888183594e+01 -1.610295486450195312e+01 -1.520624905824661255e-01 2.911980152130126953e-01 4.174065217375755310e-02 -2.238098382949829102e-01
2.715000000000000000e+03 3.400291824340820312e+01 -1.470269489288330078e+01 -2.041099071502685547e-01 2.808883488178253174e-01 2.303353697061538696e-02 -6.377134472131729126e-02
2.716000000000000000e+03 3.493388748168945312e+01 -1.524753665924072266e+01 -3.278832510113716125e-02 3.952921330928802490e-01 1.087511405348777771e-01 6.492282450199127197e-02
2.717000000000000000e+03 3.059929275512695312e+01 -1.465014362335205078e+01 -3.610989153385162354e-01 1.925317347049713135e-01 -5.057015269994735718e-02 -3.124652206897735596e-01
2.718000000000000000e+03 3.285817718505859375e+01 -1.526361560821533203e+01 -1.666024923324584961e-01 2.908304631710052490e-01 3.726838901638984680e-02 -1.218467280268669128e-01
2.719000000000000000e+03 2.303562355041503906e+01 -1.605618476867675781e+01 -4.247185587882995605e-01 6.574633717536926270e-02 -1.076916679739952087e-01 -4.933004081249237061e-01
2.720000000000000000e+03 3.109474182128906250e+01 1.954134106636047363e+00 -1.000628992915153503e-01 1.831252425909042358e-01 2.491870149970054626e-02 4.193839728832244873e-01
2.721000000000000000e+03 3.317179489135742188e+01 4.523965418338775635e-01 -1.957863122224807739e-01 1.852425485849380493e-01 -3.163128392770886421e-03 3.506192862987518311e-01
2.722000000000000000e+03 4.391112899780273438e+01 1.004799306392669678e-01 9.213842749595642090e-01 1.995969176292419434e+00 8.752060532569885254e-01 -1.726009130477905273e+00
2.723000000000000000e+03 2.862507057189941406e+01 -1.560499191284179688e+01 -3.019249439239501953e-01 1.623778045177459717e-01 -4.186414182186126709e-02 -3.733763992786407471e-01
2.724000000000000000e+03 2.996342849731445312e+01 -1.683224678039550781e+01 -1.228506639599800110e-01 2.841287255287170410e-01 4.838341847062110901e-02 -2.611909806728363037e-01
2.725000000000000000e+03 4.303447341918945312e+01 -1.506873416900634766e+01 5.848801732063293457e-01 2.257063865661621094e+00 8.525831699371337891e-01 1.672877192497253418e+00
2.726000000000000000e+03 4.301064682006835938e+01 -1.442032051086425781e+01 6.089183688163757324e-01 2.023014783859252930e+00 7.895799875259399414e-01 1.625310659408569336e+00
2.727000000000000000e+03 2.375873184204101562e+01 -1.778259849548339844e+01 -2.595176994800567627e-01 1.049241498112678528e-01 -4.637806862592697144e-02 -4.337637424468994141e-01
2.728000000000000000e+03 2.609331703186035156e+01 2.973329782485961914e+00 -1.582097411155700684e-01 -1.194965690374374390e-01 -8.331189304590225220e-02 5.518615841865539551e-01
2.729000000000000000e+03 3.878505325317382812e+01 -1.574883937835693359e+01 3.387967646121978760e-01 1.051600933074951172e+00 4.171192944049835205e-01 7.047523260116577148e-01
2.730000000000000000e+03 4.061164855957031250e+01 -1.525328826904296875e+01 4.577738344669342041e-01 1.382100343704223633e+00 5.519622564315795898e-01 1.051995515823364258e+00
2.731000000000000000e+03 4.242685317993164062e+01 -1.439976978302001953e+01 5.880855917930603027e-01 1.742310285568237305e+00 6.991187334060668945e-01 1.482060551643371582e+00
2.732000000000000000e+03 4.317918014526367188e+01 -1.374621391296386719e+01 6.292034387588500977e-01 1.872918486595153809e+00 7.506365776062011719e-01 1.639360308647155762e+00
2.733000000000000000e+03 4.068407058715820312e+01 1.191796898841857910e+00 5.867553353309631348e-01 1.125154018402099609e+00 5.135728120803833008e-01 -8.149014115333557129e-01
2.734000000000000000e+03 4.388109970092773438e+01 7.098670005798339844e-01 8.904288411140441895e-01 2.229068517684936523e+00 9.358491897583007812e-01 -1.768341779708862305e+00
2.735000000000000000e+03 3.419060134887695312e+01 -1.550350570678710938e+01 -3.802594915032386780e-02 3.821218013763427734e-01 1.032287627458572388e-01 1.150011084973812103e-02
2.736000000000000000e+03 2.730021286010742188e+01 -1.568687343597412109e+01 -3.508682847023010254e-01 1.353418678045272827e-01 -6.465792655944824219e-02 -4.302380979061126709e-01
2.737000000000000000e+03 3.139956092834472656e+01 1.075639367103576660e+00 -1.708045005798339844e-01 1.526066213846206665e-01 -5.459361243993043900e-03 4.318405091762542725e-01
2.738000000000000000e+03 2.730939865112304688e+01 1.733232617378234863e+00 -1.856171935796737671e-01 -4.332876205444335938e-02 -6.868378818035125732e-02 5.456277132034301758e-01
2.739000000000000000e+03 2.669355392456054688e+01 1.162707567214965820e+00 -2.073091268539428711e-01 -8.547610789537429810e-02 -8.783557265996932983e-02 5.459625720977783203e-01
2.740000000000000000e+03 3.240039062500000000e+01 -1.601389884948730469e+01 -8.557702600955963135e-02 3.287082016468048096e-01 7.293935120105743408e-02 -1.170360594987869263e-01
2.741000000000000000e+03 2.606635665893554688e+01 1.719900250434875488e+00 -1.834538131952285767e-01 -1.228655949234962463e-01 -9.189581871032714844e-02 5.509977936744689941e-01
2.742000000000000000e+03 3.918121337890625000e+01 -1.504315185546875000e+01 3.026740252971649170e-01 1.010138869285583496e+00 3.938438594341278076e-01 7.167105674743652344e-01
2.743000000000000000e+03 2.615387535095214844e+01 5.906320214271545410e-01 -2.205654680728912354e-01 -1.110345795750617981e-01 -9.948001056909561157e-02 5.372626185417175293e-01
2.744000000000000000e+03 3.434700012207031250e+01 1.351242780685424805e+00 -9.363544173538684845e-03 3.292367756366729736e-01 9.596197307109832764e-02 2.126169055700302124e-01
2.745000000000000000e+03 6.927143096923828125e+01 -1.888441658020019531e+01 1.920402981340885162e-02 7.708592891693115234e+00 2.318339109420776367e+00 -8.828777074813842773e-01
2.746000000000000000e+03 2.627930259704589844e+01 4.326054573059082031e+00 -1.443759500980377197e-01 -8.438943326473236084e-02 -6.862961500883102417e-02 5.312973260879516602e-01
2.747000000000000000e+03 6.832815551757812500e+01 -2.882678985595703125e+00 8.162385821342468262e-01 7.453943252563476562e+00 2.481054544448852539e+00 4.906507432460784912e-01
2.748000000000000000e+03 6.815848541259765625e+01 1.261515998840332031e+01 -2.628622353076934814e-01 7.890182971954345703e+00 2.288196086883544922e+00 7.886425256729125977e-01
2.749000000000000000e+03 6.972380828857421875e+01 9.293072700500488281e+00 -1.114046573638916016e-01 7.793157100677490234e+00 2.304525613784790039e+00 8.756007552146911621e-01
2.750000000000000000e+03 7.038843536376953125e+01 1.895439028739929199e+00 3.073035478591918945e-01 7.445599555969238281e+00 2.325870990753173828e+00 7.955101728439331055e-01
2.751000000000000000e+03 6.882333374023437500e+01 -5.697221755981445312e-01 5.840042233467102051e-01 7.499745845794677734e+00 2.425125122070312500e+00 7.107042074203491211e-01
2.752000000000000000e+03 6.966497039794921875e+01 -1.124818325042724609e+01 5.988087654113769531e-01 7.365449428558349609e+00 2.389277458190917969e+00 -5.609880685806274414e-01
2.753000000000000000e+03 6.904969024658203125e+01 -1.191589927673339844e+01 5.964310169219970703e-01 7.448799133300781250e+00 2.413568973541259766e+00 -6.359207630157470703e-01
2.754000000000000000e+03 6.874563598632812500e+01 -6.518310546875000000e+00 8.772115111351013184e-01 7.352575778961181641e+00 2.468936204910278320e+00 -2.477570902556180954e-03
2.755000000000000000e+03 7.136999511718750000e+01 -8.213253021240234375e+00 5.391964912414550781e-01 7.076319217681884766e+00 2.284654855728149414e+00 -1.941999495029449463e-01
2.756000000000000000e+03 2.370106506347656250e+01 2.058628082275390625e+01 -4.739614576101303101e-02 1.705492436885833740e-01 3.694593161344528198e-02 -6.030210480093955994e-02
2.757000000000000000e+03 2.185505867004394531e+01 2.085998344421386719e+01 -6.320530176162719727e-02 -7.386752963066101074e-02 -4.112185165286064148e-02 -3.273706650361418724e-03
2.758000000000000000e+03 6.731620788574218750e+01 -2.336734390258789062e+01 -2.760987579822540283e-01 7.889096260070800781e+00 2.283899307250976562e+00 -7.807033061981201172e-01
2.759000000000000000e+03 2.630526542663574219e+01 8.059413909912109375e+00 -1.606026440858840942e-01 3.433913365006446838e-02 -3.787905350327491760e-02 4.041185379028320312e-01
2.760000000000000000e+03 2.795835876464843750e+01 7.487516403198242188e+00 -8.298466354608535767e-02 2.089087963104248047e-01 3.777723759412765503e-02 3.541952669620513916e-01
2.761000000000000000e+03 2.750077056884765625e+01 6.507411003112792969e+00 -9.608167409896850586e-02 1.136055886745452881e-01 5.257173907011747360e-03 4.152409732341766357e-01
2.762000000000000000e+03 6.553021240234375000e+01 1.780549049377441406e+01 -4.150270521640777588e-01 7.740024089813232422e+00 2.197499036788940430e+00 5.216822624206542969e-01
2.763000000000000000e+03 6.721530914306640625e+01 1.729259490966796875e+01 -3.444992005825042725e-01 7.831308364868164062e+00 2.246042728424072266e+00 5.899187326431274414e-01
2.764000000000000000e+03 6.951458740234375000e+01 -7.657109260559082031e+00 7.543941140174865723e-01 7.279874324798583984e+00 2.410280466079711914e+00 -1.482926458120346069e-01
2.765000000000000000e+03 6.835501861572265625e+01 -1.575406742095947266e+01 2.825042307376861572e-01 7.694083213806152344e+00 2.392976284027099609e+00 -8.869422078132629395e-01
2.766000000000000000e+03 2.514139747619628906e+01 -1.846998214721679688e+01 -1.644791364669799805e-01 1.614263206720352173e-01 -9.158450993709266186e-04 -3.861292898654937744e-01
2.767000000000000000e+03 6.915462493896484375e+01 -2.028629684448242188e+01 -6.965873390436172485e-02 7.756444454193115234e+00 2.306035757064819336e+00 -8.675367236137390137e-01
2.768000000000000000e+03 2.536972236633300781e+01 1.322039508819580078e+01 -2.220307588577270508e-01 1.365973055362701416e-01 -2.563003636896610260e-02 1.786955595016479492e-01
2.769000000000000000e+03 6.806112670898437500e+01 1.453873062133789062e+01 -2.983635365962982178e-01 7.879790782928466797e+00 2.274428129196166992e+00 7.059581279754638672e-01
2.770000000000000000e+03 6.991413116455078125e+01 -1.258851337432861328e+01 4.739767014980316162e-01 7.385852813720703125e+00 2.357949018478393555e+00 -6.568760871887207031e-01
2.771000000000000000e+03 6.693999481201171875e+01 -2.506376647949218750e+01 -3.455113768577575684e-01 7.879439830780029297e+00 2.260178565979003906e+00 -7.052342295646667480e-01
2.772000000000000000e+03 6.802228546142578125e+01 -2.702438735961914062e+01 -3.413717150688171387e-01 7.832718849182128906e+00 2.247404098510742188e+00 -6.300764679908752441e-01
2.773000000000000000e+03 9.939042091369628906e+00 -2.841441917419433594e+01 1.266315132379531860e-01 -4.813590943813323975e-01 -1.064182743430137634e-01 -3.667440712451934814e-01
2.774000000000000000e+03 2.822412490844726562e+01 8.725214004516601562e+00 -6.054611131548881531e-02 3.123696148395538330e-01 7.554705440998077393e-02 2.727239131927490234e-01
2.775000000000000000e+03 6.557502746582031250e+01 1.966926193237304688e+01 -3.773458003997802734e-01 7.687574386596679688e+00 2.193068504333496094e+00 4.639816582202911377e-01
2.776000000000000000e+03 1.947375869750976562e+01 2.496167564392089844e+01 1.581857353448867798e-01 -2.292224466800689697e-01 -2.131101675331592560e-02 6.887909770011901855e-02
2.777000000000000000e+03 6.633718109130859375e+01 -2.919669342041015625e+01 -4.271502792835235596e-01 7.790350914001464844e+00 2.208960294723510742e+00 -5.036678314208984375e-01
2.778000000000000000e+03 6.615404510498046875e+01 -3.179675102233886719e+01 -4.354205429553985596e-01 7.714262962341308594e+00 2.183652639389038086e+00 -3.898610472679138184e-01
2.779000000000000000e+03 6.885112762451171875e+01 7.393444538116455078e+00 -4.913347959518432617e-02 7.806529521942138672e+00 2.327218770980834961e+00 9.328738451004028320e-01
2.780000000000000000e+03 1.706536483764648438e+01 2.544545936584472656e+01 1.552998572587966919e-01 -4.416967630386352539e-01 -8.591906726360321045e-02 1.948142796754837036e-01
2.781000000000000000e+03 1.441323661804199219e+01 2.807742309570312500e+01 2.279881536960601807e-01 -4.679754078388214111e-01 -7.199617475271224976e-02 2.794814705848693848e-01
2.782000000000000000e+03 6.907286834716796875e+01 -4.578275680541992188e+00 8.118368387222290039e-01 7.329892158508300781e+00 2.442518711090087891e+00 2.530393004417419434e-01
2.783000000000000000e+03 5.305573654174804688e+01 -8.618311882019042969e+00 3.700631856918334961e+00 1.361657333374023438e+01 5.195161819458007812e+00 -1.705761075019836426e+00
2.784000000000000000e+03 5.303618621826171875e+01 -8.899748802185058594e+00 3.037207126617431641e+00 1.357487201690673828e+01 4.983623504638671875e+00 -1.524972438812255859e+00
2.785000000000000000e+03 4.990208816528320312e+01 -1.013588237762451172e+01 3.831156492233276367e-01 1.112483024597167969e+01 3.452383756637573242e+00 3.905499696731567383e+00
2.786000000000000000e+03 5.348432922363281250e+01 -7.292425632476806641e+00 6.405107498168945312e+00 1.245712757110595703e+01 5.658670425415039062e+00 -1.229142785072326660e+00
2.787000000000000000e+03 4.890593719482421875e+01 -2.781094551086425781e+00 1.293352842330932617e+00 7.911910533905029297e+00 2.761579036712646484e+00 -4.486083030700683594e+00
2.788000000000000000e+03 5.264388656616210938e+01 -8.864312171936035156e+00 2.869437694549560547e+00 1.427677345275878906e+01 5.143863201141357422e+00 -1.418993592262268066e+00
2.789000000000000000e+03 5.034001159667968750e+01 -2.552539110183715820e+00 2.731153070926666260e-01 1.201169776916503906e+01 3.685443878173828125e+00 -3.165319442749023438e+00
2.790000000000000000e+03 4.798642730712890625e+01 -1.028553771972656250e+01 1.431506633758544922e+00 5.282987117767333984e+00 2.014348268508911133e+00 4.130574703216552734e+00
2.791000000000000000e+03 4.903902816772460938e+01 -9.904079437255859375e+00 1.111208081245422363e+00 8.460253715515136719e+00 2.871438503265380859e+00 4.665966510772705078e+00
2.792000000000000000e+03 5.093541717529296875e+01 -2.635915517807006836e+00 2.339279502630233765e-01 1.320264911651611328e+01 4.030972957611083984e+00 -2.134788751602172852e+00
2.793000000000000000e+03 5.084494781494140625e+01 -9.788208961486816406e+00 2.064888626337051392e-01 1.370250320434570312e+01 4.172697544097900391e+00 2.293493032455444336e+00
2.794000000000000000e+03 5.025925827026367188e+01 -1.026751518249511719e+01 1.507561355829238892e-01 1.189929771423339844e+01 3.615015983581542969e+00 3.339540004730224609e+00
2.795000000000000000e+03 4.958802413940429688e+01 -9.595124244689941406e+00 8.707605600357055664e-01 1.066662025451660156e+01 3.461214303970336914e+00 4.659416198730468750e+00
2.796000000000000000e+03 5.368695831298828125e+01 -4.826713085174560547e+00 5.070868015289306641e+00 1.240597152709960938e+01 5.243051528930664062e+00 1.607533812522888184e+00
2.797000000000000000e+03 4.833983612060546875e+01 -2.726567983627319336e+00 1.605222582817077637e+00 6.192239761352539062e+00 2.339238643646240234e+00 -4.328407764434814453e+00
2.798000000000000000e+03 4.752363967895507812e+01 -1.031215572357177734e+01 1.463938593864440918e+00 4.484996318817138672e+00 1.784680366516113281e+00 3.725828886032104492e+00
2.799000000000000000e+03 4.686249160766601562e+01 -1.043266892433166504e+00 1.194287896156311035e+00 4.169013977050781250e+00 1.608990550041198730e+00 -3.121290445327758789e+00
2.800000000000000000e+03 4.635577011108398438e+01 -1.145022964477539062e+01 1.072671771049499512e+00 3.309599161148071289e+00 1.314681291580200195e+00 2.883353471755981445e+00
2.801000000000000000e+03 4.583261108398437500e+01 -6.223951578140258789e-01 1.144527554512023926e+00 3.136776924133300781e+00 1.284391283988952637e+00 -2.560557365417480469e+00
2.802000000000000000e+03 4.802021789550781250e+01 -2.980492115020751953e+00 1.888506770133972168e+00 5.150342941284179688e+00 2.111654996871948242e+00 -4.206376552581787109e+00
2.803000000000000000e+03 4.713146209716796875e+01 -1.134204387664794922e+01 1.098072886466979980e+00 4.308319091796875000e+00 1.621917605400085449e+00 3.357241153717041016e+00
2.804000000000000000e+03 4.526491165161132812e+01 -1.307687759399414062e+01 7.827817797660827637e-01 3.022499561309814453e+00 1.141584396362304688e+00 2.386534929275512695e+00
2.805000000000000000e+03 3.073970031738281250e+01 2.776977539062500000e+00 -6.351512670516967773e-02 2.047832757234573364e-01 4.238044098019599915e-02 4.079636633396148682e-01
2.806000000000000000e+03 2.814226913452148438e+01 5.749134063720703125e+00 -7.404360175132751465e-02 1.379604637622833252e-01 1.917505823075771332e-02 4.211319386959075928e-01
2.807000000000000000e+03 3.570948410034179688e+01 -1.741103744506835938e+01 2.551546692848205566e-01 7.496405839920043945e-01 3.014385700225830078e-01 3.075516223907470703e-01
2.808000000000000000e+03 3.537708282470703125e+01 -1.613906669616699219e+01 1.027596816420555115e-01 5.546889901161193848e-01 1.972346007823944092e-01 1.812305152416229248e-01
2.809000000000000000e+03 3.711474990844726562e+01 3.238363265991210938e+00 3.679025769233703613e-01 8.757679462432861328e-01 3.731011450290679932e-01 -2.939671576023101807e-01
2.810000000000000000e+03 3.726226425170898438e+01 2.488220691680908203e+00 3.312790691852569580e-01 7.658036947250366211e-01 3.291248381137847900e-01 -2.481675297021865845e-01
2.811000000000000000e+03 3.794535446166992188e+01 -1.608980941772460938e+01 2.992465794086456299e-01 9.671422839164733887e-01 3.799166679382324219e-01 5.793326497077941895e-01
2.812000000000000000e+03 3.656329727172851562e+01 2.449289560317993164e+00 2.638570368289947510e-01 6.661079525947570801e-01 2.789894938468933105e-01 -1.262938380241394043e-01
2.813000000000000000e+03 3.497338485717773438e+01 2.552490711212158203e+00 1.470813900232315063e-01 5.082547664642333984e-01 1.966008394956588745e-01 7.044988125562667847e-02
2.814000000000000000e+03 3.511505126953125000e+01 1.599794983863830566e+00 6.716854870319366455e-02 4.110828936100006104e-01 1.434754282236099243e-01 1.226758956909179688e-01
2.815000000000000000e+03 3.386132049560546875e+01 8.767615556716918945e-01 -9.704245626926422119e-02 2.663544118404388428e-01 5.079358816146850586e-02 2.808506488800048828e-01
2.816000000000000000e+03 3.302746582031250000e+01 1.716899991035461426e+00 -4.186601936817169189e-02 2.833497822284698486e-01 7.244512438774108887e-02 3.047502040863037109e-01
2.817000000000000000e+03 4.083331298828125000e+01 1.947663664817810059e+00 6.276562213897705078e-01 1.372893214225769043e+00 6.001648306846618652e-01 -9.382891058921813965e-01
2.818000000000000000e+03 4.436613082885742188e+01 6.364544630050659180e-01 9.236822128295898438e-01 2.499711036682128906e+00 1.027017951011657715e+00 -1.956286311149597168e+00
2.819000000000000000e+03 4.530566024780273438e+01 9.985160231590270996e-01 8.660053610801696777e-01 3.318580150604248047e+00 1.255375623703002930e+00 -2.299141168594360352e+00
2.820000000000000000e+03 3.960916900634765625e+01 1.173498272895812988e+00 4.460667967796325684e-01 9.153227806091308594e-01 4.084168672561645508e-01 -5.530822277069091797e-01
2.821000000000000000e+03 3.180673027038574219e+01 -1.699890327453613281e+01 4.716351162642240524e-03 3.793259859085083008e-01 1.152127087116241455e-01 -1.153111159801483154e-01
2.822000000000000000e+03 3.897878646850585938e+01 1.070209264755249023e+00 3.763214647769927979e-01 7.684197425842285156e-01 3.434223532676696777e-01 -4.107298552989959717e-01
2.823000000000000000e+03 4.435889816284179688e+01 -1.437164020538330078e+01 6.819102764129638672e-01 2.765611410140991211e+00 1.034256458282470703e+00 2.094838857650756836e+00
2.824000000000000000e+03 4.182793045043945312e+01 -1.432892894744873047e+01 5.049601793289184570e-01 1.543508887290954590e+00 6.145407557487487793e-01 1.285157442092895508e+00
2.825000000000000000e+03 4.385508728027343750e+01 1.339886546134948730e+00 8.424028754234313965e-01 2.449112653732299805e+00 9.874546527862548828e-01 -1.797732949256896973e+00
2.826000000000000000e+03 3.324087524414062500e+01 1.028674244880676270e+00 -1.035751029849052429e-01 2.437548637390136719e-01 4.205393046140670776e-02 3.171997964382171631e-01
2.827000000000000000e+03 4.349298858642578125e+01 -1.458982372283935547e+01 6.249941587448120117e-01 2.390528917312622070e+00 9.046568870544433594e-01 1.807232379913330078e+00
2.828000000000000000e+03 4.339891815185546875e+01 7.606539726257324219e-01 8.499510884284973145e-01 1.973241686820983887e+00 8.469578027725219727e-01 -1.589769005775451660e+00
2.829000000000000000e+03 4.248094940185546875e+01 9.913955926895141602e-01 7.698862552642822266e-01 1.648450970649719238e+00 7.255011796951293945e-01 -1.302876114845275879e+00
2.830000000000000000e+03 3.956978225708007812e+01 -1.628242301940917969e+01 4.305775165557861328e-01 1.302604913711547852e+00 5.199547410011291504e-01 8.944079875946044922e-01
2.831000000000000000e+03 3.849770355224609375e+01 -1.504328250885009766e+01 2.108232825994491577e-01 8.254564404487609863e-01 3.108839094638824463e-01 5.507315397262573242e-01
2.832000000000000000e+03 4.109404754638671875e+01 -1.476248455047607422e+01 4.636907279491424561e-01 1.424600362777709961e+00 5.664873123168945312e-01 1.127631187438964844e+00
2.833000000000000000e+03 4.024237060546875000e+01 -1.468423652648925781e+01 3.686955273151397705e-01 1.084110140800476074e+00 4.358417093753814697e-01 9.016614556312561035e-01
2.834000000000000000e+03 4.118822479248046875e+01 -1.580270195007324219e+01 5.130395889282226562e-01 1.660766124725341797e+00 6.521417498588562012e-01 1.216529250144958496e+00
2.835000000000000000e+03 4.162850570678710938e+01 -1.504081726074218750e+01 5.388705134391784668e-01 1.658206701278686523e+00 6.591231822967529297e-01 1.289261460304260254e+00
2.836000000000000000e+03 3.336503982543945312e+01 -1.486031627655029297e+01 -1.985600143671035767e-01 2.743199765682220459e-01 2.272798866033554077e-02 -1.061932817101478577e-01
2.837000000000000000e+03 6.912302398681640625e+01 -1.059572601318359375e+01 6.991074085235595703e-01 7.398155689239501953e+00 2.429178953170776367e+00 -5.099064111709594727e-01
2.838000000000000000e+03 2.569857978820800781e+01 1.446299552917480469e+01 -1.934522986412048340e-01 2.363670766353607178e-01 1.287443470209836960e-02 9.942807257175445557e-02
2.839000000000000000e+03 6.808151245117187500e+01 -1.765274047851562500e+01 1.083668842911720276e-01 7.787976741790771484e+00 2.368903160095214844e+00 -9.187881946563720703e-01
2.840000000000000000e+03 6.795524597167968750e+01 -1.893954277038574219e+01 5.987862241454422474e-04 7.830081939697265625e+00 2.349204301834106445e+00 -9.138954877853393555e-01
2.841000000000000000e+03 3.432391738891601562e+01 -1.645724678039550781e+01 7.493947446346282959e-02 4.971342384815216064e-01 1.716221123933792114e-01 8.492388576269149780e-02
2.842000000000000000e+03 3.340774917602539062e+01 2.779026508331298828e+00 6.300655007362365723e-02 4.065885543823242188e-01 1.408785283565521240e-01 2.173485904932022095e-01
2.843000000000000000e+03 6.833092498779296875e+01 -1.267330932617187500e+01 5.862288475036621094e-01 7.567851066589355469e+00 2.446223974227905273e+00 -7.302309870719909668e-01
2.844000000000000000e+03 2.624792480468750000e+01 1.060442733764648438e+01 -1.848894655704498291e-01 1.482800543308258057e-01 -1.098282542079687119e-02 2.717309594154357910e-01
2.845000000000000000e+03 2.600258064270019531e+01 9.532423019409179688e+00 -1.924938410520553589e-01 6.534624844789505005e-02 -3.814427927136421204e-02 3.465045392513275146e-01
2.846000000000000000e+03 2.863109397888183594e+01 4.842854022979736328e+00 -6.325087696313858032e-02 1.496812552213668823e-01 2.592911198735237122e-02 4.369627833366394043e-01
2.847000000000000000e+03 2.687834739685058594e+01 3.633787393569946289e+00 -1.415027379989624023e-01 -4.825299605727195740e-02 -5.692671984434127808e-02 5.312750339508056641e-01
2.848000000000000000e+03 2.646137046813964844e+01 1.177903556823730469e+01 -1.845568418502807617e-01 2.338260412216186523e-01 1.478076260536909103e-02 1.993274092674255371e-01
2.849000000000000000e+03 2.601934432983398438e+01 1.559122180938720703e+01 -1.457621455192565918e-01 3.313415646553039551e-01 5.567383021116256714e-02 3.815316036343574524e-02
2.850000000000000000e+03 6.895375061035156250e+01 -5.557621479034423828e+00 8.574556708335876465e-01 7.333575248718261719e+00 2.457309246063232422e+00 1.255569159984588623e-01
2.851000000000000000e+03 6.899860382080078125e+01 -3.560314893722534180e+00 7.897366285324096680e-01 7.367993354797363281e+00 2.447319030761718750e+00 3.928921818733215332e-01
2.852000000000000000e+03 6.728283691406250000e+01 1.029365348815917969e+01 -2.307241857051849365e-01 7.920317173004150391e+00 2.306877851486206055e+00 8.657564520835876465e-01
2.853000000000000000e+03 6.841564178466796875e+01 1.011593055725097656e+01 -1.854361146688461304e-01 7.880735397338867188e+00 2.308589696884155273e+00 8.777046799659729004e-01
2.854000000000000000e+03 6.560100555419921875e+01 1.265248203277587891e+01 -3.785803616046905518e-01 7.933847904205322266e+00 2.266580343246459961e+00 7.411438226699829102e-01
2.855000000000000000e+03 3.029434967041015625e+01 -1.530779075622558594e+01 -2.882378399372100830e-01 2.055956572294235229e-01 -2.479265071451663971e-02 -3.073771893978118896e-01
2.856000000000000000e+03 2.951950073242187500e+01 -1.566947364807128906e+01 -2.737060487270355225e-01 1.886729598045349121e-01 -2.550992555916309357e-02 -3.388072848320007324e-01
2.857000000000000000e+03 1.318474006652832031e+01 -2.860839271545410156e+01 1.903136670589447021e-01 -4.003280401229858398e-01 -6.300430744886398315e-02 -3.365794718265533447e-01
2.858000000000000000e+03 2.208471298217773438e+01 -2.158016395568847656e+01 -3.705631569027900696e-02 3.565692156553268433e-02 -4.198177484795451164e-04 -3.442749083042144775e-01
2.859000000000000000e+03 2.302396202087402344e+01 -1.865955924987792969e+01 -2.040654867887496948e-01 8.965538442134857178e-02 -3.432303294539451599e-02 -4.174869060516357422e-01
2.860000000000000000e+03 6.743327331542968750e+01 -3.678284883499145508e-01 6.839079856872558594e-01 7.669734001159667969e+00 2.506092548370361328e+00 7.906534671783447266e-01
2.861000000000000000e+03 2.663383865356445312e+01 -1.757179832458496094e+01 -1.937227547168731689e-01 1.920579969882965088e-01 -4.994292976334691048e-04 -3.800719380378723145e-01
2.862000000000000000e+03 6.985182952880859375e+01 -1.409420776367187500e+01 3.537478148937225342e-01 7.463040828704833984e+00 2.345036745071411133e+00 -7.529429793357849121e-01
2.863000000000000000e+03 6.758251953125000000e+01 -1.615171241760253906e+01 2.492577135562896729e-01 7.794571876525878906e+00 2.413148880004882812e+00 -9.202624559402465820e-01
2.864000000000000000e+03 2.571141433715820312e+01 1.736014366149902344e+01 -1.267402321100234985e-01 3.624173998832702637e-01 7.070315629243850708e-02 -3.580577671527862549e-02
2.865000000000000000e+03 6.810116577148437500e+01 2.235446929931640625e+01 -2.707336544990539551e-01 7.824269294738769531e+00 2.266060829162597656e+00 4.121682643890380859e-01
2.866000000000000000e+03 6.993164062500000000e+01 2.239327239990234375e+01 -2.194049656391143799e-01 7.952233314514160156e+00 2.319848537445068359e+00 4.188204705715179443e-01
2.867000000000000000e+03 6.980561828613281250e+01 -6.684570789337158203e+00 7.422842979431152344e-01 7.236929893493652344e+00 2.393764257431030273e+00 -2.192510850727558136e-02
2.868000000000000000e+03 2.440145683288574219e+01 2.290138626098632812e+01 8.058564364910125732e-02 3.721291124820709229e-01 1.358144283294677734e-01 -1.191201880574226379e-01
2.869000000000000000e+03 7.005380249023437500e+01 -9.703974723815917969e+00 6.233541369438171387e-01 7.263848304748535156e+00 2.366160869598388672e+00 -3.825820386409759521e-01
2.870000000000000000e+03 6.583717346191406250e+01 -2.318975830078125000e+01 -3.320066034793853760e-01 7.957332611083984375e+00 2.287597894668579102e+00 -7.637749314308166504e-01
2.871000000000000000e+03 6.486064147949218750e+01 -2.146308135986328125e+01 -2.843576073646545410e-01 8.052764892578125000e+00 2.330522060394287109e+00 -8.155757188796997070e-01
2.872000000000000000e+03 1.726163864135742188e+01 2.845518493652343750e+01 2.714554965496063232e-01 -2.650728523731231689e-01 1.914794906042516232e-03 1.541561782360076904e-01
2.873000000000000000e+03 1.859015655517578125e+01 2.675801277160644531e+01 2.347641587257385254e-01 -2.201422452926635742e-01 4.386571701616048813e-03 9.624917060136795044e-02
2.874000000000000000e+03 2.257031059265136719e+01 -1.694256782531738281e+01 -3.674359917640686035e-01 5.286370962858200073e-02 -9.437168389558792114e-02 -4.711509644985198975e-01
2.875000000000000000e+03 5.186594390869140625e+01 -3.062489986419677734e+00 9.109227657318115234e-01 1.428198909759521484e+01 4.557873249053955078e+00 -2.750581800937652588e-01
2.876000000000000000e+03 5.315634155273437500e+01 -8.326875686645507812e+00 4.285215854644775391e+00 1.347302150726318359e+01 5.327471256256103516e+00 -1.805033564567565918e+00
2.877000000000000000e+03 5.450175094604492188e+01 -7.266631126403808594e+00 5.453484535217285156e+00 1.114734554290771484e+01 4.980249404907226562e+00 -8.687717318534851074e-01
2.878000000000000000e+03 5.268502044677734375e+01 -9.631598472595214844e+00 1.617552757263183594e+00 1.376022148132324219e+01 4.613332271575927734e+00 -8.278623223304748535e-01
2.879000000000000000e+03 5.363796615600585938e+01 -6.360835552215576172e+00 6.832627773284912109e+00 1.194626712799072266e+01 5.633668422698974609e+00 4.735279455780982971e-02
2.880000000000000000e+03 4.947538375854492188e+01 -1.038728046417236328e+01 5.387184023857116699e-01 9.612940788269042969e+00 3.045497894287109375e+00 4.135221481323242188e+00
2.881000000000000000e+03 4.777879333496093750e+01 -1.054204654693603516e+01 1.366469025611877441e+00 5.187414169311523438e+00 1.966164946556091309e+00 3.886090278625488281e+00
2.882000000000000000e+03 5.076913070678710938e+01 -1.005412578582763672e+01 1.074728742241859436e-01 1.309645080566406250e+01 3.961177110671997070e+00 2.500103950500488281e+00
2.883000000000000000e+03 4.862331008911132812e+01 -9.876235008239746094e+00 1.405635237693786621e+00 6.887907028198242188e+00 2.488062620162963867e+00 4.603903770446777344e+00
2.884000000000000000e+03 4.828408050537109375e+01 -1.029521369934082031e+01 1.280731558799743652e+00 6.108078479766845703e+00 2.216643095016479492e+00 4.156248569488525391e+00
2.885000000000000000e+03 4.867857742309570312e+01 -2.432692766189575195e+00 1.248600244522094727e+00 7.301362037658691406e+00 2.564988851547241211e+00 -4.317631721496582031e+00
2.886000000000000000e+03 4.923042297363281250e+01 -2.565617322921752930e+00 9.628793001174926758e-01 8.940457344055175781e+00 2.971001148223876953e+00 -4.344521045684814453e+00
2.887000000000000000e+03 5.028580474853515625e+01 -1.062060642242431641e+01 4.085206985473632812e-02 1.141818714141845703e+01 3.437711954116821289e+00 3.185297727584838867e+00
2.888000000000000000e+03 4.864582061767578125e+01 -1.034577465057373047e+01 1.098622083663940430e+00 7.217269897460937500e+00 2.494767665863037109e+00 4.358768463134765625e+00
2.889000000000000000e+03 5.434267425537109375e+01 -4.961332321166992188e+00 4.995378494262695312e+00 1.149111652374267578e+01 4.945948600769042969e+00 1.295092225074768066e+00
2.890000000000000000e+03 5.115777206420898438e+01 -1.020532131195068359e+01 9.224335849285125732e-02 1.333414745330810547e+01 4.027917385101318359e+00 1.768210649490356445e+00
2.891000000000000000e+03 4.755366897583007812e+01 -1.387170791625976562e+00 1.213354587554931641e+00 5.126602172851562500e+00 1.901986956596374512e+00 -3.558630943298339844e+00
2.892000000000000000e+03 4.719026565551757812e+01 -1.254008293151855469e+00 1.232559919357299805e+00 4.579871177673339844e+00 1.743729352951049805e+00 -3.346579074859619141e+00
2.893000000000000000e+03 4.624451828002929688e+01 -4.517006278038024902e-01 1.113975524902343750e+00 3.650142192840576172e+00 1.429235219955444336e+00 -2.784044981002807617e+00
2.894000000000000000e+03 4.682841491699218750e+01 -4.041742980480194092e-01 1.010409116744995117e+00 4.418159484863281250e+00 1.628570556640625000e+00 -3.014136314392089844e+00
2.895000000000000000e+03 4.531912612915039062e+01 -6.629694253206253052e-02 1.035128235816955566e+00 2.964096546173095703e+00 1.199767351150512695e+00 -2.341633081436157227e+00
2.896000000000000000e+03 4.595124435424804688e+01 -1.187795162200927734e+01 9.692650437355041504e-01 3.066885232925415039e+00 1.210845112800598145e+00 2.673537254333496094e+00
2.897000000000000000e+03 4.575516128540039062e+01 -7.454099506139755249e-02 1.020810842514038086e+00 3.346086502075195312e+00 1.310069203376770020e+00 -2.512377738952636719e+00
2.898000000000000000e+03 4.486229324340820312e+01 1.117033123970031738e+00 8.750136494636535645e-01 3.041347026824951172e+00 1.174908161163330078e+00 -2.148071050643920898e+00
2.899000000000000000e+03 4.582608032226562500e+01 -1.275775909423828125e+01 8.326294422149658203e-01 3.402127981185913086e+00 1.270427227020263672e+00 2.635112047195434570e+00
2.900000000000000000e+03 2.955798912048339844e+01 5.284292221069335938e+00 -1.847958192229270935e-02 2.572322189807891846e-01 7.162579149007797241e-02 3.738270998001098633e-01
2.901000000000000000e+03 2.875067520141601562e+01 2.776136636734008789e+00 -1.227641776204109192e-01 7.324076443910598755e-02 -1.485702209174633026e-02 4.975374639034271240e-01
2.902000000000000000e+03 4.490332794189453125e+01 -1.393029689788818359e+01 7.059868574142456055e-01 3.012282848358154297e+00 1.115480899810791016e+00 2.251114845275878906e+00
2.903000000000000000e+03 4.383121490478515625e+01 -1.395121765136718750e+01 6.633744835853576660e-01 2.317664623260498047e+00 8.943117260932922363e-01 1.894231796264648438e+00
2.904000000000000000e+03 3.580885696411132812e+01 2.489831686019897461e+00 2.109771221876144409e-01 5.760194063186645508e-01 2.360989600419998169e-01 -3.123243153095245361e-02
2.905000000000000000e+03 3.379430770874023438e+01 2.058125734329223633e+00 3.309033811092376709e-02 3.647360503673553467e-01 1.193479150533676147e-01 2.207848727703094482e-01
2.906000000000000000e+03 3.793271636962890625e+01 2.602094173431396484e+00 3.978340029716491699e-01 8.809050321578979492e-01 3.836217224597930908e-01 -3.679506778717041016e-01
2.907000000000000000e+03 3.742715454101562500e+01 4.315269470214843750e+00 4.204299449920654297e-01 1.067379474639892578e+00 4.463428258895874023e-01 -4.072565734386444092e-01
2.908000000000000000e+03 3.582483673095703125e+01 3.380784511566162109e+00 2.656911611557006836e-01 6.894049644470214844e-01 2.865288257598876953e-01 -9.672614187002182007e-02
2.909000000000000000e+03 3.878394699096679688e+01 1.894693374633789062e+00 4.228600263595581055e-01 8.994599580764770508e-01 3.966960012912750244e-01 -4.588713943958282471e-01
2.910000000000000000e+03 4.144667816162109375e+01 1.589779853820800781e+00 6.794553399085998535e-01 1.482839465141296387e+00 6.486884355545043945e-01 -1.049806833267211914e+00
2.911000000000000000e+03 2.772994804382324219e+01 4.267420291900634766e+00 -1.065744310617446899e-01 4.392544180154800415e-02 -1.879469677805900574e-02 4.935075640678405762e-01
2.912000000000000000e+03 4.569828033447265625e+01 1.014461994171142578e+00 8.335598111152648926e-01 3.707109928131103516e+00 1.362200856208801270e+00 -2.427719831466674805e+00
2.913000000000000000e+03 4.441619110107421875e+01 1.862109899520874023e+00 7.984721064567565918e-01 2.971274852752685547e+00 1.130924105644226074e+00 -1.986381411552429199e+00
2.914000000000000000e+03 3.931431198120117188e+01 2.833007574081420898e+00 5.164775848388671875e-01 1.183141946792602539e+00 5.098858475685119629e-01 -6.403434276580810547e-01
2.915000000000000000e+03 4.042943572998046875e+01 6.371471881866455078e-01 4.822140336036682129e-01 9.189887046813964844e-01 4.203608334064483643e-01 -6.634909510612487793e-01
2.916000000000000000e+03 3.437265014648437500e+01 -1.768820190429687500e+01 1.956159621477127075e-01 6.391025185585021973e-01 2.504155337810516357e-01 1.620186120271682739e-01
2.917000000000000000e+03 3.991806411743164062e+01 -1.532331562042236328e+01 4.116167426109313965e-01 1.192359924316406250e+00 4.811930060386657715e-01 9.028022289276123047e-01
2.918000000000000000e+03 4.234069442749023438e+01 -1.521007442474365234e+01 5.683790445327758789e-01 1.991599678993225098e+00 7.679936289787292480e-01 1.497287869453430176e+00
2.919000000000000000e+03 4.436019515991210938e+01 -1.530383777618408203e+01 5.753971338272094727e-01 3.003087282180786133e+00 1.073545336723327637e+00 2.061122179031372070e+00
2.920000000000000000e+03 4.260861587524414062e+01 2.038746833801269531e+00 7.526474595069885254e-01 2.053571224212646484e+00 8.418655991554260254e-01 -1.415069460868835449e+00
2.921000000000000000e+03 6.826171875000000000e+01 -8.469059944152832031e+00 8.961574435234069824e-01 7.422263145446777344e+00 2.495526075363159180e+00 -2.790292501449584961e-01
2.922000000000000000e+03 6.924843597412109375e+01 -8.637708663940429688e+00 7.672400474548339844e-01 7.323742866516113281e+00 2.427294969558715820e+00 -2.822057604789733887e-01
2.923000000000000000e+03 4.247594451904296875e+01 -1.852875900268554688e+01 4.572178423404693604e-01 2.782496452331542969e+00 9.719142913818359375e-01 1.506694316864013672e+00
2.924000000000000000e+03 2.745605278015136719e+01 2.948279380798339844e+00 -1.426833122968673706e-01 -1.454998459666967392e-02 -4.716999083757400513e-02 5.324788689613342285e-01
2.925000000000000000e+03 2.920577049255371094e+01 2.077697992324829102e+00 -1.489306092262268066e-01 7.798983901739120483e-02 -2.128223329782485962e-02 4.980679750442504883e-01
2.926000000000000000e+03 4.281149291992187500e+01 1.347954511642456055e+00 7.797159552574157715e-01 1.904618501663208008e+00 8.053003549575805664e-01 -1.433065652847290039e+00
2.927000000000000000e+03 3.267283248901367188e+01 2.531882762908935547e+00 1.710892841219902039e-02 3.303358852863311768e-01 1.042334437370300293e-01 2.859576344490051270e-01
2.928000000000000000e+03 2.912306594848632812e+01 1.146164798736572266e+01 -3.157603740692138672e-02 5.955165028572082520e-01 1.691821515560150146e-01 7.415462285280227661e-02
2.929000000000000000e+03 2.419527435302734375e+01 -1.656668472290039062e+01 -3.514590561389923096e-01 1.026115044951438904e-01 -7.465426623821258545e-02 -4.680564105510711670e-01
2.930000000000000000e+03 6.736150360107421875e+01 -1.617084980010986328e+00 8.428993821144104004e-01 7.620903015136718750e+00 2.539140701293945312e+00 6.860119104385375977e-01
2.931000000000000000e+03 6.802172851562500000e+01 -9.499650001525878906e+00 8.769630789756774902e-01 7.472137451171875000e+00 2.504730224609375000e+00 -4.231324791908264160e-01
2.932000000000000000e+03 2.890076828002929688e+01 -1.714583015441894531e+01 -1.338477283716201782e-01 2.543063759803771973e-01 3.613759577274322510e-02 -3.009462356567382812e-01
2.933000000000000000e+03 2.826882934570312500e+01 -1.628228378295898438e+01 -2.398937195539474487e-01 1.925507485866546631e-01 -1.420289091765880585e-02 -3.701901137828826904e-01
2.934000000000000000e+03 3.096131896972656250e+01 -1.819257164001464844e+01 7.275438308715820312e-02 4.205723404884338379e-01 1.479980200529098511e-01 -1.169435009360313416e-01
2.935000000000000000e+03 6.779499816894531250e+01 -2.032267761230468750e+01 -1.012503132224082947e-01 7.861929416656494141e+00 2.328203678131103516e+00 -8.882482051849365234e-01
2.936000000000000000e+03 3.329939270019531250e+01 -1.641787147521972656e+01 2.058079279959201813e-02 4.139930009841918945e-01 1.303721368312835693e-01 -1.517682336270809174e-02
2.937000000000000000e+03 3.300775909423828125e+01 -1.757143020629882812e+01 1.115159690380096436e-01 5.039701461791992188e-01 1.846458315849304199e-01 1.678571105003356934e-02
2.938000000000000000e+03 2.672138595581054688e+01 2.347485303878784180e+00 -1.694134175777435303e-01 -7.871215045452117920e-02 -7.443767040967941284e-02 5.483888983726501465e-01
2.939000000000000000e+03 3.188414192199707031e+01 2.238966464996337891e+00 -4.911233484745025635e-02 2.433223277330398560e-01 5.826300010085105896e-02 3.657718598842620850e-01
2.940000000000000000e+03 2.344030952453613281e+01 -2.141968917846679688e+01 -3.230730944778770208e-04 1.484749168157577515e-01 4.444555565714836121e-02 -3.274692296981811523e-01
2.941000000000000000e+03 2.654324150085449219e+01 -1.875933647155761719e+01 -7.743246108293533325e-02 2.325004190206527710e-01 4.652038589119911194e-02 -3.369187712669372559e-01
2.942000000000000000e+03 2.995940589904785156e+01 2.449291229248046875e+00 -1.059010475873947144e-01 1.382003277540206909e-01 9.689780883491039276e-03 4.573011398315429688e-01
2.943000000000000000e+03 3.115396308898925781e+01 3.914894342422485352e+00 5.848269443958997726e-03 3.070872426033020020e-01 9.388065338134765625e-02 3.313716650009155273e-01
2.944000000000000000e+03 2.661672401428222656e+01 1.647457122802734375e+01 -8.903209120035171509e-02 5.070650577545166016e-01 1.254099011421203613e-01 -4.310323670506477356e-02
2.945000000000000000e+03 3.694399642944335938e+01 -1.611878204345703125e+01 2.065587937831878662e-01 7.785854339599609375e-01 2.955432534217834473e-01 3.848489820957183838e-01
2.946000000000000000e+03 6.806183624267578125e+01 -4.551695346832275391e+00 9.687352776527404785e-01 7.454639911651611328e+00 2.527012586593627930e+00 2.835518419742584229e-01
2.947000000000000000e+03 6.791101074218750000e+01 -5.442971229553222656e+00 9.921866059303283691e-01 7.448214530944824219e+00 2.532120227813720703e+00 1.548663377761840820e-01
2.948000000000000000e+03 6.913093566894531250e+01 2.015101909637451172e+00 3.569070100784301758e-01 7.585646152496337891e+00 2.382766008377075195e+00 8.641273379325866699e-01
2.949000000000000000e+03 6.831697845458984375e+01 -1.115725040435791016e+01 7.320333719253540039e-01 7.496640205383300781e+00 2.468601942062377930e+00 -5.901969075202941895e-01
2.950000000000000000e+03 6.896449279785156250e+01 -1.462935256958007812e+01 3.633347153663635254e-01 7.578489780426025391e+00 2.382547378540039062e+00 -8.237549662590026855e-01
2.951000000000000000e+03 6.787042999267578125e+01 -1.426357460021972656e+01 4.448055624961853027e-01 7.701199054718017578e+00 2.443801403045654297e+00 -8.550881147384643555e-01
2.952000000000000000e+03 2.712978935241699219e+01 1.547371578216552734e+01 -9.626702219247817993e-02 5.393126606941223145e-01 1.329136937856674194e-01 -2.485318481922149658e-02
2.953000000000000000e+03 2.690250587463378906e+01 -1.656563949584960938e+01 -2.680966556072235107e-01 1.555250287055969238e-01 -3.377149254083633423e-02 -4.096232950687408447e-01
2.954000000000000000e+03 6.669146728515625000e+01 1.209890365600585938e+01 -3.070853054523468018e-01 7.919676780700683594e+00 2.283777475357055664e+00 7.959709763526916504e-01
2.955000000000000000e+03 6.622703552246093750e+01 1.086672306060791016e+01 -2.870418429374694824e-01 7.951756954193115234e+00 2.299414634704589844e+00 8.362217545509338379e-01
2.956000000000000000e+03 6.612140655517578125e+01 1.404591178894042969e+01 -3.732349872589111328e-01 7.882334232330322266e+00 2.252729892730712891e+00 6.972053647041320801e-01
2.957000000000000000e+03 2.920796966552734375e+01 6.261600017547607422e+00 -2.851681970059871674e-02 2.780947387218475342e-01 7.487338036298751831e-02 3.484091758728027344e-01
2.958000000000000000e+03 2.905814170837402344e+01 7.340439796447753906e+00 -3.682583943009376526e-02 3.200204670429229736e-01 8.495838940143585205e-02 3.060017526149749756e-01
2.959000000000000000e+03 6.714757537841796875e+01 8.800937652587890625e+00 -1.704229712486267090e-01 7.934943675994873047e+00 2.329356193542480469e+00 9.177894592285156250e-01
2.960000000000000000e+03 3.195987892150878906e+01 4.269400596618652344e+00 5.945488810539245605e-02 3.925675153732299805e-01 1.356067210435867310e-01 2.577344477176666260e-01
2.961000000000000000e+03 6.397457885742187500e+01 1.655593109130859375e+01 -4.663255810737609863e-01 7.743479728698730469e+00 2.183146238327026367e+00 5.106275081634521484e-01
2.962000000000000000e+03 6.531479644775390625e+01 1.614618301391601562e+01 -4.192914068698883057e-01 7.795419216156005859e+00 2.212838411331176758e+00 5.783574581146240234e-01
2.963000000000000000e+03 6.904405975341796875e+01 -9.657718658447265625e+00 7.545976638793945312e-01 7.375110149383544922e+00 2.438912391662597656e+00 -4.153269827365875244e-01
2.964000000000000000e+03 2.776450920104980469e+01 1.158001613616943359e+01 -1.171491667628288269e-01 4.108447730541229248e-01 8.810868114233016968e-02 1.474179029464721680e-01
2.965000000000000000e+03 6.758853912353515625e+01 -2.179755592346191406e+01 -1.950747966766357422e-01 7.882642745971679688e+00 2.306270360946655273e+00 -8.428636789321899414e-01
2.966000000000000000e+03 6.619594573974609375e+01 -2.168735122680664062e+01 -2.429792582988739014e-01 7.970200061798095703e+00 2.318166255950927734e+00 -8.365310430526733398e-01
2.967000000000000000e+03 6.785665893554687500e+01 -1.348624897003173828e+01 5.317078828811645508e-01 7.662917137145996094e+00 2.458387613296508789e+00 -8.074870109558105469e-01
2.968000000000000000e+03 2.149466896057128906e+01 2.558472442626953125e+01 1.802447587251663208e-01 8.289697766304016113e-02 7.894251495599746704e-02 -1.298794802278280258e-02
2.969000000000000000e+03 1.890128326416015625e+01 3.018192481994628906e+01 3.138764500617980957e-01 -5.846961215138435364e-02 7.662204653024673462e-02 7.713793963193893433e-02
2.970000000000000000e+03 2.555896949768066406e+01 1.984155464172363281e+01 -3.817074000835418701e-02 4.459519088268280029e-01 1.223343461751937866e-01 -1.108121871948242188e-01
2.971000000000000000e+03 5.411064147949218750e+01 -4.610871791839599609e+00 4.596218585968017578e+00 1.187344360351562500e+01 4.940898895263671875e+00 1.527297258377075195e+00
2.972000000000000000e+03 5.217638778686523438e+01 -2.993061780929565430e+00 1.080583453178405762e+00 1.392262458801269531e+01 4.500962257385253906e+00 9.265296161174774170e-02
2.973000000000000000e+03 5.276145172119140625e+01 -3.438433408737182617e+00 2.202764034271240234e+00 1.376312160491943359e+01 4.789765834808349609e+00 1.094859838485717773e+00
2.974000000000000000e+03 5.264391326904296875e+01 -9.232080459594726562e+00 2.225085258483886719e+00 1.412285614013671875e+01 4.904382705688476562e+00 -1.164680600166320801e+00
2.975000000000000000e+03 4.985244369506835938e+01 -1.083586788177490234e+01 1.843637377023696899e-01 1.021651649475097656e+01 3.120264053344726562e+00 3.632011413574218750e+00
2.976000000000000000e+03 5.087849426269531250e+01 -1.095684337615966797e+01 -1.437337249517440796e-01 1.183297824859619141e+01 3.506773233413696289e+00 2.280875921249389648e+00
2.977000000000000000e+03 5.396015167236328125e+01 -6.942853450775146484e+00 6.225225925445556641e+00 1.162931346893310547e+01 5.356361865997314453e+00 -6.689752340316772461e-01
2.978000000000000000e+03 5.056675338745117188e+01 -1.025798034667968750e+01 5.721582472324371338e-02 1.251078701019287109e+01 3.770401000976562500e+00 2.806245088577270508e+00
2.979000000000000000e+03 5.367912673950195312e+01 -5.727419376373291016e+00 6.326234340667724609e+00 1.201265239715576172e+01 5.501666069030761719e+00 9.126183986663818359e-01
2.980000000000000000e+03 4.751031494140625000e+01 -1.092131423950195312e+01 1.197157979011535645e+00 4.736131668090820312e+00 1.779986977577209473e+00 3.649596452713012695e+00
2.981000000000000000e+03 5.079236221313476562e+01 -2.325295686721801758e+00 1.045761629939079285e-01 1.240359210968017578e+01 3.752450466156005859e+00 -2.436581850051879883e+00
2.982000000000000000e+03 4.807691955566406250e+01 -2.380120515823364258e+00 1.480242490768432617e+00 5.725262165069580078e+00 2.161651372909545898e+00 -4.037424564361572266e+00
2.983000000000000000e+03 5.360587692260742188e+01 -9.014752388000488281e+00 3.115797042846679688e+00 1.276235294342041016e+01 4.763444900512695312e+00 -1.554442524909973145e+00
2.984000000000000000e+03 4.757461166381835938e+01 -1.179353809356689453e+01 8.612130880355834961e-01 5.261056900024414062e+00 1.836681008338928223e+00 3.474212884902954102e+00
2.985000000000000000e+03 5.108106994628906250e+01 -1.062716197967529297e+01 -4.682211950421333313e-02 1.264224338531494141e+01 3.778626203536987305e+00 1.945615291595458984e+00
2.986000000000000000e+03 5.158403396606445312e+01 -1.019011783599853516e+01 2.592663466930389404e-01 1.352764606475830078e+01 4.136073589324951172e+00 1.065265417098999023e+00
2.987000000000000000e+03 4.676110458374023438e+01 -1.183829402923583984e+01 9.765089750289916992e-01 4.034266471862792969e+00 1.503232598304748535e+00 3.103249549865722656e+00
2.988000000000000000e+03 4.733090591430664062e+01 -9.189811944961547852e-01 1.073505878448486328e+00 4.975157737731933594e+00 1.814599156379699707e+00 -3.337526082992553711e+00
2.989000000000000000e+03 4.720261383056640625e+01 -1.406899243593215942e-01 8.756511807441711426e-01 5.003030776977539062e+00 1.763604521751403809e+00 -3.097243309020996094e+00
2.990000000000000000e+03 4.615010070800781250e+01 -3.926083073019981384e-02 1.013960957527160645e+00 3.717929124832153320e+00 1.419566988945007324e+00 -2.689731359481811523e+00
2.991000000000000000e+03 4.810826873779296875e+01 -1.060310459136962891e+01 1.213299751281738281e+00 5.887357711791992188e+00 2.130197286605834961e+00 4.035288810729980469e+00
2.992000000000000000e+03 4.922359848022460938e+01 -1.107203674316406250e+01 4.482231140136718750e-01 8.587574005126953125e+00 2.710739135742187500e+00 3.840212583541870117e+00
2.993000000000000000e+03 4.437006378173828125e+01 1.240482330322265625e+00 8.660085201263427734e-01 2.740557193756103516e+00 1.081969738006591797e+00 -1.974508643150329590e+00
2.994000000000000000e+03 4.605818557739257812e+01 -1.334714317321777344e+01 7.316560149192810059e-01 3.844265937805175781e+00 1.372776627540588379e+00 2.695039987564086914e+00
2.995000000000000000e+03 4.522724533081054688e+01 -1.448361396789550781e+01 6.168735027313232422e-01 3.461945533752441406e+00 1.223645687103271484e+00 2.324201583862304688e+00
2.996000000000000000e+03 4.470546340942382812e+01 -1.336639976501464844e+01 7.384725809097290039e-01 2.677650690078735352e+00 1.024837017059326172e+00 2.172302007675170898e+00
2.997000000000000000e+03 3.772579574584960938e+01 3.427389621734619141e+00 4.263151884078979492e-01 9.653480052947998047e-01 4.174989461898803711e-01 -3.948807418346405029e-01
2.998000000000000000e+03 3.410195159912109375e+01 3.713565826416015625e+00 1.784768551588058472e-01 5.576063990592956543e-01 2.208249866962432861e-01 8.445707708597183228e-02
2.999000000000000000e+03 4.309317779541015625e+01 -1.643653678894042969e+01 5.387439131736755371e-01 2.630594015121459961e+00 9.508013725280761719e-01 1.698743104934692383e+00
3.000000000000000000e+03 3.944876098632812500e+01 1.992509484291076660e+00 4.968872368335723877e-01 1.045027256011962891e+00 4.625743627548217773e-01 -5.941662192344665527e-01
3.001000000000000000e+03 3.676469039916992188e+01 3.881028890609741211e+00 3.659703433513641357e-01 9.153752326965332031e-01 3.844036757946014404e-01 -2.807320356369018555e-01
3.002000000000000000e+03 2.954154777526855469e+01 3.210387945175170898e+00 -8.410908281803131104e-02 1.463449597358703613e-01 1.867076195776462555e-02 4.532491266727447510e-01
3.003000000000000000e+03 4.012722778320312500e+01 2.039129495620727539e+00 5.627883076667785645e-01 1.213110923767089844e+00 5.327697992324829102e-01 -7.571245431900024414e-01
3.004000000000000000e+03 4.197796249389648438e+01 1.247055530548095703e+00 7.399527430534362793e-01 1.561953544616699219e+00 6.905719041824340820e-01 -1.193732500076293945e+00
3.005000000000000000e+03 3.988996124267578125e+01 3.555505871772766113e-01 3.885625302791595459e-01 7.637413144111633301e-01 3.456911742687225342e-01 -5.155135393142700195e-01
3.006000000000000000e+03 4.192433929443359375e+01 1.967431902885437012e+00 7.156383991241455078e-01 1.735765933990478516e+00 7.354212999343872070e-01 -1.215222001075744629e+00
3.007000000000000000e+03 3.501068878173828125e+01 3.535044193267822266e+00 2.263906002044677734e-01 6.410964727401733398e-01 2.602461278438568115e-01 -1.077872980386018753e-02
3.008000000000000000e+03 3.414107513427734375e+01 2.736695766448974609e+00 1.060838401317596436e-01 4.471473395824432373e-01 1.659693568944931030e-01 1.483406424522399902e-01
3.009000000000000000e+03 3.860626602172851562e+01 2.723913192749023438e+00 4.605038762092590332e-01 1.015863060951232910e+00 4.429100751876831055e-01 -4.920847713947296143e-01
3.010000000000000000e+03 4.385068511962890625e+01 2.005730628967285156e+00 7.926697731018066406e-01 2.678160905838012695e+00 1.041249275207519531e+00 -1.811307668685913086e+00
3.011000000000000000e+03 4.212278366088867188e+01 -1.614309692382812500e+01 5.392869114875793457e-01 2.139848232269287109e+00 8.037405014038085938e-01 1.459015130996704102e+00
3.012000000000000000e+03 3.509848785400390625e+01 4.499592304229736328e+00 2.659020423889160156e-01 7.805399894714355469e-01 3.139325976371765137e-01 -8.707436174154281616e-02
3.013000000000000000e+03 4.287042617797851562e+01 -1.751480865478515625e+01 4.846020936965942383e-01 2.751328468322753906e+00 9.707791805267333984e-01 1.606312036514282227e+00
3.014000000000000000e+03 4.390491485595703125e+01 2.740474939346313477e+00 7.184126973152160645e-01 2.908773899078369141e+00 1.088155984878540039e+00 -1.813112139701843262e+00
3.015000000000000000e+03 4.325408554077148438e+01 2.074210643768310547e+00 7.781279683113098145e-01 2.381587028503417969e+00 9.479145407676696777e-01 -1.627273678779602051e+00
3.016000000000000000e+03 3.153579711914062500e+01 3.090955257415771484e+00 -6.959055550396442413e-03 2.764811813831329346e-01 8.085663616657257080e-02 3.438680171966552734e-01
3.017000000000000000e+03 2.971486473083496094e+01 -1.929304695129394531e+01 8.998376131057739258e-02 4.405515789985656738e-01 1.591605991125106812e-01 -1.490702629089355469e-01
3.018000000000000000e+03 6.705429077148437500e+01 -9.207078933715820312e+00 1.030885696411132812e+00 7.574283599853515625e+00 2.581550836563110352e+00 -4.166216254234313965e-01
3.019000000000000000e+03 3.439579391479492188e+01 -1.923155403137207031e+01 3.160239756107330322e-01 8.356937170028686523e-01 3.455153107643127441e-01 2.549299299716949463e-01
3.020000000000000000e+03 3.611076354980468750e+01 -1.885459136962890625e+01 3.742708265781402588e-01 1.039946198463439941e+00 4.242651164531707764e-01 4.488019645214080811e-01
3.021000000000000000e+03 6.757857513427734375e+01 -1.046523952484130859e+01 8.694186210632324219e-01 7.551809310913085938e+00 2.526368379592895508e+00 -5.529805421829223633e-01
3.022000000000000000e+03 6.541813659667968750e+01 -1.487839031219482422e+01 4.675033688545227051e-01 8.012322425842285156e+00 2.543947696685791016e+00 -9.708636999130249023e-01
3.023000000000000000e+03 6.536676025390625000e+01 -1.890904045104980469e+01 -4.827514290809631348e-02 8.067661285400390625e+00 2.405816078186035156e+00 -9.356955289840698242e-01
3.024000000000000000e+03 2.942594528198242188e+01 8.389493942260742188e+00 5.464218556880950928e-03 4.458972811698913574e-01 1.354084461927413940e-01 2.159145325422286987e-01
3.025000000000000000e+03 6.664085388183593750e+01 -1.893654823303222656e+01 -2.045354619622230530e-02 7.946951866149902344e+00 2.377949476242065430e+00 -9.299650788307189941e-01
3.026000000000000000e+03 2.791782760620117188e+01 1.277363777160644531e+01 -1.028669700026512146e-01 4.719779193401336670e-01 1.107332780957221985e-01 8.620209246873855591e-02
3.027000000000000000e+03 6.761477661132812500e+01 9.768621325492858887e-01 5.346633791923522949e-01 7.706926822662353516e+00 2.472477197647094727e+00 8.749333620071411133e-01
3.028000000000000000e+03 6.709027862548828125e+01 -1.445619010925292969e+01 4.494307935237884521e-01 7.787318229675292969e+00 2.471024751663208008e+00 -8.872663378715515137e-01
3.029000000000000000e+03 6.811671447753906250e+01 -1.500149440765380859e+01 3.567361533641815186e-01 7.691867828369140625e+00 2.414581298828125000e+00 -8.724231719970703125e-01
3.030000000000000000e+03 3.027485275268554688e+01 6.522987842559814453e+00 3.730759397149085999e-02 4.315353631973266602e-01 1.406528949737548828e-01 2.559625804424285889e-01
3.031000000000000000e+03 2.670275497436523438e+01 1.299794673919677734e+01 -1.520045995712280273e-01 3.345621228218078613e-01 5.476725473999977112e-02 1.290523558855056763e-01
3.032000000000000000e+03 6.673971557617187500e+01 -1.767731666564941406e+01 1.003246083855628967e-01 7.920614242553710938e+00 2.406281709671020508e+00 -9.475358724594116211e-01
3.033000000000000000e+03 6.646625518798828125e+01 -2.027413368225097656e+01 -1.368487775325775146e-01 7.965047836303710938e+00 2.348459720611572266e+00 -8.939826488494873047e-01
3.034000000000000000e+03 6.618778991699218750e+01 -1.563094973564147949e+00 9.318270087242126465e-01 7.752070426940917969e+00 2.605169296264648438e+00 7.400227785110473633e-01
3.035000000000000000e+03 6.809494781494140625e+01 -3.698219776153564453e+00 9.377803206443786621e-01 7.457211494445800781e+00 2.518497467041015625e+00 4.010135829448699951e-01
3.036000000000000000e+03 4.065154266357421875e+01 -1.672799491882324219e+01 4.998235404491424561e-01 1.709481716156005859e+00 6.627916097640991211e-01 1.144982218742370605e+00
3.037000000000000000e+03 4.174065780639648438e+01 -1.714316177368164062e+01 5.211269259452819824e-01 2.196279764175415039e+00 8.152219653129577637e-01 1.387454509735107422e+00
3.038000000000000000e+03 3.736286926269531250e+01 -1.805699157714843750e+01 3.998166322708129883e-01 1.183690547943115234e+00 4.750521481037139893e-01 5.950742363929748535e-01
3.039000000000000000e+03 3.980474090576171875e+01 -1.907578849792480469e+01 4.769214987754821777e-01 1.919625163078308105e+00 7.189639806747436523e-01 1.034008502960205078e+00
3.040000000000000000e+03 3.034641265869140625e+01 3.581177234649658203e+00 -3.679343685507774353e-02 2.227442562580108643e-01 5.578524246811866760e-02 3.974212706089019775e-01
3.041000000000000000e+03 3.255793380737304688e+01 -1.906186103820800781e+01 2.099942266941070557e-01 6.063736677169799805e-01 2.449103593826293945e-01 4.850741475820541382e-02
3.042000000000000000e+03 6.520348358154296875e+01 -2.015074157714843750e+01 -1.770722568035125732e-01 8.068196296691894531e+00 2.367337226867675781e+00 -8.831359148025512695e-01
3.043000000000000000e+03 6.386410522460937500e+01 -2.443783950805664062e+01 -4.688939452171325684e-01 7.972010612487792969e+00 2.250935077667236328e+00 -6.338694691658020020e-01
3.044000000000000000e+03 6.801802062988281250e+01 4.462397575378417969e+00 1.639884710311889648e-01 7.800423622131347656e+00 2.389323472976684570e+00 9.752210378646850586e-01
3.045000000000000000e+03 6.791870117187500000e+01 2.251512050628662109e+00 3.759267032146453857e-01 7.724086284637451172e+00 2.430003881454467773e+00 9.257556796073913574e-01
3.046000000000000000e+03 2.505856704711914062e+01 -2.005454635620117188e+01 -3.711137175559997559e-02 2.127200365066528320e-01 5.268259719014167786e-02 -3.346275985240936279e-01
3.047000000000000000e+03 2.831367111206054688e+01 1.386919212341308594e+01 -5.446679145097732544e-02 6.266586184501647949e-01 1.716575473546981812e-01 -1.904154941439628601e-02
3.048000000000000000e+03 2.927343940734863281e+01 1.500213432312011719e+01 -3.123035840690135956e-02 7.978061437606811523e-01 2.299727350473403931e-01 -1.033594533801078796e-01
3.049000000000000000e+03 6.663171386718750000e+01 -1.260927009582519531e+01 7.170990109443664551e-01 7.765024185180664062e+00 2.544636964797973633e+00 -8.064152598381042480e-01
3.050000000000000000e+03 6.901365661621093750e+01 5.919608116149902344e+00 4.879713058471679688e-02 7.750150203704833984e+00 2.339684247970581055e+00 9.429385066032409668e-01
3.051000000000000000e+03 6.716401672363281250e+01 -2.712110996246337891e+00 9.561277627944946289e-01 7.598549365997314453e+00 2.566403150558471680e+00 5.560638904571533203e-01
3.052000000000000000e+03 6.485881042480468750e+01 1.460209465026855469e+01 -4.300662577152252197e-01 7.856082439422607422e+00 2.227804899215698242e+00 6.277423501014709473e-01
3.053000000000000000e+03 6.404544067382812500e+01 1.161980342864990234e+01 -4.245640337467193604e-01 7.986018657684326172e+00 2.268436431884765625e+00 7.219721078872680664e-01
3.054000000000000000e+03 2.869539260864257812e+01 -1.819859313964843750e+01 -4.071583971381187439e-02 2.760137021541595459e-01 7.058935612440109253e-02 -2.744612991809844971e-01
3.055000000000000000e+03 6.437593078613281250e+01 8.684136390686035156e+00 -2.763638496398925781e-01 8.100604057312011719e+00 2.347272157669067383e+00 8.716881871223449707e-01
3.056000000000000000e+03 2.694047355651855469e+01 1.855887031555175781e+01 -4.745444655418395996e-02 6.090299487113952637e-01 1.684726476669311523e-01 -1.225207373499870300e-01
3.057000000000000000e+03 6.392847442626953125e+01 2.249974060058593750e+01 -4.083986580371856689e-01 7.457474708557128906e+00 2.114722728729248047e+00 3.119993805885314941e-01
3.058000000000000000e+03 6.027604293823242188e+01 1.899474143981933594e+01 -5.499207973480224609e-01 7.310358524322509766e+00 2.028131246566772461e+00 2.188294976949691772e-01
3.059000000000000000e+03 2.777838134765625000e+01 -1.874190902709960938e+01 -1.112903188914060593e-02 2.735786437988281250e-01 7.873488217592239380e-02 -2.904041409492492676e-01
3.060000000000000000e+03 2.670012283325195312e+01 2.194808006286621094e+01 6.422020494937896729e-02 7.010557055473327637e-01 2.295827716588973999e-01 -1.872647106647491455e-01
3.061000000000000000e+03 5.406061172485351562e+01 -8.251891136169433594e+00 4.520037651062011719e+00 1.204339313507080078e+01 4.969029426574707031e+00 -1.592344284057617188e+00
3.062000000000000000e+03 5.307904052734375000e+01 -9.617900848388671875e+00 1.973581314086914062e+00 1.325501823425292969e+01 4.568580150604248047e+00 -1.110800862312316895e+00
3.063000000000000000e+03 5.357236099243164062e+01 -6.652127265930175781e+00 6.950393199920654297e+00 1.207135581970214844e+01 5.706524372100830078e+00 -3.874388933181762695e-01
3.064000000000000000e+03 5.367709732055664062e+01 -8.103151321411132812e+00 4.801120758056640625e+00 1.244037723541259766e+01 5.172449588775634766e+00 -1.683690309524536133e+00
3.065000000000000000e+03 5.123686981201171875e+01 -2.517617940902709961e+00 2.317433506250381470e-01 1.322029304504394531e+01 4.035610675811767578e+00 -1.687238097190856934e+00
3.066000000000000000e+03 5.228992843627929688e+01 -9.650571823120117188e+00 1.225679516792297363e+00 1.412486743927001953e+01 4.605164051055908203e+00 -3.803657293319702148e-01
3.067000000000000000e+03 5.055924606323242188e+01 -1.982602953910827637e+00 7.929901778697967529e-02 1.155546569824218750e+01 3.490429401397705078e+00 -2.686681509017944336e+00
3.068000000000000000e+03 4.873641967773437500e+01 -1.082201862335205078e+01 8.134204745292663574e-01 7.467980384826660156e+00 2.484420299530029297e+00 4.094750881195068359e+00
3.069000000000000000e+03 4.943559265136718750e+01 -1.128994274139404297e+01 2.523307204246520996e-01 8.956056594848632812e+00 2.762516260147094727e+00 3.597962617874145508e+00
3.070000000000000000e+03 5.190323257446289062e+01 -9.690886497497558594e+00 8.850095868110656738e-01 1.433617401123046875e+01 4.566355228424072266e+00 1.688566058874130249e-01
3.071000000000000000e+03 4.904857635498046875e+01 -2.175752401351928711e+00 8.936581611633300781e-01 8.332720756530761719e+00 2.767913579940795898e+00 -4.118120193481445312e+00
3.072000000000000000e+03 4.832609176635742188e+01 -1.102266311645507812e+01 9.196583628654479980e-01 6.508737087249755859e+00 2.228518724441528320e+00 3.926606893539428711e+00
3.073000000000000000e+03 5.025801849365234375e+01 -2.209936618804931641e+00 2.013231813907623291e-01 1.139912033081054688e+01 3.480132818222045898e+00 -3.166551113128662109e+00
3.074000000000000000e+03 5.108253860473632812e+01 -2.148713111877441406e+00 6.706046313047409058e-02 1.244133853912353516e+01 3.752519607543945312e+00 -1.984503507614135742e+00
3.075000000000000000e+03 5.068125152587890625e+01 -1.060988330841064453e+01 -3.968568146228790283e-02 1.217285823822021484e+01 3.639951705932617188e+00 2.600276470184326172e+00
3.076000000000000000e+03 5.147859191894531250e+01 -1.088192844390869141e+01 -6.723354011774063110e-02 1.258126640319824219e+01 3.754209756851196289e+00 1.443100333213806152e+00
3.077000000000000000e+03 4.709812164306640625e+01 4.294242858886718750e-01 7.561215162277221680e-01 5.013681411743164062e+00 1.730940937995910645e+00 -2.933570861816406250e+00
3.078000000000000000e+03 4.634119033813476562e+01 -1.234061813354492188e+01 8.836721181869506836e-01 3.752678155899047852e+00 1.390905022621154785e+00 2.869181871414184570e+00
3.079000000000000000e+03 4.616185760498046875e+01 4.659205377101898193e-01 9.008777737617492676e-01 3.913572549819946289e+00 1.444335103034973145e+00 -2.650952816009521484e+00
3.080000000000000000e+03 4.792996597290039062e+01 -1.136839485168457031e+01 9.029646515846252441e-01 5.747246265411376953e+00 1.995063304901123047e+00 3.700363397598266602e+00
3.081000000000000000e+03 4.573423385620117188e+01 -1.418727874755859375e+01 6.194471716880798340e-01 3.784630537033081055e+00 1.321223378181457520e+00 2.519729137420654297e+00
3.082000000000000000e+03 4.549406814575195312e+01 -1.361997795104980469e+01 7.290936112403869629e-01 3.388758897781372070e+00 1.235355734825134277e+00 2.476377964019775391e+00
3.083000000000000000e+03 4.391988754272460938e+01 -1.494659423828125000e+01 6.273888945579528809e-01 2.646589756011962891e+00 9.821935892105102539e-01 1.950642704963684082e+00
3.084000000000000000e+03 4.543352127075195312e+01 1.428978800773620605e+00 8.079792261123657227e-01 3.611244201660156250e+00 1.325767040252685547e+00 -2.331834077835083008e+00
3.085000000000000000e+03 4.471091079711914062e+01 -1.576897335052490234e+01 5.048772096633911133e-01 3.414958477020263672e+00 1.175950646400451660e+00 2.120977878570556641e+00
3.086000000000000000e+03 4.514696884155273438e+01 -1.536709022521972656e+01 5.040412545204162598e-01 3.622039079666137695e+00 1.237824082374572754e+00 2.217668533325195312e+00
3.087000000000000000e+03 4.324499893188476562e+01 2.856229782104492188e+00 7.184527516365051270e-01 2.616291046142578125e+00 1.000423073768615723e+00 -1.634300589561462402e+00
3.088000000000000000e+03 4.007747268676757812e+01 2.906801462173461914e+00 5.779414176940917969e-01 1.399729132652282715e+00 5.933011770248413086e-01 -8.104602098464965820e-01
3.089000000000000000e+03 3.318811416625976562e+01 3.695559740066528320e+00 1.142113059759140015e-01 4.682045876979827881e-01 1.747247725725173950e-01 1.811568886041641235e-01
3.090000000000000000e+03 3.234766006469726562e+01 3.408355712890625000e+00 4.415859282016754150e-02 3.696227967739105225e-01 1.241344213485717773e-01 2.720504403114318848e-01
3.091000000000000000e+03 3.419565582275390625e+01 4.604733943939208984e+00 1.983257234096527100e-01 6.590793728828430176e-01 2.572215199470520020e-01 2.623456716537475586e-02
3.092000000000000000e+03 3.841709136962890625e+01 3.566435813903808594e+00 4.636688232421875000e-01 1.131181836128234863e+00 4.784552156925201416e-01 -5.110421776771545410e-01
3.093000000000000000e+03 4.494719314575195312e+01 1.668821930885314941e+00 7.999514937400817871e-01 3.303862094879150391e+00 1.231144070625305176e+00 -2.151365280151367188e+00
3.094000000000000000e+03 4.452540206909179688e+01 2.513376474380493164e+00 7.101052403450012207e-01 3.240275621414184570e+00 1.185114264488220215e+00 -1.982366681098937988e+00
3.095000000000000000e+03 2.999822807312011719e+01 9.603954315185546875e+00 2.117404714226722717e-02 5.856727361679077148e-01 1.820540279150009155e-01 1.226641237735748291e-01
3.096000000000000000e+03 6.680879211425781250e+01 -1.002373886108398438e+01 1.003712296485900879e+00 7.623830795288085938e+00 2.588262796401977539e+00 -5.258300304412841797e-01
3.097000000000000000e+03 6.571582794189453125e+01 5.610323548316955566e-01 6.698128581047058105e-01 7.904609203338623047e+00 2.572326660156250000e+00 9.241144061088562012e-01
3.098000000000000000e+03 6.565686798095703125e+01 -5.934526443481445312e+00 1.359782338142395020e+00 7.679573535919189453e+00 2.711806774139404297e+00 1.033636704087257385e-01
3.099000000000000000e+03 4.019891357421875000e+01 -1.784639167785644531e+01 4.893859922885894775e-01 1.805767655372619629e+00 6.885461211204528809e-01 1.084819078445434570e+00
3.100000000000000000e+03 3.902840805053710938e+01 -1.742021942138671875e+01 4.510910212993621826e-01 1.389634132385253906e+00 5.522175431251525879e-01 8.489269018173217773e-01
3.101000000000000000e+03 6.728611755371093750e+01 -1.531016063690185547e+01 3.504120707511901855e-01 7.805692195892333984e+00 2.446831226348876953e+00 -9.122530221939086914e-01
3.102000000000000000e+03 6.622895812988281250e+01 -8.122159957885742188e+00 1.223445534706115723e+00 7.637609481811523438e+00 2.658316612243652344e+00 -2.786208093166351318e-01
3.103000000000000000e+03 6.770013427734375000e+01 -6.363020420074462891e+00 1.034369111061096191e+00 7.458054542541503906e+00 2.547727108001708984e+00 2.361089177429676056e-02
3.104000000000000000e+03 4.135222244262695312e+01 -1.819515419006347656e+01 5.005139708518981934e-01 2.252692937850952148e+00 8.259621262550354004e-01 1.316885590553283691e+00
3.105000000000000000e+03 3.122159004211425781e+01 7.825211048126220703e+00 9.497529268264770508e-02 6.164458990097045898e-01 2.134263515472412109e-01 1.228369250893592834e-01
3.106000000000000000e+03 6.539122772216796875e+01 -1.769716453552246094e+01 7.956102490425109863e-02 8.064136505126953125e+00 2.443109273910522461e+00 -9.595541357994079590e-01
3.107000000000000000e+03 3.585664367675781250e+01 -2.133339881896972656e+01 4.274224638938903809e-01 1.268895149230957031e+00 5.088952779769897461e-01 4.861651957035064697e-01
3.108000000000000000e+03 3.428028869628906250e+01 -2.105849647521972656e+01 3.772620856761932373e-01 1.013812899589538574e+00 4.173224866390228271e-01 3.053914010524749756e-01
3.109000000000000000e+03 6.643212890625000000e+01 -7.139305591583251953e+00 1.234008908271789551e+00 7.595058441162109375e+00 2.648720264434814453e+00 -1.061320528388023376e-01
3.110000000000000000e+03 6.542891693115234375e+01 -6.956484317779541016e+00 1.421741843223571777e+00 7.709196567535400391e+00 2.739281415939331055e+00 -8.068750798702239990e-02
3.111000000000000000e+03 6.307020950317382812e+01 3.461323499679565430e+00 2.623541057109832764e-01 8.347117424011230469e+00 2.582841396331787109e+00 1.053549528121948242e+00
3.112000000000000000e+03 6.814682769775390625e+01 3.390509366989135742e+00 2.641256451606750488e-01 7.741719245910644531e+00 2.401753425598144531e+00 9.478409290313720703e-01
3.113000000000000000e+03 6.352307510375976562e+01 1.512751197814941406e+01 -4.851935207843780518e-01 7.787973880767822266e+00 2.190834045410156250e+00 5.429612398147583008e-01
3.114000000000000000e+03 6.396023941040039062e+01 1.008378696441650391e+01 -3.562029898166656494e-01 8.066753387451171875e+00 2.313165187835693359e+00 8.033068776130676270e-01
3.115000000000000000e+03 6.752681732177734375e+01 -1.197086811065673828e+01 7.270710468292236328e-01 7.631520748138427734e+00 2.507577419281005859e+00 -7.124161720275878906e-01
3.116000000000000000e+03 6.688148498535156250e+01 -1.122509574890136719e+01 8.681594729423522949e-01 7.675370216369628906e+00 2.563058853149414062e+00 -6.705279350280761719e-01
3.117000000000000000e+03 3.223646163940429688e+01 -2.317742729187011719e+01 3.699858784675598145e-01 9.653636217117309570e-01 4.006048440933227539e-01 1.837065070867538452e-01
3.118000000000000000e+03 2.908882331848144531e+01 1.287363719940185547e+01 -2.298939041793346405e-02 6.795027256011962891e-01 1.969540119171142578e-01 -5.891375243663787842e-03
3.119000000000000000e+03 4.217914581298828125e+01 -1.953169822692871094e+01 4.133422076702117920e-01 2.781581401824951172e+00 9.584770798683166504e-01 1.384046554565429688e+00
3.120000000000000000e+03 6.614775848388671875e+01 -4.326837062835693359e-01 8.045954108238220215e-01 7.812007904052734375e+00 2.584980964660644531e+00 8.450737595558166504e-01
3.121000000000000000e+03 2.994078445434570312e+01 4.403412342071533203e+00 -2.547563239932060242e-02 2.409805357456207275e-01 6.465147435665130615e-02 3.869945704936981201e-01
3.122000000000000000e+03 6.492855834960937500e+01 -2.670087051391601562e+01 -4.642061591148376465e-01 7.860892295837402344e+00 2.219005823135375977e+00 -5.755679011344909668e-01
3.123000000000000000e+03 6.533322906494140625e+01 7.734566688537597656e+00 -1.540262550115585327e-01 8.060674667358398438e+00 2.371994733810424805e+00 9.456822276115417480e-01
3.124000000000000000e+03 2.699944496154785156e+01 -2.218437004089355469e+01 1.652984470129013062e-01 3.918438255786895752e-01 1.671426892280578613e-01 -1.843273937702178955e-01
3.125000000000000000e+03 2.506967544555664062e+01 -2.187745475769042969e+01 8.308241516351699829e-02 2.590099871158599854e-01 1.026277244091033936e-01 -2.656874358654022217e-01
3.126000000000000000e+03 6.317732238769531250e+01 -1.941918945312500000e+01 -1.870875507593154907e-01 8.257415771484375000e+00 2.421098709106445312e+00 -8.648315668106079102e-01
3.127000000000000000e+03 6.078976058959960938e+01 1.654270362854003906e+01 -5.723319053649902344e-01 7.551591396331787109e+00 2.093777894973754883e+00 3.261569440364837646e-01
3.128000000000000000e+03 3.772817993164062500e+01 -2.114245223999023438e+01 4.490042328834533691e-01 1.715070843696594238e+00 6.492224931716918945e-01 7.273599505424499512e-01
3.129000000000000000e+03 3.793144989013671875e+01 -1.708568763732910156e+01 3.767025172710418701e-01 1.139107465744018555e+00 4.547429680824279785e-01 6.551751494407653809e-01
3.130000000000000000e+03 5.317976760864257812e+01 -3.363353490829467773e+00 2.385323286056518555e+00 1.319327259063720703e+01 4.673578739166259766e+00 1.281379342079162598e+00
3.131000000000000000e+03 5.248035812377929688e+01 -3.077061414718627930e+00 1.402389764785766602e+00 1.381348419189453125e+01 4.564762115478515625e+00 5.402989983558654785e-01
3.132000000000000000e+03 4.972596359252929688e+01 -2.215767383575439453e+00 4.848381876945495605e-01 1.019813919067382812e+01 3.204893112182617188e+00 -3.801735162734985352e+00
3.133000000000000000e+03 5.328378295898437500e+01 -3.715562820434570312e+00 2.933159351348876953e+00 1.315978336334228516e+01 4.827882766723632812e+00 1.480961799621582031e+00
3.134000000000000000e+03 5.275082015991210938e+01 -1.003715038299560547e+01 1.168819546699523926e+00 1.331088066101074219e+01 4.343910217285156250e+00 -5.436091423034667969e-01
3.135000000000000000e+03 5.004972839355468750e+01 -1.130859279632568359e+01 -3.845307976007461548e-02 1.016983795166015625e+01 3.039415359497070312e+00 3.174479246139526367e+00
3.136000000000000000e+03 5.444247055053710938e+01 -8.344743728637695312e+00 4.204270839691162109e+00 1.149014854431152344e+01 4.708325862884521484e+00 -1.440984487533569336e+00
3.137000000000000000e+03 5.335435104370117188e+01 -8.768621444702148438e+00 3.466023206710815430e+00 1.308408927917480469e+01 4.965034008026123047e+00 -1.626073837280273438e+00
3.138000000000000000e+03 5.188242340087890625e+01 -2.116257667541503906e+00 2.661270797252655029e-01 1.290243721008300781e+01 3.950569152832031250e+00 -7.903513312339782715e-01
3.139000000000000000e+03 5.197608184814453125e+01 -1.010747051239013672e+01 5.528032779693603516e-01 1.370637798309326172e+01 4.277754306793212891e+00 3.649018108844757080e-01
3.140000000000000000e+03 4.896143341064453125e+01 -1.123505592346191406e+01 5.045270919799804688e-01 7.949647426605224609e+00 2.536252498626708984e+00 3.830518960952758789e+00
3.141000000000000000e+03 5.354180145263671875e+01 -8.457063674926757812e+00 4.142065048217773438e+00 1.278321266174316406e+01 5.077583312988281250e+00 -1.723029732704162598e+00
3.142000000000000000e+03 4.836376953125000000e+01 -1.183806610107421875e+01 5.765891075134277344e-01 6.743326187133789062e+00 2.195974588394165039e+00 3.605687618255615234e+00
3.143000000000000000e+03 5.452988815307617188e+01 -5.372460365295410156e+00 5.303842067718505859e+00 1.116226768493652344e+01 4.939833164215087891e+00 9.702289104461669922e-01
3.144000000000000000e+03 5.415961837768554688e+01 -5.977370738983154297e+00 6.124822139739990234e+00 1.140275192260742188e+01 5.258272171020507812e+00 4.623809158802032471e-01
3.145000000000000000e+03 4.661636352539062500e+01 4.177932143211364746e-01 8.522916436195373535e-01 4.421271800994873047e+00 1.582069039344787598e+00 -2.827377319335937500e+00
3.146000000000000000e+03 4.734715270996093750e+01 -5.724132657051086426e-01 9.360735416412353516e-01 5.089437961578369141e+00 1.807653546333312988e+00 -3.240631818771362305e+00
3.147000000000000000e+03 4.814473724365234375e+01 -1.682208776473999023e+00 1.123390078544616699e+00 6.144304275512695312e+00 2.180308341979980469e+00 -3.811606884002685547e+00
3.148000000000000000e+03 4.928147888183593750e+01 -1.153924179077148438e+01 2.492144703865051270e-01 8.528347969055175781e+00 2.633268594741821289e+00 3.567941188812255859e+00
3.149000000000000000e+03 4.975928878784179688e+01 -1.140518188476562500e+01 5.645360425114631653e-02 9.562568664550781250e+00 2.885706663131713867e+00 3.361827850341796875e+00
3.150000000000000000e+03 4.721127319335937500e+01 -1.225310516357421875e+01 8.061062693595886230e-01 4.818756580352783203e+00 1.687458753585815430e+00 3.239647865295410156e+00
3.151000000000000000e+03 5.173754119873046875e+01 -1.058993625640869141e+01 1.333003491163253784e-01 1.300169849395751953e+01 3.940499544143676758e+00 1.032050251960754395e+00
3.152000000000000000e+03 4.765958786010742188e+01 -9.992666840553283691e-01 9.939954280853271484e-01 5.488253116607666016e+00 1.944674611091613770e+00 -3.429267168045043945e+00
3.153000000000000000e+03 5.306283569335937500e+01 -9.237039566040039062e+00 2.532333850860595703e+00 1.344588184356689453e+01 4.793464660644531250e+00 -1.359891772270202637e+00
3.154000000000000000e+03 5.373748016357421875e+01 -9.282841682434082031e+00 2.770512580871582031e+00 1.250829315185546875e+01 4.583641529083251953e+00 -1.476035952568054199e+00
3.155000000000000000e+03 4.612804794311523438e+01 1.066079378128051758e+00 7.986605763435363770e-01 4.101631164550781250e+00 1.470087647438049316e+00 -2.577328920364379883e+00
3.156000000000000000e+03 4.660122680664062500e+01 -1.327309608459472656e+01 6.827470064163208008e-01 4.358851432800292969e+00 1.512479543685913086e+00 2.855055809020996094e+00
3.157000000000000000e+03 4.598601150512695312e+01 -1.476464843750000000e+01 4.942305386066436768e-01 4.135737895965576172e+00 1.388990640640258789e+00 2.474836349487304688e+00
3.158000000000000000e+03 4.410361862182617188e+01 -1.584563064575195312e+01 5.435746312141418457e-01 3.021437644958496094e+00 1.069503664970397949e+00 1.951785445213317871e+00
3.159000000000000000e+03 3.774740219116210938e+01 5.711106777191162109e+00 4.391982555389404297e-01 1.364832997322082520e+00 5.412093997001647949e-01 -5.358285307884216309e-01
3.160000000000000000e+03 3.635469055175781250e+01 6.046458244323730469e+00 3.962206542491912842e-01 1.195672631263732910e+00 4.775680005550384521e-01 -3.793953955173492432e-01
3.161000000000000000e+03 4.509489059448242188e+01 2.228739261627197266e+00 7.061911225318908691e-01 3.555520772933959961e+00 1.278513550758361816e+00 -2.155346393585205078e+00
3.162000000000000000e+03 3.501186370849609375e+01 5.453632354736328125e+00 2.881615459918975830e-01 8.852301836013793945e-01 3.520175218582153320e-01 -1.391863077878952026e-01
3.163000000000000000e+03 4.174433517456054688e+01 2.898641586303710938e+00 6.899815201759338379e-01 1.903085470199584961e+00 7.779201269149780273e-01 -1.224539399147033691e+00
3.164000000000000000e+03 4.090205764770507812e+01 2.901912212371826172e+00 6.432032585144042969e-01 1.639464497566223145e+00 6.848003268241882324e-01 -1.028501629829406738e+00
3.165000000000000000e+03 4.472699356079101562e+01 3.179134607315063477e+00 6.196190118789672852e-01 3.544345378875732422e+00 1.249189376831054688e+00 -1.991862893104553223e+00
3.166000000000000000e+03 3.915363311767578125e+01 3.692453145980834961e+00 5.206141471862792969e-01 1.333827614784240723e+00 5.563325285911560059e-01 -6.766321063041687012e-01
3.167000000000000000e+03 4.563634872436523438e+01 -1.555253219604492188e+01 4.201940298080444336e-01 4.026446342468261719e+00 1.333992123603820801e+00 2.308914184570312500e+00
3.168000000000000000e+03 4.402935409545898438e+01 -1.662540435791015625e+01 4.889650940895080566e-01 3.146918058395385742e+00 1.090764999389648438e+00 1.889818072319030762e+00
3.169000000000000000e+03 3.349288558959960938e+01 5.188924789428710938e+00 1.856261342763900757e-01 6.348384618759155273e-01 2.461393773555755615e-01 6.738852709531784058e-02
3.170000000000000000e+03 3.152153968811035156e+01 5.012144565582275391e+00 6.952328234910964966e-02 4.210910797119140625e-01 1.471843123435974121e-01 2.507659792900085449e-01
3.171000000000000000e+03 6.695706176757812500e+01 -1.353048133850097656e+01 5.693293809890747070e-01 7.765706539154052734e+00 2.500510692596435547e+00 -8.424392342567443848e-01
3.172000000000000000e+03 3.823615646362304688e+01 4.428341865539550781e+00 4.611008763313293457e-01 1.251283764839172363e+00 5.137153863906860352e-01 -5.359932184219360352e-01
3.173000000000000000e+03 6.349382019042968750e+01 -7.490562438964843750e+00 1.781711697578430176e+00 7.940359115600585938e+00 2.916621208190917969e+00 -2.136387079954147339e-01
3.174000000000000000e+03 6.608773040771484375e+01 -9.911338806152343750e+00 1.118672966957092285e+00 7.706156730651855469e+00 2.647448778152465820e+00 -5.469952821731567383e-01
3.175000000000000000e+03 3.325736236572265625e+01 6.246801376342773438e+00 1.908426284790039062e-01 7.127361893653869629e-01 2.710736393928527832e-01 2.022240497171878815e-02
3.176000000000000000e+03 6.397936248779296875e+01 -1.512282276153564453e+01 4.406627714633941650e-01 8.226167678833007812e+00 2.600049257278442383e+00 -1.011734366416931152e+00
3.177000000000000000e+03 6.415261840820312500e+01 -1.890995216369628906e+01 -9.081463515758514404e-02 8.185728073120117188e+00 2.428474187850952148e+00 -9.176722168922424316e-01
3.178000000000000000e+03 3.407073593139648438e+01 6.194516658782958984e+00 2.493154406547546387e-01 8.245016932487487793e-01 3.221451640129089355e-01 -6.599839776754379272e-02
3.179000000000000000e+03 6.666341400146484375e+01 -6.173790454864501953e+00 1.198206305503845215e+00 7.568528652191162109e+00 2.630020618438720703e+00 5.750982835888862610e-02
3.180000000000000000e+03 6.428302001953125000e+01 3.301566243171691895e-01 8.133080005645751953e-01 8.083123207092285156e+00 2.668929338455200195e+00 9.673283696174621582e-01
3.181000000000000000e+03 6.642470550537109375e+01 -1.557824993133544922e+01 3.522207140922546387e-01 7.905918121337890625e+00 2.477441549301147461e+00 -9.524119496345520020e-01
3.182000000000000000e+03 6.608612823486328125e+01 -1.386393737792968750e+01 5.848506689071655273e-01 7.890423774719238281e+00 2.542582273483276367e+00 -8.971513509750366211e-01
3.183000000000000000e+03 6.633867645263671875e+01 -1.059410476684570312e+01 9.914391636848449707e-01 7.710116863250732422e+00 2.610466718673706055e+00 -6.296499967575073242e-01
3.184000000000000000e+03 3.046502113342285156e+01 5.573146820068359375e+00 2.617764100432395935e-02 3.712472617626190186e-01 1.192274689674377441e-01 2.965894043445587158e-01
3.185000000000000000e+03 3.009741401672363281e+01 7.603887557983398438e+00 3.218035399913787842e-02 4.785846173763275146e-01 1.532294899225234985e-01 2.124439179897308350e-01
3.186000000000000000e+03 3.042739868164062500e+01 1.109841251373291016e+01 2.594711631536483765e-02 7.585387229919433594e-01 2.353457510471343994e-01 1.142558548599481583e-02
3.187000000000000000e+03 3.135138893127441406e+01 1.225289440155029297e+01 7.475630193948745728e-02 9.770314097404479980e-01 3.155363202095031738e-01 -1.142262741923332214e-01
3.188000000000000000e+03 6.678843688964843750e+01 2.704775094985961914e+00 3.632062077522277832e-01 7.866129875183105469e+00 2.468800783157348633e+00 9.820218086242675781e-01
3.189000000000000000e+03 6.524487304687500000e+01 2.237669467926025391e+00 4.724297523498535156e-01 8.035430908203125000e+00 2.552358150482177734e+00 1.027980446815490723e+00
3.190000000000000000e+03 2.668797492980957031e+01 -2.023897171020507812e+01 3.165074810385704041e-02 2.809209525585174561e-01 9.377150982618331909e-02 -2.695955038070678711e-01
3.191000000000000000e+03 3.229216384887695312e+01 -2.097321319580078125e+01 3.015050888061523438e-01 7.299398183822631836e-01 3.094334602355957031e-01 1.043361127376556396e-01
3.192000000000000000e+03 6.607158660888671875e+01 -2.549536705017089844e+00 1.087801694869995117e+00 7.717370986938476562e+00 2.641551733016967773e+00 6.156473755836486816e-01
3.193000000000000000e+03 6.511784362792968750e+01 -2.811504602432250977e-01 8.665661811828613281e-01 7.955859184265136719e+00 2.646727561950683594e+00 9.051392078399658203e-01
3.194000000000000000e+03 6.652836608886718750e+01 5.655816555023193359e+00 5.771616473793983459e-02 7.958761215209960938e+00 2.404943227767944336e+00 1.001740455627441406e+00
3.195000000000000000e+03 6.624205780029296875e+01 6.838037014007568359e+00 -6.599114090204238892e-02 7.996559619903564453e+00 2.379170656204223633e+00 9.780511856079101562e-01
3.196000000000000000e+03 6.325947570800781250e+01 -2.618638992309570312e+01 -5.316081643104553223e-01 7.877155303955078125e+00 2.203664302825927734e+00 -5.187846422195434570e-01
3.197000000000000000e+03 6.440132141113281250e+01 -2.287853622436523438e+01 -3.845361471176147461e-01 8.025317192077636719e+00 2.292234182357788086e+00 -7.353672981262207031e-01
3.198000000000000000e+03 6.524266815185546875e+01 1.138330554962158203e+01 -3.563726544380187988e-01 7.979191780090332031e+00 2.286845684051513672e+00 7.916536927223205566e-01
3.199000000000000000e+03 6.193579864501953125e+01 8.715156555175781250e+00 -3.893769383430480957e-01 8.210881233215332031e+00 2.346451282501220703e+00 7.509219050407409668e-01
3.200000000000000000e+03 6.620865631103515625e+01 4.455692291259765625e+00 1.705508977174758911e-01 7.973527431488037109e+00 2.443223476409912109e+00 1.017014622688293457e+00
3.201000000000000000e+03 6.654494476318359375e+01 -2.695682525634765625e+01 -3.964561223983764648e-01 7.844606876373291016e+00 2.234445095062255859e+00 -6.129562258720397949e-01
3.202000000000000000e+03 4.321833419799804688e+01 -1.928597640991210938e+01 3.699460327625274658e-01 3.200268507003784180e+00 1.071064352989196777e+00 1.567436933517456055e+00
3.203000000000000000e+03 3.585927963256835938e+01 -2.279649543762207031e+01 4.425713717937469482e-01 1.463580608367919922e+00 5.718455910682678223e-01 4.933991134166717529e-01
3.204000000000000000e+03 5.028438568115234375e+01 -1.627875685691833496e+00 6.624225527048110962e-02 1.071084403991699219e+01 3.233125686645507812e+00 -2.924168586730957031e+00
3.205000000000000000e+03 5.236019515991210938e+01 -1.006517410278320312e+01 8.715814948081970215e-01 1.359514427185058594e+01 4.340017795562744141e+00 -1.398657858371734619e-01
3.206000000000000000e+03 5.422351837158203125e+01 -3.747646331787109375e+00 3.267437696456909180e+00 1.191140556335449219e+01 4.553653240203857422e+00 1.542762637138366699e+00
3.207000000000000000e+03 5.394362640380859375e+01 -4.263761520385742188e+00 4.094881534576416016e+00 1.216134738922119141e+01 4.876868724822998047e+00 1.609671711921691895e+00
3.208000000000000000e+03 4.842279815673828125e+01 -2.064520359039306641e+00 1.202161073684692383e+00 6.682012081146240234e+00 2.365252017974853516e+00 -4.072041988372802734e+00
3.209000000000000000e+03 5.089882659912109375e+01 -1.773994326591491699e+00 -4.271180834621191025e-03 1.168635082244873047e+01 3.504623889923095703e+00 -2.236366033554077148e+00
3.210000000000000000e+03 5.205596542358398438e+01 -2.442903518676757812e+00 5.467238426208496094e-01 1.335339927673339844e+01 4.170036792755126953e+00 -3.989711999893188477e-01
3.211000000000000000e+03 5.426522827148437500e+01 -6.409147739410400391e+00 6.082802772521972656e+00 1.126700210571289062e+01 5.204941272735595703e+00 -2.453536540269851685e-02
3.212000000000000000e+03 5.061585235595703125e+01 -1.126344013214111328e+01 -1.779018640518188477e-01 1.117917919158935547e+01 3.300383090972900391e+00 2.577811002731323242e+00
3.213000000000000000e+03 5.314696502685546875e+01 -1.000607967376708984e+01 1.476839423179626465e+00 1.296350669860839844e+01 4.332103729248046875e+00 -8.805261850357055664e-01
3.214000000000000000e+03 4.682919692993164062e+01 -1.274750709533691406e+01 7.508736252784729004e-01 4.464004516601562500e+00 1.564463496208190918e+00 3.001397371292114258e+00
3.215000000000000000e+03 4.940455245971679688e+01 -1.893514871597290039e+00 5.685449838638305664e-01 9.136575698852539062e+00 2.911536216735839844e+00 -3.834309101104736328e+00
3.216000000000000000e+03 4.866964340209960938e+01 -1.148966026306152344e+01 5.383229851722717285e-01 7.336311817169189453e+00 2.362390279769897461e+00 3.725445985794067383e+00
3.217000000000000000e+03 5.409540557861328125e+01 -9.250446319580078125e+00 2.901454687118530273e+00 1.206667804718017578e+01 4.490439891815185547e+00 -1.497495889663696289e+00
3.218000000000000000e+03 5.140120697021484375e+01 -1.971280932426452637e+00 4.602342098951339722e-02 1.246427726745605469e+01 3.753090143203735352e+00 -1.550177454948425293e+00
3.219000000000000000e+03 5.439197921752929688e+01 -6.833692550659179688e+00 5.869139194488525391e+00 1.117406177520751953e+01 5.112960338592529297e+00 -4.765185117721557617e-01
3.220000000000000000e+03 5.124299240112304688e+01 -1.124769878387451172e+01 -2.121483087539672852e-01 1.183001995086669922e+01 3.485361337661743164e+00 1.833848357200622559e+00
3.221000000000000000e+03 5.124469375610351562e+01 -1.619867205619812012e+00 -4.374657198786735535e-02 1.187550544738769531e+01 3.549527645111083984e+00 -1.753815650939941406e+00
3.222000000000000000e+03 5.342087173461914062e+01 -4.077897071838378906e+00 3.631846904754638672e+00 1.297777938842773438e+01 4.982887744903564453e+00 1.633082032203674316e+00
3.223000000000000000e+03 5.431484985351562500e+01 -7.974901676177978516e+00 4.786531925201416016e+00 1.153125000000000000e+01 4.895334720611572266e+00 -1.359694242477416992e+00
3.224000000000000000e+03 4.622933578491210938e+01 -1.395184803009033203e+01 5.885885953903198242e-01 4.209057331085205078e+00 1.439293861389160156e+00 2.643311262130737305e+00
3.225000000000000000e+03 4.551801300048828125e+01 -1.499884319305419922e+01 5.235806107521057129e-01 3.821599483489990234e+00 1.303553938865661621e+00 2.377850770950317383e+00
3.226000000000000000e+03 4.579024887084960938e+01 2.461097955703735352e+00 5.984344482421875000e-01 4.159299850463867188e+00 1.427320241928100586e+00 -2.298121213912963867e+00
3.227000000000000000e+03 3.128862190246582031e+01 6.626321792602539062e+00 8.676964044570922852e-02 5.280506610870361328e-01 1.844460815191268921e-01 1.801661103963851929e-01
3.228000000000000000e+03 3.472768783569335938e+01 6.320200920104980469e+00 2.862368524074554443e-01 9.701469540596008301e-01 3.769151270389556885e-01 -1.520516127347946167e-01
3.229000000000000000e+03 3.421885681152343750e+01 5.384200572967529297e+00 2.402489334344863892e-01 7.723287940025329590e-01 3.037733137607574463e-01 -3.437234088778495789e-02
3.230000000000000000e+03 4.404703140258789062e+01 -1.765000724792480469e+01 4.057516753673553467e-01 3.362248182296752930e+00 1.130399942398071289e+00 1.814910411834716797e+00
3.231000000000000000e+03 4.492210388183593750e+01 -1.650568580627441406e+01 4.123058021068572998e-01 3.697864770889282227e+00 1.233051180839538574e+00 2.077041864395141602e+00
3.232000000000000000e+03 3.994549942016601562e+01 3.822416782379150391e+00 5.745738148689270020e-01 1.535610079765319824e+00 6.330551505088806152e-01 -8.404560089111328125e-01
3.233000000000000000e+03 4.176222229003906250e+01 4.004181385040283203e+00 6.270297169685363770e-01 2.202981472015380859e+00 8.490033745765686035e-01 -1.264505147933959961e+00
3.234000000000000000e+03 4.253273010253906250e+01 2.900927305221557617e+00 7.086968421936035156e-01 2.273590326309204102e+00 8.946861028671264648e-01 -1.421564340591430664e+00
3.235000000000000000e+03 3.845752716064453125e+01 5.221516609191894531e+00 4.953693747520446777e-01 1.449541926383972168e+00 5.834733843803405762e-01 -6.403526067733764648e-01
3.236000000000000000e+03 3.571291732788085938e+01 5.777618885040283203e+00 3.467270731925964355e-01 1.015378117561340332e+00 4.086315333843231201e-01 -2.521325647830963135e-01
3.237000000000000000e+03 3.424562454223632812e+01 6.943380832672119141e+00 2.443982660770416260e-01 9.391257762908935547e-01 3.550572097301483154e-01 -1.281115114688873291e-01
3.238000000000000000e+03 3.076616477966308594e+01 4.723233222961425781e+00 2.379337325692176819e-02 3.312398195266723633e-01 1.065099537372589111e-01 3.222034275531768799e-01
3.239000000000000000e+03 6.443711090087890625e+01 -1.382105350494384766e+01 6.528193950653076172e-01 8.114449501037597656e+00 2.630180597305297852e+00 -9.701704978942871094e-01
3.240000000000000000e+03 6.608300781250000000e+01 -1.179787826538085938e+01 8.804689049720764160e-01 7.788421154022216797e+00 2.600666999816894531e+00 -7.590206265449523926e-01
3.241000000000000000e+03 6.449773406982421875e+01 -6.766634941101074219e+00 1.584230065345764160e+00 7.813288211822509766e+00 2.819255590438842773e+00 -5.623318627476692200e-02
3.242000000000000000e+03 6.519313812255859375e+01 -8.023471832275390625e+00 1.415004491806030273e+00 7.756754398345947266e+00 2.751527547836303711e+00 -2.867788076400756836e-01
3.243000000000000000e+03 6.137026977539062500e+01 -1.968634223937988281e+01 -3.319232165813446045e-01 8.385722160339355469e+00 2.416139602661132812e+00 -7.342562079429626465e-01
3.244000000000000000e+03 3.275615310668945312e+01 4.725746631622314453e+00 1.274715512990951538e-01 5.200698375701904297e-01 1.942624151706695557e-01 1.549327820539474487e-01
3.245000000000000000e+03 6.690310668945312500e+01 -5.262885093688964844e+00 1.135960459709167480e+00 7.550605297088623047e+00 2.605969667434692383e+00 2.007793039083480835e-01
3.246000000000000000e+03 6.513652038574218750e+01 -9.100328445434570312e+00 1.343649268150329590e+00 7.794239997863769531e+00 2.741366863250732422e+00 -4.651969373226165771e-01
3.247000000000000000e+03 6.521759033203125000e+01 -1.231191921234130859e+01 8.670704364776611328e-01 7.931256294250488281e+00 2.639497995376586914e+00 -8.515732884407043457e-01
3.248000000000000000e+03 3.134359931945800781e+01 9.241854667663574219e+00 9.824860095977783203e-02 7.626526355743408203e-01 2.582703530788421631e-01 3.487886115908622742e-02
3.249000000000000000e+03 3.170293998718261719e+01 1.078975391387939453e+01 1.051669493317604065e-01 9.483812451362609863e-01 3.160644471645355225e-01 -7.850284874439239502e-02
3.250000000000000000e+03 6.305302810668945312e+01 -1.758078384399414062e+01 2.182164601981639862e-02 8.330639839172363281e+00 2.505738258361816406e+00 -9.440749287605285645e-01
3.251000000000000000e+03 6.463702392578125000e+01 -1.610995864868164062e+01 2.687920928001403809e-01 8.146839141845703125e+00 2.524689435958862305e+00 -9.915671944618225098e-01
3.252000000000000000e+03 6.574900054931640625e+01 -1.306512737274169922e+01 6.929376125335693359e-01 7.901917457580566406e+00 2.578456640243530273e+00 -8.756579756736755371e-01
3.253000000000000000e+03 3.035506057739257812e+01 1.367412948608398438e+01 2.913407608866691589e-02 9.110397696495056152e-01 2.820521593093872070e-01 -9.800141304731369019e-02
3.254000000000000000e+03 2.705327796936035156e+01 1.426278591156005859e+01 -1.179975271224975586e-01 4.648371040821075439e-01 1.040518730878829956e-01 3.802961483597755432e-02
3.255000000000000000e+03 3.947093582153320312e+01 -2.044174575805664062e+01 4.578684866428375244e-01 2.058857679367065430e+00 7.550178766250610352e-01 9.930365681648254395e-01
3.256000000000000000e+03 3.847244262695312500e+01 -1.868238258361816406e+01 4.511593580245971680e-01 1.497707247734069824e+00 5.846599936485290527e-01 7.942973971366882324e-01
3.257000000000000000e+03 3.011669349670410156e+01 -2.292043876647949219e+01 3.120942115783691406e-01 6.820533275604248047e-01 2.982442677021026611e-01 1.371970772743225098e-02
3.258000000000000000e+03 2.878715324401855469e+01 -2.172465515136718750e+01 2.002684772014617920e-01 4.952333569526672363e-01 2.086505442857742310e-01 -1.302087008953094482e-01
3.259000000000000000e+03 6.496490478515625000e+01 -4.557924747467041016e+00 1.439612388610839844e+00 7.779800891876220703e+00 2.765824079513549805e+00 3.464276492595672607e-01
3.260000000000000000e+03 6.637901306152343750e+01 -4.069757938385009766e+00 1.165978431701660156e+00 7.632131576538085938e+00 2.639432907104492188e+00 3.891282975673675537e-01
3.261000000000000000e+03 6.460558319091796875e+01 3.962551116943359375e+00 2.181033790111541748e-01 8.149326324462890625e+00 2.510228872299194336e+00 1.042646884918212891e+00
3.262000000000000000e+03 6.306052017211914062e+01 1.359705448150634766e+01 -4.981088042259216309e-01 7.865272045135498047e+00 2.210149049758911133e+00 5.802394151687622070e-01
3.263000000000000000e+03 6.265708923339843750e+01 1.200449943542480469e+01 -4.926583766937255859e-01 7.960407733917236328e+00 2.240324735641479492e+00 6.267068982124328613e-01
3.264000000000000000e+03 6.375139236450195312e+01 1.786598801612854004e+00 5.713330507278442383e-01 8.237601280212402344e+00 2.642680406570434570e+00 1.067123770713806152e+00
3.265000000000000000e+03 6.474929046630859375e+01 1.242554783821105957e+00 6.395174860954284668e-01 8.057825088500976562e+00 2.609202861785888672e+00 1.005486011505126953e+00
3.266000000000000000e+03 6.242805862426757812e+01 -2.048316383361816406e+01 -3.396629393100738525e-01 8.266892433166503906e+00 2.378168821334838867e+00 -7.652048468589782715e-01
3.267000000000000000e+03 6.358916854858398438e+01 -2.108546066284179688e+01 -3.162224292755126953e-01 8.144364356994628906e+00 2.348442554473876953e+00 -7.926689982414245605e-01
3.268000000000000000e+03 6.449174499511718750e+01 -1.201902270317077637e+00 1.085018873214721680e+00 7.987290382385253906e+00 2.721692800521850586e+00 8.616857528686523438e-01
3.269000000000000000e+03 6.233624267578125000e+01 -2.384104156494140625e+01 -5.291311740875244141e-01 8.021647453308105469e+00 2.247754812240600586e+00 -5.697519779205322266e-01
3.270000000000000000e+03 6.284671020507812500e+01 -1.015506505966186523e+00 1.200457215309143066e+00 8.264303207397460938e+00 2.839428186416625977e+00 9.670518636703491211e-01
3.271000000000000000e+03 6.526413726806640625e+01 -1.996805906295776367e+00 1.096213221549987793e+00 7.860048770904541016e+00 2.686878681182861328e+00 7.272840142250061035e-01
3.272000000000000000e+03 5.242525100708007812e+01 -1.047008132934570312e+01 5.579043030738830566e-01 1.310701465606689453e+01 4.099475383758544922e+00 6.503576785326004028e-02
3.273000000000000000e+03 5.323787307739257812e+01 -1.041119194030761719e+01 1.094935417175292969e+00 1.261576747894287109e+01 4.113210678100585938e+00 -6.897951960563659668e-01
3.274000000000000000e+03 5.023715972900390625e+01 -1.074485301971435547e+00 -5.720629356801509857e-03 1.013505172729492188e+01 3.038799285888671875e+00 -2.814268589019775391e+00
3.275000000000000000e+03 5.186056900024414062e+01 -1.117489242553710938e+01 -5.394441261887550354e-02 1.227359104156494141e+01 3.665894031524658203e+00 1.001731157302856445e+00
3.276000000000000000e+03 5.257086181640625000e+01 -2.777893781661987305e+00 1.171283125877380371e+00 1.344121360778808594e+01 4.383749008178710938e+00 4.144909083843231201e-01
3.277000000000000000e+03 4.890649414062500000e+01 -1.096235036849975586e+00 5.547596812248229980e-01 7.726421833038330078e+00 2.484354496002197266e+00 -3.561115980148315430e+00
3.278000000000000000e+03 4.829961776733398438e+01 -9.540091156959533691e-01 7.827132940292358398e-01 6.550055980682373047e+00 2.199830770492553711e+00 -3.556710243225097656e+00
3.279000000000000000e+03 5.462857818603515625e+01 -5.821951389312744141e+00 5.544325828552246094e+00 1.095775890350341797e+01 4.950625419616699219e+00 5.464464426040649414e-01
3.280000000000000000e+03 4.968741989135742188e+01 -1.173591899871826172e+01 2.430984936654567719e-02 9.221144676208496094e+00 2.773636341094970703e+00 3.257102251052856445e+00
3.281000000000000000e+03 5.375751113891601562e+01 -3.463311433792114258e+00 2.734171628952026367e+00 1.244278144836425781e+01 4.553085803985595703e+00 1.456465244293212891e+00
3.282000000000000000e+03 4.668188858032226562e+01 -1.377214431762695312e+01 5.444038510322570801e-01 4.558332920074462891e+00 1.530821084976196289e+00 2.765571117401123047e+00
3.283000000000000000e+03 4.804961013793945312e+01 -1.225909328460693359e+01 5.701756477355957031e-01 6.141406536102294922e+00 2.013474702835083008e+00 3.432404756546020508e+00
3.284000000000000000e+03 4.811874008178710938e+01 -4.753487706184387207e-01 7.010549902915954590e-01 6.257039070129394531e+00 2.087428092956542969e+00 -3.371406316757202148e+00
3.285000000000000000e+03 4.878506469726562500e+01 -1.776363492012023926e+00 8.607339262962341309e-01 7.586507797241210938e+00 2.534172534942626953e+00 -3.919787645339965820e+00
3.286000000000000000e+03 5.010360336303710938e+01 -1.192399120330810547e+01 -1.547644138336181641e-01 9.755267143249511719e+00 2.880150794982910156e+00 2.941892147064208984e+00
3.287000000000000000e+03 5.040295410156250000e+01 -1.223799705505371094e+01 -2.772692143917083740e-01 9.864794731140136719e+00 2.876257658004760742e+00 2.596053838729858398e+00
3.288000000000000000e+03 5.507275390625000000e+01 -5.223728656768798828e+00 4.800490856170654297e+00 1.069300079345703125e+01 4.648047447204589844e+00 9.319299459457397461e-01
3.289000000000000000e+03 5.472121810913085938e+01 -4.660773754119873047e+00 4.444965362548828125e+00 1.115831375122070312e+01 4.680983543395996094e+00 1.303946971893310547e+00
3.290000000000000000e+03 5.449031448364257812e+01 -4.356283187866210938e+00 4.183773517608642578e+00 1.155496406555175781e+01 4.721621036529541016e+00 1.488315224647521973e+00
3.291000000000000000e+03 5.111043548583984375e+01 -1.298070192337036133e+00 -1.164444386959075928e-01 1.143901729583740234e+01 3.396771907806396484e+00 -1.935841917991638184e+00
3.292000000000000000e+03 5.234544372558593750e+01 -2.170153617858886719e+00 5.194096565246582031e-01 1.285856914520263672e+01 4.013393402099609375e+00 -2.028224468231201172e-01
3.293000000000000000e+03 5.207304763793945312e+01 -1.552355766296386719e+00 1.037244647741317749e-01 1.218138122558593750e+01 3.685531854629516602e+00 -8.001504540443420410e-01
3.294000000000000000e+03 5.281726074218750000e+01 -2.843439102172851562e+00 1.381567597389221191e+00 1.324133491516113281e+01 4.386870861053466797e+00 6.518884301185607910e-01
3.295000000000000000e+03 4.913734054565429688e+01 -1.498257398605346680e+00 5.777511596679687500e-01 8.306034088134765625e+00 2.665135622024536133e+00 -3.711865901947021484e+00
3.296000000000000000e+03 5.483667755126953125e+01 -6.673912525177001953e+00 5.482421875000000000e+00 1.074936866760253906e+01 4.869537353515625000e+00 -2.733413875102996826e-01
3.297000000000000000e+03 4.660485076904296875e+01 1.033550620079040527e+00 7.103633880615234375e-01 4.610661506652832031e+00 1.596307516098022461e+00 -2.711487531661987305e+00
3.298000000000000000e+03 5.244898605346679688e+01 -1.088341236114501953e+01 2.901508212089538574e-01 1.260826015472412109e+01 3.869523286819458008e+00 2.803034484386444092e-01
3.299000000000000000e+03 5.282164382934570312e+01 -1.044645881652832031e+01 8.222067952156066895e-01 1.288227367401123047e+01 4.111343860626220703e+00 -3.432906270027160645e-01
3.300000000000000000e+03 4.770693206787109375e+01 -1.269888019561767578e+01 5.534114837646484375e-01 5.697303771972656250e+00 1.875214576721191406e+00 3.256821393966674805e+00
3.301000000000000000e+03 5.375365447998046875e+01 -9.564696311950683594e+00 2.436749219894409180e+00 1.247456645965576172e+01 4.473394870758056641e+00 -1.410887002944946289e+00
3.302000000000000000e+03 4.703367233276367188e+01 -1.351586437225341797e+01 5.397703051567077637e-01 4.961010932922363281e+00 1.650234341621398926e+00 2.933157444000244141e+00
3.303000000000000000e+03 4.707229614257812500e+01 1.053215622901916504e+00 6.103696227073669434e-01 5.066729068756103516e+00 1.703129529953002930e+00 -2.789264678955078125e+00
3.304000000000000000e+03 4.562987136840820312e+01 1.909302711486816406e+00 7.106617093086242676e-01 3.896949052810668945e+00 1.382283210754394531e+00 -2.332364559173583984e+00
3.305000000000000000e+03 4.671990585327148438e+01 3.347914695739746094e+00 3.193400204181671143e-01 4.970490932464599609e+00 1.586949229240417480e+00 -2.272137880325317383e+00
3.306000000000000000e+03 4.529418945312500000e+01 2.791275262832641602e+00 6.182328462600708008e-01 3.832771539688110352e+00 1.335301399230957031e+00 -2.163810491561889648e+00
3.307000000000000000e+03 4.404206848144531250e+01 3.587254762649536133e+00 6.277405619621276855e-01 3.207402944564819336e+00 1.150542974472045898e+00 -1.811683297157287598e+00
3.308000000000000000e+03 4.299261093139648438e+01 4.555409908294677734e+00 5.767049193382263184e-01 2.872266054153442383e+00 1.034691333770751953e+00 -1.541766047477722168e+00
3.309000000000000000e+03 3.537569808959960938e+01 6.705609798431396484e+00 3.239617049694061279e-01 1.087421655654907227e+00 4.234150052070617676e-01 -2.606675624847412109e-01
3.310000000000000000e+03 6.422022247314453125e+01 -9.389624595642089844e+00 1.441838502883911133e+00 7.921668529510498047e+00 2.809052228927612305e+00 -5.471773147583007812e-01
3.311000000000000000e+03 6.465337371826171875e+01 -5.678197860717773438e+00 1.552841901779174805e+00 7.801183223724365234e+00 2.806207418441772461e+00 1.567174643278121948e-01
3.312000000000000000e+03 6.475090789794921875e+01 -1.141906738281250000e+01 1.052830457687377930e+00 7.949962615966796875e+00 2.700837850570678711e+00 -7.878926396369934082e-01
3.313000000000000000e+03 3.556310653686523438e+01 9.321990013122558594e+00 2.876982390880584717e-01 1.417400598526000977e+00 5.115296244621276855e-01 -3.871637880802154541e-01
3.314000000000000000e+03 3.707047271728515625e+01 6.027629852294921875e+00 3.987444043159484863e-01 1.277264475822448730e+00 5.028026700019836426e-01 -4.370218813419342041e-01
3.315000000000000000e+03 3.342490005493164062e+01 7.348511695861816406e+00 2.100279927253723145e-01 8.596997261047363281e-01 3.209183216094970703e-01 -6.547980755567550659e-02
3.316000000000000000e+03 4.330733871459960938e+01 3.728655338287353516e+00 6.357582807540893555e-01 2.895618677139282227e+00 1.059413075447082520e+00 -1.629893064498901367e+00
3.317000000000000000e+03 4.050072097778320312e+01 4.949680805206298828e+00 5.703077316284179688e-01 1.992968440055847168e+00 7.689828872680664062e-01 -1.026426315307617188e+00
3.318000000000000000e+03 4.574074935913085938e+01 -1.626563072204589844e+01 3.410907983779907227e-01 4.229890823364257812e+00 1.371294498443603516e+00 2.240741968154907227e+00
3.319000000000000000e+03 4.513527679443359375e+01 -1.743695449829101562e+01 3.047433495521545410e-01 4.017786979675292969e+00 1.296759128570556641e+00 2.006043195724487305e+00
3.320000000000000000e+03 6.553910827636718750e+01 -3.518942594528198242e+00 1.250012278556823730e+00 7.736238956451416016e+00 2.695875406265258789e+00 5.046113729476928711e-01
3.321000000000000000e+03 6.380214691162109375e+01 -1.677831077575683594e+01 1.720612198114395142e-01 8.250077247619628906e+00 2.526641607284545898e+00 -9.899380803108215332e-01
3.322000000000000000e+03 6.549986267089843750e+01 -1.662201881408691406e+01 1.975476890802383423e-01 8.051004409790039062e+00 2.474565744400024414e+00 -9.784538149833679199e-01
3.323000000000000000e+03 4.082601547241210938e+01 3.986304759979248047e+00 6.109398603439331055e-01 1.898456811904907227e+00 7.528190016746520996e-01 -1.057891130447387695e+00
3.324000000000000000e+03 3.482603454589843750e+01 7.669402122497558594e+00 2.752805054187774658e-01 1.126924753189086914e+00 4.206615686416625977e-01 -2.404148280620574951e-01
3.325000000000000000e+03 3.240111160278320312e+01 7.653023719787597656e+00 1.610558927059173584e-01 7.731052637100219727e-01 2.802483439445495605e-01 1.812293007969856262e-02
3.326000000000000000e+03 3.385907363891601562e+01 8.459120750427246094e+00 2.314318865537643433e-01 1.059707760810852051e+00 3.873418867588043213e-01 -1.673990637063980103e-01
3.327000000000000000e+03 6.530867767333984375e+01 -1.010035419464111328e+01 1.182979226112365723e+00 7.815689563751220703e+00 2.699600696563720703e+00 -6.096071004867553711e-01
3.328000000000000000e+03 6.416407775878906250e+01 2.872228622436523438e+00 3.787967562675476074e-01 8.194722175598144531e+00 2.572055578231811523e+00 1.058282375335693359e+00
3.329000000000000000e+03 3.981901931762695312e+01 5.550989151000976562e+00 5.202517509460449219e-01 1.874597907066345215e+00 7.184548974037170410e-01 -8.919023871421813965e-01
3.330000000000000000e+03 6.553334045410156250e+01 6.053427219390869141e+00 -4.374139476567506790e-03 8.071125984191894531e+00 2.420025348663330078e+00 1.001225113868713379e+00
3.331000000000000000e+03 6.507006835937500000e+01 5.043598651885986328e+00 8.587262779474258423e-02 8.111715316772460938e+00 2.459276199340820312e+00 1.025485157966613770e+00
3.332000000000000000e+03 6.341747665405273438e+01 6.802569627761840820e-01 8.039378523826599121e-01 8.256947517395019531e+00 2.718265771865844727e+00 1.039241075515747070e+00
3.333000000000000000e+03 6.452201080322265625e+01 -2.929635524749755859e+00 1.329847216606140137e+00 7.909510612487792969e+00 2.771807432174682617e+00 6.473128199577331543e-01
3.334000000000000000e+03 4.220285415649414062e+01 -2.080383300781250000e+01 3.577986955642700195e-01 2.941629648208618164e+00 9.898285269737243652e-01 1.321346879005432129e+00
3.335000000000000000e+03 4.355396652221679688e+01 -2.053464126586914062e+01 2.655526995658874512e-01 3.531875848770141602e+00 1.139228582382202148e+00 1.511956572532653809e+00
3.336000000000000000e+03 3.899610137939453125e+01 6.048920154571533203e+00 4.763174951076507568e-01 1.735205888748168945e+00 6.634570360183715820e-01 -7.626460790634155273e-01
3.337000000000000000e+03 6.454293823242187500e+01 6.815567970275878906e+00 -1.007145494222640991e-01 8.138142585754394531e+00 2.411228179931640625e+00 9.700011014938354492e-01
3.338000000000000000e+03 6.167367172241210938e+01 -2.169468879699707031e+01 -4.663731455802917480e-01 8.201850891113281250e+00 2.320643424987792969e+00 -6.346008181571960449e-01
3.339000000000000000e+03 6.114172363281250000e+01 1.259596157073974609e+01 -5.667667984962463379e-01 7.887254714965820312e+00 2.196146488189697266e+00 4.852179586887359619e-01
3.340000000000000000e+03 6.338718414306640625e+01 7.797331333160400391e+00 -2.523456513881683350e-01 8.187508583068847656e+00 2.380548715591430664e+00 8.765005469322204590e-01
3.341000000000000000e+03 6.438731384277343750e+01 1.311291599273681641e+01 -4.380935430526733398e-01 7.911540508270263672e+00 2.242034196853637695e+00 6.726328134536743164e-01
3.342000000000000000e+03 6.163126754760742188e+01 1.420734310150146484e+01 -5.584633350372314453e-01 7.772600173950195312e+00 2.164241075515747070e+00 4.600421488285064697e-01
3.343000000000000000e+03 6.160295104980468750e+01 -2.544702339172363281e+01 -5.942937731742858887e-01 7.900074481964111328e+00 2.191734313964843750e+00 -4.441634416580200195e-01
3.344000000000000000e+03 6.363228225708007812e+01 -1.400525474548339844e+01 6.323551535606384277e-01 8.243489265441894531e+00 2.662753343582153320e+00 -1.007272362709045410e+00
3.345000000000000000e+03 6.474686431884765625e+01 -1.457952404022216797e+01 5.215682983398437500e-01 8.083415985107421875e+00 2.581495285034179688e+00 -9.775953292846679688e-01
3.346000000000000000e+03 5.993646621704101562e+01 -2.454943656921386719e+01 -6.571408510208129883e-01 7.917756080627441406e+00 2.178184509277343750e+00 -3.286277651786804199e-01
3.347000000000000000e+03 6.079640960693359375e+01 -2.719541740417480469e+01 -6.432747840881347656e-01 7.746042251586914062e+00 2.130830287933349609e+00 -3.155072331428527832e-01
3.348000000000000000e+03 5.271233749389648438e+01 -2.497826576232910156e+00 9.909822344779968262e-01 1.302116870880126953e+01 4.203645229339599609e+00 3.348757624626159668e-01
3.349000000000000000e+03 5.352657699584960938e+01 -9.950385093688964844e+00 1.812400817871093750e+00 1.259270668029785156e+01 4.321532249450683594e+00 -1.132881045341491699e+00
3.350000000000000000e+03 5.492074966430664062e+01 -8.498116493225097656e+00 3.915663003921508789e+00 1.107172012329101562e+01 4.496214866638183594e+00 -1.356451630592346191e+00
3.351000000000000000e+03 5.000062561035156250e+01 -1.328114867210388184e+00 1.159536391496658325e-01 9.943670272827148438e+00 3.017887353897094727e+00 -3.069913864135742188e+00
3.352000000000000000e+03 4.999450683593750000e+01 -1.228641319274902344e+01 -1.785353273153305054e-01 9.306303024291992188e+00 2.738330364227294922e+00 2.888103485107421875e+00
3.353000000000000000e+03 4.907349395751953125e+01 -1.184870433807373047e+01 2.726672291755676270e-01 8.054916381835937500e+00 2.498275041580200195e+00 3.516106843948364258e+00
3.354000000000000000e+03 4.737504577636718750e+01 -1.394694519042968750e+01 3.667832612991333008e-01 5.409810543060302734e+00 1.732978105545043945e+00 2.871813535690307617e+00
3.355000000000000000e+03 4.771411514282226562e+01 -5.555906295776367188e-01 8.502409458160400391e-01 5.615071773529052734e+00 1.939593791961669922e+00 -3.312243461608886719e+00
3.356000000000000000e+03 4.884058761596679688e+01 -1.223528099060058594e+01 2.563178837299346924e-01 7.569049358367919922e+00 2.347610235214233398e+00 3.382783174514770508e+00
3.357000000000000000e+03 5.470811080932617188e+01 -8.934045791625976562e+00 3.415430068969726562e+00 1.138908767700195312e+01 4.441355705261230469e+00 -1.491074800491333008e+00
3.358000000000000000e+03 5.161161422729492188e+01 -1.153503990173339844e+01 -2.486166208982467651e-01 1.179300975799560547e+01 3.463317871093750000e+00 1.406803846359252930e+00
3.359000000000000000e+03 5.512390136718750000e+01 -5.684010028839111328e+00 5.091097354888916016e+00 1.056573867797851562e+01 4.697051048278808594e+00 6.050432324409484863e-01
3.360000000000000000e+03 5.562475204467773438e+01 -5.138014316558837891e+00 4.430689334869384766e+00 1.028372573852539062e+01 4.414324760437011719e+00 8.625648021697998047e-01
3.361000000000000000e+03 5.071490097045898438e+01 -1.193788146972656250e+01 -3.045451641082763672e-01 1.052183723449707031e+01 3.065187454223632812e+00 2.340259075164794922e+00
3.362000000000000000e+03 5.035370254516601562e+01 -1.160242652893066406e+01 -1.681735366582870483e-01 1.033757019042968750e+01 3.050818920135498047e+00 2.836801767349243164e+00
3.363000000000000000e+03 5.098872756958007812e+01 -1.159649848937988281e+01 -2.785693407058715820e-01 1.118011569976806641e+01 3.270463943481445312e+00 2.086661577224731445e+00
3.364000000000000000e+03 5.472501754760742188e+01 -6.256885051727294922e+00 5.598160266876220703e+00 1.083892631530761719e+01 4.931126117706298828e+00 1.370837986469268799e-01
3.365000000000000000e+03 4.762236404418945312e+01 -4.203091189265251160e-02 7.172899842262268066e-01 5.645765304565429688e+00 1.908916592597961426e+00 -3.151842117309570312e+00
3.366000000000000000e+03 4.734988403320312500e+01 -1.312474441528320312e+01 5.561755895614624023e-01 5.313480854034423828e+00 1.760897040367126465e+00 3.074069261550903320e+00
3.367000000000000000e+03 5.367575454711914062e+01 -1.034386157989501953e+01 1.396458029747009277e+00 1.226955032348632812e+01 4.099802494049072266e+00 -9.711759686470031738e-01
3.368000000000000000e+03 5.249548339843750000e+01 -2.378724813461303711e+00 7.454488873481750488e-01 1.304175662994384766e+01 4.136161804199218750e+00 5.886058136820793152e-02
3.369000000000000000e+03 5.519310760498046875e+01 -6.116793155670166016e+00 5.140406131744384766e+00 1.047255802154541016e+01 4.683889389038085938e+00 2.372743785381317139e-01
3.370000000000000000e+03 5.242118453979492188e+01 -1.553031563758850098e+00 2.516614794731140137e-01 1.220538616180419922e+01 3.737114429473876953e+00 -4.017712771892547607e-01
3.371000000000000000e+03 4.755529022216796875e+01 5.157609581947326660e-01 6.200858354568481445e-01 5.634380817413330078e+00 1.876340031623840332e+00 -2.997376918792724609e+00
3.372000000000000000e+03 4.693360519409179688e+01 -1.425543689727783203e+01 4.249692559242248535e-01 4.931775093078613281e+00 1.607023358345031738e+00 2.735226631164550781e+00
3.373000000000000000e+03 5.287724685668945312e+01 -1.086281394958496094e+01 5.392130613327026367e-01 1.248214721679687500e+01 3.906408071517944336e+00 -1.606566458940505981e-01
3.374000000000000000e+03 5.205938720703125000e+01 -1.048405265808105469e+01 3.634251058101654053e-01 1.321574974060058594e+01 4.073752403259277344e+00 4.878124296665191650e-01
3.375000000000000000e+03 4.614258956909179688e+01 1.687709808349609375e+00 6.784981489181518555e-01 4.288551330566406250e+00 1.490114927291870117e+00 -2.484639883041381836e+00
3.376000000000000000e+03 4.661115264892578125e+01 1.609411358833312988e+00 6.121671199798583984e-01 4.730589866638183594e+00 1.602827191352844238e+00 -2.603188514709472656e+00
3.377000000000000000e+03 4.736433410644531250e+01 -1.622401237487792969e+01 6.697011739015579224e-02 5.492050647735595703e+00 1.667706251144409180e+00 2.383055925369262695e+00
3.378000000000000000e+03 4.678175354003906250e+01 2.726055145263671875e+00 3.884771168231964111e-01 4.990088939666748047e+00 1.613569855690002441e+00 -2.374741554260253906e+00
3.379000000000000000e+03 4.259109115600585938e+01 3.789914131164550781e+00 6.405197381973266602e-01 2.481457948684692383e+00 9.365932941436767578e-01 -1.438264489173889160e+00
3.380000000000000000e+03 4.033177947998046875e+01 6.323554039001464844e+00 4.767476022243499756e-01 2.144169807434082031e+00 7.862752079963684082e-01 -9.755145311355590820e-01
3.381000000000000000e+03 4.731312179565429688e+01 -1.740442085266113281e+01 -2.613320574164390564e-02 5.465585231781005859e+00 1.631835579872131348e+00 2.169610977172851562e+00
3.382000000000000000e+03 4.506246185302734375e+01 3.774969339370727539e+00 5.206255912780761719e-01 3.868155241012573242e+00 1.316634178161621094e+00 -2.006197214126586914e+00
3.383000000000000000e+03 4.241756439208984375e+01 6.076780796051025391e+00 4.625984132289886475e-01 2.910278797149658203e+00 1.011863231658935547e+00 -1.358946442604064941e+00
3.384000000000000000e+03 3.720619964599609375e+01 7.035221099853515625e+00 3.920190334320068359e-01 1.458582401275634766e+00 5.551804304122924805e-01 -5.066579580307006836e-01
3.385000000000000000e+03 6.276702117919921875e+01 -9.891675949096679688e+00 1.590779900550842285e+00 8.165016174316406250e+00 2.926738739013671875e+00 -6.987527012825012207e-01
3.386000000000000000e+03 6.448301696777343750e+01 -1.039240646362304688e+01 1.240085124969482422e+00 7.934976577758789062e+00 2.752518415451049805e+00 -6.778840422630310059e-01
3.387000000000000000e+03 6.365655899047851562e+01 -3.468977510929107666e-01 9.997602701187133789e-01 8.167390823364257812e+00 2.750145196914672852e+00 9.738926291465759277e-01
3.388000000000000000e+03 6.271918869018554688e+01 2.278806686401367188e+00 4.693096876144409180e-01 8.394286155700683594e+00 2.659078836441040039e+00 1.075321555137634277e+00
3.389000000000000000e+03 3.621186828613281250e+01 7.058877944946289062e+00 3.473041057586669922e-01 1.280437588691711426e+00 4.883224964141845703e-01 -3.835871219635009766e-01
3.390000000000000000e+03 3.434208297729492188e+01 9.738584518432617188e+00 2.357685267925262451e-01 1.295065879821777344e+00 4.592503309249877930e-01 -2.856867015361785889e-01
3.391000000000000000e+03 3.230267333984375000e+01 6.433381557464599609e+00 1.357576400041580200e-01 6.228257417678833008e-01 2.275750190019607544e-01 1.079912036657333374e-01
3.392000000000000000e+03 3.713228988647460938e+01 1.001215362548828125e+01 2.969448566436767578e-01 1.840681791305541992e+00 6.412879824638366699e-01 -5.864903926849365234e-01
3.393000000000000000e+03 3.481127166748046875e+01 1.100157356262207031e+01 2.215236723423004150e-01 1.462196350097656250e+00 5.051159858703613281e-01 -3.604784607887268066e-01
3.394000000000000000e+03 6.359802627563476562e+01 -6.665009975433349609e+00 1.747985839843750000e+00 7.923604011535644531e+00 2.901476860046386719e+00 -5.166836455464363098e-02
3.395000000000000000e+03 6.425934600830078125e+01 -7.790191650390625000e+00 1.595295906066894531e+00 7.858365535736083984e+00 2.836098432540893555e+00 -2.650552988052368164e-01
3.396000000000000000e+03 6.398534011840820312e+01 -4.003275871276855469e+00 1.578827261924743652e+00 7.922648906707763672e+00 2.850442886352539062e+00 4.901521503925323486e-01
3.397000000000000000e+03 3.264619445800781250e+01 8.954922676086425781e+00 1.698619425296783447e-01 9.182814955711364746e-01 3.264430165290832520e-01 -6.960699707269668579e-02
3.398000000000000000e+03 6.303952407836914062e+01 -1.586627769470214844e+01 3.054179549217224121e-01 8.347023963928222656e+00 2.595732450485229492e+00 -1.007258057594299316e+00
3.399000000000000000e+03 6.138348007202148438e+01 -9.403084516525268555e-01 1.307326316833496094e+00 8.544620513916015625e+00 2.955584049224853516e+00 1.053878664970397949e+00
3.400000000000000000e+03 3.130253982543945312e+01 5.719058036804199219e+00 7.879778742790222168e-02 4.670361876487731934e-01 1.637502014636993408e-01 2.200445532798767090e-01
3.401000000000000000e+03 6.136865997314453125e+01 -1.780660057067871094e+01 -1.008588299155235291e-01 8.521031379699707031e+00 2.526051521301269531e+00 -8.652419447898864746e-01
3.402000000000000000e+03 6.230742645263671875e+01 -1.861765861511230469e+01 -1.463659256696701050e-01 8.380469322204589844e+00 2.470231056213378906e+00 -8.712776899337768555e-01
3.403000000000000000e+03 6.241757202148437500e+01 1.030372500419616699e+00 7.541280388832092285e-01 8.419685363769531250e+00 2.752144098281860352e+00 1.075654983520507812e+00
3.404000000000000000e+03 6.198638916015625000e+01 -9.624366462230682373e-02 1.025005459785461426e+00 8.460799217224121094e+00 2.845741510391235352e+00 1.063236951828002930e+00
3.405000000000000000e+03 6.395106506347656250e+01 5.759600639343261719e+00 -2.279786393046379089e-02 8.207965850830078125e+00 2.455550432205200195e+00 9.926063418388366699e-01
3.406000000000000000e+03 6.347584915161132812e+01 4.624912261962890625e+00 9.444257616996765137e-02 8.284975051879882812e+00 2.513825416564941406e+00 1.023772478103637695e+00
3.407000000000000000e+03 3.174313354492187500e+01 1.792735481262207031e+01 6.999444961547851562e-02 1.375341773033142090e+00 4.336008727550506592e-01 -3.012887835502624512e-01
3.408000000000000000e+03 4.081581497192382812e+01 -2.078285026550292969e+01 4.214873611927032471e-01 2.464571952819824219e+00 8.658177852630615234e-01 1.154724836349487305e+00
3.409000000000000000e+03 3.167273139953613281e+01 1.489161586761474609e+01 5.470116809010505676e-02 1.218031167984008789e+00 3.818196952342987061e-01 -2.222393900156021118e-01
3.410000000000000000e+03 3.692635345458984375e+01 -2.213835525512695312e+01 4.381756484508514404e-01 1.705039978027343750e+00 6.429646611213684082e-01 6.555296182632446289e-01
3.411000000000000000e+03 3.951158142089843750e+01 6.972608566284179688e+00 4.555727541446685791e-01 2.027710914611816406e+00 7.449850440025329590e-01 -8.596700429916381836e-01
3.412000000000000000e+03 3.971862792968750000e+01 4.730594635009765625e+00 5.591830611228942871e-01 1.658101439476013184e+00 6.651853322982788086e-01 -8.429274559020996094e-01
3.413000000000000000e+03 4.550958251953125000e+01 -1.846216773986816406e+01 1.798052191734313965e-01 4.342216014862060547e+00 1.356606364250183105e+00 1.924189686775207520e+00
3.414000000000000000e+03 4.433302307128906250e+01 -1.884084320068359375e+01 3.007921576499938965e-01 3.696043968200683594e+00 1.199050784111022949e+00 1.737105727195739746e+00
3.415000000000000000e+03 6.410819244384765625e+01 -1.779963302612304688e+01 3.266847506165504456e-02 8.204710006713867188e+00 2.471213579177856445e+00 -9.584311246871948242e-01
3.416000000000000000e+03 6.220678710937500000e+01 -1.683336257934570312e+01 9.165591001510620117e-02 8.463542938232421875e+00 2.566559553146362305e+00 -9.589452147483825684e-01
3.417000000000000000e+03 6.275115585327148438e+01 6.538041114807128906e+00 -1.668477803468704224e-01 8.295863151550292969e+00 2.438704490661621094e+00 9.142495989799499512e-01
3.418000000000000000e+03 6.548056793212890625e+01 -1.570831871032714844e+01 3.511710464954376221e-01 8.027766227722167969e+00 2.513681173324584961e+00 -9.827516674995422363e-01
3.419000000000000000e+03 6.085897064208984375e+01 -2.304671096801757812e+01 -5.755573511123657227e-01 8.101363182067871094e+00 2.257741689682006836e+00 -4.930621087551116943e-01
3.420000000000000000e+03 6.443513488769531250e+01 -2.885180091857910156e+01 -5.080471038818359375e-01 7.764424324035644531e+00 2.176913261413574219e+00 -4.555200934410095215e-01
3.421000000000000000e+03 4.800465393066406250e+01 2.737493440508842468e-02 6.051692366600036621e-01 6.136981964111328125e+00 2.022645235061645508e+00 -3.171498537063598633e+00
3.422000000000000000e+03 4.816578674316406250e+01 -1.413726806640625000e+01 1.332531124353408813e-01 6.337049484252929688e+00 1.941090822219848633e+00 2.849959611892700195e+00
3.423000000000000000e+03 5.519099426269531250e+01 -7.424914360046386719e+00 4.822283744812011719e+00 1.055666065216064453e+01 4.613683223724365234e+00 -7.835364341735839844e-01
3.424000000000000000e+03 5.219130706787109375e+01 -1.144513130187988281e+01 -4.917687177658081055e-02 1.205234909057617188e+01 3.600951671600341797e+00 7.635889649391174316e-01
3.425000000000000000e+03 5.470939636230468750e+01 -3.319496154785156250e+00 2.832631587982177734e+00 1.138908672332763672e+01 4.266515254974365234e+00 1.458199501037597656e+00
3.426000000000000000e+03 5.291930770874023438e+01 -2.616343975067138672e+00 1.232743620872497559e+00 1.295154380798339844e+01 4.255286216735839844e+00 5.911793112754821777e-01
3.427000000000000000e+03 5.474626159667968750e+01 -7.706797122955322266e+00 4.864918231964111328e+00 1.105166053771972656e+01 4.774973869323730469e+00 -1.097786545753479004e+00
3.428000000000000000e+03 5.396571731567382812e+01 -2.182147979736328125e+00 1.400293946266174316e+00 1.189403152465820312e+01 3.988297700881958008e+00 9.820107221603393555e-01
3.429000000000000000e+03 5.340498733520507812e+01 -2.866698741912841797e+00 1.805066347122192383e+00 1.271598625183105469e+01 4.356315612792968750e+00 1.086367011070251465e+00
3.430000000000000000e+03 5.261771011352539062e+01 -2.097458839416503906e+00 6.052060723304748535e-01 1.265725231170654297e+01 3.978737592697143555e+00 -4.507774952799081802e-03
3.431000000000000000e+03 5.522322845458984375e+01 -3.270606517791748047e+00 2.813728809356689453e+00 1.093537902832031250e+01 4.124732494354248047e+00 1.415937185287475586e+00
3.432000000000000000e+03 5.543451309204101562e+01 -8.782132148742675781e+00 3.478333711624145508e+00 1.068670845031738281e+01 4.249512672424316406e+00 -1.315103888511657715e+00
3.433000000000000000e+03 4.947130203247070312e+01 -1.228130817413330078e+00 3.147579133510589600e-01 8.915017127990722656e+00 2.768932580947875977e+00 -3.427225828170776367e+00
3.434000000000000000e+03 5.388156127929687500e+01 -2.684126138687133789e+00 1.870250821113586426e+00 1.215299606323242188e+01 4.206974029541015625e+00 1.173391342163085938e+00
3.435000000000000000e+03 5.528676986694335938e+01 -6.518826484680175781e+00 5.091725349426269531e+00 1.038891601562500000e+01 4.644192218780517578e+00 -1.122325882315635681e-01
3.436000000000000000e+03 4.853481674194335938e+01 -1.376582145690917969e+00 8.307737112045288086e-01 7.011640548706054688e+00 2.352724313735961914e+00 -3.742477655410766602e+00
3.437000000000000000e+03 5.291114807128906250e+01 -1.128327274322509766e+01 3.035976290702819824e-01 1.213699722290039062e+01 3.732178449630737305e+00 1.413437910377979279e-02
3.438000000000000000e+03 5.204702758789062500e+01 -1.082928085327148438e+01 1.335989683866500854e-01 1.267031383514404297e+01 3.841173887252807617e+00 7.046952843666076660e-01
3.439000000000000000e+03 4.821286010742187500e+01 2.898859977722167969e+00 5.082503706216812134e-02 6.290007591247558594e+00 1.902249813079833984e+00 -2.369324445724487305e+00
3.440000000000000000e+03 4.702961349487304688e+01 1.591312170028686523e+00 5.327045321464538574e-01 5.128490447998046875e+00 1.698358416557312012e+00 -2.679573774337768555e+00
3.441000000000000000e+03 4.779767990112304688e+01 -1.359379673004150391e+01 3.268653452396392822e-01 5.917848587036132812e+00 1.873414158821105957e+00 2.981534242630004883e+00
3.442000000000000000e+03 4.643775177001953125e+01 -1.599635601043701172e+01 2.643292844295501709e-01 4.732953548431396484e+00 1.499184846878051758e+00 2.374117612838745117e+00
3.443000000000000000e+03 4.668918228149414062e+01 2.156826734542846680e+00 5.029628872871398926e-01 4.905445098876953125e+00 1.622522354125976562e+00 -2.500181436538696289e+00
3.444000000000000000e+03 4.625167465209960938e+01 2.253401994705200195e+00 5.641035437583923340e-01 4.502099990844726562e+00 1.519861102104187012e+00 -2.409937143325805664e+00
3.445000000000000000e+03 4.604684448242187500e+01 -1.709993171691894531e+01 2.110491544008255005e-01 4.551457881927490234e+00 1.428752064704895020e+00 2.161146640777587891e+00
3.446000000000000000e+03 4.672075653076171875e+01 -1.508132171630859375e+01 3.311139345169067383e-01 4.847497463226318359e+00 1.553583502769470215e+00 2.547064542770385742e+00
3.447000000000000000e+03 4.209199523925781250e+01 5.078125953674316406e+00 5.648921132087707520e-01 2.594911575317382812e+00 9.479411244392395020e-01 -1.334693670272827148e+00
3.448000000000000000e+03 4.606239318847656250e+01 4.615265846252441406e+00 2.763055562973022461e-01 4.616400241851806641e+00 1.467811703681945801e+00 -1.988936901092529297e+00
3.449000000000000000e+03 4.557289886474609375e+01 3.293498516082763672e+00 5.141902565956115723e-01 4.123145580291748047e+00 1.391200780868530273e+00 -2.152171373367309570e+00
3.450000000000000000e+03 4.442977142333984375e+01 4.360956192016601562e+00 5.109935402870178223e-01 3.552915334701538086e+00 1.219172596931457520e+00 -1.819831252098083496e+00
3.451000000000000000e+03 4.504786682128906250e+01 4.891331195831298828e+00 3.744706809520721436e-01 4.033038616180419922e+00 1.322252750396728516e+00 -1.858578801155090332e+00
3.452000000000000000e+03 4.114078903198242188e+01 5.615964412689208984e+00 5.300873517990112305e-01 2.295804738998413086e+00 8.477676510810852051e-01 -1.127509951591491699e+00
3.453000000000000000e+03 6.362509155273437500e+01 -5.678211688995361328e+00 1.755380630493164062e+00 7.923076152801513672e+00 2.903537034988403320e+00 1.739913523197174072e-01
3.454000000000000000e+03 3.658160400390625000e+01 8.848983764648437500e+00 3.345378041267395020e-01 1.575672984123229980e+00 5.730632543563842773e-01 -4.938869774341583252e-01
3.455000000000000000e+03 3.575146102905273438e+01 8.174491882324218750e+00 3.220346868038177490e-01 1.333706498146057129e+00 4.967223703861236572e-01 -3.753543794155120850e-01
3.456000000000000000e+03 6.269489669799804688e+01 -6.750387668609619141e+00 1.973552465438842773e+00 8.045554161071777344e+00 3.005732059478759766e+00 -5.867285653948783875e-02
3.457000000000000000e+03 4.377590560913085938e+01 5.178029537200927734e+00 4.814375340938568115e-01 3.348810195922851562e+00 1.149074316024780273e+00 -1.632652759552001953e+00
3.458000000000000000e+03 6.303358078002929688e+01 -9.191195487976074219e+00 1.665467023849487305e+00 8.090708732604980469e+00 2.926852703094482422e+00 -5.853440761566162109e-01
3.459000000000000000e+03 6.296241760253906250e+01 -1.173649978637695312e+01 1.164880037307739258e+00 8.250283241271972656e+00 2.824548959732055664e+00 -9.186155200004577637e-01
3.460000000000000000e+03 6.136912918090820312e+01 1.605817556381225586e+00 6.144784688949584961e-01 8.629330635070800781e+00 2.773142814636230469e+00 1.096540689468383789e+00
3.461000000000000000e+03 6.179126739501953125e+01 -1.357746601104736328e+01 7.625946998596191406e-01 8.544306755065917969e+00 2.792070388793945312e+00 -1.051727414131164551e+00
3.462000000000000000e+03 6.279442214965820312e+01 -7.507167339324951172e+00 1.933873534202575684e+00 8.038896560668945312e+00 2.991830825805664062e+00 -2.454033493995666504e-01
3.463000000000000000e+03 6.247373580932617188e+01 -8.598134994506835938e+00 1.836032867431640625e+00 8.137939453125000000e+00 2.992191553115844727e+00 -4.945949614048004150e-01
3.464000000000000000e+03 3.758903884887695312e+01 8.186963081359863281e+00 3.736590147018432617e-01 1.704904079437255859e+00 6.235688924789428711e-01 -6.013136506080627441e-01
3.465000000000000000e+03 6.202717208862304688e+01 -1.790588140487670898e+00 1.446786522865295410e+00 8.363591194152832031e+00 2.943113327026367188e+00 9.335200786590576172e-01
3.466000000000000000e+03 6.141150665283203125e+01 -1.606896209716796875e+01 1.833292990922927856e-01 8.591765403747558594e+00 2.632528305053710938e+00 -9.700136184692382812e-01
3.467000000000000000e+03 5.956451034545898438e+01 1.331033229827880859e+01 -6.298623681068420410e-01 7.734712123870849609e+00 2.131454944610595703e+00 3.108187019824981689e-01
3.468000000000000000e+03 6.301046752929687500e+01 -3.877055644989013672e+00 1.726230978965759277e+00 8.077637672424316406e+00 2.941160440444946289e+00 5.682195425033569336e-01
3.469000000000000000e+03 6.362701416015625000e+01 -2.077510595321655273e+00 1.335020065307617188e+00 8.072036743164062500e+00 2.822117090225219727e+00 7.909441590309143066e-01
3.470000000000000000e+03 3.303509521484375000e+01 1.045008087158203125e+01 1.587805896997451782e-01 1.110332727432250977e+00 3.807339668273925781e-01 -1.608424782752990723e-01
3.471000000000000000e+03 6.218264007568359375e+01 -1.508815765380859375e+01 4.227785468101501465e-01 8.481851577758789062e+00 2.671388864517211914e+00 -1.027481555938720703e+00
3.472000000000000000e+03 6.346054458618164062e+01 -9.790784835815429688e+00 1.488678336143493652e+00 8.050493240356445312e+00 2.861751317977905273e+00 -6.470911502838134766e-01
3.473000000000000000e+03 6.366635513305664062e+01 -1.065835857391357422e+01 1.323951244354248047e+00 8.060268402099609375e+00 2.815265893936157227e+00 -7.481636404991149902e-01
3.474000000000000000e+03 6.267874145507812500e+01 -1.394466495513916016e+01 6.644247174263000488e-01 8.381536483764648438e+00 2.713788270950317383e+00 -1.028871178627014160e+00
3.475000000000000000e+03 3.504198837280273438e+01 1.225587654113769531e+01 1.683555990457534790e-01 1.638898611068725586e+00 5.421762466430664062e-01 -4.029287695884704590e-01
3.476000000000000000e+03 3.279254150390625000e+01 1.326913642883300781e+01 1.080917865037918091e-01 1.302792072296142578e+00 4.232651591300964355e-01 -2.417646944522857666e-01
3.477000000000000000e+03 6.164802551269531250e+01 2.793308734893798828e+00 3.423829376697540283e-01 8.566560745239257812e+00 2.672683238983154297e+00 1.059029459953308105e+00
3.478000000000000000e+03 6.229474258422851562e+01 5.277636051177978516e+00 -4.152421280741691589e-02 8.393060684204101562e+00 2.505460977554321289e+00 9.581943154335021973e-01
3.479000000000000000e+03 4.482848739624023438e+01 -2.009531784057617188e+01 1.629754155874252319e-01 4.092536926269531250e+00 1.276653647422790527e+00 1.646166920661926270e+00
3.480000000000000000e+03 4.389882659912109375e+01 -2.192520141601562500e+01 1.599141657352447510e-01 3.786745071411132812e+00 1.183997750282287598e+00 1.413118481636047363e+00
3.481000000000000000e+03 6.139235687255859375e+01 7.254732131958007812e+00 -3.096437156200408936e-01 8.349191665649414062e+00 2.411864519119262695e+00 7.883396148681640625e-01
3.482000000000000000e+03 6.069720840454101562e+01 1.096925640106201172e+01 -5.616893768310546875e-01 8.027190208435058594e+00 2.239650249481201172e+00 5.139479041099548340e-01
3.483000000000000000e+03 5.739362716674804688e+01 1.239329719543457031e+01 -6.867305636405944824e-01 7.649529933929443359e+00 2.088839769363403320e+00 8.578756451606750488e-02
3.484000000000000000e+03 3.861810684204101562e+01 7.608495712280273438e+00 4.201585352420806885e-01 1.866739392280578613e+00 6.860693693161010742e-01 -7.377628684043884277e-01
3.485000000000000000e+03 5.996381378173828125e+01 -1.461165618896484375e+01 4.396429657936096191e-01 8.906369209289550781e+00 2.803803682327270508e+00 -1.006992697715759277e+00
3.486000000000000000e+03 6.043809890747070312e+01 -2.081453323364257812e+01 -4.882567524909973145e-01 8.319469451904296875e+00 2.349363803863525391e+00 -5.745837688446044922e-01
3.487000000000000000e+03 4.058310317993164062e+01 -2.252062797546386719e+01 3.805594742298126221e-01 2.588545799255371094e+00 8.907315731048583984e-01 1.037111163139343262e+00
3.488000000000000000e+03 4.517826461791992188e+01 -2.487959098815917969e+01 -5.396071448922157288e-02 4.463309764862060547e+00 1.322804808616638184e+00 1.155619978904724121e+00
3.489000000000000000e+03 4.926959228515625000e+01 -8.313122987747192383e-01 3.138102293014526367e-01 8.332926750183105469e+00 2.594021320343017578e+00 -3.336858034133911133e+00
3.490000000000000000e+03 5.458189010620117188e+01 -3.777838706970214844e+00 3.335685253143310547e+00 1.148109245300292969e+01 4.445033073425292969e+00 1.506371617317199707e+00
3.491000000000000000e+03 5.520107269287109375e+01 -2.782585382461547852e+00 2.353569984436035156e+00 1.098659133911132812e+01 4.002048492431640625e+00 1.371206045150756836e+00
3.492000000000000000e+03 5.067218399047851562e+01 -8.710432052612304688e-01 -1.365584880113601685e-01 1.043090152740478516e+01 3.088303089141845703e+00 -2.322428941726684570e+00
3.493000000000000000e+03 5.091846084594726562e+01 -4.979951679706573486e-01 -2.312995791435241699e-01 1.038780689239501953e+01 3.046952247619628906e+00 -2.085146665573120117e+00
3.494000000000000000e+03 4.935497665405273438e+01 -1.250586795806884766e+01 2.132949233055114746e-02 8.253606796264648438e+00 2.482481002807617188e+00 3.146297693252563477e+00
3.495000000000000000e+03 5.519744491577148438e+01 -8.082662582397460938e+00 4.238090038299560547e+00 1.075203514099121094e+01 4.497037887573242188e+00 -1.175434350967407227e+00
3.496000000000000000e+03 5.138331222534179688e+01 -1.095743060111999512e+00 -1.454872190952301025e-01 1.142896938323974609e+01 3.385044813156127930e+00 -1.613306879997253418e+00
3.497000000000000000e+03 5.250045776367187500e+01 -1.127662754058837891e+01 1.224051043391227722e-01 1.221209049224853516e+01 3.700348615646362305e+00 4.066374003887176514e-01
3.498000000000000000e+03 5.093467330932617188e+01 -1.059827208518981934e+00 -1.496731787919998169e-01 1.089056396484375000e+01 3.222267389297485352e+00 -2.137668371200561523e+00
3.499000000000000000e+03 5.334318542480468750e+01 -1.130668735504150391e+01 4.924705028533935547e-01 1.192783451080322266e+01 3.726091384887695312e+00 -2.982962131500244141e-01
3.500000000000000000e+03 5.331021499633789062e+01 -1.084586429595947266e+01 7.865676283836364746e-01 1.228103923797607422e+01 3.920282125473022461e+00 -5.101729035377502441e-01
3.501000000000000000e+03 5.156927490234375000e+01 -1.418517351150512695e+00 -7.370936125516891479e-02 1.193280315399169922e+01 3.557728052139282227e+00 -1.419620275497436523e+00
3.502000000000000000e+03 5.263018798828125000e+01 -1.099315285682678223e+00 1.235213577747344971e-01 1.176241397857666016e+01 3.565780401229858398e+00 -3.958787918090820312e-01
3.503000000000000000e+03 5.437651062011718750e+01 -9.775238037109375000e+00 2.332892894744873047e+00 1.174240207672119141e+01 4.222588539123535156e+00 -1.375764608383178711e+00
3.504000000000000000e+03 5.496686172485351562e+01 -9.567687034606933594e+00 2.715793132781982422e+00 1.122935676574707031e+01 4.183545112609863281e+00 -1.441769838333129883e+00
3.505000000000000000e+03 5.275021362304687500e+01 -1.740181565284729004e+00 4.908905029296875000e-01 1.230205059051513672e+01 3.837882280349731445e+00 -3.159632161259651184e-02
3.506000000000000000e+03 5.302452087402343750e+01 -1.354571461677551270e+00 4.002402126789093018e-01 1.191179466247558594e+01 3.693610429763793945e+00 4.592680186033248901e-02
3.507000000000000000e+03 5.532789611816406250e+01 -3.755333423614501953e+00 3.256891489028930664e+00 1.080588340759277344e+01 4.218832492828369141e+00 1.393476128578186035e+00
3.508000000000000000e+03 4.988102722167968750e+01 -1.267131042480468750e+01 -1.934279650449752808e-01 8.967211723327636719e+00 2.632135152816772461e+00 2.787615537643432617e+00
3.509000000000000000e+03 5.136434555053710938e+01 -1.190996360778808594e+01 -3.443942070007324219e-01 1.122014522552490234e+01 3.262725353240966797e+00 1.719315409660339355e+00
3.510000000000000000e+03 5.287019348144531250e+01 -2.223794460296630859e+00 8.350527286529541016e-01 1.259343338012695312e+01 4.028545856475830078e+00 2.869046032428741455e-01
3.511000000000000000e+03 5.360555267333984375e+01 -3.104068040847778320e+00 2.245270967483520508e+00 1.252805995941162109e+01 4.431999206542968750e+00 1.289541602134704590e+00
3.512000000000000000e+03 5.198086929321289062e+01 -1.179510307312011719e+01 -2.292356044054031372e-01 1.166520500183105469e+01 3.430790662765502930e+00 1.073439717292785645e+00
3.513000000000000000e+03 5.563218307495117188e+01 -5.585039615631103516e+00 4.658172130584716797e+00 1.021679306030273438e+01 4.462489604949951172e+00 6.077150702476501465e-01
3.514000000000000000e+03 5.724582672119140625e+01 -5.774280071258544922e+00 3.750894069671630859e+00 9.339240074157714844e+00 3.927040338516235352e+00 3.400123715400695801e-01
3.515000000000000000e+03 5.311830902099609375e+01 -2.386784791946411133e+00 1.140802025794982910e+00 1.264332866668701172e+01 4.135239601135253906e+00 6.255646347999572754e-01
3.516000000000000000e+03 5.431607437133789062e+01 -2.743936300277709961e+00 2.096494913101196289e+00 1.175414657592773438e+01 4.155192375183105469e+00 1.303803920745849609e+00
3.517000000000000000e+03 5.328115081787109375e+01 -2.076395750045776367e+00 1.008820176124572754e+00 1.232538127899169922e+01 4.000260353088378906e+00 5.931279063224792480e-01
3.518000000000000000e+03 4.978797912597656250e+01 -1.308332633972167969e+01 -2.133511453866958618e-01 8.567520141601562500e+00 2.506250619888305664e+00 2.705704450607299805e+00
3.519000000000000000e+03 4.741635131835937500e+01 1.756374835968017578e+00 4.159055650234222412e-01 5.538339614868164062e+00 1.786273598670959473e+00 -2.677895784378051758e+00
3.520000000000000000e+03 4.768983078002929688e+01 -1.444867801666259766e+01 2.130535840988159180e-01 5.798239707946777344e+00 1.803387999534606934e+00 2.761053323745727539e+00
3.521000000000000000e+03 4.709733963012695312e+01 2.060862302780151367e+00 4.392125606536865234e-01 5.280038356781005859e+00 1.715775251388549805e+00 -2.572162151336669922e+00
3.522000000000000000e+03 5.566283798217773438e+01 -6.005589008331298828e+00 4.761550903320312500e+00 1.014625549316406250e+01 4.472342014312744141e+00 2.983451187610626221e-01
3.523000000000000000e+03 4.859333801269531250e+01 -1.272586917877197266e+01 2.370767742395401001e-01 7.073645114898681641e+00 2.193216562271118164e+00 3.243877649307250977e+00
3.524000000000000000e+03 5.176677703857421875e+01 -1.218662071228027344e+01 -3.526693582534790039e-01 1.120878505706787109e+01 3.256834745407104492e+00 1.351369261741638184e+00
3.525000000000000000e+03 4.721106338500976562e+01 -1.477005195617675781e+01 2.754700183868408203e-01 5.279519557952880859e+00 1.666496753692626953e+00 2.657561302185058594e+00
3.526000000000000000e+03 5.554867935180664062e+01 -7.730100154876708984e+00 4.419146060943603516e+00 1.037882137298583984e+01 4.439390182495117188e+00 -9.070029258728027344e-01
3.527000000000000000e+03 5.404280090332031250e+01 -9.596796035766601562e+00 2.456506013870239258e+00 1.206309795379638672e+01 4.355881214141845703e+00 -1.380462408065795898e+00
3.528000000000000000e+03 4.651038742065429688e+01 -1.798732757568359375e+01 7.208466529846191406e-02 4.923220157623291016e+00 1.498591423034667969e+00 2.047388076782226562e+00
3.529000000000000000e+03 5.540312576293945312e+01 -6.879024505615234375e+00 4.941401958465576172e+00 1.032713890075683594e+01 4.580562591552734375e+00 -3.982791900634765625e-01
3.530000000000000000e+03 5.585044097900390625e+01 -6.747016906738281250e+00 4.644336223602294922e+00 1.003807735443115234e+01 4.404724121093750000e+00 -2.611276507377624512e-01
3.531000000000000000e+03 4.635239028930664062e+01 2.748666524887084961e+00 4.628636837005615234e-01 4.657709598541259766e+00 1.536172032356262207e+00 -2.347235202789306641e+00
3.532000000000000000e+03 4.754405593872070312e+01 5.843594074249267578e+00 -7.037800550460815430e-02 5.546188831329345703e+00 1.642743229866027832e+00 -1.806924462318420410e+00
3.533000000000000000e+03 4.699027252197265625e+01 4.256737709045410156e+00 1.616784632205963135e-01 5.257387161254882812e+00 1.625719785690307617e+00 -2.129000902175903320e+00
3.534000000000000000e+03 4.715665435791015625e+01 -1.895264625549316406e+01 -1.023830771446228027e-01 5.356473922729492188e+00 1.576227307319641113e+00 1.913805723190307617e+00
3.535000000000000000e+03 4.566243362426757812e+01 5.242561340332031250e+00 2.746102809906005859e-01 4.416139602661132812e+00 1.407225012779235840e+00 -1.894843697547912598e+00
3.536000000000000000e+03 4.434931182861328125e+01 6.653195858001708984e+00 2.871875166893005371e-01 3.849819183349609375e+00 1.241101980209350586e+00 -1.597943067550659180e+00
3.537000000000000000e+03 4.679035568237304688e+01 -1.668713760375976562e+01 1.330217868089675903e-01 5.040049552917480469e+00 1.551921367645263672e+00 2.275626897811889648e+00
3.538000000000000000e+03 6.264328384399414062e+01 -5.911718368530273438e+00 1.986770749092102051e+00 8.052971839904785156e+00 3.011922597885131836e+00 1.207911372184753418e-01
3.539000000000000000e+03 6.205927658081054688e+01 -7.809800624847412109e+00 2.064688682556152344e+00 8.176817893981933594e+00 3.072452068328857422e+00 -3.380617499351501465e-01
3.540000000000000000e+03 5.477278900146484375e+01 -9.947973251342773438e+00 2.270359754562377930e+00 1.140614032745361328e+01 4.102950096130371094e+00 -1.378578662872314453e+00
3.541000000000000000e+03 6.201018142700195312e+01 -9.938567161560058594e+00 1.677170872688293457e+00 8.290212631225585938e+00 2.990215063095092773e+00 -7.520886659622192383e-01
3.542000000000000000e+03 5.963309097290039062e+01 -1.777518272399902344e+01 -2.309271246194839478e-01 8.699164390563964844e+00 2.540471076965332031e+00 -7.216730117797851562e-01
3.543000000000000000e+03 6.215995025634765625e+01 -1.083417224884033203e+01 1.460638761520385742e+00 8.330337524414062500e+00 2.937292814254760742e+00 -8.723761439323425293e-01
3.544000000000000000e+03 5.928272628784179688e+01 -1.976365089416503906e+01 -4.844737052917480469e-01 8.489734649658203125e+00 2.401578426361083984e+00 -5.059040188789367676e-01
3.545000000000000000e+03 6.130970764160156250e+01 -1.449664211273193359e+01 5.354831218719482422e-01 8.643419265747070312e+00 2.753670692443847656e+00 -1.042246937751770020e+00
3.546000000000000000e+03 6.288324737548828125e+01 -1.277926731109619141e+01 9.400060772895812988e-01 8.311015129089355469e+00 2.775306463241577148e+00 -9.903950691223144531e-01
3.547000000000000000e+03 6.456772613525390625e+01 -1.299685096740722656e+01 7.973960041999816895e-01 8.052317619323730469e+00 2.654913902282714844e+00 -9.201683998107910156e-01
3.548000000000000000e+03 6.382685089111328125e+01 -1.169147014617919922e+01 1.089132189750671387e+00 8.099528312683105469e+00 2.756598234176635742e+00 -8.663031458854675293e-01
3.549000000000000000e+03 6.104411697387695312e+01 5.515986084938049316e-01 8.682228326797485352e-01 8.682764053344726562e+00 2.865296125411987305e+00 1.108224987983703613e+00
3.550000000000000000e+03 6.261369323730468750e+01 -2.829431295394897461e+00 1.618121743202209473e+00 8.184910774230957031e+00 2.940909624099731445e+00 7.604845166206359863e-01
3.551000000000000000e+03 3.822470092773437500e+01 9.357446670532226562e+00 3.392972350120544434e-01 2.010511398315429688e+00 7.049426436424255371e-01 -7.021796107292175293e-01
3.552000000000000000e+03 3.553896331787109375e+01 1.537822914123535156e+01 1.232995837926864624e-01 2.005919933319091797e+00 6.387658715248107910e-01 -4.830319881439208984e-01
3.553000000000000000e+03 2.893528175354003906e+01 1.730329895019531250e+01 -1.265765726566314697e-02 8.757283687591552734e-01 2.589212059974670410e-01 -1.635616868734359741e-01
3.554000000000000000e+03 6.033844375610351562e+01 2.092517137527465820e+00 4.367364048957824707e-01 8.826701164245605469e+00 2.779031276702880859e+00 1.058786392211914062e+00
3.555000000000000000e+03 4.001696395874023438e+01 9.726281166076660156e+00 3.052854835987091064e-01 2.539644479751586914e+00 8.534789681434631348e-01 -9.095579981803894043e-01
3.556000000000000000e+03 4.092358398437500000e+01 7.126227378845214844e+00 4.513193964958190918e-01 2.472628355026245117e+00 8.771843910217285156e-01 -1.085875272750854492e+00
3.557000000000000000e+03 4.532860183715820312e+01 -2.136217308044433594e+01 4.207474738359451294e-02 4.387872219085693359e+00 1.328984141349792480e+00 1.531099200248718262e+00
3.558000000000000000e+03 4.439860916137695312e+01 -2.340147781372070312e+01 6.671334058046340942e-02 4.082659244537353516e+00 1.244811773300170898e+00 1.294543981552124023e+00
3.559000000000000000e+03 6.183581542968750000e+01 -5.202211380004882812e+00 2.162809371948242188e+00 8.220513343811035156e+00 3.114996671676635742e+00 3.197325766086578369e-01
3.560000000000000000e+03 6.220173645019531250e+01 -4.452722549438476562e+00 1.932441234588623047e+00 8.183556556701660156e+00 3.034799337387084961e+00 4.891337454319000244e-01
3.561000000000000000e+03 3.409434890747070312e+01 1.455118560791015625e+01 1.322645694017410278e-01 1.629680275917053223e+00 5.285834670066833496e-01 -3.698652386665344238e-01
3.562000000000000000e+03 3.923956680297851562e+01 8.649519920349121094e+00 3.699624240398406982e-01 2.183051586151123047e+00 7.659041881561279297e-01 -8.265828490257263184e-01
3.563000000000000000e+03 6.194125747680664062e+01 4.024614334106445312e+00 1.209335029125213623e-01 8.487819671630859375e+00 2.582625865936279297e+00 1.007715821266174316e+00
3.564000000000000000e+03 5.819866943359375000e+01 -2.095989418029785156e+01 -6.276023983955383301e-01 8.317664146423339844e+00 2.307018518447875977e+00 -2.745195329189300537e-01
3.565000000000000000e+03 3.426883697509765625e+01 -2.309416389465332031e+01 4.189282655715942383e-01 1.218249440193176270e+00 4.911533296108245850e-01 3.663516640663146973e-01
3.566000000000000000e+03 5.960217666625976562e+01 6.329666137695312500e+00 -3.448395431041717529e-01 8.533616065979003906e+00 2.456633090972900391e+00 6.754552721977233887e-01
3.567000000000000000e+03 5.984641647338867188e+01 7.839651584625244141e+00 -4.528539776802062988e-01 8.365480422973632812e+00 2.373787879943847656e+00 6.080512404441833496e-01
3.568000000000000000e+03 6.013563156127929688e+01 1.494540691375732422e+01 -6.063451766967773438e-01 7.625371456146240234e+00 2.105707883834838867e+00 3.142076134681701660e-01
3.569000000000000000e+03 3.796202087402343750e+01 -2.327916908264160156e+01 4.412493407726287842e-01 2.042010545730590820e+00 7.449779510498046875e-01 7.816329002380371094e-01
3.570000000000000000e+03 4.264044952392578125e+01 -2.410355567932128906e+01 2.043839842081069946e-01 3.466273307800292969e+00 1.101197242736816406e+00 1.142166972160339355e+00
3.571000000000000000e+03 5.166597747802734375e+01 -8.705467581748962402e-01 -1.780265569686889648e-01 1.137333106994628906e+01 3.358591556549072266e+00 -1.385033726692199707e+00
3.572000000000000000e+03 5.007401275634765625e+01 -8.087196350097656250e-01 -3.127618227154016495e-03 9.616208076477050781e+00 2.883924245834350586e+00 -2.864975452423095703e+00
3.573000000000000000e+03 4.778314971923828125e+01 2.295360565185546875e+00 2.326542735099792480e-01 5.914105892181396484e+00 1.844027996063232422e+00 -2.528439044952392578e+00
3.574000000000000000e+03 4.952211380004882812e+01 -1.210165023803710938e+01 2.577458880841732025e-02 8.685827255249023438e+00 2.613480567932128906e+00 3.178636550903320312e+00
3.575000000000000000e+03 4.920489883422851562e+01 -1.301058101654052734e+01 -1.496279053390026093e-02 7.856027126312255859e+00 2.352319240570068359e+00 2.998914480209350586e+00
3.576000000000000000e+03 5.028800582885742188e+01 -1.298832225799560547e+01 -3.428113460540771484e-01 9.283887863159179688e+00 2.682322978973388672e+00 2.499985933303833008e+00
3.577000000000000000e+03 5.108489227294921875e+01 -1.229905414581298828e+01 -3.831376433372497559e-01 1.061925792694091797e+01 3.070836305618286133e+00 1.956567287445068359e+00
3.578000000000000000e+03 6.102013015747070312e+01 -1.314748001098632812e+01 8.794813752174377441e-01 8.693792343139648438e+00 2.871982097625732422e+00 -1.069996953010559082e+00
3.579000000000000000e+03 5.452531051635742188e+01 -9.349805831909179688e+00 2.915357351303100586e+00 1.161941623687744141e+01 4.360432147979736328e+00 -1.506075143814086914e+00
3.580000000000000000e+03 5.506132507324218750e+01 -2.386043548583984375e+00 1.947315692901611328e+00 1.110783863067626953e+01 3.916546344757080078e+00 1.296807765960693359e+00
3.581000000000000000e+03 5.149022674560546875e+01 -5.473363399505615234e-01 -2.520743608474731445e-01 1.089602279663085938e+01 3.193184614181518555e+00 -1.564167618751525879e+00
3.582000000000000000e+03 5.250317001342773438e+01 -1.163211441040039062e+01 -1.160593144595623016e-02 1.182066440582275391e+01 3.542717695236206055e+00 5.221643447875976562e-01
3.583000000000000000e+03 4.948969650268554688e+01 -1.592015922069549561e-01 9.853741526603698730e-02 8.394585609436035156e+00 2.547937154769897461e+00 -2.982123851776123047e+00
3.584000000000000000e+03 4.700022125244140625e+01 -1.565107250213623047e+01 2.061412930488586426e-01 5.134069919586181641e+00 1.602063417434692383e+00 2.470307588577270508e+00
3.585000000000000000e+03 5.563205337524414062e+01 -4.656297683715820312e+00 4.086324214935302734e+00 1.037575244903564453e+01 4.338623046875000000e+00 1.094497919082641602e+00
3.586000000000000000e+03 5.486855697631835938e+01 -4.035498142242431641e+00 3.612008810043334961e+00 1.113456535339355469e+01 4.423972129821777344e+00 1.426566004753112793e+00
3.587000000000000000e+03 5.518625259399414062e+01 -9.181571006774902344e+00 3.110888957977294922e+00 1.098038959503173828e+01 4.227383613586425781e+00 -1.414034962654113770e+00
3.588000000000000000e+03 5.592000579833984375e+01 -7.084349155426025391e+00 4.549174785614013672e+00 1.002675724029541016e+01 4.372779846191406250e+00 -4.528797864913940430e-01
3.589000000000000000e+03 5.152534484863281250e+01 -1.262318611145019531e+01 -4.367925226688385010e-01 1.069135570526123047e+01 3.076368808746337891e+00 1.599549412727355957e+00
3.590000000000000000e+03 5.616619491577148438e+01 -4.600642204284667969e+00 3.825134038925170898e+00 1.006539440155029297e+01 4.167158603668212891e+00 1.015970587730407715e+00
3.591000000000000000e+03 4.754066085815429688e+01 1.164753437042236328e+00 4.711991548538208008e-01 5.635872840881347656e+00 1.832121610641479492e+00 -2.805003881454467773e+00
3.592000000000000000e+03 4.729155731201171875e+01 2.658799648284912109e+00 2.889479696750640869e-01 5.458993911743164062e+00 1.724382519721984863e+00 -2.414687871932983398e+00
3.593000000000000000e+03 5.574272537231445312e+01 -6.391772270202636719e+00 4.710000514984130859e+00 1.008281135559082031e+01 4.437843799591064453e+00 -7.496629375964403152e-03
3.594000000000000000e+03 4.866729354858398438e+01 -1.382912826538085938e+01 2.977893128991127014e-02 7.007040500640869141e+00 2.111045837402343750e+00 2.884444475173950195e+00
3.595000000000000000e+03 5.419758987426757812e+01 -1.085488128662109375e+01 1.202383160591125488e+00 1.172622489929199219e+01 3.878582477569580078e+00 -9.769209027290344238e-01
3.596000000000000000e+03 5.571697998046875000e+01 -8.378754615783691406e+00 3.759217977523803711e+00 1.040027999877929688e+01 4.247849464416503906e+00 -1.149556279182434082e+00
3.597000000000000000e+03 4.800308609008789062e+01 1.161153435707092285e+00 3.582816720008850098e-01 6.152558326721191406e+00 1.953252077102661133e+00 -2.812668085098266602e+00
3.598000000000000000e+03 4.851688003540039062e+01 -2.659036517143249512e-01 4.948799908161163330e-01 6.914030551910400391e+00 2.222673177719116211e+00 -3.290250301361083984e+00
3.599000000000000000e+03 4.791128158569335938e+01 3.708249568939208984e+00 4.148819670081138611e-02 5.967871189117431641e+00 1.802807807922363281e+00 -2.194867134094238281e+00
3.600000000000000000e+03 5.602444076538085938e+01 -7.973080635070800781e+00 3.988696098327636719e+00 1.010963439941406250e+01 4.229499340057373047e+00 -9.432337284088134766e-01
3.601000000000000000e+03 4.797032165527343750e+01 -1.498529720306396484e+01 6.507415324449539185e-02 6.092638015747070312e+00 1.847313523292541504e+00 2.633812427520751953e+00
3.602000000000000000e+03 4.758234024047851562e+01 4.589529037475585938e+00 2.779098227620124817e-02 5.645130157470703125e+00 1.701876401901245117e+00 -2.032978296279907227e+00
3.603000000000000000e+03 4.659240341186523438e+01 4.967580795288085938e+00 1.354727298021316528e-01 5.067292213439941406e+00 1.560829520225524902e+00 -1.975490093231201172e+00
3.604000000000000000e+03 4.464463043212890625e+01 5.680554389953613281e+00 3.453179001808166504e-01 3.919327497482299805e+00 1.279393553733825684e+00 -1.711774706840515137e+00
3.605000000000000000e+03 6.171881866455078125e+01 -9.036749839782714844e+00 1.912303090095520020e+00 8.293256759643554688e+00 3.061667919158935547e+00 -6.225805282592773438e-01
3.606000000000000000e+03 5.610358428955078125e+01 -9.810018539428710938e+00 2.500374555587768555e+00 1.037589550018310547e+01 3.862881183624267578e+00 -1.320101022720336914e+00
3.607000000000000000e+03 6.176249313354492188e+01 -6.967569351196289062e+00 2.226973533630371094e+00 8.201279640197753906e+00 3.128475904464721680e+00 -1.303547173738479614e-01
3.608000000000000000e+03 4.336464691162109375e+01 6.249838352203369141e+00 4.051024913787841797e-01 3.300235986709594727e+00 1.111601591110229492e+00 -1.496226787567138672e+00
3.609000000000000000e+03 6.066733169555664062e+01 -3.189100027084350586e-01 1.112897992134094238e+00 8.740344047546386719e+00 2.955972433090209961e+00 1.110910773277282715e+00
3.610000000000000000e+03 6.288839340209960938e+01 -1.077932739257812500e+01 1.392731189727783203e+00 8.202148437500000000e+00 2.878463745117187500e+00 -8.189665675163269043e-01
3.611000000000000000e+03 4.165489578247070312e+01 7.859657764434814453e+00 3.655896186828613281e-01 2.881043195724487305e+00 9.739898443222045898e-01 -1.180698752403259277e+00
3.612000000000000000e+03 6.153144073486328125e+01 -3.287218570709228516e+00 1.910527110099792480e+00 8.365126609802246094e+00 3.082696199417114258e+00 7.630599737167358398e-01
3.613000000000000000e+03 6.169824981689453125e+01 -6.062816143035888672e+00 2.242261648178100586e+00 8.206956863403320312e+00 3.134765625000000000e+00 9.109149873256683350e-02
3.614000000000000000e+03 6.208489227294921875e+01 -1.262653636932373047e+01 9.993777871131896973e-01 8.439649581909179688e+00 2.831708192825317383e+00 -1.010361313819885254e+00
3.615000000000000000e+03 6.054905700683593750e+01 -1.390051841735839844e+01 6.619758605957031250e-01 8.799601554870605469e+00 2.838473081588745117e+00 -1.057098865509033203e+00
3.616000000000000000e+03 6.101508712768554688e+01 5.864664077758789062e+00 -1.947901248931884766e-01 8.486789703369140625e+00 2.487600088119506836e+00 8.477621078491210938e-01
3.617000000000000000e+03 5.674704360961914062e+01 -5.024748802185058594e+00 3.770627737045288086e+00 9.640818595886230469e+00 4.023434162139892578e+00 7.315667271614074707e-01
3.618000000000000000e+03 5.935598754882812500e+01 2.463698863983154297e+00 2.600850164890289307e-01 8.990475654602050781e+00 2.775168418884277344e+00 9.694780111312866211e-01
3.619000000000000000e+03 6.007940292358398438e+01 1.018932700157165527e+00 7.244920730590820312e-01 8.903455734252929688e+00 2.888384342193603516e+00 1.108639001846313477e+00
3.620000000000000000e+03 2.824787139892578125e+01 1.605066871643066406e+01 -4.936382547020912170e-02 7.284641265869140625e-01 2.037300914525985718e-01 -9.202193468809127808e-02
3.621000000000000000e+03 5.949385070800781250e+01 -2.206223297119140625e+01 -6.034652590751647949e-01 8.183036804199218750e+00 2.273871660232543945e+00 -4.059135913848876953e-01
3.622000000000000000e+03 5.724251174926757812e+01 -2.226625061035156250e+01 -7.247685194015502930e-01 8.040797233581542969e+00 2.194808721542358398e+00 -4.445721954107284546e-02
3.623000000000000000e+03 6.065701675415039062e+01 -1.533654689788818359e+01 2.997293472290039062e-01 8.744116783142089844e+00 2.713153839111328125e+00 -9.854692220687866211e-01
3.624000000000000000e+03 4.221686172485351562e+01 6.990299701690673828e+00 4.050179421901702881e-01 2.981296062469482422e+00 1.015894174575805664e+00 -1.296602368354797363e+00
3.625000000000000000e+03 4.605277252197265625e+01 -1.957998847961425781e+01 3.503251448273658752e-02 4.722354888916015625e+00 1.427216172218322754e+00 1.781532049179077148e+00
3.626000000000000000e+03 5.055017852783203125e+01 -1.397937583923339844e+01 -4.513119757175445557e-01 8.914800643920898438e+00 2.539046525955200195e+00 2.126058578491210938e+00
3.627000000000000000e+03 3.547611618041992188e+01 -2.799150848388671875e+01 4.104276895523071289e-01 1.882551789283752441e+00 6.878938674926757812e-01 4.573760330677032471e-01
3.628000000000000000e+03 3.661616897583007812e+01 1.862291145324707031e+01 7.861666381359100342e-02 2.394800186157226562e+00 7.420250177383422852e-01 -5.265021920204162598e-01
3.629000000000000000e+03 5.688906097412109375e+01 1.069984340667724609e+01 -6.931079030036926270e-01 7.833379745483398438e+00 2.142081499099731445e+00 5.446464940905570984e-02
3.630000000000000000e+03 5.856910324096679688e+01 1.000844287872314453e+01 -6.341167092323303223e-01 8.055620193481445312e+00 2.226450920104980469e+00 3.077642917633056641e-01
3.631000000000000000e+03 4.113076782226562500e+01 -2.686771202087402344e+01 2.258949428796768188e-01 3.150624990463256836e+00 1.012956023216247559e+00 8.685878515243530273e-01
3.632000000000000000e+03 5.036848449707031250e+01 -7.516534328460693359e-01 -1.146072372794151306e-01 1.004642486572265625e+01 2.979545354843139648e+00 -2.592838764190673828e+00
3.633000000000000000e+03 5.967053985595703125e+01 -9.853467941284179688e+00 2.096929550170898438e+00 8.843841552734375000e+00 3.282231330871582031e+00 -9.344509243965148926e-01
3.634000000000000000e+03 5.376762771606445312e+01 -1.081497669219970703e+01 1.052960753440856934e+00 1.199036788940429688e+01 3.912998676300048828e+00 -8.048449754714965820e-01
3.635000000000000000e+03 4.861112594604492188e+01 2.355847835540771484e+00 1.664740964770317078e-02 6.692481994628906250e+00 2.012738704681396484e+00 -2.454796314239501953e+00
3.636000000000000000e+03 4.962780380249023438e+01 -5.992287397384643555e-01 1.161913722753524780e-01 8.846314430236816406e+00 2.688751697540283203e+00 -3.059323549270629883e+00
3.637000000000000000e+03 5.334145355224609375e+01 -9.006658196449279785e-01 3.034254014492034912e-01 1.150100517272949219e+01 3.541329145431518555e+00 1.028218865394592285e-01
3.638000000000000000e+03 5.072779464721679688e+01 -1.268651485443115234e+01 -3.884844779968261719e-01 9.904611587524414062e+00 2.854838132858276367e+00 2.251595735549926758e+00
3.639000000000000000e+03 5.437826156616210938e+01 -2.165249109268188477e+00 1.536634683609008789e+00 1.153625488281250000e+01 3.921866893768310547e+00 1.096629381179809570e+00
3.640000000000000000e+03 4.845605468750000000e+01 -1.474376869201660156e+01 -2.918928489089012146e-02 6.642201900482177734e+00 1.983903765678405762e+00 2.667569160461425781e+00
3.641000000000000000e+03 4.909078979492187500e+01 -4.125902652740478516e-01 2.925666868686676025e-01 7.895002365112304688e+00 2.456270694732666016e+00 -3.216288566589355469e+00
3.642000000000000000e+03 5.237204742431640625e+01 -1.199888896942138672e+01 -1.733692884445190430e-01 1.153242588043212891e+01 3.407716989517211914e+00 7.410913705825805664e-01
3.643000000000000000e+03 4.749175262451171875e+01 -1.529316043853759766e+01 1.478039920330047607e-01 5.596564292907714844e+00 1.723310470581054688e+00 2.554734230041503906e+00
3.644000000000000000e+03 5.186039733886718750e+01 -5.496250987052917480e-01 -2.389350533485412598e-01 1.109624576568603516e+01 3.257193326950073242e+00 -1.246730685234069824e+00
3.645000000000000000e+03 5.127570343017578125e+01 -1.771240532398223877e-01 -2.974108755588531494e-01 1.044136142730712891e+01 3.043185234069824219e+00 -1.742608070373535156e+00
3.646000000000000000e+03 5.291681289672851562e+01 -6.282550692558288574e-01 3.431976586580276489e-02 1.133858394622802734e+01 3.411871194839477539e+00 -3.178743124008178711e-01
3.647000000000000000e+03 5.582635879516601562e+01 -7.405457973480224609e+00 4.435499191284179688e+00 1.013643264770507812e+01 4.371579647064208984e+00 -6.598428487777709961e-01
3.648000000000000000e+03 5.643501663208007812e+01 -7.068340778350830078e+00 4.225949764251708984e+00 9.744956016540527344e+00 4.191271781921386719e+00 -3.877289891242980957e-01
3.649000000000000000e+03 6.030146408081054688e+01 -9.651026725769042969e+00 2.046356678009033203e+00 8.633410453796386719e+00 3.203930139541625977e+00 -8.331848978996276855e-01
3.650000000000000000e+03 5.576084518432617188e+01 -3.108150720596313477e+00 2.673951864242553711e+00 1.056081867218017578e+01 3.970431089401245117e+00 1.357349991798400879e+00
3.651000000000000000e+03 4.865214157104492188e+01 3.677049279212951660e-01 2.848897874355316162e-01 7.088613986968994141e+00 2.212051153182983398e+00 -3.025933504104614258e+00
3.652000000000000000e+03 4.832415008544921875e+01 5.198678374290466309e-01 3.829648494720458984e-01 6.541724205017089844e+00 2.077406644821166992e+00 -2.985876321792602539e+00
3.653000000000000000e+03 5.614794158935546875e+01 -5.533811092376708984e+00 4.315768241882324219e+00 9.920682907104492188e+00 4.270935058593750000e+00 5.596609115600585938e-01
3.654000000000000000e+03 4.870133209228515625e+01 -6.861109733581542969e-01 5.265598297119140625e-01 7.273362636566162109e+00 2.339976787567138672e+00 -3.415338993072509766e+00
3.655000000000000000e+03 4.932809448242187500e+01 3.094615936279296875e-01 7.943075150251388550e-02 8.005187034606933594e+00 2.425385236740112305e+00 -2.889293193817138672e+00
3.656000000000000000e+03 4.823767471313476562e+01 -1.320566463470458984e+01 2.687086760997772217e-01 6.528175830841064453e+00 2.039065361022949219e+00 3.113931179046630859e+00
3.657000000000000000e+03 4.822742462158203125e+01 1.813354253768920898e+00 1.908328831195831299e-01 6.394224166870117188e+00 1.975517034530639648e+00 -2.650677919387817383e+00
3.658000000000000000e+03 5.333298110961914062e+01 -1.178324699401855469e+01 2.194905877113342285e-01 1.159664821624755859e+01 3.544841766357421875e+00 -8.737763762474060059e-02
3.659000000000000000e+03 5.539189147949218750e+01 -9.858063697814941406e+00 2.433923959732055664e+00 1.087266921997070312e+01 3.991977930068969727e+00 -1.375525593757629395e+00
3.660000000000000000e+03 5.591307449340820312e+01 -9.074133872985839844e+00 3.117852687835693359e+00 1.039313125610351562e+01 4.053295135498046875e+00 -1.281181573867797852e+00
3.661000000000000000e+03 5.589017486572265625e+01 -1.108330345153808594e+01 1.501697063446044922e+00 1.054053306579589844e+01 3.612669229507446289e+00 -1.201607465744018555e+00
3.662000000000000000e+03 5.610431671142578125e+01 -5.937730312347412109e+00 4.430347442626953125e+00 9.893280982971191406e+00 4.297088623046875000e+00 3.121337890625000000e-01
3.663000000000000000e+03 6.115376281738281250e+01 -5.029102802276611328e+00 2.263185024261474609e+00 8.320026397705078125e+00 3.174963474273681641e+00 3.792184293270111084e-01
3.664000000000000000e+03 6.123754501342773438e+01 -1.018642234802246094e+01 1.735013127326965332e+00 8.469326972961425781e+00 3.061302185058593750e+00 -8.490893244743347168e-01
3.665000000000000000e+03 6.056018066406250000e+01 -8.617785453796386719e+00 2.253171682357788086e+00 8.505510330200195312e+00 3.227604627609252930e+00 -5.970952510833740234e-01
3.666000000000000000e+03 4.814110565185546875e+01 5.139701843261718750e+00 -1.204956024885177612e-01 6.026570320129394531e+00 1.771822452545166016e+00 -1.907555341720581055e+00
3.667000000000000000e+03 4.711680603027343750e+01 5.311412334442138672e+00 5.083550885319709778e-02 5.328504562377929688e+00 1.613802075386047363e+00 -1.959803104400634766e+00
3.668000000000000000e+03 4.843165588378906250e+01 9.828447699546813965e-01 2.681257128715515137e-01 6.693909645080566406e+00 2.088610649108886719e+00 -2.869673728942871094e+00
3.669000000000000000e+03 5.117490768432617188e+01 -7.894520163536071777e-01 -2.099350243806838989e-01 1.086496353149414062e+01 3.196508646011352539e+00 -1.885511517524719238e+00
3.670000000000000000e+03 6.129628372192382812e+01 -8.198513984680175781e+00 2.166795730590820312e+00 8.322040557861328125e+00 3.146651029586791992e+00 -4.514766633510589600e-01
3.671000000000000000e+03 6.087403488159179688e+01 -7.386741638183593750e+00 2.405167579650878906e+00 8.363039016723632812e+00 3.230461835861206055e+00 -2.627244591712951660e-01
3.672000000000000000e+03 4.549646759033203125e+01 5.953346729278564453e+00 2.243836671113967896e-01 4.407629966735839844e+00 1.389604091644287109e+00 -1.774911999702453613e+00
3.673000000000000000e+03 4.615283966064453125e+01 5.667803287506103516e+00 1.504341661930084229e-01 4.767795562744140625e+00 1.475468873977661133e+00 -1.817647457122802734e+00
3.674000000000000000e+03 5.057335281372070312e+01 -1.548554420471191406e+01 -5.250787734985351562e-01 8.253714561462402344e+00 2.318590879440307617e+00 1.926989555358886719e+00
3.675000000000000000e+03 5.987905502319335938e+01 -1.328294467926025391e+01 8.225446939468383789e-01 8.954459190368652344e+00 2.933100938796997070e+00 -1.080823898315429688e+00
3.676000000000000000e+03 5.810293579101562500e+01 -1.724724197387695312e+01 -3.096019923686981201e-01 8.949002265930175781e+00 2.591820001602172852e+00 -5.483429431915283203e-01
3.677000000000000000e+03 6.153664398193359375e+01 -4.146174430847167969e+00 2.028442621231079102e+00 8.299737930297851562e+00 3.098454236984252930e+00 5.777419209480285645e-01
3.678000000000000000e+03 6.022071456909179688e+01 -1.056325316429138184e+00 1.392557740211486816e+00 8.825180053710937500e+00 3.065321207046508789e+00 1.112842321395874023e+00
3.679000000000000000e+03 6.148639297485351562e+01 -1.094896411895751953e+01 1.506307363510131836e+00 8.465764045715332031e+00 2.991621494293212891e+00 -9.282754063606262207e-01
3.680000000000000000e+03 5.989348602294921875e+01 -1.609599685668945312e+01 7.632781565189361572e-02 8.830397605895996094e+00 2.672017574310302734e+00 -8.886378407478332520e-01
3.681000000000000000e+03 6.083297348022460938e+01 -5.931496620178222656e+00 2.476322174072265625e+00 8.362140655517578125e+00 3.251538991928100586e+00 1.464040875434875488e-01
3.682000000000000000e+03 6.136323928833007812e+01 -1.237449073791503906e+01 1.104920744895935059e+00 8.583945274353027344e+00 2.906659841537475586e+00 -1.043789267539978027e+00
3.683000000000000000e+03 3.892761611938476562e+01 1.058085155487060547e+01 2.770873010158538818e-01 2.339848756790161133e+00 7.850807905197143555e-01 -7.794294357299804688e-01
3.684000000000000000e+03 3.598196792602539062e+01 1.055283355712890625e+01 2.519936859607696533e-01 1.628165483474731445e+00 5.640477538108825684e-01 -4.500458240509033203e-01
3.685000000000000000e+03 5.849833297729492188e+01 2.691785812377929688e+00 1.424640715122222900e-01 9.122260093688964844e+00 2.779417276382446289e+00 8.709488511085510254e-01
3.686000000000000000e+03 5.784979248046875000e+01 1.089024305343627930e+00 4.951865375041961670e-01 9.468379020690917969e+00 2.989069700241088867e+00 9.916484355926513672e-01
3.687000000000000000e+03 4.668119812011718750e+01 -2.078892517089843750e+01 -1.058046594262123108e-01 5.084116458892822266e+00 1.493493556976318359e+00 1.615310430526733398e+00
3.688000000000000000e+03 5.926721572875976562e+01 -2.110617607831954956e-02 1.001584172248840332e+00 9.115580558776855469e+00 3.035149574279785156e+00 1.139061689376831055e+00
3.689000000000000000e+03 4.254677581787109375e+01 8.473657608032226562e+00 2.813162207603454590e-01 3.278802156448364258e+00 1.068035483360290527e+00 -1.252928495407104492e+00
3.690000000000000000e+03 5.486240768432617188e+01 -1.954290509223937988e+00 1.537120938301086426e+00 1.117165374755859375e+01 3.812632322311401367e+00 1.144989848136901855e+00
3.691000000000000000e+03 5.912356567382812500e+01 1.443722605705261230e+00 5.473228096961975098e-01 9.123212814331054688e+00 2.901160717010498047e+00 1.061467170715332031e+00
3.692000000000000000e+03 5.850360107421875000e+01 -1.850495719909667969e+01 -4.293456673622131348e-01 8.691977500915527344e+00 2.478789567947387695e+00 -4.916754364967346191e-01
3.693000000000000000e+03 5.684546279907226562e+01 -2.011127471923828125e+01 -6.654463410377502441e-01 8.437367439270019531e+00 2.331576347351074219e+00 -9.003923088312149048e-02
3.694000000000000000e+03 4.186551666259765625e+01 9.601866722106933594e+00 2.442072182893753052e-01 3.162849664688110352e+00 1.022117018699645996e+00 -1.124996304512023926e+00
3.695000000000000000e+03 4.092093658447265625e+01 8.785181999206542969e+00 3.354874551296234131e-01 2.727711915969848633e+00 9.189597964286804199e-01 -1.041854739189147949e+00
3.696000000000000000e+03 4.539596939086914062e+01 6.931384086608886719e+00 1.487717032432556152e-01 4.406366825103759766e+00 1.366541624069213867e+00 -1.651143789291381836e+00
3.697000000000000000e+03 4.402304077148437500e+01 7.784781932830810547e+00 2.311342507600784302e-01 3.791598558425903320e+00 1.206819772720336914e+00 -1.460156083106994629e+00
3.698000000000000000e+03 6.074708938598632812e+01 -1.566742062568664551e+00 1.520143628120422363e+00 8.647026062011718750e+00 3.050150871276855469e+00 1.040588259696960449e+00
3.699000000000000000e+03 5.843472290039062500e+01 3.748781204223632812e+00 -8.623477816581726074e-02 9.004907608032226562e+00 2.675601959228515625e+00 7.553474903106689453e-01
3.700000000000000000e+03 5.793484497070312500e+01 1.409899997711181641e+01 -6.645204424858093262e-01 7.503763198852539062e+00 2.051772832870483398e+00 1.181387305259704590e-01
3.701000000000000000e+03 3.770049285888671875e+01 1.130088043212890625e+01 2.543064653873443604e-01 2.102082729339599609e+00 7.069167494773864746e-01 -6.550288200378417969e-01
3.702000000000000000e+03 3.729788208007812500e+01 1.512927150726318359e+01 1.200023144483566284e-01 2.336104631423950195e+00 7.368321418762207031e-01 -5.994594693183898926e-01
3.703000000000000000e+03 3.219260025024414062e+01 -2.557910728454589844e+01 4.212238788604736328e-01 1.161829590797424316e+00 4.749160408973693848e-01 2.200328111648559570e-01
3.704000000000000000e+03 5.928464126586914062e+01 -1.525374507904052734e+01 2.151506394147872925e-01 9.007978439331054688e+00 2.766938686370849609e+00 -9.096721410751342773e-01
3.705000000000000000e+03 5.903691101074218750e+01 -1.675258636474609375e+01 -1.295122653245925903e-01 8.888467788696289062e+00 2.627686738967895508e+00 -7.357286214828491211e-01
3.706000000000000000e+03 4.919034576416015625e+01 7.758376002311706543e-01 6.031470373272895813e-02 7.686027050018310547e+00 2.323902368545532227e+00 -2.782894134521484375e+00
3.707000000000000000e+03 4.992102050781250000e+01 4.297896102070808411e-02 -8.305601030588150024e-02 8.916581153869628906e+00 2.650057554244995117e+00 -2.673437595367431641e+00
3.708000000000000000e+03 5.580374908447265625e+01 -3.565208435058593750e+00 3.064963102340698242e+00 1.047912883758544922e+01 4.063227653503417969e+00 1.348319411277770996e+00
3.709000000000000000e+03 5.127021408081054688e+01 5.417541265487670898e-01 -3.642902076244354248e-01 9.871360778808593750e+00 2.852121114730834961e+00 -1.724966406822204590e+00
3.710000000000000000e+03 5.375588607788085938e+01 -1.146259546279907227e+00 5.653406977653503418e-01 1.150798797607421875e+01 3.621998548507690430e+00 4.297032058238983154e-01
3.711000000000000000e+03 5.326895523071289062e+01 -1.692853093147277832e+00 6.906633377075195312e-01 1.206439781188964844e+01 3.826518297195434570e+00 3.654423952102661133e-01
3.712000000000000000e+03 5.326388931274414062e+01 -1.226406574249267578e+01 -6.181228905916213989e-03 1.127922821044921875e+01 3.381914138793945312e+00 1.358303576707839966e-01
3.713000000000000000e+03 5.289363479614257812e+01 -1.171196746826171875e+01 7.671754807233810425e-02 1.174990367889404297e+01 3.547986507415771484e+00 2.360912263393402100e-01
3.714000000000000000e+03 4.819606399536132812e+01 -1.553022384643554688e+01 -4.834600165486335754e-02 6.319998741149902344e+00 1.881495833396911621e+00 2.474283933639526367e+00
3.715000000000000000e+03 5.318493270874023438e+01 -1.303077191114425659e-01 -6.320647895336151123e-02 1.098239517211914062e+01 3.275756597518920898e+00 -2.610659301280975342e-01
3.716000000000000000e+03 5.249457931518554688e+01 -3.682612180709838867e-01 -1.583107113838195801e-01 1.115872859954833984e+01 3.300125122070312500e+00 -6.955894827842712402e-01
3.717000000000000000e+03 5.362392425537109375e+01 -1.653691887855529785e+00 8.054618835449218750e-01 1.186404895782470703e+01 3.800853490829467773e+00 5.573865175247192383e-01
3.718000000000000000e+03 5.280300521850585938e+01 -1.214322853088378906e+01 -9.332614392042160034e-02 1.138868713378906250e+01 3.388608217239379883e+00 4.325493872165679932e-01
3.719000000000000000e+03 5.870222091674804688e+01 6.145374178886413574e-01 7.727290987968444824e-01 9.241748809814453125e+00 3.004343509674072266e+00 1.105587601661682129e+00
3.720000000000000000e+03 5.220142364501953125e+01 -1.240316963195800781e+01 -3.191589117050170898e-01 1.114239788055419922e+01 3.246971607208251953e+00 9.956436157226562500e-01
3.721000000000000000e+03 5.564439392089843750e+01 -9.478743553161621094e+00 2.802021503448486328e+00 1.064088153839111328e+01 4.032871246337890625e+00 -1.364460706710815430e+00
3.722000000000000000e+03 5.479276657104492188e+01 -1.033966922760009766e+01 1.902775645256042480e+00 1.137494659423828125e+01 3.983316659927368164e+00 -1.294711232185363770e+00
3.723000000000000000e+03 4.890444564819335938e+01 2.006308734416961670e-02 2.754723727703094482e-01 7.478968620300292969e+00 2.326332330703735352e+00 -3.094517469406127930e+00
3.724000000000000000e+03 5.205437469482421875e+01 -1.110505312681198120e-01 -2.783046066761016846e-01 1.083989238739013672e+01 3.168476581573486328e+00 -1.120578885078430176e+00
3.725000000000000000e+03 5.515302276611328125e+01 -1.108857393264770508e+00 1.019571781158447266e+00 1.081258773803710938e+01 3.549647808074951172e+00 9.697591662406921387e-01
3.726000000000000000e+03 5.360055160522460938e+01 -2.138302564620971680e+00 1.204158306121826172e+00 1.221857738494873047e+01 4.026820659637451172e+00 7.897573113441467285e-01
3.727000000000000000e+03 5.380459213256835938e+01 -1.184816837310791016e+01 3.660069108009338379e-01 1.139721965789794922e+01 3.528967857360839844e+00 -3.458059132099151611e-01
3.728000000000000000e+03 5.409517288208007812e+01 -1.014323234558105469e+01 1.830126404762268066e+00 1.195072650909423828e+01 4.134255886077880859e+00 -1.212785363197326660e+00
3.729000000000000000e+03 5.553110885620117188e+01 -4.191017627716064453e+00 3.680644512176513672e+00 1.055984306335449219e+01 4.272146224975585938e+00 1.277317523956298828e+00
3.730000000000000000e+03 5.617159271240234375e+01 -5.075743198394775391e+00 4.114705085754394531e+00 9.987760543823242188e+00 4.230739593505859375e+00 7.980020642280578613e-01
3.731000000000000000e+03 4.985753631591796875e+01 -1.359286785125732422e+01 -2.549360096454620361e-01 8.451444625854492188e+00 2.458952665328979492e+00 2.611878156661987305e+00
3.732000000000000000e+03 5.728284072875976562e+01 -4.871449947357177734e+00 3.510112285614013672e+00 9.434514999389648438e+00 3.883388042449951172e+00 7.188356518745422363e-01
3.733000000000000000e+03 5.884434127807617188e+01 -8.807661056518554688e+00 2.665793418884277344e+00 8.973079681396484375e+00 3.491662025451660156e+00 -7.898538708686828613e-01
3.734000000000000000e+03 6.011923217773437500e+01 -7.920158386230468750e+00 2.538092374801635742e+00 8.569436073303222656e+00 3.332258701324462891e+00 -4.606485366821289062e-01
3.735000000000000000e+03 5.788532638549804688e+01 -3.647812128067016602e+00 2.761941671371459961e+00 9.340482711791992188e+00 3.630727291107177734e+00 1.013984680175781250e+00
3.736000000000000000e+03 5.817642974853515625e+01 -8.824125289916992188e+00 2.829992294311523438e+00 9.218185424804687500e+00 3.614453315734863281e+00 -8.905629515647888184e-01
3.737000000000000000e+03 5.636074829101562500e+01 -9.373785018920898438e+00 2.825103044509887695e+00 1.014181423187255859e+01 3.890075206756591797e+00 -1.250134110450744629e+00
3.738000000000000000e+03 4.867808914184570312e+01 -1.541026592254638672e+01 -1.622993350028991699e-01 6.760270595550537109e+00 1.979391455650329590e+00 2.476994752883911133e+00
3.739000000000000000e+03 5.193782043457031250e+01 6.152800321578979492e-01 -3.815947175025939941e-01 1.023388004302978516e+01 2.955685615539550781e+00 -1.236188292503356934e+00
3.740000000000000000e+03 4.853306579589843750e+01 3.890005111694335938e+00 -9.840467572212219238e-02 6.432182312011718750e+00 1.900133252143859863e+00 -2.098521232604980469e+00
3.741000000000000000e+03 5.027995300292968750e+01 -1.480130672454833984e+01 -4.521022140979766846e-01 8.297370910644531250e+00 2.353580474853515625e+00 2.127964735031127930e+00
3.742000000000000000e+03 5.042255783081054688e+01 -1.348899745941162109e+01 -3.983227908611297607e-01 9.197094917297363281e+00 2.639631509780883789e+00 2.309441089630126953e+00
3.743000000000000000e+03 6.096553421020507812e+01 -9.365708351135253906e+00 1.992989063262939453e+00 8.461781501770019531e+00 3.136431217193603516e+00 -7.345723509788513184e-01
3.744000000000000000e+03 4.876554870605468750e+01 4.641514778137207031e+00 -1.965677142143249512e-01 6.486292839050292969e+00 1.886917471885681152e+00 -1.933656215667724609e+00
3.745000000000000000e+03 5.999246597290039062e+01 -9.034572601318359375e+00 2.305460453033447266e+00 8.668440818786621094e+00 3.292170524597167969e+00 -7.387666106224060059e-01
3.746000000000000000e+03 6.073752975463867188e+01 -1.202423954010009766e+01 1.242325782775878906e+00 8.722785949707031250e+00 2.989533662796020508e+00 -1.065567612648010254e+00
3.747000000000000000e+03 4.864730834960937500e+01 5.762671947479248047e+00 -2.413113117218017578e-01 6.247357368469238281e+00 1.801813840866088867e+00 -1.761717915534973145e+00
3.748000000000000000e+03 4.678564071655273438e+01 6.075408935546875000e+00 3.128386661410331726e-02 5.145975112915039062e+00 1.553177714347839355e+00 -1.807195186614990234e+00
3.749000000000000000e+03 4.931867980957031250e+01 1.506679177284240723e+00 -6.108678877353668213e-02 7.563350200653076172e+00 2.250679016113281250e+00 -2.526546716690063477e+00
3.750000000000000000e+03 4.902815628051757812e+01 2.810958623886108398e+00 -1.221260577440261841e-01 6.961847782135009766e+00 2.051916360855102539e+00 -2.257753133773803711e+00
3.751000000000000000e+03 4.652981185913085938e+01 7.141412258148193359e+00 -2.898475155234336853e-03 5.004327297210693359e+00 1.500428676605224609e+00 -1.658201575279235840e+00
3.752000000000000000e+03 4.788912200927734375e+01 -1.674733924865722656e+01 -7.653742283582687378e-02 5.876460552215576172e+00 1.739976882934570312e+00 2.261743545532226562e+00
3.753000000000000000e+03 4.861713790893554688e+01 -1.716320037841796875e+01 -2.555244863033294678e-01 6.439174175262451172e+00 1.855094909667968750e+00 2.082161426544189453e+00
3.754000000000000000e+03 4.802891540527343750e+01 -1.813416862487792969e+01 -1.883494853973388672e-01 5.882392883300781250e+00 1.708213090896606445e+00 1.994554162025451660e+00
3.755000000000000000e+03 4.897735595703125000e+01 -1.890189743041992188e+01 -3.761333823204040527e-01 6.386497020721435547e+00 1.803109169006347656e+00 1.747009038925170898e+00
3.756000000000000000e+03 5.934624099731445312e+01 -1.390565395355224609e+01 5.952253937721252441e-01 9.083832740783691406e+00 2.903717517852783203e+00 -1.032569646835327148e+00
3.757000000000000000e+03 6.034471893310546875e+01 -1.265354537963867188e+01 1.030047416687011719e+00 8.834545135498046875e+00 2.959377765655517578e+00 -1.085617542266845703e+00
3.758000000000000000e+03 6.156642532348632812e+01 -1.163390922546386719e+01 1.294910550117492676e+00 8.486119270324707031e+00 2.934309005737304688e+00 -9.803289175033569336e-01
3.759000000000000000e+03 4.357040786743164062e+01 8.995746612548828125e+00 1.827808022499084473e-01 3.723888874053955078e+00 1.172000885009765625e+00 -1.312769174575805664e+00
3.760000000000000000e+03 4.225376129150390625e+01 1.167693805694580078e+01 1.151505187153816223e-01 3.439500808715820312e+00 1.066395401954650879e+00 -1.041463017463684082e+00
3.761000000000000000e+03 6.112235641479492188e+01 -2.395891189575195312e+00 1.715842843055725098e+00 8.504507064819335938e+00 3.066105127334594727e+00 9.191372394561767578e-01
3.762000000000000000e+03 5.965775680541992188e+01 -6.465300917625427246e-01 1.281154751777648926e+00 8.981170654296875000e+00 3.078697681427001953e+00 1.155026912689208984e+00
3.763000000000000000e+03 6.083210372924804688e+01 -3.906376361846923828e+00 2.167984962463378906e+00 8.465791702270507812e+00 3.190132856369018555e+00 6.930199861526489258e-01
3.764000000000000000e+03 5.452555465698242188e+01 -1.814594417810440063e-01 3.402706980705261230e-01 1.079144954681396484e+01 3.339516162872314453e+00 4.863916039466857910e-01
3.765000000000000000e+03 5.945909881591796875e+01 3.612884283065795898e+00 3.845281898975372314e-02 8.865983963012695312e+00 2.671330928802490234e+00 8.749089241027832031e-01
3.766000000000000000e+03 4.800852203369140625e+01 -2.006864738464355469e+01 -2.709862589836120605e-01 5.781507015228271484e+00 1.653156280517578125e+00 1.697127819061279297e+00
3.767000000000000000e+03 5.247568893432617188e+01 -1.773626136779785156e+01 -7.365630865097045898e-01 8.409773826599121094e+00 2.301963329315185547e+00 1.008267402648925781e+00
3.768000000000000000e+03 4.584645462036132812e+01 -2.263161659240722656e+01 -7.299789041280746460e-02 4.628542900085449219e+00 1.366663455963134766e+00 1.412391662597656250e+00
3.769000000000000000e+03 4.876978302001953125e+01 -2.165555572509765625e+01 -3.861928880214691162e-01 5.964648246765136719e+00 1.673536658287048340e+00 1.418692827224731445e+00
3.770000000000000000e+03 4.298119735717773438e+01 1.027678775787353516e+01 1.449376493692398071e-01 3.589459419250488281e+00 1.120319128036499023e+00 -1.181940674781799316e+00
3.771000000000000000e+03 5.285562515258789062e+01 -1.981297492980957031e+01 -7.375161051750183105e-01 7.952917098999023438e+00 2.164620161056518555e+00 8.283374309539794922e-01
3.772000000000000000e+03 5.596213150024414062e+01 -2.138893699645996094e+01 -7.463626861572265625e-01 8.099166870117187500e+00 2.205841302871704102e+00 1.555768400430679321e-01
3.773000000000000000e+03 5.874452972412109375e+01 -1.446257781982421875e+01 3.751900494098663330e-01 9.193709373474121094e+00 2.870669841766357422e+00 -9.414908885955810547e-01
3.774000000000000000e+03 5.853462600708007812e+01 -1.579038619995117188e+01 8.053477853536605835e-03 9.100718498229980469e+00 2.732631444931030273e+00 -7.727410793304443359e-01
3.775000000000000000e+03 5.756030654907226562e+01 -2.600847434997558594e+01 -7.262036800384521484e-01 7.601607799530029297e+00 2.062621116638183594e+00 -3.880972787737846375e-02
3.776000000000000000e+03 5.569774627685546875e+01 1.315184497833251953e+01 -6.974918842315673828e-01 7.331980705261230469e+00 1.990346550941467285e+00 -1.457666009664535522e-01
3.777000000000000000e+03 4.435718536376953125e+01 -2.783413887023925781e+01 -3.472062945365905762e-02 4.183117866516113281e+00 1.244519233703613281e+00 8.796936869621276855e-01
3.778000000000000000e+03 3.522970199584960938e+01 2.080423355102539062e+01 6.908664107322692871e-02 2.168069839477539062e+00 6.711469888687133789e-01 -4.443622529506683350e-01
3.779000000000000000e+03 3.039552879333496094e+01 -2.103980064392089844e+01 2.395917326211929321e-01 5.868111252784729004e-01 2.479208707809448242e-01 -3.064999729394912720e-02
3.780000000000000000e+03 5.220661544799804688e+01 1.066310167312622070e+00 -4.191873073577880859e-01 1.002740478515625000e+01 2.882465362548828125e+00 -1.082742333412170410e+00
3.781000000000000000e+03 5.094450759887695312e+01 1.766351312398910522e-01 -2.995261549949645996e-01 9.927039146423339844e+00 2.888253927230834961e+00 -1.974773168563842773e+00
3.782000000000000000e+03 5.135875701904296875e+01 -1.417822074890136719e+01 -5.694605112075805664e-01 9.501769065856933594e+00 2.679692745208740234e+00 1.665799260139465332e+00
3.783000000000000000e+03 5.430932617187500000e+01 -1.690772533416748047e+00 1.129101514816284180e+00 1.143819808959960938e+01 3.770189762115478516e+00 9.149181842803955078e-01
3.784000000000000000e+03 5.365190124511718750e+01 -3.391264379024505615e-01 1.623097658157348633e-01 1.101691627502441406e+01 3.353767633438110352e+00 1.100491881370544434e-01
3.785000000000000000e+03 4.924874877929687500e+01 -1.365175724029541016e+01 -1.043788716197013855e-01 7.695818424224853516e+00 2.277431964874267578e+00 2.793654680252075195e+00
3.786000000000000000e+03 5.095216751098632812e+01 -1.364015293121337891e+01 -4.888315498828887939e-01 9.502588272094726562e+00 2.704126834869384766e+00 1.947468638420104980e+00
3.787000000000000000e+03 5.024746704101562500e+01 9.097015261650085449e-01 -2.391247004270553589e-01 8.787750244140625000e+00 2.564587831497192383e+00 -2.292457342147827148e+00
3.788000000000000000e+03 4.969933319091796875e+01 1.895467162132263184e+00 -2.004789859056472778e-01 7.819970607757568359e+00 2.285847425460815430e+00 -2.297424316406250000e+00
3.789000000000000000e+03 5.201275253295898438e+01 -1.284592723846435547e+01 -4.300256073474884033e-01 1.070722484588623047e+01 3.083159685134887695e+00 1.220719337463378906e+00
3.790000000000000000e+03 5.184716033935546875e+01 -1.335927867889404297e+01 -5.021888613700866699e-01 1.022841262817382812e+01 2.917867183685302734e+00 1.366594672203063965e+00
3.791000000000000000e+03 5.266164016723632812e+01 -1.257243061065673828e+01 -2.573138177394866943e-01 1.106490135192871094e+01 3.242276191711425781e+00 6.473029851913452148e-01
3.792000000000000000e+03 5.439293289184570312e+01 -1.049468135833740234e+01 1.580264925956726074e+00 1.161894321441650391e+01 3.959762334823608398e+00 -1.124369978904724121e+00
3.793000000000000000e+03 5.431209182739257812e+01 -1.188427829742431641e+01 5.414676070213317871e-01 1.117042636871337891e+01 3.513568162918090820e+00 -5.997093915939331055e-01
3.794000000000000000e+03 4.940985488891601562e+01 4.312971591949462891e+00 -2.964736521244049072e-01 7.045801639556884766e+00 2.024798393249511719e+00 -1.883789896965026855e+00
3.795000000000000000e+03 4.941967010498046875e+01 -1.601706695556640625e+01 -3.579964935779571533e-01 7.201318740844726562e+00 2.052996635437011719e+00 2.171493768692016602e+00
3.796000000000000000e+03 5.732317733764648438e+01 -1.347903633117675781e+01 5.105598568916320801e-01 9.658025741577148438e+00 3.050575733184814453e+00 -9.300940036773681641e-01
3.797000000000000000e+03 5.469106292724609375e+01 -1.454890251159667969e+00 1.090418696403503418e+00 1.116414928436279297e+01 3.676370382308959961e+00 9.382185339927673340e-01
3.798000000000000000e+03 5.398029708862304688e+01 -1.733706355094909668e+00 1.028273940086364746e+00 1.167392730712890625e+01 3.810660362243652344e+00 7.835581302642822266e-01
3.799000000000000000e+03 5.545932006835937500e+01 -1.060286235809326172e+01 1.796610832214355469e+00 1.082413482666015625e+01 3.786223649978637695e+00 -1.272569775581359863e+00
3.800000000000000000e+03 5.313213729858398438e+01 -1.273581981658935547e+01 -1.854911744594573975e-01 1.096061229705810547e+01 3.232536315917968750e+00 3.441698253154754639e-01
3.801000000000000000e+03 5.752104949951171875e+01 -7.956458091735839844e+00 3.369453907012939453e+00 9.353730201721191406e+00 3.816955089569091797e+00 -7.134202718734741211e-01
3.802000000000000000e+03 5.002708435058593750e+01 -1.417616844177246094e+01 -3.788316547870635986e-01 8.385683059692382812e+00 2.402055501937866211e+00 2.368588209152221680e+00
3.803000000000000000e+03 4.895276260375976562e+01 -1.453069114685058594e+01 -1.411424875259399414e-01 7.196105480194091797e+00 2.116488933563232422e+00 2.617779016494750977e+00
3.804000000000000000e+03 5.516808319091796875e+01 -1.212471199035644531e+01 6.759437918663024902e-01 1.073365783691406250e+01 3.422880411148071289e+00 -8.118922710418701172e-01
3.805000000000000000e+03 5.375473785400390625e+01 -1.238402652740478516e+01 1.098842322826385498e-01 1.112086486816406250e+01 3.369224548339843750e+00 -1.441917866468429565e-01
3.806000000000000000e+03 5.065015411376953125e+01 -1.807652413845062256e-01 -2.259535789489746094e-01 9.900899887084960938e+00 2.902483940124511719e+00 -2.214487552642822266e+00
3.807000000000000000e+03 5.622075653076171875e+01 -8.655896186828613281e+00 3.389092445373535156e+00 1.010962295532226562e+01 4.049614429473876953e+00 -1.134721398353576660e+00
3.808000000000000000e+03 5.628730773925781250e+01 -7.543451786041259766e+00 4.128312587738037109e+00 9.877932548522949219e+00 4.201873779296875000e+00 -6.767829060554504395e-01
3.809000000000000000e+03 5.458005142211914062e+01 -1.087061023712158203e+01 1.310188889503479004e+00 1.135276889801025391e+01 3.798887252807617188e+00 -1.030110597610473633e+00
3.810000000000000000e+03 5.825000381469726562e+01 -4.822775363922119141e+00 3.115791559219360352e+00 9.092782974243164062e+00 3.662572383880615234e+00 6.644132733345031738e-01
3.811000000000000000e+03 5.637838363647460938e+01 -4.154356479644775391e+00 3.429365634918212891e+00 1.001382064819335938e+01 4.032956123352050781e+00 1.137733340263366699e+00
3.812000000000000000e+03 5.622584152221679688e+01 -3.525482416152954102e+00 2.982147932052612305e+00 1.019405460357666016e+01 3.952860832214355469e+00 1.282393693923950195e+00
3.813000000000000000e+03 5.613441085815429688e+01 -1.854397296905517578e+00 1.718091726303100586e+00 1.034873771667480469e+01 3.620048999786376953e+00 1.259181022644042969e+00
3.814000000000000000e+03 6.030678176879882812e+01 -6.739532470703125000e+00 2.635170936584472656e+00 8.465923309326171875e+00 3.330328226089477539e+00 -9.364025294780731201e-02
3.815000000000000000e+03 6.046988296508789062e+01 -4.795771121978759766e+00 2.417892456054687500e+00 8.492424011230468750e+00 3.273094892501831055e+00 4.798165559768676758e-01
3.816000000000000000e+03 4.949101257324218750e+01 -1.756901741027832031e+01 -4.228730797767639160e-01 6.982039928436279297e+00 1.967750072479248047e+00 1.878094077110290527e+00
3.817000000000000000e+03 5.632463455200195312e+01 -1.064129734039306641e+01 1.902805328369140625e+00 1.028271102905273438e+01 3.655654907226562500e+00 -1.274924874305725098e+00
3.818000000000000000e+03 5.994346237182617188e+01 -1.112505912780761719e+01 1.586759924888610840e+00 8.860320091247558594e+00 3.134124040603637695e+00 -1.050073266029357910e+00
3.819000000000000000e+03 4.868627166748046875e+01 3.268212080001831055e+00 -9.106841683387756348e-02 6.603979587554931641e+00 1.953873395919799805e+00 -2.212468385696411133e+00
3.820000000000000000e+03 5.158546829223632812e+01 9.026094079017639160e-01 -4.171134829521179199e-01 9.853212356567382812e+00 2.830829620361328125e+00 -1.491899251937866211e+00
3.821000000000000000e+03 6.221178436279296875e+01 -1.170754337310791016e+01 1.236697077751159668e+00 8.378614425659179688e+00 2.884593486785888672e+00 -9.596200585365295410e-01
3.822000000000000000e+03 6.004539489746093750e+01 -1.818250536918640137e+00 1.640191197395324707e+00 8.817699432373046875e+00 3.137367248535156250e+00 1.071174025535583496e+00
3.823000000000000000e+03 5.774517822265625000e+01 -1.619099998474121094e+01 -1.659739613533020020e-01 9.169006347656250000e+00 2.700909852981567383e+00 -6.182833909988403320e-01
3.824000000000000000e+03 4.947897338867187500e+01 -1.434624385833740234e+01 -2.377118468284606934e-01 7.714645385742187500e+00 2.243080139160156250e+00 2.529481410980224609e+00
3.825000000000000000e+03 4.945596313476562500e+01 3.303463220596313477e+00 -2.648087143898010254e-01 7.236124515533447266e+00 2.091394662857055664e+00 -2.056084871292114258e+00
3.826000000000000000e+03 5.858964920043945312e+01 -6.384483337402343750e+00 3.246622323989868164e+00 8.891968727111816406e+00 3.641577482223510742e+00 4.794899374246597290e-03
3.827000000000000000e+03 5.826066589355468750e+01 -1.373771381378173828e+01 5.406177639961242676e-01 9.364577293395996094e+00 2.971558332443237305e+00 -9.827966094017028809e-01
3.828000000000000000e+03 5.808627700805664062e+01 -1.492219161987304688e+01 1.705276817083358765e-01 9.296462059020996094e+00 2.840096950531005859e+00 -8.275263905525207520e-01
3.829000000000000000e+03 5.814693069458007812e+01 -1.524036645889282227e+00 1.634630560874938965e+00 9.444122314453125000e+00 3.323625802993774414e+00 1.194036245346069336e+00
3.830000000000000000e+03 5.951283645629882812e+01 4.900421142578125000e+00 -1.808623373508453369e-01 8.714995384216308594e+00 2.560239791870117188e+00 7.713317871093750000e-01
3.831000000000000000e+03 5.926566696166992188e+01 -1.264421463012695312e+01 1.036586999893188477e+00 9.124489784240722656e+00 3.048323154449462891e+00 -1.108291745185852051e+00
3.832000000000000000e+03 5.538452529907226562e+01 -1.617799043655395508e+00 1.411301374435424805e+00 1.076459312438964844e+01 3.652768373489379883e+00 1.143960356712341309e+00
3.833000000000000000e+03 5.880561065673828125e+01 -4.945167601108551025e-01 1.127660393714904785e+00 9.216651916503906250e+00 3.103293657302856445e+00 1.153549551963806152e+00
3.834000000000000000e+03 4.762147521972656250e+01 7.447247505187988281e+00 -1.636657714843750000e-01 5.567012786865234375e+00 1.621004104614257812e+00 -1.599075436592102051e+00
3.835000000000000000e+03 6.018889236450195312e+01 -2.704798936843872070e+00 1.968670010566711426e+00 8.705277442932128906e+00 3.202184438705444336e+00 9.470967054367065430e-01
3.836000000000000000e+03 4.952922058105468750e+01 7.575208187103271484e+00 -4.212242066860198975e-01 6.487150192260742188e+00 1.819777727127075195e+00 -1.388639092445373535e+00
3.837000000000000000e+03 4.860134124755859375e+01 7.714977741241455078e+00 -3.113147616386413574e-01 6.023120880126953125e+00 1.713541865348815918e+00 -1.474422097206115723e+00
3.838000000000000000e+03 5.721015548706054688e+01 -1.874283027648925781e+01 -5.575974583625793457e-01 8.695170402526855469e+00 2.441272020339965820e+00 -2.560325562953948975e-01
3.839000000000000000e+03 5.198159408569335938e+01 -2.309849166870117188e+01 -6.702156066894531250e-01 6.951559543609619141e+00 1.884403109550476074e+00 8.780661821365356445e-01
3.840000000000000000e+03 4.721560287475585938e+01 -2.222947311401367188e+01 -2.178113311529159546e-01 5.264847755432128906e+00 1.514110922813415527e+00 1.435673117637634277e+00
3.841000000000000000e+03 5.558028793334960938e+01 -1.953478622436523438e+01 -7.058622241020202637e-01 8.450982093811035156e+00 2.323535919189453125e+00 1.560334563255310059e-01
3.842000000000000000e+03 4.330350112915039062e+01 -2.595243453979492188e+01 9.666451066732406616e-02 3.760298728942871094e+00 1.157088994979858398e+00 1.020559191703796387e+00
3.843000000000000000e+03 4.803185272216796875e+01 -2.491645240783691406e+01 -3.426811397075653076e-01 5.502146244049072266e+00 1.547839522361755371e+00 1.125102639198303223e+00
3.844000000000000000e+03 3.893054199218750000e+01 1.422274684906005859e+01 1.325839906930923462e-01 2.664694786071777344e+00 8.391836285591125488e-01 -7.403087019920349121e-01
3.845000000000000000e+03 3.640924072265625000e+01 1.187226104736328125e+01 2.164616286754608154e-01 1.888808965682983398e+00 6.315811872482299805e-01 -5.388817787170410156e-01
3.846000000000000000e+03 3.973669433593750000e+01 1.189339447021484375e+01 1.959758102893829346e-01 2.709520578384399414e+00 8.716489076614379883e-01 -8.417674899101257324e-01
3.847000000000000000e+03 5.393226623535156250e+01 1.387336730957031250e+01 -6.699970960617065430e-01 6.933235645294189453e+00 1.878971576690673828e+00 -3.658270537853240967e-01
3.848000000000000000e+03 5.804058074951171875e+01 6.588160037994384766e+00 -4.952679872512817383e-01 8.561741828918457031e+00 2.419942140579223633e+00 4.184548556804656982e-01
3.849000000000000000e+03 3.823079681396484375e+01 1.695402526855468750e+01 7.320351153612136841e-02 2.659246444702148438e+00 8.197349905967712402e-01 -6.429595947265625000e-01
3.850000000000000000e+03 3.532073211669921875e+01 1.370638275146484375e+01 1.616034507751464844e-01 1.830890059471130371e+00 5.977480411529541016e-01 -4.584521353244781494e-01
3.851000000000000000e+03 4.622294616699218750e+01 8.425170898437500000e+00 -4.534074291586875916e-02 4.852306365966796875e+00 1.442089676856994629e+00 -1.491051316261291504e+00
3.852000000000000000e+03 5.163257598876953125e+01 1.891484856605529785e-01 -3.373914062976837158e-01 1.039708709716796875e+01 3.017908811569213867e+00 -1.465952038764953613e+00
3.853000000000000000e+03 5.422315216064453125e+01 -1.133870315551757812e+01 8.611270189285278320e-01 1.150787067413330078e+01 3.710699319839477539e+00 -7.867939472198486328e-01
3.854000000000000000e+03 5.360859680175781250e+01 -1.292195606231689453e+01 -1.180374771356582642e-01 1.083601856231689453e+01 3.215394496917724609e+00 1.003117784857749939e-01
3.855000000000000000e+03 5.411030578613281250e+01 -1.365327239036560059e+00 8.150504231452941895e-01 1.142615985870361328e+01 3.672363042831420898e+00 7.024721503257751465e-01
3.856000000000000000e+03 5.057862091064453125e+01 5.063121914863586426e-01 -2.740347683429718018e-01 9.324430465698242188e+00 2.715118885040283203e+00 -2.197678804397583008e+00
3.857000000000000000e+03 4.999172592163085938e+01 -1.575721740722656250e+01 -4.461583793163299561e-01 7.786420345306396484e+00 2.202078580856323242e+00 2.039170980453491211e+00
3.858000000000000000e+03 4.919482421875000000e+01 -1.524290370941162109e+01 -2.403462380170822144e-01 7.195020675659179688e+00 2.086402416229248047e+00 2.389319896697998047e+00
3.859000000000000000e+03 5.125134277343750000e+01 -1.313151550292968750e+01 -4.796959459781646729e-01 1.004459381103515625e+01 2.869469165802001953e+00 1.801258206367492676e+00
3.860000000000000000e+03 5.582254791259765625e+01 -1.022973060607910156e+01 2.174757480621337891e+00 1.056837940216064453e+01 3.822941064834594727e+00 -1.316356658935546875e+00
3.861000000000000000e+03 5.061527633666992188e+01 2.740299940109252930e+00 -4.239543974399566650e-01 8.251652717590332031e+00 2.348309516906738281e+00 -1.779282569885253906e+00
3.862000000000000000e+03 5.570606231689453125e+01 -2.607471466064453125e+00 2.289849996566772461e+00 1.064635276794433594e+01 3.880860805511474609e+00 1.355235695838928223e+00
3.863000000000000000e+03 5.504914474487304688e+01 -1.131420803070068359e+01 1.176252722740173340e+00 1.093904685974121094e+01 3.634589672088623047e+00 -1.033987998962402344e+00
3.864000000000000000e+03 5.275194549560546875e+01 1.108311340212821960e-01 -2.164863497018814087e-01 1.082014274597167969e+01 3.181097030639648438e+00 -6.121521592140197754e-01
3.865000000000000000e+03 5.477856445312500000e+01 -1.172881412506103516e+01 7.620136737823486328e-01 1.102296066284179688e+01 3.535492420196533203e+00 -8.199487328529357910e-01
3.866000000000000000e+03 5.443400955200195312e+01 -1.013133645057678223e+00 7.295602560043334961e-01 1.115879058837890625e+01 3.566505432128906250e+00 7.180573940277099609e-01
3.867000000000000000e+03 5.033755874633789062e+01 6.145841628313064575e-02 -1.880855709314346313e-01 9.340456008911132812e+00 2.745711326599121094e+00 -2.416637897491455078e+00
3.868000000000000000e+03 5.684664535522460938e+01 -6.297595977783203125e+00 4.066277503967285156e+00 9.521058082580566406e+00 4.076200485229492188e+00 5.225964635610580444e-02
3.869000000000000000e+03 5.686470794677734375e+01 -7.712175846099853516e+00 3.768648386001586914e+00 9.624876976013183594e+00 4.018057346343994141e+00 -6.904203295707702637e-01
3.870000000000000000e+03 4.899415969848632812e+01 1.163873553276062012e+00 6.005109846591949463e-02 7.338040351867675781e+00 2.219427347183227539e+00 -2.695702791213989258e+00
3.871000000000000000e+03 4.973112487792968750e+01 -1.503558349609375000e+01 -3.660059869289398193e-01 7.785221099853515625e+00 2.225764513015747070e+00 2.270201921463012695e+00
3.872000000000000000e+03 5.666607284545898438e+01 -4.491657257080078125e+00 3.519475221633911133e+00 9.777095794677734375e+00 3.988971233367919922e+00 9.612793922424316406e-01
3.873000000000000000e+03 5.669166183471679688e+01 -5.567562103271484375e+00 3.991507053375244141e+00 9.620910644531250000e+00 4.083724975585937500e+00 4.739669859409332275e-01
3.874000000000000000e+03 5.294842147827148438e+01 -1.318188190460205078e+01 -3.315560817718505859e-01 1.066625976562500000e+01 3.100410938262939453e+00 5.656589865684509277e-01
3.875000000000000000e+03 5.337928390502929688e+01 -1.343040657043457031e+01 -3.006573617458343506e-01 1.054085731506347656e+01 3.072059869766235352e+00 3.424240946769714355e-01
3.876000000000000000e+03 5.948468017578125000e+01 -8.779638290405273438e+00 2.476170539855957031e+00 8.775252342224121094e+00 3.375427007675170898e+00 -7.129690051078796387e-01
3.877000000000000000e+03 5.655942535400390625e+01 -8.212803840637207031e+00 3.613019227981567383e+00 9.841835975646972656e+00 4.036456584930419922e+00 -9.367704391479492188e-01
3.878000000000000000e+03 4.880623626708984375e+01 -1.620963287353515625e+01 -2.451042383909225464e-01 6.734622001647949219e+00 1.946855425834655762e+00 2.243759393692016602e+00
3.879000000000000000e+03 4.991033554077148438e+01 -1.654217147827148438e+01 -4.657877385616302490e-01 7.457513809204101562e+00 2.097517728805541992e+00 1.971098661422729492e+00
3.880000000000000000e+03 5.949921798706054688e+01 -9.291492462158203125e+00 2.315317630767822266e+00 8.823717117309570312e+00 3.341710329055786133e+00 -8.462333083152770996e-01
3.881000000000000000e+03 5.946211242675781250e+01 -8.245766639709472656e+00 2.624168395996093750e+00 8.735553741455078125e+00 3.407916784286499023e+00 -5.883149504661560059e-01
3.882000000000000000e+03 5.735336303710937500e+01 -1.088319015502929688e+01 1.796259284019470215e+00 9.780283927917480469e+00 3.472963094711303711e+00 -1.220015764236450195e+00
3.883000000000000000e+03 5.094309616088867188e+01 9.045356512069702148e-01 -3.669851124286651611e-01 9.385915756225585938e+00 2.705679178237915039e+00 -1.890074372291564941e+00
3.884000000000000000e+03 4.898332214355468750e+01 1.931353569030761719e+00 -2.330933324992656708e-02 7.113695621490478516e+00 2.127115964889526367e+00 -2.484692811965942383e+00
3.885000000000000000e+03 5.671384811401367188e+01 -1.579140901565551758e+00 1.616890430450439453e+00 1.004620933532714844e+01 3.498929977416992188e+00 1.242239594459533691e+00
3.886000000000000000e+03 5.730490875244140625e+01 -3.143098354339599609e+00 2.568917512893676758e+00 9.674105644226074219e+00 3.672907114028930664e+00 1.188165545463562012e+00
3.887000000000000000e+03 5.782399749755859375e+01 -4.241361618041992188e+00 3.043118238449096680e+00 9.272002220153808594e+00 3.694536209106445312e+00 8.772796392440795898e-01
3.888000000000000000e+03 5.099013519287109375e+01 -1.602861976623535156e+01 -5.996509790420532227e-01 8.287658691406250000e+00 2.306402444839477539e+00 1.694950580596923828e+00
3.889000000000000000e+03 5.963490676879882812e+01 -7.339977264404296875e+00 2.791039943695068359e+00 8.649051666259765625e+00 3.432027578353881836e+00 -3.214856088161468506e-01
3.890000000000000000e+03 5.905031204223632812e+01 -6.888051986694335938e+00 3.031485319137573242e+00 8.779963493347167969e+00 3.543434619903564453e+00 -1.691229939460754395e-01
3.891000000000000000e+03 6.050766754150390625e+01 -1.107968902587890625e+01 1.554308533668518066e+00 8.699959754943847656e+00 3.076280355453491211e+00 -1.005804181098937988e+00
3.892000000000000000e+03 5.919844055175781250e+01 -1.063425064086914062e+01 1.856468081474304199e+00 9.058498382568359375e+00 3.274489879608154297e+00 -1.076791167259216309e+00
3.893000000000000000e+03 5.705830001831054688e+01 -9.291370391845703125e+00 2.821278095245361328e+00 9.771684646606445312e+00 3.777888774871826172e+00 -1.150552630424499512e+00
3.894000000000000000e+03 5.982189559936523438e+01 -1.049000740051269531e+01 1.829239010810852051e+00 8.858044624328613281e+00 3.206184864044189453e+00 -1.015963554382324219e+00
3.895000000000000000e+03 6.012913131713867188e+01 -5.607688426971435547e+00 2.658149719238281250e+00 8.522392272949218750e+00 3.354162693023681641e+00 2.594563066959381104e-01
3.896000000000000000e+03 4.905072784423828125e+01 3.696480989456176758e+00 -2.011431902647018433e-01 6.874069213867187500e+00 2.001877784729003906e+00 -2.046785354614257812e+00
3.897000000000000000e+03 4.931563568115234375e+01 6.113675594329833984e+00 -3.607737421989440918e-01 6.583143234252929688e+00 1.866710901260375977e+00 -1.607417941093444824e+00
3.898000000000000000e+03 6.009216308593750000e+01 -3.666248559951782227e+00 2.275557756423950195e+00 8.646534919738769531e+00 3.276627779006958008e+00 7.993649840354919434e-01
3.899000000000000000e+03 5.620185470581054688e+01 4.314848423004150391e+00 -4.158205091953277588e-01 9.044728279113769531e+00 2.588672399520874023e+00 2.558715641498565674e-01
3.900000000000000000e+03 5.828193283081054688e+01 1.886164188385009766e+00 3.083530068397521973e-01 9.277070999145507812e+00 2.875627040863037109e+00 9.401064515113830566e-01
3.901000000000000000e+03 4.937524414062500000e+01 2.365230798721313477e+00 -1.652884036302566528e-01 7.371725082397460938e+00 2.161931037902832031e+00 -2.288780927658081055e+00
3.902000000000000000e+03 4.985378265380859375e+01 5.059219360351562500e+00 -3.976283967494964600e-01 7.094218254089355469e+00 2.008976936340332031e+00 -1.678336977958679199e+00
3.903000000000000000e+03 5.879346847534179688e+01 -1.324786376953125000e+01 7.618883848190307617e-01 9.259430885314941406e+00 3.006395816802978516e+00 -1.064596891403198242e+00
3.904000000000000000e+03 5.873115539550781250e+01 -1.146630001068115234e+01 1.492351055145263672e+00 9.249328613281250000e+00 3.222503662109375000e+00 -1.143620729446411133e+00
3.905000000000000000e+03 5.761185455322265625e+01 2.009398490190505981e-01 8.018522858619689941e-01 9.617672920227050781e+00 3.125857591629028320e+00 1.077433228492736816e+00
3.906000000000000000e+03 5.616246032714843750e+01 -1.744733810424804688e+01 -5.219389796257019043e-01 9.004693984985351562e+00 2.544826507568359375e+00 -1.398755908012390137e-01
3.907000000000000000e+03 4.895680618286132812e+01 6.891837120056152344e+00 -3.337739109992980957e-01 6.325027465820312500e+00 1.797376036643981934e+00 -1.539690971374511719e+00
3.908000000000000000e+03 5.068985366821289062e+01 -1.679220390319824219e+01 -5.720888376235961914e-01 7.857422828674316406e+00 2.185600042343139648e+00 1.690961122512817383e+00
3.909000000000000000e+03 5.759347534179687500e+01 -5.226164460182189941e-01 1.135339856147766113e+00 9.682632446289062500e+00 3.245391845703125000e+00 1.173073530197143555e+00
3.910000000000000000e+03 5.429236221313476562e+01 -1.250398921966552734e+01 2.419622093439102173e-01 1.091582775115966797e+01 3.347337007522583008e+00 -3.982482552528381348e-01
3.911000000000000000e+03 6.022680664062500000e+01 -1.162656784057617188e+01 1.376351714134216309e+00 8.817870140075683594e+00 3.058266401290893555e+00 -1.067703723907470703e+00
3.912000000000000000e+03 5.827738571166992188e+01 5.030530929565429688e+00 -3.071793913841247559e-01 8.835822105407714844e+00 2.558592796325683594e+00 5.969808697700500488e-01
3.913000000000000000e+03 5.021704864501953125e+01 -1.923736953735351562e+01 -5.412091016769409180e-01 6.955487251281738281e+00 1.924283504486083984e+00 1.508894205093383789e+00
3.914000000000000000e+03 5.738909530639648438e+01 -1.528137016296386719e+01 -1.285906322300434113e-02 9.381748199462890625e+00 2.810666561126708984e+00 -6.748611330986022949e-01
3.915000000000000000e+03 5.498104476928710938e+01 -1.806732177734375000e+01 -6.775695085525512695e-01 8.800436019897460938e+00 2.436860084533691406e+00 2.486336231231689453e-01
3.916000000000000000e+03 5.042372131347656250e+01 -2.079843521118164062e+01 -5.764631628990173340e-01 6.824684619903564453e+00 1.874466419219970703e+00 1.297686100006103516e+00
3.917000000000000000e+03 5.398508453369140625e+01 -1.995832824707031250e+01 -7.619569897651672363e-01 8.147789001464843750e+00 2.215749740600585938e+00 5.929301381111145020e-01
3.918000000000000000e+03 5.635551452636718750e+01 9.007728576660156250e+00 -6.894135475158691406e-01 8.073181152343750000e+00 2.215130329132080078e+00 1.165763568133115768e-02
3.919000000000000000e+03 4.097553253173828125e+01 1.082219600677490234e+01 2.140516191720962524e-01 2.970806360244750977e+00 9.554573893547058105e-01 -9.775192737579345703e-01
3.920000000000000000e+03 5.374991607666015625e+01 -2.218596458435058594e+01 -7.479199767112731934e-01 7.568081855773925781e+00 2.046048641204833984e+00 5.944886803627014160e-01
3.921000000000000000e+03 5.566875457763671875e+01 -2.470515823364257812e+01 -7.574138641357421875e-01 7.453794956207275391e+00 2.008914232254028320e+00 2.589131295680999756e-01
3.922000000000000000e+03 5.659836578369140625e+01 -2.868764114379882812e+01 -6.973925828933715820e-01 7.136343479156494141e+00 1.931685209274291992e+00 1.046901941299438477e-01
3.923000000000000000e+03 5.630654144287109375e+01 -2.341622924804687500e+01 -7.533740997314453125e-01 7.806082248687744141e+00 2.115812301635742188e+00 1.313043534755706787e-01
3.924000000000000000e+03 5.470403671264648438e+01 9.885135650634765625e+00 -7.247213721275329590e-01 7.665833950042724609e+00 2.082333803176879883e+00 -3.193294405937194824e-01
3.925000000000000000e+03 5.521417999267578125e+01 1.145411586761474609e+01 -7.182186841964721680e-01 7.507490634918212891e+00 2.036781549453735352e+00 -2.186822444200515747e-01
3.926000000000000000e+03 5.181108856201171875e+01 4.076751232147216797e+00 -5.862600207328796387e-01 8.368813514709472656e+00 2.334766149520874023e+00 -1.203153848648071289e+00
3.927000000000000000e+03 4.736513137817382812e+01 8.663185119628906250e+00 -1.908372640609741211e-01 5.358466148376464844e+00 1.550288558006286621e+00 -1.448544502258300781e+00
3.928000000000000000e+03 4.853758239746093750e+01 8.793120384216308594e+00 -3.304322957992553711e-01 5.894378185272216797e+00 1.669183850288391113e+00 -1.371133446693420410e+00
3.929000000000000000e+03 5.502349090576171875e+01 1.772266960144042969e+01 -6.006228923797607422e-01 6.713568687438964844e+00 1.833883762359619141e+00 -1.895457655191421509e-01
3.930000000000000000e+03 3.683726119995117188e+01 1.334742164611816406e+01 1.776082813739776611e-01 2.068540573120117188e+00 6.738446354866027832e-01 -5.832865834236145020e-01
3.931000000000000000e+03 4.621976852416992188e+01 -2.635356330871582031e+01 -1.786059290170669556e-01 4.778677463531494141e+00 1.380021452903747559e+00 1.027741551399230957e+00
3.932000000000000000e+03 5.408608245849609375e+01 -6.208636760711669922e-01 3.928369581699371338e-01 1.108432865142822266e+01 3.443149805068969727e+00 4.233145415782928467e-01
3.933000000000000000e+03 5.233389282226562500e+01 3.591358959674835205e-01 -3.188995420932769775e-01 1.054322433471679688e+01 3.067297220230102539e+00 -9.402862191200256348e-01
3.934000000000000000e+03 5.260716247558593750e+01 8.565366268157958984e-01 -3.512212336063385010e-01 1.027043628692626953e+01 2.975764513015747070e+00 -8.160970807075500488e-01
3.935000000000000000e+03 5.189933776855468750e+01 -1.394505691528320312e+01 -5.509224534034729004e-01 9.882406234741210938e+00 2.799444913864135742e+00 1.361030101776123047e+00
3.936000000000000000e+03 5.509841537475585938e+01 -1.365539073944091797e+01 2.671523764729499817e-02 1.028489685058593750e+01 3.093483686447143555e+00 -4.084911644458770752e-01
3.937000000000000000e+03 5.235448074340820312e+01 -1.341456794738769531e+01 -4.641571640968322754e-01 1.040254974365234375e+01 2.981517791748046875e+00 1.002137899398803711e+00
3.938000000000000000e+03 5.492959594726562500e+01 2.983506917953491211e-01 2.516845762729644775e-01 1.042215061187744141e+01 3.202150583267211914e+00 5.024250745773315430e-01
3.939000000000000000e+03 5.758824539184570312e+01 -5.256549358367919922e+00 3.500368833541870117e+00 9.266982078552246094e+00 3.830205202102661133e+00 5.209902524948120117e-01
3.940000000000000000e+03 5.384745788574218750e+01 2.538130283355712891e-01 1.992138801142573357e-03 1.068306446075439453e+01 3.205516815185546875e+00 5.674860626459121704e-02
3.941000000000000000e+03 5.302007293701171875e+01 6.131731271743774414e-01 -2.599386870861053467e-01 1.051312446594238281e+01 3.075955867767333984e+00 -5.043870806694030762e-01
3.942000000000000000e+03 5.668713378906250000e+01 -8.955676078796386719e+00 3.076928615570068359e+00 9.896646499633789062e+00 3.892072439193725586e+00 -1.140607833862304688e+00
3.943000000000000000e+03 5.678342056274414062e+01 -9.641460418701171875e+00 2.608418226242065430e+00 9.947726249694824219e+00 3.766843318939208984e+00 -1.226088762283325195e+00
3.944000000000000000e+03 5.557489395141601562e+01 -2.114855527877807617e+00 1.810069561004638672e+00 1.071149158477783203e+01 3.756468296051025391e+00 1.265945911407470703e+00
3.945000000000000000e+03 5.692387008666992188e+01 -2.177308559417724609e+00 2.012946605682373047e+00 9.934492111206054688e+00 3.584231615066528320e+00 1.272358655929565430e+00
3.946000000000000000e+03 5.272651672363281250e+01 -1.357131671905517578e+01 -4.387515783309936523e-01 1.039354133605957031e+01 2.986437082290649414e+00 7.729260325431823730e-01
3.947000000000000000e+03 5.249677276611328125e+01 -1.299983119964599609e+01 -3.886971771717071533e-01 1.070969104766845703e+01 3.096298217773437500e+00 8.548058867454528809e-01
3.948000000000000000e+03 5.631816101074218750e+01 -3.006741285324096680e+00 2.601099967956542969e+00 1.019718647003173828e+01 3.839486122131347656e+00 1.316908717155456543e+00
3.949000000000000000e+03 5.667901992797851562e+01 -3.659481048583984375e+00 3.018289804458618164e+00 9.928984642028808594e+00 3.884182453155517578e+00 1.200058460235595703e+00
3.950000000000000000e+03 5.306638717651367188e+01 -1.387799644470214844e+01 -4.308284819126129150e-01 1.025621700286865234e+01 2.947616577148437500e+00 6.093933582305908203e-01
3.951000000000000000e+03 5.484370422363281250e+01 -1.272342777252197266e+01 3.054259121417999268e-01 1.066561794281005859e+01 3.291313171386718750e+00 -5.493818521499633789e-01
3.952000000000000000e+03 5.409727096557617188e+01 -1.314082241058349609e+01 -5.687808617949485779e-02 1.062265205383300781e+01 3.169732332229614258e+00 -1.018208712339401245e-01
3.953000000000000000e+03 5.716986083984375000e+01 -2.674654006958007812e+00 2.318844556808471680e+00 9.790495872497558594e+00 3.632802248001098633e+00 1.248532891273498535e+00
3.954000000000000000e+03 5.781046295166015625e+01 -7.287854671478271484e+00 3.437429904937744141e+00 9.155452728271484375e+00 3.777864694595336914e+00 -3.756946325302124023e-01
3.955000000000000000e+03 5.786198806762695312e+01 -1.018590831756591797e+01 2.152875661849975586e+00 9.479437828063964844e+00 3.489694118499755859e+00 -1.145752191543579102e+00
3.956000000000000000e+03 5.905037307739257812e+01 -9.985869407653808594e+00 2.125611543655395508e+00 9.048160552978515625e+00 3.352131605148315430e+00 -1.021860003471374512e+00
3.957000000000000000e+03 5.552024459838867188e+01 -1.158028221130371094e+01 1.124194025993347168e+00 1.069315719604492188e+01 3.545205354690551758e+00 -1.059189200401306152e+00
3.958000000000000000e+03 5.637001419067382812e+01 -1.155302143096923828e+01 1.295464634895324707e+00 1.025990581512451172e+01 3.466611146926879883e+00 -1.158391356468200684e+00
3.959000000000000000e+03 5.486362075805664062e+01 -6.188868284225463867e-01 6.337816119194030762e-01 1.081927871704101562e+01 3.435918331146240234e+00 7.247132062911987305e-01
3.960000000000000000e+03 5.012520599365234375e+01 2.317742109298706055e+00 -3.181323409080505371e-01 8.028774261474609375e+00 2.313192605972290039e+00 -2.059620857238769531e+00
3.961000000000000000e+03 5.040050125122070312e+01 1.797514438629150391e+00 -3.438712954521179199e-01 8.495002746582031250e+00 2.445339441299438477e+00 -2.036479234695434570e+00
3.962000000000000000e+03 5.218012237548828125e+01 -1.452427291870117188e+01 -5.993216037750244141e-01 9.622662544250488281e+00 2.707002162933349609e+00 1.208059072494506836e+00
3.963000000000000000e+03 5.911542892456054688e+01 -7.807388782501220703e+00 2.842786073684692383e+00 8.792026519775390625e+00 3.490443706512451172e+00 -4.797939956188201904e-01
3.964000000000000000e+03 5.780763244628906250e+01 -1.306544303894042969e+01 7.446034550666809082e-01 9.551787376403808594e+00 3.088917255401611328e+00 -1.033257484436035156e+00
3.965000000000000000e+03 5.937001419067382812e+01 -1.136618137359619141e+01 1.513910412788391113e+00 9.053093910217285156e+00 3.170101165771484375e+00 -1.104387044906616211e+00
3.966000000000000000e+03 5.859749221801757812e+01 -1.073506832122802734e+01 1.850998759269714355e+00 9.253207206726074219e+00 3.331261873245239258e+00 -1.119475245475769043e+00
3.967000000000000000e+03 5.344773483276367188e+01 -1.520581054687500000e+01 -5.910345315933227539e-01 9.587152481079101562e+00 2.698835372924804688e+00 5.929647684097290039e-01
3.968000000000000000e+03 5.975668334960937500e+01 -4.596698284149169922e+00 2.603293180465698242e+00 8.664140701293945312e+00 3.380230188369750977e+00 5.750245451927185059e-01
3.969000000000000000e+03 5.925123214721679688e+01 -1.903838276863098145e+00 1.755712866783142090e+00 9.031011581420898438e+00 3.236017227172851562e+00 1.120423436164855957e+00
3.970000000000000000e+03 5.240785598754882812e+01 1.594910502433776855e+00 -4.676029980182647705e-01 9.745794296264648438e+00 2.783457517623901367e+00 -9.826107025146484375e-01
3.971000000000000000e+03 4.993370437622070312e+01 3.889151811599731445e+00 -3.650431931018829346e-01 7.445601463317871094e+00 2.124167442321777344e+00 -1.861640453338623047e+00
3.972000000000000000e+03 5.966772460937500000e+01 -6.299326419830322266e+00 2.872723817825317383e+00 8.611708641052246094e+00 3.445329666137695312e+00 5.790904536843299866e-02
3.973000000000000000e+03 5.974977111816406250e+01 -1.207475280761718750e+01 1.238781690597534180e+00 8.977708816528320312e+00 3.064947128295898438e+00 -1.105948448181152344e+00
3.974000000000000000e+03 5.778738784790039062e+01 2.582729339599609375e+00 8.742635697126388550e-02 9.273931503295898438e+00 2.808407306671142578e+00 7.933164238929748535e-01
3.975000000000000000e+03 5.358511734008789062e+01 1.651302933692932129e+00 -3.461877405643463135e-01 1.000104331970214844e+01 2.896456480026245117e+00 -3.118134140968322754e-01
3.976000000000000000e+03 5.055983734130859375e+01 7.154356479644775391e+00 -5.251451134681701660e-01 7.005761623382568359e+00 1.944184899330139160e+00 -1.267507672309875488e+00
3.977000000000000000e+03 5.667659759521484375e+01 -1.557264614105224609e+01 -1.761754155158996582e-01 9.457116127014160156e+00 2.784282207489013672e+00 -5.056957602500915527e-01
3.978000000000000000e+03 5.706364440917968750e+01 1.491693019866943359e+00 2.790182828903198242e-01 9.585340499877929688e+00 2.959307670593261719e+00 8.371306061744689941e-01
3.979000000000000000e+03 5.055381011962890625e+01 4.596442222595214844e+00 -4.775038063526153564e-01 7.614737987518310547e+00 2.141170263290405273e+00 -1.551580548286437988e+00
3.980000000000000000e+03 5.846691894531250000e+01 -2.150818109512329102e+00 1.926919579505920410e+00 9.282413482666015625e+00 3.362799882888793945e+00 1.163046121597290039e+00
3.981000000000000000e+03 5.727507781982421875e+01 -1.304940342903137207e+00 1.495762944221496582e+00 9.798631668090820312e+00 3.388318538665771484e+00 1.225456714630126953e+00
3.982000000000000000e+03 4.470666122436523438e+01 9.427742004394531250e+00 5.683679878711700439e-02 4.207807540893554688e+00 1.279393315315246582e+00 -1.351532578468322754e+00
3.983000000000000000e+03 5.933843994140625000e+01 -2.787104368209838867e+00 2.144638299942016602e+00 8.935610771179199219e+00 3.324074506759643555e+00 1.016355514526367188e+00
3.984000000000000000e+03 4.986920166015625000e+01 9.977667808532714844e+00 -4.909557402133941650e-01 6.317300319671630859e+00 1.747903347015380859e+00 -1.100985884666442871e+00
3.985000000000000000e+03 5.447608566284179688e+01 -1.898486709594726562e+01 -7.423283457756042480e-01 8.456108093261718750e+00 2.314133882522583008e+00 4.570649862289428711e-01
3.986000000000000000e+03 5.811773300170898438e+01 8.316042900085449219e+00 -5.951459407806396484e-01 8.298039436340332031e+00 2.310868263244628906e+00 3.248699903488159180e-01
3.987000000000000000e+03 5.176396560668945312e+01 -2.017358589172363281e+01 -6.903056502342224121e-01 7.496794700622558594e+00 2.041946649551391602e+00 1.091219544410705566e+00
3.988000000000000000e+03 5.694914627075195312e+01 -1.644443511962890625e+01 -3.160464763641357422e-01 9.212020874023437500e+00 2.668792486190795898e+00 -4.292226135730743408e-01
3.989000000000000000e+03 5.325439453125000000e+01 -1.654216766357421875e+01 -6.958700418472290039e-01 9.026462554931640625e+00 2.499177932739257812e+00 7.358202934265136719e-01
3.990000000000000000e+03 5.234048080444335938e+01 -2.192068862915039062e+01 -7.140049934387207031e-01 7.282310962677001953e+00 1.970491886138916016e+00 9.122025370597839355e-01
3.991000000000000000e+03 5.565428924560546875e+01 -2.654762649536132812e+01 -7.242988348007202148e-01 7.224721908569335938e+00 1.950127005577087402e+00 2.325528264045715332e-01
3.992000000000000000e+03 5.660350036621093750e+01 6.245851993560791016e+00 -5.683234333992004395e-01 8.610737800598144531e+00 2.412724256515502930e+00 1.850013136863708496e-01
3.993000000000000000e+03 4.697309494018554688e+01 1.144695091247558594e+01 -2.360234409570693970e-01 5.115590095520019531e+00 1.463869929313659668e+00 -1.172878265380859375e+00
3.994000000000000000e+03 5.094804763793945312e+01 8.367580413818359375e+00 -5.737780928611755371e-01 6.944454193115234375e+00 1.911202788352966309e+00 -1.071264266967773438e+00
3.995000000000000000e+03 5.337967300415039062e+01 -2.673544311523437500e+01 -6.743690371513366699e-01 6.797562599182128906e+00 1.836958050727844238e+00 4.887853860855102539e-01
3.996000000000000000e+03 4.316007232666015625e+01 1.378261852264404297e+01 -2.115618623793125153e-02 3.841149568557739258e+00 1.145998001098632812e+00 -9.859720468521118164e-01
3.997000000000000000e+03 4.035614395141601562e+01 1.330850887298583984e+01 1.336195468902587891e-01 2.970323085784912109e+00 9.311827421188354492e-01 -8.529899120330810547e-01
3.998000000000000000e+03 4.717504119873046875e+01 9.990788459777832031e+00 -2.136178612709045410e-01 5.236626625061035156e+00 1.506902694702148438e+00 -1.311417460441589355e+00
3.999000000000000000e+03 4.591525268554687500e+01 9.761732101440429688e+00 -8.190146833658218384e-02 4.722749710083007812e+00 1.392254471778869629e+00 -1.342175722122192383e+00
4.000000000000000000e+03 5.244703292846679688e+01 1.646045494079589844e+01 -5.790967345237731934e-01 6.355320930480957031e+00 1.732867240905761719e+00 -4.481942057609558105e-01
4.001000000000000000e+03 6.217327499389648438e+01 1.577208709716796875e+01 -5.391221642494201660e-01 7.690947532653808594e+00 2.145547628402709961e+00 4.345768690109252930e-01
4.002000000000000000e+03 5.932236862182617188e+01 1.747855758666992188e+01 -5.866727232933044434e-01 7.335961818695068359e+00 2.024786710739135742e+00 1.867658346891403198e-01
4.003000000000000000e+03 5.546126174926757812e+01 2.174786567687988281e+00 -1.654933094978332520e-01 9.692439079284667969e+00 2.858083724975585938e+00 3.398261666297912598e-01
4.004000000000000000e+03 5.629534912109375000e+01 -2.425443172454833984e+00 2.156424522399902344e+00 1.024509239196777344e+01 3.720455169677734375e+00 1.310565710067749023e+00
4.005000000000000000e+03 5.679615402221679688e+01 -1.113915729522705078e+01 1.610792398452758789e+00 1.005141353607177734e+01 3.498661756515502930e+00 -1.220064640045166016e+00
4.006000000000000000e+03 5.345581054687500000e+01 -1.425396156311035156e+01 -4.288377165794372559e-01 1.009626102447509766e+01 2.900226831436157227e+00 4.346695244312286377e-01
4.007000000000000000e+03 5.148105621337890625e+01 1.931012392044067383e+00 -4.952811896800994873e-01 9.199556350708007812e+00 2.611282587051391602e+00 -1.500660538673400879e+00
4.008000000000000000e+03 5.721661758422851562e+01 -4.310925960540771484e+00 3.283352613449096680e+00 9.553241729736328125e+00 3.850978374481201172e+00 9.523211121559143066e-01
4.009000000000000000e+03 5.044926071166992188e+01 -1.786967658996582031e+01 -5.544375777244567871e-01 7.401663303375244141e+00 2.054167747497558594e+00 1.642389416694641113e+00
4.010000000000000000e+03 5.341528701782226562e+01 3.683384358882904053e-01 -1.435150355100631714e-01 1.068008422851562500e+01 3.160970687866210938e+00 -2.281332612037658691e-01
4.011000000000000000e+03 5.651023101806640625e+01 2.037547588348388672e+00 2.575963921844959259e-02 9.622952461242675781e+00 2.894613504409790039e+00 6.359639167785644531e-01
4.012000000000000000e+03 5.622787094116210938e+01 -3.034766316413879395e-01 8.043419122695922852e-01 1.015349197387695312e+01 3.287350177764892578e+00 9.934793710708618164e-01
4.013000000000000000e+03 5.592494201660156250e+01 -1.284130215644836426e+00 1.300818562507629395e+00 1.042397499084472656e+01 3.517438173294067383e+00 1.137774705886840820e+00
4.014000000000000000e+03 5.831227111816406250e+01 -9.463238716125488281e+00 2.470150709152221680e+00 9.253228187561035156e+00 3.517013549804687500e+00 -1.017858862876892090e+00
4.015000000000000000e+03 5.886961364746093750e+01 -8.275392532348632812e+00 2.810773134231567383e+00 8.916921615600585938e+00 3.518308401107788086e+00 -6.657203435897827148e-01
4.016000000000000000e+03 5.829080581665039062e+01 -5.823803424835205078e+00 3.366508483886718750e+00 9.013683319091796875e+00 3.714057445526123047e+00 2.605918347835540771e-01
4.017000000000000000e+03 5.822652816772460938e+01 -8.159105300903320312e+00 3.062372684478759766e+00 9.123479843139648438e+00 3.655755758285522461e+00 -6.964803934097290039e-01
4.018000000000000000e+03 5.712577438354492188e+01 -8.521515846252441406e+00 3.236948251724243164e+00 9.602411270141601562e+00 3.851807832717895508e+00 -9.530634880065917969e-01
4.019000000000000000e+03 5.769414520263671875e+01 -6.155009269714355469e+00 3.594406604766845703e+00 9.174420356750488281e+00 3.830647945404052734e+00 1.652885824441909790e-01
4.020000000000000000e+03 5.791139602661132812e+01 -6.662872314453125000e+00 3.486911773681640625e+00 9.096459388732910156e+00 3.775011301040649414e+00 -1.190855428576469421e-01
4.021000000000000000e+03 5.185816574096679688e+01 1.249226212501525879e+00 -4.459300339221954346e-01 9.755796432495117188e+00 2.792959928512573242e+00 -1.302502274513244629e+00
4.022000000000000000e+03 5.535400772094726562e+01 -1.303782558441162109e+01 3.101471960544586182e-01 1.039560031890869141e+01 3.211724042892456055e+00 -6.275285482406616211e-01
4.023000000000000000e+03 5.754210662841796875e+01 -1.868897557258605957e+00 1.830340385437011719e+00 9.662264823913574219e+00 3.447781562805175781e+00 1.229931116104125977e+00
4.024000000000000000e+03 5.382398605346679688e+01 -1.373691368103027344e+01 -2.877980470657348633e-01 1.038443565368652344e+01 3.028991222381591797e+00 1.751329302787780762e-01
4.025000000000000000e+03 5.583445358276367188e+01 -1.336144065856933594e+01 2.774725556373596191e-01 1.015208244323730469e+01 3.128866434097290039e+00 -6.725041270256042480e-01
4.026000000000000000e+03 5.600387573242187500e+01 -1.200028610229492188e+01 9.866855144500732422e-01 1.036846542358398438e+01 3.406545400619506836e+00 -1.037199497222900391e+00
4.027000000000000000e+03 5.197738265991210938e+01 1.629502892494201660e+00 -4.906710982322692871e-01 9.572144508361816406e+00 2.724442005157470703e+00 -1.241451025009155273e+00
4.028000000000000000e+03 5.650399780273437500e+01 8.330979943275451660e-01 4.064947366714477539e-01 9.845186233520507812e+00 3.075504302978515625e+00 8.408194780349731445e-01
4.029000000000000000e+03 5.703815841674804688e+01 -1.447578811645507812e+01 1.484685242176055908e-01 9.602117538452148438e+00 2.925175905227661133e+00 -7.343314886093139648e-01
4.030000000000000000e+03 5.636096191406250000e+01 -1.480400371551513672e+01 -3.993853554129600525e-02 9.669443130493164062e+00 2.888851404190063477e+00 -5.561391711235046387e-01
4.031000000000000000e+03 5.814460754394531250e+01 -5.312931537628173828e+00 3.350762128829956055e+00 9.078013420104980469e+00 3.728632688522338867e+00 4.508790373802185059e-01
4.032000000000000000e+03 5.166647338867187500e+01 -1.479044723510742188e+01 -6.164810061454772949e-01 9.294189453125000000e+00 2.603312730789184570e+00 1.468826174736022949e+00
4.033000000000000000e+03 5.337559127807617188e+01 -1.747582817077636719e+01 -7.257010340690612793e-01 8.709053039550781250e+00 2.395005702972412109e+00 7.173853516578674316e-01
4.034000000000000000e+03 5.032694244384765625e+01 3.346349954605102539e+00 -4.035727381706237793e-01 7.808681488037109375e+00 2.221532583236694336e+00 -1.819773912429809570e+00
4.035000000000000000e+03 4.981235122680664062e+01 2.834769725799560547e+00 -2.980993092060089111e-01 7.622026443481445312e+00 2.197178125381469727e+00 -2.065766811370849609e+00
4.036000000000000000e+03 5.776226425170898438e+01 -1.046678304672241211e+00 1.383178472518920898e+00 9.613936424255371094e+00 3.299134492874145508e+00 1.197320938110351562e+00
4.037000000000000000e+03 5.587000274658203125e+01 3.242278099060058594e-01 4.792340695858001709e-01 1.015967655181884766e+01 3.191673278808593750e+00 8.043720722198486328e-01
4.038000000000000000e+03 5.687830352783203125e+01 8.998410403728485107e-02 7.474834322929382324e-01 9.852419853210449219e+00 3.179970979690551758e+00 1.024634599685668945e+00
4.039000000000000000e+03 5.116315078735351562e+01 5.556305408477783203e+00 -5.719431042671203613e-01 7.651436328887939453e+00 2.123847961425781250e+00 -1.274874806404113770e+00
4.040000000000000000e+03 5.928530120849609375e+01 -3.616018056869506836e+00 2.424603939056396484e+00 8.874739646911621094e+00 3.389803171157836914e+00 8.781692981719970703e-01
4.041000000000000000e+03 5.858115005493164062e+01 -2.891525030136108398e+00 2.274553060531616211e+00 9.159618377685546875e+00 3.430251598358154297e+00 1.070133447647094727e+00
4.042000000000000000e+03 5.752635192871093750e+01 3.625298738479614258e+00 -1.726841032505035400e-01 9.142429351806640625e+00 2.690923452377319336e+00 6.235384941101074219e-01
4.043000000000000000e+03 5.603323745727539062e+01 2.798317432403564453e+00 -1.942088305950164795e-01 9.478075027465820312e+00 2.785160064697265625e+00 4.114204347133636475e-01
4.044000000000000000e+03 5.768462371826171875e+01 -1.415012741088867188e+01 3.473188579082489014e-01 9.483790397644042969e+00 2.949332952499389648e+00 -8.809855580329895020e-01
4.045000000000000000e+03 5.692638015747070312e+01 -1.292066001892089844e+01 6.793132424354553223e-01 9.868643760681152344e+00 3.164387226104736328e+00 -9.724530577659606934e-01
4.046000000000000000e+03 5.951399230957031250e+01 -5.359593868255615234e+00 2.824424982070922852e+00 8.672333717346191406e+00 3.449027538299560547e+00 3.703442811965942383e-01
4.047000000000000000e+03 5.906887817382812500e+01 -4.410768032073974609e+00 2.752100944519042969e+00 8.857768058776855469e+00 3.482960700988769531e+00 6.865473985671997070e-01
4.048000000000000000e+03 5.810932159423828125e+01 -1.208816719055175781e+01 1.189490079879760742e+00 9.505531311035156250e+00 3.208506345748901367e+00 -1.131884336471557617e+00
4.049000000000000000e+03 5.167433547973632812e+01 6.703309059143066406e+00 -6.211802959442138672e-01 7.573018550872802734e+00 2.085551500320434570e+00 -1.054121255874633789e+00
4.050000000000000000e+03 5.021052169799804688e+01 6.015635967254638672e+00 -4.686446189880371094e-01 7.041024208068847656e+00 1.971713900566101074e+00 -1.460471868515014648e+00
4.051000000000000000e+03 5.311576461791992188e+01 1.059266948699951172e+01 -6.855345368385314941e-01 7.203040122985839844e+00 1.955251574516296387e+00 -5.744537711143493652e-01
4.052000000000000000e+03 5.596540069580078125e+01 -1.584701156616210938e+01 -3.365745246410369873e-01 9.463788032531738281e+00 2.738163948059082031e+00 -2.729906439781188965e-01
4.053000000000000000e+03 5.619406127929687500e+01 -1.656117439270019531e+01 -4.151756763458251953e-01 9.227119445800781250e+00 2.643583059310913086e+00 -2.554627060890197754e-01
4.054000000000000000e+03 5.126258087158203125e+01 9.672156333923339844e+00 -5.958995223045349121e-01 6.833696842193603516e+00 1.871339201927185059e+00 -9.245023727416992188e-01
4.055000000000000000e+03 4.973444747924804688e+01 8.691454887390136719e+00 -4.641962051391601562e-01 6.439819812774658203e+00 1.792687058448791504e+00 -1.240032434463500977e+00
4.056000000000000000e+03 5.492251968383789062e+01 -2.056969070434570312e+01 -7.589610219001770020e-01 8.152851104736328125e+00 2.218167066574096680e+00 3.326180875301361084e-01
4.057000000000000000e+03 5.269200897216796875e+01 -1.876247406005859375e+01 -7.528890371322631836e-01 8.172768592834472656e+00 2.225963830947875977e+00 8.974477648735046387e-01
4.058000000000000000e+03 5.553806304931640625e+01 7.563673973083496094e+00 -6.829196214675903320e-01 8.267628669738769531e+00 2.275412559509277344e+00 -1.019339114427566528e-01
4.059000000000000000e+03 4.371847915649414062e+01 1.224353885650634766e+01 3.905349876731634140e-03 3.968382358551025391e+00 1.191686391830444336e+00 -1.087419033050537109e+00
4.060000000000000000e+03 5.415900802612304688e+01 -1.758869743347167969e+01 -6.985833644866943359e-01 8.824516296386718750e+00 2.437779903411865234e+00 4.567777216434478760e-01
4.061000000000000000e+03 5.529262542724609375e+01 -1.720156669616699219e+01 -6.089965701103210449e-01 9.050703048706054688e+00 2.532512187957763672e+00 1.067615598440170288e-01
4.062000000000000000e+03 5.352260971069335938e+01 1.215331459045410156e+01 -6.825712323188781738e-01 7.061105251312255859e+00 1.913560152053833008e+00 -4.649959802627563477e-01
4.063000000000000000e+03 5.180398941040039062e+01 1.271050548553466797e+01 -6.081956624984741211e-01 6.570470809936523438e+00 1.788682460784912109e+00 -6.726074218750000000e-01
4.064000000000000000e+03 5.241774368286132812e+01 2.170426368713378906e+00 -5.195342302322387695e-01 9.454195976257324219e+00 2.680398464202880859e+00 -1.001303553581237793e+00
4.065000000000000000e+03 4.557510375976562500e+01 1.118354129791259766e+01 -1.029771119356155396e-01 4.598363399505615234e+00 1.348615884780883789e+00 -1.213504076004028320e+00
4.066000000000000000e+03 3.828984451293945312e+01 1.270796585083007812e+01 1.830555200576782227e-01 2.375636100769042969e+00 7.676075100898742676e-01 -6.844187378883361816e-01
4.067000000000000000e+03 5.409699249267578125e+01 8.498164176940917969e+00 -7.161611914634704590e-01 7.806675434112548828e+00 2.127154111862182617e+00 -4.413352608680725098e-01
4.068000000000000000e+03 5.972855377197265625e+01 -2.898643302917480469e+01 -6.765492558479309082e-01 7.510561943054199219e+00 2.050203800201416016e+00 -1.652039140462875366e-01
4.069000000000000000e+03 5.918319702148437500e+01 -2.617923736572265625e+01 -6.926285028457641602e-01 7.728404998779296875e+00 2.110732793807983398e+00 -2.040510922670364380e-01
4.070000000000000000e+03 5.260187530517578125e+01 -2.082445526123046875e+01 -7.205011248588562012e-01 7.555113315582275391e+00 2.050383567810058594e+00 8.810579776763916016e-01
4.071000000000000000e+03 4.896443557739257812e+01 -2.667864990234375000e+01 -4.235695302486419678e-01 5.714680671691894531e+00 1.587333321571350098e+00 9.321233034133911133e-01
4.072000000000000000e+03 5.672641372680664062e+01 3.293314218521118164e+00 -2.080336809158325195e-01 9.295733451843261719e+00 2.726310014724731445e+00 5.115948915481567383e-01
4.073000000000000000e+03 5.716071319580078125e+01 4.821946620941162109e+00 -3.785027861595153809e-01 8.933789253234863281e+00 2.566586017608642578e+00 4.349367320537567139e-01
4.074000000000000000e+03 5.317130279541015625e+01 -2.891124725341796875e+01 -6.224122047424316406e-01 6.517029285430908203e+00 1.768385171890258789e+00 4.235699176788330078e-01
4.075000000000000000e+03 5.497856903076171875e+01 -3.005717277526855469e+01 -6.663317680358886719e-01 6.790747642517089844e+00 1.837324738502502441e+00 2.440428435802459717e-01
4.076000000000000000e+03 5.771404647827148438e+01 1.862516021728515625e+01 -5.936933159828186035e-01 7.057644367218017578e+00 1.939185261726379395e+00 4.490883648395538330e-02
4.077000000000000000e+03 5.686385726928710938e+01 1.676107597351074219e+01 -6.312716603279113770e-01 7.094574928283691406e+00 1.938990950584411621e+00 -1.671756431460380554e-02
4.078000000000000000e+03 5.334159088134765625e+01 1.127983570098876953e+00 -2.958510220050811768e-01 1.022963809967041016e+01 2.980136156082153320e+00 -3.722097277641296387e-01
4.079000000000000000e+03 5.439704132080078125e+01 3.832662105560302734e-01 9.607309103012084961e-02 1.055213642120361328e+01 3.194462776184082031e+00 2.782379090785980225e-01
4.080000000000000000e+03 5.373606109619140625e+01 7.779057025909423828e-01 -1.786640435457229614e-01 1.042675685882568359e+01 3.074427843093872070e+00 -1.265395730733871460e-01
4.081000000000000000e+03 5.287118530273437500e+01 1.409078598022460938e+00 -4.129155874252319336e-01 9.953914642333984375e+00 2.862299680709838867e+00 -7.104075551033020020e-01
4.082000000000000000e+03 5.485189056396484375e+01 -1.525452995300292969e+01 -4.039398133754730225e-01 9.660133361816406250e+00 2.776858091354370117e+00 -1.355553418397903442e-02
4.083000000000000000e+03 5.459673309326171875e+01 -1.340127372741699219e+01 -1.116718631237745285e-02 1.045134639739990234e+01 3.132053613662719727e+00 -2.724215984344482422e-01
4.084000000000000000e+03 5.099961090087890625e+01 3.874947309494018555e+00 -5.172649621963500977e-01 8.071826934814453125e+00 2.266368627548217773e+00 -1.497732996940612793e+00
4.085000000000000000e+03 5.318194198608398438e+01 1.904514074325561523e+00 -4.400805234909057617e-01 9.771096229553222656e+00 2.799304485321044922e+00 -6.012852191925048828e-01
4.086000000000000000e+03 5.681666183471679688e+01 -1.203409385681152344e+01 1.113909363746643066e+00 1.001443290710449219e+01 3.338502645492553711e+00 -1.117234230041503906e+00
4.087000000000000000e+03 5.566170883178710938e+01 -1.249246025085449219e+01 6.208833456039428711e-01 1.043090152740478516e+01 3.315535306930541992e+00 -8.379693031311035156e-01
4.088000000000000000e+03 5.133278274536132812e+01 2.454756736755371094e+00 -5.108023881912231445e-01 8.864541053771972656e+00 2.506121635437011719e+00 -1.525892615318298340e+00
4.089000000000000000e+03 5.566443252563476562e+01 -7.145536541938781738e-01 9.058119654655456543e-01 1.046311283111572266e+01 3.410677671432495117e+00 9.857059121131896973e-01
4.090000000000000000e+03 5.648996353149414062e+01 -9.519876241683959961e-01 1.200046062469482422e+00 1.010753154754638672e+01 3.392273187637329102e+00 1.145336508750915527e+00
4.091000000000000000e+03 5.129604721069335938e+01 1.246568083763122559e+00 -4.319191277027130127e-01 9.440836906433105469e+00 2.702675342559814453e+00 -1.657436013221740723e+00
4.092000000000000000e+03 5.868103790283203125e+01 -5.023777961730957031e+00 3.042908906936645508e+00 8.906900405883789062e+00 3.584942817687988281e+00 5.262221097946166992e-01
4.093000000000000000e+03 5.754080581665039062e+01 -8.996078491210937500e+00 2.888701200485229492e+00 9.494210243225097656e+00 3.714873313903808594e+00 -1.008996367454528809e+00
4.094000000000000000e+03 5.853009033203125000e+01 -7.493031024932861328e+00 3.144027471542358398e+00 8.952031135559082031e+00 3.628817558288574219e+00 -4.136412441730499268e-01
4.095000000000000000e+03 5.724295806884765625e+01 -3.713601589202880859e+00 2.938833713531494141e+00 9.618947982788085938e+00 3.767334699630737305e+00 1.101857900619506836e+00
4.096000000000000000e+03 5.775860595703125000e+01 -4.771852970123291016e+00 3.228217601776123047e+00 9.242111206054687500e+00 3.741098642349243164e+00 7.064952254295349121e-01
4.097000000000000000e+03 5.239697647094726562e+01 -1.381910705566406250e+01 -5.149835348129272461e-01 1.016439342498779297e+01 2.894822835922241211e+00 1.020703911781311035e+00
4.098000000000000000e+03 5.482820510864257812e+01 -1.612059020996093750e+01 -5.254815220832824707e-01 9.405932426452636719e+00 2.664135456085205078e+00 1.035264432430267334e-01
4.099000000000000000e+03 5.723742294311523438e+01 -1.026435565948486328e+01 2.147684097290039062e+00 9.784316062927246094e+00 3.579600095748901367e+00 -1.216095805168151855e+00
4.100000000000000000e+03 5.773854064941406250e+01 -9.588417053222656250e+00 2.489860296249389648e+00 9.476262092590332031e+00 3.589836835861206055e+00 -1.096836209297180176e+00
4.101000000000000000e+03 5.533795928955078125e+01 -1.714787781238555908e-01 5.480449199676513672e-01 1.044539833068847656e+01 3.298032999038696289e+00 7.659698128700256348e-01
4.102000000000000000e+03 5.731284332275390625e+01 -1.250644302368164062e+01 9.249185919761657715e-01 9.754649162292480469e+00 3.203870534896850586e+00 -1.065698623657226562e+00
4.103000000000000000e+03 5.601402282714843750e+01 -1.419472789764404297e+01 4.400703310966491699e-02 9.877062797546386719e+00 2.976320743560791016e+00 -5.748835206031799316e-01
4.104000000000000000e+03 5.845407104492187500e+01 -1.008763027191162109e+01 2.145515203475952148e+00 9.258605003356933594e+00 3.421236038208007812e+00 -1.090981006622314453e+00
4.105000000000000000e+03 5.918424606323242188e+01 -5.921543121337890625e+00 2.988459587097167969e+00 8.721750259399414062e+00 3.513062953948974609e+00 1.811152845621109009e-01
4.106000000000000000e+03 5.892263793945312500e+01 -5.469016551971435547e+00 3.025410175323486328e+00 8.823314666748046875e+00 3.554617404937744141e+00 3.752602636814117432e-01
4.107000000000000000e+03 5.682547760009765625e+01 -3.089059114456176758e+00 2.569491386413574219e+00 9.904074668884277344e+00 3.742069721221923828e+00 1.237312555313110352e+00
4.108000000000000000e+03 5.777635955810546875e+01 -2.423826932907104492e+00 2.112215280532836914e+00 9.554514884948730469e+00 3.500019073486328125e+00 1.213104367256164551e+00
4.109000000000000000e+03 5.705935287475585938e+01 -6.692154407501220703e-01 1.141472220420837402e+00 9.863495826721191406e+00 3.301490545272827148e+00 1.157960653305053711e+00
4.110000000000000000e+03 5.147054290771484375e+01 -1.789861106872558594e+01 -6.604710221290588379e-01 7.883297920227050781e+00 2.166847944259643555e+00 1.311806321144104004e+00
4.111000000000000000e+03 5.756232452392578125e+01 -1.146426963806152344e+01 1.468985676765441895e+00 9.697586059570312500e+00 3.349971532821655273e+00 -1.189698338508605957e+00
4.112000000000000000e+03 5.715145111083984375e+01 -1.165998268127441406e+01 1.315971612930297852e+00 9.871738433837890625e+00 3.356312990188598633e+00 -1.161051034927368164e+00
4.113000000000000000e+03 5.856292343139648438e+01 -3.604322195053100586e+00 2.607276201248168945e+00 9.101129531860351562e+00 3.512521505355834961e+00 9.432272315025329590e-01
4.114000000000000000e+03 5.810310745239257812e+01 -1.143891906738281250e+01 1.517069458961486816e+00 9.509262084960937500e+00 3.307899475097656250e+00 -1.186492204666137695e+00
4.115000000000000000e+03 5.630620574951171875e+01 -1.371877098083496094e+01 2.508738636970520020e-01 9.896049499511718750e+00 3.044077157974243164e+00 -7.178887724876403809e-01
4.116000000000000000e+03 5.789331817626953125e+01 -3.024053573608398438e+00 2.452733993530273438e+00 9.434324264526367188e+00 3.566117525100708008e+00 1.129249572753906250e+00
4.117000000000000000e+03 5.118210220336914062e+01 3.090933322906494141e+00 -5.169896483421325684e-01 8.519708633422851562e+00 2.400815486907958984e+00 -1.512514829635620117e+00
4.118000000000000000e+03 5.306343460083007812e+01 4.578491687774658203e+00 -6.383359432220458984e-01 8.654338836669921875e+00 2.404800891876220703e+00 -7.351520061492919922e-01
4.119000000000000000e+03 5.564765930175781250e+01 -1.513214397430419922e+01 -2.589838802814483643e-01 9.691295623779296875e+00 2.829693555831909180e+00 -2.943964600563049316e-01
4.120000000000000000e+03 5.365608596801757812e+01 -1.832666015625000000e+01 -7.451384067535400391e-01 8.485393524169921875e+00 2.322076559066772461e+00 6.527280807495117188e-01
4.121000000000000000e+03 5.301695251464843750e+01 -1.470431137084960938e+01 -5.672623515129089355e-01 9.748600959777832031e+00 2.754401683807373047e+00 7.672569751739501953e-01
4.122000000000000000e+03 5.452663040161132812e+01 -1.684388732910156250e+01 -6.427195072174072266e-01 9.086009025573730469e+00 2.532986879348754883e+00 3.115721642971038818e-01
4.123000000000000000e+03 5.218589401245117188e+01 7.898910999298095703e+00 -6.573764085769653320e-01 7.447429180145263672e+00 2.037015914916992188e+00 -8.702784180641174316e-01
4.124000000000000000e+03 5.550015640258789062e+01 5.411894321441650391e+00 -5.885486006736755371e-01 8.760663032531738281e+00 2.451634168624877930e+00 -2.784082666039466858e-02
4.125000000000000000e+03 4.517702865600585938e+01 1.270892333984375000e+01 -1.142455860972404480e-01 4.462430953979492188e+00 1.304455518722534180e+00 -1.080925345420837402e+00
4.126000000000000000e+03 5.150841522216796875e+01 -1.903112411499023438e+01 -6.717301607131958008e-01 7.605121135711669922e+00 2.080017328262329102e+00 1.201633930206298828e+00
4.127000000000000000e+03 4.424048614501953125e+01 1.079270076751708984e+01 2.207013405859470367e-02 4.084227085113525391e+00 1.231889128684997559e+00 -1.204390048980712891e+00
4.128000000000000000e+03 5.208248519897460938e+01 1.448860549926757812e+01 -5.978130698204040527e-01 6.440559864044189453e+00 1.752824068069458008e+00 -5.563467144966125488e-01
4.129000000000000000e+03 5.096434783935546875e+01 -2.878079795837402344e+01 -5.106878280639648438e-01 6.016707897186279297e+00 1.651805996894836426e+00 6.410272121429443359e-01
4.130000000000000000e+03 5.129419708251953125e+01 -2.453960227966308594e+01 -5.887446403503417969e-01 6.518109798431396484e+00 1.778809547424316406e+00 8.478685021400451660e-01
4.131000000000000000e+03 5.829276657104492188e+01 -3.072325515747070312e+01 -6.640114784240722656e-01 7.202993392944335938e+00 1.961694478988647461e+00 -5.121327936649322510e-02
4.132000000000000000e+03 5.251889801025390625e+01 -1.509232807159423828e+01 -6.421453356742858887e-01 9.463320732116699219e+00 2.646352767944335938e+00 1.043966054916381836e+00
4.133000000000000000e+03 5.197054290771484375e+01 -1.538556289672851562e+01 -6.377474069595336914e-01 9.098771095275878906e+00 2.538306951522827148e+00 1.291914582252502441e+00
4.134000000000000000e+03 5.647052383422851562e+01 -1.244290542602539062e+01 8.302379250526428223e-01 1.011446857452392578e+01 3.283411979675292969e+00 -1.004614114761352539e+00
4.135000000000000000e+03 5.292034149169921875e+01 2.390330791473388672e+00 -5.226294994354248047e-01 9.482545852661132812e+00 2.687974929809570312e+00 -7.563861012458801270e-01
4.136000000000000000e+03 5.597316741943359375e+01 1.496036767959594727e+00 5.798659846186637878e-02 9.798174858093261719e+00 2.956848382949829102e+00 5.843852162361145020e-01
4.137000000000000000e+03 5.151894760131835938e+01 -1.692210197448730469e+01 -6.623946428298950195e-01 8.261929512023925781e+00 2.279860496520996094e+00 1.390500783920288086e+00
4.138000000000000000e+03 5.291832351684570312e+01 -1.572401428222656250e+01 -6.574182510375976562e-01 9.268076896667480469e+00 2.583197593688964844e+00 8.488991260528564453e-01
4.139000000000000000e+03 5.538993453979492188e+01 9.115240573883056641e-01 1.485531032085418701e-01 1.011687469482421875e+01 3.079628229141235352e+00 5.253716111183166504e-01
4.140000000000000000e+03 5.359483337402343750e+01 2.167737483978271484e+00 -4.255157411098480225e-01 9.648052215576171875e+00 2.766760826110839844e+00 -3.717965483665466309e-01
4.141000000000000000e+03 5.389011764526367188e+01 -1.469194984436035156e+01 -4.432176649570465088e-01 9.911005973815917969e+00 2.840336561203002930e+00 2.970563769340515137e-01
4.142000000000000000e+03 5.613010025024414062e+01 -1.287866783142089844e+01 5.648830533027648926e-01 1.014364433288574219e+01 3.212558269500732422e+00 -8.583663105964660645e-01
4.143000000000000000e+03 5.680862426757812500e+01 -1.378542900085449219e+01 3.167585730552673340e-01 9.768201828002929688e+00 3.025487899780273438e+00 -8.123105764389038086e-01
4.144000000000000000e+03 5.655474472045898438e+01 -1.327916336059570312e+01 4.777958393096923828e-01 9.947382926940917969e+00 3.127553701400756836e+00 -8.689063787460327148e-01
4.145000000000000000e+03 5.192526245117187500e+01 2.086316823959350586e+00 -5.263706445693969727e-01 9.341632843017578125e+00 2.644578456878662109e+00 -1.269013285636901855e+00
4.146000000000000000e+03 5.550564575195312500e+01 -1.442018699645996094e+01 -1.239694803953170776e-01 9.896426200866699219e+00 2.931736946105957031e+00 -3.721019625663757324e-01
4.147000000000000000e+03 5.273944473266601562e+01 6.148384094238281250e+00 -6.714729070663452148e-01 8.052496910095214844e+00 2.214307069778442383e+00 -8.083423972129821777e-01
4.148000000000000000e+03 5.007035827636718750e+01 1.306067085266113281e+01 -5.035935044288635254e-01 6.048389911651611328e+00 1.663438796997070312e+00 -8.412016630172729492e-01
4.149000000000000000e+03 5.182446670532226562e+01 2.619798660278320312e+00 -5.489862561225891113e-01 9.046760559082031250e+00 2.549332380294799805e+00 -1.287929892539978027e+00
4.150000000000000000e+03 5.373965072631835938e+01 5.447719097137451172e+00 -6.718982458114624023e-01 8.522266387939453125e+00 2.355110645294189453e+00 -5.343708395957946777e-01
4.151000000000000000e+03 5.538415908813476562e+01 3.622760772705078125e+00 -4.288377165794372559e-01 9.267119407653808594e+00 2.651484727859497070e+00 9.005685150623321533e-02
4.152000000000000000e+03 5.407456588745117188e+01 2.250231504440307617e+00 -3.880524039268493652e-01 9.714669227600097656e+00 2.797985076904296875e+00 -2.016659826040267944e-01
4.153000000000000000e+03 5.267361831665039062e+01 9.185192108154296875e+00 -6.797317266464233398e-01 7.338290214538574219e+00 1.997567534446716309e+00 -7.084843516349792480e-01
4.154000000000000000e+03 5.455833816528320312e+01 6.442419528961181641e+00 -6.848718523979187012e-01 8.413443565368652344e+00 2.318571567535400391e+00 -3.168853819370269775e-01
4.155000000000000000e+03 5.213343811035156250e+01 5.080463409423828125e+00 -6.313854455947875977e-01 8.177898406982421875e+00 2.263953924179077148e+00 -1.044352650642395020e+00
4.156000000000000000e+03 4.467673873901367188e+01 1.436300563812255859e+01 -1.246242299675941467e-01 4.293224811553955078e+00 1.250580191612243652e+00 -9.693564176559448242e-01
4.157000000000000000e+03 5.015848159790039062e+01 1.490912437438964844e+01 -4.991106986999511719e-01 5.911581039428710938e+00 1.623741149902343750e+00 -7.211908102035522461e-01
4.158000000000000000e+03 5.345222473144531250e+01 2.735224962234497070e+00 -5.155215263366699219e-01 9.403985977172851562e+00 2.666539430618286133e+00 -5.165872573852539062e-01
4.159000000000000000e+03 5.431465530395507812e+01 -1.411957454681396484e+01 -2.733784914016723633e-01 1.015811729431152344e+01 2.965421676635742188e+00 1.955941878259181976e-02
4.160000000000000000e+03 5.429461288452148438e+01 1.079840302467346191e+00 -1.419954299926757812e-01 1.025607013702392578e+01 3.034222364425659180e+00 6.574521213769912720e-02
4.161000000000000000e+03 5.558490753173828125e+01 -1.386341190338134766e+01 7.085591554641723633e-02 1.008560276031494141e+01 3.046937465667724609e+00 -5.115281343460083008e-01
4.162000000000000000e+03 5.451978683471679688e+01 2.066511392593383789e+00 -3.168008923530578613e-01 9.843581199645996094e+00 2.858034133911132812e+00 -9.101510047912597656e-03
4.163000000000000000e+03 5.412045669555664062e+01 2.987910270690917969e+00 -4.758559465408325195e-01 9.398406028747558594e+00 2.676764965057373047e+00 -2.629230320453643799e-01
4.164000000000000000e+03 5.237432479858398438e+01 -1.681394767761230469e+01 -7.097658514976501465e-01 8.609616279602050781e+00 2.369955301284790039e+00 1.090866804122924805e+00
4.165000000000000000e+03 5.491880416870117188e+01 1.529499888420104980e+00 -1.319138109683990479e-01 9.982625961303710938e+00 2.955213546752929688e+00 2.376109957695007324e-01
4.166000000000000000e+03 5.177350616455078125e+01 3.257031440734863281e+00 -5.667148232460021973e-01 8.717358589172363281e+00 2.445193290710449219e+00 -1.279111504554748535e+00
4.167000000000000000e+03 5.408237838745117188e+01 -1.621556663513183594e+01 -6.124485731124877930e-01 9.270132064819335938e+00 2.597305059432983398e+00 4.023691117763519287e-01
4.168000000000000000e+03 5.314125442504882812e+01 3.343730926513671875e+00 -5.929025411605834961e-01 9.144782066345214844e+00 2.565563917160034180e+00 -6.895765066146850586e-01
4.169000000000000000e+03 5.257878494262695312e+01 3.825055122375488281e+00 -6.088076233863830566e-01 8.770734786987304688e+00 2.448578119277954102e+00 -9.056654572486877441e-01
4.170000000000000000e+03 5.230899810791015625e+01 3.209484815597534180e+00 -5.857443213462829590e-01 8.908915519714355469e+00 2.496951341629028320e+00 -1.049095511436462402e+00
4.171000000000000000e+03 5.460860824584960938e+01 4.546259880065917969e+00 -5.810733437538146973e-01 8.950133323669433594e+00 2.510717868804931641e+00 -2.237815260887145996e-01
4.172000000000000000e+03 4.174055862426757812e+01 1.316751861572265625e+01 7.714703679084777832e-02 3.370012998580932617e+00 1.034147977828979492e+00 -9.383472800254821777e-01
4.173000000000000000e+03 5.327386856079101562e+01 -2.346082878112792969e+01 -7.308934330940246582e-01 7.180138587951660156e+00 1.934773564338684082e+00 6.626722812652587891e-01
4.174000000000000000e+03 5.028503799438476562e+01 1.704693794250488281e+01 -4.820686280727386475e-01 5.791910648345947266e+00 1.592952609062194824e+00 -5.957774519920349121e-01
4.175000000000000000e+03 4.822294998168945312e+01 1.501201629638671875e+01 -3.803968727588653564e-01 5.378234386444091797e+00 1.499351263046264648e+00 -8.347818255424499512e-01
4.176000000000000000e+03 5.268855285644531250e+01 2.911685705184936523e+00 -5.723124146461486816e-01 9.157493591308593750e+00 2.575554370880126953e+00 -8.717057108879089355e-01
4.177000000000000000e+03 5.380562591552734375e+01 3.850842475891113281e+00 -5.849902033805847168e-01 9.079741477966308594e+00 2.548425436019897461e+00 -4.408821165561676025e-01
4.178000000000000000e+03 5.485036468505859375e+01 2.798216104507446289e+00 -3.862658143043518066e-01 9.530452728271484375e+00 2.743256092071533203e+00 1.007042452692985535e-02
4.179000000000000000e+03 5.489662170410156250e+01 -1.438977146148681641e+01 -2.263548523187637329e-01 9.998225212097167969e+00 2.931560993194580078e+00 -1.541426777839660645e-01
4.180000000000000000e+03 4.849853515625000000e+01 1.008325767517089844e+01 -3.558961153030395508e-01 5.771675109863281250e+00 1.624733567237854004e+00 -1.231157660484313965e+00
4.181000000000000000e+03 4.844593048095703125e+01 1.154077911376953125e+01 -3.722240328788757324e-01 5.646078109741210938e+00 1.582156300544738770e+00 -1.093999385833740234e+00
4.182000000000000000e+03 4.305936050415039062e+01 1.826107025146484375e+01 -1.076796501874923706e-01 3.856725215911865234e+00 1.124713659286499023e+00 -7.352144122123718262e-01
4.183000000000000000e+03 4.671887207031250000e+01 1.303773307800292969e+01 -2.497814893722534180e-01 4.982909202575683594e+00 1.419938325881958008e+00 -1.042418479919433594e+00
4.184000000000000000e+03 5.154189300537109375e+01 1.111391067504882812e+01 -6.097993850708007812e-01 6.706082344055175781e+00 1.828884959220886230e+00 -7.943794131278991699e-01
4.185000000000000000e+03 4.636824417114257812e+01 1.479353809356689453e+01 -2.438140362501144409e-01 4.816796302795410156e+00 1.371894717216491699e+00 -9.138448238372802734e-01
4.186000000000000000e+03 4.800847244262695312e+01 1.711405754089355469e+01 -3.666427731513977051e-01 5.212702274322509766e+00 1.453817844390869141e+00 -7.126353383064270020e-01
4.187000000000000000e+03 4.997856140136718750e+01 1.143154621124267578e+01 -5.011931657791137695e-01 6.183722496032714844e+00 1.704758763313293457e+00 -9.678400754928588867e-01
4.188000000000000000e+03 4.521663284301757812e+01 1.879447746276855469e+01 -2.089469283819198608e-01 4.446245193481445312e+00 1.271189570426940918e+00 -7.161915302276611328e-01
4.189000000000000000e+03 4.122729110717773438e+01 1.718939590454101562e+01 -2.247338555753231049e-02 3.386772632598876953e+00 1.009289741516113281e+00 -7.479437589645385742e-01
4.190000000000000000e+03 4.587012863159179688e+01 1.671611213684082031e+01 -2.424092739820480347e-01 4.602862834930419922e+00 1.308135986328125000e+00 -8.109630942344665527e-01
4.191000000000000000e+03 3.986484909057617188e+01 1.572390842437744141e+01 6.343673169612884521e-02 2.987338304519653320e+00 9.152324795722961426e-01 -7.594444751739501953e-01
4.192000000000000000e+03 7.113082122802734375e+01 2.456565284729003906e+01 -1.724740415811538696e-01 8.048310279846191406e+00 2.362751007080078125e+00 3.442572653293609619e-01
4.193000000000000000e+03 5.303189849853515625e+01 1.860801506042480469e+01 -5.464454293251037598e-01 6.292392730712890625e+00 1.723784208297729492e+00 -3.508946299552917480e-01
4.194000000000000000e+03 3.038810920715332031e+01 1.972085952758789062e+01 6.338157504796981812e-02 1.235000252723693848e+00 3.895145356655120850e-01 -2.777059972286224365e-01
4.195000000000000000e+03 3.343803024291992188e+01 1.935436439514160156e+01 9.573104232549667358e-02 1.775203704833984375e+00 5.612804293632507324e-01 -3.863331675529479980e-01
4.196000000000000000e+03 6.969760894775390625e+01 -3.736975097656250000e+01 -2.747535407543182373e-01 7.875060081481933594e+00 2.280092000961303711e+00 -2.070733457803726196e-01
4.197000000000000000e+03 5.889397048950195312e+01 2.041544914245605469e+01 -5.462088584899902344e-01 7.090177059173583984e+00 1.963190436363220215e+00 1.137419641017913818e-01
4.198000000000000000e+03 6.384594345092773438e+01 -3.128697776794433594e+01 -5.277493596076965332e-01 7.646180629730224609e+00 2.135529279708862305e+00 -3.333687186241149902e-01
4.199000000000000000e+03 5.102829742431640625e+01 -2.652607345581054688e+01 -5.541870594024658203e-01 6.215368270874023438e+00 1.698354363441467285e+00 7.862251996994018555e-01
4.200000000000000000e+03 4.892257690429687500e+01 -2.859997749328613281e+01 -4.022102057933807373e-01 5.573918342590332031e+00 1.551512479782104492e+00 7.679064273834228516e-01
4.201000000000000000e+03 4.738240432739257812e+01 -2.778689575195312500e+01 -2.714064717292785645e-01 5.111365795135498047e+00 1.451987862586975098e+00 9.331912994384765625e-01
4.202000000000000000e+03 6.793556976318359375e+01 3.389724349975585938e+01 -1.622999757528305054e-01 7.746288299560546875e+00 2.275196552276611328e+00 1.422605961561203003e-01
4.203000000000000000e+03 3.825425720214843750e+01 1.996490478515625000e+01 2.674764767289161682e-02 2.785355567932128906e+00 8.436309695243835449e-01 -5.764319896697998047e-01
4.204000000000000000e+03 7.187838745117187500e+01 3.186236000061035156e+01 -1.079016178846359253e-01 8.193126678466796875e+00 2.425567626953125000e+00 1.554086804389953613e-01
4.205000000000000000e+03 4.470490264892578125e+01 2.118881607055664062e+01 -1.945784837007522583e-01 4.282032966613769531e+00 1.226236343383789062e+00 -6.094588041305541992e-01
4.206000000000000000e+03 4.007066726684570312e+01 2.050451469421386719e+01 -2.564500831067562103e-02 3.212213754653930664e+00 9.559706449508666992e-01 -6.227086186408996582e-01
4.207000000000000000e+03 4.060351943969726562e+01 -2.460409927368164062e+01 3.094345927238464355e-01 2.824539184570312500e+00 9.401921033859252930e-01 9.457408189773559570e-01
4.208000000000000000e+03 4.217078399658203125e+01 -2.927662467956542969e+01 1.200971230864524841e-01 3.504081726074218750e+00 1.087253689765930176e+00 7.485511898994445801e-01
4.209000000000000000e+03 6.198584365844726562e+01 2.359135055541992188e+01 -4.177383184432983398e-01 7.271121501922607422e+00 2.056015014648437500e+00 2.318149954080581665e-01
4.210000000000000000e+03 1.931518936157226562e+01 -2.285106277465820312e+01 -1.690967194736003876e-02 -1.099936962127685547e-01 -3.807101026177406311e-02 -3.235708475112915039e-01
4.211000000000000000e+03 1.845967102050781250e+01 -2.527788734436035156e+01 1.346758604049682617e-01 -1.365711987018585205e-01 -5.686010117642581463e-04 -3.058137595653533936e-01
4.212000000000000000e+03 3.852878952026367188e+01 -2.749215698242187500e+01 3.410757482051849365e-01 2.494892597198486328e+00 8.507905006408691406e-01 6.825606226921081543e-01
4.213000000000000000e+03 7.052241516113281250e+01 8.619440078735351562e+00 -7.477532327175140381e-02 7.735464572906494141e+00 2.298206806182861328e+00 8.656536936759948730e-01
4.214000000000000000e+03 4.110217285156250000e+01 1.450661277770996094e+01 5.370387807488441467e-02 3.266149044036865234e+00 9.959558844566345215e-01 -8.355746865272521973e-01
4.215000000000000000e+03 4.886029815673828125e+01 2.037293434143066406e+01 -3.832011818885803223e-01 5.340989112854003906e+00 1.487336397171020508e+00 -5.258662700653076172e-01
4.216000000000000000e+03 4.737025833129882812e+01 1.918158340454101562e+01 -3.183789253234863281e-01 4.970289707183837891e+00 1.395573258399963379e+00 -6.242864727973937988e-01
4.217000000000000000e+03 6.489863872528076172e+00 3.789752960205078125e+01 1.211673989892005920e-01 -6.312022805213928223e-01 -1.530104577541351318e-01 1.267180591821670532e-01
4.218000000000000000e+03 2.822681617736816406e+01 -2.000140571594238281e+01 7.059386372566223145e-02 3.776204288005828857e-01 1.344642937183380127e-01 -2.172154784202575684e-01
4.219000000000000000e+03 2.339864540100097656e+01 -2.580510139465332031e+01 2.450120896100997925e-01 2.238106578588485718e-01 1.406468302011489868e-01 -2.029348164796829224e-01
4.220000000000000000e+03 6.164019393920898438e+01 -3.030214500427246094e+01 -6.103965640068054199e-01 7.570736408233642578e+00 2.088101863861083984e+00 -2.624731361865997314e-01
4.221000000000000000e+03 1.562489318847656250e+01 2.998265647888183594e+01 2.840720713138580322e-01 -3.305969536304473877e-01 -1.395746227353811264e-02 2.076609879732131958e-01
4.222000000000000000e+03 1.115121078491210938e+01 -3.429758453369140625e+01 2.220501005649566650e-01 -4.218951165676116943e-01 -5.995349958539009094e-02 -2.301129251718521118e-01
4.223000000000000000e+03 1.460760879516601562e+01 -2.703862762451171875e+01 1.687813401222229004e-01 -3.569795191287994385e-01 -5.645944923162460327e-02 -3.365656137466430664e-01
4.224000000000000000e+03 6.255412292480468750e+01 -2.815533447265625000e+01 -5.824766755104064941e-01 7.749241828918457031e+00 2.150029420852661133e+00 -3.945660293102264404e-01
4.225000000000000000e+03 6.817267608642578125e+01 -3.211701583862304688e+01 -3.543441891670227051e-01 7.780930995941162109e+00 2.227976083755493164e+00 -4.177383482456207275e-01
4.226000000000000000e+03 7.182939147949218750e+01 -3.629206848144531250e+01 -2.001372277736663818e-01 7.981333255767822266e+00 2.334358692169189453e+00 -2.294688671827316284e-01
4.227000000000000000e+03 5.589750289916992188e+01 1.984890556335449219e+01 -5.634992718696594238e-01 6.685980319976806641e+00 1.836744308471679688e+00 -8.754020929336547852e-02
4.228000000000000000e+03 1.105875396728515625e+01 2.569704818725585938e+01 5.414803698658943176e-02 -5.805702805519104004e-01 -1.579266786575317383e-01 4.476324617862701416e-01
4.229000000000000000e+03 6.282321929931640625e+01 1.728782463073730469e+01 -5.038507580757141113e-01 7.632391929626464844e+00 2.138562202453613281e+00 4.198768734931945801e-01
4.230000000000000000e+03 7.052033233642578125e+01 3.021108627319335938e+01 -1.286317408084869385e-01 8.035051345825195312e+00 2.371926069259643555e+00 2.011218965053558350e-01
4.231000000000000000e+03 2.879747009277343750e+01 2.099940681457519531e+01 5.906131491065025330e-02 9.851719737052917480e-01 3.132699728012084961e-01 -2.401413321495056152e-01
4.232000000000000000e+03 8.170202255249023438e+00 -4.092662811279296875e+01 1.313469111919403076e-01 -5.875759720802307129e-01 -1.368687301874160767e-01 -4.821327328681945801e-02
4.233000000000000000e+03 1.346200561523437500e+01 -3.258493041992187500e+01 2.518910765647888184e-01 -3.492693901062011719e-01 -2.921348623931407928e-02 -2.586767375469207764e-01
4.234000000000000000e+03 1.160861492156982422e+01 3.224192810058593750e+01 2.356399148702621460e-01 -4.493516385555267334e-01 -6.411352008581161499e-02 2.626199126243591309e-01
4.235000000000000000e+03 1.290553474426269531e+01 3.759695053100585938e+01 2.697233855724334717e-01 -3.139309883117675781e-01 -1.326228305697441101e-02 1.153421178460121155e-01
4.236000000000000000e+03 2.037842369079589844e+01 2.800976562500000000e+01 2.704386413097381592e-01 3.006342425942420959e-02 9.015061706304550171e-02 4.111016541719436646e-02
4.237000000000000000e+03 5.320928573608398438e+01 -3.106142616271972656e+01 -5.895927548408508301e-01 6.336684226989746094e+00 1.724127531051635742e+00 3.411954939365386963e-01
4.238000000000000000e+03 8.252401351928710938e+00 4.097561264038085938e+01 1.406209766864776611e-01 -5.700871944427490234e-01 -1.288398653268814087e-01 4.625097289681434631e-02
4.239000000000000000e+03 1.249606227874755859e+01 -3.716619491577148438e+01 2.655496299266815186e-01 -3.374700248241424561e-01 -2.157612331211566925e-02 -1.482809334993362427e-01
4.240000000000000000e+03 2.340094184875488281e+01 -3.734727478027343750e+01 4.738097488880157471e-01 4.775583744049072266e-01 2.854104340076446533e-01 -4.420804604887962341e-02
4.241000000000000000e+03 4.189716339111328125e+01 -3.714574813842773438e+01 4.635701701045036316e-02 3.655450582504272461e+00 1.110542297363281250e+00 2.936511635780334473e-01
4.242000000000000000e+03 4.725112533569335938e+01 -4.073475646972656250e+01 -2.386522889137268066e-01 4.807247161865234375e+00 1.370578527450561523e+00 8.879663050174713135e-02
4.243000000000000000e+03 4.678185653686523438e+01 -3.710078811645507812e+01 -2.170977294445037842e-01 4.736286163330078125e+00 1.355756521224975586e+00 2.951183319091796875e-01
4.244000000000000000e+03 5.874908065795898438e+01 -3.506975555419921875e+01 -5.967870950698852539e-01 7.024299144744873047e+00 1.928253650665283203e+00 -3.831418603658676147e-02
4.245000000000000000e+03 5.569579696655273438e+01 -3.679770278930664062e+01 -5.635052919387817383e-01 6.552909374237060547e+00 1.796821117401123047e+00 7.540629059076309204e-02
4.246000000000000000e+03 6.006525802612304688e+01 3.584426879882812500e+01 -2.428767830133438110e-01 6.671321392059326172e+00 1.928533434867858887e+00 3.475935757160186768e-02
4.247000000000000000e+03 6.364929962158203125e+01 3.683684539794921875e+01 -2.030281424522399902e-01 7.140193462371826172e+00 2.081149578094482422e+00 6.641228497028350830e-02
4.248000000000000000e+03 7.149230957031250000e+01 -4.068305206298828125e+01 -1.776370406150817871e-01 8.000205993652343750e+00 2.346770763397216797e+00 -6.747393310070037842e-02
4.249000000000000000e+03 6.627352905273437500e+01 -3.758666229248046875e+01 -3.923932015895843506e-01 7.632684230804443359e+00 2.172087192535400391e+00 -1.821810603141784668e-01
4.250000000000000000e+03 4.324179458618164062e+01 3.748113632202148438e+01 -2.633433230221271515e-02 3.856082916259765625e+00 1.148924589157104492e+00 -1.167588531970977783e-01
4.251000000000000000e+03 3.518019866943359375e+01 3.830438995361328125e+01 2.009454071521759033e-01 2.378427267074584961e+00 7.738118171691894531e-01 -9.899090975522994995e-02
4.252000000000000000e+03 1.854034042358398438e+01 3.422977066040039062e+01 3.689275979995727539e-01 6.574684381484985352e-02 1.304023265838623047e-01 6.828507781028747559e-02
4.253000000000000000e+03 2.277134895324707031e+01 3.717545318603515625e+01 3.823344409465789795e-01 5.275729298591613770e-01 2.729722261428833008e-01 -1.059640478342771530e-02
4.254000000000000000e+03 1.603062820434570312e+01 3.600665283203125000e+01 3.364216089248657227e-01 -1.406489610671997070e-01 5.873179435729980469e-02 1.148601248860359192e-01
4.255000000000000000e+03 3.964402008056640625e+01 1.855585479736328125e+01 1.444258354604244232e-02 3.079323530197143555e+00 9.281298518180847168e-01 -6.557376980781555176e-01
4.256000000000000000e+03 5.389259719848632812e+01 2.097407150268554688e+01 -5.071207880973815918e-01 6.243741035461425781e+00 1.720986127853393555e+00 -2.312482148408889771e-01
4.257000000000000000e+03 4.816808700561523438e+01 -3.085654067993164062e+01 -3.236781060695648193e-01 5.232954025268554688e+00 1.472782850265502930e+00 6.655668020248413086e-01
4.258000000000000000e+03 5.412715530395507812e+01 -3.361933517456054688e+01 -5.810082554817199707e-01 6.400574207305908203e+00 1.745869755744934082e+00 2.215075492858886719e-01
4.259000000000000000e+03 4.227787017822265625e+01 2.071212959289550781e+01 -8.701619505882263184e-02 3.687579870223999023e+00 1.080169081687927246e+00 -6.318640708923339844e-01
4.260000000000000000e+03 6.360673522949218750e+01 2.006095123291015625e+01 -4.442341923713684082e-01 7.534888267517089844e+00 2.127196311950683594e+00 3.679426014423370361e-01
4.261000000000000000e+03 1.518066501617431641e+01 -3.046970748901367188e+01 2.615503072738647461e-01 -2.744902372360229492e-01 -3.881972515955567360e-03 -2.825050354003906250e-01
4.262000000000000000e+03 1.567972564697265625e+01 -3.498466491699218750e+01 3.323043286800384521e-01 -1.822693794965744019e-01 4.501048475503921509e-02 -1.768267899751663208e-01
4.263000000000000000e+03 2.453518867492675781e+01 3.043374443054199219e+01 3.024850189685821533e-01 6.407406926155090332e-01 2.829677164554595947e-01 -1.103428974747657776e-01
4.264000000000000000e+03 2.024891090393066406e+01 -2.473169708251953125e+01 1.132607534527778625e-01 -3.713714703917503357e-02 2.283708192408084869e-02 -2.820676863193511963e-01
4.265000000000000000e+03 6.775229644775390625e+01 2.495582580566406250e+01 -2.564531266689300537e-01 7.766751289367675781e+00 2.253089427947998047e+00 3.227301239967346191e-01
4.266000000000000000e+03 6.483273315429687500e+01 2.500051498413085938e+01 -3.304306268692016602e-01 7.481121540069580078e+00 2.145207166671752930e+00 2.788003981113433838e-01
4.267000000000000000e+03 1.903252029418945312e+01 -2.715775299072265625e+01 2.358750551939010620e-01 -6.791957467794418335e-02 5.038664489984512329e-02 -2.665484845638275146e-01
4.268000000000000000e+03 5.175954055786132812e+01 2.181013488769531250e+01 -4.347606003284454346e-01 5.832153797149658203e+00 1.619217872619628906e+00 -3.408225774765014648e-01
4.269000000000000000e+03 4.967855072021484375e+01 2.241796112060546875e+01 -3.563812375068664551e-01 5.432865619659423828e+00 1.522945404052734375e+00 -4.302284717559814453e-01
4.270000000000000000e+03 2.947040557861328125e+01 -2.521052169799804688e+01 3.643684685230255127e-01 7.561341524124145508e-01 3.361507952213287354e-01 2.449709549546241760e-02
4.271000000000000000e+03 4.592343139648437500e+01 -2.961752700805664062e+01 -1.699488013982772827e-01 4.684803485870361328e+00 1.354456424713134766e+00 7.828131914138793945e-01
4.272000000000000000e+03 5.090398025512695312e+01 -3.408035278320312500e+01 -4.514728188514709473e-01 5.758975028991699219e+00 1.592250585556030273e+00 3.142031133174896240e-01
4.273000000000000000e+03 2.788355636596679688e+01 2.443140411376953125e+01 1.404806077480316162e-01 9.543268680572509766e-01 3.284422457218170166e-01 -2.362306714057922363e-01
4.274000000000000000e+03 2.868107223510742188e+01 1.906299400329589844e+01 1.637255027890205383e-02 8.917080163955688477e-01 2.724241614341735840e-01 -2.003942877054214478e-01
4.275000000000000000e+03 1.217879295349121094e+01 3.474305725097656250e+01 2.633583843708038330e-01 -3.973542749881744385e-01 -4.019876569509506226e-02 1.899114400148391724e-01
4.276000000000000000e+03 6.602701568603515625e+01 -3.460234069824218750e+01 -4.377777278423309326e-01 7.648110389709472656e+00 2.163099765777587891e+00 -2.818116247653961182e-01
4.277000000000000000e+03 4.714176177978515625e+01 -3.368170166015625000e+01 -2.367610335350036621e-01 4.856959819793701172e+00 1.386059522628784180e+00 4.861054420471191406e-01
4.278000000000000000e+03 2.899792671203613281e+01 -2.802418327331542969e+01 4.176602959632873535e-01 8.608248829841613770e-01 3.835455477237701416e-01 5.011166259646415710e-02
4.279000000000000000e+03 2.083131408691406250e+01 3.215509414672851562e+01 3.535090386867523193e-01 2.110036462545394897e-01 1.693538129329681396e-01 1.476405002176761627e-02
4.280000000000000000e+03 6.587318420410156250e+01 2.165433120727539062e+01 -3.552362024784088135e-01 7.670768260955810547e+00 2.194659709930419922e+00 4.086145758628845215e-01
4.281000000000000000e+03 3.370135879516601562e+01 2.302237510681152344e+01 1.020807996392250061e-01 1.923356056213378906e+00 6.076310276985168457e-01 -3.745806813240051270e-01
4.282000000000000000e+03 4.078742980957031250e+01 -3.359843826293945312e+01 1.262220591306686401e-01 3.366234302520751953e+00 1.047736883163452148e+00 4.710347354412078857e-01
4.283000000000000000e+03 3.597582626342773438e+01 -3.105028152465820312e+01 3.703143894672393799e-01 2.195801734924316406e+00 7.698348164558410645e-01 4.029480814933776855e-01
4.284000000000000000e+03 5.416822814941406250e+01 3.228237915039062500e+01 -2.740259468555450439e-01 5.827443122863769531e+00 1.666025161743164062e+00 -5.918073281645774841e-02
4.285000000000000000e+03 5.695498657226562500e+01 3.424687194824218750e+01 -2.570863068103790283e-01 6.289165496826171875e+00 1.809623837471008301e+00 -1.123448740690946579e-02
4.286000000000000000e+03 6.811056518554687500e+01 3.057137489318847656e+01 -1.723686158657073975e-01 7.780022621154785156e+00 2.282296180725097656e+00 1.924521178007125854e-01
4.287000000000000000e+03 3.937691879272460938e+01 -3.039909553527832031e+01 2.448199987411499023e-01 2.877548933029174805e+00 9.367107152938842773e-01 6.067671775817871094e-01
4.288000000000000000e+03 1.872384071350097656e+01 3.714757919311523438e+01 3.705753087997436523e-01 9.564314037561416626e-02 1.398655325174331665e-01 4.393926262855529785e-02
4.289000000000000000e+03 5.141849136352539062e+01 -3.727987289428710938e+01 -4.421040713787078857e-01 5.771058559417724609e+00 1.598686337471008301e+00 1.909375190734863281e-01
4.290000000000000000e+03 3.191077613830566406e+01 2.129227447509765625e+01 8.849219977855682373e-02 1.539691686630249023e+00 4.884551465511322021e-01 -3.461143970489501953e-01
4.291000000000000000e+03 6.167856979370117188e+01 1.993729972839355469e+01 -5.024493932723999023e-01 7.410374641418457031e+00 2.072377443313598633e+00 2.872558832168579102e-01
4.292000000000000000e+03 6.447908020019531250e+01 3.323449707031250000e+01 -2.174265980720520020e-01 7.290059566497802734e+00 2.121789932250976562e+00 1.192831993103027344e-01
4.293000000000000000e+03 2.541094017028808594e+01 2.537956428527832031e+01 1.743910461664199829e-01 6.111198067665100098e-01 2.356532514095306396e-01 -1.546562612056732178e-01
4.294000000000000000e+03 5.876507568359375000e+01 2.391745567321777344e+01 -4.488008618354797363e-01 6.858062744140625000e+00 1.922778606414794922e+00 7.300346344709396362e-02
4.295000000000000000e+03 3.183043098449707031e+01 2.510775375366210938e+01 1.332029551267623901e-01 1.610246419906616211e+00 5.230348110198974609e-01 -3.313463032245635986e-01
4.296000000000000000e+03 3.228944778442382812e+01 -3.128001594543457031e+01 4.497837424278259277e-01 1.483641028404235840e+00 5.800274610519409180e-01 2.140371501445770264e-01
4.297000000000000000e+03 3.222809982299804688e+01 -2.827709960937500000e+01 4.366728961467742920e-01 1.319407224655151367e+00 5.268240571022033691e-01 2.226350456476211548e-01
4.298000000000000000e+03 1.758883857727050781e+01 -3.205098342895507812e+01 3.452594876289367676e-01 -9.280805289745330811e-02 7.573542743921279907e-02 -2.174560278654098511e-01
4.299000000000000000e+03 2.585524368286132812e+01 -2.731110191345214844e+01 3.553929626941680908e-01 4.744527637958526611e-01 2.489537149667739868e-01 -9.442417323589324951e-02
4.300000000000000000e+03 2.300218391418457031e+01 -2.278581237792968750e+01 7.648526132106781006e-02 1.328211277723312378e-01 6.279192119836807251e-02 -2.905338406562805176e-01
4.301000000000000000e+03 2.355347061157226562e+01 2.683092308044433594e+01 2.196507751941680908e-01 3.574408590793609619e-01 1.731274873018264771e-01 -9.613877534866333008e-02
4.302000000000000000e+03 4.980421066284179688e+01 2.461037063598632812e+01 -3.352377414703369141e-01 5.271350383758544922e+00 1.480833768844604492e+00 -3.560242950916290283e-01
4.303000000000000000e+03 4.681842422485351562e+01 2.712093734741210938e+01 -2.106457203626632690e-01 4.664761543273925781e+00 1.336234807968139648e+00 -4.007110595703125000e-01
4.304000000000000000e+03 3.150605392456054688e+01 2.945001983642578125e+01 2.066333889961242676e-01 1.689539313316345215e+00 5.688517689704895020e-01 -2.525348067283630371e-01
4.305000000000000000e+03 5.957548904418945312e+01 2.784188270568847656e+01 -3.715812265872955322e-01 6.790301322937011719e+00 1.925616025924682617e+00 8.187234401702880859e-02
4.306000000000000000e+03 2.820988273620605469e+01 -3.433169174194335938e+01 4.741212129592895508e-01 9.839751124382019043e-01 4.374288916587829590e-01 4.140454903244972229e-02
4.307000000000000000e+03 2.492446136474609375e+01 -3.044843482971191406e+01 4.142202734947204590e-01 4.808232486248016357e-01 2.685130536556243896e-01 -8.248357474803924561e-02
4.308000000000000000e+03 6.524154663085937500e+01 2.979337120056152344e+01 -2.417349815368652344e-01 7.445301055908203125e+00 2.161069869995117188e+00 1.926188319921493530e-01
4.309000000000000000e+03 6.271532821655273438e+01 2.590523910522460938e+01 -3.578201830387115479e-01 7.258628368377685547e+00 2.070242404937744141e+00 2.132831662893295288e-01
4.310000000000000000e+03 4.170219802856445312e+01 2.340203475952148438e+01 -7.800244539976119995e-02 3.569370269775390625e+00 1.047410368919372559e+00 -5.409352779388427734e-01
4.311000000000000000e+03 3.718864440917968750e+01 2.215122795104980469e+01 4.461814463138580322e-02 2.632028579711914062e+00 8.029940128326416016e-01 -4.964124858379364014e-01
4.312000000000000000e+03 2.679228973388671875e+01 3.718146896362304688e+01 3.622228205204010010e-01 1.081642627716064453e+00 4.331596195697784424e-01 -6.876988708972930908e-02
4.313000000000000000e+03 3.244985198974609375e+01 -3.771185302734375000e+01 4.247513115406036377e-01 1.723664999008178711e+00 6.445248723030090332e-01 1.043606325984001160e-01
4.314000000000000000e+03 4.722636032104492188e+01 4.082065582275390625e+01 -1.034826934337615967e-01 4.566210269927978516e+00 1.338818311691284180e+00 -2.939991652965545654e-02
4.315000000000000000e+03 5.239912033081054688e+01 3.507626724243164062e+01 -2.347694784402847290e-01 5.457280158996582031e+00 1.566753149032592773e+00 -9.032464772462844849e-02
4.316000000000000000e+03 6.157210159301757812e+01 1.809668731689453125e+01 -5.226545333862304688e-01 7.516634941101074219e+00 2.098194122314453125e+00 3.362662196159362793e-01
4.317000000000000000e+03 5.713317108154296875e+01 2.202395820617675781e+01 -4.989834129810333252e-01 6.746415615081787109e+00 1.874229669570922852e+00 2.470376668497920036e-03
4.318000000000000000e+03 6.047588729858398438e+01 2.193985366821289062e+01 -4.745900630950927734e-01 7.183636188507080078e+00 2.012713909149169922e+00 1.898711919784545898e-01
4.319000000000000000e+03 2.960429191589355469e+01 2.687475013732910156e+01 1.884081810712814331e-01 1.279992938041687012e+00 4.405203461647033691e-01 -2.581042349338531494e-01
4.320000000000000000e+03 2.131583023071289062e+01 -2.701203155517578125e+01 2.633243501186370850e-01 9.572952985763549805e-02 1.077161654829978943e-01 -2.204811573028564453e-01
4.321000000000000000e+03 3.842900466918945312e+01 2.614250183105468750e+01 1.542220730334520340e-02 2.966539144515991211e+00 8.945884108543395996e-01 -4.303412437438964844e-01
4.322000000000000000e+03 2.152708816528320312e+01 -2.992427253723144531e+01 3.567987382411956787e-01 1.644793003797531128e-01 1.563834100961685181e-01 -1.702602058649063110e-01
4.323000000000000000e+03 4.345370483398437500e+01 3.210063934326171875e+01 -6.682982295751571655e-02 3.943432331085205078e+00 1.162980794906616211e+00 -2.757699787616729736e-01
4.324000000000000000e+03 4.130276870727539062e+01 2.643333435058593750e+01 -5.985640361905097961e-02 3.519246101379394531e+00 1.037816882133483887e+00 -4.381223022937774658e-01
4.325000000000000000e+03 2.768428802490234375e+01 2.871197128295898438e+01 2.470638900995254517e-01 1.028263926506042480e+00 3.825983405113220215e-01 -1.837167143821716309e-01
4.326000000000000000e+03 2.682452774047851562e+01 3.101710891723632812e+01 2.808826863765716553e-01 9.280456304550170898e-01 3.626784980297088623e-01 -1.380424350500106812e-01
4.327000000000000000e+03 6.062336349487304688e+01 2.536708831787109375e+01 -4.072124660015106201e-01 7.000020503997802734e+00 1.977842330932617188e+00 1.329723894596099854e-01
4.328000000000000000e+03 4.629204940795898438e+01 3.458957290649414062e+01 -1.144417598843574524e-01 4.413456916809082031e+00 1.289704561233520508e+00 -1.631750017404556274e-01
4.329000000000000000e+03 4.988935852050781250e+01 3.686575698852539062e+01 -1.624408513307571411e-01 5.048675060272216797e+00 1.465870261192321777e+00 -9.065654128789901733e-02
4.330000000000000000e+03 2.903520774841308594e+01 3.067838478088378906e+01 2.543311715126037598e-01 1.289432406425476074e+00 4.631290733814239502e-01 -1.962623894214630127e-01
4.331000000000000000e+03 4.847731399536132812e+01 3.205066299438476562e+01 -1.999944150447845459e-01 4.857166290283203125e+00 1.397151589393615723e+00 -2.083924263715744019e-01
4.332000000000000000e+03 5.250542068481445312e+01 2.464013862609863281e+01 -3.989974856376647949e-01 5.828335285186767578e+00 1.628801345825195312e+00 -2.182210832834243774e-01
4.333000000000000000e+03 5.246007537841796875e+01 2.777284812927246094e+01 -3.382281064987182617e-01 5.700052738189697266e+00 1.608547329902648926e+00 -1.706447452306747437e-01
4.334000000000000000e+03 4.466930007934570312e+01 2.812317848205566406e+01 -1.381815671920776367e-01 4.179440021514892578e+00 1.212377548217773438e+00 -3.958608508110046387e-01
4.335000000000000000e+03 4.902902603149414062e+01 2.978669738769531250e+01 -2.385698258876800537e-01 4.984408855438232422e+00 1.423751711845397949e+00 -2.420957833528518677e-01
4.336000000000000000e+03 3.674767303466796875e+01 2.952927970886230469e+01 9.241192042827606201e-02 2.667784929275512695e+00 8.280590772628784180e-01 -3.195257782936096191e-01
4.337000000000000000e+03 3.399354171752929688e+01 2.743827819824218750e+01 1.311820000410079956e-01 2.074678897857666016e+00 6.617582440376281738e-01 -3.280768096446990967e-01
4.338000000000000000e+03 3.500494384765625000e+01 3.278696441650390625e+01 1.681566536426544189e-01 2.326251506805419922e+00 7.483224272727966309e-01 -2.000645250082015991e-01
4.339000000000000000e+03 4.370488739013671875e+01 3.460253524780273438e+01 -2.937043271958827972e-02 3.995809078216552734e+00 1.189931631088256836e+00 -1.868483573198318481e-01
4.340000000000000000e+03 5.546041870117187500e+01 2.905282974243164062e+01 -3.525117635726928711e-01 6.161457538604736328e+00 1.742683768272399902e+00 -5.513335019350051880e-02
4.341000000000000000e+03 4.211392974853515625e+01 2.949852943420410156e+01 -5.982984602451324463e-02 3.680358171463012695e+00 1.086158514022827148e+00 -3.474382460117340088e-01
4.342000000000000000e+03 3.745062637329101562e+01 3.480547332763671875e+01 1.186902821063995361e-01 2.841174125671386719e+00 8.879593014717102051e-01 -2.039484232664108276e-01
4.343000000000000000e+03 3.238000106811523438e+01 3.241126251220703125e+01 2.274401187896728516e-01 1.885400056838989258e+00 6.338520646095275879e-01 -2.278031706809997559e-01
4.344000000000000000e+03 4.604164505004882812e+01 3.181874847412109375e+01 -1.361130475997924805e-01 4.398614406585693359e+00 1.278750419616699219e+00 -2.745729982852935791e-01
4.345000000000000000e+03 4.019448757171630859e-01 -2.191804170608520508e+00 1.796428841771557927e-04 -4.767768041347153485e-05 3.958956222049891949e-05 6.006735566188581288e-05
4.346000000000000000e+03 4.758509826660156250e+01 -4.795680046081542969e+00 1.990150690078735352e+00 1.318761706352233887e+00 9.926736950874328613e-01 -2.420800209045410156e+00
4.347000000000000000e+03 4.797029495239257812e+01 -4.435203552246093750e+00 2.534033060073852539e+00 2.800190210342407227e+00 1.600266933441162109e+00 -3.565645933151245117e+00
4.348000000000000000e+03 4.856487655639648438e+01 -4.498832702636718750e+00 3.097757101058959961e+00 4.611442565917968750e+00 2.312759876251220703e+00 -4.838919162750244141e+00
4.349000000000000000e+03 4.919580841064453125e+01 -4.761237144470214844e+00 3.579259157180786133e+00 8.134419441223144531e+00 3.514103651046752930e+00 -6.514561653137207031e+00
4.350000000000000000e+03 4.919992065429687500e+01 -4.460434913635253906e+00 2.948771715164184570e+00 8.728550910949707031e+00 3.503196954727172852e+00 -6.229640007019042969e+00
4.351000000000000000e+03 4.954521942138671875e+01 -4.417880058288574219e+00 2.411323070526123047e+00 1.157110404968261719e+01 4.194727897644042969e+00 -6.404081344604492188e+00
4.352000000000000000e+03 4.982238388061523438e+01 -4.570873737335205078e+00 2.098843574523925781e+00 1.401591682434082031e+01 4.834428310394287109e+00 -6.249908447265625000e+00
4.353000000000000000e+03 5.041156005859375000e+01 -4.779186248779296875e+00 1.666951656341552734e+00 1.937907028198242188e+01 6.313806533813476562e+00 -3.533443689346313477e+00
4.354000000000000000e+03 5.062318801879882812e+01 -4.804517745971679688e+00 1.903101682662963867e+00 1.992811965942382812e+01 6.549365997314453125e+00 -2.212091684341430664e+00
4.355000000000000000e+03 5.042212295532226562e+01 -4.454550266265869141e+00 1.272978544235229492e+00 1.746940803527832031e+01 5.622716426849365234e+00 -3.609576702117919922e+00
4.356000000000000000e+03 5.105711364746093750e+01 -4.966122150421142578e+00 3.462635040283203125e+00 2.035319328308105469e+01 7.144748210906982422e+00 5.517989397048950195e-01
4.357000000000000000e+03 5.093061447143554688e+01 -4.421069622039794922e+00 1.685171484947204590e+00 1.829522514343261719e+01 5.994119167327880859e+00 -1.160431861877441406e+00
4.358000000000000000e+03 5.238621139526367188e+01 -4.717238903045654297e+00 4.813289165496826172e+00 1.518084621429443359e+01 5.998240470886230469e+00 1.943072319030761719e+00
4.359000000000000000e+03 5.169755554199218750e+01 -5.060333251953125000e+00 5.515444755554199219e+00 1.775037193298339844e+01 6.979744911193847656e+00 2.099741935729980469e+00
4.360000000000000000e+03 5.158318328857421875e+01 -5.689398765563964844e+00 9.276988029479980469e+00 1.813934516906738281e+01 8.224900245666503906e+00 2.637317895889282227e+00
4.361000000000000000e+03 5.193024444580078125e+01 -5.804223060607910156e+00 9.358944892883300781e+00 1.622352409362792969e+01 7.674740791320800781e+00 1.865680217742919922e+00
4.362000000000000000e+03 5.207654953002929688e+01 -6.229961395263671875e+00 1.031273651123046875e+01 1.532734298706054688e+01 7.692023754119873047e+00 5.321671962738037109e-01
4.363000000000000000e+03 5.169491958618164062e+01 -6.918428897857666016e+00 1.030632686614990234e+01 1.724496459960937500e+01 8.265387535095214844e+00 -2.044056177139282227e+00
4.364000000000000000e+03 5.175709533691406250e+01 -7.817752361297607422e+00 5.176690101623535156e+00 1.744832038879394531e+01 6.787503242492675781e+00 -2.085221767425537109e+00
4.365000000000000000e+03 5.009626770019531250e+01 -8.270179748535156250e+00 1.421370744705200195e+00 1.629189300537109375e+01 5.313979148864746094e+00 5.198471546173095703e+00
4.366000000000000000e+03 5.028273391723632812e+01 -8.261443138122558594e+00 1.337504386901855469e+00 1.734960937500000000e+01 5.606134414672851562e+00 4.354534626007080078e+00
4.367000000000000000e+03 4.993497467041015625e+01 -8.332787513732910156e+00 1.564815163612365723e+00 1.476514148712158203e+01 4.898986816406250000e+00 5.654267787933349609e+00
4.368000000000000000e+03 4.975509262084960938e+01 -8.412484169006347656e+00 1.777086019515991211e+00 1.317825317382812500e+01 4.486601829528808594e+00 5.935971260070800781e+00
4.369000000000000000e+03 4.953599929809570312e+01 -8.443679809570312500e+00 2.111249685287475586e+00 1.139980888366699219e+01 4.053317546844482422e+00 6.138117790222167969e+00
4.370000000000000000e+03 4.907440567016601562e+01 -8.468380928039550781e+00 2.725399255752563477e+00 7.923858165740966797e+00 3.194777250289916992e+00 5.881168842315673828e+00
4.371000000000000000e+03 4.829433059692382812e+01 -8.516892433166503906e+00 2.537686109542846680e+00 3.965904235839843750e+00 1.951077103614807129e+00 4.335732460021972656e+00
4.372000000000000000e+03 4.859416580200195312e+01 -8.438535690307617188e+00 2.779484987258911133e+00 5.300140857696533203e+00 2.423887729644775391e+00 5.004656791687011719e+00
4.373000000000000000e+03 4.807381439208984375e+01 -8.353601455688476562e+00 2.530340194702148438e+00 2.775458335876464844e+00 1.591739535331726074e+00 3.666790723800659180e+00
4.374000000000000000e+03 4.782345962524414062e+01 -8.154127120971679688e+00 2.209932804107666016e+00 1.946404099464416504e+00 1.246901035308837891e+00 2.956145763397216797e+00
4.375000000000000000e+03 1.299633502960205078e+00 2.755254268646240234e+00 7.448285032296553254e-05 -1.605570723768323660e-04 -2.582226625236216933e-05 -2.361893166380468756e-06
4.376000000000000000e+03 2.510035276412963867e+00 2.743221044540405273e+00 -5.849638837389647961e-04 -1.941584050655364990e-04 -2.337366895517334342e-04 7.856296724639832973e-05
4.377000000000000000e+03 1.385642528533935547e+01 2.569482803344726562e+00 -8.610679651610553265e-04 -7.389396778307855129e-04 -4.800022870767861605e-04 -9.141780901700258255e-04
4.378000000000000000e+03 9.953478813171386719e+00 -2.139517402648925781e+01 -1.986752897500991821e-01 -5.277271270751953125e-01 -2.179207354784011841e-01 -4.503168463706970215e-01
4.379000000000000000e+03 6.955224514007568359e+00 3.559255981445312500e+01 1.245568990707397461e-01 -6.013550162315368652e-01 -1.430394202470779419e-01 1.968046724796295166e-01
4.380000000000000000e+03 4.994263076782226562e+01 -4.296310901641845703e+00 1.524130821228027344e+00 1.414800834655761719e+01 4.701642036437988281e+00 -5.367179870605468750e+00
4.381000000000000000e+03 4.966458129882812500e+01 -4.543624877929687500e+00 2.400171995162963867e+00 1.253239727020263672e+01 4.479770660400390625e+00 -6.465163230895996094e+00
4.382000000000000000e+03 4.939162445068359375e+01 -4.492837905883789062e+00 2.702667236328125000e+00 1.034926033020019531e+01 3.915578126907348633e+00 -6.380317687988281250e+00
4.383000000000000000e+03 4.795813369750976562e+01 -4.071426868438720703e+00 2.508882999420166016e+00 3.524880647659301758e+00 1.810129165649414062e+00 -3.943344116210937500e+00
4.384000000000000000e+03 4.762660217285156250e+01 -3.651186704635620117e+00 2.197069168090820312e+00 3.273686885833740234e+00 1.641226887702941895e+00 -3.602990388870239258e+00
4.385000000000000000e+03 4.926678848266601562e+01 -4.172652244567871094e+00 2.376245021820068359e+00 9.488648414611816406e+00 3.559468030929565430e+00 -5.869779109954833984e+00
4.386000000000000000e+03 4.867160415649414062e+01 -4.180617809295654297e+00 2.849424362182617188e+00 6.031650543212890625e+00 2.664322614669799805e+00 -5.237677574157714844e+00
4.387000000000000000e+03 4.830744934082031250e+01 -4.318350315093994141e+00 2.802423477172851562e+00 4.074808597564697266e+00 2.063169479370117188e+00 -4.403470039367675781e+00
4.388000000000000000e+03 5.176219940185546875e+01 -4.274772644042968750e+00 2.764822959899902344e+00 1.641664314270019531e+01 5.754439830780029297e+00 9.509612917900085449e-01
4.389000000000000000e+03 5.151548767089843750e+01 -4.265462398529052734e+00 2.348795890808105469e+00 1.693069839477539062e+01 5.783848285675048828e+00 4.377693235874176025e-01
4.390000000000000000e+03 5.194595718383789062e+01 -5.205115795135498047e+00 6.426316261291503906e+00 1.672418022155761719e+01 6.945148944854736328e+00 2.269755840301513672e+00
4.391000000000000000e+03 5.159778594970703125e+01 -3.594502449035644531e+00 1.275381088256835938e+00 1.545109939575195312e+01 5.017943859100341797e+00 -2.506726384162902832e-01
4.392000000000000000e+03 5.044783782958984375e+01 -3.794227361679077148e+00 7.570894360542297363e-01 1.504924583435058594e+01 4.741900444030761719e+00 -3.392879486083984375e+00
4.393000000000000000e+03 7.816617584228515625e+01 -3.584003448486328125e+01 -3.487208485603332520e-02 8.483415603637695312e+00 2.534563064575195312e+00 -6.089504063129425049e-02
4.394000000000000000e+03 4.692645263671875000e+01 -3.172148704528808594e+00 1.741773247718811035e+00 2.524091243743896484e+00 1.279759287834167480e+00 -2.948753595352172852e+00
4.395000000000000000e+03 4.810066604614257812e+01 -8.579051017761230469e+00 2.263625383377075195e+00 3.502564191818237305e+00 1.729856848716735840e+00 4.013315200805664062e+00
4.396000000000000000e+03 4.812889480590820312e+01 -8.911688804626464844e+00 2.352120637893676758e+00 4.393497943878173828e+00 2.023685455322265625e+00 4.298407077789306641e+00
4.397000000000000000e+03 4.840582656860351562e+01 -8.336894035339355469e+00 2.765941619873046875e+00 3.994601726531982422e+00 2.028162956237792969e+00 4.387478351593017578e+00
4.398000000000000000e+03 4.936002349853515625e+01 -8.799349784851074219e+00 1.838056564331054688e+00 1.002329063415527344e+01 3.558404207229614258e+00 5.618122577667236328e+00
4.399000000000000000e+03 5.009610366821289062e+01 -8.485918998718261719e+00 1.219428420066833496e+00 1.522410583496093750e+01 4.933060169219970703e+00 4.918076038360595703e+00
4.400000000000000000e+03 5.048881149291992188e+01 -8.259536743164062500e+00 1.207446932792663574e+00 1.823743057250976562e+01 5.833463191986083984e+00 3.232026100158691406e+00
4.401000000000000000e+03 5.132819366455078125e+01 -8.103700637817382812e+00 3.021359682083129883e+00 1.858104133605957031e+01 6.480720043182373047e+00 -7.759535908699035645e-01
4.402000000000000000e+03 5.224768447875976562e+01 -7.513063430786132812e+00 6.833954811096191406e+00 1.530163860321044922e+01 6.640677928924560547e+00 -2.122253894805908203e+00
4.403000000000000000e+03 5.204525375366210938e+01 -6.786382675170898438e+00 9.971078872680664062e+00 1.549473953247070312e+01 7.639745712280273438e+00 -1.285048365592956543e+00
4.404000000000000000e+03 5.241001892089843750e+01 -6.394996643066406250e+00 9.332901000976562500e+00 1.426106262207031250e+01 7.078188896179199219e+00 8.633044548332691193e-03
4.405000000000000000e+03 5.221059036254882812e+01 -6.649392604827880859e+00 9.766270637512207031e+00 1.493374919891357422e+01 7.410006046295166016e+00 -7.903860807418823242e-01
4.406000000000000000e+03 5.214313888549804688e+01 -5.673307418823242188e+00 8.418905258178710938e+00 1.548240089416503906e+01 7.170391559600830078e+00 1.869025945663452148e+00
4.407000000000000000e+03 5.200826263427734375e+01 -5.518115043640136719e+00 8.020077705383300781e+00 1.614023208618164062e+01 7.248093128204345703e+00 2.200266361236572266e+00
4.408000000000000000e+03 5.180394744873046875e+01 -5.430363178253173828e+00 7.561165332794189453e+00 1.719497871398925781e+01 7.426843166351318359e+00 2.374364852905273438e+00
4.409000000000000000e+03 7.631206512451171875e+01 3.871469879150390625e+01 -7.904814928770065308e-02 8.897541999816894531e+00 2.645548105239868164e+00 1.961599849164485931e-02
4.410000000000000000e+03 2.151003599166870117e+00 3.703400421142578125e+01 1.224027574062347412e-02 -8.889799118041992188e-01 -2.630218863487243652e-01 5.498686060309410095e-02
4.411000000000000000e+03 5.053657150268554688e+01 -8.673019409179687500e+00 8.151246905326843262e-01 1.631564712524414062e+01 5.139231204986572266e+00 3.104810714721679688e+00
4.412000000000000000e+03 5.067581176757812500e+01 -8.539587020874023438e+00 1.074664711952209473e+00 1.743077278137207031e+01 5.551630973815917969e+00 2.334945440292358398e+00
4.413000000000000000e+03 5.157327651977539062e+01 -8.628399848937988281e+00 2.160828351974487305e+00 1.699416923522949219e+01 5.746499061584472656e+00 -5.377371311187744141e-01
4.414000000000000000e+03 5.185667800903320312e+01 -8.656081199645996094e+00 2.527669668197631836e+00 1.607307243347167969e+01 5.580222606658935547e+00 -9.474126100540161133e-01
4.415000000000000000e+03 5.234513854980468750e+01 -8.413786888122558594e+00 3.684423923492431641e+00 1.531959056854248047e+01 5.701204299926757812e+00 -1.691911697387695312e+00
4.416000000000000000e+03 5.236105728149414062e+01 -5.542634487152099609e+00 7.605913639068603516e+00 1.490350914001464844e+01 6.752826690673828125e+00 1.841808557510375977e+00
4.417000000000000000e+03 4.843664932250976562e+01 -8.761717796325683594e+00 2.426676034927368164e+00 5.138967990875244141e+00 2.269693374633789062e+00 4.771144866943359375e+00
4.418000000000000000e+03 5.034899520874023438e+01 -8.740910530090332031e+00 8.124352693557739258e-01 1.570223903656005859e+01 4.954402446746826172e+00 3.775439023971557617e+00
4.419000000000000000e+03 4.850173950195312500e+01 -4.270124912261962891e+00 2.938186168670654297e+00 4.950732707977294922e+00 2.366675615310668945e+00 -4.875562667846679688e+00
4.420000000000000000e+03 3.341566085815429688e+00 4.629528999328613281e+00 2.496165689080953598e-04 1.698517007753252983e-04 1.258404809050261974e-04 1.184545544674620032e-05
4.421000000000000000e+03 5.058026885986328125e+01 -3.427677869796752930e+00 5.269775390625000000e-01 1.424545288085937500e+01 4.431729316711425781e+00 -2.906762361526489258e+00
4.422000000000000000e+03 5.234420394897460938e+01 -5.950820922851562500e+00 8.905982017517089844e+00 1.457468986511230469e+01 7.044201850891113281e+00 1.164064407348632812e+00
4.423000000000000000e+03 5.049034500122070312e+01 -8.483807563781738281e+00 1.068341135978698730e+00 1.726170730590820312e+01 5.499014854431152344e+00 3.267749786376953125e+00
4.424000000000000000e+03 4.956447219848632812e+01 -3.389090061187744141e+00 1.188629388809204102e+00 1.056790924072265625e+01 3.526961565017700195e+00 -4.929807186126708984e+00
4.425000000000000000e+03 4.981779479980468750e+01 -4.101819992065429688e+00 1.532779932022094727e+00 1.304255771636962891e+01 4.372601509094238281e+00 -5.323147296905517578e+00
4.426000000000000000e+03 4.954698562622070312e+01 -4.133185863494873047e+00 2.015730857849121094e+00 1.127666091918945312e+01 3.987717628479003906e+00 -5.890556335449218750e+00
4.427000000000000000e+03 4.865638732910156250e+01 -3.526869297027587891e+00 2.106402635574340820e+00 6.652681350708007812e+00 2.627725362777709961e+00 -4.926781177520751953e+00
4.428000000000000000e+03 5.230689620971679688e+01 -7.273852348327636719e+00 7.636510372161865234e+00 1.501374244689941406e+01 6.795075893402099609e+00 -1.991652131080627441e+00
4.429000000000000000e+03 5.308665466308593750e+01 -7.185719966888427734e+00 6.994940757751464844e+00 1.306495761871337891e+01 6.017969608306884766e+00 -1.291248798370361328e+00
4.430000000000000000e+03 5.228415298461914062e+01 -6.830730438232421875e+00 9.143945693969726562e+00 1.479856777191162109e+01 7.182754039764404297e+00 -1.249310851097106934e+00
4.431000000000000000e+03 5.255841827392578125e+01 -7.024016857147216797e+00 8.083430290222167969e+00 1.422476005554199219e+01 6.692457199096679688e+00 -1.433629512786865234e+00
4.432000000000000000e+03 4.911667633056640625e+01 -8.800971031188964844e+00 2.136714935302734375e+00 8.444836616516113281e+00 3.174465417861938477e+00 5.620188713073730469e+00
4.433000000000000000e+03 5.140384292602539062e+01 -8.966856002807617188e+00 1.218680143356323242e+00 1.617499542236328125e+01 5.218102931976318359e+00 4.770561158657073975e-01
4.434000000000000000e+03 5.169517517089843750e+01 -8.899150848388671875e+00 1.762331604957580566e+00 1.598130893707275391e+01 5.323091983795166016e+00 -2.973208725452423096e-01
4.435000000000000000e+03 5.083018112182617188e+01 -8.728991508483886719e+00 9.575905799865722656e-01 1.698535156250000000e+01 5.382882595062255859e+00 1.937704563140869141e+00
4.436000000000000000e+03 5.158635330200195312e+01 -4.490520477294921875e+00 3.055623769760131836e+00 1.727731895446777344e+01 6.099883079528808594e+00 9.773513674736022949e-01
4.437000000000000000e+03 5.175040817260742188e+01 -4.653933048248291016e+00 3.797927856445312500e+00 1.714745712280273438e+01 6.283615589141845703e+00 1.515322327613830566e+00
4.438000000000000000e+03 4.687273788452148438e+01 -2.569978237152099609e+00 1.653979897499084473e+00 3.062541484832763672e+00 1.414956450462341309e+00 -3.110311746597290039e+00
4.439000000000000000e+03 4.647978973388671875e+01 -2.322290420532226562e+00 1.508396387100219727e+00 2.746276378631591797e+00 1.276401758193969727e+00 -2.785540342330932617e+00
4.440000000000000000e+03 4.555601501464843750e+01 -1.007183265686035156e+01 9.327055215835571289e-01 1.484444856643676758e+00 7.251451015472412109e-01 1.984907627105712891e+00
4.441000000000000000e+03 4.647591018676757812e+01 2.936667251586914062e+01 -1.906232833862304688e-01 4.514997005462646484e+00 1.297312140464782715e+00 -3.339164257049560547e-01
4.442000000000000000e+03 1.398504924774169922e+01 -2.335568428039550781e+01 -1.476998254656791687e-02 -4.592519998550415039e-01 -1.422065943479537964e-01 -3.811749517917633057e-01
4.443000000000000000e+03 1.558252048492431641e+01 -2.549331283569335938e+01 1.192288771271705627e-01 -3.150675892829895020e-01 -5.875161662697792053e-02 -3.419406414031982422e-01
4.444000000000000000e+03 4.778306198120117188e+01 -3.251854658126831055e+00 1.986974596977233887e+00 4.155053615570068359e+00 1.842608451843261719e+00 -3.883452415466308594e+00
4.445000000000000000e+03 4.839105606079101562e+01 -3.373060941696166992e+00 2.080265998840332031e+00 5.810852527618408203e+00 2.367335557937622070e+00 -4.610801696777343750e+00
4.446000000000000000e+03 4.171370983123779297e+00 -2.271601867675781250e+01 -6.569813191890716553e-02 -2.431136518716812134e-01 -9.264353662729263306e-02 -2.418446391820907593e-01
4.447000000000000000e+03 4.938874244689941406e+00 -2.351877593994140625e+01 -7.523001730442047119e-02 -2.974473834037780762e-01 -1.118032187223434448e-01 -3.063263595104217529e-01
4.448000000000000000e+03 5.279411697387695312e+01 -5.243226051330566406e+00 6.479184627532958984e+00 1.388477516174316406e+01 6.109188079833984375e+00 1.787503004074096680e+00
4.449000000000000000e+03 5.216071319580078125e+01 -4.582804679870605469e+00 4.102455139160156250e+00 1.579295921325683594e+01 5.968624591827392578e+00 1.758978486061096191e+00
4.450000000000000000e+03 5.196776580810546875e+01 -4.412912845611572266e+00 3.378378152847290039e+00 1.614229202270507812e+01 5.856201171875000000e+00 1.400412917137145996e+00
4.451000000000000000e+03 2.180175018310546875e+01 -3.186778783798217773e+00 -1.217453926801681519e-01 -1.243712827563285828e-01 -7.383500039577484131e-02 2.073428630828857422e-01
4.452000000000000000e+03 5.286507034301757812e+01 -5.933892250061035156e+00 7.838803291320800781e+00 1.334622955322265625e+01 6.355509757995605469e+00 9.105758666992187500e-01
4.453000000000000000e+03 5.266528320312500000e+01 -5.545138835906982422e+00 7.396413803100585938e+00 1.404126453399658203e+01 6.431303501129150391e+00 1.658509373664855957e+00
4.454000000000000000e+03 5.228664779663085938e+01 -7.036452293395996094e+00 8.587129592895507812e+00 1.485656833648681641e+01 7.033109188079833984e+00 -1.595645546913146973e+00
4.455000000000000000e+03 5.207247543334960938e+01 -3.295971632003784180e+00 1.326622366905212402e+00 1.456520748138427734e+01 4.767549037933349609e+00 2.194565981626510620e-01
4.456000000000000000e+03 5.319158935546875000e+01 -6.901608943939208984e+00 7.270495891571044922e+00 1.270662307739257812e+01 5.993135452270507812e+00 -8.763039708137512207e-01
4.457000000000000000e+03 5.302376937866210938e+01 -6.308452129364013672e+00 7.925803184509277344e+00 1.292934131622314453e+01 6.256543159484863281e+00 1.932283192873001099e-01
4.458000000000000000e+03 5.218973922729492188e+01 -4.221299171447753906e+00 3.212412118911743164e+00 1.547030258178710938e+01 5.604814052581787109e+00 1.364055514335632324e+00
4.459000000000000000e+03 5.280184936523437500e+01 -8.268095970153808594e+00 4.380359649658203125e+00 1.413257694244384766e+01 5.553881168365478516e+00 -1.885231137275695801e+00
4.460000000000000000e+03 5.322212219238281250e+01 -7.987564563751220703e+00 5.149670600891113281e+00 1.322603893280029297e+01 5.512712955474853516e+00 -1.780271530151367188e+00
4.461000000000000000e+03 4.964479827880859375e+01 -3.969893217086791992e+00 1.618060708045959473e+00 1.179640769958496094e+01 4.024340629577636719e+00 -5.428967952728271484e+00
4.462000000000000000e+03 4.958736038208007812e+01 -3.626688003540039062e+00 1.413386225700378418e+00 1.087648391723632812e+01 3.686960935592651367e+00 -5.250397205352783203e+00
4.463000000000000000e+03 4.913913726806640625e+01 -3.695674896240234375e+00 1.903833866119384766e+00 8.879765510559082031e+00 3.235079765319824219e+00 -5.332710266113281250e+00
4.464000000000000000e+03 4.930085754394531250e+01 -3.432105779647827148e+00 1.476181030273437500e+00 9.578518867492675781e+00 3.316410064697265625e+00 -5.027749538421630859e+00
4.465000000000000000e+03 5.061415672302246094e+00 -5.036674976348876953e+00 2.927854948211461306e-04 -3.297975054010748863e-04 -1.110360517486697063e-05 -4.458491166587918997e-04
4.466000000000000000e+03 7.317741394042968750e+01 -3.271527099609375000e+01 -1.398536413908004761e-01 7.999253273010253906e+00 2.357820034027099609e+00 -3.403245210647583008e-01
4.467000000000000000e+03 5.397866821289062500e+01 -7.349204540252685547e+00 5.826147079467773438e+00 1.173261451721191406e+01 5.267628669738769531e+00 -1.089226961135864258e+00
4.468000000000000000e+03 4.677001571655273438e+01 -1.970811843872070312e+00 1.467153668403625488e+00 3.465370655059814453e+00 1.479757308959960938e+00 -3.097512245178222656e+00
4.469000000000000000e+03 4.740680694580078125e+01 -1.805780887603759766e+00 1.358459591865539551e+00 4.663702964782714844e+00 1.806648850440979004e+00 -3.540628194808959961e+00
4.470000000000000000e+03 4.905990219116210938e+01 -1.034069252014160156e+01 8.216935992240905762e-01 8.463032722473144531e+00 2.785417795181274414e+00 4.325387001037597656e+00
4.471000000000000000e+03 5.333332824707031250e+01 -5.069907188415527344e+00 5.680122375488281250e+00 1.287119483947753906e+01 5.565394878387451172e+00 1.627484321594238281e+00
4.472000000000000000e+03 4.515122222900390625e+01 -1.063439846038818359e+01 8.657510876655578613e-01 1.568485140800476074e+00 7.302708625793457031e-01 1.941462039947509766e+00
4.473000000000000000e+03 4.666991806030273438e+01 -1.381822824478149414e+00 1.294604539871215820e+00 3.712613105773925781e+00 1.502165317535400391e+00 -3.027987003326416016e+00
4.474000000000000000e+03 4.974596405029296875e+01 -3.766489505767822266e+00 1.371767997741699219e+00 1.184360790252685547e+01 3.964612960815429688e+00 -4.965766906738281250e+00
4.475000000000000000e+03 4.971284484863281250e+01 -3.117874383926391602e+00 8.793745040893554688e-01 1.092937374114990234e+01 3.542624473571777344e+00 -4.437115669250488281e+00
4.476000000000000000e+03 5.026443481445312500e+01 -2.936739921569824219e+00 4.405267536640167236e-01 1.254999256134033203e+01 3.897156000137329102e+00 -3.480070114135742188e+00
4.477000000000000000e+03 5.255464172363281250e+01 -4.456372261047363281e+00 4.090456962585449219e+00 1.467007541656494141e+01 5.628159523010253906e+00 1.762082815170288086e+00
4.478000000000000000e+03 5.234610366821289062e+01 -4.377188682556152344e+00 3.743920564651489258e+00 1.527353477478027344e+01 5.705236434936523438e+00 1.675533890724182129e+00
4.479000000000000000e+03 4.995248031616210938e+01 -3.389076471328735352e+00 8.206115961074829102e-01 1.229606914520263672e+01 3.935004234313964844e+00 -4.321423530578613281e+00
4.480000000000000000e+03 4.408827209472656250e+01 2.361606979370117188e+01 -1.652850508689880371e-01 4.132271766662597656e+00 1.190096020698547363e+00 -5.102605819702148438e-01
4.481000000000000000e+03 4.533584976196289062e+01 -1.105702018737792969e+01 9.490259289741516113e-01 2.014682531356811523e+00 8.891125321388244629e-01 2.196932077407836914e+00
4.482000000000000000e+03 8.800522804260253906e+00 -2.539773368835449219e+01 2.601899951696395874e-02 -4.820790886878967285e-01 -1.368180215358734131e-01 -4.188797175884246826e-01
4.483000000000000000e+03 8.302932739257812500e+00 -2.685019111633300781e+01 5.791514739394187927e-02 -4.845770895481109619e-01 -1.279985755681991577e-01 -3.941459953784942627e-01
4.484000000000000000e+03 4.512308883666992188e+01 -1.659227967262268066e+00 1.125697016716003418e+00 1.910932660102844238e+00 9.109889268875122070e-01 -2.032433032989501953e+00
4.485000000000000000e+03 5.239956283569335938e+01 -4.052064895629882812e+00 3.033608436584472656e+00 1.475331974029541016e+01 5.336078643798828125e+00 1.352422356605529785e+00
4.486000000000000000e+03 5.261334991455078125e+01 -3.780628442764282227e+00 2.655460357666015625e+00 1.420220279693603516e+01 5.057298660278320312e+00 1.278282642364501953e+00
4.487000000000000000e+03 5.330072402954101562e+01 -6.344716072082519531e+00 7.334716796875000000e+00 1.243439102172851562e+01 5.930732250213623047e+00 1.245298162102699280e-01
4.488000000000000000e+03 5.388483810424804688e+01 -6.574018955230712891e+00 6.534797668457031250e+00 1.166681003570556641e+01 5.460482120513916016e+00 -2.311506122350692749e-01
4.489000000000000000e+03 4.948579788208007812e+01 -9.985667228698730469e+00 7.359890341758728027e-01 9.940891265869140625e+00 3.203064203262329102e+00 4.408218383789062500e+00
4.490000000000000000e+03 5.311315155029296875e+01 -5.353437423706054688e+00 6.494479179382324219e+00 1.311642456054687500e+01 5.883271217346191406e+00 1.536507964134216309e+00
4.491000000000000000e+03 5.353555297851562500e+01 -5.311661243438720703e+00 6.029378890991210938e+00 1.237055873870849609e+01 5.519981384277343750e+00 1.357885122299194336e+00
4.492000000000000000e+03 5.823059463500976562e+01 -2.757494163513183594e+01 -7.104291319847106934e-01 7.488520145416259766e+00 2.033427238464355469e+00 -7.128804177045822144e-02
4.493000000000000000e+03 5.156071853637695312e+01 -2.336066961288452148e+00 2.326138317584991455e-01 1.312964153289794922e+01 4.008676528930664062e+00 -1.207913517951965332e+00
4.494000000000000000e+03 5.040259933471679688e+01 -9.410876274108886719e+00 4.261988401412963867e-01 1.380374145507812500e+01 4.268982410430908203e+00 3.473105192184448242e+00
4.495000000000000000e+03 5.102850341796875000e+01 -9.479714393615722656e+00 4.264530837535858154e-01 1.476906585693359375e+01 4.558655738830566406e+00 1.809185981750488281e+00
4.496000000000000000e+03 5.004302597045898438e+01 -2.446721553802490234e+00 3.605783581733703613e-01 1.125531673431396484e+01 3.484768390655517578e+00 -3.582983970642089844e+00
4.497000000000000000e+03 4.940992736816406250e+01 -2.884908676147460938e+00 1.010730266571044922e+00 9.726044654846191406e+00 3.221032619476318359e+00 -4.533110618591308594e+00
4.498000000000000000e+03 5.352859115600585938e+01 -4.462533473968505859e+00 4.451058387756347656e+00 1.275588703155517578e+01 5.162083625793457031e+00 1.710064291954040527e+00
4.499000000000000000e+03 5.304059219360351562e+01 -4.277185916900634766e+00 3.858429431915283203e+00 1.361815929412841797e+01 5.242976665496826172e+00 1.716269373893737793e+00
4.500000000000000000e+03 5.328528594970703125e+01 -5.672884464263916016e+00 6.851697921752929688e+00 1.266723346710205078e+01 5.855679512023925781e+00 1.064825654029846191e+00
4.501000000000000000e+03 5.350892257690429688e+01 -5.541683197021484375e+00 6.378351211547851562e+00 1.224228382110595703e+01 5.586190700531005859e+00 1.112700104713439941e+00
4.502000000000000000e+03 5.333512878417968750e+01 -5.456360816955566406e+00 6.485966682434082031e+00 1.272375583648681641e+01 5.762916564941406250e+00 1.379431605339050293e+00
4.503000000000000000e+03 5.256090164184570312e+01 -4.220400810241699219e+00 3.506107330322265625e+00 1.461209774017333984e+01 5.435461521148681641e+00 1.585905551910400391e+00
4.504000000000000000e+03 5.279273605346679688e+01 -3.113895416259765625e+00 1.713100194931030273e+00 1.350231933593750000e+01 4.564626216888427734e+00 8.539143204689025879e-01
4.505000000000000000e+03 2.079827308654785156e+01 -2.227434730529785156e+01 -2.559119649231433868e-02 -3.306550532579421997e-02 -1.759701035916805267e-02 -3.243962824344635010e-01
4.506000000000000000e+03 4.911400985717773438e+01 -1.073978042602539062e+01 6.356978416442871094e-01 8.487828254699707031e+00 2.737057924270629883e+00 4.066778659820556641e+00
4.507000000000000000e+03 4.948294067382812500e+01 -1.074272823333740234e+01 4.062989950180053711e-01 9.444581985473632812e+00 2.955264329910278320e+00 3.906700611114501953e+00
4.508000000000000000e+03 4.987940979003906250e+01 -1.049530315399169922e+01 2.657126486301422119e-01 1.059554672241210938e+01 3.258377790451049805e+00 3.759256124496459961e+00
4.509000000000000000e+03 5.031949996948242188e+01 -1.001865291595458984e+01 1.954689770936965942e-01 1.253173446655273438e+01 3.818161010742187500e+00 3.327838659286499023e+00
4.510000000000000000e+03 5.373224639892578125e+01 -6.042217254638671875e+00 6.701792716979980469e+00 1.187032985687255859e+01 5.571636676788330078e+00 4.645421802997589111e-01
4.511000000000000000e+03 4.999461364746093750e+01 -1.908936142921447754e+00 2.396968007087707520e-01 1.050036907196044922e+01 3.222019910812377930e+00 -3.317897319793701172e+00
4.512000000000000000e+03 4.466676330566406250e+01 -1.209178924560546875e+01 8.213515877723693848e-01 2.066141605377197266e+00 8.662479519844055176e-01 2.057461500167846680e+00
4.513000000000000000e+03 5.040102958679199219e+00 7.490892410278320312e+00 2.503746072761714458e-04 -9.367517777718603611e-04 -2.059131511487066746e-04 2.069484180537983775e-04
4.514000000000000000e+03 5.115887069702148438e+01 -9.277414321899414062e+00 6.510521769523620605e-01 1.538295364379882812e+01 4.810201644897460938e+00 1.336857914924621582e+00
4.515000000000000000e+03 6.091345787048339844e+00 7.209009647369384766e+00 1.552674686536192894e-03 5.564342136494815350e-04 6.327326409518718719e-04 3.462361346464604139e-04
4.516000000000000000e+03 5.229408645629882812e+01 -2.665701389312744141e+00 8.836597800254821777e-01 1.350010204315185547e+01 4.315128803253173828e+00 3.382109105587005615e-02
4.517000000000000000e+03 5.078621292114257812e+01 -9.551928520202636719e+00 3.441513776779174805e-01 1.424505043029785156e+01 4.376760482788085938e+00 2.383686304092407227e+00
4.518000000000000000e+03 2.136242485046386719e+01 -2.025999641418457031e+01 -1.471472382545471191e-01 5.364595446735620499e-03 -4.253479093313217163e-02 -3.760925531387329102e-01
4.519000000000000000e+03 5.311408996582031250e+01 -3.047908067703247070e+00 1.846436619758605957e+00 1.302268409729003906e+01 4.460736274719238281e+00 9.959639906883239746e-01
4.520000000000000000e+03 5.219979095458984375e+01 -1.888808012008666992e+00 3.164493739604949951e-01 1.266841125488281250e+01 3.895457983016967773e+00 -4.714372456073760986e-01
4.521000000000000000e+03 5.172805404663085938e+01 -1.765136599540710449e+00 6.259512156248092651e-02 1.236016464233398438e+01 3.726827859878540039e+00 -1.161407709121704102e+00
4.522000000000000000e+03 5.191883850097656250e+01 -1.176450490951538086e+00 -6.196120381355285645e-02 1.178289604187011719e+01 3.516280412673950195e+00 -1.064763307571411133e+00
4.523000000000000000e+03 5.497426605224609375e+01 -7.063978672027587891e+00 5.180833816528320312e+00 1.066788673400878906e+01 4.754616260528564453e+00 -5.888556838035583496e-01
4.524000000000000000e+03 5.344065093994140625e+01 -9.601372718811035156e+00 2.202407360076904297e+00 1.287860012054443359e+01 4.524302005767822266e+00 -1.304803013801574707e+00
4.525000000000000000e+03 5.342924880981445312e+01 -9.273652076721191406e+00 2.706386327743530273e+00 1.300400829315185547e+01 4.713118553161621094e+00 -1.479049801826477051e+00
4.526000000000000000e+03 4.652881622314453125e+01 -7.754467725753784180e-01 1.162491321563720703e+00 3.793667316436767578e+00 1.486847639083862305e+00 -2.928066253662109375e+00
4.527000000000000000e+03 4.707183456420898438e+01 -7.370136380195617676e-01 1.068791270256042480e+00 4.620847225189208984e+00 1.706891536712646484e+00 -3.196147203445434570e+00
4.528000000000000000e+03 4.651537704467773438e+01 -1.151255965232849121e-01 9.989855289459228516e-01 4.167499542236328125e+00 1.549945473670959473e+00 -2.879269123077392578e+00
4.529000000000000000e+03 5.383475494384765625e+01 -3.884744882583618164e+00 3.426220178604125977e+00 1.239042282104492188e+01 4.744992733001708984e+00 1.599568247795104980e+00
4.530000000000000000e+03 5.430315399169921875e+01 -4.070384979248046875e+00 3.793288230895996094e+00 1.176870441436767578e+01 4.668597698211669922e+00 1.528372526168823242e+00
4.531000000000000000e+03 5.423178482055664062e+01 -3.306721687316894531e+00 2.729988098144531250e+00 1.192442226409912109e+01 4.396323204040527344e+00 1.468723416328430176e+00
4.532000000000000000e+03 5.404856872558593750e+01 -5.560849189758300781e+00 5.901869297027587891e+00 1.168150615692138672e+01 5.275012493133544922e+00 9.546262621879577637e-01
4.533000000000000000e+03 2.799889945983886719e+01 2.278802633285522461e+00 -1.604593694210052490e-01 9.196585975587368011e-03 -4.537883400917053223e-02 5.289927721023559570e-01
4.534000000000000000e+03 2.323950195312500000e+01 -1.209274482727050781e+01 -6.777707338333129883e-01 5.546666309237480164e-02 -1.866912245750427246e-01 -5.084440708160400391e-01
4.535000000000000000e+03 4.698190689086914062e+01 2.122718620300292969e+01 -2.766225039958953857e-01 4.766535282135009766e+00 1.346973896026611328e+00 -5.327066779136657715e-01
4.536000000000000000e+03 3.668831634521484375e+01 -2.438024139404296875e+01 4.192682504653930664e-01 1.846974134445190430e+00 6.798726916313171387e-01 5.896238684654235840e-01
4.537000000000000000e+03 6.803060150146484375e+01 -2.896331787109375000e+01 -3.514585793018341064e-01 7.811255455017089844e+00 2.237938880920410156e+00 -5.415166020393371582e-01
4.538000000000000000e+03 4.949169158935546875e+01 -1.104315471649169922e+01 3.108783662319183350e-01 9.295176506042480469e+00 2.881816387176513672e+00 3.714837312698364258e+00
4.539000000000000000e+03 4.978741073608398438e+01 -1.112311267852783203e+01 1.365293413400650024e-01 9.898621559143066406e+00 3.010545253753662109e+00 3.533839225769042969e+00
4.540000000000000000e+03 5.023131942749023438e+01 -1.099642372131347656e+01 -2.021633088588714600e-02 1.087369918823242188e+01 3.256044864654541016e+00 3.104886531829833984e+00
4.541000000000000000e+03 5.393172454833984375e+01 -8.572208404541015625e+00 4.004168033599853516e+00 1.226374244689941406e+01 4.880373001098632812e+00 -1.624504566192626953e+00
4.542000000000000000e+03 7.022212219238281250e+01 -2.769399452209472656e+01 -2.409724444150924683e-01 7.821148395538330078e+00 2.274052858352661133e+00 -6.052332520484924316e-01
4.543000000000000000e+03 4.499000167846679688e+01 -1.257281875610351562e+01 8.410466909408569336e-01 2.556288719177246094e+00 1.019200563430786133e+00 2.246408462524414062e+00
4.544000000000000000e+03 4.971526336669921875e+01 -1.591989159584045410e+00 2.785701751708984375e-01 9.693180084228515625e+00 2.991525173187255859e+00 -3.429231405258178711e+00
4.545000000000000000e+03 5.286943054199218750e+01 -3.994546413421630859e+00 3.224951028823852539e+00 1.385487270355224609e+01 5.123947143554687500e+00 1.514402151107788086e+00
4.546000000000000000e+03 3.939772415161132812e+01 -5.498406887054443359e-01 1.322262585163116455e-01 5.085019469261169434e-01 1.922184675931930542e-01 -2.799999117851257324e-01
4.547000000000000000e+03 4.792007827758789062e+01 -1.262021422386169434e+00 1.033722758293151855e+00 5.778971195220947266e+00 2.043808221817016602e+00 -3.604473114013671875e+00
4.548000000000000000e+03 5.304605865478515625e+01 -2.792548179626464844e+00 1.473911643028259277e+00 1.299036312103271484e+01 4.339282512664794922e+00 8.093352317810058594e-01
4.549000000000000000e+03 2.619935417175292969e+01 -1.697901606559753418e+00 -3.259378075599670410e-01 -8.177622407674789429e-02 -1.223142072558403015e-01 4.631786346435546875e-01
4.550000000000000000e+03 5.328179168701171875e+01 -2.620409250259399414e+00 1.445775866508483887e+00 1.265736579895019531e+01 4.230942726135253906e+00 8.519579172134399414e-01
4.551000000000000000e+03 7.263471984863281250e+01 2.341051864624023438e+01 -1.236998364329338074e-01 8.175357818603515625e+00 2.415497303009033203e+00 3.534758985042572021e-01
4.552000000000000000e+03 4.596978378295898438e+01 -1.104791522026062012e+00 1.217447042465209961e+00 2.981968164443969727e+00 1.259824514389038086e+00 -2.609507322311401367e+00
4.553000000000000000e+03 5.398666000366210938e+01 -8.897257804870605469e+00 3.443843841552734375e+00 1.221337032318115234e+01 4.697164058685302734e+00 -1.614321827888488770e+00
4.554000000000000000e+03 5.429522705078125000e+01 -8.711516380310058594e+00 3.702669143676757812e+00 1.174742603302001953e+01 4.635028362274169922e+00 -1.541618108749389648e+00
4.555000000000000000e+03 5.223736572265625000e+01 -8.232346773147583008e-01 -8.058647811412811279e-02 1.149681854248046875e+01 3.424869537353515625e+00 -8.154426813125610352e-01
4.556000000000000000e+03 2.349509239196777344e+01 -1.991376113891601562e+01 -1.031953170895576477e-01 1.175089776515960693e-01 4.294099286198616028e-03 -3.716855049133300781e-01
4.557000000000000000e+03 5.509974670410156250e+01 -4.770742893218994141e+00 4.439393997192382812e+00 1.079156208038330078e+01 4.569286823272705078e+00 1.177886009216308594e+00
4.558000000000000000e+03 5.477072143554687500e+01 -2.792585611343383789e+00 2.247023582458496094e+00 1.132403469085693359e+01 4.071317195892333984e+00 1.346844553947448730e+00
4.559000000000000000e+03 5.554895401000976562e+01 -7.190942764282226562e+00 4.728225708007812500e+00 1.028568744659423828e+01 4.504173755645751953e+00 -5.808509588241577148e-01
4.560000000000000000e+03 6.300314712524414062e+01 -2.238863182067871094e+01 -4.316405355930328369e-01 8.110860824584960938e+00 2.303766012191772461e+00 -6.928350329399108887e-01
4.561000000000000000e+03 5.720156097412109375e+01 -2.445614433288574219e+01 -7.399580478668212891e-01 7.698587417602539062e+00 2.087588787078857422e+00 -1.274823304265737534e-02
4.562000000000000000e+03 3.812365341186523438e+01 -1.996803474426269531e+01 4.444879293441772461e-01 1.581393599510192871e+00 6.077644228935241699e-01 7.588606476783752441e-01
4.563000000000000000e+03 3.677749252319335938e+01 -2.018478012084960938e+01 4.222015440464019775e-01 1.343493938446044922e+00 5.297086834907531738e-01 5.669226050376892090e-01
4.564000000000000000e+03 5.506409835815429688e+01 -4.387131214141845703e+00 3.969573259353637695e+00 1.089460277557373047e+01 4.459252834320068359e+00 1.299397706985473633e+00
4.565000000000000000e+03 4.573521041870117188e+01 4.655298292636871338e-01 9.305561780929565430e-01 3.550168275833129883e+00 1.344217419624328613e+00 -2.483515024185180664e+00
4.566000000000000000e+03 5.355397033691406250e+01 -2.561838150024414062e+00 1.552825570106506348e+00 1.244363117218017578e+01 4.198936939239501953e+00 1.008268117904663086e+00
4.567000000000000000e+03 4.978601074218750000e+01 -9.904723763465881348e-01 1.110684871673583984e-01 9.360907554626464844e+00 2.841592788696289062e+00 -3.123965263366699219e+00
4.568000000000000000e+03 5.082075881958007812e+01 -1.388270735740661621e+00 -6.955819576978683472e-02 1.115886878967285156e+01 3.326793193817138672e+00 -2.290826082229614258e+00
4.569000000000000000e+03 5.050901031494140625e+01 -1.279830098152160645e+00 -4.341410845518112183e-02 1.071067142486572266e+01 3.200177192687988281e+00 -2.615342617034912109e+00
4.570000000000000000e+03 2.790229797363281250e+01 -1.697091865539550781e+01 -1.892504245042800903e-01 2.091413140296936035e-01 5.967266391962766647e-03 -3.496768176555633545e-01
4.571000000000000000e+03 5.439813995361328125e+01 -2.409698677062988281e+01 -7.436106204986572266e-01 7.330356121063232422e+00 1.976023674011230469e+00 4.317233562469482422e-01
4.572000000000000000e+03 4.103153610229492188e+01 -1.937844848632812500e+01 4.662290215492248535e-01 2.366164445877075195e+00 8.497180342674255371e-01 1.244928479194641113e+00
4.573000000000000000e+03 2.771083641052246094e+01 -1.780972480773925781e+01 -1.507940143346786499e-01 2.282949537038803101e-01 2.325027994811534882e-02 -3.355593383312225342e-01
4.574000000000000000e+03 4.979803085327148438e+01 5.643919110298156738e-01 -1.055427715182304382e-01 8.505017280578613281e+00 2.519842386245727539e+00 -2.589790344238281250e+00
4.575000000000000000e+03 4.530284118652343750e+01 4.835906922817230225e-01 9.449744820594787598e-01 3.158025264739990234e+00 1.230899930000305176e+00 -2.312407970428466797e+00
4.576000000000000000e+03 4.484403228759765625e+01 5.515982508659362793e-01 9.393422603607177734e-01 2.807856798171997070e+00 1.124159693717956543e+00 -2.149903297424316406e+00
4.577000000000000000e+03 4.476540374755859375e+01 -1.486717128753662109e+01 6.041681170463562012e-01 3.186441421508789062e+00 1.137182831764221191e+00 2.169783592224121094e+00
4.578000000000000000e+03 7.236466979980468750e+01 -2.480701065063476562e+01 -1.359673440456390381e-01 7.727065086364746094e+00 2.277329206466674805e+00 -6.568853855133056641e-01
4.579000000000000000e+03 4.998447799682617188e+01 -4.334372878074645996e-01 -3.836096450686454773e-02 9.325975418090820312e+00 2.786284208297729492e+00 -2.817535161972045898e+00
4.580000000000000000e+03 5.034012222290039062e+01 -3.638748228549957275e-01 -1.364463120698928833e-01 9.701766014099121094e+00 2.869596004486083984e+00 -2.524664878845214844e+00
4.581000000000000000e+03 6.724001312255859375e+01 1.334298038482666016e+01 -3.214226067066192627e-01 7.894961357116699219e+00 2.272061586380004883e+00 7.489179968833923340e-01
4.582000000000000000e+03 3.152194023132324219e+01 1.642275601625442505e-01 -2.638233602046966553e-01 1.188868284225463867e-01 -4.348096251487731934e-02 4.444464147090911865e-01
4.583000000000000000e+03 5.385253906250000000e+01 -9.833050727844238281e+00 2.085706233978271484e+00 1.231187534332275391e+01 4.319274425506591797e+00 -1.309333682060241699e+00
4.584000000000000000e+03 5.315238189697265625e+01 -2.482484817504882812e+01 -6.858963966369628906e-01 6.974535942077636719e+00 1.886591911315917969e+00 5.886284112930297852e-01
4.585000000000000000e+03 4.122785949707031250e+01 8.857890963554382324e-01 6.194545626640319824e-01 1.216683983802795410e+00 5.508415699005126953e-01 -9.074746370315551758e-01
4.586000000000000000e+03 4.795831680297851562e+01 5.461995601654052734e-01 4.971145093441009521e-01 6.098725318908691406e+00 1.978751897811889648e+00 -3.005898237228393555e+00
4.587000000000000000e+03 5.302573013305664062e+01 -1.929659724235534668e+00 7.124436497688293457e-01 1.235262489318847656e+01 3.919520616531372070e+00 2.660826146602630615e-01
4.588000000000000000e+03 5.513240814208984375e+01 -1.017629623413085938e+01 2.146728038787841797e+00 1.107052898406982422e+01 3.965177297592163086e+00 -1.341232538223266602e+00
4.589000000000000000e+03 5.708044433593750000e+01 -7.146926879882812500e+00 3.872971773147583008e+00 9.462350845336914062e+00 4.000597000122070312e+00 -3.680369853973388672e-01
4.590000000000000000e+03 5.729937744140625000e+01 -6.594497203826904297e+00 3.819621801376342773e+00 9.357486724853515625e+00 3.953132629394531250e+00 -9.549989551305770874e-02
4.591000000000000000e+03 4.016738510131835938e+01 1.278604745864868164e+00 5.183482170104980469e-01 1.017132282257080078e+00 4.606441557407379150e-01 -6.829734444618225098e-01
4.592000000000000000e+03 5.378840637207031250e+01 -1.132845783233642578e+01 6.797104477882385254e-01 1.168368721008300781e+01 3.709019422531127930e+00 -5.608919262886047363e-01
4.593000000000000000e+03 7.263568878173828125e+01 -2.311866950988769531e+01 -9.618200361728668213e-02 7.637441635131835938e+00 2.262377738952636719e+00 -6.767160892486572266e-01
4.594000000000000000e+03 4.958403396606445312e+01 1.049963831901550293e+00 -9.388487786054611206e-02 8.046378135681152344e+00 2.385747909545898438e+00 -2.559334993362426758e+00
4.595000000000000000e+03 7.180066680908203125e+01 -2.410565948486328125e+01 -1.371211558580398560e-01 7.716221809387207031e+00 2.273730278015136719e+00 -7.056916356086730957e-01
4.596000000000000000e+03 3.371935272216796875e+01 3.465254008769989014e-01 -1.878983527421951294e-01 2.053152769804000854e-01 5.225074011832475662e-03 3.265714645385742188e-01
4.597000000000000000e+03 5.103930282592773438e+01 -2.223122596740722656e+01 -6.214972138404846191e-01 6.846849441528320312e+00 1.867605686187744141e+00 1.069347858428955078e+00
4.598000000000000000e+03 6.769840240478515625e+01 1.154739284515380859e+01 -2.587738335132598877e-01 7.899758338928222656e+00 2.292295455932617188e+00 8.169586062431335449e-01
4.599000000000000000e+03 5.636930084228515625e+01 -6.619613647460937500e+00 4.320008277893066406e+00 9.741136550903320312e+00 4.218343257904052734e+00 -1.417878419160842896e-01
4.600000000000000000e+03 5.617513656616210938e+01 -6.270639896392822266e+00 4.447969913482666016e+00 9.827952384948730469e+00 4.282776832580566406e+00 7.773277908563613892e-02
4.601000000000000000e+03 5.112918472290039062e+01 -1.509551143646240234e+01 -5.888369083404541016e-01 8.853803634643554688e+00 2.479489803314208984e+00 1.708688735961914062e+00
4.602000000000000000e+03 5.083018493652343750e+01 -1.451305007934570312e+01 -5.239150524139404297e-01 8.862052917480468750e+00 2.501441478729248047e+00 1.946462988853454590e+00
4.603000000000000000e+03 4.998419570922851562e+01 1.405514359474182129e+00 -2.239550948143005371e-01 8.271639823913574219e+00 2.414305448532104492e+00 -2.307634592056274414e+00
4.604000000000000000e+03 4.881316757202148438e+01 7.737612128257751465e-01 1.817031651735305786e-01 7.234092235565185547e+00 2.224738597869873047e+00 -2.893990278244018555e+00
4.605000000000000000e+03 4.835742187500000000e+01 1.295527517795562744e-01 4.689130485057830811e-01 6.639003753662109375e+00 2.132375001907348633e+00 -3.157445907592773438e+00
4.606000000000000000e+03 3.698242187500000000e+01 -1.532150650024414062e+01 1.337859779596328735e-01 6.481987833976745605e-01 2.345954328775405884e-01 3.370217084884643555e-01
4.607000000000000000e+03 5.598486328125000000e+01 -3.920570850372314453e+00 3.359735012054443359e+00 1.029117393493652344e+01 4.095272541046142578e+00 1.268486380577087402e+00
4.608000000000000000e+03 5.648876953125000000e+01 -6.017671108245849609e+00 4.217393398284912109e+00 9.685602188110351562e+00 4.170898914337158203e+00 2.232338041067123413e-01
4.609000000000000000e+03 5.388892364501953125e+01 -2.099797439575195312e+01 -7.472172379493713379e-01 7.818084239959716797e+00 2.121259927749633789e+00 5.827513337135314941e-01
4.610000000000000000e+03 3.207397460937500000e+01 5.499313831329345703e+00 1.202806681394577026e-01 5.261124968528747559e-01 1.939179599285125732e-01 1.684612333774566650e-01
4.611000000000000000e+03 6.918090820312500000e+01 -1.332081699371337891e+01 4.416432082653045654e-01 7.495155334472656250e+00 2.381039619445800781e+00 -7.334251999855041504e-01
4.612000000000000000e+03 6.534963989257812500e+01 1.019914817810058594e+01 -2.929196953773498535e-01 7.993345737457275391e+00 2.310127735137939453e+00 8.439877629280090332e-01
4.613000000000000000e+03 7.020885467529296875e+01 -8.793330192565917969e+00 6.527569293975830078e-01 7.219390392303466797e+00 2.361644268035888672e+00 -2.825549244880676270e-01
4.614000000000000000e+03 6.406331634521484375e+01 -1.995057296752929688e+01 -2.092429250478744507e-01 8.153772354125976562e+00 2.383358955383300781e+00 -8.620539903640747070e-01
4.615000000000000000e+03 5.463072204589843750e+01 -1.129567241668701172e+01 1.049657225608825684e+00 1.128713130950927734e+01 3.701036453247070312e+00 -9.425824284553527832e-01
4.616000000000000000e+03 5.501202774047851562e+01 -1.080106258392333984e+01 1.480531334877014160e+00 1.109884262084960938e+01 3.773812294006347656e+00 -1.153315305709838867e+00
4.617000000000000000e+03 4.778849029541015625e+01 -1.578756713867187500e+01 3.664596006274223328e-02 5.827145099639892578e+00 1.759137272834777832e+00 2.457943439483642578e+00
4.618000000000000000e+03 4.333110427856445312e+01 1.388840436935424805e+00 8.100694417953491211e-01 2.189980745315551758e+00 9.000150561332702637e-01 -1.614031076431274414e+00
4.619000000000000000e+03 5.598656463623046875e+01 -1.846752166748046875e+01 -6.419873237609863281e-01 8.731534004211425781e+00 2.426864147186279297e+00 1.840672828257083893e-02
4.620000000000000000e+03 5.712586212158203125e+01 -1.748259353637695312e+01 -4.254566133022308350e-01 8.972150802612304688e+00 2.564008235931396484e+00 -3.611972033977508545e-01
4.621000000000000000e+03 4.346320343017578125e+01 -1.558525466918945312e+01 5.758586525917053223e-01 2.589083194732666016e+00 9.494825601577758789e-01 1.790197730064392090e+00
4.622000000000000000e+03 6.859757995605468750e+01 8.856153488159179688e+00 -1.259811073541641235e-01 7.849843978881835938e+00 2.317158937454223633e+00 9.068562388420104980e-01
4.623000000000000000e+03 3.421670532226562500e+01 3.873643577098846436e-01 -1.465235203504562378e-01 2.570292353630065918e-01 3.315171226859092712e-02 2.766127586364746094e-01
4.624000000000000000e+03 7.079958343505859375e+01 -2.462666893005371094e+01 -1.865429580211639404e-01 7.766136646270751953e+00 2.273878097534179688e+00 -7.132111787796020508e-01
4.625000000000000000e+03 4.820310592651367188e+01 -1.610544586181640625e+01 -1.029038950800895691e-01 6.215095520019531250e+00 1.833657503128051758e+00 2.331564664840698242e+00
4.626000000000000000e+03 5.065970993041992188e+01 1.316922903060913086e+00 -3.625049293041229248e-01 8.956602096557617188e+00 2.578229188919067383e+00 -1.987274050712585449e+00
4.627000000000000000e+03 5.162966156005859375e+01 1.518877863883972168e+00 -4.832175672054290771e-01 9.486466407775878906e+00 2.700974702835083008e+00 -1.453787088394165039e+00
4.628000000000000000e+03 5.722721862792968750e+01 -9.712752342224121094e+00 2.518547534942626953e+00 9.738587379455566406e+00 3.677140474319458008e+00 -1.183700323104858398e+00
4.629000000000000000e+03 5.891508102416992188e+01 -9.379511833190917969e+00 2.402933359146118164e+00 9.022706985473632812e+00 3.427691936492919922e+00 -9.363455772399902344e-01
4.630000000000000000e+03 5.662351608276367188e+01 -1.013622665405273438e+01 2.247872591018676758e+00 1.009391021728515625e+01 3.702534675598144531e+00 -1.264748215675354004e+00
4.631000000000000000e+03 6.747352600097656250e+01 -7.314046859741210938e+00 1.053420186042785645e+00 7.486705780029296875e+00 2.562037944793701172e+00 -1.257121264934539795e-01
4.632000000000000000e+03 6.850357818603515625e+01 -7.483532905578613281e+00 8.981450200080871582e-01 7.380254268646240234e+00 2.483519792556762695e+00 -1.382081955671310425e-01
4.633000000000000000e+03 4.509555053710937500e+01 8.139818191528320312e+00 9.758128225803375244e-02 4.336015701293945312e+00 1.330079078674316406e+00 -1.500611543655395508e+00
4.634000000000000000e+03 4.728240966796875000e+01 3.459308385848999023e+00 2.016304135322570801e-01 5.446848869323730469e+00 1.694543838500976562e+00 -2.267739534378051758e+00
4.635000000000000000e+03 6.852919769287109375e+01 -1.392584228515625000e+01 4.490585029125213623e-01 7.588973045349121094e+00 2.411409616470336914e+00 -8.041575551033020020e-01
4.636000000000000000e+03 4.864929580688476562e+01 1.478747725486755371e+00 1.209858581423759460e-01 6.910843372344970703e+00 2.109548807144165039e+00 -2.700469255447387695e+00
4.637000000000000000e+03 5.106473922729492188e+01 1.666874408721923828e+00 -4.406156241893768311e-01 9.064625740051269531e+00 2.587202787399291992e+00 -1.733737826347351074e+00
4.638000000000000000e+03 3.345980072021484375e+01 -1.554936027526855469e+01 -8.734475076198577881e-02 3.420492410659790039e-01 7.641135156154632568e-02 -5.285877734422683716e-02
4.639000000000000000e+03 4.597795867919921875e+01 2.920098543167114258e+00 5.068637728691101074e-01 4.361699581146240234e+00 1.460569024085998535e+00 -2.255241632461547852e+00
4.640000000000000000e+03 4.552857971191406250e+01 4.240968704223632812e+00 4.019941389560699463e-01 4.216795444488525391e+00 1.385636925697326660e+00 -2.013499736785888672e+00
4.641000000000000000e+03 4.627325820922851562e+01 3.202840566635131836e+00 4.028029441833496094e-01 4.644801616668701172e+00 1.514281392097473145e+00 -2.246684551239013672e+00
4.642000000000000000e+03 4.644893646240234375e+01 3.986688375473022461e+00 2.844170928001403809e-01 4.863749504089355469e+00 1.544450044631958008e+00 -2.132615327835083008e+00
4.643000000000000000e+03 5.143090820312500000e+01 -1.562555408477783203e+01 -6.231632828712463379e-01 8.746695518493652344e+00 2.437059640884399414e+00 1.546030521392822266e+00
4.644000000000000000e+03 5.156405258178710938e+01 -1.617798805236816406e+01 -6.635261774063110352e-01 8.526322364807128906e+00 2.358838796615600586e+00 1.433137893676757812e+00
4.645000000000000000e+03 5.222093200683593750e+01 -1.603549957275390625e+01 -6.757280230522155762e-01 8.872252464294433594e+00 2.458957195281982422e+00 1.170363426208496094e+00
4.646000000000000000e+03 5.844242477416992188e+01 -4.262357234954833984e+00 2.867549657821655273e+00 9.082529067993164062e+00 3.585023641586303711e+00 8.008764386177062988e-01
4.647000000000000000e+03 6.725848388671875000e+01 -8.276201248168945312e+00 1.048807740211486816e+00 7.524013042449951172e+00 2.571846246719360352e+00 -2.737659811973571777e-01
4.648000000000000000e+03 4.162604904174804688e+01 6.434178829193115234e+00 4.747303128242492676e-01 2.625416040420532227e+00 9.300438761711120605e-01 -1.225835084915161133e+00
4.649000000000000000e+03 6.742118072509765625e+01 7.233696460723876953e+00 -6.875257194042205811e-02 7.918418884277343750e+00 2.354899883270263672e+00 9.636120796203613281e-01
4.650000000000000000e+03 5.798632812500000000e+01 -1.079868507385253906e+01 1.834897518157958984e+00 9.485660552978515625e+00 3.396167516708374023e+00 -1.170699834823608398e+00
4.651000000000000000e+03 6.570746612548828125e+01 3.317547321319580078e+00 3.161215484142303467e-01 8.011191368103027344e+00 2.498193740844726562e+00 1.026932597160339355e+00
4.652000000000000000e+03 4.596156311035156250e+01 3.686857223510742188e+00 4.123009443283081055e-01 4.452979087829589844e+00 1.459583997726440430e+00 -2.132356405258178711e+00
4.653000000000000000e+03 5.084918975830078125e+01 2.167429208755493164e+00 -4.421110749244689941e-01 8.686746597290039062e+00 2.473390579223632812e+00 -1.766916275024414062e+00
4.654000000000000000e+03 5.551678848266601562e+01 -1.638584136962890625e+01 -4.766798913478851318e-01 9.324159622192382812e+00 2.654243946075439453e+00 -7.306519895792007446e-02
4.655000000000000000e+03 3.652436447143554688e+01 3.215969324111938477e+00 3.068436980247497559e-01 7.712916135787963867e-01 3.234405815601348877e-01 -1.802188456058502197e-01
4.656000000000000000e+03 3.602088546752929688e+01 4.321228027343750000e+00 3.302879333496093750e-01 8.685438632965087891e-01 3.596495389938354492e-01 -2.055458575487136841e-01
4.657000000000000000e+03 6.722020721435546875e+01 3.828160285949707031e+00 2.303720414638519287e-01 7.857501506805419922e+00 2.426362037658691406e+00 9.880309700965881348e-01
4.658000000000000000e+03 5.852757263183593750e+01 -1.015689373016357422e+00 1.393602490425109863e+00 9.316751480102539062e+00 3.213106155395507812e+00 1.175547003746032715e+00
4.659000000000000000e+03 5.909972381591796875e+01 -1.085908174514770508e+00 1.417789340019226074e+00 9.108950614929199219e+00 3.158021926879882812e+00 1.157090187072753906e+00
4.660000000000000000e+03 5.757622528076171875e+01 -1.200998497009277344e+01 1.184846401214599609e+00 9.686053276062011719e+00 3.261269807815551758e+00 -1.138680338859558105e+00
4.661000000000000000e+03 5.228596878051757812e+01 2.699548006057739258e+00 -5.590984821319580078e-01 9.150246620178222656e+00 2.577344655990600586e+00 -1.082350969314575195e+00
4.662000000000000000e+03 6.050426483154296875e+01 -1.037088489532470703e+01 1.780973434448242188e+00 8.642961502075195312e+00 3.127180337905883789e+00 -9.371747970581054688e-01
4.663000000000000000e+03 5.408737945556640625e+01 1.683954715728759766e+00 -3.051694929599761963e-01 9.980763435363769531e+00 2.902678251266479492e+00 -1.206500306725502014e-01
4.664000000000000000e+03 3.896076965332031250e+01 4.568832874298095703e+00 5.224028229713439941e-01 1.463860154151916504e+00 5.958788990974426270e-01 -7.036644220352172852e-01
4.665000000000000000e+03 6.713743591308593750e+01 -3.645391941070556641e+00 1.052012920379638672e+00 7.559276103973388672e+00 2.583386659622192383e+00 4.301274716854095459e-01
4.666000000000000000e+03 4.810862731933593750e+01 6.467521667480468750e+00 -1.849337965250015259e-01 5.881752490997314453e+00 1.709045529365539551e+00 -1.717965841293334961e+00
4.667000000000000000e+03 6.626971435546875000e+01 -1.470064258575439453e+01 4.561600089073181152e-01 7.894612312316894531e+00 2.505231618881225586e+00 -9.320327043533325195e-01
4.668000000000000000e+03 5.711424636840820312e+01 2.349788188934326172e+00 5.595329031348228455e-02 9.427344322204589844e+00 2.844989299774169922e+00 7.265417575836181641e-01
4.669000000000000000e+03 3.629219436645507812e+01 5.206617832183837891e+00 3.673797249794006348e-01 1.026865839958190918e+00 4.182736873626708984e-01 -2.977258563041687012e-01
4.670000000000000000e+03 5.266049957275390625e+01 -1.424042892456054688e+01 -5.431187748908996582e-01 9.970507621765136719e+00 2.828216791152954102e+00 9.183390140533447266e-01
4.671000000000000000e+03 4.917557144165039062e+01 5.346898078918457031e+00 -3.082102239131927490e-01 6.667502880096435547e+00 1.907787799835205078e+00 -1.735613703727722168e+00
4.672000000000000000e+03 5.830032730102539062e+01 -1.267289733886718750e+01 9.316444993019104004e-01 9.421533584594726562e+00 3.105953216552734375e+00 -1.089468598365783691e+00
4.673000000000000000e+03 5.867357254028320312e+01 -1.218531894683837891e+01 1.178289055824279785e+00 9.292699813842773438e+00 3.141296625137329102e+00 -1.130797982215881348e+00
4.674000000000000000e+03 5.829439544677734375e+01 -6.515001505613327026e-02 9.780866503715515137e-01 9.386103630065917969e+00 3.109256982803344727e+00 1.147121548652648926e+00
4.675000000000000000e+03 6.535197448730468750e+01 -1.416792392730712891e+01 5.814661383628845215e-01 7.987151622772216797e+00 2.570585489273071289e+00 -9.442158937454223633e-01
4.676000000000000000e+03 6.505960083007812500e+01 -1.351516532897949219e+01 6.754412055015563965e-01 7.984475612640380859e+00 2.597975015640258789e+00 -9.209590554237365723e-01
4.677000000000000000e+03 6.103762817382812500e+01 -1.136601448059082031e+01 1.436705708503723145e+00 8.601393699645996094e+00 3.011429786682128906e+00 -9.965225458145141602e-01
4.678000000000000000e+03 6.376754760742187500e+01 -1.281768321990966797e+01 8.834306001663208008e-01 8.167033195495605469e+00 2.715139150619506836e+00 -9.491186141967773438e-01
4.679000000000000000e+03 6.312408447265625000e+01 -8.095036506652832031e+00 1.791546821594238281e+00 8.019066810607910156e+00 2.943183898925781250e+00 -3.582130670547485352e-01
4.680000000000000000e+03 3.712823867797851562e+01 5.189784526824951172e+00 4.257547259330749512e-01 1.152726173400878906e+00 4.735442698001861572e-01 -4.182903468608856201e-01
4.681000000000000000e+03 5.806338500976562500e+01 -6.551510691642761230e-01 1.213748216629028320e+00 9.508531570434570312e+00 3.216684103012084961e+00 1.172019124031066895e+00
4.682000000000000000e+03 5.991222000122070312e+01 8.693619817495346069e-02 9.881755709648132324e-01 8.941185951232910156e+00 2.978808641433715820e+00 1.136914372444152832e+00
4.683000000000000000e+03 6.254584884643554688e+01 -5.105233192443847656e+00 1.944043278694152832e+00 8.072144508361816406e+00 3.004856348037719727e+00 3.024987280368804932e-01
4.684000000000000000e+03 6.373042297363281250e+01 -8.611358642578125000e+00 1.629410982131958008e+00 7.947980403900146484e+00 2.873217344284057617e+00 -4.358276128768920898e-01
4.685000000000000000e+03 6.337184524536132812e+01 -4.756381988525390625e+00 1.747941136360168457e+00 7.977186203002929688e+00 2.917538166046142578e+00 3.370810747146606445e-01
4.686000000000000000e+03 5.406114578247070312e+01 -1.535003376007080078e+01 -5.361728668212890625e-01 9.611174583435058594e+00 2.722500562667846680e+00 3.356119394302368164e-01
4.687000000000000000e+03 1.488040065765380859e+01 1.046121835708618164e+00 1.733155077090486884e-04 5.429512239061295986e-04 2.148800267605111003e-04 5.904859062866307795e-05
4.688000000000000000e+03 1.433596038818359375e+01 8.109902739524841309e-01 1.636416855035349727e-04 -1.156616490334272385e-04 1.439401057723443955e-05 3.972890553995966911e-04
4.689000000000000000e+03 1.339948463439941406e+01 9.943951964378356934e-01 3.341365663800388575e-04 8.857185093802399933e-06 1.028981205308809876e-04 -2.121315083059016615e-05
4.690000000000000000e+03 1.399857616424560547e+01 1.078236818313598633e+00 -4.211106279399245977e-04 -2.735627931542694569e-04 -2.084020234178751707e-04 -6.219895294634625316e-05
4.691000000000000000e+03 1.342517852783203125e+01 2.516243755817413330e-01 -6.832271174062043428e-05 1.839929427660536021e-05 -1.497702487540664151e-05 1.474807322665583342e-05
4.692000000000000000e+03 1.503903388977050781e+01 3.840551078319549561e-01 -5.830654481542296708e-05 -9.011341171571984887e-05 -4.452598659554496408e-05 -6.750936154276132584e-05
4.693000000000000000e+03 1.424006271362304688e+01 2.423980534076690674e-01 6.746854978700866923e-06 6.767467129975557327e-05 2.232645783806219697e-05 1.307688671658979729e-05
4.694000000000000000e+03 1.447602939605712891e+01 1.142013788223266602e+00 3.828845801763236523e-04 -1.493296713306335732e-05 1.103854883695021272e-04 5.741283530369400978e-05
4.695000000000000000e+03 1.113503360748291016e+01 3.384475409984588623e-01 -3.182628279319033027e-05 -1.197594392579048872e-04 -4.547571734292432666e-05 4.178864037385210395e-05
4.696000000000000000e+03 1.115649890899658203e+01 1.078244447708129883e+00 -3.473558754194527864e-04 -2.982240800974977901e-07 -1.042962321662344038e-04 -2.500964910723268986e-04
4.697000000000000000e+03 1.038435840606689453e+01 3.729175329208374023e-01 -2.280791086377575994e-04 6.219544593477621675e-05 -4.976509808329865336e-05 -1.073838138836435974e-04
4.698000000000000000e+03 1.188578510284423828e+01 3.038018345832824707e-01 -1.192237396026030183e-04 1.424372894689440727e-04 6.964064596104435623e-06 -6.447884516092017293e-05
4.699000000000000000e+03 1.263660717010498047e+01 2.689834535121917725e-01 6.390983617166057229e-05 -1.221870334120467305e-04 -1.748315844452008605e-05 5.891966452509223018e-07
4.700000000000000000e+03 1.266393947601318359e+01 1.008509635925292969e+00 -2.412748581264168024e-04 -6.041046799509786069e-05 -9.050560038303956389e-05 -1.452750439057126641e-04
4.701000000000000000e+03 1.040289020538330078e+01 1.112849831581115723e+00 1.624559517949819565e-04 9.854212112259119749e-05 7.829942478565499187e-05 2.552217920310795307e-04
4.702000000000000000e+03 1.191018390655517578e+01 1.043463349342346191e+00 1.497879420639947057e-04 2.391173620708286762e-05 5.210990275372751057e-05 5.846567364642396569e-05
4.703000000000000000e+03 9.630480766296386719e+00 3.871794641017913818e-01 -9.759397653397172689e-05 8.160647848853841424e-05 -4.796249868377344683e-06 1.279580174013972282e-04
4.704000000000000000e+03 8.873666763305664062e+00 3.829238712787628174e-01 -2.746588434092700481e-04 -2.610093797557055950e-04 -1.607004815014079213e-04 -1.741498417686671019e-04
4.705000000000000000e+03 9.660673141479492188e+00 1.127179503440856934e+00 -3.514238051138818264e-04 -2.112808579113334417e-04 -1.688113989075645804e-04 -4.067616246175020933e-04
4.706000000000000000e+03 8.116720199584960938e+00 3.805542886257171631e-01 -1.238841068698093295e-04 4.463567165657877922e-04 9.674178727436810732e-05 1.819138560676947236e-04
4.707000000000000000e+03 7.360193252563476562e+00 3.795430362224578857e-01 -3.053284599445760250e-04 -5.978277185931801796e-04 -2.709468535613268614e-04 -2.049576432909816504e-04
4.708000000000000000e+03 5.847065925598144531e+00 3.768712580204010010e-01 -2.952751528937369585e-04 -7.319082506000995636e-04 -3.081550239585340023e-04 -1.967886346392333508e-04
4.709000000000000000e+03 5.091114044189453125e+00 3.758820295333862305e-01 -1.037210458889603615e-04 6.979861645959317684e-04 1.782795443432405591e-04 1.926015538629144430e-04
4.710000000000000000e+03 3.579006433486938477e+00 3.681437373161315918e-01 -4.505800825427286327e-05 4.570715245790779591e-04 1.236040552612394094e-04 1.342860196018591523e-04
4.711000000000000000e+03 2.823871612548828125e+00 3.614119887351989746e-01 -1.743656175676733255e-04 -3.212903975509107113e-04 -1.486968103563413024e-04 -8.157951378962025046e-05
4.712000000000000000e+03 2.070111274719238281e+00 3.578882515430450439e-01 3.228934656362980604e-05 2.080058184219524264e-04 7.208855095086619258e-05 9.660374780651181936e-05
4.713000000000000000e+03 2.362852334976196289e+00 1.097888231277465820e+00 -2.137259434675797820e-04 -2.106062311213463545e-04 -1.272996596526354551e-04 -1.885368510556872934e-05
4.714000000000000000e+03 1.328713655471801758e+00 3.659794926643371582e-01 -5.688102100975811481e-05 -1.075711115845479071e-04 -4.933563832310028374e-05 -2.280770968354772776e-05
4.715000000000000000e+03 1.647709608078002930e+00 1.105979442596435547e+00 8.007731230463832617e-05 1.632320054341107607e-04 7.299279241124168038e-05 1.090617515728808939e-04
4.716000000000000000e+03 6.516475677490234375e-01 3.939257264137268066e-01 -1.314493856625631452e-04 -6.812046922277659178e-05 -5.987095573800615966e-05 -1.081828086171299219e-04
4.717000000000000000e+03 3.489431142807006836e-01 9.570703506469726562e-01 1.917862391564995050e-04 1.339468144578859210e-04 9.771991608431562781e-05 7.056786853354424238e-05
4.718000000000000000e+03 3.090358018875122070e+00 1.101411938667297363e+00 8.583615999668836594e-05 3.048474900424480438e-04 1.172050979221239686e-04 9.388389298692345619e-05
4.719000000000000000e+03 3.819237709045410156e+00 1.108143687248229980e+00 -2.167153579648584127e-04 -4.120779922232031822e-04 -1.886380050564184785e-04 -1.172293559648096561e-05
4.720000000000000000e+03 4.335169315338134766e+00 3.733847737312316895e-01 -2.358973433729261160e-04 -5.922153941355645657e-04 -2.484338183421641588e-04 -1.350958918919786811e-04
4.721000000000000000e+03 6.008533000946044922e+00 1.116871237754821777e+00 1.510092988610267639e-05 5.883838166482746601e-04 1.810454123187810183e-04 2.641980536282062531e-04
4.722000000000000000e+03 6.603851795196533203e+00 3.786112964153289795e-01 -1.248450571438297629e-04 7.021900964900851250e-04 1.732035161694511771e-04 2.112779620802029967e-04
4.723000000000000000e+03 8.930113792419433594e+00 1.122923851013183594e+00 9.407847392139956355e-05 3.325061406940221786e-04 1.279753923881798983e-04 3.847081679850816727e-04
4.724000000000000000e+03 8.199422836303710938e+00 1.120554327964782715e+00 -3.526683722157031298e-04 -4.227887839078903198e-04 -2.326371468370780349e-04 -4.197996750008314848e-04
4.725000000000000000e+03 7.469150543212890625e+00 1.119543075561523438e+00 5.534691445063799620e-05 5.219103186391294003e-04 1.731771772028878331e-04 3.686880518216639757e-04
4.726000000000000000e+03 6.739063739776611328e+00 1.118611335754394531e+00 -3.203086962457746267e-04 -5.551326903514564037e-04 -2.626324130687862635e-04 -3.138639731332659721e-04
4.727000000000000000e+03 5.278835773468017578e+00 1.115882039070129395e+00 -2.559661515988409519e-04 -5.497345700860023499e-04 -2.417102223262190819e-04 -1.490228605689480901e-04
4.728000000000000000e+03 4.549146175384521484e+00 1.113384723663330078e+00 -4.433019057614728808e-06 5.162031739018857479e-04 1.535310439066961408e-04 1.434733130736276507e-04
4.729000000000000000e+03 9.968983530998229980e-01 1.133925795555114746e+00 3.862149242195300758e-05 -2.724912483245134354e-04 -7.016092422418296337e-05 6.090886927268002182e-06
4.730000000000000000e+03 7.947246074676513672e+00 -3.790149092674255371e-01 -1.264684688067063689e-04 1.002163917291909456e-04 -7.875625669839791954e-06 5.752628567279316485e-05
4.731000000000000000e+03 8.798082351684570312e+00 -1.121163964271545410e+00 -6.773856875952333212e-05 9.968810627469792962e-05 9.584860890754498541e-06 1.741731975926086307e-04
4.732000000000000000e+03 9.582462310791015625e+00 -3.862577378749847412e-01 -7.479562191292643547e-05 1.614856446394696832e-04 2.600700463517569005e-05 5.565226820181123912e-05
4.733000000000000000e+03 7.128131389617919922e+00 -3.778152763843536377e-01 -1.470469724154099822e-04 -5.755173333454877138e-05 -6.137961463537067175e-05 -4.423410427989438176e-05
4.734000000000000000e+03 6.302709579467773438e+00 -3.771458566188812256e-01 -1.607480808161199093e-04 2.028570997936185449e-05 -4.213870852254331112e-05 5.840285302838310599e-05
4.735000000000000000e+03 5.439445972442626953e+00 -3.834656774997711182e-01 -1.466390676796436310e-04 2.597103775769937783e-05 -3.620040661189705133e-05 -7.122910028556361794e-05
4.736000000000000000e+03 4.549984931945800781e+00 -3.402172923088073730e-01 -7.847169035812839866e-05 -5.692074046237394214e-05 -4.061772779095917940e-05 3.104350253124721348e-05
4.737000000000000000e+03 4.365737915039062500e+00 -8.721476197242736816e-01 -3.156488528475165367e-04 6.056601341697387397e-05 -7.652484782738611102e-05 -1.176796504296362400e-04
4.738000000000000000e+03 2.784216165542602539e+00 -7.810403704643249512e-01 -1.198580139316618443e-04 5.470312680699862540e-05 -1.954646540980320424e-05 -1.801253674784675241e-04
4.739000000000000000e+03 1.180924773216247559e+00 -3.613742887973785400e-01 4.867952520726248622e-05 -3.169148840242996812e-05 5.096410859550815076e-06 3.142216155538335443e-05
4.740000000000000000e+03 4.100910127162933350e-01 -5.529776215553283691e-01 -1.215787324326811358e-05 -5.221881565375952050e-06 -5.213926669966895133e-06 -1.390563284076051787e-05
4.741000000000000000e+03 7.475960254669189453e-01 -1.101374268531799316e+00 -1.923459640238434076e-04 7.106069097062572837e-05 -3.638558337115682662e-05 -3.290238601039163768e-05
4.742000000000000000e+03 9.582078933715820312e+00 -1.126257777214050293e+00 -6.021451554261147976e-05 -1.203537613037042320e-04 -5.417048305389471352e-05 -9.590013360138982534e-05
4.743000000000000000e+03 8.013586997985839844e+00 -1.119014978408813477e+00 -9.889907960314303637e-05 -6.586046220036223531e-05 -4.942786108586005867e-05 -1.201293780468404293e-04
4.744000000000000000e+03 7.227835178375244141e+00 -1.117815256118774414e+00 -1.066485565388575196e-04 5.421739479061216116e-05 -1.572934888827148825e-05 1.648839534027501941e-04
4.745000000000000000e+03 6.435775756835937500e+00 -1.117145895957946777e+00 -8.377515769097954035e-05 -8.129253728839103132e-06 -2.757132278929930180e-05 -1.490341237513348460e-04
4.746000000000000000e+03 5.605874538421630859e+00 -1.123465657234191895e+00 -1.893712033051997423e-04 3.938525878766085953e-06 -5.562980368267744780e-05 1.613617350813001394e-04
4.747000000000000000e+03 4.870606899261474609e+00 -1.221678614616394043e+00 9.337939263787120581e-05 3.147765164612792432e-05 3.745711364899761975e-05 -2.058044483419507742e-04
4.748000000000000000e+03 4.215381145477294922e+00 -1.291930317878723145e+00 -1.005278045340673998e-05 -7.488815754186362028e-05 -2.548228076193481684e-05 2.108819608110934496e-04
4.749000000000000000e+03 3.483533143997192383e+00 -1.264367222785949707e+00 -2.019474050030112267e-04 6.782332638977095485e-05 -4.023722431156784296e-05 -3.171829739585518837e-04
4.750000000000000000e+03 2.720056772232055664e+00 -1.259521603584289551e+00 7.785252091707661748e-05 -2.797876004478894174e-05 1.496212917118100449e-05 2.155117254005745053e-04
4.751000000000000000e+03 1.356012225151062012e+00 -1.203287243843078613e+00 3.110163088422268629e-04 -1.085552503354847431e-04 6.073832264519296587e-05 2.838980435626581311e-05
4.752000000000000000e+03 1.973117947578430176e+00 -8.476541042327880859e-01 -1.007212340482510626e-04 -2.204192060162313282e-05 -3.682894748635590076e-05 1.195373260998167098e-04
4.753000000000000000e+03 8.765102386474609375e+00 -3.811639845371246338e-01 -1.095156258088536561e-04 -1.349758094875141978e-04 -7.334742986131459475e-05 -3.550829205778427422e-05
4.754000000000000000e+03 3.694828748703002930e+00 -2.827752828598022461e-01 -1.232552313013002276e-04 4.231964339851401746e-05 -2.428067818982526660e-05 -3.370277772773988545e-05
4.755000000000000000e+03 2.863922595977783203e+00 -2.815187871456146240e-01 -5.327675899025052786e-05 -1.446673104510409757e-05 -2.032304655585903674e-05 2.088833207380957901e-05
4.756000000000000000e+03 1.994147539138793945e+00 -3.323310017585754395e-01 -4.506116601987741888e-05 -2.827877096933661960e-06 -1.436671300325542688e-05 -6.289073644438758492e-05
4.757000000000000000e+03 1.978801369667053223e+00 -1.275323033332824707e+00 -2.141237055184319615e-04 -7.328129413508577272e-06 -6.643555389018729329e-05 -2.569731150288134813e-04
4.758000000000000000e+03 3.578665971755981445e+00 -7.871425151824951172e-01 -9.565248547005467117e-06 -3.096993896178901196e-05 -1.216055625263834372e-05 1.149951203842647374e-04
4.759000000000000000e+03 1.511178874969482422e+01 -1.151870131492614746e+00 -3.993497739429585636e-05 -4.760282899951562285e-05 -2.626134300953708589e-05 -3.035059853573329747e-05
4.760000000000000000e+03 1.328532791137695312e+01 -1.267471551895141602e+00 3.195461613358929753e-05 6.107411900302395225e-05 2.790862163237761706e-05 6.649373972322791815e-05
4.761000000000000000e+03 1.480503654479980469e+01 -5.744030475616455078e-01 4.712877853307873011e-05 -8.019229426281526685e-06 1.173286545963492244e-05 1.647586032049730420e-05
4.762000000000000000e+03 1.453040313720703125e+01 -1.313965797424316406e+00 -6.637253682129085064e-05 8.162410813383758068e-05 4.575470484269317240e-06 3.994513826910406351e-05
4.763000000000000000e+03 1.393833351135253906e+01 -1.278923630714416504e+00 -1.305621140090806875e-06 -4.616138176061213017e-05 -1.424010042683221400e-05 -5.938953472650609910e-05
4.764000000000000000e+03 1.336329460144042969e+01 -5.279909372329711914e-01 -8.980089660326484591e-06 -1.084738178178668022e-04 -3.523617124301381409e-05 -3.416957406443543732e-05
4.765000000000000000e+03 1.411463356018066406e+01 -5.394020080566406250e-01 8.990271453512832522e-06 7.904760423116385937e-05 2.641136416059453040e-05 2.971293724840506911e-05
4.766000000000000000e+03 1.111242771148681641e+01 -4.403275847434997559e-01 -2.753355329332407564e-05 1.740429433993995190e-04 4.395281939650885761e-05 3.975718573201447725e-05
4.767000000000000000e+03 1.260764503479003906e+01 -5.095726251602172852e-01 1.174384851765353233e-05 1.232887007063254714e-04 4.050976349390111864e-05 2.943257823062594980e-05
4.768000000000000000e+03 1.185993289947509766e+01 -4.741277396678924561e-01 -1.678923035797197372e-05 -1.543584658065810800e-04 -5.134430830366909504e-05 -1.403584883519215509e-05
4.769000000000000000e+03 1.109096240997314453e+01 -1.180124521255493164e+00 -1.747838723531458527e-05 -1.636370870983228087e-04 -5.433464320958591998e-05 -5.092590072308667004e-05
4.770000000000000000e+03 1.036482620239257812e+01 -4.067706167697906494e-01 -5.327801045496016741e-05 -1.855127047747373581e-04 -7.163721602410078049e-05 -2.419160955469124019e-05
4.771000000000000000e+03 1.034629440307617188e+01 -1.146702885627746582e+00 -4.521030496107414365e-05 1.443531655240803957e-04 2.974285780510399491e-05 1.457313483115285635e-04
4.772000000000000000e+03 1.258031177520751953e+01 -1.249099493026733398e+00 -3.500807360978797078e-05 -1.129304218920879066e-04 -4.438154792296700180e-05 -4.151729808654636145e-05
4.773000000000000000e+03 1.183553314208984375e+01 -1.213789224624633789e+00 -7.600581284350482747e-07 1.313226530328392982e-04 3.916877903975546360e-05 7.769359945086762309e-05
4.774000000000000000e+03 5.001604080200195312e+01 -6.418942928314208984e+00 3.394161987304687500e+01 6.565420150756835938e+00 1.215211200714111328e+01 1.251902294158935547e+01
4.775000000000000000e+03 5.002013778686523438e+01 -6.437974929809570312e+00 3.092421340942382812e+01 1.908391380310058594e+01 1.500243854522705078e+01 2.353667259216308594e+01
4.776000000000000000e+03 5.002786254882812500e+01 -6.455844879150390625e+00 2.838374710083007812e+01 3.114818572998046875e+01 1.785957908630371094e+01 2.729561233520507812e+01
4.777000000000000000e+03 5.003891754150390625e+01 -6.471868991851806641e+00 2.441020011901855469e+01 4.356075668334960938e+01 2.039128684997558594e+01 2.824452018737792969e+01
4.778000000000000000e+03 5.005288314819335938e+01 -6.485434055328369141e+00 2.094969558715820312e+01 5.481198883056640625e+01 2.272850608825683594e+01 2.619679450988769531e+01
4.779000000000000000e+03 5.006922149658203125e+01 -6.496020793914794922e+00 1.773782348632812500e+01 6.432596588134765625e+01 2.461913681030273438e+01 2.169839668273925781e+01
4.780000000000000000e+03 5.008730697631835938e+01 -6.503224849700927734e+00 1.625439071655273438e+01 7.122830963134765625e+01 2.624481010437011719e+01 1.540227127075195312e+01
4.781000000000000000e+03 5.010645294189453125e+01 -6.506769657135009766e+00 1.634910964965820312e+01 7.494615936279296875e+01 2.738858032226562500e+01 8.099849700927734375e+00
4.782000000000000000e+03 5.012591934204101562e+01 -6.506519794464111328e+00 1.859684753417968750e+01 7.548223876953125000e+01 2.822372627258300781e+01 1.010865688323974609e+00
4.783000000000000000e+03 5.014496231079101562e+01 -6.502484798431396484e+00 2.260382652282714844e+01 7.318044281005859375e+01 2.873528099060058594e+01 -5.060137748718261719e+00
4.784000000000000000e+03 5.016285705566406250e+01 -6.494819641113281250e+00 2.776543045043945312e+01 6.883487701416015625e+01 2.898009300231933594e+01 -9.296743392944335938e+00
4.785000000000000000e+03 5.017892074584960938e+01 -6.483817100524902344e+00 3.332200241088867188e+01 6.338486480712890625e+01 2.901206016540527344e+01 -1.137613010406494141e+01
4.786000000000000000e+03 5.019253158569335938e+01 -6.469898223876953125e+00 3.861053466796875000e+01 5.793930053710937500e+01 2.896495056152343750e+01 -1.127529430389404297e+01
4.787000000000000000e+03 5.020317077636718750e+01 -6.453595638275146484e+00 4.297434234619140625e+01 5.311994171142578125e+01 2.882828521728515625e+01 -9.351892471313476562e+00
4.788000000000000000e+03 5.021043777465820312e+01 -6.435533523559570312e+00 4.599589920043945312e+01 4.970939254760742188e+01 2.871158790588378906e+01 -6.112430095672607422e+00
4.789000000000000000e+03 5.021404266357421875e+01 -6.416402816772460938e+00 4.753160095214843750e+01 4.796189880371093750e+01 2.864805030822753906e+01 -2.035584449768066406e+00
4.790000000000000000e+03 5.021385955810546875e+01 -6.396935462951660156e+00 4.744289779663085938e+01 4.802082824707031250e+01 2.863911819458007812e+01 2.234174728393554688e+00
4.791000000000000000e+03 5.020988845825195312e+01 -6.377876758575439453e+00 4.577461242675781250e+01 4.996706008911132812e+01 2.872250175476074219e+01 6.247189998626708984e+00
4.792000000000000000e+03 5.020228195190429688e+01 -6.359955787658691406e+00 4.259299087524414062e+01 5.346891403198242188e+01 2.881857109069824219e+01 9.390205383300781250e+00
4.793000000000000000e+03 5.019133377075195312e+01 -6.343858242034912109e+00 3.815628051757812500e+01 5.836437225341796875e+01 2.895619583129882812e+01 1.114272308349609375e+01
4.794000000000000000e+03 5.017745971679687500e+01 -6.330200195312500000e+00 3.284144973754882812e+01 6.382201004028320312e+01 2.899903869628906250e+01 1.104612064361572266e+01
4.795000000000000000e+03 5.016119384765625000e+01 -6.319504737854003906e+00 2.730095291137695312e+01 6.921094512939453125e+01 2.895356750488281250e+01 8.754962921142578125e+00
4.796000000000000000e+03 5.014315414428710938e+01 -6.312180519104003906e+00 2.224105262756347656e+01 7.334683227539062500e+01 2.867636489868164062e+01 4.370082378387451172e+00
4.797000000000000000e+03 5.012403869628906250e+01 -6.308507919311523438e+00 1.845360755920410156e+01 7.543418121337890625e+01 2.816633796691894531e+01 -1.842358350753784180e+00
4.798000000000000000e+03 5.010456848144531250e+01 -6.308628082275390625e+00 1.639678382873535156e+01 7.460306549072265625e+01 2.729995536804199219e+01 -8.957572937011718750e+00
4.799000000000000000e+03 5.008549880981445312e+01 -6.312535762786865234e+00 1.647952461242675781e+01 7.057475280761718750e+01 2.611628341674804688e+01 -1.619451141357421875e+01
4.800000000000000000e+03 5.006755065917968750e+01 -6.320081710815429688e+00 1.814624977111816406e+01 6.345535659790039062e+01 2.448048210144042969e+01 -2.230901145935058594e+01
4.801000000000000000e+03 5.005141830444335938e+01 -6.330976963043212891e+00 2.145996665954589844e+01 5.375641632080078125e+01 2.256491470336914062e+01 -2.657766342163085938e+01
4.802000000000000000e+03 5.003771209716796875e+01 -6.344804763793945312e+00 2.487413215637207031e+01 4.240954208374023438e+01 2.018510246276855469e+01 -2.837788391113281250e+01
4.803000000000000000e+03 5.002696228027343750e+01 -6.361035823822021484e+00 2.872020339965820312e+01 3.009371757507324219e+01 1.764417648315429688e+01 -2.715828323364257812e+01
4.804000000000000000e+03 5.001958084106445312e+01 -6.379049301147460938e+00 3.105340957641601562e+01 1.817937278747558594e+01 1.476983547210693359e+01 -2.317667198181152344e+01
4.805000000000000000e+03 5.001584243774414062e+01 -6.398155689239501953e+00 3.363043212890625000e+01 6.109158515930175781e+00 1.192187690734863281e+01 -1.193319034576416016e+01
