# el_label, x, y, sXX, sYY, sZZ, sXY
1.000000000000000000e+00 4.381917190551757812e+01 -6.518506526947021484e+00 -3.575551748275756836e+00 -2.714999437332153320e+00 -1.887165427207946777e+00 -2.677846193313598633e+00
2.000000000000000000e+00 4.362169265747070312e+01 -6.543404102325439453e+00 2.707783877849578857e-01 1.040202260017395020e+00 3.932941854000091553e-01 8.052469491958618164e-01
3.000000000000000000e+00 4.342421722412109375e+01 -6.568302154541015625e+00 -1.032917499542236328e+00 -4.081852138042449951e-01 -4.323308169841766357e-01 -5.930843763053417206e-03
4.000000000000000000e+00 4.322673797607421875e+01 -6.593200206756591797e+00 -1.397284626960754395e+00 2.087234556674957275e-01 -3.565683364868164062e-01 1.689473092555999756e-01
5.000000000000000000e+00 4.383211135864257812e+01 -6.575459957122802734e+00 1.130664157867431641e+01 -2.308020353317260742e+00 2.699586391448974609e+00 2.382917404174804688e+00
6.000000000000000000e+00 4.364325714111328125e+01 -6.638326644897460938e+00 4.164849758148193359e+00 4.386327862739562988e-01 1.381044745445251465e+00 1.541661858558654785e+00
7.000000000000000000e+00 4.345440673828125000e+01 -6.701193332672119141e+00 3.816969871520996094e+00 9.967167973518371582e-01 1.444105982780456543e+00 2.279736518859863281e+00
8.000000000000000000e+00 4.326555252075195312e+01 -6.764060020446777344e+00 2.563805580139160156e+00 2.802602052688598633e-01 8.532197475433349609e-01 1.456872105598449707e+00
9.000000000000000000e+00 4.385588836669921875e+01 -6.628804206848144531e+00 1.598334693908691406e+01 3.090562582015991211e+00 5.722172737121582031e+00 9.370216369628906250e+00
1.000000000000000000e+01 4.368288803100585938e+01 -6.727234363555908203e+00 9.759146690368652344e+00 1.841790318489074707e+00 3.480281114578247070e+00 5.528372287750244141e+00
1.100000000000000000e+01 4.350988769531250000e+01 -6.825664520263671875e+00 6.579606056213378906e+00 2.334803581237792969e+00 2.674322843551635742e+00 4.379527568817138672e+00
1.200000000000000000e+01 4.333688735961914062e+01 -6.924094200134277344e+00 5.631099224090576172e+00 2.241738557815551758e+00 2.361851453781127930e+00 4.113831520080566406e+00
1.300000000000000000e+01 4.388959503173828125e+01 -6.676499366760253906e+00 1.717995643615722656e+01 1.033352279663085938e+01 8.254043579101562500e+00 1.460477542877197266e+01
1.400000000000000000e+01 4.373907089233398438e+01 -6.806725502014160156e+00 1.119221496582031250e+01 6.378840923309326172e+00 5.271317005157470703e+00 9.524439811706542969e+00
1.500000000000000000e+01 4.358854293823242188e+01 -6.936952114105224609e+00 8.803513526916503906e+00 5.202717304229736328e+00 4.201869487762451172e+00 7.638362884521484375e+00
1.600000000000000000e+01 4.343801879882812500e+01 -7.067178726196289062e+00 6.973018169403076172e+00 4.810467720031738281e+00 3.535045862197875977e+00 6.443294525146484375e+00
1.700000000000000000e+01 4.393194580078125000e+01 -6.716719150543212891e+00 1.512011623382568359e+01 1.900389862060546875e+01 1.023720455169677734e+01 1.758160018920898438e+01
1.800000000000000000e+01 4.380965042114257812e+01 -6.873758792877197266e+00 1.098708343505859375e+01 1.249429893493652344e+01 7.044414520263671875e+00 1.236581802368164062e+01
1.900000000000000000e+01 4.368735885620117188e+01 -7.030798435211181641e+00 8.651658058166503906e+00 9.688361167907714844e+00 5.502005577087402344e+00 9.906375885009765625e+00
2.000000000000000000e+01 4.356506347656250000e+01 -7.187838077545166016e+00 7.187362194061279297e+00 8.478001594543457031e+00 4.699608802795410156e+00 8.763035774230957031e+00
2.100000000000000000e+01 4.398131561279296875e+01 -6.747924804687500000e+00 1.230361557006835938e+01 2.801180648803710938e+01 1.209462642669677734e+01 1.780838394165039062e+01
2.200000000000000000e+01 4.389193344116210938e+01 -6.925767898559570312e+00 9.099007606506347656e+00 1.905940055847167969e+01 8.447523117065429688e+00 1.335803508758544922e+01
2.300000000000000000e+01 4.380255126953125000e+01 -7.103611469268798828e+00 7.575330257415771484e+00 1.539240264892578125e+01 6.890319824218750000e+00 1.095901584625244141e+01
2.400000000000000000e+01 4.371316909790039062e+01 -7.281454563140869141e+00 6.141254425048828125e+00 1.272446346282958984e+01 5.659715175628662109e+00 9.625423431396484375e+00
2.500000000000000000e+01 4.403581237792968750e+01 -6.768921852111816406e+00 9.150961875915527344e+00 3.585689163208007812e+01 1.350235557556152344e+01 1.555344581604003906e+01
2.600000000000000000e+01 4.398276519775390625e+01 -6.960763454437255859e+00 7.388158798217773438e+00 2.554201698303222656e+01 9.879052162170410156e+00 1.237324142456054688e+01
2.700000000000000000e+01 4.392971801757812500e+01 -7.152605056762695312e+00 5.660175800323486328e+00 2.079481315612792969e+01 7.936496734619140625e+00 1.055794143676757812e+01
2.800000000000000000e+01 4.387666702270507812e+01 -7.344446659088134766e+00 4.976417541503906250e+00 1.812255668640136719e+01 6.929692745208740234e+00 9.176473617553710938e+00
2.900000000000000000e+01 4.409336090087890625e+01 -6.778907299041748047e+00 7.628135681152343750e+00 4.193567657470703125e+01 1.486914348602294922e+01 1.137105083465576172e+01
3.000000000000000000e+01 4.407867431640625000e+01 -6.977406024932861328e+00 5.794760227203369141e+00 3.081974983215332031e+01 1.098435306549072266e+01 9.816765785217285156e+00
3.100000000000000000e+01 4.406398773193359375e+01 -7.175904273986816406e+00 4.528694629669189453e+00 2.558464431762695312e+01 9.034001350402832031e+00 8.688282966613769531e+00
3.200000000000000000e+01 4.404930114746093750e+01 -7.374402999877929688e+00 3.665113925933837891e+00 2.252084159851074219e+01 7.855786800384521484e+00 7.822115898132324219e+00
3.300000000000000000e+01 4.415174865722656250e+01 -6.777498722076416016e+00 7.708400726318359375e+00 4.547857284545898438e+01 1.595609283447265625e+01 6.197801113128662109e+00
3.400000000000000000e+01 4.417598724365234375e+01 -6.975058555603027344e+00 5.501029968261718750e+00 3.457373428344726562e+01 1.202242946624755859e+01 6.258031368255615234e+00
3.500000000000000000e+01 4.420022583007812500e+01 -7.172617912292480469e+00 4.157176494598388672e+00 2.901164817810058594e+01 9.950647354125976562e+00 5.786349296569824219e+00
3.600000000000000000e+01 4.422446823120117188e+01 -7.370177745819091797e+00 3.261170387268066406e+00 2.538200187683105469e+01 8.592951774597167969e+00 5.375596046447753906e+00
3.700000000000000000e+01 4.420874404907226562e+01 -6.764750480651855469e+00 9.766872406005859375e+00 4.660535049438476562e+01 1.691166687011718750e+01 1.152977108955383301e+00
3.800000000000000000e+01 4.427098083496093750e+01 -6.953811168670654297e+00 6.519834995269775391e+00 3.642106246948242188e+01 1.288226985931396484e+01 2.354926347732543945e+00
3.900000000000000000e+01 4.433321762084960938e+01 -7.142871379852294922e+00 4.974543571472167969e+00 3.085921478271484375e+01 1.075012779235839844e+01 2.441185235977172852e+00
4.000000000000000000e+01 4.439545440673828125e+01 -7.331932067871093750e+00 3.872623682022094727e+00 2.719259834289550781e+01 9.319566726684570312e+00 2.332106351852416992e+00
4.100000000000000000e+01 4.426216506958007812e+01 -6.741149902343750000e+00 1.326489067077636719e+01 4.563946914672851562e+01 1.767130851745605469e+01 -2.932390213012695312e+00
4.200000000000000000e+01 4.436001968383789062e+01 -6.914476394653320312e+00 8.928347587585449219e+00 3.653253555297851562e+01 1.363826465606689453e+01 -1.150112152099609375e+00
4.300000000000000000e+01 4.445787048339843750e+01 -7.087803363800048828e+00 6.821306705474853516e+00 3.117524909973144531e+01 1.139896678924560547e+01 -7.119951248168945312e-01
4.400000000000000000e+01 4.455572509765625000e+01 -7.261130332946777344e+00 5.598649024963378906e+00 2.782167053222656250e+01 1.002609539031982422e+01 -4.418512284755706787e-01
4.500000000000000000e+01 4.430997467041015625e+01 -6.707600116729736328e+00 1.766200828552246094e+01 4.341022109985351562e+01 1.832166862487792969e+01 -5.444678783416748047e+00
4.600000000000000000e+01 4.443969726562500000e+01 -6.858560085296630859e+00 1.222472381591796875e+01 3.518733978271484375e+01 1.422361946105957031e+01 -3.750949382781982422e+00
4.700000000000000000e+01 4.456941986083984375e+01 -7.009520530700683594e+00 9.623100280761718750e+00 3.031680679321289062e+01 1.198197269439697266e+01 -2.994352579116821289e+00
4.800000000000000000e+01 4.469914627075195312e+01 -7.160480976104736328e+00 8.018660545349121094e+00 2.705373764038085938e+01 1.052171897888183594e+01 -2.535278081893920898e+00
4.900000000000000000e+01 4.435033416748046875e+01 -6.665384769439697266e+00 2.210950851440429688e+01 4.057208251953125000e+01 1.880447769165039062e+01 -6.291819572448730469e+00
5.000000000000000000e+01 4.450696563720703125e+01 -6.788202285766601562e+00 1.593119812011718750e+01 3.309116744995117188e+01 1.470670986175537109e+01 -4.996809005737304688e+00
5.100000000000000000e+01 4.466359710693359375e+01 -6.911019325256347656e+00 1.286525154113769531e+01 2.856563949584960938e+01 1.242926788330078125e+01 -4.150564670562744141e+00
5.200000000000000000e+01 4.482022857666015625e+01 -7.033836364746093750e+00 1.086468696594238281e+01 2.549427986145019531e+01 1.090769004821777344e+01 -3.622081756591796875e+00
5.300000000000000000e+01 4.438170242309570312e+01 -6.616120338439941406e+00 2.593696975708007812e+01 3.794678497314453125e+01 1.916512680053710938e+01 -5.624214649200439453e+00
5.400000000000000000e+01 4.455924987792968750e+01 -6.706094264984130859e+00 1.941658020019531250e+01 3.077610588073730469e+01 1.505780506134033203e+01 -4.813172817230224609e+00
5.500000000000000000e+01 4.473679351806640625e+01 -6.796068191528320312e+00 1.594617748260498047e+01 2.657965850830078125e+01 1.275775146484375000e+01 -4.082443237304687500e+00
5.600000000000000000e+01 4.491433715820312500e+01 -6.886042118072509766e+00 1.369418811798095703e+01 2.378433799743652344e+01 1.124355792999267578e+01 -3.632167816162109375e+00
5.700000000000000000e+01 4.440288162231445312e+01 -6.561691284179687500e+00 2.866415214538574219e+01 3.596062850952148438e+01 1.938743400573730469e+01 -3.810377597808837891e+00
5.800000000000000000e+01 4.459454727172851562e+01 -6.615378856658935547e+00 2.207957839965820312e+01 2.891881942749023438e+01 1.529951953887939453e+01 -3.411529779434204102e+00
5.900000000000000000e+01 4.478620910644531250e+01 -6.669066429138183594e+00 1.833433723449707031e+01 2.488499832153320312e+01 1.296580123901367188e+01 -2.933385372161865234e+00
6.000000000000000000e+01 4.497787475585937500e+01 -6.722754478454589844e+00 1.584058284759521484e+01 2.240209388732910156e+01 1.147280311584472656e+01 -2.588644742965698242e+00
6.100000000000000000e+01 4.441306304931640625e+01 -6.504180431365966797e+00 3.004783439636230469e+01 3.503461456298828125e+01 1.952473449707031250e+01 -1.320437550544738770e+00
6.200000000000000000e+01 4.461151123046875000e+01 -6.519527435302734375e+00 2.345098304748535156e+01 2.785082626342773438e+01 1.539054298400878906e+01 -1.200859785079956055e+00
6.300000000000000000e+01 4.480995941162109375e+01 -6.534874439239501953e+00 1.957176589965820312e+01 2.405812263488769531e+01 1.308896636962890625e+01 -1.060833215713500977e+00
6.400000000000000000e+01 4.500840759277343750e+01 -6.550221920013427734e+00 1.700276374816894531e+01 2.147165298461914062e+01 1.154232501983642578e+01 -8.485058546066284180e-01
6.500000000000000000e+01 4.441184616088867188e+01 -6.445788383483886719e+00 2.989458656311035156e+01 3.506307983398437500e+01 1.948729896545410156e+01 1.366907954216003418e+00
6.600000000000000000e+01 4.460948562622070312e+01 -6.422207832336425781e+00 2.335603332519531250e+01 2.803748321533203125e+01 1.541805458068847656e+01 1.240174770355224609e+00
6.700000000000000000e+01 4.480712509155273438e+01 -6.398626804351806641e+00 1.942424774169921875e+01 2.407803916931152344e+01 1.305068588256835938e+01 1.081162929534912109e+00
6.800000000000000000e+01 4.500476455688476562e+01 -6.375046253204345703e+00 1.691749572753906250e+01 2.152147102355957031e+01 1.153169059753417969e+01 9.860534667968750000e-01
6.900000000000000000e+01 4.439928817749023438e+01 -6.388750076293945312e+00 2.833966255187988281e+01 3.632423782348632812e+01 1.939916992187500000e+01 3.719455480575561523e+00
7.000000000000000000e+01 4.458855438232421875e+01 -6.327143669128417969e+00 2.173699378967285156e+01 2.915057563781738281e+01 1.526627063751220703e+01 3.366427898406982422e+00
7.100000000000000000e+01 4.477782058715820312e+01 -6.265537261962890625e+00 1.802116775512695312e+01 2.520736885070800781e+01 1.296856117248535156e+01 2.871216773986816406e+00
7.200000000000000000e+01 4.496709060668945312e+01 -6.203931331634521484e+00 1.549275875091552734e+01 2.236849594116210938e+01 1.135837650299072266e+01 2.583073854446411133e+00
7.300000000000000000e+01 4.437586593627929688e+01 -6.335247993469238281e+00 2.539416313171386719e+01 3.841641235351562500e+01 1.914317131042480469e+01 5.361000537872314453e+00
7.400000000000000000e+01 4.454951858520507812e+01 -6.237973690032958984e+00 1.897897338867187500e+01 3.116358375549316406e+01 1.504276657104492188e+01 4.533887386322021484e+00
7.500000000000000000e+01 4.472316741943359375e+01 -6.140699386596679688e+00 1.552333354949951172e+01 2.690107536315917969e+01 1.272732257843017578e+01 3.903835535049438477e+00
7.600000000000000000e+01 4.489682006835937500e+01 -6.043424606323242188e+00 1.333487987518310547e+01 2.401023674011230469e+01 1.120353507995605469e+01 3.465011596679687500e+00
7.700000000000000000e+01 4.434247589111328125e+01 -6.287329196929931641e+00 2.150518226623535156e+01 4.105862808227539062e+01 1.876914405822753906e+01 5.754650115966796875e+00
7.800000000000000000e+01 4.449386978149414062e+01 -6.158109664916992188e+00 1.545963954925537109e+01 3.351924896240234375e+01 1.469366645812988281e+01 4.456310272216796875e+00
7.900000000000000000e+01 4.464525985717773438e+01 -6.028889179229736328e+00 1.248063087463378906e+01 2.879782676696777344e+01 1.238353729248046875e+01 3.749385595321655273e+00
8.000000000000000000e+01 4.479664993286132812e+01 -5.899669170379638672e+00 1.070395755767822266e+01 2.576967048645019531e+01 1.094208812713623047e+01 3.280893802642822266e+00
8.100000000000000000e+01 4.430039596557617188e+01 -6.246828079223632812e+00 1.713749694824218750e+01 4.384594345092773438e+01 1.829503250122070312e+01 4.575832843780517578e+00
8.200000000000000000e+01 4.442373275756835938e+01 -6.090607643127441406e+00 1.182912158966064453e+01 3.546969223022460938e+01 1.418964385986328125e+01 2.990679264068603516e+00
8.300000000000000000e+01 4.454707336425781250e+01 -5.934386730194091797e+00 9.426490783691406250e+00 3.047924804687500000e+01 1.197172164916992188e+01 2.312273979187011719e+00
8.400000000000000000e+01 4.467041015625000000e+01 -5.778165817260742188e+00 7.852495193481445312e+00 2.705310440063476562e+01 1.047167968750000000e+01 1.919248342514038086e+00
8.500000000000000000e+01 4.425123596191406250e+01 -6.215294361114501953e+00 1.293390178680419922e+01 4.584201812744140625e+01 1.763277626037597656e+01 1.776614069938659668e+00
8.600000000000000000e+01 4.434180068969726562e+01 -6.038050651550292969e+00 8.765542984008789062e+00 3.658692550659179688e+01 1.360574054718017578e+01 2.070501297712326050e-01
8.700000000000000000e+01 4.443236541748046875e+01 -5.860806941986083984e+00 6.797173023223876953e+00 3.117339324951171875e+01 1.139116954803466797e+01 -1.793672442436218262e-01
8.800000000000000000e+01 4.452293014526367188e+01 -5.683563709259033203e+00 5.543761730194091797e+00 2.770178794860839844e+01 9.973664283752441406e+00 -3.437650203704833984e-01
8.900000000000000000e+01 4.419687652587890625e+01 -6.193934440612792969e+00 9.730057716369628906e+00 4.646600723266601562e+01 1.685881996154785156e+01 -2.506561756134033203e+00
9.000000000000000000e+01 4.425120544433593750e+01 -6.002450466156005859e+00 6.711991310119628906e+00 3.612760543823242188e+01 1.285187911987304688e+01 -3.398823261260986328e+00
9.100000000000000000e+01 4.430553054809570312e+01 -5.810966968536376953e+00 5.103138446807861328e+00 3.065582847595214844e+01 1.072768974304199219e+01 -3.355661153793334961e+00
9.200000000000000000e+01 4.435985565185546875e+01 -5.619482994079589844e+00 4.200257778167724609e+00 2.701202964782714844e+01 9.363686561584472656e+00 -3.154083967208862305e+00
9.300000000000000000e+01 4.413940048217773438e+01 -6.183565139770507812e+00 8.108566284179687500e+00 4.487717437744140625e+01 1.589572143554687500e+01 -7.549130916595458984e+00
9.400000000000000000e+01 4.415540695190429688e+01 -5.985168933868408203e+00 5.986901760101318359e+00 3.397823715209960938e+01 1.198954105377197266e+01 -7.311327457427978516e+00
9.500000000000000000e+01 4.417141723632812500e+01 -5.786772727966308594e+00 4.618563175201416016e+00 2.844429397583007812e+01 9.918857574462890625e+00 -6.563977241516113281e+00
9.600000000000000000e+01 4.418742752075195312e+01 -5.588376522064208984e+00 3.811862945556640625e+00 2.502706527709960938e+01 8.651678085327148438e+00 -6.087502479553222656e+00
9.700000000000000000e+01 4.408100509643554688e+01 -6.184584617614746094e+00 8.454343795776367188e+00 4.087366485595703125e+01 1.479840278625488281e+01 -1.261141586303710938e+01
9.800000000000000000e+01 4.405808258056640625e+01 -5.986867904663085938e+00 6.551296710968017578e+00 2.993232345581054688e+01 1.094508552551269531e+01 -1.063733959197998047e+01
9.900000000000000000e+01 4.403516006469726562e+01 -5.789151191711425781e+00 5.279284000396728516e+00 2.477891540527343750e+01 9.017459869384765625e+00 -9.370471954345703125e+00
1.000000000000000000e+02 4.401223754882812500e+01 -5.591434478759765625e+00 4.380036830902099609e+00 2.159280204772949219e+01 7.791851997375488281e+00 -8.344061851501464844e+00
1.010000000000000000e+02 4.402392578125000000e+01 -6.196952819824218750e+00 1.036199665069580078e+01 3.447720718383789062e+01 1.345176124572753906e+01 -1.642026329040527344e+01
1.020000000000000000e+02 4.396295166015625000e+01 -6.007481575012207031e+00 8.287759780883789062e+00 2.440908622741699219e+01 9.809053421020507812e+00 -1.294185924530029297e+01
1.030000000000000000e+02 4.390197372436523438e+01 -5.818010330200195312e+00 6.592587947845458984e+00 1.984752273559570312e+01 7.932033538818359375e+00 -1.094620132446289062e+01
1.040000000000000000e+02 4.384099960327148438e+01 -5.628539085388183594e+00 5.695435523986816406e+00 1.715767669677734375e+01 6.855933666229248047e+00 -9.728779792785644531e+00
1.050000000000000000e+02 4.397034454345703125e+01 -6.220196723937988281e+00 1.357627296447753906e+01 2.635449790954589844e+01 1.197923088073730469e+01 -1.827123641967773438e+01
1.060000000000000000e+02 4.387364959716796875e+01 -6.046221256256103516e+00 1.015055465698242188e+01 1.794231224060058594e+01 8.427860260009765625e+00 -1.349025249481201172e+01
1.070000000000000000e+02 4.377695465087890625e+01 -5.872246265411376953e+00 8.382908821105957031e+00 1.432164669036865234e+01 6.811366558074951172e+00 -1.116874694824218750e+01
1.080000000000000000e+02 4.368025970458984375e+01 -5.698270797729492188e+00 6.876953601837158203e+00 1.220729351043701172e+01 5.725274085998535156e+00 -9.697729110717773438e+00
1.090000000000000000e+02 4.392231750488281250e+01 -6.253427028656005859e+00 1.637777519226074219e+01 1.752806472778320312e+01 1.017175197601318359e+01 -1.747677230834960938e+01
1.100000000000000000e+02 4.379360198974609375e+01 -6.101605415344238281e+00 1.188622188568115234e+01 1.132924938201904297e+01 6.964641094207763672e+00 -1.222774982452392578e+01
1.110000000000000000e+02 4.366488647460937500e+01 -5.949783325195312500e+00 9.334385871887207031e+00 8.937932014465332031e+00 5.481695652008056641e+00 -9.753450393676757812e+00
1.120000000000000000e+02 4.353617095947265625e+01 -5.797961711883544922e+00 7.840112686157226562e+00 7.667287349700927734e+00 4.652220249176025391e+00 -8.482195854187011719e+00
1.130000000000000000e+02 4.388167572021484375e+01 -6.295372009277343750e+00 1.814366340637207031e+01 9.035984992980957031e+00 8.153894424438476562e+00 -1.407630348205566406e+01
1.140000000000000000e+02 4.372586441040039062e+01 -6.171513557434082031e+00 1.181053638458251953e+01 5.579276084899902344e+00 5.216943740844726562e+00 -9.153316497802734375e+00
1.150000000000000000e+02 4.357005691528320312e+01 -6.047655105590820312e+00 9.310248374938964844e+00 4.543825149536132812e+00 4.156222343444824219e+00 -7.236663341522216797e+00
1.160000000000000000e+02 4.341424942016601562e+01 -5.923796653747558594e+00 7.456101894378662109e+00 4.055908203125000000e+00 3.453603029251098633e+00 -6.164915561676025391e+00
1.170000000000000000e+02 4.384997558593750000e+01 -6.344426155090332031e+00 1.642777633666992188e+01 2.300196647644042969e+00 5.618391990661621094e+00 -8.653194427490234375e+00
1.180000000000000000e+02 4.367303466796875000e+01 -6.253270626068115234e+00 1.002891826629638672e+01 1.376832842826843262e+00 3.421725511550903320e+00 -5.031437397003173828e+00
1.190000000000000000e+02 4.349609375000000000e+01 -6.162115573883056641e+00 6.856836318969726562e+00 1.902852296829223633e+00 2.627906560897827148e+00 -4.029181957244873047e+00
1.200000000000000000e+02 4.331915283203125000e+01 -6.070960044860839844e+00 5.905827999114990234e+00 1.807554006576538086e+00 2.314014673233032227e+00 -3.877876281738281250e+00
1.210000000000000000e+02 4.382843399047851562e+01 -6.398713111877441406e+00 1.114473819732666016e+01 -2.470283985137939453e+00 2.602336168289184570e+00 -1.687671422958374023e+00
1.220000000000000000e+02 4.363713455200195312e+01 -6.343749046325683594e+00 4.089253425598144531e+00 2.859689593315124512e-01 1.312566637992858887e+00 -1.285755753517150879e+00
1.230000000000000000e+02 4.344583129882812500e+01 -6.288784980773925781e+00 3.930729866027832031e+00 7.682991623878479004e-01 1.409708738327026367e+00 -2.058547735214233398e+00
1.240000000000000000e+02 4.325453186035156250e+01 -6.233820438385009766e+00 2.651291847229003906e+00 1.807174384593963623e-01 8.496027588844299316e-01 -1.316012978553771973e+00
1.250000000000000000e+02 4.381787490844726562e+01 -6.456155300140380859e+00 -4.200030326843261719e+00 -2.510807275772094727e+00 -2.013251304626464844e+00 2.669889688491821289e+00
1.260000000000000000e+02 4.361953353881835938e+01 -6.439485549926757812e+00 1.601107120513916016e-01 9.924273490905761719e-01 3.457614183425903320e-01 -7.775202989578247070e-01
1.270000000000000000e+02 4.342119216918945312e+01 -6.422815799713134766e+00 -1.112776637077331543e+00 -4.552926123142242432e-01 -4.704207777976989746e-01 -1.550586707890033722e-02
1.280000000000000000e+02 4.322285079956054688e+01 -6.406146049499511719e+00 -1.395681262016296387e+00 2.611219584941864014e-01 -3.403677642345428467e-01 -1.902645677328109741e-01
1.290000000000000000e+02 2.196186065673828125e+01 -6.700578212738037109e+00 -6.263018250465393066e-01 1.013195142149925232e-02 -1.848509609699249268e-01 7.200112566351890564e-03
1.300000000000000000e+02 2.033289909362792969e+01 -7.179516792297363281e+00 -4.044904708862304688e-01 3.520368412137031555e-02 -1.107860356569290161e-01 -1.384228914976119995e-01
1.310000000000000000e+02 2.261169624328613281e+01 -7.556783676147460938e+00 -8.248698711395263672e-01 2.727563679218292236e-02 -2.392782717943191528e-01 -1.663926243782043457e-01
1.320000000000000000e+02 2.185197448730468750e+01 -7.432458400726318359e+00 -6.821348071098327637e-01 3.722321987152099609e-02 -1.934734731912612915e-01 -1.575083583593368530e-01
1.330000000000000000e+02 2.270871162414550781e+01 -6.822772979736328125e+00 -8.452941179275512695e-01 -3.854302223771810532e-03 -2.547445297241210938e-01 1.526317186653614044e-02
1.340000000000000000e+02 2.121509361267089844e+01 -6.576943874359130859e+00 -4.472881853580474854e-01 9.328125044703483582e-03 -1.313880085945129395e-01 -1.170855294913053513e-02
1.350000000000000000e+02 2.046852302551269531e+01 -6.451897144317626953e+00 -2.873285710811614990e-01 1.572884991765022278e-02 -8.147991448640823364e-02 -2.910150215029716492e-02
1.360000000000000000e+02 2.109233665466308594e+01 -7.306693553924560547e+00 -5.302069783210754395e-01 4.006646573543548584e-02 -1.470421552658081055e-01 -1.468932926654815674e-01
1.370000000000000000e+02 2.421343040466308594e+01 -6.977969646453857422e+00 -1.204573392868041992e+00 3.611713647842407227e-03 -3.602885007858276367e-01 1.223353017121553421e-02
1.380000000000000000e+02 2.414235687255859375e+01 -7.714632511138916016e+00 -1.121596217155456543e+00 1.885182596743106842e-02 -3.308233320713043213e-01 -1.429390013217926025e-01
1.390000000000000000e+02 2.337517356872558594e+01 -7.650850772857666016e+00 -9.677057266235351562e-01 1.724352501332759857e-02 -2.851386666297912598e-01 -1.523964405059814453e-01
1.400000000000000000e+02 2.490980529785156250e+01 -7.777047634124755859e+00 -1.264962792396545410e+00 1.477509364485740662e-02 -3.750562965869903564e-01 -1.495136916637420654e-01
1.410000000000000000e+02 2.496787261962890625e+01 -7.039327144622802734e+00 -1.379735708236694336e+00 1.984772272408008575e-03 -4.133252799510955811e-01 2.031954191625118256e-02
1.420000000000000000e+02 2.567740631103515625e+01 -7.838097095489501953e+00 -1.382516860961914062e+00 -5.459523294121026993e-03 -4.163928925991058350e-01 -1.533845961093902588e-01
1.430000000000000000e+02 2.572246742248535156e+01 -7.099318504333496094e+00 -1.584900975227355957e+00 -1.048321276903152466e-02 -4.786152541637420654e-01 1.368880923837423325e-02
1.440000000000000000e+02 2.345925331115722656e+01 -6.915245532989501953e+00 -1.045400261878967285e+00 -4.322714172303676605e-03 -3.149169087409973145e-01 1.026573590934276581e-02
1.450000000000000000e+02 2.796761512756347656e+01 -7.914083957672119141e+00 -1.736017584800720215e+00 -3.794020274654030800e-03 -5.219435095787048340e-01 -1.493008732795715332e-01
1.460000000000000000e+02 2.720497512817382812e+01 -7.896495819091796875e+00 -1.631898164749145508e+00 -5.465643946081399918e-03 -4.912091493606567383e-01 -1.375711113214492798e-01
1.470000000000000000e+02 2.644245719909667969e+01 -7.877746582031250000e+00 -1.503169894218444824e+00 -1.177497301250696182e-02 -4.544834792613983154e-01 -1.403584629297256470e-01
1.480000000000000000e+02 2.873032188415527344e+01 -7.930514812469482422e+00 -1.819743037223815918e+00 -1.821604371070861816e-02 -5.513877272605895996e-01 -1.530030965805053711e-01
1.490000000000000000e+02 2.798519706726074219e+01 -7.174292564392089844e+00 -1.991903305053710938e+00 -1.388438628055155277e-03 -5.979875326156616211e-01 -2.445317246019840240e-02
1.500000000000000000e+02 2.723094940185546875e+01 -7.156898498535156250e+00 -1.860619783401489258e+00 4.096383054275065660e-04 -5.580630302429199219e-01 -2.237286232411861420e-02
1.510000000000000000e+02 2.873951339721679688e+01 -7.190530300140380859e+00 -2.144033670425415039e+00 -9.609805420041084290e-03 -6.460930109024047852e-01 -3.699132055044174194e-02
1.520000000000000000e+02 2.647681999206542969e+01 -7.138342857360839844e+00 -1.748838663101196289e+00 -1.309894863516092300e-02 -5.285812616348266602e-01 -9.441583417356014252e-03
1.530000000000000000e+02 2.949276733398437500e+01 -7.195246696472167969e+00 -2.263282060623168945e+00 -1.273414399474859238e-02 -6.828048229217529297e-01 -5.977076292037963867e-02
1.540000000000000000e+02 2.948995018005371094e+01 -7.935307502746582031e+00 -1.904050469398498535e+00 -1.771936379373073578e-02 -5.765309333801269531e-01 -1.453776806592941284e-01
1.550000000000000000e+02 3.024649810791015625e+01 -7.928795814514160156e+00 -1.991376280784606934e+00 -1.157741714268922806e-02 -6.008861064910888672e-01 -1.462297439575195312e-01
1.560000000000000000e+02 3.099722290039062500e+01 -7.181584835052490234e+00 -2.440762281417846680e+00 -4.281961824744939804e-03 -7.335132360458374023e-01 -7.686623185873031616e-02
1.570000000000000000e+02 3.175983238220214844e+01 -7.913609027862548828e+00 -2.104456901550292969e+00 -1.363311614841222763e-02 -6.354270577430725098e-01 -1.511813849210739136e-01
1.580000000000000000e+02 3.174956512451171875e+01 -7.173673152923583984e+00 -2.546625137329101562e+00 -5.957953631877899170e-03 -7.657749056816101074e-01 -8.530343323945999146e-02
1.590000000000000000e+02 3.024495315551757812e+01 -7.188776493072509766e+00 -2.344733238220214844e+00 -1.561648561619222164e-03 -7.038884758949279785e-01 -7.269634306430816650e-02
1.600000000000000000e+02 3.100312805175781250e+01 -7.921562194824218750e+00 -2.055357456207275391e+00 -5.909555591642856598e-03 -6.183800697326660156e-01 -1.522019505500793457e-01
1.610000000000000000e+02 3.325168609619140625e+01 -7.142140388488769531e+00 -2.696400642395019531e+00 -1.174773206003010273e-03 -8.092726469039916992e-01 -1.049341410398483276e-01
1.620000000000000000e+02 3.401905441284179688e+01 -7.863194465637207031e+00 -2.203994274139404297e+00 3.689847420901060104e-03 -6.600912809371948242e-01 -1.281736791133880615e-01
1.630000000000000000e+02 3.251437759399414062e+01 -7.900443077087402344e+00 -2.148647546768188477e+00 -8.225234225392341614e-03 -6.470618247985839844e-01 -1.416146159172058105e-01
1.640000000000000000e+02 3.477159881591796875e+01 -7.845397949218750000e+00 -2.200760364532470703e+00 7.040082127787172794e-04 -6.600168943405151367e-01 -1.143218949437141418e-01
1.650000000000000000e+02 3.475299453735351562e+01 -7.105631351470947266e+00 -2.828315734863281250e+00 -1.779729616828262806e-03 -8.490286469459533691e-01 -1.071294620633125305e-01
1.660000000000000000e+02 3.400221252441406250e+01 -7.123385429382324219e+00 -2.763483285903930664e+00 -5.223567131906747818e-03 -8.306120634078979492e-01 -1.056550443172454834e-01
1.670000000000000000e+02 3.250104904174804688e+01 -7.160549640655517578e+00 -2.632656812667846680e+00 -1.052436232566833496e-02 -7.929543852806091309e-01 -9.828944504261016846e-02
1.680000000000000000e+02 3.326676940917968750e+01 -7.881991863250732422e+00 -2.186807155609130859e+00 -5.319388117641210556e-03 -6.576380133628845215e-01 -1.350662112236022949e-01
1.690000000000000000e+02 3.550323104858398438e+01 -7.085636138916015625e+00 -2.879816532135009766e+00 -7.514946628361940384e-03 -8.661994934082031250e-01 -1.099316999316215515e-01
1.700000000000000000e+02 3.627172470092773438e+01 -7.801253795623779297e+00 -2.139691352844238281e+00 1.572285220026969910e-02 -6.371905803680419922e-01 -6.464027613401412964e-02
1.710000000000000000e+02 3.552280426025390625e+01 -7.825378894805908203e+00 -2.178381919860839844e+00 1.112904865294694901e-02 -6.501758098602294922e-01 -9.088049829006195068e-02
1.720000000000000000e+02 3.700176620483398438e+01 -7.040159225463867188e+00 -2.938526153564453125e+00 -3.693905891850590706e-03 -8.826659917831420898e-01 -1.010971814393997192e-01
1.730000000000000000e+02 3.775260925292968750e+01 -7.021411418914794922e+00 -2.937009811401367188e+00 1.342427916824817657e-02 -8.770756125450134277e-01 -8.569224923849105835e-02
1.740000000000000000e+02 3.777272796630859375e+01 -7.761138439178466797e+00 -1.924082875251770020e+00 5.037919804453849792e-02 -5.621110796928405762e-01 2.185017056763172150e-02
1.750000000000000000e+02 3.702170562744140625e+01 -7.779891967773437500e+00 -2.054262399673461914e+00 2.998625487089157104e-02 -6.072828769683837891e-01 -2.862964197993278503e-02
1.760000000000000000e+02 3.625196838378906250e+01 -7.061516284942626953e+00 -2.915177822113037109e+00 3.221944672986865044e-03 -8.735867142677307129e-01 -1.076717823743820190e-01
1.770000000000000000e+02 4.024103164672851562e+01 -6.928245067596435547e+00 -2.861152648925781250e+00 5.600640550255775452e-02 -8.415438532829284668e-01 -7.031089067459106445e-02
1.780000000000000000e+02 3.850375366210937500e+01 -7.749142646789550781e+00 -1.715024590492248535e+00 4.799006134271621704e-02 -5.001103878021240234e-01 8.650842308998107910e-02
1.790000000000000000e+02 4.085152435302734375e+01 -7.901999473571777344e+00 2.694040536880493164e-01 4.315870702266693115e-01 2.102973312139511108e-01 1.083489418029785156e+00
1.800000000000000000e+02 4.090055847167968750e+01 -6.705590248107910156e+00 -3.162001609802246094e+00 9.872724302113056183e-03 -9.456386566162109375e-01 -1.015274077653884888e-01
1.810000000000000000e+02 3.907979965209960938e+01 -7.000553607940673828e+00 -2.885554075241088867e+00 -9.741553105413913727e-03 -8.685886859893798828e-01 -7.296072691679000854e-02
1.820000000000000000e+02 4.096632385253906250e+01 -7.660456657409667969e+00 -1.244960948824882507e-01 1.544950604438781738e-01 8.999690413475036621e-03 8.361661434173583984e-01
1.830000000000000000e+02 4.105268478393554688e+01 -7.086765766143798828e+00 -1.533577322959899902e+00 -3.204134700354188681e-04 -4.601693153381347656e-01 3.897748142480850220e-02
1.840000000000000000e+02 4.101874542236328125e+01 -7.248603343963623047e+00 -1.217476010322570801e+00 1.140458602458238602e-02 -3.618214428424835205e-01 2.305599004030227661e-01
1.850000000000000000e+02 3.921139144897460938e+01 -7.737375736236572266e+00 -1.376608014106750488e+00 8.933330327272415161e-02 -3.861824274063110352e-01 2.191051989793777466e-01
1.860000000000000000e+02 3.844641494750976562e+01 -7.010385513305664062e+00 -2.912982225418090820e+00 -1.679981825873255730e-03 -8.743986487388610840e-01 -6.841512769460678101e-02
1.870000000000000000e+02 4.072412109375000000e+01 -7.413013458251953125e+00 -9.801254272460937500e-01 1.319931168109178543e-02 -2.900778353214263916e-01 4.575490653514862061e-01
1.880000000000000000e+02 4.099640655517578125e+01 -7.446312904357910156e+00 -7.337986230850219727e-01 4.521041363477706909e-02 -2.065764665603637695e-01 5.393414497375488281e-01
1.890000000000000000e+02 4.101928710937500000e+01 -6.919522285461425781e+00 -1.973101139068603516e+00 1.425903886556625366e-01 -5.491532087326049805e-01 1.149549707770347595e-01
1.900000000000000000e+02 4.067073440551757812e+01 -6.986575126647949219e+00 -2.376145601272583008e+00 -4.055136069655418396e-02 -7.250090837478637695e-01 3.304899483919143677e-02
1.910000000000000000e+02 4.090914916992187500e+01 -7.076193809509277344e+00 -1.650698065757751465e+00 1.414073705673217773e-01 -4.527872204780578613e-01 1.516531258821487427e-01
1.920000000000000000e+02 3.968844604492187500e+01 -6.972991943359375000e+00 -2.871976375579833984e+00 -1.990624517202377319e-02 -8.675647377967834473e-01 -9.012533724308013916e-02
1.930000000000000000e+02 3.989428710937500000e+01 -7.707879066467285156e+00 -9.761076569557189941e-01 1.571211069822311401e-01 -2.456959784030914307e-01 4.051983356475830078e-01
1.940000000000000000e+02 4.040979385375976562e+01 -7.568060874938964844e+00 -7.417061328887939453e-01 1.820402592420578003e-01 -1.678997576236724854e-01 4.642671942710876465e-01
1.950000000000000000e+02 4.122183990478515625e+01 -6.669475555419921875e+00 -3.146416664123535156e+00 -2.388554066419601440e-02 -9.510906338691711426e-01 -8.543495833873748779e-02
1.960000000000000000e+02 4.223071670532226562e+01 -6.835371017456054688e+00 -1.429420828819274902e+00 4.482511803507804871e-02 -4.153787195682525635e-01 2.755618393421173096e-01
1.970000000000000000e+02 4.261855697631835938e+01 -6.644134044647216797e+00 -2.321864128112792969e+00 -1.731937006115913391e-02 -7.017550468444824219e-01 7.284626364707946777e-02
1.980000000000000000e+02 4.489279174804687500e+01 -7.638657093048095703e+00 4.549951553344726562e+00 2.266838645935058594e+01 8.165501594543457031e+00 -9.533087611198425293e-01
1.990000000000000000e+02 4.546383285522460938e+01 -6.732264041900634766e+00 1.275613403320312500e+01 1.786703491210937500e+01 9.186950683593750000e+00 -1.509447097778320312e+00
2.000000000000000000e+02 4.498834991455078125e+01 -5.436565399169921875e+00 6.073417663574218750e+00 2.229721832275390625e+01 8.511191368103027344e+00 1.665114879608154297e+00
2.010000000000000000e+02 4.124853897094726562e+01 -7.933888435363769531e+00 1.021346569061279297e+00 9.011943340301513672e-01 5.767622590065002441e-01 1.630775213241577148e+00
2.020000000000000000e+02 4.144099807739257812e+01 -7.707678794860839844e+00 7.838368415832519531e-01 7.281351089477539062e-01 4.535915851593017578e-01 1.351489067077636719e+00
2.030000000000000000e+02 4.145757293701171875e+01 -7.125542163848876953e+00 -1.075968027114868164e+00 1.008116677403450012e-01 -2.925468981266021729e-01 3.759169280529022217e-01
2.040000000000000000e+02 4.283811187744140625e+01 -7.883584976196289062e+00 4.067137241363525391e+00 4.507137298583984375e+00 2.572282314300537109e+00 5.243115425109863281e+00
2.050000000000000000e+02 4.383810806274414062e+01 -7.682737350463867188e+00 3.664746284484863281e+00 1.608309173583984375e+01 5.924351215362548828e+00 7.668901443481445312e+00
2.060000000000000000e+02 4.341079330444335938e+01 -7.364803314208984375e+00 5.952040195465087891e+00 7.350009918212890625e+00 3.990615129470825195e+00 7.322461128234863281e+00
2.070000000000000000e+02 4.302737808227539062e+01 -6.616698265075683594e+00 -1.772634148597717285e+00 -7.559806108474731445e-02 -5.544696450233459473e-01 8.381287008523941040e-02
2.080000000000000000e+02 4.190214920043945312e+01 -7.446893692016601562e+00 9.405764341354370117e-01 6.977753043174743652e-01 4.915055334568023682e-01 1.438689589500427246e+00
2.090000000000000000e+02 4.185902786254882812e+01 -7.905457973480224609e+00 1.991853833198547363e+00 1.274387478828430176e+00 9.798724055290222168e-01 2.308867454528808594e+00
2.100000000000000000e+02 4.144965744018554688e+01 -7.925160884857177734e+00 1.210502386093139648e+00 8.532695174217224121e-01 6.191315650939941406e-01 1.758810997009277344e+00
2.110000000000000000e+02 4.436781311035156250e+01 -5.131332874298095703e+00 2.573739767074584961e+00 2.112638092041015625e+01 7.110035896301269531e+00 -3.910475254058837891e+00
2.120000000000000000e+02 4.466450881958007812e+01 -5.505389213562011719e+00 4.923627853393554688e+00 2.501786613464355469e+01 8.982448577880859375e+00 -8.308103680610656738e-02
2.130000000000000000e+02 4.495635223388671875e+01 -5.762605190277099609e+00 9.255015373229980469e+00 2.346278190612792969e+01 9.815339088439941406e+00 2.887133598327636719e+00
2.140000000000000000e+02 4.519077301025390625e+01 -6.332128047943115234e+00 1.510275745391845703e+01 1.982897567749023438e+01 1.047951984405517578e+01 1.032270431518554688e+00
2.150000000000000000e+02 4.551259994506835938e+01 -6.153710365295410156e+00 1.227421092987060547e+01 1.780012130737304688e+01 9.022299766540527344e+00 1.472567439079284668e+00
2.160000000000000000e+02 4.524362945556640625e+01 -6.920039176940917969e+00 1.237204456329345703e+01 2.028840827941894531e+01 9.798135757446289062e+00 -2.726487636566162109e+00
2.170000000000000000e+02 4.509320068359375000e+01 -7.029082775115966797e+00 1.161855316162109375e+01 2.182241439819335938e+01 1.003229045867919922e+01 -3.366389274597167969e+00
2.180000000000000000e+02 4.465879821777343750e+01 -7.433100223541259766e+00 4.738306999206542969e+00 2.524709510803222656e+01 8.995620727539062500e+00 -3.664654493331909180e-01
2.190000000000000000e+02 4.118333435058593750e+01 -5.149930477142333984e+00 1.266974568367004395e+00 6.992112994194030762e-01 5.898557901382446289e-01 -1.365623235702514648e+00
2.200000000000000000e+02 4.138227844238281250e+01 -5.372504711151123047e+00 1.069070458412170410e+00 5.070654749870300293e-01 4.728407859802246094e-01 -1.200548529624938965e+00
2.210000000000000000e+02 4.158493804931640625e+01 -5.156227111816406250e+00 1.938827633857727051e+00 9.791896343231201172e-01 8.754051923751831055e-01 -1.887671828269958496e+00
2.220000000000000000e+02 4.359138488769531250e+01 -5.529580593109130859e+00 6.200872898101806641e+00 1.133232402801513672e+01 5.259959220886230469e+00 -8.884588241577148438e+00
2.230000000000000000e+02 4.377412033081054688e+01 -5.453616619110107422e+00 5.031192302703857422e+00 1.507703113555908203e+01 6.032466888427734375e+00 -8.858236312866210938e+00
2.240000000000000000e+02 4.397000503540039062e+01 -5.390709877014160156e+00 3.792250156402587891e+00 1.914142990112304688e+01 6.880104064941406250e+00 -7.734814167022705078e+00
2.250000000000000000e+02 4.121554946899414062e+01 -6.413519859313964844e+00 -3.119473695755004883e+00 -1.333869248628616333e-01 -9.758581519126892090e-01 -1.376155614852905273e-01
2.260000000000000000e+02 4.120970535278320312e+01 -5.983158111572265625e+00 -1.238823056221008301e+00 -2.589100226759910583e-02 -3.794142305850982666e-01 -2.893048524856567383e-01
2.270000000000000000e+02 4.118558120727539062e+01 -5.363414287567138672e+00 7.772372364997863770e-01 5.105573534965515137e-01 3.863383829593658447e-01 -1.018402099609375000e+00
2.280000000000000000e+02 4.220625686645507812e+01 -6.364551544189453125e+00 -2.444445610046386719e+00 -2.092334628105163574e-02 -7.396106719970703125e-01 -1.297970861196517944e-01
2.290000000000000000e+02 4.198316574096679688e+01 -5.152548313140869141e+00 2.759202480316162109e+00 1.392488956451416016e+00 1.245507478713989258e+00 -2.570189476013183594e+00
2.300000000000000000e+02 4.197222900390625000e+01 -6.165863990783691406e+00 -1.310771703720092773e+00 6.651835143566131592e-02 -3.732759952545166016e-01 -2.860798537731170654e-01
2.310000000000000000e+02 4.313008499145507812e+01 -5.962166309356689453e+00 4.895088195800781250e+00 1.403283119201660156e+00 1.889511346817016602e+00 -3.300803899765014648e+00
2.320000000000000000e+02 4.305718231201171875e+01 -6.170859336853027344e+00 2.070790290832519531e+00 4.712586998939514160e-01 7.626147270202636719e-01 -1.398015260696411133e+00
2.330000000000000000e+02 4.302315139770507812e+01 -6.387389659881591797e+00 -1.652097940444946289e+00 -1.139134168624877930e-01 -5.298033952713012695e-01 -7.699151337146759033e-02
2.340000000000000000e+02 4.387642669677734375e+01 -5.221225738525390625e+00 3.716630458831787109e+00 1.663064193725585938e+01 6.104181766510009766e+00 -7.452203273773193359e+00
2.350000000000000000e+02 4.351607131958007812e+01 -5.348551750183105469e+00 5.467250347137451172e+00 1.040462398529052734e+01 4.761562347412109375e+00 -8.133506774902343750e+00
2.360000000000000000e+02 4.352569580078125000e+01 -7.626083850860595703e+00 4.919465541839599609e+00 1.083665180206298828e+01 4.726835250854492188e+00 7.818283557891845703e+00
2.370000000000000000e+02 4.374238586425781250e+01 -7.537542343139648438e+00 4.351970672607421875e+00 1.478742694854736328e+01 5.741819381713867188e+00 8.706926345825195312e+00
2.380000000000000000e+02 4.426340866088867188e+01 -7.572234630584716797e+00 2.696077823638916016e+00 2.314994812011718750e+01 7.753807544708251953e+00 4.783499717712402344e+00
2.390000000000000000e+02 4.483953094482421875e+01 -7.324839115142822266e+00 6.865166187286376953e+00 2.451461219787597656e+01 9.413933753967285156e+00 -2.122775077819824219e+00
2.400000000000000000e+02 4.186880874633789062e+01 -7.659453868865966797e+00 1.559072613716125488e+00 9.667351841926574707e-01 7.577423453330993652e-01 1.877923607826232910e+00
2.410000000000000000e+02 4.182572937011718750e+01 -6.654703140258789062e+00 -3.033180236816406250e+00 5.740807950496673584e-02 -8.927316665649414062e-01 -8.542545884847640991e-02
2.420000000000000000e+02 4.142570495605468750e+01 -6.668072700500488281e+00 -3.103046417236328125e+00 2.680034190416336060e-02 -9.228737950325012207e-01 -7.998947799205780029e-02
2.430000000000000000e+02 4.123118972778320312e+01 -6.886107921600341797e+00 -2.242297887802124023e+00 -8.262211829423904419e-02 -6.974760293960571289e-01 9.262725710868835449e-02
2.440000000000000000e+02 4.144320678710937500e+01 -6.894073009490966797e+00 -2.016828298568725586e+00 2.238986827433109283e-02 -5.983315706253051758e-01 1.660126075148582458e-02
2.450000000000000000e+02 4.386251068115234375e+01 -7.881749153137207031e+00 2.800451278686523438e+00 1.624068641662597656e+01 5.712341308593750000e+00 6.810324192047119141e+00
2.460000000000000000e+02 4.406055450439453125e+01 -7.606102466583251953e+00 2.997630834579467773e+00 2.016111373901367188e+01 6.947623252868652344e+00 6.972655773162841797e+00
2.470000000000000000e+02 4.263489913940429688e+01 -7.908349037170410156e+00 3.653090476989746094e+00 3.463641881942749023e+00 2.135019779205322266e+00 4.527345657348632812e+00
2.480000000000000000e+02 4.284850311279296875e+01 -6.872387886047363281e+00 1.104708671569824219e+00 3.208059370517730713e-01 4.276543855667114258e-01 1.118672609329223633e+00
2.490000000000000000e+02 4.528011322021484375e+01 -7.206911087036132812e+00 9.420295715332031250e+00 2.028651428222656250e+01 8.912043571472167969e+00 -2.955530405044555664e+00
2.500000000000000000e+02 4.324701309204101562e+01 -7.215413093566894531e+00 5.803084850311279297e+00 4.029753684997558594e+00 2.949851512908935547e+00 5.627496242523193359e+00
2.510000000000000000e+02 4.481504440307617188e+01 -5.618819713592529297e+00 6.868839740753173828e+00 2.462774276733398438e+01 9.448974609375000000e+00 1.754857063293457031e+00
2.520000000000000000e+02 4.512063598632812500e+01 -6.139753341674804688e+00 1.407204723358154297e+01 2.091571998596191406e+01 1.049633026123046875e+01 2.492641210556030273e+00
2.530000000000000000e+02 4.259677505493164062e+01 -5.169607162475585938e+00 4.100120544433593750e+00 3.127450466156005859e+00 2.168271303176879883e+00 -4.199503421783447266e+00
2.540000000000000000e+02 4.324633026123046875e+01 -5.770431041717529297e+00 6.395308971405029297e+00 3.875722169876098633e+00 3.081309318542480469e+00 -5.700886249542236328e+00
2.550000000000000000e+02 4.532503890991210938e+01 -6.228781700134277344e+00 1.366793251037597656e+01 1.896184730529785156e+01 9.788933753967285156e+00 1.402053833007812500e+00
2.560000000000000000e+02 4.285022735595703125e+01 -6.108620643615722656e+00 1.592136025428771973e+00 1.505924314260482788e-01 5.228185653686523438e-01 -1.176348209381103516e+00
2.570000000000000000e+02 4.361716842651367188e+01 -5.096020221710205078e+00 4.140755176544189453e+00 1.237141799926757812e+01 4.953651905059814453e+00 -7.571162223815917969e+00
2.580000000000000000e+02 4.513016891479492188e+01 -5.580617427825927734e+00 7.889427661895751953e+00 2.164404296875000000e+01 8.860041618347167969e+00 2.519211530685424805e+00
2.590000000000000000e+02 4.522455215454101562e+01 -6.537740707397460938e+00 1.504415988922119141e+01 1.959437942504882812e+01 1.039156150817871094e+01 -6.293767094612121582e-01
2.600000000000000000e+02 4.417018508911132812e+01 -5.114979743957519531e+00 2.744073629379272461e+00 1.973483467102050781e+01 6.743672370910644531e+00 -5.446831226348876953e+00
2.610000000000000000e+02 4.417679214477539062e+01 -5.366637229919433594e+00 3.117533206939697266e+00 2.195920753479003906e+01 7.523022174835205078e+00 -5.794637680053710938e+00
2.620000000000000000e+02 4.437290954589843750e+01 -5.389513492584228516e+00 3.260288476943969727e+00 2.410959625244140625e+01 8.210965156555175781e+00 -3.406058788299560547e+00
2.630000000000000000e+02 4.459222030639648438e+01 -7.809852123260498047e+00 2.535691022872924805e+00 2.187684440612792969e+01 7.323760986328125000e+00 1.864144682884216309e+00
2.640000000000000000e+02 4.434688949584960938e+01 -7.734428405761718750e+00 2.331715106964111328e+00 2.183449745178222656e+01 7.249863624572753906e+00 4.071766376495361328e+00
2.650000000000000000e+02 4.502025985717773438e+01 -7.499733924865722656e+00 6.018612861633300781e+00 2.217964363098144531e+01 8.459476470947265625e+00 -1.978138685226440430e+00
2.660000000000000000e+02 4.476161956787109375e+01 -7.742187976837158203e+00 3.462089300155639648e+00 2.216894721984863281e+01 7.689311027526855469e+00 4.328722953796386719e-01
2.670000000000000000e+02 4.547533798217773438e+01 -5.999737262725830078e+00 1.129559898376464844e+01 1.840548324584960938e+01 8.910325050354003906e+00 2.101349592208862305e+00
2.680000000000000000e+02 4.538996887207031250e+01 -5.852841854095458984e+00 1.056930828094482422e+01 1.919872665405273438e+01 8.930410385131835938e+00 2.565840959548950195e+00
2.690000000000000000e+02 4.519388580322265625e+01 -5.908307552337646484e+00 1.118828582763671875e+01 2.099876594543457031e+01 9.656115531921386719e+00 2.861703157424926758e+00
2.700000000000000000e+02 4.544355392456054688e+01 -6.910114288330078125e+00 1.203168296813964844e+01 1.833961677551269531e+01 9.111390113830566406e+00 -2.203577280044555664e+00
2.710000000000000000e+02 4.526979064941406250e+01 -5.719391822814941406e+00 9.396348953247070312e+00 2.044021987915039062e+01 8.950970649719238281e+00 2.771215438842773438e+00
2.720000000000000000e+02 4.547607803344726562e+01 -6.532789230346679688e+00 1.332090568542480469e+01 1.771180343627929688e+01 9.309812545776367188e+00 -4.457824826240539551e-01
2.730000000000000000e+02 4.520610046386718750e+01 -6.735765457153320312e+00 1.409552383422851562e+01 2.006134414672851562e+01 1.024706077575683594e+01 -2.177346706390380859e+00
2.740000000000000000e+02 4.498078536987304688e+01 -7.180542945861816406e+00 9.396618843078613281e+00 2.321634292602539062e+01 9.783888816833496094e+00 -3.204115629196166992e+00
2.750000000000000000e+02 4.538382339477539062e+01 -7.063882827758789062e+00 1.068356513977050781e+01 1.941187858581542969e+01 9.028633117675781250e+00 -2.868727445602416992e+00
2.760000000000000000e+02 4.469791030883789062e+01 -5.213488101959228516e+00 3.533523082733154297e+00 2.255648040771484375e+01 7.827001094818115234e+00 -6.401226520538330078e-01
2.770000000000000000e+02 4.425166702270507812e+01 -7.874934196472167969e+00 2.031916379928588867e+00 2.021471786499023438e+01 6.673990249633789062e+00 4.902672290802001953e+00
2.780000000000000000e+02 4.406293487548828125e+01 -7.860731601715087891e+00 2.313060760498046875e+00 1.817795562744140625e+01 6.147305011749267578e+00 5.990316390991210938e+00
2.790000000000000000e+02 4.326379394531250000e+01 -7.859756469726562500e+00 4.245171546936035156e+00 7.863811016082763672e+00 3.632694721221923828e+00 6.697997093200683594e+00
2.800000000000000000e+02 4.227001571655273438e+01 -7.923892974853515625e+00 2.707732677459716797e+00 2.281658649444580078e+00 1.496817350387573242e+00 3.274268150329589844e+00
2.810000000000000000e+02 4.244519424438476562e+01 -7.934898853302001953e+00 3.315055370330810547e+00 3.045082569122314453e+00 1.908041357994079590e+00 4.050545692443847656e+00
2.820000000000000000e+02 4.359895324707031250e+01 -7.451917648315429688e+00 5.401958465576171875e+00 1.158764076232910156e+01 5.096879959106445312e+00 8.803257942199707031e+00
2.830000000000000000e+02 4.304989624023437500e+01 -7.864928722381591797e+00 4.181482791900634766e+00 6.121757030487060547e+00 3.090971946716308594e+00 5.984030723571777344e+00
2.840000000000000000e+02 4.368235015869140625e+01 -7.875278949737548828e+00 3.540115356445312500e+00 1.307116794586181641e+01 4.983385086059570312e+00 7.817259311676025391e+00
2.850000000000000000e+02 4.348479843139648438e+01 -7.857036590576171875e+00 4.018792152404785156e+00 1.042074966430664062e+01 4.331862449645996094e+00 7.281534671783447266e+00
2.860000000000000000e+02 4.141696166992187500e+01 -7.509703636169433594e+00 9.458316117525100708e-02 5.322507023811340332e-01 1.880501657724380493e-01 1.019663214683532715e+00
2.870000000000000000e+02 4.187710571289062500e+01 -7.082489490509033203e+00 -4.535846412181854248e-01 1.535852402448654175e-01 -8.999981731176376343e-02 5.715413093566894531e-01
2.880000000000000000e+02 4.222178268432617188e+01 -6.637684822082519531e+00 -2.761720180511474609e+00 -1.895489171147346497e-02 -8.342025279998779297e-01 -7.322111167013645172e-03
2.890000000000000000e+02 4.241853332519531250e+01 -6.639963150024414062e+00 -2.557658195495605469e+00 6.728386133909225464e-02 -7.471123337745666504e-01 3.199462592601776123e-02
2.900000000000000000e+02 4.241070175170898438e+01 -6.351243495941162109e+00 -2.277384757995605469e+00 5.152555555105209351e-02 -6.677577495574951172e-01 -1.528890877962112427e-01
2.910000000000000000e+02 4.282147598266601562e+01 -6.369013786315917969e+00 -1.845254898071289062e+00 9.604942752048373222e-04 -5.532883405685424805e-01 -1.602037996053695679e-01
2.920000000000000000e+02 4.181261444091796875e+01 -6.403633594512939453e+00 -2.797322511672973633e+00 2.431115135550498962e-02 -8.319034576416015625e-01 -9.236032515764236450e-02
2.930000000000000000e+02 4.261732101440429688e+01 -6.356275081634521484e+00 -2.074621200561523438e+00 -2.056841365993022919e-02 -6.285568475723266602e-01 -1.753001511096954346e-01
2.940000000000000000e+02 4.343236160278320312e+01 -5.122638225555419922e+00 4.694830417633056641e+00 9.769568443298339844e+00 4.339319705963134766e+00 -7.403438568115234375e+00
2.950000000000000000e+02 4.298103713989257812e+01 -5.102747440338134766e+00 4.741652011871337891e+00 5.442105770111083984e+00 3.055127382278442383e+00 -5.879073619842529297e+00
2.960000000000000000e+02 4.238630294799804688e+01 -5.166051864624023438e+00 3.650794029235839844e+00 2.317635059356689453e+00 1.790528655052185059e+00 -3.587970972061157227e+00
2.970000000000000000e+02 4.303311920166015625e+01 -5.270304203033447266e+00 5.306921482086181641e+00 5.145488262176513672e+00 3.135723114013671875e+00 -6.009846687316894531e+00
2.980000000000000000e+02 4.138388442993164062e+01 -5.151728630065917969e+00 1.547716021537780762e+00 7.037090063095092773e-01 6.754274964332580566e-01 -1.515972495079040527e+00
2.990000000000000000e+02 4.218053436279296875e+01 -5.147817134857177734e+00 3.073455095291137695e+00 1.705047607421875000e+00 1.433550834655761719e+00 -2.970376968383789062e+00
3.000000000000000000e+02 4.279829025268554688e+01 -5.138203620910644531e+00 4.502133369445800781e+00 4.237765312194824219e+00 2.621969461441040039e+00 -5.068683147430419922e+00
3.010000000000000000e+02 4.397511672973632812e+01 -5.083841800689697266e+00 3.020286798477172852e+00 1.743383979797363281e+01 6.136238098144531250e+00 -6.673709392547607422e+00
3.020000000000000000e+02 4.123297882080078125e+01 -7.308638095855712891e+00 -8.436233997344970703e-01 2.159259170293807983e-01 -1.883092373609542847e-01 4.367039203643798828e-01
3.030000000000000000e+02 4.123301696777343750e+01 -7.513738632202148438e+00 -3.771110251545906067e-02 3.348635137081146240e-01 8.914572745561599731e-02 7.201890349388122559e-01
3.040000000000000000e+02 4.178540420532226562e+01 -5.159264564514160156e+00 2.442061662673950195e+00 1.067338705062866211e+00 1.052820086479187012e+00 -2.164232730865478516e+00
3.050000000000000000e+02 4.161713027954101562e+01 -6.405090332031250000e+00 -2.915831804275512695e+00 -7.541822735220193863e-03 -8.770120739936828613e-01 -7.524247467517852783e-02
3.060000000000000000e+02 4.118655014038085938e+01 -5.572443485260009766e+00 3.037098050117492676e-01 2.225717157125473022e-01 1.578844487667083740e-01 -6.936387419700622559e-01
3.070000000000000000e+02 4.282373046875000000e+01 -6.635505199432373047e+00 -2.057533025741577148e+00 5.419478565454483032e-02 -6.010015010833740234e-01 9.275873005390167236e-02
3.080000000000000000e+02 4.313903427124023438e+01 -7.022426128387451172e+00 4.334548473358154297e+00 1.454099535942077637e+00 1.736594438552856445e+00 3.268391609191894531e+00
3.090000000000000000e+02 4.207454299926757812e+01 -7.901558399200439453e+00 2.246082544326782227e+00 1.815530180931091309e+00 1.218483805656433105e+00 2.768621683120727539e+00
3.100000000000000000e+02 4.298949813842773438e+01 -7.335971832275390625e+00 4.546529769897460938e+00 2.873543977737426758e+00 2.226022005081176758e+00 4.391955375671386719e+00
3.110000000000000000e+02 4.164760971069335938e+01 -6.889178752899169922e+00 -1.879245042800903320e+00 4.435393959283828735e-02 -5.504673123359680176e-01 1.001379489898681641e-01
3.120000000000000000e+02 4.202416992187500000e+01 -6.645445346832275391e+00 -2.937712430953979492e+00 1.787537708878517151e-02 -8.759511113166809082e-01 -1.101126708090305328e-02
3.130000000000000000e+02 4.141861724853515625e+01 -6.407006740570068359e+00 -2.989079713821411133e+00 3.643797338008880615e-02 -8.857925534248352051e-01 -4.822565615177154541e-02
3.140000000000000000e+02 4.180757522583007812e+01 -6.195619583129882812e+00 -1.758433341979980469e+00 3.281900286674499512e-02 -5.176842808723449707e-01 -2.274333834648132324e-01
3.150000000000000000e+02 4.340943145751953125e+01 -5.626641750335693359e+00 6.659497261047363281e+00 7.027820587158203125e+00 4.106195449829101562e+00 -7.509826660156250000e+00
3.160000000000000000e+02 4.316776275634765625e+01 -5.402050018310546875e+00 5.698943614959716797e+00 5.542010784149169922e+00 3.372286319732666016e+00 -6.465414524078369141e+00
3.170000000000000000e+02 4.136827087402343750e+01 -5.571504116058349609e+00 5.349469184875488281e-01 3.454180061817169189e-01 2.641094923019409180e-01 -8.907530307769775391e-01
3.180000000000000000e+02 4.121460342407226562e+01 -6.196783065795898438e+00 -2.047096014022827148e+00 -1.102215722203254700e-01 -6.471952199935913086e-01 -1.093973144888877869e-01
3.190000000000000000e+02 4.271512222290039062e+01 -7.413357257843017578e+00 3.488384723663330078e+00 2.055646419525146484e+00 1.663209319114685059e+00 3.360229015350341797e+00
3.200000000000000000e+02 4.306661224365234375e+01 -6.823943614959716797e+00 1.904020786285400391e+00 4.736391603946685791e-01 7.132979631423950195e-01 1.473754286766052246e+00
3.210000000000000000e+02 4.291361999511718750e+01 -5.841329574584960938e+00 4.161626338958740234e+00 1.391396164894104004e+00 1.665906667709350586e+00 -3.059144496917724609e+00
3.220000000000000000e+02 4.208105850219726562e+01 -7.054890632629394531e+00 -5.535847693681716919e-02 2.394976019859313965e-01 5.524173751473426819e-02 6.574211716651916504e-01
3.230000000000000000e+02 4.304688262939453125e+01 -7.589783668518066406e+00 4.777215480804443359e+00 4.692236900329589844e+00 2.840835571289062500e+00 5.584414958953857422e+00
3.240000000000000000e+02 4.228656005859375000e+01 -7.008435249328613281e+00 1.424056142568588257e-01 1.912796497344970703e-01 1.001055762171745300e-01 7.104808688163757324e-01
3.250000000000000000e+02 4.258742141723632812e+01 -7.711054801940917969e+00 3.471606969833374023e+00 2.667462110519409180e+00 1.841720700263977051e+00 3.875380516052246094e+00
3.260000000000000000e+02 4.167371368408203125e+01 -7.118955612182617188e+00 -6.891087889671325684e-01 2.450136691331863403e-01 -1.332285404205322266e-01 4.832468330860137939e-01
3.270000000000000000e+02 4.174379730224609375e+01 -7.336270332336425781e+00 2.582017481327056885e-01 3.364920616149902344e-01 1.784081459045410156e-01 9.365967512130737305e-01
3.280000000000000000e+02 4.263204956054687500e+01 -7.164520263671875000e+00 2.250291824340820312e+00 8.591424822807312012e-01 9.328302741050720215e-01 1.985982060432434082e+00
3.290000000000000000e+02 4.239719009399414062e+01 -6.031435489654541016e+00 6.536309123039245605e-01 1.808082461357116699e-01 2.503317296504974365e-01 -8.257437348365783691e-01
3.300000000000000000e+02 4.265803527832031250e+01 -5.482573509216308594e+00 4.127081871032714844e+00 2.109220504760742188e+00 1.870890736579895020e+00 -3.619988441467285156e+00
3.310000000000000000e+02 4.217275619506835938e+01 -5.382571220397949219e+00 2.976301431655883789e+00 1.345070958137512207e+00 1.296411752700805664e+00 -2.468230962753295898e+00
3.320000000000000000e+02 4.261331558227539062e+01 -6.898198127746582031e+00 2.714235484600067139e-01 2.629658877849578857e-01 1.603168398141860962e-01 7.980273962020874023e-01
3.330000000000000000e+02 4.233657836914062500e+01 -7.436061382293701172e+00 2.253170728683471680e+00 1.096811175346374512e+00 1.004994630813598633e+00 2.211339712142944336e+00
3.340000000000000000e+02 4.174316787719726562e+01 -5.702877044677734375e+00 8.185048103332519531e-01 3.386099040508270264e-01 3.471344113349914551e-01 -9.913763403892517090e-01
3.350000000000000000e+02 4.267729568481445312e+01 -5.781326293945312500e+00 3.171275138854980469e+00 1.055197715759277344e+00 1.267941832542419434e+00 -2.467103004455566406e+00
3.360000000000000000e+02 4.165991592407226562e+01 -5.948454380035400391e+00 -5.562617182731628418e-01 1.056579053401947021e-01 -1.351811438798904419e-01 -4.424599707126617432e-01
3.370000000000000000e+02 4.119666671752929688e+01 -5.776887416839599609e+00 -3.289863765239715576e-01 4.355999454855918884e-02 -8.562791347503662109e-02 -4.302444159984588623e-01
3.380000000000000000e+02 4.158134841918945312e+01 -5.397614955902099609e+00 1.369073629379272461e+00 5.240445733070373535e-01 5.679354667663574219e-01 -1.347316265106201172e+00
3.390000000000000000e+02 4.179518127441406250e+01 -5.432431697845458984e+00 1.644773840904235840e+00 7.416588068008422852e-01 7.159298062324523926e-01 -1.619446754455566406e+00
3.400000000000000000e+02 4.143321609497070312e+01 -5.949491024017333984e+00 -7.423486709594726562e-01 6.025563552975654602e-02 -2.046279162168502808e-01 -3.735553920269012451e-01
3.410000000000000000e+02 4.139755630493164062e+01 -5.747792720794677734e+00 -5.790109280496835709e-03 1.270776838064193726e-01 3.638627380132675171e-02 -6.179129481315612793e-01
3.420000000000000000e+02 4.235062026977539062e+01 -5.412326812744140625e+00 3.416823863983154297e+00 1.308318853378295898e+00 1.417542815208435059e+00 -2.762821197509765625e+00
3.430000000000000000e+02 4.142575836181640625e+01 -6.180957317352294922e+00 -1.986672520637512207e+00 1.362012885510921478e-02 -5.919157266616821289e-01 -1.933667659759521484e-01
3.440000000000000000e+02 4.162672424316406250e+01 -6.180280685424804688e+00 -1.843263506889343262e+00 4.597055539488792419e-02 -5.391879081726074219e-01 -1.926499903202056885e-01
3.450000000000000000e+02 4.200781250000000000e+01 -6.389997959136962891e+00 -2.621900558471679688e+00 1.929146237671375275e-02 -7.807827591896057129e-01 -1.318644583225250244e-01
3.460000000000000000e+02 4.216150665283203125e+01 -6.068371295928955078e+00 -1.548979729413986206e-01 1.453427970409393311e-01 -2.866555005311965942e-03 -6.152393817901611328e-01
3.470000000000000000e+02 4.123607635498046875e+01 -7.100478172302246094e+00 -1.315103173255920410e+00 3.015876933932304382e-02 -3.854832947254180908e-01 9.246271848678588867e-02
3.480000000000000000e+02 4.124156951904296875e+01 -7.721942424774169922e+00 2.648209631443023682e-01 6.808564066886901855e-01 2.837032079696655273e-01 1.209407091140747070e+00
3.490000000000000000e+02 4.165258407592773438e+01 -7.913614749908447266e+00 1.799368381500244141e+00 1.206105709075927734e+00 9.016422033309936523e-01 2.102640867233276367e+00
3.500000000000000000e+02 4.164746093750000000e+01 -7.674263477325439453e+00 9.967921376228332520e-01 7.004716992378234863e-01 5.091791749000549316e-01 1.492479801177978516e+00
3.510000000000000000e+02 4.162636566162109375e+01 -6.662673473358154297e+00 -3.066220283508300781e+00 -4.966734349727630615e-02 -9.347662329673767090e-01 -8.913739770650863647e-02
3.520000000000000000e+02 4.240535354614257812e+01 -6.864161491394042969e+00 -6.049928665161132812e-01 1.833939254283905029e-01 -1.264796704053878784e-01 4.914777576923370361e-01
3.530000000000000000e+02 4.287049865722656250e+01 -5.398026466369628906e+00 4.764179706573486328e+00 3.409846305847167969e+00 2.452207803726196289e+00 -4.715844631195068359e+00
3.540000000000000000e+02 4.209981536865234375e+01 -7.663928508758544922e+00 2.203517198562622070e+00 1.225681900978088379e+00 1.028759717941284180e+00 2.369644880294799805e+00
3.550000000000000000e+02 4.238966369628906250e+01 -7.787955760955810547e+00 2.841017723083496094e+00 2.218338727951049805e+00 1.517806887626647949e+00 3.310287475585937500e+00
3.560000000000000000e+02 4.279964447021484375e+01 -7.643743038177490234e+00 4.054399013519287109e+00 3.236042022705078125e+00 2.187132358551025391e+00 4.484749794006347656e+00
3.570000000000000000e+02 4.329865264892578125e+01 -7.591622829437255859e+00 5.080303668975830078e+00 7.079349040985107422e+00 3.647895812988281250e+00 6.860195636749267578e+00
3.580000000000000000e+02 4.442069625854492188e+01 -7.868073463439941406e+00 2.120906829833984375e+00 2.107626152038574219e+01 6.959150314331054688e+00 3.278565406799316406e+00
3.590000000000000000e+02 4.471551513671875000e+01 -7.596621513366699219e+00 4.087776660919189453e+00 2.354408454895019531e+01 8.289558410644531250e+00 -1.102695707231760025e-02
3.600000000000000000e+02 4.516201019287109375e+01 -7.355150222778320312e+00 7.899950981140136719e+00 2.141989517211914062e+01 8.795953750610351562e+00 -2.823537111282348633e+00
3.610000000000000000e+02 4.549573135375976562e+01 -6.330270767211914062e+00 1.318545436859130859e+01 1.778728866577148438e+01 9.291822433471679688e+00 6.592664122581481934e-01
3.620000000000000000e+02 4.505559921264648438e+01 -5.944563865661621094e+00 1.178478908538818359e+01 2.218416404724121094e+01 1.019068622589111328e+01 3.168575286865234375e+00
3.630000000000000000e+02 4.484085845947265625e+01 -5.317724227905273438e+00 4.501855850219726562e+00 2.235393333435058594e+01 8.056736946105957031e+00 4.124819338321685791e-01
3.640000000000000000e+02 4.454470062255859375e+01 -5.152969360351562500e+00 2.705478191375732422e+00 2.193404006958007812e+01 7.391855716705322266e+00 -2.474529981613159180e+00
3.650000000000000000e+02 4.379875183105468750e+01 -5.070667266845703125e+00 3.574274301528930664e+00 1.460264587402343750e+01 5.453075885772705078e+00 -7.268244266510009766e+00
3.660000000000000000e+02 4.327438354492187500e+01 -5.219025135040283203e+00 5.045495986938476562e+00 8.003114700317382812e+00 3.914583206176757812e+00 -7.061755180358886719e+00
3.670000000000000000e+02 4.314178848266601562e+01 -5.104411602020263672e+00 4.854048728942871094e+00 7.128068923950195312e+00 3.594635486602783203e+00 -6.631399154663085938e+00
3.680000000000000000e+02 4.263432312011718750e+01 -6.067117214202880859e+00 1.198329925537109375e+00 2.720112502574920654e-01 4.411023557186126709e-01 -1.016663789749145508e+00
3.690000000000000000e+02 4.333941268920898438e+01 -5.423233509063720703e+00 5.782458305358886719e+00 7.571693420410156250e+00 4.006245613098144531e+00 -7.327785015106201172e+00
3.700000000000000000e+02 4.290110015869140625e+01 -7.104587078094482422e+00 3.369498014450073242e+00 1.308880686759948730e+00 1.403513669967651367e+00 2.700582981109619141e+00
3.710000000000000000e+02 4.455521011352539062e+01 -5.353845596313476562e+00 3.759600400924682617e+00 2.378744506835937500e+01 8.264113426208496094e+00 -1.728243470191955566e+00
3.720000000000000000e+02 4.522789382934570312e+01 -6.075500965118408203e+00 1.322434139251708984e+01 2.038985824584960938e+01 1.008425998687744141e+01 2.499972343444824219e+00
3.730000000000000000e+02 4.540017700195312500e+01 -6.092679023742675781e+00 1.226355648040771484e+01 1.867135620117187500e+01 9.280473709106445312e+00 1.980831861495971680e+00
3.740000000000000000e+02 4.446041870117187500e+01 -7.505205631256103516e+00 3.283551454544067383e+00 2.501666831970214844e+01 8.490065574645996094e+00 2.249545574188232422e+00
3.750000000000000000e+02 4.304175567626953125e+01 -5.603589057922363281e+00 5.328740119934082031e+00 3.372552394866943359e+00 2.610387802124023438e+00 -5.000015258789062500e+00
3.760000000000000000e+02 4.246902847290039062e+01 -5.542059421539306641e+00 3.295239448547363281e+00 1.377605915069580078e+00 1.401853561401367188e+00 -2.686924219131469727e+00
3.770000000000000000e+02 4.184748840332031250e+01 -6.873515605926513672e+00 -1.656339764595031738e+00 1.028230488300323486e-01 -4.660550355911254883e-01 1.771951466798782349e-01
3.780000000000000000e+02 4.204508590698242188e+01 -6.855799198150634766e+00 -1.530061006546020508e+00 7.961919158697128296e-02 -4.351325631141662598e-01 1.791388243436813354e-01
3.790000000000000000e+02 4.185699462890625000e+01 -6.015848636627197266e+00 -6.304118037223815918e-01 5.728258937597274780e-02 -1.719387620687484741e-01 -4.325881600379943848e-01
3.800000000000000000e+02 4.212641143798828125e+01 -5.603234291076660156e+00 1.922298669815063477e+00 7.003563642501831055e-01 7.867965102195739746e-01 -1.669166564941406250e+00
3.810000000000000000e+02 4.199705123901367188e+01 -5.409257411956787109e+00 2.184902191162109375e+00 7.325777411460876465e-01 8.752440214157104492e-01 -1.922887802124023438e+00
3.820000000000000000e+02 4.211314773559570312e+01 -7.447937488555908203e+00 1.569447994232177734e+00 7.968538403511047363e-01 7.098905444145202637e-01 1.745635151863098145e+00
3.830000000000000000e+02 4.530620574951171875e+01 -5.979457855224609375e+00 1.169831085205078125e+01 1.953951644897460938e+01 9.371348381042480469e+00 2.496298074722290039e+00
3.840000000000000000e+02 4.369420242309570312e+01 -5.286790370941162109e+00 4.670253276824951172e+00 1.371584033966064453e+01 5.515828132629394531e+00 -8.228416442871093750e+00
3.850000000000000000e+02 4.452642059326171875e+01 -7.657722949981689453e+00 2.970511913299560547e+00 2.358704185485839844e+01 7.967266082763671875e+00 1.993074774742126465e+00
3.860000000000000000e+02 4.143214797973632812e+01 -7.330655097961425781e+00 -2.909020781517028809e-01 2.045532912015914917e-01 -2.590463869273662567e-02 5.220729112625122070e-01
3.870000000000000000e+02 4.158615875244140625e+01 -7.450679302215576172e+00 3.389100134372711182e-01 5.251072049140930176e-01 2.592051625251770020e-01 1.065607190132141113e+00
3.880000000000000000e+02 4.153715133666992188e+01 -5.620906352996826172e+00 5.866589546203613281e-01 3.192293941974639893e-01 2.717664837837219238e-01 -9.708445072174072266e-01
3.890000000000000000e+02 4.211503601074218750e+01 -7.248493671417236328e+00 6.771231889724731445e-01 4.739207923412322998e-01 3.453131914138793945e-01 1.200058937072753906e+00
3.900000000000000000e+02 4.250304794311523438e+01 -7.524998188018798828e+00 2.946974277496337891e+00 1.701302289962768555e+00 1.394482970237731934e+00 3.026876449584960938e+00
3.910000000000000000e+02 4.231895828247070312e+01 -7.628324031829833984e+00 2.582244873046875000e+00 1.756821990013122559e+00 1.301720023155212402e+00 2.785075426101684570e+00
3.920000000000000000e+02 4.235625839233398438e+01 -7.212947845458984375e+00 1.381096363067626953e+00 7.084286212921142578e-01 6.268575191497802734e-01 1.553738474845886230e+00
3.930000000000000000e+02 4.199739456176757812e+01 -5.825015068054199219e+00 7.207991480827331543e-01 2.693661451339721680e-01 2.970495820045471191e-01 -9.818468093872070312e-01
3.940000000000000000e+02 4.232012176513671875e+01 -5.625445842742919922e+00 2.174768209457397461e+00 6.884865760803222656e-01 8.589764833450317383e-01 -1.939648151397705078e+00
3.950000000000000000e+02 4.244305419921875000e+01 -5.760212421417236328e+00 2.221129179000854492e+00 8.080570697784423828e-01 9.087558984756469727e-01 -1.875260233879089355e+00
3.960000000000000000e+02 4.191454315185546875e+01 -7.270143508911132812e+00 3.915650248527526855e-01 3.962729275226593018e-01 2.363513857126235962e-01 9.557859301567077637e-01
3.970000000000000000e+02 4.079107666015625000e+01 -6.409347057342529297e+00 -3.071702957153320312e+00 7.090133428573608398e-02 -9.002405405044555664e-01 -1.580452546477317810e-02
3.980000000000000000e+02 3.975730514526367188e+01 -5.990347862243652344e+00 -2.050113201141357422e+00 2.188542857766151428e-02 -6.084682941436767578e-01 -5.625455826520919800e-02
3.990000000000000000e+02 4.047687911987304688e+01 -6.033663749694824219e+00 -1.718228697776794434e+00 4.517478123307228088e-02 -5.019161701202392578e-01 -1.591199040412902832e-01
4.000000000000000000e+02 3.901930999755859375e+01 -5.451373100280761719e+00 -9.961056113243103027e-01 5.850550159811973572e-02 -2.812800407409667969e-01 -1.573052406311035156e-01
4.010000000000000000e+02 4.094840240478515625e+01 -5.400206565856933594e+00 3.839631080627441406e-01 1.884378939867019653e-01 1.717202961444854736e-01 -7.629657387733459473e-01
4.020000000000000000e+02 4.099748992919921875e+01 -5.768013000488281250e+00 -5.594856739044189453e-01 1.521306335926055908e-01 -1.222065091133117676e-01 -3.832062482833862305e-01
4.030000000000000000e+02 3.840176010131835938e+01 -5.483185291290283203e+00 -1.335343718528747559e+00 3.153006732463836670e-02 -3.911441266536712646e-01 -6.618181616067886353e-02
4.040000000000000000e+02 3.915112304687500000e+01 -6.188189029693603516e+00 -2.546382665634155273e+00 -2.207767218351364136e-02 -7.705380916595458984e-01 -3.644064068794250488e-02
4.050000000000000000e+02 4.017128753662109375e+01 -6.352050304412841797e+00 -2.852769613265991211e+00 -4.170617088675498962e-02 -8.683427572250366211e-01 -1.961650326848030090e-02
4.060000000000000000e+02 3.845917129516601562e+01 -6.221940040588378906e+00 -2.517013072967529297e+00 2.065870538353919983e-02 -7.489063739776611328e-01 -4.221368208527565002e-02
4.070000000000000000e+02 4.088085174560546875e+01 -6.172561168670654297e+00 -2.172680377960205078e+00 1.172543615102767944e-01 -6.166278123855590820e-01 -1.262396425008773804e-01
4.080000000000000000e+02 4.015932464599609375e+01 -5.303756237030029297e+00 -2.146040648221969604e-01 1.662706583738327026e-01 -1.450002007186412811e-02 -5.537157654762268066e-01
4.090000000000000000e+02 4.094900131225585938e+01 -5.958413600921630859e+00 -1.204687237739562988e+00 1.044832840561866760e-01 -3.300611674785614014e-01 -2.436168044805526733e-01
4.100000000000000000e+02 4.084963226318359375e+01 -5.174392700195312500e+00 7.879592776298522949e-01 4.002524912357330322e-01 3.564635515213012695e-01 -1.012496113777160645e+00
4.110000000000000000e+02 4.054709243774414062e+01 -5.348180770874023438e+00 1.455270946025848389e-01 3.064791262149810791e-01 1.356018632650375366e-01 -6.724705696105957031e-01
4.120000000000000000e+02 3.960979843139648438e+01 -5.380264282226562500e+00 -6.841870546340942383e-01 6.527460366487503052e-02 -1.856737285852432251e-01 -3.470517098903656006e-01
4.130000000000000000e+02 4.099758911132812500e+01 -5.591141700744628906e+00 1.411616504192352295e-01 1.467588245868682861e-01 8.637614548206329346e-02 -5.870398283004760742e-01
4.140000000000000000e+02 4.021969223022460938e+01 -5.734383583068847656e+00 -1.096169590950012207e+00 3.096035495400428772e-02 -3.195627629756927490e-01 -2.030953764915466309e-01
4.150000000000000000e+02 4.072465515136718750e+01 -5.513387203216552734e+00 -9.196319617331027985e-03 2.597179412841796875e-01 7.515648007392883301e-02 -6.129788756370544434e-01
4.160000000000000000e+02 4.068621063232421875e+01 -5.832138538360595703e+00 -1.026957511901855469e+00 1.575661450624465942e-01 -2.608173787593841553e-01 -2.723560035228729248e-01
4.170000000000000000e+02 4.052795791625976562e+01 -5.619856357574462891e+00 -6.481711268424987793e-01 2.201587110757827759e-01 -1.284037232398986816e-01 -3.961232602596282959e-01
4.180000000000000000e+02 4.083610534667968750e+01 -5.679083824157714844e+00 -3.851098120212554932e-01 1.713267117738723755e-01 -6.413493305444717407e-02 -4.856961369514465332e-01
4.190000000000000000e+02 3.698196411132812500e+01 -6.264439582824707031e+00 -2.394310712814331055e+00 8.565136231482028961e-03 -7.157236933708190918e-01 -2.007803693413734436e-02
4.200000000000000000e+02 3.773159408569335938e+01 -6.242694854736328125e+00 -2.469279766082763672e+00 -5.100849084556102753e-03 -7.423141598701477051e-01 -2.446636371314525604e-02
4.210000000000000000e+02 3.771147155761718750e+01 -5.502967834472656250e+00 -1.465098261833190918e+00 3.652603551745414734e-02 -4.285716712474822998e-01 -3.065080009400844574e-02
4.220000000000000000e+02 3.546323394775390625e+01 -5.567176342010498047e+00 -1.592242956161499023e+00 1.852713711559772491e-02 -4.721147418022155762e-01 7.076460123062133789e-02
4.230000000000000000e+02 3.621261215209960938e+01 -5.546069145202636719e+00 -1.588922381401062012e+00 2.545945532619953156e-02 -4.690388739109039307e-01 4.377808421850204468e-02
4.240000000000000000e+02 3.548280334472656250e+01 -6.306919097900390625e+00 -2.207373142242431641e+00 6.827346514910459518e-03 -6.601637601852416992e-01 -3.149005817249417305e-03
4.250000000000000000e+02 3.696202468872070312e+01 -5.524707317352294922e+00 -1.555584788322448730e+00 2.028041332960128784e-02 -4.605913162231445312e-01 1.798296347260475159e-02
4.260000000000000000e+02 3.623236846923828125e+01 -6.285806655883789062e+00 -2.307425260543823242e+00 9.415314707439392805e-05 -6.921992897987365723e-01 -1.040610764175653458e-02
4.270000000000000000e+02 3.323463058471679688e+01 -6.359344959259033203e+00 -1.876889944076538086e+00 1.904933131299912930e-03 -5.624955296516418457e-01 2.076884731650352478e-02
4.280000000000000000e+02 3.321954727172851562e+01 -5.619493961334228516e+00 -1.460125923156738281e+00 1.834066212177276611e-02 -4.325355887413024902e-01 1.235637888312339783e-01
4.290000000000000000e+02 3.248681640625000000e+01 -6.379900932312011719e+00 -1.749522447586059570e+00 7.590072695165872574e-03 -5.225797295570373535e-01 2.921493723988533020e-02
4.300000000000000000e+02 3.398349380493164062e+01 -6.341384410858154297e+00 -1.993996739387512207e+00 4.311419557780027390e-03 -5.969055891036987305e-01 1.530028134584426880e-02
4.310000000000000000e+02 3.471478271484375000e+01 -5.586100101470947266e+00 -1.566963672637939453e+00 2.183185517787933350e-02 -4.635395705699920654e-01 8.704234659671783447e-02
4.320000000000000000e+02 3.473338699340820312e+01 -6.325866699218750000e+00 -2.102855205535888672e+00 3.805610816925764084e-03 -6.297149062156677246e-01 7.556194905191659927e-03
4.330000000000000000e+02 3.247348785400390625e+01 -5.640007495880126953e+00 -1.398812770843505859e+00 1.761474274098873138e-02 -4.143594205379486084e-01 1.357260942459106445e-01
4.340000000000000000e+02 3.396664810180664062e+01 -5.601575374603271484e+00 -1.518733501434326172e+00 1.476196479052305222e-02 -4.511914551258087158e-01 1.058073937892913818e-01
4.350000000000000000e+02 3.099083137512207031e+01 -6.399948596954345703e+00 -1.514837026596069336e+00 2.974331146106123924e-03 -4.535588026046752930e-01 5.002146214246749878e-02
4.360000000000000000e+02 3.024179267883300781e+01 -5.667771339416503906e+00 -1.144927382469177246e+00 1.237143296748399734e-02 -3.397667706012725830e-01 1.666851043701171875e-01
4.370000000000000000e+02 2.949573898315429688e+01 -6.414954185485839844e+00 -1.251946568489074707e+00 7.311461493372917175e-03 -3.733905553817749023e-01 6.266739964485168457e-02
4.380000000000000000e+02 3.172830200195312500e+01 -5.652883052825927734e+00 -1.320601701736450195e+00 1.838195137679576874e-02 -3.906659185886383057e-01 1.429306864738464355e-01
4.390000000000000000e+02 3.173856925964355469e+01 -6.392818927764892578e+00 -1.629071235656738281e+00 5.740855820477008820e-03 -4.869991242885589600e-01 4.179339483380317688e-02
4.400000000000000000e+02 2.949855422973632812e+01 -5.674893379211425781e+00 -1.060483574867248535e+00 1.324826199561357498e-02 -3.141705989837646484e-01 1.731196492910385132e-01
4.410000000000000000e+02 3.098492622375488281e+01 -5.659971237182617188e+00 -1.232296824455261230e+00 1.094078831374645233e-02 -3.664068281650543213e-01 1.540661305189132690e-01
4.420000000000000000e+02 3.024333572387695312e+01 -6.407790660858154297e+00 -1.389053821563720703e+00 1.853001653216779232e-03 -4.161602556705474854e-01 5.415568873286247253e-02
4.430000000000000000e+02 2.800358009338378906e+01 -6.392907142639160156e+00 -1.026360154151916504e+00 -1.208601752296090126e-03 -3.082706332206726074e-01 8.321381360292434692e-02
4.440000000000000000e+02 2.728431129455566406e+01 -5.636834621429443359e+00 -7.746569514274597168e-01 -1.123376423493027687e-03 -2.327340990304946899e-01 1.898723989725112915e-01
4.450000000000000000e+02 2.651304817199707031e+01 -6.358762741088867188e+00 -7.771075367927551270e-01 1.771082519553601742e-03 -2.326009422540664673e-01 8.712854236364364624e-02
4.460000000000000000e+02 2.875823974609375000e+01 -5.669638156890869141e+00 -9.672300815582275391e-01 1.135093905031681061e-02 -2.867637276649475098e-01 1.747165918350219727e-01
4.470000000000000000e+02 2.874904632568359375e+01 -6.409622669219970703e+00 -1.131835103034973145e+00 4.381311591714620590e-03 -3.382361531257629395e-01 7.597482949495315552e-02
4.480000000000000000e+02 2.654741096496582031e+01 -5.619358539581298828e+00 -6.890943050384521484e-01 -1.991532742977142334e-03 -2.073257565498352051e-01 1.897573173046112061e-01
4.490000000000000000e+02 2.802116203308105469e+01 -5.653115749359130859e+00 -8.673649430274963379e-01 1.259222161024808884e-03 -2.598317265510559082e-01 1.813321560621261597e-01
4.500000000000000000e+02 2.725833702087402344e+01 -6.376431941986083984e+00 -9.071221351623535156e-01 -2.722267294302582741e-03 -2.729533314704895020e-01 8.346793055534362793e-02
4.510000000000000000e+02 2.428754043579101562e+01 -6.197861671447753906e+00 -4.758057296276092529e-01 -1.239412091672420502e-02 -1.464599519968032837e-01 9.140788763761520386e-02
4.520000000000000000e+02 2.435861396789550781e+01 -5.461198806762695312e+00 -4.215537309646606445e-01 -2.503309026360511780e-02 -1.339760422706604004e-01 1.818326264619827271e-01
4.530000000000000000e+02 2.354777717590332031e+01 -6.138960838317871094e+00 -3.697436451911926270e-01 -9.506841190159320831e-03 -1.137751489877700806e-01 8.441262692213058472e-02
4.540000000000000000e+02 2.502826499938964844e+01 -6.258197307586669922e+00 -5.772851109504699707e-01 -9.958017617464065552e-03 -1.761729270219802856e-01 9.815379232168197632e-02
4.550000000000000000e+02 2.581491851806640625e+01 -5.581003189086914062e+00 -5.987939834594726562e-01 -6.332062650471925735e-03 -1.815378218889236450e-01 1.841674298048019409e-01
4.560000000000000000e+02 2.576985549926757812e+01 -6.319781780242919922e+00 -6.682638525962829590e-01 -3.305745776742696762e-03 -2.014708817005157471e-01 9.562099725008010864e-02
4.570000000000000000e+02 2.363185691833496094e+01 -5.403356075286865234e+00 -3.468059301376342773e-01 -2.838852815330028534e-02 -1.125583350658416748e-01 1.715359836816787720e-01
4.580000000000000000e+02 2.508633232116699219e+01 -5.520476818084716797e+00 -5.045410394668579102e-01 -1.920814812183380127e-02 -1.571247428655624390e-01 1.829825043678283691e-01
4.590000000000000000e+02 2.146717453002929688e+01 -5.077126979827880859e+00 -1.411085575819015503e-01 -4.735906049609184265e-02 -5.654028803110122681e-02 1.247357130050659180e-01
4.600000000000000000e+02 2.134441947937011719e+01 -5.806876659393310547e+00 -1.392369568347930908e-01 -1.718566380441188812e-02 -4.692678898572921753e-02 5.882954224944114685e-02
4.610000000000000000e+02 2.061148262023925781e+01 -5.684748649597167969e+00 -7.313017547130584717e-02 -1.488068792968988419e-02 -2.640325948596000671e-02 4.417657479643821716e-02
4.620000000000000000e+02 2.207760429382324219e+01 -5.928263664245605469e+00 -2.110309749841690063e-01 -1.908765360713005066e-02 -6.903558969497680664e-02 7.290481030941009521e-02
4.630000000000000000e+02 2.290797805786132812e+01 -5.314875125885009766e+00 -2.726996541023254395e-01 -3.293447196483612061e-02 -9.169023483991622925e-02 1.556848734617233276e-01
4.640000000000000000e+02 2.281096076965332031e+01 -6.048885822296142578e+00 -2.820184230804443359e-01 -1.398252975195646286e-02 -8.880028128623962402e-02 8.097183704376220703e-02
4.650000000000000000e+02 2.074710655212402344e+01 -4.957129478454589844e+00 -9.674515575170516968e-02 -4.535042494535446167e-02 -4.262867569923400879e-02 1.004430130124092102e-01
4.660000000000000000e+02 2.218749046325683594e+01 -5.196383476257324219e+00 -2.004300057888031006e-01 -4.328973591327667236e-02 -7.311592251062393188e-02 1.424443423748016357e-01
4.670000000000000000e+02 1.905580329895019531e+01 -4.613489627838134766e+00 -1.248957403004169464e-02 -4.419018328189849854e-02 -1.700392737984657288e-02 2.427363395690917969e-02
4.680000000000000000e+02 1.978026580810546875e+01 -5.523462295532226562e+00 -2.556170523166656494e-02 -1.644260808825492859e-02 -1.260129362344741821e-02 2.070466428995132446e-02
4.690000000000000000e+02 1.992511749267578125e+01 -4.797539234161376953e+00 -4.767657816410064697e-02 -5.215897038578987122e-02 -2.995066531002521515e-02 7.005798071622848511e-02
4.700000000000000000e+02 1.847771644592285156e+01 -4.667171001434326172e+00 -2.650776877999305725e-04 2.489507198333740234e-03 6.673288298770785332e-04 -5.155408289283514023e-03
4.710000000000000000e+02 1.890536689758300781e+01 -5.338151454925537109e+00 -8.192501845769584179e-04 -3.028225386515259743e-03 -1.154242665506899357e-03 6.189655512571334839e-03
4.720000000000000000e+02 1.882146453857421875e+01 -6.111851215362548828e+00 -2.172418870031833649e-02 6.302824476733803749e-04 -6.328171584755182266e-03 -1.738158427178859711e-02
4.730000000000000000e+02 1.800308799743652344e+01 -6.754832744598388672e+00 -3.150012344121932983e-03 -1.109855771064758301e-01 -3.424067795276641846e-02 -4.479666426777839661e-02
4.740000000000000000e+02 1.831862449645996094e+01 -6.817986488342285156e+00 -8.410190045833587646e-02 -4.054963961243629456e-02 -3.739546239376068115e-02 -7.173536717891693115e-02
4.750000000000000000e+02 1.959215354919433594e+01 -7.028707504272460938e+00 -2.816580832004547119e-01 1.083789952099323273e-02 -8.124605566263198853e-02 -1.304499357938766479e-01
4.760000000000000000e+02 1.890554809570312500e+01 -6.889476776123046875e+00 -1.679234057664871216e-01 -3.242630138993263245e-02 -6.010491400957107544e-02 -1.000536158680915833e-01
4.770000000000000000e+02 1.965883255004882812e+01 -6.285129547119140625e+00 -1.287334412336349487e-01 -1.134059159085154533e-03 -3.896025195717811584e-02 -3.234705701470375061e-02
4.780000000000000000e+02 1.828899765014648438e+01 -6.266255378723144531e+00 4.882576758973300457e-04 7.110574748367071152e-03 2.279649721458554268e-03 8.818937931209802628e-04
4.790000000000000000e+02 1.796524238586425781e+01 -6.500696659088134766e+00 1.610668376088142395e-02 -2.644647471606731415e-02 -3.101937239989638329e-03 1.142173632979393005e-02
4.800000000000000000e+02 1.875296401977539062e+01 -7.491626262664794922e+00 -2.331662774085998535e-01 -4.061558097600936890e-02 -8.213455975055694580e-02 -1.776136010885238647e-01
4.810000000000000000e+02 1.719377136230468750e+01 -9.362035751342773438e+00 -2.585484385490417480e-01 -3.471129238605499268e-01 -1.816983968019485474e-01 -3.280092477798461914e-01
4.820000000000000000e+02 2.229749870300292969e+01 -9.081559181213378906e+00 -7.672519683837890625e-01 5.799702554941177368e-02 -2.127764970064163208e-01 -3.854451477527618408e-01
4.830000000000000000e+02 2.790403747558593750e+01 -8.643157005310058594e+00 -1.475828528404235840e+00 -6.648283917456865311e-03 -4.447430670261383057e-01 -2.322432845830917358e-01
4.840000000000000000e+02 2.403035736083984375e+01 -8.448980331420898438e+00 -1.023260354995727539e+00 3.423620760440826416e-02 -2.967072427272796631e-01 -2.755389511585235596e-01
4.850000000000000000e+02 1.502886772155761719e+01 -1.271990585327148438e+01 -5.789415836334228516e-01 -9.168214797973632812e-01 -4.487289190292358398e-01 -7.073780894279479980e-01
4.860000000000000000e+02 1.241410350799560547e+01 -1.600513458251953125e+01 -8.533511161804199219e-01 -9.098261594772338867e-01 -5.289531946182250977e-01 -8.687764406204223633e-01
4.870000000000000000e+02 1.431471729278564453e+01 -1.569530773162841797e+01 -7.092253565788269043e-01 -7.218904495239257812e-01 -4.293347597122192383e-01 -6.783316731452941895e-01
4.880000000000000000e+02 1.417826843261718750e+01 -2.253820037841796875e+01 -3.046686202287673950e-02 -4.169908761978149414e-01 -1.342373192310333252e-01 -3.398915231227874756e-01
4.890000000000000000e+02 1.768938255310058594e+01 -3.286451339721679688e+01 3.560459911823272705e-01 2.854850590229034424e-01 1.924593150615692139e-01 -1.012786626815795898e-01
4.900000000000000000e+02 1.779140281677246094e+01 -4.071192550659179688e+01 3.393581211566925049e-01 4.122100770473480225e-01 2.254704535007476807e-01 -1.882203295826911926e-02
4.910000000000000000e+02 2.267016029357910156e+01 -4.092990112304687500e+01 3.516901433467864990e-01 1.088809967041015625e+00 4.321500360965728760e-01 1.431618630886077881e-02
4.920000000000000000e+02 1.896337699890136719e+01 -3.716152954101562500e+01 3.626573085784912109e-01 5.079242587089538574e-01 2.611744701862335205e-01 -2.617588639259338379e-02
4.930000000000000000e+02 2.128109741210937500e+01 -3.064439582824707031e+01 3.647617995738983154e-01 6.473662257194519043e-01 3.036383986473083496e-01 2.065638825297355652e-02
4.940000000000000000e+02 2.099275207519531250e+01 -2.174765777587890625e+01 4.318076744675636292e-02 2.392716705799102783e-01 8.473572880029678345e-02 -1.616356670856475830e-01
4.950000000000000000e+02 2.332113456726074219e+01 -1.309658527374267578e+01 -5.332489013671875000e-01 1.394192278385162354e-01 -1.181489005684852600e-01 -4.921448230743408203e-01
4.960000000000000000e+02 2.386201286315917969e+01 -1.352630233764648438e+01 -4.724284708499908447e-01 1.592633426189422607e-01 -9.394954144954681396e-02 -4.653111398220062256e-01
4.970000000000000000e+02 1.332912540435791016e+01 -1.493020629882812500e+01 -8.019272685050964355e-01 -9.303407669067382812e-01 -5.196804404258728027e-01 -8.418614864349365234e-01
4.980000000000000000e+02 1.145787620544433594e+01 -1.713472175598144531e+01 -1.043161153793334961e+00 -8.705268502235412598e-01 -5.741063952445983887e-01 -8.494108319282531738e-01
4.990000000000000000e+02 1.027232074737548828e+01 -1.804330825805664062e+01 -1.305428981781005859e+00 -6.929464340209960938e-01 -5.995126366615295410e-01 -7.087537646293640137e-01
5.000000000000000000e+02 8.984148979187011719e+00 -1.837681579589843750e+01 -9.540035724639892578e-01 -2.466677129268646240e-01 -3.602013885974884033e-01 -3.728975951671600342e-01
5.010000000000000000e+02 7.212936401367187500e+00 -1.744123458862304688e+01 -2.032900005578994751e-01 5.919023975729942322e-02 -4.322993010282516479e-02 -3.318820893764495850e-02
5.020000000000000000e+02 6.347136020660400391e+00 -1.658472061157226562e+01 -1.708581671118736267e-02 1.361417677253484726e-02 -1.041492214426398277e-03 -1.020398177206516266e-02
5.030000000000000000e+02 7.019648551940917969e+00 -1.519716453552246094e+01 1.356956828385591507e-02 5.106886848807334900e-02 1.939153112471103668e-02 -1.718820258975028992e-02
5.040000000000000000e+02 8.873438835144042969e+00 -1.144309520721435547e+01 -1.866925973445177078e-03 -1.137641491368412971e-03 -9.013702510856091976e-04 1.443011220544576645e-03
5.050000000000000000e+02 9.675793647766113281e+00 -1.030554485321044922e+01 1.074916333891451359e-03 8.001957903616130352e-04 5.625336198136210442e-04 -1.304919715039432049e-03
5.060000000000000000e+02 1.216436481475830078e+01 -7.054564952850341797e+00 -4.889777046628296375e-04 -3.894917317666113377e-04 -2.635408309288322926e-04 3.095976717304438353e-04
5.070000000000000000e+02 1.172022724151611328e+01 -2.767764806747436523e+00 -1.077168708434328437e-04 1.414403668604791164e-04 1.011704716802341864e-05 2.487777674105018377e-04
5.080000000000000000e+02 1.227307891845703125e+01 -4.642601013183593750e+00 1.544800470583140850e-04 9.189879347104579210e-05 7.391365215880796313e-05 -3.411495417822152376e-04
5.090000000000000000e+02 1.104237365722656250e+01 -1.922303199768066406e+00 -4.258470653439871967e-05 8.404881373280659318e-05 1.243923088622977957e-05 2.268254174850881100e-04
5.100000000000000000e+02 4.223515510559082031e+00 -1.918004631996154785e+00 -4.457262548385187984e-05 5.419638182502239943e-05 2.887127266149036586e-06 -2.007463335758075118e-04
5.110000000000000000e+02 1.720720171928405762e+00 -1.433443927764892578e+01 4.259198438376188278e-03 4.463525954633951187e-03 2.616817364469170570e-03 1.191884651780128479e-02
5.120000000000000000e+02 4.103373050689697266e+00 -1.852929306030273438e+01 -1.441856771707534790e-01 -4.801485687494277954e-02 -5.766016244888305664e-02 -5.364251881837844849e-02
5.130000000000000000e+02 6.796572208404541016e-01 -2.473979568481445312e+01 -5.930637009441852570e-03 -3.281245529651641846e-01 -1.002165600657463074e-01 -6.516209989786148071e-02
5.140000000000000000e+02 7.550579309463500977e-01 -3.180398559570312500e+01 5.424744449555873871e-03 -9.413923025131225586e-01 -2.807902693748474121e-01 -5.038692802190780640e-02
5.150000000000000000e+02 4.359393119812011719e+00 -3.809388732910156250e+01 6.802436709403991699e-02 -8.940733075141906738e-01 -2.478146851062774658e-01 -1.285842508077621460e-01
5.160000000000000000e+02 9.182211160659790039e-01 -3.736455154418945312e+01 8.438018150627613068e-03 -1.152772545814514160e+00 -3.433003425598144531e-01 -4.453518893569707870e-03
5.170000000000000000e+02 8.965212821960449219e+00 -3.839804840087890625e+01 1.747248917818069458e-01 -4.464925825595855713e-01 -8.153030276298522949e-02 -1.179670020937919617e-01
5.180000000000000000e+02 6.961884498596191406e+00 -3.269221878051757812e+01 1.200387552380561829e-01 -5.409660339355468750e-01 -1.262781769037246704e-01 -2.636943161487579346e-01
5.190000000000000000e+02 1.253575038909912109e+01 -2.102088165283203125e+01 -1.846086829900741577e-01 -5.824066400527954102e-01 -2.301045954227447510e-01 -4.042243957519531250e-01
5.200000000000000000e+02 1.138857364654541016e+01 -2.250046920776367188e+01 -5.102096870541572571e-02 -5.467956662178039551e-01 -1.793449819087982178e-01 -4.268382191658020020e-01
5.210000000000000000e+02 6.740929484367370605e-01 -2.331489181518554688e+01 -1.646899734623730183e-03 -1.994534432888031006e-01 -6.033010408282279968e-02 -5.653474107384681702e-02
5.220000000000000000e+02 1.254314327239990234e+01 -2.005516767501831055e+00 5.326373502612113953e-05 4.666380846174433827e-05 2.997826413775328547e-05 9.214144665747880936e-05
5.230000000000000000e+02 2.747607040405273438e+01 -4.097161865234375000e+01 2.584223747253417969e-01 1.906623959541320801e+00 6.495139002799987793e-01 4.311586543917655945e-02
5.240000000000000000e+02 3.086145973205566406e+01 -3.438819885253906250e+01 1.809006035327911377e-01 2.527852773666381836e+00 8.126260042190551758e-01 3.365312814712524414e-01
5.250000000000000000e+02 2.700609397888183594e+01 -2.242213630676269531e+01 3.105527162551879883e-01 9.610683321952819824e-01 3.814863264560699463e-01 2.252514362335205078e-01
5.260000000000000000e+02 3.117100906372070312e+01 -1.404567146301269531e+01 7.117114961147308350e-02 4.789617061614990234e-01 1.650398671627044678e-01 1.643684506416320801e-01
5.270000000000000000e+02 3.096309280395507812e+01 -8.645221710205078125e+00 -1.686411023139953613e+00 -6.342292297631502151e-03 -5.078259706497192383e-01 -1.904202997684478760e-01
5.280000000000000000e+02 2.934915542602539062e+01 -9.380722999572753906e+00 -1.314105868339538574e+00 5.930886138230562210e-03 -3.924525082111358643e-01 -2.523428499698638916e-01
5.290000000000000000e+02 4.235308456420898438e+01 -4.044082641601562500e+01 -4.648704826831817627e-01 5.124829769134521484e+00 1.397987842559814453e+00 1.215702444314956665e-01
5.300000000000000000e+02 3.724652099609375000e+01 -4.047908020019531250e+01 -1.990197151899337769e-01 4.067268848419189453e+00 1.160474777221679688e+00 1.226782202720642090e-01
5.310000000000000000e+02 3.668715286254882812e+01 -3.189268302917480469e+01 -6.654162704944610596e-02 3.759109735488891602e+00 1.107770442962646484e+00 6.187958717346191406e-01
5.320000000000000000e+02 3.805671310424804688e+01 -2.062256240844726562e+01 2.646221220493316650e-01 3.742576837539672852e+00 1.202159643173217773e+00 1.541910290718078613e+00
5.330000000000000000e+02 3.478439331054687500e+01 -1.520182895660400391e+01 5.754452347755432129e-01 1.394946098327636719e+00 5.911173820495605469e-01 1.011635541915893555e+00
5.340000000000000000e+02 3.922782516479492188e+01 -8.372901916503906250e+00 -4.599001109600067139e-01 2.630068063735961914e-01 -5.906798690557479858e-02 5.813195705413818359e-01
5.350000000000000000e+02 3.765890502929687500e+01 -9.048460006713867188e+00 -5.469954013824462891e-01 2.526338696479797363e-01 -8.830846846103668213e-02 4.464546144008636475e-01
5.360000000000000000e+02 3.624391937255859375e+01 -8.496849060058593750e+00 -1.472069025039672852e+00 6.384687870740890503e-02 -4.224666655063629150e-01 3.589147701859474182e-02
5.370000000000000000e+02 4.284341049194335938e+01 -3.663771057128906250e+01 -4.817740917205810547e-01 5.270537853240966797e+00 1.436629176139831543e+00 3.128384947776794434e-01
5.380000000000000000e+02 4.394696426391601562e+01 -3.341562271118164062e+01 -5.443759560585021973e-01 5.630208015441894531e+00 1.525749564170837402e+00 4.730456173419952393e-01
5.390000000000000000e+02 4.311576843261718750e+01 -2.191184616088867188e+01 -4.085016250610351562e-01 6.165380477905273438e+00 1.727063655853271484e+00 1.368031620979309082e+00
5.400000000000000000e+02 3.911997604370117188e+01 -1.549421977996826172e+01 6.373624205589294434e-01 3.622170686721801758e+00 1.277859926223754883e+00 2.192004680633544922e+00
5.410000000000000000e+02 4.138874435424804688e+01 -8.201275825500488281e+00 1.687760949134826660e+00 1.226318240165710449e+00 8.742237687110900879e-01 2.163304090499877930e+00
5.420000000000000000e+02 5.222467422485351562e+01 -4.069804000854492188e+01 -7.845453023910522461e-01 6.914167404174804688e+00 1.838886618614196777e+00 1.107144448906183243e-02
5.430000000000000000e+02 4.735226440429687500e+01 -3.136900329589843750e+01 -7.023871541023254395e-01 6.459742546081542969e+00 1.727206707000732422e+00 3.802197277545928955e-01
5.440000000000000000e+02 4.955795669555664062e+01 -2.188809776306152344e+01 -7.186219096183776855e-01 8.041769027709960938e+00 2.196944236755371094e+00 3.095402717590332031e-01
5.450000000000000000e+02 5.041535568237304688e+01 -1.440823173522949219e+01 2.793036997318267822e-01 9.805131912231445312e+00 3.025330781936645508e+00 -6.193135976791381836e-01
5.460000000000000000e+02 4.708640289306640625e+01 -7.485941410064697266e+00 6.916503906250000000e+00 1.318466281890869141e+01 6.030350208282470703e+00 -1.586251616477966309e+00
5.470000000000000000e+02 4.723888015747070312e+01 4.942181110382080078e-01 7.991721481084823608e-02 1.057953643798828125e+01 3.197835922241210938e+00 -3.342312574386596680e-01
5.480000000000000000e+02 4.672940444946289062e+01 1.215166950225830078e+01 -6.399008631706237793e-01 6.871933937072753906e+00 1.869609951972961426e+00 -6.009633541107177734e-01
5.490000000000000000e+02 4.964645385742187500e+01 1.800831222534179688e+01 -6.838281750679016113e-01 6.812348842620849609e+00 1.838556170463562012e+00 -1.576808393001556396e-01
5.500000000000000000e+02 5.233821868896484375e+01 2.448290634155273438e+01 -6.100726723670959473e-01 6.694778919219970703e+00 1.825411796569824219e+00 2.289556153118610382e-02
5.510000000000000000e+02 5.357987594604492188e+01 3.374950027465820312e+01 -4.789430201053619385e-01 6.504267692565917969e+00 1.807597398757934570e+00 4.362727701663970947e-02
5.520000000000000000e+02 4.789655685424804688e+01 4.069773483276367188e+01 -4.156425595283508301e-01 5.584481716156005859e+00 1.550651788711547852e+00 -2.189759723842144012e-02
5.530000000000000000e+02 5.271311187744140625e+01 4.077591323852539062e+01 -4.454321861267089844e-01 6.300205707550048828e+00 1.756432056427001953e+00 4.239424597471952438e-03
5.540000000000000000e+02 3.878396606445312500e+01 4.003667449951171875e+01 -2.298560738563537598e-01 3.993128776550292969e+00 1.128981828689575195e+00 -5.564407631754875183e-02
5.550000000000000000e+02 4.318733215332031250e+01 4.047264480590820312e+01 -3.400724232196807861e-01 4.830146312713623047e+00 1.347022175788879395e+00 -3.272711113095283508e-02
5.560000000000000000e+02 4.602978897094726562e+01 3.260834121704101562e+01 -4.448739290237426758e-01 5.397100448608398438e+00 1.485667943954467773e+00 -1.565014123916625977e-01
5.570000000000000000e+02 4.338394165039062500e+01 2.436010932922363281e+01 -4.916332364082336426e-01 5.178132534027099609e+00 1.405949711799621582e+00 -4.512427747249603271e-01
5.580000000000000000e+02 3.991236495971679688e+01 1.448003578186035156e+01 -2.821427583694458008e-01 4.693155288696289062e+00 1.323303818702697754e+00 -9.969173669815063477e-01
5.590000000000000000e+02 4.239582824707031250e+01 -1.085612058639526367e+00 1.112101316452026367e+00 6.820396423339843750e+00 2.379749298095703125e+00 -3.526564359664916992e+00
5.600000000000000000e+02 4.138035202026367188e+01 -4.855364322662353516e+00 2.111171483993530273e+00 1.165796756744384766e+00 9.830904603004455566e-01 -2.054728746414184570e+00
5.610000000000000000e+02 4.571263122558593750e+01 -5.904791355133056641e+00 1.020925235748291016e+01 1.708781242370605469e+01 8.189119338989257812e+00 2.050131082534790039e+00
5.620000000000000000e+02 4.576479339599609375e+01 -6.558019638061523438e+00 1.177470874786376953e+01 1.628940200805664062e+01 8.419233322143554688e+00 -4.508714675903320312e-01
5.630000000000000000e+02 4.541688156127929688e+01 -7.577800750732421875e+00 6.516761302947998047e+00 1.915267944335937500e+01 7.700832366943359375e+00 -2.383194208145141602e+00
5.640000000000000000e+02 4.508056259155273438e+01 -7.882509231567382812e+00 3.877445220947265625e+00 2.046743202209472656e+01 7.303462982177734375e+00 -9.135974049568176270e-01
5.650000000000000000e+02 6.217215347290039062e+01 -4.030377197265625000e+01 -5.847005248069763184e-01 7.675583362579345703e+00 2.127264738082885742e+00 -8.822265267372131348e-02
5.660000000000000000e+02 5.711083984375000000e+01 -4.033840942382812500e+01 -7.285308241844177246e-01 7.413870334625244141e+00 2.005601882934570312e+00 -4.533947631716728210e-02
5.670000000000000000e+02 5.189377593994140625e+01 -2.994005584716796875e+01 -7.988637089729309082e-01 7.304565429687500000e+00 1.951710462570190430e+00 5.129797011613845825e-02
5.680000000000000000e+02 5.929194641113281250e+01 -2.166162490844726562e+01 -2.129190564155578613e-01 8.124360084533691406e+00 2.373432159423828125e+00 -7.646037936210632324e-01
5.690000000000000000e+02 5.824632644653320312e+01 -1.690056610107421875e+01 3.519146144390106201e-01 8.296567916870117188e+00 2.594544887542724609e+00 -9.235035181045532227e-01
5.700000000000000000e+02 5.969521331787109375e+01 -1.116224765777587891e+01 1.308182954788208008e+00 7.944231510162353516e+00 2.775724411010742188e+00 -6.602408885955810547e-01
5.710000000000000000e+02 6.073742675781250000e+01 -5.010050773620605469e+00 1.524434924125671387e+00 7.725922107696533203e+00 2.775107145309448242e+00 2.595067620277404785e-01
5.720000000000000000e+02 5.947241973876953125e+01 4.865663051605224609e+00 3.289389610290527344e-01 8.150639533996582031e+00 2.543873548507690430e+00 1.026022315025329590e+00
5.730000000000000000e+02 5.663150787353515625e+01 6.977576732635498047e+00 -6.612524390220642090e-02 8.309217453002929688e+00 2.472927808761596680e+00 8.692281842231750488e-01
5.740000000000000000e+02 5.366984176635742188e+01 1.504349231719970703e+01 -6.462735533714294434e-01 7.584678173065185547e+00 2.081521272659301758e+00 2.512118518352508545e-01
5.750000000000000000e+02 5.465647125244140625e+01 2.451918601989746094e+01 -5.975039601325988770e-01 6.970513820648193359e+00 1.911903023719787598e+00 1.460783928632736206e-01
5.760000000000000000e+02 5.744207000732421875e+01 3.360730361938476562e+01 -4.386248886585235596e-01 6.990843296051025391e+00 1.965665578842163086e+00 1.267476528882980347e-01
5.770000000000000000e+02 5.757445144653320312e+01 4.072332763671875000e+01 -4.025618731975555420e-01 6.916556358337402344e+00 1.954198360443115234e+00 2.652436122298240662e-02
5.780000000000000000e+02 6.235634994506835938e+01 -3.619005966186523438e+01 -5.707462430000305176e-01 7.717089653015136719e+00 2.143903017044067383e+00 -2.369393706321716309e-01
5.790000000000000000e+02 6.699820709228515625e+01 -3.008045196533203125e+01 -3.228332996368408203e-01 7.815923213958740234e+00 2.247926950454711914e+00 -5.280186533927917480e-01
5.800000000000000000e+02 6.548783111572265625e+01 -2.541570091247558594e+01 -2.280112951993942261e-01 7.826777935028076172e+00 2.279629945755004883e+00 -6.932643055915832520e-01
5.810000000000000000e+02 6.509877014160156250e+01 -1.987979698181152344e+01 6.583952903747558594e-02 7.784603118896484375e+00 2.355132818222045898e+00 -8.065498471260070801e-01
5.820000000000000000e+02 6.772807312011718750e+01 -1.041727733612060547e+01 6.128215789794921875e-01 7.350292682647705078e+00 2.388934135437011719e+00 -3.342163562774658203e-01
5.830000000000000000e+02 6.562062072753906250e+01 -2.167710959911346436e-01 6.695444583892822266e-01 7.546316623687744141e+00 2.464758396148681641e+00 6.558453440666198730e-01
5.840000000000000000e+02 6.398186111450195312e+01 3.724503993988037109e+00 4.152303338050842285e-01 7.794260501861572266e+00 2.462847232818603516e+00 9.313375949859619141e-01
5.850000000000000000e+02 6.473473358154296875e+01 6.848711490631103516e+00 1.377748101949691772e-01 7.822640895843505859e+00 2.388124704360961914e+00 9.468349218368530273e-01
5.860000000000000000e+02 6.359200286865234375e+01 1.902117538452148438e+01 -3.656547367572784424e-01 7.812809944152832031e+00 2.234146595001220703e+00 6.462978124618530273e-01
5.870000000000000000e+02 6.106898880004882812e+01 3.297491073608398438e+01 -3.853755593299865723e-01 7.384799480438232422e+00 2.099827289581298828e+00 1.977770924568176270e-01
5.880000000000000000e+02 6.253213119506835938e+01 4.051350402832031250e+01 -3.065839707851409912e-01 7.494009494781494141e+00 2.156227588653564453e+00 4.427384212613105774e-02
5.890000000000000000e+02 6.714936828613281250e+01 -4.066796875000000000e+01 -3.747539818286895752e-01 7.843214035034179688e+00 2.240538120269775391e+00 -7.751692831516265869e-02
5.900000000000000000e+02 7.170994567871093750e+01 -4.082230377197265625e+01 -1.769471317529678345e-01 7.970191955566406250e+00 2.337973594665527344e+00 -6.129406020045280457e-02
5.910000000000000000e+02 7.265735626220703125e+01 -3.111736869812011719e+01 -1.270615160465240479e-01 7.822398185729980469e+00 2.308601140975952148e+00 -3.856690526008605957e-01
5.920000000000000000e+02 7.169652557373046875e+01 -2.275510787963867188e+01 -3.196369111537933350e-02 7.539251327514648438e+00 2.252186298370361328e+00 -6.013675332069396973e-01
5.930000000000000000e+02 7.223756408691406250e+01 -1.596314620971679688e+01 1.287326067686080933e-01 7.209064960479736328e+00 2.201339244842529297e+00 -4.993405938148498535e-01
5.940000000000000000e+02 7.150530242919921875e+01 -9.870021820068359375e+00 3.307938873767852783e-01 7.070912837982177734e+00 2.220512151718139648e+00 -2.171953171491622925e-01
5.950000000000000000e+02 7.145442199707031250e+01 -5.498183250427246094e+00 3.672269880771636963e-01 7.052429199218750000e+00 2.225896835327148438e+00 1.036225408315658569e-01
5.960000000000000000e+02 7.262793731689453125e+01 4.049204826354980469e+00 1.225882023572921753e-01 7.290139198303222656e+00 2.223818302154541016e+00 5.872011780738830566e-01
5.970000000000000000e+02 7.282975006103515625e+01 1.186325073242187500e+01 -2.909637056291103363e-02 7.720896720886230469e+00 2.307540178298950195e+00 6.397374272346496582e-01
5.980000000000000000e+02 7.244868469238281250e+01 1.990015602111816406e+01 -1.059897020459175110e-01 8.124629974365234375e+00 2.405591964721679688e+00 5.143055915832519531e-01
5.990000000000000000e+02 7.210924530029296875e+01 2.591517066955566406e+01 -1.247372925281524658e-01 8.307967185974121094e+00 2.454968929290771484e+00 3.725725412368774414e-01
6.000000000000000000e+02 7.029757690429687500e+01 3.165800285339355469e+01 -1.550114899873733521e-01 8.246813774108886719e+00 2.427540779113769531e+00 2.492824792861938477e-01
6.010000000000000000e+02 7.222886657714843750e+01 3.626324462890625000e+01 -1.235554218292236328e-01 8.481729507446289062e+00 2.507452249526977539e+00 1.296267211437225342e-01
6.020000000000000000e+02 7.176139068603515625e+01 3.845825195312500000e+01 -1.005720049142837524e-01 8.462081909179687500e+00 2.508452892303466797e+00 9.409049153327941895e-02
6.030000000000000000e+02 7.795732879638671875e+01 -4.163210296630859375e+01 6.323693669401109219e-04 8.328354835510253906e+00 2.498696088790893555e+00 1.676114188740029931e-04
6.040000000000000000e+02 7.780719757080078125e+01 -3.707058715820312500e+01 -1.488710101693868637e-02 8.222124099731445312e+00 2.462171077728271484e+00 -5.963330343365669250e-02
6.050000000000000000e+02 7.795121765136718750e+01 -3.063285446166992188e+01 -1.399218104779720306e-02 7.916597843170166016e+00 2.370781660079956055e+00 -1.536299288272857666e-01
6.060000000000000000e+02 7.799008178710937500e+01 -2.358553886413574219e+01 -3.027791390195488930e-03 7.360471725463867188e+00 2.207233190536499023e+00 -2.044217437505722046e-01
6.070000000000000000e+02 7.808857727050781250e+01 -1.655098724365234375e+01 1.081490982323884964e-02 6.730593681335449219e+00 2.022422552108764648e+00 -1.749066859483718872e-01
6.080000000000000000e+02 7.806991577148437500e+01 -9.634785652160644531e+00 2.358220331370830536e-02 6.329763889312744141e+00 1.906003832817077637e+00 -6.244555860757827759e-02
6.090000000000000000e+02 7.803477478027343750e+01 -2.698224306106567383e+00 2.524463459849357605e-02 6.382018566131591797e+00 1.922178864479064941e+00 9.621077775955200195e-02
6.100000000000000000e+02 7.802143096923828125e+01 4.272901058197021484e+00 1.134108565747737885e-02 6.878474712371826172e+00 2.066944837570190430e+00 2.118139863014221191e-01
6.110000000000000000e+02 7.801727294921875000e+01 1.121352577209472656e+01 -2.229102887213230133e-03 7.585924625396728516e+00 2.275108814239501953e+00 2.357562035322189331e-01
6.120000000000000000e+02 7.806516265869140625e+01 1.949335479736328125e+01 -9.073538705706596375e-03 8.376166343688964844e+00 2.510127782821655273e+00 1.813772916793823242e-01
6.130000000000000000e+02 7.407324981689453125e+01 2.433656692504882812e+01 -8.004424721002578735e-02 8.388477325439453125e+00 2.492530107498168945e+00 3.521960973739624023e-01
6.140000000000000000e+02 7.931281280517578125e+01 3.193402862548828125e+01 -7.161661778809502721e-05 9.284598350524902344e+00 2.785357952117919922e+00 3.113126195967197418e-02
6.150000000000000000e+02 7.902362060546875000e+01 3.740871047973632812e+01 -4.119626712054014206e-03 9.352673530578613281e+00 2.804566383361816406e+00 -1.098863966763019562e-02
6.160000000000000000e+02 4.109405517578125000e+01 3.565560531616210938e+01 -3.187990486621856689e-01 4.506811141967773438e+00 1.256403565406799316e+00 -1.875428557395935059e-01
6.170000000000000000e+02 4.033488082885742188e+01 3.100412559509277344e+01 -3.446597158908843994e-01 4.388998508453369141e+00 1.213301658630371094e+00 -3.384001553058624268e-01
6.180000000000000000e+02 3.638654708862304688e+01 2.275522041320800781e+01 -2.443991899490356445e-01 3.687019109725952148e+00 1.032786011695861816e+00 -6.368451714515686035e-01
6.190000000000000000e+02 3.434299087524414062e+01 1.024524307250976562e+01 2.235018759965896606e-01 2.686087608337402344e+00 8.728768229484558105e-01 -9.715551733970642090e-01
6.200000000000000000e+02 3.531869125366210938e+01 -5.062237977981567383e-01 8.223704099655151367e-01 8.598282933235168457e-01 5.046595931053161621e-01 -6.971593499183654785e-01
6.210000000000000000e+02 3.401866149902343750e+01 -4.923650264739990234e+00 -1.105629444122314453e+00 4.142839089035987854e-02 -3.192602992057800293e-01 1.397824436426162720e-01
6.220000000000000000e+02 3.698717498779296875e+01 -4.895815849304199219e+00 -8.839873075485229492e-01 7.064469158649444580e-02 -2.440027743577957153e-01 -5.135209113359451294e-02
6.230000000000000000e+02 3.838677597045898438e+01 -4.876140594482421875e+00 -4.250831902027130127e-01 1.302893608808517456e-01 -8.843815326690673828e-02 -2.890762984752655029e-01
6.240000000000000000e+02 3.167125320434570312e+01 4.021451187133789062e+01 -2.488460950553417206e-02 2.803643941879272461e+00 8.336278200149536133e-01 -5.760000646114349365e-02
6.250000000000000000e+02 3.013705062866210938e+01 3.613715744018554688e+01 1.527814008295536041e-02 2.494731903076171875e+00 7.530030012130737305e-01 -1.979507505893707275e-01
6.260000000000000000e+02 2.870138549804687500e+01 3.291653442382812500e+01 2.918324060738086700e-02 2.162813663482666016e+00 6.575990915298461914e-01 -2.714353501796722412e-01
6.270000000000000000e+02 3.237698364257812500e+01 2.658434677124023438e+01 -9.312077611684799194e-02 2.806178808212280273e+00 8.139173984527587891e-01 -4.931949377059936523e-01
6.280000000000000000e+02 3.281138610839843750e+01 1.955011177062988281e+01 -1.058757156133651733e-01 2.762086153030395508e+00 7.968631386756896973e-01 -6.914945840835571289e-01
6.290000000000000000e+02 2.684471511840820312e+01 1.173009490966796875e+01 1.158581860363483429e-02 9.494603276252746582e-01 2.883138656616210938e-01 -3.147902488708496094e-01
6.300000000000000000e+02 2.468347740173339844e+01 2.600559711456298828e+00 5.350019782781600952e-02 -5.368551239371299744e-02 -5.559436613111756742e-05 3.340919315814971924e-01
6.310000000000000000e+02 2.738137435913085938e+01 -4.925320148468017578e+00 -6.614403128623962402e-01 1.278593088500201702e-03 -1.980485171079635620e-01 2.630765140056610107e-01
6.320000000000000000e+02 3.030994415283203125e+01 -4.961409091949462891e+00 -9.277143478393554688e-01 2.232159860432147980e-02 -2.716178297996520996e-01 2.353982478380203247e-01
6.330000000000000000e+02 2.899408721923828125e+01 -4.280317783355712891e+00 -6.492627859115600586e-01 2.385791949927806854e-02 -1.876214593648910522e-01 3.009757697582244873e-01
6.340000000000000000e+02 3.327462768554687500e+01 -4.933494091033935547e+00 -1.096550345420837402e+00 3.459028527140617371e-02 -3.185880184173583984e-01 1.665424555540084839e-01
6.350000000000000000e+02 1.766502761840820312e+01 4.056109237670898438e+01 2.263354361057281494e-01 5.878417491912841797e-01 2.442531585693359375e-01 1.429767580702900887e-03
6.360000000000000000e+02 2.252419090270996094e+01 4.075651168823242188e+01 1.961455941200256348e-01 1.241786837577819824e+00 4.313797354698181152e-01 -2.423039637506008148e-02
6.370000000000000000e+02 2.388384246826171875e+01 2.103425407409667969e+01 -1.922860369086265564e-02 9.409779906272888184e-01 2.765248119831085205e-01 -3.593131005764007568e-01
6.380000000000000000e+02 2.071474647521972656e+01 1.654021453857421875e+01 -2.496626228094100952e-01 5.276801064610481262e-02 -5.906838178634643555e-02 -5.795359238982200623e-02
6.390000000000000000e+02 2.167446899414062500e+01 1.087616920471191406e+01 -2.090693414211273193e-01 -2.348345518112182617e-01 -1.331711709499359131e-01 1.147544234991073608e-01
6.400000000000000000e+02 1.983096122741699219e+01 4.814288139343261719e+00 -7.653620839118957520e-02 -8.909996747970581055e-01 -2.902607619762420654e-01 2.405724674463272095e-01
6.410000000000000000e+02 2.164392852783203125e+01 -4.327626228332519531e+00 -1.399904489517211914e-01 -8.117890357971191406e-02 -6.635080277919769287e-02 1.844000965356826782e-01
6.420000000000000000e+02 2.469676589965820312e+01 -4.039541721343994141e+00 -3.312337994575500488e-01 -4.620103910565376282e-02 -1.132304444909095764e-01 3.099945783615112305e-01
6.430000000000000000e+02 2.377800941467285156e+01 -4.672662734985351562e+00 -3.117382526397705078e-01 -4.652582481503486633e-02 -1.074792221188545227e-01 2.403500229120254517e-01
6.440000000000000000e+02 1.626219367980957031e+01 2.260560035705566406e+01 -7.612405344843864441e-03 -1.794317662715911865e-01 -5.611325055360794067e-02 7.802198082208633423e-02
6.450000000000000000e+02 1.294849872589111328e+01 1.739022254943847656e+01 -1.056056499481201172e+00 -7.465268373489379883e-01 -5.407750010490417480e-01 7.953833937644958496e-01
6.460000000000000000e+02 1.495845317840576172e+01 1.539925289154052734e+01 -8.086140155792236328e-01 -1.150189518928527832e+00 -5.876410603523254395e-01 8.736664652824401855e-01
6.470000000000000000e+02 1.772654914855957031e+01 1.578151798248291016e+01 -4.387858510017395020e-01 -6.026378870010375977e-01 -3.124271035194396973e-01 3.005070686340332031e-01
6.480000000000000000e+02 1.579428482055664062e+01 1.426409530639648438e+01 -6.076591610908508301e-01 -1.326667428016662598e+00 -5.802979469299316406e-01 8.082556724548339844e-01
6.490000000000000000e+02 1.818720817565917969e+01 9.054852485656738281e+00 -1.774355918169021606e-01 -1.474381566047668457e+00 -4.955451190471649170e-01 4.042159020900726318e-01
6.500000000000000000e+02 1.861103820800781250e+01 6.228886604309082031e+00 -6.430035084486007690e-02 -1.304995179176330566e+00 -4.107886850833892822e-01 2.421884834766387939e-01
6.510000000000000000e+02 1.883073997497558594e+01 2.127639532089233398e+00 -1.116020604968070984e-02 -8.493353128433227539e-01 -2.581486701965332031e-01 7.594779133796691895e-02
6.520000000000000000e+02 1.881464004516601562e+01 -5.187772512435913086e-01 -3.199293045327067375e-03 -4.369928836822509766e-01 -1.320576518774032593e-01 5.937403440475463867e-02
6.530000000000000000e+02 1.967339324951171875e+01 -3.007354736328125000e+00 -3.103836439549922943e-02 -1.521709412336349487e-01 -5.496279150247573853e-02 1.209861189126968384e-01
6.540000000000000000e+02 1.272018718719482422e+01 4.068122482299804688e+01 1.978126317262649536e-01 1.128707677125930786e-01 9.320501983165740967e-02 2.117143943905830383e-02
6.550000000000000000e+02 8.080146789550781250e+00 4.101794815063476562e+01 1.009707301855087280e-01 -3.062701225280761719e-01 -6.158982217311859131e-02 3.637842088937759399e-02
6.560000000000000000e+02 7.754453659057617188e+00 3.220679855346679688e+01 1.086775213479995728e-01 -2.997013330459594727e-01 -5.730714276432991028e-02 2.145824283361434937e-01
6.570000000000000000e+02 7.026194095611572266e+00 2.402780342102050781e+01 -6.345231086015701294e-02 -2.602432668209075928e-01 -9.710867702960968018e-02 3.318807482719421387e-01
6.580000000000000000e+02 1.043397521972656250e+01 1.886692428588867188e+01 -9.875272512435913086e-01 -2.993375957012176514e-01 -3.860594630241394043e-01 4.093842506408691406e-01
6.590000000000000000e+02 1.177221202850341797e+01 1.821530914306640625e+01 -1.106428623199462891e+00 -5.044189691543579102e-01 -4.832542836666107178e-01 6.644468307495117188e-01
6.600000000000000000e+02 1.995381951332092285e+00 4.164751052856445312e+01 -2.708683535456657410e-02 -8.405665755271911621e-01 -2.602960169315338135e-01 -7.707573939114809036e-03
6.610000000000000000e+02 4.323723316192626953e+00 3.782287597656250000e+01 5.668361485004425049e-02 -6.266407370567321777e-01 -1.709871441125869751e-01 1.006110608577728271e-01
6.620000000000000000e+02 2.114443778991699219e+00 3.593560409545898438e+01 3.243454545736312866e-02 -7.432891130447387695e-01 -2.132563591003417969e-01 3.756492584943771362e-02
6.630000000000000000e+02 2.026747465133666992e+00 2.890794372558593750e+01 6.105607841163873672e-03 -4.610745906829833984e-01 -1.364907026290893555e-01 1.296789050102233887e-01
6.640000000000000000e+02 1.899169325828552246e+00 2.314445114135742188e+01 -1.946737803518772125e-02 -1.393154263496398926e-01 -4.763484373688697815e-02 1.035939753055572510e-01
6.650000000000000000e+02 4.250044345855712891e+00 1.576600551605224609e+01 -7.886663079261779785e-03 -2.179145067930221558e-02 -8.903434500098228455e-03 -2.944004023447632790e-03
6.660000000000000000e+02 5.664317607879638672e-01 6.401345252990722656e+00 5.188497598282992840e-04 2.690039036679081619e-05 1.637250388739630580e-04 -8.015375351533293724e-05
6.670000000000000000e+02 6.057280540466308594e+00 1.849829077720642090e+00 -1.320919254794716835e-04 -5.367098492570221424e-04 -2.006405266001820564e-04 -8.985128079075366259e-05
6.680000000000000000e+02 8.075296401977539062e+00 2.594595193862915039e+00 -2.174334658775478601e-04 -5.582236917689442635e-04 -2.326971443835645914e-04 -3.471580275800079107e-04
6.690000000000000000e+02 9.630584716796875000e+00 1.863002777099609375e+00 2.268546231789514422e-04 3.268975997343659401e-04 1.661256683291867375e-04 3.314729256089776754e-04
6.700000000000000000e+02 1.392462253570556641e+01 1.747598886489868164e+00 3.974203427787870169e-04 -4.957153214490972459e-05 1.043546435539610684e-04 6.774285429855808616e-05
6.710000000000000000e+02 1.444080543518066406e+01 6.252578258514404297e+00 -1.652006874792277813e-03 -2.756625472102314234e-04 -5.783008527942001820e-04 -3.124712966382503510e-04
6.720000000000000000e+02 1.177799701690673828e+01 9.568734169006347656e+00 -1.578552532009780407e-03 -1.242368947714567184e-03 -8.462764672003686428e-04 -1.191379502415657043e-03
6.730000000000000000e+02 1.131648635864257812e+01 1.234605216979980469e+01 3.127467585727572441e-03 1.983506605029106140e-03 1.533292233943939209e-03 2.180907176807522774e-03
6.740000000000000000e+02 1.215854930877685547e+01 1.123817062377929688e+01 -2.970997244119644165e-03 -1.267339917831122875e-03 -1.271501183509826660e-03 -1.677972264587879181e-03
6.750000000000000000e+02 9.412248611450195312e+00 1.446854114532470703e+01 4.255594685673713684e-03 3.744883462786674500e-03 2.400143537670373917e-03 1.033807755447924137e-03
6.760000000000000000e+02 7.866757869720458984e+00 1.688716888427734375e+01 6.479464937001466751e-03 6.657606363296508789e-02 2.191665768623352051e-02 -4.644804168492555618e-03
6.770000000000000000e+02 1.751564383506774902e+00 2.172855377197265625e+01 -2.345944195985794067e-02 -7.699028402566909790e-02 -3.013491816818714142e-02 7.380352169275283813e-02
6.780000000000000000e+02 1.162371158599853516e+00 3.801543712615966797e+00 -1.428112300345674157e-04 -2.845439885277301073e-04 -1.282065641134977341e-04 4.354724660515785217e-04
6.790000000000000000e+02 1.385247516632080078e+01 2.566073417663574219e+00 -5.016422946937382221e-04 -4.706109757535159588e-04 -2.916759694926440716e-04 -5.037495284341275692e-04
6.800000000000000000e+02 2.246856117248535156e+01 -8.311513900756835938e+00 -8.051615357398986816e-01 4.998601973056793213e-02 -2.265526503324508667e-01 -2.860428988933563232e-01
6.810000000000000000e+02 6.073980712890625000e+01 -1.178448486328125000e+01 1.118232607841491699e+00 7.870406627655029297e+00 2.696591615676879883e+00 -6.735663414001464844e-01
6.820000000000000000e+02 6.669364166259765625e+01 -1.237344741821289062e+01 6.003755927085876465e-01 7.469447135925292969e+00 2.420946836471557617e+00 -5.128981471061706543e-01
6.830000000000000000e+02 7.318271636962890625e+01 -1.224413681030273438e+01 1.928726881742477417e-01 6.994976520538330078e+00 2.156354665756225586e+00 -3.195990025997161865e-01
6.840000000000000000e+02 7.936096954345703125e+01 -1.249334907531738281e+01 4.619054030627012253e-03 6.252426624298095703e+00 1.877113699913024902e+00 -4.182740300893783569e-02
6.850000000000000000e+02 7.934803009033203125e+01 -5.540254592895507812e+00 5.131951998919248581e-03 6.066809654235839844e+00 1.821582436561584473e+00 1.260897517204284668e-02
6.860000000000000000e+02 7.277571868896484375e+01 -5.502681255340576172e+00 2.750517725944519043e-01 6.944225788116455078e+00 2.165783166885375977e+00 8.957845717668533325e-02
6.870000000000000000e+02 6.656040954589843750e+01 -2.465640783309936523e+00 7.188561558723449707e-01 7.422947883605957031e+00 2.442541122436523438e+00 4.413375854492187500e-01
6.880000000000000000e+02 6.133360671997070312e+01 -5.804114818572998047e+00 1.468683242797851562e+00 7.675713062286376953e+00 2.743318796157836914e+00 1.413559168577194214e-01
6.890000000000000000e+02 2.065333938598632812e+01 -2.483018112182617188e+01 2.172691673040390015e-01 3.460697233676910400e-01 1.690016686916351318e-01 -7.494032382965087891e-02
6.900000000000000000e+02 1.577421283721923828e+01 -2.252170562744140625e+01 -2.163416519761085510e-02 -2.503042519092559814e-01 -8.158152550458908081e-02 -2.768539488315582275e-01
6.910000000000000000e+02 2.970124816894531250e+01 -1.437725353240966797e+01 -1.312032062560319901e-02 4.242740869522094727e-01 1.233461275696754456e-01 7.546846754848957062e-03
6.920000000000000000e+02 3.682356262207031250e+01 -1.463248157501220703e+01 7.428146600723266602e-01 2.023134708404541016e+00 8.297848105430603027e-01 1.568606376647949219e+00
6.930000000000000000e+02 4.826233673095703125e+01 -1.454775333404541016e+01 -2.026403695344924927e-01 1.000604438781738281e+01 2.941021203994750977e+00 1.608197391033172607e-01
6.940000000000000000e+02 6.013103485107421875e+01 -1.618844604492187500e+01 4.810907542705535889e-01 8.091849327087402344e+00 2.571882009506225586e+00 -9.035568833351135254e-01
6.950000000000000000e+02 6.538005828857421875e+01 -1.806197738647460938e+01 2.139033228158950806e-01 7.722390174865722656e+00 2.380887985229492188e+00 -7.930585741996765137e-01
6.960000000000000000e+02 7.315262603759765625e+01 -1.876102447509765625e+01 5.443511903285980225e-02 7.265337944030761719e+00 2.195931911468505859e+00 -5.137927532196044922e-01
6.970000000000000000e+02 7.933438873291015625e+01 -2.225348281860351562e+01 4.582985129673033953e-04 7.184430599212646484e+00 2.155466556549072266e+00 -7.443470507860183716e-02
6.980000000000000000e+02 5.231471061706542969e+00 -1.605920219421386719e+01 -1.431870553642511368e-02 -4.113508760929107666e-02 -1.663613878190517426e-02 -8.992862887680530548e-03
6.990000000000000000e+02 2.134326219558715820e+00 -1.710392951965332031e+01 -1.216060947626829147e-02 -1.174096204340457916e-02 -7.170471362769603729e-03 3.802245715633034706e-03
7.000000000000000000e+02 5.845511555671691895e-01 -1.066275024414062500e+01 1.564111909829080105e-03 2.104386221617460251e-03 1.100549474358558655e-03 1.042282208800315857e-03
7.010000000000000000e+02 1.564056396484375000e+01 -3.170173645019531250e+01 3.152041733264923096e-01 2.543060667812824249e-02 1.021904349327087402e-01 -1.827903687953948975e-01
7.020000000000000000e+02 3.331961822509765625e+01 -2.713294219970703125e+01 2.413641065359115601e-01 2.682556629180908203e+00 8.771762251853942871e-01 7.468332052230834961e-01
7.030000000000000000e+02 3.678737640380859375e+01 -2.167926979064941406e+01 2.912410199642181396e-01 3.333902597427368164e+00 1.087543010711669922e+00 1.333189487457275391e+00
7.040000000000000000e+02 4.078460311889648438e+01 -2.301027107238769531e+01 -1.737238317728042603e-01 5.083551883697509766e+00 1.472948431968688965e+00 1.392538428306579590e+00
7.050000000000000000e+02 4.866815185546875000e+01 -2.725827217102050781e+01 -7.648754715919494629e-01 7.087079524993896484e+00 1.896661162376403809e+00 3.968049287796020508e-01
7.060000000000000000e+02 5.783685302734375000e+01 -2.075176811218261719e+01 -1.963908672332763672e-01 8.237682342529296875e+00 2.412387371063232422e+00 -7.527656555175781250e-01
7.070000000000000000e+02 6.768018341064453125e+01 -2.339154243469238281e+01 -1.021921113133430481e-01 7.721302986145019531e+00 2.285733222961425781e+00 -7.102040052413940430e-01
7.080000000000000000e+02 7.266850280761718750e+01 -2.383796310424804688e+01 -4.066437855362892151e-02 7.544582366943359375e+00 2.251175403594970703e+00 -5.518472194671630859e-01
7.090000000000000000e+02 7.930797576904296875e+01 -2.646247673034667969e+01 -2.461479743942618370e-03 7.617253780364990234e+00 2.284437656402587891e+00 -6.986771523952484131e-02
7.100000000000000000e+02 7.328798770904541016e-01 -3.040327644348144531e+01 3.248868742957711220e-04 -8.397821187973022461e-01 -2.518371641635894775e-01 -5.637903138995170593e-02
7.110000000000000000e+02 8.149577140808105469e+00 -3.396060180664062500e+01 1.517258435487747192e-01 -4.841591119766235352e-01 -9.972997754812240601e-02 -2.414512187242507935e-01
7.120000000000000000e+02 3.009008407592773438e+01 -3.163584899902343750e+01 2.448627501726150513e-01 2.253996610641479492e+00 7.496578097343444824e-01 4.120395481586456299e-01
7.130000000000000000e+02 3.410769653320312500e+01 -3.342709350585937500e+01 4.942275583744049072e-02 3.217470407485961914e+00 9.800679087638854980e-01 4.948379099369049072e-01
7.140000000000000000e+02 4.482066345214843750e+01 -3.066283798217773438e+01 -5.906586647033691406e-01 5.989527702331542969e+00 1.619660735130310059e+00 5.755118727684020996e-01
7.150000000000000000e+02 5.061199569702148438e+01 -3.384757614135742188e+01 -7.797726988792419434e-01 6.917601585388183594e+00 1.841348648071289062e+00 9.797389805316925049e-02
7.160000000000000000e+02 5.588107681274414062e+01 -3.131094932556152344e+01 -7.599464654922485352e-01 7.568275451660156250e+00 2.042498588562011719e+00 -1.995763927698135376e-01
7.170000000000000000e+02 6.665137481689453125e+01 -3.315626525878906250e+01 -3.702368736267089844e-01 7.822369098663330078e+00 2.235639572143554688e+00 -4.028710722923278809e-01
7.180000000000000000e+02 7.337573242187500000e+01 -3.204120635986328125e+01 -1.094594821333885193e-01 7.858954906463623047e+00 2.324848651885986328e+00 -3.365513980388641357e-01
7.190000000000000000e+02 7.931708526611328125e+01 -3.339858627319335938e+01 -5.464925430715084076e-03 8.169557571411132812e+00 2.449227809906005859e+00 -3.946438804268836975e-02
7.200000000000000000e+02 7.934080505371093750e+01 2.820504665374755859e+00 2.967283828184008598e-03 6.587909698486328125e+00 1.977263092994689941e+00 7.224419713020324707e-02
7.210000000000000000e+02 7.275127410888671875e+01 1.326526165008544922e+00 1.797380596399307251e-01 7.145416736602783203e+00 2.197546482086181641e+00 4.841633141040802002e-01
7.220000000000000000e+02 6.552029418945312500e+01 1.231375217437744141e+00 5.740515589714050293e-01 7.605591297149658203e+00 2.453892707824707031e+00 7.623839378356933594e-01
7.230000000000000000e+02 6.008388137817382812e+01 3.445664644241333008e+00 5.271047353744506836e-01 8.075778961181640625e+00 2.580865144729614258e+00 1.018030881881713867e+00
7.240000000000000000e+02 7.934033203125000000e+01 8.393154144287109375e+00 5.913545028306543827e-04 7.221594810485839844e+00 2.166655778884887695e+00 8.718714863061904907e-02
7.250000000000000000e+02 7.232759094238281250e+01 8.200355529785156250e+00 3.180464729666709900e-02 7.535391807556152344e+00 2.270159006118774414e+00 6.714451909065246582e-01
7.260000000000000000e+02 6.572875976562500000e+01 1.025695705413818359e+01 -6.110850721597671509e-02 7.840119838714599609e+00 2.333703279495239258e+00 9.056271314620971680e-01
7.270000000000000000e+02 5.789631271362304688e+01 7.956182479858398438e+00 -1.064222007989883423e-01 8.199254989624023438e+00 2.427850008010864258e+00 8.837491273880004883e-01
7.280000000000000000e+02 4.033793258666992188e+01 7.566636562347412109e+00 5.073831975460052490e-02 4.951069355010986328e+00 1.500542283058166504e+00 -1.580977678298950195e+00
7.290000000000000000e+02 5.007099533081054688e+01 6.559249877929687500e+00 -4.624727964401245117e-01 8.529206275939941406e+00 2.420020103454589844e+00 1.842503063380718231e-02
7.300000000000000000e+02 3.742613983154296875e+01 4.963330179452896118e-02 1.188702821731567383e+00 1.793016076087951660e+00 8.945156931877136230e-01 -1.496117234230041504e+00
7.310000000000000000e+02 2.934896659851074219e+01 -2.979614138603210449e-01 1.229062303900718689e-01 2.103898078203201294e-01 9.998881071805953979e-02 2.241415083408355713e-01
7.320000000000000000e+02 1.983235168457031250e+01 3.456876516342163086e+00 -5.225894600152969360e-02 -8.063963055610656738e-01 -2.575965821743011475e-01 2.250870317220687866e-01
7.330000000000000000e+02 1.882196998596191406e+01 3.484604120254516602e+00 -2.284387126564979553e-02 -1.065881133079528809e+00 -3.266175091266632080e-01 1.181123033165931702e-01
7.340000000000000000e+02 7.934311676025390625e+01 1.672644615173339844e+01 -6.987649830989539623e-04 8.192395210266113281e+00 2.457509040832519531e+00 7.600969076156616211e-02
7.350000000000000000e+02 7.238465881347656250e+01 1.838721275329589844e+01 -1.009488999843597412e-01 8.051605224609375000e+00 2.385196924209594727e+00 5.534408092498779297e-01
7.360000000000000000e+02 6.763182830810546875e+01 1.817756843566894531e+01 -2.301485687494277954e-01 7.926601409912109375e+00 2.308935880661010742e+00 6.925701498985290527e-01
7.370000000000000000e+02 5.434418487548828125e+01 1.969457244873046875e+01 -6.330953836441040039e-01 7.247656822204589844e+00 1.984368443489074707e+00 2.093963772058486938e-01
7.380000000000000000e+02 4.192613601684570312e+01 1.626458358764648438e+01 -4.361600577831268311e-01 5.215751647949218750e+00 1.433877468109130859e+00 -8.313962221145629883e-01
7.390000000000000000e+02 5.059027481079101562e+01 1.477263259887695312e+01 -6.973233222961425781e-01 7.265475749969482422e+00 1.970445752143859863e+00 -6.891060620546340942e-02
7.400000000000000000e+02 3.541194534301757812e+01 7.435393810272216797e+00 4.465617239475250244e-01 2.689785480499267578e+00 9.409042000770568848e-01 -1.168363332748413086e+00
7.410000000000000000e+02 2.837309265136718750e+01 9.582960128784179688e+00 1.473839133977890015e-01 1.079917073249816895e+00 3.681902885437011719e-01 -3.467095792293548584e-01
7.420000000000000000e+02 2.043736457824707031e+01 1.192395877838134766e+01 -2.677004039287567139e-01 -4.476212859153747559e-01 -2.145965099334716797e-01 1.785511225461959839e-01
7.430000000000000000e+02 7.934981536865234375e+01 2.366990470886230469e+01 7.143096445361152291e-05 8.816342353820800781e+00 2.644924163818359375e+00 5.522565543651580811e-02
7.440000000000000000e+02 7.291722106933593750e+01 2.470021247863769531e+01 -1.026409864425659180e-01 8.313651084899902344e+00 2.463303089141845703e+00 3.820936381816864014e-01
7.450000000000000000e+02 6.601235198974609375e+01 2.768084335327148438e+01 -2.888898253440856934e-01 7.869592189788818359e+00 2.274210691452026367e+00 3.909636139869689941e-01
7.460000000000000000e+02 5.465800476074218750e+01 2.193107414245605469e+01 -6.241042613983154297e-01 7.144329547882080078e+00 1.956067562103271484e+00 1.868722736835479736e-01
7.470000000000000000e+02 4.075952148437500000e+01 2.642871856689453125e+01 -3.834779262542724609e-01 4.628289222717285156e+00 1.273443460464477539e+00 -4.477790296077728271e-01
7.480000000000000000e+02 4.901771926879882812e+01 2.304423522949218750e+01 -6.209930777549743652e-01 6.324378967285156250e+00 1.711015820503234863e+00 -1.716776639223098755e-01
7.490000000000000000e+02 3.659103012084960938e+01 1.770917510986328125e+01 -1.991063356399536133e-01 3.708089828491210938e+00 1.052695035934448242e+00 -8.269410133361816406e-01
7.500000000000000000e+02 2.864789009094238281e+01 1.917601966857910156e+01 -3.902450203895568848e-02 1.811998605728149414e+00 5.318922400474548340e-01 -5.721538066864013672e-01
7.510000000000000000e+02 1.980368423461914062e+01 1.763856506347656250e+01 -2.336157560348510742e-01 -4.355569556355476379e-02 -8.315143734216690063e-02 -2.760818973183631897e-02
7.520000000000000000e+02 2.673701286315917969e+00 2.096859741210937500e+01 -4.402888193726539612e-02 -7.490617036819458008e-02 -3.568051382899284363e-02 8.115846663713455200e-02
7.530000000000000000e+02 7.940051269531250000e+01 2.920951271057128906e+01 -8.288141689263284206e-04 9.159128189086914062e+00 2.747489929199218750e+00 3.721845149993896484e-02
7.540000000000000000e+02 7.292803955078125000e+01 3.194827461242675781e+01 -9.513556957244873047e-02 8.511538505554199219e+00 2.524920940399169922e+00 2.045313715934753418e-01
7.550000000000000000e+02 6.425490570068359375e+01 3.181620407104492188e+01 -3.232605457305908203e-01 7.678071975708007812e+00 2.206443548202514648e+00 2.648049890995025635e-01
7.560000000000000000e+02 5.733131790161132812e+01 3.024467658996582031e+01 -4.863518774509429932e-01 7.050960540771484375e+00 1.969382524490356445e+00 1.756643205881118774e-01
7.570000000000000000e+02 5.071271514892578125e+01 3.003956985473632812e+01 -5.256165862083435059e-01 6.212668418884277344e+00 1.706115603446960449e+00 -3.600621595978736877e-02
7.580000000000000000e+02 3.860086059570312500e+01 2.435287857055664062e+01 -3.344708085060119629e-01 4.222589969635009766e+00 1.166435718536376953e+00 -5.621585845947265625e-01
7.590000000000000000e+02 2.670664405822753906e+01 2.551166725158691406e+01 3.874487057328224182e-02 1.649413108825683594e+00 5.064474344253540039e-01 -4.236026108264923096e-01
7.600000000000000000e+02 1.793035316467285156e+01 2.355400085449218750e+01 5.685736984014511108e-02 7.319224625825881958e-02 3.901488706469535828e-02 -3.255582228302955627e-02
7.610000000000000000e+02 6.724730968475341797e+00 2.220321464538574219e+01 -1.577981859445571899e-01 -1.827522665262222290e-01 -1.021651327610015869e-01 3.045422434806823730e-01
7.620000000000000000e+02 3.593757247924804688e+01 3.171412658691406250e+01 -1.933678090572357178e-01 3.526257276535034180e+00 9.998668432235717773e-01 -3.091043531894683838e-01
7.630000000000000000e+02 2.617037963867187500e+01 3.398581695556640625e+01 1.041035279631614685e-01 1.743646264076232910e+00 5.543249249458312988e-01 -1.830133497714996338e-01
7.640000000000000000e+02 2.128294372558593750e+01 3.046279716491699219e+01 1.963954269886016846e-01 8.871484398841857910e-01 3.250631690025329590e-01 -1.442545950412750244e-01
7.650000000000000000e+02 1.320113086700439453e+01 3.288960647583007812e+01 2.081116884946823120e-01 1.083269622176885605e-02 6.568331271409988403e-02 1.201293990015983582e-01
7.660000000000000000e+02 2.184363603591918945e+00 3.174063491821289062e+01 1.377166341990232468e-02 -5.873326063156127930e-01 -1.720682978630065918e-01 1.176582947373390198e-01
7.670000000000000000e+02 1.777499079704284668e+00 9.079904556274414062e+00 -4.266652977094054222e-04 9.220958454534411430e-04 1.486291730543598533e-04 -1.115071238018572330e-03
7.680000000000000000e+02 1.933558845520019531e+01 -7.737874507904052734e+00 -3.359255194664001465e-01 -2.420917525887489319e-02 -1.080404147505760193e-01 -2.188756167888641357e-01
7.690000000000000000e+02 1.421253681182861328e+01 -1.384778499603271484e+01 -7.276886701583862305e-01 -9.723833203315734863e-01 -5.100215673446655273e-01 -8.094105124473571777e-01
7.700000000000000000e+02 7.475176811218261719e+00 -1.387804603576660156e+01 -4.124003928154706955e-03 1.043745130300521851e-02 1.894034328870475292e-03 4.061929881572723389e-03
7.710000000000000000e+02 1.135596656799316406e+01 -8.129309654235839844e+00 5.992638762108981609e-04 2.725343802012503147e-04 2.615394769236445427e-04 -6.395694799721240997e-04
7.720000000000000000e+02 1.012757396697998047e+01 -3.197499513626098633e+00 -1.334503176622092724e-04 2.619543229229748249e-04 3.855119939544238150e-05 -4.010606498923152685e-04
7.730000000000000000e+02 1.320822525024414062e+01 -1.965548515319824219e+00 -5.310460619512014091e-05 -7.932530570542439818e-05 -3.972897320636548102e-05 -1.055742031894624233e-04
7.740000000000000000e+02 1.491089534759521484e+01 -2.294879674911499023e+00 2.480176408425904810e-05 -2.351225884922314435e-05 3.868514397709077457e-07 5.171619704924523830e-05
7.750000000000000000e+02 1.430380821228027344e+01 -2.144154310226440430e+00 -3.069882723139016889e-06 6.004230817779898643e-05 1.709172829578164965e-05 -9.311585017712786794e-05
7.760000000000000000e+02 1.374999713897705078e+01 -2.000191211700439453e+00 1.752149364619981498e-05 -6.256559572648257017e-05 -1.351322953269118443e-05 8.030654134927317500e-05
7.770000000000000000e+02 1.179188060760498047e+01 -1.978234171867370605e+00 3.026930926353088580e-06 -1.316685375059023499e-04 -3.859248317894525826e-05 -6.648392445640638471e-05
7.780000000000000000e+02 1.030077266693115234e+01 -1.870113611221313477e+00 -3.753526107175275683e-05 -5.377789784688502550e-05 -2.739394767559133470e-05 -1.836914889281615615e-04
7.790000000000000000e+02 9.554715156555175781e+00 -1.851632118225097656e+00 -1.875130328699015081e-05 2.397816024313215166e-05 1.568057200529437978e-06 3.003322053700685501e-04
7.800000000000000000e+02 8.801354408264160156e+00 -1.863570094108581543e+00 -9.526927169645205140e-05 1.945073199749458581e-05 -2.274556209158618003e-05 -2.099594275932759047e-04
7.810000000000000000e+02 7.281398296356201172e+00 -1.877449989318847656e+00 -1.281461736653000116e-04 7.350496889557689428e-05 -1.639236143091693521e-05 -2.138022537110373378e-04
7.820000000000000000e+02 5.754828929901123047e+00 -1.882010459899902344e+00 -5.645246346830390394e-05 5.307510218699462712e-05 -1.013208475342253223e-06 -2.244567003799602389e-04
7.830000000000000000e+02 3.457194805145263672e+00 -1.946145772933959961e+00 -2.887284608732443303e-06 -6.567196578544098884e-06 -2.836344265233492479e-06 1.391265977872535586e-04
7.840000000000000000e+02 4.990714550018310547e+00 -1.894919872283935547e+00 -1.397305022692307830e-04 1.322155549132730812e-05 -3.795268639805726707e-05 1.364622003166005015e-04
7.850000000000000000e+02 4.253582000732421875e+00 -2.749201774597167969e+00 -7.662523421458899975e-05 8.507970051141455770e-05 2.536341298764455132e-06 1.450202689738944173e-04
7.860000000000000000e+02 2.695108175277709961e+00 -1.972378373146057129e+00 -1.637039968045428395e-04 -1.029632221616338938e-05 -5.220009552431292832e-05 -2.145893522538244724e-04
7.870000000000000000e+02 1.932182908058166504e+00 -2.004664897918701172e+00 1.106506679207086563e-04 3.794411531998775899e-05 4.457843533600680530e-05 2.557939978942158632e-06
7.880000000000000000e+02 1.166815161705017090e+00 -2.079633951187133789e+00 -1.842810743255540729e-04 -1.524696272099390626e-04 -1.010252162814140320e-04 -1.758672297000885010e-04
7.890000000000000000e+02 2.017871141433715820e+00 -4.165827941894531250e+01 -2.956649102270603180e-02 -1.132214307785034180e+00 -3.485342562198638916e-01 8.385654538869857788e-03
7.900000000000000000e+02 6.208202838897705078e+00 -3.838063430786132812e+01 1.101255044341087341e-01 -6.532632708549499512e-01 -1.629413366317749023e-01 -1.154589951038360596e-01
7.910000000000000000e+02 1.030425071716308594e+00 -3.874588012695312500e+01 -3.119765315204858780e-03 -1.158076047897338867e+00 -3.483587205410003662e-01 -3.013028763234615326e-03
7.920000000000000000e+02 8.174977898597717285e-01 -3.459498977661132812e+01 6.070738192647695541e-03 -1.093524217605590820e+00 -3.262360394001007080e-01 -3.375868871808052063e-02
7.930000000000000000e+02 7.824331521987915039e-01 -3.320099258422851562e+01 3.423362737521529198e-03 -1.026586771011352539e+00 -3.069490194320678711e-01 -4.251569509506225586e-02
7.940000000000000000e+02 7.144860029220581055e-01 -2.899611282348632812e+01 4.919762257486581802e-03 -7.248356342315673828e-01 -2.159747630357742310e-01 -6.098197400569915771e-02
7.950000000000000000e+02 6.998498439788818359e-01 -2.758123779296875000e+01 -1.662369817495346069e-03 -5.986304879188537598e-01 -1.800878494977951050e-01 -6.485224515199661255e-02
7.960000000000000000e+02 6.884673833847045898e-01 -2.616112327575683594e+01 3.736374899744987488e-03 -4.646438360214233398e-01 -1.382722407579421997e-01 -6.627957522869110107e-02
7.970000000000000000e+02 6.732489466667175293e-01 -2.188144493103027344e+01 -9.561985731124877930e-03 -8.978995680809020996e-02 -2.980558387935161591e-02 -4.600447416305541992e-02
7.980000000000000000e+02 1.968587398529052734e+00 -2.017386436462402344e+01 -3.842920437455177307e-02 -7.182152569293975830e-02 -3.307522088289260864e-02 -8.025107532739639282e-02
7.990000000000000000e+02 6.626823544502258301e-01 -1.612607574462890625e+01 1.017097267322242260e-03 3.980490192770957947e-02 1.224660035222768784e-02 6.658324040472507477e-03
8.000000000000000000e+02 5.707487463951110840e-01 -1.476324367523193359e+01 -4.643343272618949413e-04 2.543767727911472321e-02 7.492002565413713455e-03 5.609195213764905930e-03
8.010000000000000000e+02 5.065252780914306641e-01 -1.340353298187255859e+01 2.476284513249993324e-03 1.243820320814847946e-02 4.474346525967121124e-03 3.601100761443376541e-03
8.020000000000000000e+02 4.986818790435791016e+00 -1.428448867797851562e+01 8.065702393651008606e-03 -2.076183632016181946e-02 -3.808839945122599602e-03 -4.875629674643278122e-03
8.030000000000000000e+02 5.912285447120666504e-01 -9.250835418701171875e+00 -1.048169797286391258e-03 4.369427042547613382e-04 -1.833681162679567933e-04 3.716661594808101654e-04
8.040000000000000000e+02 5.792229771614074707e-01 -7.833644866943359375e+00 1.229114714078605175e-03 -3.264497208874672651e-04 2.707995008677244186e-04 2.230189711553975940e-04
8.050000000000000000e+02 5.676453113555908203e-01 -6.418667793273925781e+00 -9.158239699900150299e-04 -2.875777427107095718e-04 -3.610205021686851978e-04 -2.396650670561939478e-04
8.060000000000000000e+02 7.067632293701171875e+01 -3.749912643432617188e+01 -2.289463430643081665e-01 7.919961929321289062e+00 2.307304620742797852e+00 -2.051647752523422241e-01
8.070000000000000000e+02 3.229957580566406250e+01 -4.085407638549804688e+01 7.932257652282714844e-02 2.880508661270141602e+00 8.879494071006774902e-01 6.628900021314620972e-02
8.080000000000000000e+02 1.284110641479492188e+01 -4.080101013183593750e+01 2.704266905784606934e-01 -7.796622812747955322e-02 5.773814022541046143e-02 -3.313633427023887634e-02
8.090000000000000000e+02 7.841964721679687500e+01 4.020595550537109375e+01 -2.624467760324478149e-02 9.292857170104980469e+00 2.779983758926391602e+00 -4.247013852000236511e-02
8.100000000000000000e+02 7.799498748779296875e+01 4.173172760009765625e+01 6.218370422720909119e-02 9.265338897705078125e+00 2.798256874084472656e+00 -1.743090525269508362e-02
8.110000000000000000e+02 7.863432312011718750e+01 3.876571273803710938e+01 -1.274544093757867813e-02 9.324967384338378906e+00 2.793666601181030273e+00 -2.370271831750869751e-02
8.120000000000000000e+02 7.667197418212890625e+01 3.791359710693359375e+01 -5.099534243345260620e-02 9.086417198181152344e+00 2.710626602172851562e+00 5.302858725190162659e-02
8.130000000000000000e+02 7.923551177978515625e+01 3.468732070922851562e+01 -3.493071300908923149e-03 9.360752105712890625e+00 2.807177782058715820e+00 1.669021509587764740e-02
8.140000000000000000e+02 7.615335845947265625e+01 3.408410263061523438e+01 -4.651028290390968323e-02 8.913040161132812500e+00 2.659958839416503906e+00 1.121895983815193176e-01
8.150000000000000000e+02 7.927281951904296875e+01 3.331177902221679688e+01 -5.436864215880632401e-03 9.330207824707031250e+00 2.797431468963623047e+00 2.475442364811897278e-02
8.160000000000000000e+02 7.936270141601562500e+01 3.056728363037109375e+01 -2.355871023610234261e-03 9.227341651916503906e+00 2.767495632171630859e+00 3.334857523441314697e-02
8.170000000000000000e+02 7.807463836669921875e+01 2.789800453186035156e+01 -1.169236004352569580e-02 8.922869682312011719e+00 2.673353195190429688e+00 1.110775843262672424e-01
8.180000000000000000e+02 7.931961822509765625e+01 2.647572326660156250e+01 -3.056751564145088196e-03 9.002719879150390625e+00 2.699898958206176758e+00 4.661281779408454895e-02
8.190000000000000000e+02 7.666869354248046875e+01 2.487026596069335938e+01 -2.714045718312263489e-02 8.637583732604980469e+00 2.583132982254028320e+00 2.087476998567581177e-01
8.200000000000000000e+02 7.932723999023437500e+01 2.507274627685546875e+01 -2.561474218964576721e-03 8.915346145629882812e+00 2.673835277557373047e+00 5.242696776986122131e-02
8.210000000000000000e+02 7.936426544189453125e+01 2.088982772827148438e+01 -1.633400679565966129e-03 8.592181205749511719e+00 2.577164411544799805e+00 6.314332783222198486e-02
8.220000000000000000e+02 7.935796356201171875e+01 1.950281524658203125e+01 -1.966276206076145172e-03 8.466690063476562500e+00 2.539417266845703125e+00 6.721071153879165649e-02
8.230000000000000000e+02 7.934941101074218750e+01 1.811493682861328125e+01 -2.618633676320314407e-03 8.333319664001464844e+00 2.499210119247436523e+00 7.232638448476791382e-02
8.240000000000000000e+02 7.934056854248046875e+01 1.395502567291259766e+01 -3.731250471901148558e-04 7.888756752014160156e+00 2.366514921188354492e+00 8.333096653223037720e-02
8.250000000000000000e+02 7.934069824218750000e+01 1.256513977050781250e+01 -1.456940895877778530e-03 7.727010250091552734e+00 2.317665815353393555e+00 8.549698442220687866e-02
8.260000000000000000e+02 7.934122467041015625e+01 1.117391872406005859e+01 -1.802591723389923573e-04 7.560498237609863281e+00 2.268095254898071289e+00 8.737994730472564697e-02
8.270000000000000000e+02 7.933969879150390625e+01 7.001977920532226562e+00 1.154384342953562737e-03 7.054038524627685547e+00 2.116557836532592773e+00 8.548790216445922852e-02
8.280000000000000000e+02 7.933973693847656250e+01 5.608804225921630859e+00 1.774220960214734077e-03 6.890683650970458984e+00 2.067737340927124023e+00 8.253170549869537354e-02
8.290000000000000000e+02 7.934005737304687500e+01 4.215312957763671875e+00 2.595544094219803810e-03 6.734372138977050781e+00 2.021090269088745117e+00 7.801383733749389648e-02
8.300000000000000000e+02 7.934194183349609375e+01 3.467534482479095459e-02 4.127838648855686188e-03 6.336025714874267578e+00 1.902046084403991699e+00 5.637572333216667175e-02
8.310000000000000000e+02 7.934256744384765625e+01 -1.359538316726684570e+00 5.092442501336336136e-03 6.236264705657958984e+00 1.872407078742980957e+00 4.660185053944587708e-02
8.320000000000000000e+02 7.803850555419921875e+01 -4.090466976165771484e+00 2.570881508290767670e-02 6.332001686096191406e+00 1.907313108444213867e+00 6.470879912376403809e-02
8.330000000000000000e+02 7.934557342529296875e+01 -4.147089958190917969e+00 5.843588616698980331e-03 6.100127220153808594e+00 1.831791281700134277e+00 2.429249323904514313e-02
8.340000000000000000e+02 7.935332489013671875e+01 -8.321613311767578125e+00 4.819865338504314423e-03 6.072166919708251953e+00 1.823096036911010742e+00 -1.074350439012050629e-02
8.350000000000000000e+02 7.807855224609375000e+01 -1.101824378967285156e+01 2.262524142861366272e-02 6.378072738647460938e+00 1.920209288597106934e+00 -9.136222302913665771e-02
8.360000000000000000e+02 7.935813903808593750e+01 -1.110274696350097656e+01 4.098172299563884735e-03 6.170981407165527344e+00 1.852523803710937500e+00 -3.228911012411117554e-02
8.370000000000000000e+02 7.936138153076171875e+01 -1.527365303039550781e+01 3.122503636404871941e-03 6.469414710998535156e+00 1.941761136054992676e+00 -5.734370648860931396e-02
8.380000000000000000e+02 7.807482147216796875e+01 -1.794549369812011719e+01 7.921000011265277863e-03 6.848255634307861328e+00 2.056853055953979492e+00 -1.877302378416061401e-01
8.390000000000000000e+02 7.935436248779296875e+01 -1.805956649780273438e+01 1.750515541061758995e-03 6.738316535949707031e+00 2.022020101547241211e+00 -6.791741400957107544e-02
8.400000000000000000e+02 7.932498931884765625e+01 -2.365650177001953125e+01 -7.120700902305543423e-04 7.333590507507324219e+00 2.199863433837890625e+00 -7.403608411550521851e-02
8.410000000000000000e+02 7.795277404785156250e+01 -2.501194190979003906e+01 -6.709953304380178452e-03 7.486595630645751953e+00 2.243965625762939453e+00 -1.999478191137313843e-01
8.420000000000000000e+02 7.931513977050781250e+01 -2.506036567687988281e+01 -3.874454705510288477e-04 7.478541851043701172e+00 2.243446350097656250e+00 -7.286952435970306396e-02
8.430000000000000000e+02 7.931129455566406250e+01 -2.925602722167968750e+01 -2.691864036023616791e-03 7.870335102081298828e+00 2.360292911529541016e+00 -6.133760884404182434e-02
8.440000000000000000e+02 7.796419525146484375e+01 -3.197989845275878906e+01 -1.680404879152774811e-02 8.002381324768066406e+00 2.395673274993896484e+00 -1.347675323486328125e-01
8.450000000000000000e+02 7.932105255126953125e+01 -3.202318954467773438e+01 -3.057894762605428696e-03 8.084437370300292969e+00 2.424413919448852539e+00 -4.838371276855468750e-02
8.460000000000000000e+02 7.927756500244140625e+01 -3.611125183105468750e+01 -7.441853522323071957e-04 8.279872894287109375e+00 2.483738422393798828e+00 -2.287753485143184662e-02
8.470000000000000000e+02 7.921482849121093750e+01 -3.744531250000000000e+01 -7.929158397018909454e-03 8.309587478637695312e+00 2.490497589111328125e+00 -1.323811057955026627e-02
8.480000000000000000e+02 7.902819824218750000e+01 -3.875049972534179688e+01 8.234073175117373466e-04 8.325438499450683594e+00 2.497878551483154297e+00 -9.500664658844470978e-03
8.490000000000000000e+02 7.865221405029296875e+01 -4.007855987548828125e+01 -9.091734886169433594e-03 8.329005241394042969e+00 2.495974063873291016e+00 -1.459358260035514832e-03
8.500000000000000000e+02 1.222568321228027344e+01 3.736022949218750000e+01 1.904382854700088501e-01 4.390778392553329468e-02 7.030382007360458374e-02 7.374884933233261108e-02
8.510000000000000000e+02 2.721984481811523438e+01 4.065238952636718750e+01 1.024577468633651733e-01 1.971429944038391113e+00 6.221663355827331543e-01 -3.973062708973884583e-02
8.520000000000000000e+02 4.876192474365234375e+01 3.704764556884765625e+01 -4.506738781929016113e-01 5.753017425537109375e+00 1.590703010559082031e+00 -4.955169558525085449e-02
8.530000000000000000e+02 6.746835327148437500e+01 4.069734191894531250e+01 -2.020265460014343262e-01 7.980669498443603516e+00 2.333592891693115234e+00 4.540171846747398376e-02
8.540000000000000000e+02 1.122765183448791504e+00 1.935292601585388184e+00 -1.945976237038848922e-06 3.058515139855444431e-04 9.117166337091475725e-05 -7.408564852084964514e-05
8.550000000000000000e+02 3.184214830398559570e+00 2.658623933792114258e+00 2.755107998382300138e-04 3.744922869373112917e-04 1.950009318534284830e-04 -2.353856834815815091e-04
8.560000000000000000e+02 5.289533615112304688e+00 2.548913478851318359e+00 -5.561360740102827549e-05 -5.692598642781376839e-04 -1.874620502348989248e-04 -5.881528068130137399e-06
8.570000000000000000e+02 1.767463564872741699e+00 6.244159221649169922e+00 -6.051536183804273605e-04 1.875477391877211630e-05 -1.759196456987410784e-04 5.167710696696303785e-05
8.580000000000000000e+02 5.930982232093811035e-01 9.201702117919921875e+00 5.622669705189764500e-04 8.224477642215788364e-04 4.154144262429326773e-04 -3.239618672523647547e-04
8.590000000000000000e+02 6.023617386817932129e-01 1.201763534545898438e+01 5.537770921364426613e-04 5.947912577539682388e-03 1.950506935827434063e-03 -1.736881327815353870e-03
8.600000000000000000e+02 1.816483020782470703e+00 1.183588314056396484e+01 1.091951620765030384e-03 1.769651658833026886e-03 8.584809838794171810e-04 -4.230928141623735428e-03
8.610000000000000000e+02 6.259124279022216797e-01 1.765547370910644531e+01 -2.454091794788837433e-03 3.693498298525810242e-02 1.034426689147949219e-02 -1.011509215459227562e-03
8.620000000000000000e+02 7.732628345489501953e+00 1.846434402465820312e+01 -2.293914258480072021e-01 5.313713476061820984e-02 -5.287628993391990662e-02 3.116579726338386536e-02
8.630000000000000000e+02 5.865215063095092773e-01 2.191738700866699219e+01 -5.048442631959915161e-03 -4.175183176994323730e-02 -1.404008176177740097e-02 2.680739015340805054e-02
8.640000000000000000e+02 6.240971684455871582e-01 2.333407402038574219e+01 -3.993743099272251129e-03 -1.167277693748474121e-01 -3.621645271778106689e-02 3.709915280342102051e-02
8.650000000000000000e+02 6.324245929718017578e-01 2.477148056030273438e+01 -2.905584638938307762e-03 -2.091177701950073242e-01 -6.360700726509094238e-02 4.470761120319366455e-02
8.660000000000000000e+02 6.734552979469299316e-01 2.901844596862792969e+01 -1.565514598041772842e-03 -5.193150639533996582e-01 -1.562641710042953491e-01 4.627460613846778870e-02
8.670000000000000000e+02 6.994591951370239258e-01 3.042951583862304688e+01 2.260334324091672897e-03 -6.139459609985351562e-01 -1.835056841373443604e-01 4.528221115469932556e-02
8.680000000000000000e+02 2.099435806274414062e+00 3.031314849853515625e+01 7.203708402812480927e-03 -5.261225104331970215e-01 -1.556756347417831421e-01 1.235973984003067017e-01
8.690000000000000000e+02 7.256419062614440918e-01 3.184625816345214844e+01 2.691712230443954468e-03 -6.990709900856018066e-01 -2.089137881994247437e-01 4.038538783788681030e-02
8.700000000000000000e+02 7.067292332649230957e-01 3.605207061767578125e+01 -3.964708186686038971e-03 -8.611109256744384766e-01 -2.595226764678955078e-01 1.726032048463821411e-02
8.710000000000000000e+02 2.331939458847045898e+00 3.821434783935546875e+01 3.306997567415237427e-02 -7.660282850265502930e-01 -2.198874950408935547e-01 9.096311405301094055e-03
8.720000000000000000e+02 8.701981902122497559e-01 3.876184463500976562e+01 -9.923624806106090546e-03 -8.715162277221679688e-01 -2.644319534301757812e-01 -3.214585594832897186e-03
8.730000000000000000e+02 1.245186209678649902e+00 4.010697937011718750e+01 2.184953726828098297e-02 -8.518047332763671875e-01 -2.489865571260452271e-01 -1.957543939352035522e-02
8.740000000000000000e+02 1.037245273590087891e+01 1.849663496017456055e+00 -3.493219555821269751e-04 -2.022524859057739377e-04 -1.654723309911787510e-04 -3.448435163591057062e-04
8.750000000000000000e+02 8.907040596008300781e+00 1.863565921783447266e+00 -2.574424433987587690e-04 -3.723829577211290598e-04 -1.889476261567324400e-04 -3.537440788932144642e-04
8.760000000000000000e+02 8.189816474914550781e+00 1.861709713935852051e+00 1.654129446251317859e-04 4.471873398870229721e-04 1.837800809880718589e-04 3.096523287240415812e-04
8.770000000000000000e+02 7.476892948150634766e+00 1.857949256896972656e+00 -1.944802352227270603e-04 -4.773629480041563511e-04 -2.015529607888311148e-04 -2.647782384883612394e-04
8.780000000000000000e+02 5.347046852111816406e+00 1.850143909454345703e+00 8.017790969461202621e-05 5.552052170969545841e-04 1.906149263959378004e-04 1.792586590454448014e-05
8.790000000000000000e+02 4.634348392486572266e+00 1.856057167053222656e+00 -1.212128845509141684e-04 -5.160974687896668911e-04 -1.911931030917912722e-04 1.092271413654088974e-04
8.800000000000000000e+02 3.920604944229125977e+00 1.867405414581298828e+00 1.158813684014603496e-04 4.941942170262336731e-04 1.830226683523505926e-04 -1.348713121842592955e-04
8.810000000000000000e+02 3.210242986679077148e+00 1.878689169883728027e+00 -2.186371712014079094e-04 -3.968489472754299641e-04 -1.846458326326683164e-04 2.072109055006876588e-04
8.820000000000000000e+02 2.510115861892700195e+00 1.881338000297546387e+00 1.851220440585166216e-04 3.583583747968077660e-04 1.630441256565973163e-04 -7.198565435828641057e-05
8.830000000000000000e+02 1.816929817199707031e+00 1.883358359336853027e+00 -1.241180289071053267e-04 -3.454499237705022097e-04 -1.408703828928992152e-04 1.053290907293558121e-04
8.840000000000000000e+02 1.263401603698730469e+01 1.760218739509582520e+00 2.675874275155365467e-04 6.372467760229483247e-05 9.939363371813669801e-05 -1.542852805869188160e-05
8.850000000000000000e+02 1.331482315063476562e+01 1.737434983253479004e+00 -2.975411480292677879e-04 -1.522252277936786413e-04 -1.349299127468839288e-04 -1.547137944726273417e-04
8.860000000000000000e+02 1.513076114654541016e+01 1.858764410018920898e+00 2.419562661089003086e-04 2.609780058264732361e-04 1.508802815806120634e-04 1.603853161213919520e-04
8.870000000000000000e+02 1.325291156768798828e+01 2.469094753265380859e+00 2.262374764541164041e-04 2.027324953814968467e-04 1.286909973714500666e-04 -1.348016667179763317e-04
8.880000000000000000e+02 1.475458526611328125e+01 3.606798648834228516e+00 -8.048886666074395180e-04 -3.679877409012988210e-05 -2.525062300264835358e-04 -3.913014734280295670e-05
8.890000000000000000e+02 1.404551506042480469e+01 7.555271148681640625e+00 2.024687360972166061e-03 2.137080446118488908e-04 6.715186173096299171e-04 6.541834445670247078e-04
8.900000000000000000e+02 1.350613021850585938e+01 8.819009780883789062e+00 -2.372521674260497093e-03 -6.650116993114352226e-04 -9.112600237131118774e-04 -9.032360394485294819e-04
8.910000000000000000e+02 1.287327957153320312e+01 1.005013751983642578e+01 2.625432331115007401e-03 7.659356342628598213e-04 1.017410424537956715e-03 1.398305408656597137e-03
8.920000000000000000e+02 1.026204490661621094e+01 1.170228099822998047e+01 -1.676023821346461773e-03 -3.672558523248881102e-04 -6.129838875494897366e-04 -1.419556327164173126e-03
8.930000000000000000e+02 9.375227928161621094e+00 1.275130653381347656e+01 1.075234496966004372e-03 3.155177924782037735e-03 1.269123749807476997e-03 1.913319458253681660e-03
8.940000000000000000e+02 8.450016021728515625e+00 1.557826805114746094e+01 -2.298088278621435165e-03 3.105303645133972168e-02 8.626484312117099762e-03 -6.504152435809373856e-03
8.950000000000000000e+02 1.585407733917236328e+01 1.616988754272460938e+01 -6.073541641235351562e-01 -8.648537993431091309e-01 -4.416623711585998535e-01 5.410767197608947754e-01
8.960000000000000000e+02 1.650981712341308594e+01 1.304564952850341797e+01 -4.110834598541259766e-01 -1.327351450920104980e+00 -5.215304493904113770e-01 6.860066056251525879e-01
8.970000000000000000e+02 1.776939010620117188e+01 1.045553112030029297e+01 -2.659639716148376465e-01 -1.461544752120971680e+00 -5.182526111602783203e-01 5.204693078994750977e-01
8.980000000000000000e+02 1.842784118652343750e+01 7.627531051635742188e+00 -8.635631203651428223e-02 -1.375061750411987305e+00 -4.384254217147827148e-01 3.007174730300903320e-01
8.990000000000000000e+02 1.874966812133789062e+01 4.852033615112304688e+00 -4.693216085433959961e-02 -1.225684404373168945e+00 -3.817849755287170410e-01 1.798729747533798218e-01
9.000000000000000000e+02 1.924277877807617188e+01 -3.780316591262817383e+00 -1.833579130470752716e-02 -9.966990351676940918e-02 -3.540170937776565552e-02 6.716455519199371338e-02
9.010000000000000000e+02 1.910184860229492188e+01 -2.625459909439086914e+00 -1.254243310540914536e-02 -1.843067854642868042e-01 -5.905476585030555725e-02 7.512961328029632568e-02
9.020000000000000000e+02 2.011774253845214844e+01 -4.020479202270507812e+00 -5.839399248361587524e-02 -8.974367380142211914e-02 -4.444129765033721924e-02 1.139235571026802063e-01
9.030000000000000000e+02 2.092267227172851562e+01 -4.194492816925048828e+00 -9.353370219469070435e-02 -8.894511312246322632e-02 -5.474364385008811951e-02 1.513430178165435791e-01
9.040000000000000000e+02 2.306705284118652344e+01 -4.577681541442871094e+00 -2.493587434291839600e-01 -5.866833403706550598e-02 -9.240812063217163086e-02 2.265138626098632812e-01
9.050000000000000000e+02 2.449363136291503906e+01 -4.741911411285400391e+00 -3.770420849323272705e-01 -3.672812134027481079e-02 -1.241310611367225647e-01 2.513354420661926270e-01
9.060000000000000000e+02 2.521232414245605469e+01 -4.804977416992187500e+00 -4.470443129539489746e-01 -2.439511939883232117e-02 -1.414318233728408813e-01 2.590591013431549072e-01
9.070000000000000000e+02 2.593171119689941406e+01 -4.862642288208007812e+00 -5.181854367256164551e-01 -1.542246900498867035e-02 -1.600823700428009033e-01 2.626381218433380127e-01
9.080000000000000000e+02 2.811012649536132812e+01 -4.943666458129882812e+00 -7.316610217094421387e-01 8.827004581689834595e-03 -2.168502062559127808e-01 2.594545483589172363e-01
9.090000000000000000e+02 2.884013557434082031e+01 -4.958977222442626953e+00 -8.015767335891723633e-01 1.364616956561803818e-02 -2.363791614770889282e-01 2.529953420162200928e-01
9.100000000000000000e+02 3.192076301574707031e+01 -4.293248653411865234e+00 -7.695137858390808105e-01 5.117184668779373169e-02 -2.155025750398635864e-01 2.286388128995895386e-01
9.110000000000000000e+02 3.104922866821289062e+01 -4.957201480865478516e+00 -9.822710752487182617e-01 2.697521261870861053e-02 -2.865887582302093506e-01 2.226688861846923828e-01
9.120000000000000000e+02 3.178919792175292969e+01 -4.952748775482177734e+00 -1.031201958656311035e+00 2.826783619821071625e-02 -3.008802235126495361e-01 2.072277367115020752e-01
9.130000000000000000e+02 3.339858627319335938e+01 -4.296448707580566406e+00 -7.666496634483337402e-01 6.610788404941558838e-02 -2.101625353097915649e-01 1.626421362161636353e-01
9.140000000000000000e+02 3.476225662231445312e+01 -4.915750980377197266e+00 -1.097822427749633789e+00 4.028115794062614441e-02 -3.172623813152313232e-01 1.083000153303146362e-01
9.150000000000000000e+02 3.771842575073242188e+01 -4.886762142181396484e+00 -7.138864398002624512e-01 8.661634474992752075e-02 -1.881810277700424194e-01 -1.349167227745056152e-01
9.160000000000000000e+02 3.958412933349609375e+01 -4.861459732055664062e+00 1.417933851480484009e-01 2.648395597934722900e-01 1.219898834824562073e-01 -6.300859451293945312e-01
9.170000000000000000e+02 3.902361297607421875e+01 -4.404368400573730469e+00 3.837751150131225586e-01 3.669815361499786377e-01 2.252269983291625977e-01 -6.966747045516967773e-01
9.180000000000000000e+02 4.072813415527343750e+01 -4.833730220794677734e+00 1.159980893135070801e+00 7.010456323623657227e-01 5.583079457283020020e-01 -1.383029341697692871e+00
9.190000000000000000e+02 4.220950698852539062e+01 -4.846534252166748047e+00 3.523273468017578125e+00 2.623790740966796875e+00 1.844119191169738770e+00 -3.719293117523193359e+00
9.200000000000000000e+02 4.460548400878906250e+01 -4.880553245544433594e+00 2.325741291046142578e+00 2.016355323791503906e+01 6.746788501739501953e+00 -2.327538251876831055e+00
9.210000000000000000e+02 4.537015533447265625e+01 -5.288359642028808594e+00 6.079249382019042969e+00 1.933411216735839844e+01 7.624008655548095703e+00 2.023036003112792969e+00
9.220000000000000000e+02 4.563524627685546875e+01 -5.679308414459228516e+00 9.097181320190429688e+00 1.778423690795898438e+01 8.064425468444824219e+00 2.409863233566284180e+00
9.230000000000000000e+02 4.570679473876953125e+01 -6.969290256500244141e+00 1.078999805450439453e+01 1.702613067626953125e+01 8.344839096069335938e+00 -2.114131689071655273e+00
9.240000000000000000e+02 4.447945785522460938e+01 -8.073390960693359375e+00 1.795334815979003906e+00 2.001082801818847656e+01 6.541848659515380859e+00 3.007762670516967773e+00
9.250000000000000000e+02 4.284222412109375000e+01 -8.183335304260253906e+00 3.471980094909667969e+00 5.516352653503417969e+00 2.696499824523925781e+00 5.394268035888671875e+00
9.260000000000000000e+02 4.388239669799804688e+01 -8.168432235717773438e+00 2.195742607116699219e+00 1.533649635314941406e+01 5.259671688079833984e+00 6.242413997650146484e+00
9.270000000000000000e+02 4.324665069580078125e+01 -8.197304725646972656e+00 3.358217477798461914e+00 8.470638275146484375e+00 3.548656940460205078e+00 6.348216056823730469e+00
9.280000000000000000e+02 4.263496017456054688e+01 -8.187322616577148438e+00 3.479022264480590820e+00 4.379722595214843750e+00 2.357623577117919922e+00 4.885218143463134766e+00
9.290000000000000000e+02 4.158940887451171875e+01 -8.233444213867187500e+00 1.785454511642456055e+00 1.500917077064514160e+00 9.859114885330200195e-01 2.403248786926269531e+00
9.300000000000000000e+02 4.115697097778320312e+01 -8.238517761230468750e+00 1.296031475067138672e+00 9.565072059631347656e-01 6.757615804672241211e-01 1.877381801605224609e+00
9.310000000000000000e+02 3.996308135986328125e+01 -8.340328216552734375e+00 1.378795057535171509e-01 4.289140403270721436e-01 1.700380593538284302e-01 9.209743738174438477e-01
9.320000000000000000e+02 3.773999404907226562e+01 -8.435766220092773438e+00 -1.122336149215698242e+00 1.250242590904235840e-01 -2.991935908794403076e-01 2.134106904268264771e-01
9.330000000000000000e+02 3.474264907836914062e+01 -8.551343917846679688e+00 -1.650721669197082520e+00 3.318200632929801941e-02 -4.852619171142578125e-01 -6.845285743474960327e-02
9.340000000000000000e+02 3.699250411987304688e+01 -8.466770172119140625e+00 -1.326475739479064941e+00 9.255720674991607666e-02 -3.701755702495574951e-01 1.174532771110534668e-01
9.350000000000000000e+02 3.848543548583984375e+01 -8.404572486877441406e+00 -8.279986381530761719e-01 1.739743500947952271e-01 -1.962072849273681641e-01 3.731043636798858643e-01
9.360000000000000000e+02 3.549428558349609375e+01 -8.525402069091796875e+00 -1.581071734428405762e+00 4.415979236364364624e-02 -4.610735774040222168e-01 -2.335219644010066986e-02
9.370000000000000000e+02 3.398932647705078125e+01 -8.575001716613769531e+00 -1.696102380752563477e+00 1.818889752030372620e-02 -5.033740401268005371e-01 -1.051442474126815796e-01
9.380000000000000000e+02 3.248138046264648438e+01 -8.618618965148925781e+00 -1.720199823379516602e+00 2.114400966092944145e-03 -5.154256224632263184e-01 -1.574092060327529907e-01
9.390000000000000000e+02 2.944064331054687500e+01 -8.661176681518554688e+00 -1.598323225975036621e+00 -1.138828229159116745e-02 -4.829134345054626465e-01 -2.146630436182022095e-01
9.400000000000000000e+02 3.020209693908691406e+01 -8.654047012329101562e+00 -1.646118998527526855e+00 -7.939838804304599762e-03 -4.962176680564880371e-01 -2.012612521648406982e-01
9.410000000000000000e+02 2.713389968872070312e+01 -8.625276565551757812e+00 -1.397281169891357422e+00 -1.405510702170431614e-03 -4.196060001850128174e-01 -2.403381913900375366e-01
9.420000000000000000e+02 2.636296081542968750e+01 -8.603212356567382812e+00 -1.312622070312500000e+00 2.795982640236616135e-03 -3.929478228092193604e-01 -2.519501745700836182e-01
9.430000000000000000e+02 2.324964141845703125e+01 -8.390177726745605469e+00 -9.143987894058227539e-01 4.235672578215599060e-02 -2.616126239299774170e-01 -2.847655713558197021e-01
9.440000000000000000e+02 2.085047912597656250e+01 -8.150801658630371094e+00 -5.797787904739379883e-01 4.598638415336608887e-02 -1.601377129554748535e-01 -2.781336903572082520e-01
9.450000000000000000e+02 2.002596282958984375e+01 -8.001685142517089844e+00 -4.603694677352905273e-01 2.079672738909721375e-02 -1.318718194961547852e-01 -2.595660984516143799e-01
9.460000000000000000e+02 1.821381759643554688e+01 -7.308687210083007812e+00 -1.227958723902702332e-01 -9.337253868579864502e-02 -6.485052406787872314e-02 -1.050674021244049072e-01
9.470000000000000000e+02 1.787183189392089844e+01 -7.287174224853515625e+00 -1.073765233159065247e-01 -7.522452622652053833e-02 -5.478031560778617859e-02 -1.051729768514633179e-01
9.480000000000000000e+02 4.336094284057617188e+01 -4.863661289215087891e+00 3.891638278961181641e+00 9.621854782104492188e+00 4.054048061370849609e+00 -6.823625564575195312e+00
9.490000000000000000e+02 4.368920898437500000e+01 -4.573844909667968750e+00 2.666421413421630859e+00 1.280110836029052734e+01 4.640259265899658203e+00 -6.310545921325683594e+00
9.500000000000000000e+02 4.467335510253906250e+01 -8.021693229675292969e+00 2.162250757217407227e+00 2.033521842956542969e+01 6.749240398406982422e+00 1.766570806503295898e+00
9.510000000000000000e+02 4.490563964843750000e+01 -4.680662155151367188e+00 2.490037918090820312e+00 1.905805778503417969e+01 6.464428901672363281e+00 -1.020686030387878418e+00
9.520000000000000000e+02 4.487936401367187500e+01 -7.972955703735351562e+00 2.790116786956787109e+00 2.057569694519042969e+01 7.009743690490722656e+00 4.161368012428283691e-01
9.530000000000000000e+02 4.518630218505859375e+01 -5.155805110931396484e+00 4.901545524597167969e+00 2.001848411560058594e+01 7.476008892059326172e+00 1.379584550857543945e+00
9.540000000000000000e+02 4.525563049316406250e+01 -7.737329483032226562e+00 5.187319755554199219e+00 1.996310806274414062e+01 7.545128345489501953e+00 -1.834485650062561035e+00
9.550000000000000000e+02 4.598385620117187500e+01 -5.456336021423339844e+00 7.645364284515380859e+00 1.629492759704589844e+01 7.182087898254394531e+00 2.201167821884155273e+00
9.560000000000000000e+02 4.609902572631835938e+01 -6.043834686279296875e+00 9.980236053466796875e+00 1.527490711212158203e+01 7.576542854309082031e+00 1.235906600952148438e+00
9.570000000000000000e+02 4.639097213745117188e+01 -6.440004825592041016e+00 9.676357269287109375e+00 1.421445083618164062e+01 7.167242527008056641e+00 -3.266067011281847954e-03
9.580000000000000000e+02 4.610585784912109375e+01 -6.389711856842041016e+00 1.064680957794189453e+01 1.521393871307373047e+01 7.758224487304687500e+00 1.913981586694717407e-01
9.590000000000000000e+02 4.576923751831054688e+01 -6.131483078002929688e+00 1.125392055511474609e+01 1.654975318908691406e+01 8.341101646423339844e+00 1.325224280357360840e+00
9.600000000000000000e+02 4.479827117919921875e+01 -4.971356868743896484e+00 2.948829174041748047e+00 2.073060035705566406e+01 7.103828907012939453e+00 -8.936967253684997559e-01
9.610000000000000000e+02 4.557579040527343750e+01 -7.400065422058105469e+00 8.037194252014160156e+00 1.831187629699707031e+01 7.904721260070800781e+00 -2.668848514556884766e+00
9.620000000000000000e+02 4.605131149291992188e+01 -7.240624427795410156e+00 8.681184768676757812e+00 1.592244815826416016e+01 7.381089687347412109e+00 -2.133074045181274414e+00
9.630000000000000000e+02 4.439673995971679688e+01 -4.798592567443847656e+00 2.062233448028564453e+00 1.876721763610839844e+01 6.248835086822509766e+00 -3.788025856018066406e+00
9.640000000000000000e+02 4.379928207397460938e+01 -8.614006042480468750e+00 1.755745291709899902e+00 1.315015411376953125e+01 4.471769809722900391e+00 5.600864887237548828e+00
9.650000000000000000e+02 4.335422515869140625e+01 -8.522703170776367188e+00 2.690393686294555664e+00 9.919428825378417969e+00 3.782946586608886719e+00 6.232097625732421875e+00
9.660000000000000000e+02 4.181531524658203125e+01 -8.277666091918945312e+00 2.233405590057373047e+00 2.130475759506225586e+00 1.309164404869079590e+00 2.948198795318603516e+00
9.670000000000000000e+02 4.067256546020507812e+01 -8.308104515075683594e+00 7.453540563583374023e-01 8.014603257179260254e-01 4.640443027019500732e-01 1.478044629096984863e+00
9.680000000000000000e+02 4.205073928833007812e+01 -8.252018928527832031e+00 2.592959880828857422e+00 2.524762153625488281e+00 1.535316705703735352e+00 3.341192245483398438e+00
9.690000000000000000e+02 4.292784881591796875e+01 -8.469569206237792969e+00 3.178682565689086914e+00 6.893766403198242188e+00 3.021734714508056641e+00 5.729646682739257812e+00
9.700000000000000000e+02 4.254182434082031250e+01 -8.488542556762695312e+00 3.142650604248046875e+00 4.719708919525146484e+00 2.358707904815673828e+00 4.861663818359375000e+00
9.710000000000000000e+02 4.114010620117187500e+01 -4.816593170166015625e+00 1.803130269050598145e+00 9.266005754470825195e-01 8.189192414283752441e-01 -1.817211985588073730e+00
9.720000000000000000e+02 4.199368286132812500e+01 -4.847706317901611328e+00 3.074033737182617188e+00 2.112908363342285156e+00 1.556082725524902344e+00 -3.135966062545776367e+00
9.730000000000000000e+02 4.315744400024414062e+01 -4.869898319244384766e+00 4.230398178100585938e+00 7.802000522613525391e+00 3.609719514846801758e+00 -6.543569564819335938e+00
9.740000000000000000e+02 4.241696166992187500e+01 -4.871153831481933594e+00 3.773146390914916992e+00 3.205424070358276367e+00 2.093571186065673828e+00 -4.191462993621826172e+00
9.750000000000000000e+02 4.269806289672851562e+01 -4.745814800262451172e+00 3.996145248413085938e+00 5.011449337005615234e+00 2.702278375625610352e+00 -5.162147521972656250e+00
9.760000000000000000e+02 4.288140487670898438e+01 -4.647724628448486328e+00 3.896971940994262695e+00 6.282748699188232422e+00 3.053916215896606445e+00 -5.697359085083007812e+00
9.770000000000000000e+02 4.356239318847656250e+01 -4.859139442443847656e+00 3.549405097961425781e+00 1.154454517364501953e+01 4.528185367584228516e+00 -6.981377124786376953e+00
9.780000000000000000e+02 4.417305374145507812e+01 -4.772912025451660156e+00 2.108672142028808594e+00 1.742899513244628906e+01 5.861299991607666016e+00 -4.930550098419189453e+00
9.790000000000000000e+02 4.177888488769531250e+01 -4.861977100372314453e+00 2.696121692657470703e+00 1.677901029586791992e+00 1.312206864356994629e+00 -2.675994157791137695e+00
9.800000000000000000e+02 4.157718276977539062e+01 -4.884941577911376953e+00 2.487689495086669922e+00 1.273057460784912109e+00 1.128224015235900879e+00 -2.302230358123779297e+00
9.810000000000000000e+02 4.352052307128906250e+01 -4.613567829132080078e+00 3.120319128036499023e+00 1.127874374389648438e+01 4.319718837738037109e+00 -6.552703857421875000e+00
9.820000000000000000e+02 1.452239131927490234e+01 1.738527536392211914e+00 -8.424145198659971356e-05 -1.317162095801904798e-04 -6.478729483205825090e-05 5.902747579966671765e-05
9.830000000000000000e+02 1.463129615783691406e+01 2.561890363693237305e+00 4.256364773027598858e-04 -2.110112691298127174e-04 6.438756099669262767e-05 -1.825650979299098253e-04
9.840000000000000000e+02 1.188680553436279297e+01 1.792992234230041504e+00 -4.285311733838170767e-04 -2.350457907596137375e-05 -1.356107241008430719e-04 -1.831324334489181638e-04
9.850000000000000000e+02 3.899119949340820312e+01 -4.868172168731689453e+00 -2.362967580556869507e-01 1.919586658477783203e-01 -1.330142654478549957e-02 -4.583028256893157959e-01
9.860000000000000000e+02 3.706626510620117188e+01 -4.371703624725341797e+00 -3.846571445465087891e-01 1.341504007577896118e-01 -7.515202462673187256e-02 -1.762327700853347778e-01
9.870000000000000000e+02 4.016627120971679688e+01 -4.852135181427001953e+00 5.972180962562561035e-01 3.576883375644683838e-01 2.864719331264495850e-01 -9.548025131225585938e-01
9.880000000000000000e+02 1.446669101715087891e+01 -3.375935792922973633e+00 9.966331163013819605e-06 3.162662032991647720e-04 9.786975715542212129e-05 -7.906706741778180003e-05
9.890000000000000000e+02 1.384731864929199219e+01 -2.968948841094970703e+00 7.478291081497445703e-05 -1.930835860548540950e-04 -3.549020402715541422e-05 -1.561086173751391470e-05
9.900000000000000000e+02 1.878528785705566406e+01 -8.328859329223632812e+00 -3.534373044967651367e-01 -5.269412696361541748e-02 -1.218394339084625244e-01 -2.709201872348785400e-01
9.910000000000000000e+02 1.869527816772460938e+01 -9.524827957153320312e+00 -4.486456513404846191e-01 -1.346415728330612183e-01 -1.749861687421798706e-01 -4.173080027103424072e-01
9.920000000000000000e+02 3.190569877624511719e+00 3.479781150817871094e+00 -1.585831196280196309e-04 -4.235654778312891722e-04 -1.746445777826011181e-04 3.583889047149568796e-04
9.930000000000000000e+02 9.527390480041503906e+00 2.602350473403930664e+00 -3.080253372900187969e-04 -4.656916134990751743e-04 -2.321150823263451457e-04 -4.212878702674061060e-04
9.940000000000000000e+02 7.369784832000732422e+00 2.583040952682495117e+00 1.987426658160984516e-04 6.085652858018875122e-04 2.421923854853957891e-04 3.017760755028575659e-04
9.950000000000000000e+02 6.766502857208251953e+00 1.853351593017578125e+00 1.077855122275650501e-04 5.322562647052109241e-04 1.920125359902158380e-04 1.989403681363910437e-04
9.960000000000000000e+02 6.672740936279296875e+00 2.567577838897705078e+00 -1.021302450681105256e-04 -5.925395525991916656e-04 -2.084009320242330432e-04 -2.088747423840686679e-04
9.970000000000000000e+02 7.938676357269287109e+00 3.354713201522827148e+00 3.231405862607061863e-04 6.892507662996649742e-04 3.037173883058130741e-04 3.392721409909427166e-04
9.980000000000000000e+02 5.751946926116943359e+00 3.959652185440063477e+00 2.206803474109619856e-04 6.158109754323959351e-04 2.509473997633904219e-04 4.126623389311134815e-05
9.990000000000000000e+02 1.871477961540222168e+00 7.661635875701904297e+00 1.182492356747388840e-03 1.342236937489360571e-04 3.950147947762161493e-04 -4.706593172159045935e-04
1.000000000000000000e+03 1.707704305648803711e+00 3.319433689117431641e+00 -3.343671560287475586e-04 1.416773156961426139e-04 -5.780695209978148341e-05 -1.039083363139070570e-04
1.001000000000000000e+03 1.864305615425109863e+00 2.623728990554809570e+00 1.980378729058429599e-04 2.577394770924001932e-04 1.367332006338983774e-04 5.899931420572102070e-05
1.002000000000000000e+03 1.296376228332519531e+00 2.715170383453369141e+00 5.909536048420704901e-05 -3.733737685251981020e-04 -9.428352495888248086e-05 1.546258863527327776e-04
1.003000000000000000e+03 1.113000869750976562e+01 1.823327183723449707e+00 3.329463070258498192e-04 1.328955258941277862e-04 1.397525484208017588e-04 2.338657650398090482e-04
1.004000000000000000e+03 8.660134315490722656e+00 3.363970756530761719e+00 -2.553010708652436733e-04 -6.486706552095711231e-04 -2.711915003601461649e-04 -3.537242882885038853e-04
1.005000000000000000e+03 2.665441131591796875e+01 -4.902544975280761719e+00 -5.902343988418579102e-01 -5.655422341078519821e-03 -1.787669509649276733e-01 2.641198039054870605e-01
1.006000000000000000e+03 2.582108116149902344e+01 -2.765877008438110352e+00 -2.562910616397857666e-01 -3.349691256880760193e-02 -8.693639189004898071e-02 3.866962194442749023e-01
1.007000000000000000e+03 2.329466438293457031e+01 -3.846237659454345703e+00 -2.252584546804428101e-01 -7.906904071569442749e-02 -9.129825234413146973e-02 2.850050628185272217e-01
1.008000000000000000e+03 2.612196731567382812e+01 -4.171916961669921875e+00 -4.442218542098999023e-01 -1.715219393372535706e-02 -1.384122073650360107e-01 3.200619816780090332e-01
1.009000000000000000e+03 2.399296188354492188e+01 -3.952989339828491211e+00 -2.758313715457916260e-01 -6.390910595655441284e-02 -1.019221395254135132e-01 2.994114756584167480e-01
1.010000000000000000e+03 2.422131919860839844e+01 -3.239796400070190430e+00 -2.364521771669387817e-01 -7.453695684671401978e-02 -9.329674392938613892e-02 3.466598093509674072e-01
1.011000000000000000e+03 2.235720062255859375e+01 -4.456211090087890625e+00 -1.921523362398147583e-01 -6.864649057388305664e-02 -7.823964953422546387e-02 2.078630477190017700e-01
1.012000000000000000e+03 2.259485435485839844e+01 -3.715706348419189453e+00 -1.755806505680084229e-01 -9.842883050441741943e-02 -8.220284432172775269e-02 2.658523023128509521e-01
1.013000000000000000e+03 2.957301902770996094e+01 -4.964692592620849609e+00 -8.673193454742431641e-01 1.986149139702320099e-02 -2.542373538017272949e-01 2.450056225061416626e-01
1.014000000000000000e+03 2.683640861511230469e+01 -4.216088294982910156e+00 -4.989252686500549316e-01 -6.161928642541170120e-03 -1.515261679887771606e-01 3.193387091159820557e-01
1.015000000000000000e+03 2.858197975158691406e+01 -2.931366205215454102e+00 -3.414198160171508789e-01 4.195537418127059937e-02 -8.983933180570602417e-02 3.517987132072448730e-01
1.016000000000000000e+03 2.755278587341308594e+01 -4.246275424957275391e+00 -5.524536371231079102e-01 5.740190390497446060e-03 -1.640140265226364136e-01 3.163590431213378906e-01
1.017000000000000000e+03 3.253084564208984375e+01 -4.944675445556640625e+00 -1.069058299064636230e+00 3.427071869373321533e-02 -3.104362785816192627e-01 1.884177923202514648e-01
1.018000000000000000e+03 3.058265876770019531e+01 -3.619599819183349609e+00 -5.239812731742858887e-01 5.727159604430198669e-02 -1.400129050016403198e-01 2.847027778625488281e-01
1.019000000000000000e+03 3.225298690795898438e+01 -2.310413122177124023e+00 -6.396710872650146484e-02 1.860270649194717407e-01 3.661798313260078430e-02 1.265156567096710205e-01
1.020000000000000000e+03 2.971863365173339844e+01 -4.287376880645751953e+00 -6.899726986885070801e-01 2.985302358865737915e-02 -1.980359107255935669e-01 2.887865304946899414e-01
1.021000000000000000e+03 1.347095108032226562e+01 -4.836174964904785156e+00 -1.393342390656471252e-04 -7.198344974312931299e-05 -6.339530227705836296e-05 1.326188503298908472e-04
1.022000000000000000e+03 1.288963508605957031e+01 -5.956783771514892578e+00 3.242007514927536249e-04 7.579334487672895193e-05 1.199982361868023872e-04 -2.360682992730289698e-04
1.023000000000000000e+03 1.332852172851562500e+01 -2.568755388259887695e+00 6.242529343580827117e-05 1.839840988395735621e-04 7.392281986540183425e-05 2.113524351443629712e-05
1.024000000000000000e+03 8.037654876708984375e+00 -2.648495197296142578e+00 -1.168224189314059913e-04 1.278914423892274499e-04 3.320708628962165676e-06 -2.607450005598366261e-04
1.025000000000000000e+03 3.265845489501953125e+01 -4.294629573822021484e+00 -7.763048410415649414e-01 5.569154769182205200e-02 -2.161839902400970459e-01 1.995007246732711792e-01
1.026000000000000000e+03 3.550540924072265625e+01 -4.909060478210449219e+00 -1.065506100654602051e+00 5.217420309782028198e-02 -3.039995431900024414e-01 6.568047404289245605e-02
1.027000000000000000e+03 3.413988113403320312e+01 -4.302217960357666016e+00 -7.436745762825012207e-01 7.102959603071212769e-02 -2.017935067415237427e-01 1.196641847491264343e-01
1.028000000000000000e+03 3.624792480468750000e+01 -4.902248859405517578e+00 -1.001144647598266602e+00 5.154546350240707397e-02 -2.848797440528869629e-01 2.003284357488155365e-02
1.029000000000000000e+03 3.487999343872070312e+01 -4.313487052917480469e+00 -6.965843439102172852e-01 8.602765202522277832e-02 -1.831669956445693970e-01 6.354307383298873901e-02
1.030000000000000000e+03 3.912239074707031250e+01 -8.952792167663574219e+00 1.481088697910308838e-01 4.977390468120574951e-01 1.937543749809265137e-01 9.398229122161865234e-01
1.031000000000000000e+03 3.982888031005859375e+01 -8.912211418151855469e+00 6.029206514358520508e-01 7.786808013916015625e-01 4.144804477691650391e-01 1.350696802139282227e+00
1.032000000000000000e+03 3.839525222778320312e+01 -8.999651908874511719e+00 -2.584018409252166748e-01 3.527504503726959229e-01 2.830458618700504303e-02 6.446029543876647949e-01
1.033000000000000000e+03 3.561628723144531250e+01 -4.330158710479736328e+00 -6.289995312690734863e-01 9.244161844253540039e-02 -1.609673798084259033e-01 3.884977428242564201e-03
1.034000000000000000e+03 3.634601974487304688e+01 -4.350281715393066406e+00 -5.243682861328125000e-01 1.186457127332687378e-01 -1.217167750000953674e-01 -8.127925544977188110e-02
1.035000000000000000e+03 3.841991424560546875e+01 -4.397485733032226562e+00 4.719165712594985962e-02 2.615672945976257324e-01 9.262768924236297607e-02 -4.888666868209838867e-01
1.036000000000000000e+03 3.776681518554687500e+01 -4.388377189636230469e+00 -1.671813279390335083e-01 1.988819986581802368e-01 9.510200470685958862e-03 -3.210807442665100098e-01
1.037000000000000000e+03 3.691699218750000000e+01 -9.097003936767578125e+00 -7.799615263938903809e-01 1.904986202716827393e-01 -1.768388599157333374e-01 2.897196710109710693e-01
1.038000000000000000e+03 3.831045532226562500e+01 -9.609978675842285156e+00 1.896480768918991089e-01 5.699047446250915527e-01 2.278658598661422729e-01 9.295496940612792969e-01
1.039000000000000000e+03 3.542176055908203125e+01 -9.187315940856933594e+00 -1.086521267890930176e+00 1.082858517765998840e-01 -2.934706509113311768e-01 8.341418206691741943e-02
1.040000000000000000e+03 3.323567962646484375e+01 -8.597511291503906250e+00 -1.717046737670898438e+00 1.233702432364225388e-02 -5.114129185676574707e-01 -1.326289921998977661e-01
1.041000000000000000e+03 3.617118453979492188e+01 -9.143716812133789062e+00 -9.540115594863891602e-01 1.418966203927993774e-01 -2.436344921588897705e-01 1.776950508356094360e-01
1.042000000000000000e+03 3.172381591796875000e+01 -8.634590148925781250e+00 -1.709071636199951172e+00 7.606925792060792446e-04 -5.124933123588562012e-01 -1.748287826776504517e-01
1.043000000000000000e+03 3.316116333007812500e+01 -9.291775703430175781e+00 -1.308016419410705566e+00 4.177138209342956543e-02 -3.798734843730926514e-01 -9.916359931230545044e-02
1.044000000000000000e+03 3.466973495483398438e+01 -9.226250648498535156e+00 -1.187802791595458984e+00 7.991097867488861084e-02 -3.323675394058227539e-01 9.793864563107490540e-03
1.045000000000000000e+03 3.391588973999023438e+01 -9.260789871215820312e+00 -1.259080529212951660e+00 6.074101850390434265e-02 -3.595018386840820312e-01 -4.949322342872619629e-02
1.046000000000000000e+03 8.793139457702636719e+00 2.600942134857177734e+00 2.796610060613602400e-04 5.547039327211678028e-04 2.503094729036092758e-04 3.724123816937208176e-04
1.047000000000000000e+03 1.359369373321533203e+01 3.914579629898071289e+00 1.114143291488289833e-03 -4.700665158452466130e-05 3.201409999746829271e-04 3.300283569842576981e-04
1.048000000000000000e+03 1.257117176055908203e+01 2.528293848037719727e+00 -6.569138495251536369e-04 5.429801240097731352e-05 -1.807847584132105112e-04 -9.220840001944452524e-05
1.049000000000000000e+03 1.104901409149169922e+01 2.582769870758056641e+00 -5.006041610613465309e-04 -2.422565448796376586e-04 -2.228582015959545970e-04 -4.365048662293702364e-04
1.050000000000000000e+03 2.867433738708496094e+01 -8.657706260681152344e+00 -1.540107846260070801e+00 -7.348007522523403168e-03 -4.642367660999298096e-01 -2.237880080938339233e-01
1.051000000000000000e+03 3.011562156677246094e+01 -9.370975494384765625e+00 -1.340403556823730469e+00 6.623885128647089005e-03 -4.001338779926300049e-01 -2.307097613811492920e-01
1.052000000000000000e+03 3.088072395324707031e+01 -9.357564926147460938e+00 -1.351385712623596191e+00 1.362493541091680527e-02 -4.013282358646392822e-01 -2.031304538249969482e-01
1.053000000000000000e+03 3.164499282836914062e+01 -9.340877532958984375e+00 -1.353061556816101074e+00 1.986988447606563568e-02 -3.999575078487396240e-01 -1.751101315021514893e-01
1.054000000000000000e+03 8.043886184692382812e+00 -1.874891042709350586e+00 -3.226271246603573672e-06 -2.477238012943416834e-05 -8.399595571972895414e-06 2.848494041245430708e-04
1.055000000000000000e+03 1.254352664947509766e+01 -3.699163436889648438e+00 -1.135846105171367526e-04 1.292109809583052993e-04 4.687913587986258790e-06 2.402397949481382966e-04
1.056000000000000000e+03 7.271538734436035156e+00 -2.643765211105346680e+00 4.587446892401203513e-05 -7.644934521522372961e-05 -9.172463251161389053e-06 3.280712990090250969e-04
1.057000000000000000e+03 1.180006790161132812e+01 -5.616563796997070312e+00 -1.255724928341805935e-04 -4.872149438597261906e-04 -1.838362368289381266e-04 3.896177222486585379e-04
1.058000000000000000e+03 7.833603382110595703e+00 -5.652073383331298828e+00 -8.112927025649696589e-05 3.763701242860406637e-04 8.857225475367158651e-05 -4.848509852308779955e-04
1.059000000000000000e+03 6.517394065856933594e+00 -1.877719044685363770e+00 -4.518216883298009634e-05 -2.440391472191549838e-05 -2.087582470267079771e-05 2.516100939828902483e-04
1.060000000000000000e+03 6.512973785400390625e+00 -2.637012481689453125e+00 -1.182108098873868585e-04 1.446693349862471223e-04 7.937559530546423048e-06 -2.696572046261280775e-04
1.061000000000000000e+03 5.013440132141113281e+00 -2.677215337753295898e+00 -4.998040822101756930e-05 7.436700980179011822e-05 7.315981292776996270e-06 -2.382524253334850073e-04
1.062000000000000000e+03 1.736795306205749512e+00 -7.772154808044433594e+00 -4.452509747352451086e-04 2.190164232160896063e-04 -6.787035817978903651e-05 -1.922708761412650347e-04
1.063000000000000000e+03 3.562754392623901367e+00 -3.759665489196777344e+00 -6.162059435155242682e-05 1.998800580622628331e-04 4.147783693042583764e-05 1.993203477468341589e-04
1.064000000000000000e+03 1.711498975753784180e+00 -6.375854015350341797e+00 6.437496631406247616e-04 -6.724175909766927361e-05 1.729523646645247936e-04 2.956262906081974506e-04
1.065000000000000000e+03 4.826063215732574463e-01 -3.535436153411865234e+00 -4.593131016008555889e-04 -1.763353793649002910e-04 -1.906945399241521955e-04 -2.163219614885747433e-04
1.066000000000000000e+03 3.922973275184631348e-01 -2.170603990554809570e+00 3.341971896588802338e-04 1.029444774758303538e-05 1.033474909490905702e-04 1.048116682795807719e-04
1.067000000000000000e+03 5.633066296577453613e-01 -4.970561504364013672e+00 6.339106475934386253e-04 -2.163547032978385687e-04 1.252667861990630627e-04 1.646731980144977570e-04
1.068000000000000000e+03 2.558736801147460938e+01 -8.563312530517578125e+00 -1.221743941307067871e+00 1.307692192494869232e-02 -3.626001179218292236e-01 -2.601601481437683105e-01
1.069000000000000000e+03 2.701945304870605469e+01 -9.350709915161132812e+00 -1.189620852470397949e+00 1.263432670384645462e-02 -3.530959486961364746e-01 -3.127382397651672363e-01
1.070000000000000000e+03 2.857600402832031250e+01 -9.380648612976074219e+00 -1.282154917716979980e+00 4.824665840715169907e-03 -3.831990957260131836e-01 -2.739766240119934082e-01
1.071000000000000000e+03 2.624017524719238281e+01 -9.322490692138671875e+00 -1.132912516593933105e+00 2.084317430853843689e-02 -3.336207866668701172e-01 -3.281478583812713623e-01
1.072000000000000000e+03 2.168473243713378906e+01 -8.216785430908203125e+00 -6.965716481208801270e-01 5.139099806547164917e-02 -1.935541927814483643e-01 -2.883941233158111572e-01
1.073000000000000000e+03 2.309400177001953125e+01 -9.133037567138671875e+00 -8.520361781120300293e-01 5.898836627602577209e-02 -2.379143387079238892e-01 -3.780777156352996826e-01
1.074000000000000000e+03 2.070945930480957031e+01 -8.989917755126953125e+00 -5.930567979812622070e-01 2.769548445940017700e-02 -1.696083992719650269e-01 -3.774323463439941406e-01
1.075000000000000000e+03 2.480874633789062500e+01 -8.506745338439941406e+00 -1.125759482383728027e+00 2.209984883666038513e-02 -3.310979008674621582e-01 -2.692372798919677734e-01
1.076000000000000000e+03 2.467069816589355469e+01 -9.232025146484375000e+00 -1.002187728881835938e+00 4.058995842933654785e-02 -2.884793281555175781e-01 -3.566540181636810303e-01
1.077000000000000000e+03 2.388525199890136719e+01 -9.181945800781250000e+00 -9.286674261093139648e-01 4.989462345838546753e-02 -2.636318206787109375e-01 -3.700580894947052002e-01
1.078000000000000000e+03 1.858849906921386719e+01 -3.510827302932739258e+00 -3.301736665889620781e-03 -9.880372881889343262e-02 -3.063164092600345612e-02 1.859270595014095306e-02
1.079000000000000000e+03 2.188719558715820312e+01 -3.567790985107421875e+00 -1.305420845746994019e-01 -1.152525395154953003e-01 -7.373838126659393311e-02 2.401736229658126831e-01
1.080000000000000000e+03 2.116332626342773438e+01 -3.405124425888061523e+00 -8.843132108449935913e-02 -1.364479660987854004e-01 -6.746378540992736816e-02 2.083832323551177979e-01
1.081000000000000000e+03 1.235757541656494141e+01 -1.948003387451171875e+01 -4.933412075042724609e-01 -6.402625441551208496e-01 -3.400811254978179932e-01 -4.246498644351959229e-01
1.082000000000000000e+03 4.147172451019287109e+00 -1.958023452758789062e+01 -1.251762062311172485e-01 -1.038465797901153564e-01 -6.870684027671813965e-02 -1.556890308856964111e-01
1.083000000000000000e+03 1.265413284301757812e+01 1.931205940246582031e+01 -6.286589503288269043e-01 -5.813580751419067383e-01 -3.630051016807556152e-01 4.463084638118743896e-01
1.084000000000000000e+03 8.904203414916992188e+00 2.045670127868652344e+01 -4.308143556118011475e-01 -2.045001089572906494e-01 -1.905943453311920166e-01 4.022778272628784180e-01
1.085000000000000000e+03 1.970198249816894531e+01 7.691639423370361328e+00 -1.337907165288925171e-01 -9.592839479446411133e-01 -3.279224038124084473e-01 2.909880876541137695e-01
1.086000000000000000e+03 1.961408424377441406e+01 9.339594841003417969e+00 -2.253454029560089111e-01 -8.743030428886413574e-01 -3.298945426940917969e-01 3.002972304821014404e-01
1.087000000000000000e+03 1.381518459320068359e+01 1.833935356140136719e+01 -6.796523928642272949e-01 -6.545027494430541992e-01 -4.002465307712554932e-01 5.110888481140136719e-01
1.088000000000000000e+03 1.400044727325439453e+01 1.643936347961425781e+01 -9.142775535583496094e-01 -9.143171906471252441e-01 -5.485784411430358887e-01 8.635930418968200684e-01
1.089000000000000000e+03 1.717265701293945312e+01 1.178085327148437500e+01 -3.254347443580627441e-01 -1.365302681922912598e+00 -5.072212219238281250e-01 6.075519323348999023e-01
1.090000000000000000e+03 1.674181747436523438e+01 1.498435115814208984e+01 -5.569905638694763184e-01 -8.944057822227478027e-01 -4.354189038276672363e-01 5.141295194625854492e-01
1.091000000000000000e+03 1.978511619567871094e+01 2.136466503143310547e+00 -1.934507675468921661e-02 -6.941800117492675781e-01 -2.140575349330902100e-01 2.083036005496978760e-01
1.092000000000000000e+03 6.263701915740966797e-01 1.622835159301757812e+01 -2.702555502764880657e-04 3.131185472011566162e-02 9.312479756772518158e-03 -4.537402186542749405e-03
1.093000000000000000e+03 1.977677536010742188e+01 6.212381362915039062e+00 -9.632032364606857300e-02 -9.524083137512207031e-01 -3.146185874938964844e-01 2.536713778972625732e-01
1.094000000000000000e+03 1.834522247314453125e+01 1.243677425384521484e+01 -3.269177377223968506e-01 -9.498381018638610840e-01 -3.830267488956451416e-01 4.025314450263977051e-01
1.095000000000000000e+03 1.487898254394531250e+01 1.729040145874023438e+01 -6.775383353233337402e-01 -7.699652910232543945e-01 -4.342510998249053955e-01 5.553749799728393555e-01
1.096000000000000000e+03 1.881300735473632812e+01 7.894070148468017578e-01 2.278156578540802002e-03 -6.292020082473754883e-01 -1.880771666765213013e-01 6.211117655038833618e-02
1.097000000000000000e+03 1.973191833496093750e+01 8.688153028488159180e-01 -7.354439236223697662e-03 -5.605484247207641602e-01 -1.703708618879318237e-01 1.884952485561370850e-01
1.098000000000000000e+03 1.755648994445800781e+01 1.374462890625000000e+01 -4.414685666561126709e-01 -9.447461366653442383e-01 -4.158644080162048340e-01 4.962677955627441406e-01
1.099000000000000000e+03 2.270872497558593750e+01 -1.279536962509155273e+00 -7.444035261869430542e-02 -1.994973123073577881e-01 -8.218129724264144897e-02 3.661154210567474365e-01
1.100000000000000000e+03 1.885293197631835938e+01 -1.757638335227966309e+00 -4.404075734782963991e-04 -2.649181187152862549e-01 -7.960756123065948486e-02 5.439980328083038330e-02
1.101000000000000000e+03 3.446233510971069336e+00 -1.703105163574218750e+01 -3.443158045411109924e-02 -3.922570496797561646e-02 -2.209718711674213409e-02 1.244324608705937862e-03
1.102000000000000000e+03 7.061465382575988770e-01 -1.753278923034667969e+01 -2.991015324369072914e-03 4.873146116733551025e-02 1.372213475406169891e-02 3.391287755221128464e-03
1.103000000000000000e+03 1.267917060852050781e+01 -1.804421997070312500e+01 -7.734472155570983887e-01 -6.416927576065063477e-01 -4.245419800281524658e-01 -5.583431124687194824e-01
1.104000000000000000e+03 1.022505187988281250e+01 -2.559295415878295898e+00 1.710796277620829642e-05 -5.600753502221778035e-05 -1.166987203760072589e-05 4.323357425164431334e-04
1.105000000000000000e+03 1.649075698852539062e+01 -1.042385482788085938e+01 -3.265350162982940674e-01 -5.565568208694458008e-01 -2.649275660514831543e-01 -4.393478929996490479e-01
1.106000000000000000e+03 1.735892105102539062e+01 -1.120226669311523438e+01 -5.050319433212280273e-01 -3.447378873825073242e-01 -2.549309432506561279e-01 -5.141550302505493164e-01
1.107000000000000000e+03 1.577868938446044922e+01 -1.156512165069580078e+01 -4.321018457412719727e-01 -7.593138217926025391e-01 -3.574247062206268311e-01 -5.694950222969055176e-01
1.108000000000000000e+03 2.150711250305175781e+01 -9.025099754333496094e+00 -6.864211559295654297e-01 5.541789531707763672e-02 -1.893009692430496216e-01 -3.801692724227905273e-01
1.109000000000000000e+03 1.347747802734375000e+01 -1.682694244384765625e+01 -7.937740683555603027e-01 -6.949224472045898438e-01 -4.466089606285095215e-01 -6.821394562721252441e-01
1.110000000000000000e+03 1.666007041931152344e+01 -1.227112102508544922e+01 -5.731144547462463379e-01 -4.802774488925933838e-01 -3.160175681114196777e-01 -5.742030739784240723e-01
1.111000000000000000e+03 1.364195537567138672e+01 -3.804263830184936523e+00 -3.054082844755612314e-05 -3.334299835842102766e-04 -1.091912490664981306e-04 -2.319268423889297992e-05
1.112000000000000000e+03 1.592442512512207031e+01 -1.340595531463623047e+01 -6.479920744895935059e-01 -5.894833207130432129e-01 -3.712426126003265381e-01 -6.172115802764892578e-01
1.113000000000000000e+03 1.514086627960205078e+01 -1.455760765075683594e+01 -6.887059807777404785e-01 -6.700245141983032227e-01 -4.076191484928131104e-01 -6.440867781639099121e-01
1.114000000000000000e+03 1.051237297058105469e+01 -9.205034255981445312e+00 -9.551976108923554420e-04 -9.301000391133129597e-04 -5.655892891809344292e-04 6.225350080057978630e-04
1.115000000000000000e+03 9.608044624328613281e+00 -8.682538032531738281e+00 2.046496520051732659e-04 1.122848014347255230e-03 3.982493071816861629e-04 -7.743986789137125015e-04
1.116000000000000000e+03 1.116827201843261719e+01 -6.625280380249023438e+00 2.280907501699402928e-04 4.936545738019049168e-04 2.165236073778942227e-04 -4.983459366485476494e-04
1.117000000000000000e+03 1.042910671234130859e+01 -7.648365497589111328e+00 -1.342903124168515205e-04 -1.019666902720928192e-03 -3.461871820036321878e-04 5.946884630247950554e-04
1.118000000000000000e+03 1.815493583679199219e+00 -1.065615367889404297e+01 6.083785556256771088e-04 7.764299516566097736e-04 4.154425696469843388e-04 2.573261503130197525e-03
1.119000000000000000e+03 8.123366355895996094e+00 -1.262496185302734375e+01 2.444196259602904320e-03 5.326000042259693146e-03 2.331058960407972336e-03 -2.373884664848446846e-03
1.120000000000000000e+03 1.044404792785644531e+01 -4.106225490570068359e+00 -1.899804337881505489e-04 5.787987029179930687e-04 1.166454749181866646e-04 -2.962065918836742640e-04
1.121000000000000000e+03 7.779119873046875000e+01 3.302541351318359375e+01 -1.417444832623004913e-02 9.103754997253417969e+00 2.726874113082885742e+00 7.833906263113021851e-02
1.122000000000000000e+03 7.917137908935546875e+01 3.605383300781250000e+01 -1.255077216774225235e-02 9.367594718933105469e+00 2.806513309478759766e+00 5.687628290615975857e-04
1.123000000000000000e+03 7.930681610107421875e+01 -2.786159324645996094e+01 -1.603342825546860695e-03 7.747732162475585938e+00 2.323838710784912109e+00 -6.573732197284698486e-02
1.124000000000000000e+03 7.741227722167968750e+01 -3.804910659790039062e+01 -2.918687649071216583e-02 8.223650932312011719e+00 2.458339214324951172e+00 -5.060740187764167786e-02
1.125000000000000000e+03 7.930263519287109375e+01 -3.476281356811523438e+01 -5.422201007604598999e-03 8.233639717102050781e+00 2.468465328216552734e+00 -2.835517376661300659e-02
1.126000000000000000e+03 7.934239196777343750e+01 -2.085357666015625000e+01 6.429014028981328011e-04 7.033728122711181641e+00 2.110311269760131836e+00 -7.332729548215866089e-02
1.127000000000000000e+03 7.792451477050781250e+01 -2.643584251403808594e+01 -7.792334537953138351e-03 7.605239868164062500e+00 2.279234170913696289e+00 -1.933987140655517578e-01
1.128000000000000000e+03 7.931781768798828125e+01 -3.064342880249023438e+01 -3.405571449548006058e-03 7.983308792114257812e+00 2.393970966339111328e+00 -5.507019534707069397e-02
1.129000000000000000e+03 7.795005035400390625e+01 -3.331457901000976562e+01 -2.179677598178386688e-02 8.076700210571289062e+00 2.416471004486083984e+00 -1.139234974980354309e-01
1.130000000000000000e+03 7.349807739257812500e+01 -3.772492218017578125e+01 -1.239584833383560181e-01 7.991667747497558594e+00 2.360312700271606445e+00 -1.567554324865341187e-01
1.131000000000000000e+03 7.647513580322265625e+01 -3.898699569702148438e+01 -3.227222338318824768e-02 8.219773292541503906e+00 2.456250190734863281e+00 -7.135601341724395752e-02
1.132000000000000000e+03 7.800910949707031250e+01 1.398402786254882812e+01 -6.933167111128568649e-03 7.871371746063232422e+00 2.359331607818603516e+00 2.248757779598236084e-01
1.133000000000000000e+03 7.934079742431640625e+01 1.534049892425537109e+01 -2.768686041235923767e-03 8.044497489929199219e+00 2.412518739700317383e+00 7.988804578781127930e-02
1.134000000000000000e+03 7.809045410156250000e+01 2.086411666870117188e+01 -9.469168260693550110e-03 8.488442420959472656e+00 2.543691873550415039e+00 1.668878197669982910e-01
1.135000000000000000e+03 7.936289215087890625e+01 2.227730560302734375e+01 -2.744389465078711510e-03 8.708878517150878906e+00 2.611840248107910156e+00 5.815681442618370056e-02
1.136000000000000000e+03 7.789716339111328125e+01 3.165792655944824219e+01 -1.054779905825853348e-02 9.073710441589355469e+00 2.718948841094970703e+00 8.578982949256896973e-02
1.137000000000000000e+03 7.936823272705078125e+01 2.785225486755371094e+01 -2.342548221349716187e-03 9.080371856689453125e+00 2.723408699035644531e+00 4.095181077718734741e-02
1.138000000000000000e+03 7.798612213134765625e+01 2.502575111389160156e+01 -9.991969913244247437e-03 8.760353088378906250e+00 2.625108480453491211e+00 1.348285526037216187e-01
1.139000000000000000e+03 7.806111145019531250e+01 2.361216735839843750e+01 -9.271869435906410217e-03 8.683773994445800781e+00 2.602350711822509766e+00 1.446387618780136108e-01
1.140000000000000000e+03 7.803443145751953125e+01 1.811495971679687500e+01 -8.078984916210174561e-03 8.257593154907226562e+00 2.474854230880737305e+00 1.928619742393493652e-01
1.141000000000000000e+03 7.800537872314453125e+01 1.535554313659667969e+01 -7.093202322721481323e-03 8.004594802856445312e+00 2.399250507354736328e+00 2.167578339576721191e-01
1.142000000000000000e+03 7.801236724853515625e+01 1.673177337646484375e+01 -9.152321144938468933e-03 8.133948326110839844e+00 2.437438964843750000e+00 2.062744647264480591e-01
1.143000000000000000e+03 7.801387023925781250e+01 1.260063362121582031e+01 -4.175193607807159424e-03 7.730469703674316406e+00 2.317888498306274414e+00 2.326278835535049438e-01
1.144000000000000000e+03 7.667376708984375000e+01 1.122304630279541016e+01 -6.777395959943532944e-03 7.612071514129638672e+00 2.281588315963745117e+00 3.678781986236572266e-01
1.145000000000000000e+03 7.801549530029296875e+01 8.446220397949218750e+00 2.709260908886790276e-03 7.295811653137207031e+00 2.189556360244750977e+00 2.368396222591400146e-01
1.146000000000000000e+03 7.934117889404296875e+01 9.783123970031738281e+00 5.015861825086176395e-05 7.391149997711181641e+00 2.217360019683837891e+00 8.769767731428146362e-02
1.147000000000000000e+03 7.936216735839843750e+01 -1.388350486755371094e+01 3.274577669799327850e-03 6.352990627288818359e+00 1.906879544258117676e+00 -5.037980154156684875e-02
1.148000000000000000e+03 7.935077667236328125e+01 -6.931638717651367188e+00 5.884104873985052109e-03 6.057495117187500000e+00 1.819013714790344238e+00 7.424697396345436573e-04
1.149000000000000000e+03 7.934883880615234375e+01 -1.945576667785644531e+01 1.405697898007929325e-03 6.884050846099853516e+00 2.065637111663818359e+00 -7.125882804393768311e-02
1.150000000000000000e+03 7.802926635742187500e+01 9.250114858150482178e-02 2.068351395428180695e-02 6.536987304687500000e+00 1.967301249504089355e+00 1.526592373847961426e-01
1.151000000000000000e+03 7.934158325195312500e+01 1.427069664001464844e+00 4.001159686595201492e-03 6.454117298126220703e+00 1.937435507774353027e+00 6.491318345069885254e-02
1.152000000000000000e+03 7.667829132080078125e+01 7.082388877868652344e+00 1.319909188896417618e-02 7.240289688110351562e+00 2.176046609878540039e+00 3.587621152400970459e-01
1.153000000000000000e+03 7.821932220458984375e+01 2.908384895324707031e+01 -1.694579841569066048e-03 9.015998840332031250e+00 2.704291343688964844e+00 9.245716035366058350e-02
1.154000000000000000e+03 7.473665618896484375e+01 3.851045227050781250e+01 -6.574115902185440063e-02 8.844292640686035156e+00 2.633565425872802734e+00 6.832679361104965210e-02
1.155000000000000000e+03 7.436273956298828125e+01 3.671007156372070312e+01 -7.683496922254562378e-02 8.749232292175292969e+00 2.601719141006469727e+00 9.057042002677917480e-02
1.156000000000000000e+03 7.801727294921875000e+01 9.829992294311523438e+00 1.728703864500857890e-05 7.440854072570800781e+00 2.232261419296264648e+00 2.379208505153656006e-01
1.157000000000000000e+03 7.672187042236328125e+01 1.220486909151077271e-01 4.957729205489158630e-02 6.706880092620849609e+00 2.026937246322631836e+00 2.355136871337890625e-01
1.158000000000000000e+03 7.802476501464843750e+01 2.875880956649780273e+00 1.468212436884641647e-02 6.752457618713378906e+00 2.030141830444335938e+00 1.956285089254379272e-01
1.159000000000000000e+03 7.803152465820312500e+01 -1.302581071853637695e+00 2.251683734357357025e-02 6.450891494750976562e+00 1.942022442817687988e+00 1.260168105363845825e-01
1.160000000000000000e+03 7.934382629394531250e+01 -2.753759622573852539e+00 5.028248764574527740e-03 6.156958103179931641e+00 1.848595857620239258e+00 3.589363023638725281e-02
1.161000000000000000e+03 7.806109619140625000e+01 -8.252328872680664062e+00 2.549894154071807861e-02 6.300665855407714844e+00 1.897849440574645996e+00 -3.205508738756179810e-02
1.162000000000000000e+03 7.804465484619140625e+01 -5.482970237731933594e+00 2.652087435126304626e-02 6.301576614379882812e+00 1.898429274559020996e+00 3.208276256918907166e-02
1.163000000000000000e+03 7.935575866699218750e+01 -9.712120056152343750e+00 5.492080934345722198e-03 6.110387325286865234e+00 1.834763884544372559e+00 -2.195225469768047333e-02
1.164000000000000000e+03 7.809460449218750000e+01 -1.516489124298095703e+01 1.373123750090599060e-02 6.622150421142578125e+00 1.990764498710632324e+00 -1.596710085868835449e-01
1.165000000000000000e+03 7.808840179443359375e+01 -1.240201473236083984e+01 1.940177939832210541e-02 6.443966388702392578e+00 1.939010381698608398e+00 -1.174255609512329102e-01
1.166000000000000000e+03 7.935906982421875000e+01 -1.666540527343750000e+01 2.493214793503284454e-03 6.598937988281250000e+00 1.980429291725158691e+00 -6.341631710529327393e-02
1.167000000000000000e+03 7.804146575927734375e+01 -2.075322151184082031e+01 2.148319734260439873e-03 7.100387096405029297e+00 2.130760669708251953e+00 -2.019205838441848755e-01
1.168000000000000000e+03 7.805857086181640625e+01 -1.934731292724609375e+01 4.755166359245777130e-03 6.972670078277587891e+00 2.093227624893188477e+00 -1.965106278657913208e-01
1.169000000000000000e+03 7.594052314758300781e+00 1.999937248229980469e+01 -4.103314280509948730e-01 -3.304503485560417175e-02 -1.330129355192184448e-01 2.255892306566238403e-01
1.170000000000000000e+03 8.993392944335937500e+00 1.885002517700195312e+01 -5.697610378265380859e-01 -9.972036629915237427e-02 -2.008444219827651978e-01 1.649481207132339478e-01
1.171000000000000000e+03 1.322223663330078125e+00 -4.012740325927734375e+01 2.775759436190128326e-02 -1.143616437911987305e+00 -3.347576260566711426e-01 1.919158920645713806e-02
1.172000000000000000e+03 7.175446152687072754e-01 3.742511367797851562e+01 1.857997849583625793e-02 -8.760393261909484863e-01 -2.572378218173980713e-01 -7.937196060083806515e-04
1.173000000000000000e+03 7.314450740814208984e-01 3.466062927246093750e+01 9.628393687307834625e-03 -8.233711123466491699e-01 -2.441228032112121582e-01 2.146803401410579681e-02
1.174000000000000000e+03 7.407732009887695312e-01 3.325908279418945312e+01 3.523820778355002403e-03 -7.705757021903991699e-01 -2.301155626773834229e-01 3.439344465732574463e-02
1.175000000000000000e+03 6.528300046920776367e-01 2.761166381835937500e+01 2.451997483149170876e-03 -4.193046987056732178e-01 -1.250558048486709595e-01 4.686632007360458374e-02
1.176000000000000000e+03 6.385510563850402832e-01 2.619943237304687500e+01 -8.382993983104825020e-04 -3.142158389091491699e-01 -9.451624006032943726e-02 4.882701113820075989e-02
1.177000000000000000e+03 8.606809973716735840e-01 -3.598324203491210938e+01 1.039871200919151306e-02 -1.136164546012878418e+00 -3.377297520637512207e-01 -1.913093216717243195e-02
1.178000000000000000e+03 2.358438968658447266e+00 -3.296443939208984375e+01 2.780611440539360046e-02 -8.694909811019897461e-01 -2.525054812431335449e-01 -1.287199854850769043e-01
1.179000000000000000e+03 3.161482572555541992e+00 2.602252388000488281e+01 -3.503161016851663589e-03 -2.987197041511535645e-01 -9.066686034202575684e-02 1.952582001686096191e-01
1.180000000000000000e+03 3.068541526794433594e+00 2.463351631164550781e+01 -1.420223806053400040e-02 -2.359934300184249878e-01 -7.505869865417480469e-02 1.861545592546463013e-01
1.181000000000000000e+03 2.235248088836669922e+00 3.457323074340820312e+01 2.216116525232791901e-02 -6.998903155326843262e-01 -2.033187448978424072e-01 7.997523993253707886e-02
1.182000000000000000e+03 2.260152101516723633e+00 3.316962051391601562e+01 2.297915332019329071e-02 -6.427935361862182617e-01 -1.859443187713623047e-01 9.743402898311614990e-02
1.183000000000000000e+03 3.234854459762573242e+00 3.919835281372070312e+01 2.248984016478061676e-02 -7.708252668380737305e-01 -2.245006263256072998e-01 3.380426764488220215e-02
1.184000000000000000e+03 2.211650848388671875e+00 -3.023334503173828125e+01 1.768979243934154510e-02 -7.339817285537719727e-01 -2.148875892162322998e-01 -1.592382639646530151e-01
1.185000000000000000e+03 2.089127302169799805e+00 -2.742943954467773438e+01 1.241470687091350555e-02 -5.550544261932373047e-01 -1.627919077873229980e-01 -1.804911792278289795e-01
1.186000000000000000e+03 2.703461408615112305e+00 -3.697794342041015625e+01 3.511887788772583008e-02 -1.012495398521423340e+00 -2.932129502296447754e-01 -6.473741680383682251e-02
1.187000000000000000e+03 5.468667507171630859e+00 -1.785977172851562500e+01 -1.782058179378509521e-01 -3.992025554180145264e-02 -6.543782353401184082e-02 -2.161561325192451477e-02
1.188000000000000000e+03 5.878428220748901367e-01 2.051619148254394531e+01 -5.470166914165019989e-03 1.117297634482383728e-02 1.710842829197645187e-03 1.353132072836160660e-02
1.189000000000000000e+03 6.228719353675842285e-01 1.909263038635253906e+01 -2.290211617946624756e-03 3.253378346562385559e-02 9.073071181774139404e-03 4.271975252777338028e-03
1.190000000000000000e+03 6.282554268836975098e-01 1.481794643402099609e+01 3.558809985406696796e-04 2.109648287296295166e-02 6.435709074139595032e-03 -4.501990508288145065e-03
1.191000000000000000e+03 6.206264495849609375e-01 1.341916656494140625e+01 7.694532978348433971e-04 1.206683553755283356e-02 3.850886598229408264e-03 -3.357572481036186218e-03
1.192000000000000000e+03 6.032942533493041992e-01 7.795929431915283203e+00 -4.459157935343682766e-04 2.554661477915942669e-04 -5.713490099878981709e-05 -1.246855244971811771e-04
1.193000000000000000e+03 6.913551688194274902e-01 -1.898287582397460938e+01 -9.609835222363471985e-03 3.648703917860984802e-02 8.063160814344882965e-03 -1.129953376948833466e-02
1.194000000000000000e+03 1.781454086303710938e+00 -9.192493438720703125e+00 1.748955924995243549e-03 -2.824408584274351597e-04 4.399545432534068823e-04 1.001879223622381687e-03
1.195000000000000000e+03 3.423235177993774414e+00 -3.933777236938476562e+01 2.866874448955059052e-02 -1.034482836723327637e+00 -3.017442226409912109e-01 -5.265285074710845947e-02
1.196000000000000000e+03 4.491333007812500000e+00 -3.669061660766601562e+01 7.709017395973205566e-02 -8.076615333557128906e-01 -2.191714048385620117e-01 -1.288089603185653687e-01
1.197000000000000000e+03 2.463877677917480469e+00 -3.432004928588867188e+01 2.675500698387622833e-02 -9.178780317306518555e-01 -2.673369050025939941e-01 -1.055635809898376465e-01
1.198000000000000000e+03 2.279908418655395508e+00 -3.160327148437500000e+01 1.493380963802337646e-02 -8.063811659812927246e-01 -2.374342083930969238e-01 -1.461474746465682983e-01
1.199000000000000000e+03 3.444442510604858398e+00 -2.726666831970214844e+01 1.640888117253780365e-02 -5.239665508270263672e-01 -1.522673070430755615e-01 -2.693325281143188477e-01
1.200000000000000000e+03 2.021112918853759766e+00 -2.456592369079589844e+01 -6.404309999197721481e-03 -3.429169952869415283e-01 -1.047963872551918030e-01 -1.757600605487823486e-01
1.201000000000000000e+03 2.049895286560058594e+00 -2.599899291992187500e+01 -3.009267849847674370e-03 -4.482282996177673340e-01 -1.353712677955627441e-01 -1.839081496000289917e-01
1.202000000000000000e+03 6.758837103843688965e-01 -2.043610191345214844e+01 -7.042496930807828903e-03 -8.705368265509605408e-03 -4.724359605461359024e-03 -2.798247337341308594e-02
1.203000000000000000e+03 3.234497785568237305e+00 -2.147915077209472656e+01 -7.379574328660964966e-02 -1.733891963958740234e-01 -7.415547966957092285e-02 -1.925144940614700317e-01
1.204000000000000000e+03 2.032641649246215820e+00 -1.562559318542480469e+01 -3.457814455032348633e-04 -1.768641290254890919e-03 -6.343268323689699173e-04 1.500751916319131851e-02
1.205000000000000000e+03 1.609862089157104492e+00 -1.200480079650878906e+01 2.912830794230103493e-03 3.070115577429533005e-03 1.794883864931762218e-03 4.533470142632722855e-03
1.206000000000000000e+03 5.310386419296264648e-01 -1.204405498504638672e+01 -1.287272083573043346e-03 5.010008811950683594e-03 1.116821076720952988e-03 1.274332520551979542e-03
1.207000000000000000e+03 8.743575096130371094e+00 -9.752187728881835938e+00 -3.877305425703525543e-05 -1.415156759321689606e-03 -4.361789615359157324e-04 8.182663004845380783e-04
1.208000000000000000e+03 5.047478199005126953e+00 -3.430004358291625977e+00 5.330899148248136044e-05 1.429161238775122911e-05 2.028018207056447864e-05 1.991015742532908916e-04
1.209000000000000000e+03 3.488175153732299805e+00 -2.845328569412231445e+00 -6.746104190824553370e-05 -3.141953129670582712e-05 -2.966417196148540825e-05 -3.114857536274939775e-04
1.210000000000000000e+03 2.727002620697021484e+00 -2.924280405044555664e+00 2.094608644256368279e-04 -2.441547803755383939e-05 5.551361391553655267e-05 1.567746076034381986e-04
1.211000000000000000e+03 1.996221661567687988e+00 -2.961213588714599609e+00 -3.105581563431769609e-04 2.762727490335237235e-05 -8.487926243105903268e-05 -1.345577620668336749e-04
1.212000000000000000e+03 1.304368734359741211e+00 -3.209415197372436523e+00 1.022478136292193085e-05 7.296627154573798180e-05 2.495731496310327202e-05 7.339526928262785077e-05
1.213000000000000000e+03 4.787869751453399658e-01 5.034394741058349609e+00 -4.877123283222317696e-04 -1.505420077592134476e-04 -1.914762979140505195e-04 -3.645886681624688208e-05
1.214000000000000000e+03 2.405857324600219727e+00 3.567507266998291016e+00 6.525677745230495930e-04 9.808353934204205871e-05 2.251953847007825971e-04 -2.909527975134551525e-04
1.215000000000000000e+03 1.761359453201293945e+00 1.045985698699951172e+01 2.074929419904947281e-03 1.136511564254760742e-03 9.634323068894445896e-04 -1.715230639092624187e-03
1.216000000000000000e+03 5.891540646553039551e-01 1.061083698272705078e+01 2.823349132086150348e-05 2.536589512601494789e-03 7.694468949921429157e-04 -1.030844519846141338e-03
1.217000000000000000e+03 1.893609881401062012e+00 1.321038436889648438e+01 3.569219261407852173e-03 2.639338374137878418e-03 1.862567267380654812e-03 -6.799393333494663239e-03
1.218000000000000000e+03 1.909260749816894531e+00 1.459353923797607422e+01 1.465533045120537281e-03 3.359019523486495018e-03 1.447365735657513142e-03 -9.517601691186428070e-03
1.219000000000000000e+03 1.873906612396240234e+00 1.600928878784179688e+01 -1.211200607940554619e-03 3.671101992949843407e-03 7.379704038612544537e-04 -8.920710533857345581e-03
1.220000000000000000e+03 1.875063538551330566e+00 2.467321968078613281e+01 -1.218784507364034653e-02 -2.252728939056396484e-01 -7.123821973800659180e-02 1.267838329076766968e-01
1.221000000000000000e+03 9.282601356506347656e+00 1.107916259765625000e+01 1.814941351767629385e-04 2.343373605981469154e-03 7.574603077955543995e-04 1.351546263322234154e-03
1.222000000000000000e+03 1.240567207336425781e+01 8.454452514648437500e+00 1.552027650177478790e-03 1.092075021006166935e-03 7.932307780720293522e-04 1.086095348000526428e-03
1.223000000000000000e+03 1.467280387878417969e+01 4.922508239746093750e+00 1.256533083505928516e-03 -5.139459517522482201e-06 3.754181088879704475e-04 1.158096783910878003e-04
1.224000000000000000e+03 1.181864833831787109e+01 2.562254905700683594e+00 6.002841982990503311e-04 1.011794884107075632e-04 2.104391023749485612e-04 2.875011414289474487e-04
1.225000000000000000e+03 1.038017940521240234e+01 1.340512466430664062e+01 -3.466255497187376022e-03 -3.176855097990483046e-04 -1.135182334110140800e-03 -2.853257348760962486e-03
1.226000000000000000e+03 8.377820968627929688e+00 1.045257949829101562e+01 2.120609133271500468e-04 9.085787460207939148e-04 3.361919079907238483e-04 8.758147014304995537e-04
1.227000000000000000e+03 8.427808761596679688e+00 1.384970474243164062e+01 -3.700544359162449837e-03 1.019445154815912247e-02 1.948172110132873058e-03 -2.157862996682524681e-03
1.228000000000000000e+03 1.176330661773681641e+01 3.343611717224121094e+00 -7.616659859195351601e-04 -2.643840271048247814e-04 -3.078150039073079824e-04 -6.096932920627295971e-04
1.229000000000000000e+03 7.893846511840820312e+00 -1.089304828643798828e+01 -1.049206548486836255e-04 3.831980749964714050e-03 1.118118059821426868e-03 -1.770261791534721851e-03
1.230000000000000000e+03 4.047527694702148438e+01 -8.884659767150878906e+00 1.148391008377075195e+00 1.223371505737304688e+00 7.115287780761718750e-01 1.848280191421508789e+00
1.231000000000000000e+03 4.408657073974609375e+01 -8.140494346618652344e+00 2.018316507339477539e+00 1.715063667297363281e+01 5.750685691833496094e+00 5.424158573150634766e+00
1.232000000000000000e+03 4.311937713623046875e+01 -8.755095481872558594e+00 2.482920169830322266e+00 8.506591796875000000e+00 3.296853542327880859e+00 5.690071105957031250e+00
1.233000000000000000e+03 4.270254898071289062e+01 -8.671334266662597656e+00 2.803257942199707031e+00 6.097321033477783203e+00 2.670173883438110352e+00 5.176102638244628906e+00
1.234000000000000000e+03 4.367045974731445312e+01 -8.214774131774902344e+00 2.739454269409179688e+00 1.256680488586425781e+01 4.591877937316894531e+00 6.638998508453369141e+00
1.235000000000000000e+03 4.428529357910156250e+01 -8.113019943237304688e+00 1.748739719390869141e+00 1.860118293762207031e+01 6.104976654052734375e+00 4.483675003051757812e+00
1.236000000000000000e+03 4.252814865112304688e+01 -4.580289840698242188e+00 3.654731750488281250e+00 4.588412284851074219e+00 2.472943067550659180e+00 -4.807736396789550781e+00
1.237000000000000000e+03 4.457059097290039062e+01 -8.333106040954589844e+00 1.528032779693603516e+00 1.854306030273437500e+01 6.021327972412109375e+00 2.757166624069213867e+00
1.238000000000000000e+03 4.567252731323242188e+01 -7.190227031707763672e+00 9.397646903991699219e+00 1.761802673339843750e+01 8.104701995849609375e+00 -2.588111639022827148e+00
1.239000000000000000e+03 4.613919448852539062e+01 -5.663653850555419922e+00 8.567006111145019531e+00 1.559244251251220703e+01 7.247834682464599609e+00 2.029824018478393555e+00
1.240000000000000000e+03 4.551216506958007812e+01 -5.479326248168945312e+00 7.594113826751708984e+00 1.863495445251464844e+01 7.868721008300781250e+00 2.442154169082641602e+00
1.241000000000000000e+03 4.579170227050781250e+01 -6.346289634704589844e+00 1.175783061981201172e+01 1.620171546936035156e+01 8.387864112854003906e+00 4.471596181392669678e-01
1.242000000000000000e+03 4.573859786987304688e+01 -6.762130737304687500e+00 1.157052993774414062e+01 1.660560798645019531e+01 8.452841758728027344e+00 -1.291989445686340332e+00
1.243000000000000000e+03 4.471059417724609375e+01 -4.546089172363281250e+00 1.878309488296508789e+00 1.843173027038574219e+01 6.093011856079101562e+00 -2.218601465225219727e+00
1.244000000000000000e+03 4.165767288208007812e+01 -8.702888488769531250e+00 2.266003131866455078e+00 2.494244098663330078e+00 1.428074240684509277e+00 3.231570005416870117e+00
1.245000000000000000e+03 3.959814453125000000e+01 -4.410148143768310547e+00 7.204208374023437500e-01 4.658936858177185059e-01 3.558943569660186768e-01 -9.863566160202026367e-01
1.246000000000000000e+03 4.064595413208007812e+01 -4.386789798736572266e+00 1.657433986663818359e+00 1.032414913177490234e+00 8.069546818733215332e-01 -1.780234813690185547e+00
1.247000000000000000e+03 3.906309890747070312e+01 -3.936446666717529297e+00 8.187754750251770020e-01 5.894143581390380859e-01 4.224569499492645264e-01 -9.997509121894836426e-01
1.248000000000000000e+03 4.014348602294921875e+01 -4.408364295959472656e+00 1.180834889411926270e+00 6.877517700195312500e-01 5.605760216712951660e-01 -1.326821088790893555e+00
1.249000000000000000e+03 4.013014984130859375e+01 -3.948892593383789062e+00 1.548295974731445312e+00 1.017572283744812012e+00 7.697604894638061523e-01 -1.715394139289855957e+00
1.250000000000000000e+03 3.847518920898437500e+01 -3.913991212844848633e+00 5.442821979522705078e-01 4.483096897602081299e-01 2.977775633335113525e-01 -7.344858050346374512e-01
1.251000000000000000e+03 2.105023956298828125e+01 -1.654373049736022949e+00 -4.502935707569122314e-02 -2.533873319625854492e-01 -8.952500671148300171e-02 2.607517540454864502e-01
1.252000000000000000e+03 2.143782424926757812e+01 -2.631084680557250977e+00 -8.010217547416687012e-02 -1.760660260915756226e-01 -7.685045897960662842e-02 2.581395804882049561e-01
1.253000000000000000e+03 3.716168212890625000e+01 -3.834218263626098633e+00 7.813069224357604980e-02 2.655817866325378418e-01 1.031137481331825256e-01 -3.655795454978942871e-01
1.254000000000000000e+03 2.491190528869628906e+01 -3.342935323715209961e+00 -2.783950567245483398e-01 -5.522796884179115295e-02 -1.000869050621986389e-01 3.547906875610351562e-01
1.255000000000000000e+03 1.799625205993652344e+01 -8.722946166992187500e+00 -2.839747965335845947e-01 -1.812921464443206787e-01 -1.395800858736038208e-01 -2.715528011322021484e-01
1.256000000000000000e+03 3.044846343994140625e+01 -4.289840221405029297e+00 -7.245042324066162109e-01 3.775919228792190552e-02 -2.060235142707824707e-01 2.727128267288208008e-01
1.257000000000000000e+03 2.772531318664550781e+01 -3.575544834136962891e+00 -4.407971203327178955e-01 1.218899153172969818e-02 -1.285824477672576904e-01 3.504452705383300781e-01
1.258000000000000000e+03 3.889033317565917969e+00 2.606352329254150391e+00 -1.104108596337027848e-04 -4.795590648427605629e-04 -1.769909868016839027e-04 2.046035369858145714e-04
1.259000000000000000e+03 4.592232704162597656e+00 2.564801931381225586e+00 1.238225959241390228e-04 5.630045779980719090e-04 2.060481492662802339e-04 -6.121820479165762663e-05
1.260000000000000000e+03 5.981112957000732422e+00 2.552866935729980469e+00 1.220698250108398497e-04 6.123271305114030838e-04 2.203190815635025501e-04 1.398442545905709267e-04
1.261000000000000000e+03 5.225035190582275391e+00 3.238723993301391602e+00 1.864531659521162510e-04 6.067623035050928593e-04 2.379646321060135961e-04 5.691104524885304272e-05
1.262000000000000000e+03 5.885348320007324219e+00 3.260236978530883789e+00 -9.993132152885664254e-06 -6.045818445272743702e-04 -1.843724894570186734e-04 -8.390317816520109773e-05
1.263000000000000000e+03 1.028087329864501953e+01 2.596574783325195312e+00 3.784457221627235413e-04 4.076608165632933378e-04 2.358319616178050637e-04 3.950844402424991131e-04
1.264000000000000000e+03 7.237760066986083984e+00 3.331694841384887695e+00 -1.203746651299297810e-04 -6.464432226493954659e-04 -2.300453634234145284e-04 -2.676556759979575872e-04
1.265000000000000000e+03 6.554808616638183594e+00 3.297454595565795898e+00 1.881952484836801887e-04 6.796669331379234791e-04 2.603586472105234861e-04 2.210340026067569852e-04
1.266000000000000000e+03 4.567113876342773438e+00 3.252756118774414062e+00 7.453384569089394063e-06 -5.920782568864524364e-04 -1.753874530550092459e-04 5.705840158043429255e-05
1.267000000000000000e+03 2.497276544570922852e+00 2.674864768981933594e+00 -4.097626951988786459e-04 -1.857673632912337780e-04 -1.786590146366506815e-04 1.661050773691385984e-04
1.268000000000000000e+03 1.016886711120605469e+01 3.365065336227416992e+00 -3.707936266437172890e-04 -5.936404340900480747e-04 -2.893302298616617918e-04 -5.045066354796290398e-04
1.269000000000000000e+03 2.353639984130859375e+01 -3.120489597320556641e+00 -1.932913661003112793e-01 -9.928303956985473633e-02 -8.777232468128204346e-02 3.332897424697875977e-01
1.270000000000000000e+03 2.540805435180664062e+01 -4.112666130065917969e+00 -3.869917690753936768e-01 -3.241708874702453613e-02 -1.258226484060287476e-01 3.162400126457214355e-01
1.271000000000000000e+03 2.631585121154785156e+01 -3.496400356292724609e+00 -3.652029037475585938e-01 -1.766795292496681213e-02 -1.148612648248672485e-01 3.595810830593109131e-01
1.272000000000000000e+03 2.284925460815429688e+01 -2.978060722351074219e+00 -1.537810862064361572e-01 -1.221231371164321899e-01 -8.277126401662826538e-02 3.145671188831329346e-01
1.273000000000000000e+03 2.215273666381835938e+01 -2.816364526748657227e+00 -1.152253523468971252e-01 -1.498695462942123413e-01 -7.952846586704254150e-02 2.903698384761810303e-01
1.274000000000000000e+03 9.516033172607421875e+00 -2.547713518142700195e+00 -6.161966302897781134e-05 4.359269223641604185e-05 -5.408091510616941378e-06 -3.039575531147420406e-04
1.275000000000000000e+03 2.827190971374511719e+01 -4.266694545745849609e+00 -6.032620072364807129e-01 1.419102493673563004e-02 -1.767212897539138794e-01 3.100311160087585449e-01
1.276000000000000000e+03 2.914430427551269531e+01 -3.606536149978637695e+00 -4.961157739162445068e-01 3.676027432084083557e-02 -1.378066539764404297e-01 3.263817727565765381e-01
1.277000000000000000e+03 2.928100585937500000e+01 -2.937656641006469727e+00 -3.454151749610900879e-01 5.969378352165222168e-02 -8.571641892194747925e-02 3.309033513069152832e-01
1.278000000000000000e+03 3.118368148803710938e+01 -4.291422367095947266e+00 -7.518574595451354980e-01 4.210479184985160828e-02 -2.129258066415786743e-01 2.534196674823760986e-01
1.279000000000000000e+03 3.204808044433593750e+01 -3.635842800140380859e+00 -5.172064900398254395e-01 8.000396937131881714e-02 -1.311607509851455688e-01 2.200163751840591431e-01
1.280000000000000000e+03 1.157362270355224609e+01 -3.572473526000976562e+00 1.075092513929121196e-04 -2.120231329172383994e-05 2.589208088465966284e-05 -3.502267645671963692e-04
1.281000000000000000e+03 1.094683456420898438e+01 -2.657086133956909180e+00 4.052846998092718422e-05 -5.835505726281553507e-05 -5.347976184566505253e-06 -2.895812795031815767e-04
1.282000000000000000e+03 1.127330303192138672e+01 -4.400599002838134766e+00 2.440282696625217795e-05 -4.255257954355329275e-04 -1.203368956339545548e-04 4.661883285734802485e-04
1.283000000000000000e+03 1.257337856292724609e+01 -2.810605525970458984e+00 4.415274815983138978e-06 -2.486998855601996183e-04 -7.328538049478083849e-05 -1.600578616489656270e-05
1.284000000000000000e+03 3.351929473876953125e+01 -3.662311077117919922e+00 -4.587987959384918213e-01 1.071639060974121094e-01 -1.054904684424400330e-01 1.237901225686073303e-01
1.285000000000000000e+03 3.500150299072265625e+01 -3.711016893386840820e+00 -3.289148807525634766e-01 1.453714370727539062e-01 -5.506303161382675171e-02 -1.651226356625556946e-02
1.286000000000000000e+03 3.426141357421875000e+01 -3.682473182678222656e+00 -4.005927443504333496e-01 1.290966123342514038e-01 -8.144883811473846436e-02 5.772847309708595276e-02
1.287000000000000000e+03 3.969617462158203125e+01 -9.528370857238769531e+00 9.371664524078369141e-01 1.145969390869140625e+00 6.249407529830932617e-01 1.693388342857360840e+00
1.288000000000000000e+03 3.901718902587890625e+01 -9.558683395385742188e+00 5.227296948432922363e-01 8.069501519203186035e-01 3.989039361476898193e-01 1.260641455650329590e+00
1.289000000000000000e+03 3.645438766479492188e+01 -3.788877010345458984e+00 -9.448071569204330444e-02 2.049341797828674316e-01 3.313603997230529785e-02 -2.171374112367630005e-01
1.290000000000000000e+03 3.573392105102539062e+01 -3.747178077697753906e+00 -2.224525064229965210e-01 1.755722612142562866e-01 -1.406407449394464493e-02 -1.150458529591560364e-01
1.291000000000000000e+03 3.784209060668945312e+01 -3.878130912780761719e+00 2.688225507736206055e-01 3.379345834255218506e-01 1.820271462202072144e-01 -5.266601443290710449e-01
1.292000000000000000e+03 3.823180007934570312e+01 -1.023187637329101562e+01 4.860108792781829834e-01 8.412545323371887207e-01 3.981796205043792725e-01 1.183612704277038574e+00
1.293000000000000000e+03 3.685136413574218750e+01 -9.735738754272460938e+00 -3.298659622669219971e-01 3.254464566707611084e-01 -1.325848512351512909e-03 4.908473491668701172e-01
1.294000000000000000e+03 3.384717941284179688e+01 -9.958476066589355469e+00 -8.727166652679443359e-01 1.203969642519950867e-01 -2.256959080696105957e-01 2.902784571051597595e-02
1.295000000000000000e+03 3.240511322021484375e+01 -9.318862915039062500e+00 -1.338572740554809570e+00 3.219125792384147644e-02 -3.919144570827484131e-01 -1.387965381145477295e-01
1.296000000000000000e+03 3.233377838134765625e+01 -1.002909851074218750e+01 -9.942746758460998535e-01 7.366719841957092285e-02 -2.761822640895843506e-01 -1.007875129580497742e-01
1.297000000000000000e+03 3.460349655151367188e+01 -9.912544250488281250e+00 -7.809937000274658203e-01 1.574779897928237915e-01 -1.870547086000442505e-01 1.129480004310607910e-01
1.298000000000000000e+03 1.354815006256103516e+01 5.000878810882568359e+00 -1.147985341958701611e-03 -3.325165016576647758e-04 -4.441505298018455505e-04 -5.575864342972636223e-04
1.299000000000000000e+03 9.403462409973144531e+00 3.365585327148437500e+00 3.646348195616155863e-04 7.072592852637171745e-04 3.215682227164506912e-04 4.159278178121894598e-04
1.300000000000000000e+03 1.260411643981933594e+01 4.099369049072265625e+00 -1.042466610670089722e-03 -2.973147784359753132e-04 -4.019344050902873278e-04 -7.730691577307879925e-04
1.301000000000000000e+03 1.258057117462158203e+01 3.291413545608520508e+00 1.082220114767551422e-03 -9.806045272853225470e-05 2.952478826045989990e-04 3.586858219932764769e-04
1.302000000000000000e+03 4.187627029418945312e+01 -9.006005287170410156e+00 2.371008157730102539e+00 3.627647876739501953e+00 1.799596786499023438e+00 3.866124391555786133e+00
1.303000000000000000e+03 3.003901100158691406e+01 -1.010048389434814453e+01 -1.058304786682128906e+00 3.621504083275794983e-02 -3.066269159317016602e-01 -2.344122976064682007e-01
1.304000000000000000e+03 3.080639839172363281e+01 -1.007943725585937500e+01 -1.053072094917297363e+00 4.393250495195388794e-02 -3.027418553829193115e-01 -1.974032372236251831e-01
1.305000000000000000e+03 2.779771614074707031e+01 -9.369537353515625000e+00 -1.238595843315124512e+00 9.481010958552360535e-03 -3.687344491481781006e-01 -2.932131886482238770e-01
1.306000000000000000e+03 2.926781082153320312e+01 -1.011644935607910156e+01 -1.057516455650329590e+00 3.020907565951347351e-02 -3.081921935081481934e-01 -2.700243294239044189e-01
1.307000000000000000e+03 3.157248878479003906e+01 -1.005613708496093750e+01 -1.030060529708862305e+00 5.887609720230102539e-02 -2.913553118705749512e-01 -1.505826711654663086e-01
1.308000000000000000e+03 9.266480445861816406e+00 4.156080245971679688e+00 -2.513243234716355801e-04 -8.353810990229249001e-04 -3.260116209276020527e-04 -3.324415010865777731e-04
1.309000000000000000e+03 2.000545501708984375e+01 -9.348334312438964844e+00 -5.583989620208740234e-01 7.560104859294369817e-05 -1.674970090389251709e-01 -4.094197154045104980e-01
1.310000000000000000e+03 1.940871047973632812e+01 -8.826086044311523438e+00 -4.560578465461730957e-01 -3.540769591927528381e-02 -1.474396586418151855e-01 -3.399214446544647217e-01
1.311000000000000000e+03 6.481154441833496094e+00 -3.404834508895874023e+00 1.298204588238149881e-04 -1.124808186432346702e-04 5.201890417083632201e-06 3.369772748555988073e-04
1.312000000000000000e+03 2.887414693832397461e+00 -7.694012641906738281e+00 7.599165546707808971e-04 -4.628239912563003600e-05 2.140902361134067178e-04 6.272429018281400204e-04
1.313000000000000000e+03 7.126163482666015625e+00 -4.209928512573242188e+00 2.205796918133273721e-04 -2.036914811469614506e-04 5.066462563263485208e-06 3.730231255758553743e-04
1.314000000000000000e+03 8.790936470031738281e+00 -2.610294818878173828e+00 2.123496415151748806e-05 -4.003767389804124832e-05 -5.640813469653949142e-06 3.883730969391763210e-04
1.315000000000000000e+03 5.760621547698974609e+00 -3.399364471435546875e+00 -1.510031434008851647e-04 2.128430787706747651e-04 1.855197842814959586e-05 -2.808432618621736765e-04
1.316000000000000000e+03 5.764146327972412109e+00 -2.643890380859375000e+00 4.051615007938380586e-07 -2.576435326773207635e-05 -7.607757652294822037e-06 2.469551691319793463e-04
1.317000000000000000e+03 3.781793594360351562e+00 -4.716356277465820312e+00 2.639292797539383173e-04 -1.131091266870498657e-04 4.524604082689620554e-05 -2.652615366969257593e-04
1.318000000000000000e+03 1.699629426002502441e+00 -4.985102653503417969e+00 -5.323892110027372837e-04 -5.248564048088155687e-05 -1.754624536260962486e-04 -3.108887176495045424e-04
1.319000000000000000e+03 2.769865417480468750e+01 -1.010768508911132812e+01 -1.027672410011291504e+00 3.137556090950965881e-02 -2.988890409469604492e-01 -3.332304358482360840e-01
1.320000000000000000e+03 2.848680877685546875e+01 -1.011916923522949219e+01 -1.044762849807739258e+00 3.189631924033164978e-02 -3.038599491119384766e-01 -3.022587597370147705e-01
1.321000000000000000e+03 2.612123298645019531e+01 -1.005319595336914062e+01 -9.697830677032470703e-01 4.015608131885528564e-02 -2.788881063461303711e-01 -3.832544684410095215e-01
1.322000000000000000e+03 2.296228218078613281e+01 -9.864056587219238281e+00 -7.931724190711975098e-01 7.021424174308776855e-02 -2.168874442577362061e-01 -4.455432593822479248e-01
1.323000000000000000e+03 2.059518241882324219e+01 -9.713807106018066406e+00 -6.324002146720886230e-01 2.521591074764728546e-02 -1.821552962064743042e-01 -4.479531347751617432e-01
1.324000000000000000e+03 2.375634574890136719e+01 -9.904238700866699219e+00 -8.467912673950195312e-01 6.686720252037048340e-02 -2.339772284030914307e-01 -4.323259890079498291e-01
1.325000000000000000e+03 2.454262351989746094e+01 -9.954754829406738281e+00 -8.930186033248901367e-01 5.786948278546333313e-02 -2.505447268486022949e-01 -4.197784066200256348e-01
1.326000000000000000e+03 2.545622634887695312e+01 -9.281599998474121094e+00 -1.069954276084899902e+00 2.857174910604953766e-02 -3.124147653579711914e-01 -3.445672988891601562e-01
1.327000000000000000e+03 2.533078002929687500e+01 -1.000735092163085938e+01 -9.341076016426086426e-01 4.984277114272117615e-02 -2.652794420719146729e-01 -4.013514518737792969e-01
1.328000000000000000e+03 1.866291999816894531e+01 -1.368845272064208984e+01 -6.082766652107238770e-01 -1.336692273616790771e-01 -2.225837707519531250e-01 -5.354149937629699707e-01
1.329000000000000000e+03 2.134679222106933594e+01 -9.811845779418945312e+00 -6.748273968696594238e-01 4.709171876311302185e-02 -1.883207112550735474e-01 -4.571303725242614746e-01
1.330000000000000000e+03 2.068847274780273438e+01 -2.389319181442260742e+00 -4.697855189442634583e-02 -2.159170955419540405e-01 -7.886869460344314575e-02 2.190946787595748901e-01
1.331000000000000000e+03 2.041095542907714844e+01 -3.217567920684814453e+00 -4.897181317210197449e-02 -1.505244821310043335e-01 -5.984888598322868347e-02 1.587063819169998169e-01
1.332000000000000000e+03 2.215280723571777344e+01 -9.839031219482421875e+00 -7.381993532180786133e-01 6.798817962408065796e-02 -2.010633498430252075e-01 -4.543225765228271484e-01
1.333000000000000000e+03 2.079100227355957031e+01 2.097025632858276367e+00 -2.469656988978385925e-02 -5.332003235816955566e-01 -1.673690825700759888e-01 2.937572300434112549e-01
1.334000000000000000e+03 2.100204086303710938e+01 4.717160701751708984e+00 -7.544633001089096069e-02 -6.140538454055786133e-01 -2.068500518798828125e-01 2.809120714664459229e-01
1.335000000000000000e+03 1.803114318847656250e+01 -1.027534484863281250e+01 -4.763685762882232666e-01 -2.223575115203857422e-01 -2.096178233623504639e-01 -4.614045917987823486e-01
1.336000000000000000e+03 1.076242256164550781e+01 9.077725410461425781e+00 6.859246059320867062e-04 1.896190806291997433e-03 7.746346527710556984e-04 9.262135718017816544e-04
1.337000000000000000e+03 1.106411647796630859e+01 1.065103721618652344e+01 1.602583914063870907e-03 2.156641799956560135e-03 1.127767725847661495e-03 1.396145904436707497e-03
1.338000000000000000e+03 1.331633281707763672e+01 6.160170555114746094e+00 1.349931582808494568e-03 5.005234270356595516e-04 5.551364738494157791e-04 7.096032495610415936e-04
1.339000000000000000e+03 5.931643962860107422e+00 -1.474929809570312500e+01 1.329892035573720932e-02 -1.228697597980499268e-02 3.035834815818816423e-04 -2.135909907519817352e-02
1.340000000000000000e+03 6.536129474639892578e+00 -1.344217777252197266e+01 -8.566034375689923763e-04 1.827227324247360229e-02 5.224701017141342163e-03 -1.184766367077827454e-02
1.341000000000000000e+03 1.915180969238281250e+01 1.098966598510742188e+01 -2.764367163181304932e-01 -8.795391917228698730e-01 -3.467927873134613037e-01 3.126089274883270264e-01
1.342000000000000000e+03 2.099391937255859375e+01 7.602367877960205078e+00 -1.455532014369964600e-01 -6.032568812370300293e-01 -2.246430367231369019e-01 2.526904046535491943e-01
1.343000000000000000e+03 1.077519702911376953e+01 -3.384501457214355469e+00 4.221038761897943914e-05 -2.435362403048202395e-04 -6.039775325916707516e-05 5.010036402381956577e-04
1.344000000000000000e+03 8.594845771789550781e+00 -2.044914054870605469e+01 -4.389843046665191650e-01 -4.109045863151550293e-01 -2.549666762351989746e-01 -6.027658581733703613e-01
1.345000000000000000e+03 7.875447273254394531e+00 -1.890185737609863281e+01 -5.292256474494934082e-01 -9.484104812145233154e-02 -1.872200071811676025e-01 -2.940356135368347168e-01
1.346000000000000000e+03 1.004419422149658203e+01 4.150104522705078125e+00 3.906835045199841261e-04 9.561086189933121204e-04 4.040376516059041023e-04 4.891601274721324444e-04
1.347000000000000000e+03 3.979883790016174316e-01 3.782825231552124023e+00 4.919908242300152779e-04 1.576144677528645843e-05 1.523256796645000577e-04 1.179245300590991974e-04
1.348000000000000000e+03 1.023142623901367188e+01 -6.198079586029052734e+00 2.396582131041213870e-04 -9.854545351117849350e-04 -2.237389126094058156e-04 4.845525836572051048e-04
1.349000000000000000e+03 1.594387912750244141e+01 -1.850792121887207031e+01 -4.050668776035308838e-01 -3.356657922267913818e-01 -2.222198098897933960e-01 -3.873407542705535889e-01
1.350000000000000000e+03 1.617642593383789062e+01 -1.527920627593994141e+01 -6.372905373573303223e-01 -4.364886879920959473e-01 -3.221337795257568359e-01 -5.507556200027465820e-01
1.351000000000000000e+03 9.629642486572265625e+00 -1.988609504699707031e+01 -4.089326262474060059e-01 -6.496791243553161621e-01 -3.175835311412811279e-01 -6.263402104377746582e-01
1.352000000000000000e+03 1.972196578979492188e+01 -3.158454895019531250e-01 -5.330917891114950180e-03 -4.235933423042297363e-01 -1.286772787570953369e-01 1.741158664226531982e-01
1.353000000000000000e+03 1.339790630340576172e+01 3.109116315841674805e+00 -8.148706983774900436e-04 4.294888058211654425e-04 -1.156145735876634717e-04 2.505401207599788904e-04
1.354000000000000000e+03 3.620866060256958008e+00 2.180488586425781250e+01 -7.542344927787780762e-02 -1.025303080677986145e-01 -5.338612943887710571e-02 1.372708082199096680e-01
1.355000000000000000e+03 7.531802368164062500e+01 -3.737998580932617188e+01 -7.141134887933731079e-02 8.096612930297851562e+00 2.407560586929321289e+00 -1.436578035354614258e-01
1.356000000000000000e+03 7.509853363037109375e+01 -3.438832092285156250e+01 -8.620788902044296265e-02 7.997153282165527344e+00 2.373283624649047852e+00 -2.133518159389495850e-01
1.357000000000000000e+03 7.551756286621093750e+01 -2.196168518066406250e+01 1.536961877718567848e-03 7.319256782531738281e+00 2.196238040924072266e+00 -4.013582766056060791e-01
1.358000000000000000e+03 7.793033599853515625e+01 -2.925658035278320312e+01 -1.033912971615791321e-02 7.821471691131591797e+00 2.343339681625366211e+00 -1.676841974258422852e-01
1.359000000000000000e+03 7.514823913574218750e+01 1.531215476989746094e+01 -3.671206533908843994e-02 7.940750122070312500e+00 2.371211290359497070e+00 4.517831802368164062e-01
1.360000000000000000e+03 7.661985778808593750e+01 1.534601402282714844e+01 -2.098630182445049286e-02 7.973185062408447266e+00 2.385659694671630859e+00 3.403414785861968994e-01
1.361000000000000000e+03 7.759309387207031250e+01 3.568146514892578125e+01 -3.179018199443817139e-02 9.165234565734863281e+00 2.740033149719238281e+00 4.582772403955459595e-02
1.362000000000000000e+03 7.623863983154296875e+01 3.271929931640625000e+01 -3.130539506673812866e-02 8.891539573669433594e+00 2.658070325851440430e+00 1.268261522054672241e-01
1.363000000000000000e+03 7.802044677734375000e+01 -2.216401672363281250e+01 -5.357018089853227139e-04 7.230024814605712891e+00 2.168846845626831055e+00 -2.041947692632675171e-01
1.364000000000000000e+03 7.669318389892578125e+01 -2.349492263793945312e+01 -8.370352908968925476e-03 7.391511440277099609e+00 2.214942216873168945e+00 -3.115690350532531738e-01
1.365000000000000000e+03 7.657511901855468750e+01 -3.066638755798339844e+01 -3.012342937290668488e-02 7.872040271759033203e+00 2.352575063705444336e+00 -2.342934161424636841e-01
1.366000000000000000e+03 7.791778564453125000e+01 -2.785377883911132812e+01 -1.147141307592391968e-02 7.718302249908447266e+00 2.312049388885498047e+00 -1.824600696563720703e-01
1.367000000000000000e+03 7.653910064697265625e+01 -2.929006576538085938e+01 -3.068260848522186279e-02 7.792374134063720703e+00 2.328507423400878906e+00 -2.600376307964324951e-01
1.368000000000000000e+03 7.790493011474609375e+01 -3.462369155883789062e+01 -2.373445965349674225e-02 8.142662048339843750e+00 2.435678243637084961e+00 -9.411768615245819092e-02
1.369000000000000000e+03 7.652045440673828125e+01 -2.786069869995117188e+01 -2.416402101516723633e-02 7.700642108917236328e+00 2.302943468093872070e+00 -2.807310819625854492e-01
1.370000000000000000e+03 7.660415649414062500e+01 -2.494428062438964844e+01 -1.531994622200727463e-02 7.503040790557861328e+00 2.246316194534301758e+00 -3.090341687202453613e-01
1.371000000000000000e+03 7.545137023925781250e+01 -2.336909103393554688e+01 -1.509013213217258453e-02 7.427577972412109375e+00 2.223746299743652344e+00 -4.053099453449249268e-01
1.372000000000000000e+03 7.650749206542968750e+01 -3.451692962646484375e+01 -5.226977914571762085e-02 8.059236526489257812e+00 2.402089834213256836e+00 -1.577659845352172852e-01
1.373000000000000000e+03 7.379451751708984375e+01 -2.948736190795898438e+01 -8.520455658435821533e-02 7.776741981506347656e+00 2.307461261749267578e+00 -3.868056833744049072e-01
1.374000000000000000e+03 7.662623596191406250e+01 -3.196980094909667969e+01 -4.188358783721923828e-02 7.942220211029052734e+00 2.370100975036621094e+00 -2.112489193677902222e-01
1.375000000000000000e+03 7.488802337646484375e+01 -4.017967224121093750e+01 -5.996948108077049255e-02 8.110667228698730469e+00 2.415209293365478516e+00 -8.457589894533157349e-02
1.376000000000000000e+03 7.809367370605468750e+01 2.223253250122070312e+01 -9.629458189010620117e-03 8.591369628906250000e+00 2.574522018432617188e+00 1.559423655271530151e-01
1.377000000000000000e+03 7.674811553955078125e+01 1.949860763549804688e+01 -2.086530253291130066e-02 8.297879219055175781e+00 2.483103990554809570e+00 2.807884812355041504e-01
1.378000000000000000e+03 7.556558227539062500e+01 2.214244651794433594e+01 -4.492526128888130188e-02 8.390970230102539062e+00 2.503813505172729492e+00 3.216182291507720947e-01
1.379000000000000000e+03 7.680603027343750000e+01 2.084611320495605469e+01 -2.313075028359889984e-02 8.396027565002441406e+00 2.511869192123413086e+00 2.626593112945556641e-01
1.380000000000000000e+03 7.666542816162109375e+01 1.260707187652587891e+01 -1.115132216364145279e-02 7.736972808837890625e+00 2.317746400833129883e+00 3.598711490631103516e-01
1.381000000000000000e+03 7.527847290039062500e+01 8.457690238952636719e+00 1.164683513343334198e-02 7.428084850311279297e+00 2.231919527053833008e+00 4.823685884475708008e-01
1.382000000000000000e+03 7.663744354248046875e+01 1.398237705230712891e+01 -1.551438961178064346e-02 7.857067584991455078e+00 2.352465867996215820e+00 3.532476425170898438e-01
1.383000000000000000e+03 7.788705444335937500e+01 2.651957893371582031e+01 -9.605308994650840759e-03 8.838406562805175781e+00 2.648640394210815430e+00 1.279643177986145020e-01
1.384000000000000000e+03 7.674636077880859375e+01 -2.206320953369140625e+01 -1.305806101299822330e-03 7.277143955230712891e+00 2.182751417160034180e+00 -3.125631213188171387e-01
1.385000000000000000e+03 7.804108428955078125e+01 3.031884193420410156e+01 -9.621860459446907043e-03 9.048470497131347656e+00 2.711654663085937500e+00 9.245291352272033691e-02
1.386000000000000000e+03 7.711083984375000000e+01 2.858773422241210938e+01 -1.105918921530246735e-02 8.854452133178710938e+00 2.653017997741699219e+00 1.472162008285522461e-01
1.387000000000000000e+03 7.445149230957031250e+01 -1.487354087829589844e+01 9.459333866834640503e-02 6.981628894805908203e+00 2.122866630554199219e+00 -3.658993542194366455e-01
1.388000000000000000e+03 7.676879882812500000e+01 -2.064773750305175781e+01 5.316166672855615616e-03 7.164856910705566406e+00 2.151051759719848633e+00 -3.085913062095642090e-01
1.389000000000000000e+03 7.546600341796875000e+01 -8.188269615173339844e+00 1.144611909985542297e-01 6.664752006530761719e+00 2.033763885498046875e+00 -6.203015148639678955e-02
1.390000000000000000e+03 7.684456634521484375e+01 -1.369148921966552734e+01 4.133306816220283508e-02 6.676953315734863281e+00 2.015486001968383789e+00 -2.137595713138580322e-01
1.391000000000000000e+03 7.542617034912109375e+01 -1.278102159500122070e+00 1.018468141555786133e-01 6.785375595092773438e+00 2.066166877746582031e+00 2.530783116817474365e-01
1.392000000000000000e+03 7.676745605468750000e+01 -8.204472541809082031e+00 6.211115047335624695e-02 6.495905399322509766e+00 1.967404961585998535e+00 -4.800357669591903687e-02
1.393000000000000000e+03 7.801838684082031250e+01 5.665696620941162109e+00 8.383105508983135223e-03 7.012439250946044922e+00 2.106246709823608398e+00 2.235545814037322998e-01
1.394000000000000000e+03 7.534252929687500000e+01 5.667133331298828125e+00 3.836040198802947998e-02 7.211778163909912109e+00 2.175041437149047852e+00 4.515314996242523193e-01
1.395000000000000000e+03 7.604901885986328125e+01 3.668537521362304688e+01 -4.681218042969703674e-02 8.943933486938476562e+00 2.669136285781860352e+00 8.543738722801208496e-02
1.396000000000000000e+03 7.738620758056640625e+01 3.690277099609375000e+01 -3.614715859293937683e-02 9.183524131774902344e+00 2.744213104248046875e+00 3.213621675968170166e-02
1.397000000000000000e+03 7.578137207031250000e+01 2.784476852416992188e+01 -3.070924431085586548e-02 8.682492256164550781e+00 2.595534801483154297e+00 2.057622820138931274e-01
1.398000000000000000e+03 7.801580810546875000e+01 7.057762145996093750e+00 5.607668310403823853e-03 7.152265548706054688e+00 2.147361993789672852e+00 2.321203500032424927e-01
1.399000000000000000e+03 7.669066619873046875e+01 5.691219329833984375e+00 2.047283574938774109e-02 7.118905067443847656e+00 2.141813278198242188e+00 3.459167778491973877e-01
1.400000000000000000e+03 7.673110198974609375e+01 -2.667352676391601562e+00 6.085761263966560364e-02 6.571519374847412109e+00 1.989713191986083984e+00 1.489056795835494995e-01
1.401000000000000000e+03 7.678733825683593750e+01 -9.575722694396972656e+00 5.966994538903236389e-02 6.518002510070800781e+00 1.973301768302917480e+00 -9.481455385684967041e-02
1.402000000000000000e+03 7.684579467773437500e+01 -1.643351745605468750e+01 2.623890712857246399e-02 6.847883224487304688e+00 2.062236785888671875e+00 -2.667920887470245361e-01
1.403000000000000000e+03 7.453806304931640625e+01 3.523404693603515625e+01 -8.028338104486465454e-02 8.726922035217285156e+00 2.593991518020629883e+00 1.252918839454650879e-01
1.404000000000000000e+03 7.668296813964843750e+01 1.812318611145019531e+01 -2.254563942551612854e-02 8.193821907043457031e+00 2.451382875442504883e+00 3.034884631633758545e-01
1.405000000000000000e+03 7.666854858398437500e+01 9.848461151123046875e+00 7.590195164084434509e-04 7.486004352569580078e+00 2.246029138565063477e+00 3.698655068874359131e-01
1.406000000000000000e+03 7.809470367431640625e+01 -1.378387641906738281e+01 1.711527630686759949e-02 6.525698661804199219e+00 1.962844133377075195e+00 -1.397490054368972778e-01
1.407000000000000000e+03 7.685095214843750000e+01 -1.505810642242431641e+01 3.395626693964004517e-02 6.756908416748046875e+00 2.037259340286254883e+00 -2.420327216386795044e-01
1.408000000000000000e+03 7.805267333984375000e+01 -6.870465278625488281e+00 2.568075805902481079e-02 6.291008949279785156e+00 1.895006895065307617e+00 -2.513400104362517595e-04
1.409000000000000000e+03 7.802767181396484375e+01 1.482110857963562012e+00 1.738783530890941620e-02 6.637827396392822266e+00 1.996564507484436035e+00 1.760505884885787964e-01
1.410000000000000000e+03 7.672673797607421875e+01 -1.272047400474548340e+00 5.651130154728889465e-02 6.631981849670410156e+00 2.006547927856445312e+00 1.943331807851791382e-01
1.411000000000000000e+03 7.770651245117187500e+01 3.437351989746093750e+01 -2.562783099710941315e-02 9.135077476501464844e+00 2.732834815979003906e+00 6.152836978435516357e-02
1.412000000000000000e+03 7.670143127441406250e+01 4.297428131103515625e+00 2.805738896131515503e-02 7.002686500549316406e+00 2.109223127365112305e+00 3.263904452323913574e-01
1.413000000000000000e+03 7.671065521240234375e+01 2.900142669677734375e+00 3.557553514838218689e-02 6.893476009368896484e+00 2.078715562820434570e+00 3.017442226409912109e-01
1.414000000000000000e+03 7.673454284667968750e+01 -4.058858394622802734e+00 6.446836143732070923e-02 6.527709484100341797e+00 1.977653264999389648e+00 1.005205586552619934e-01
1.415000000000000000e+03 7.674112701416015625e+01 -5.450145244598388672e+00 6.502363085746765137e-02 6.500205516815185547e+00 1.969568729400634766e+00 5.015378445386886597e-02
1.416000000000000000e+03 7.559050750732421875e+01 -1.226192474365234375e+01 8.827123045921325684e-02 6.753745079040527344e+00 2.052604913711547852e+00 -2.304160594940185547e-01
1.417000000000000000e+03 7.680960083007812500e+01 -1.094905757904052734e+01 5.463764816522598267e-02 6.556029319763183594e+00 1.983200192451477051e+00 -1.387131810188293457e-01
1.418000000000000000e+03 7.679525756835937500e+01 -1.923336791992187500e+01 1.199188083410263062e-02 7.055483818054199219e+00 2.120242595672607422e+00 -2.997727990150451660e-01
1.419000000000000000e+03 7.457897186279296875e+00 1.317882919311523438e+01 -2.355646574869751930e-03 5.874251946806907654e-03 1.055581611581146717e-03 8.737630210816860199e-03
1.420000000000000000e+03 1.138351440429687500e+01 8.067625045776367188e+00 -7.254545344039797783e-04 -1.268881722353398800e-03 -5.983008886687457561e-04 -8.504409343004226685e-04
1.421000000000000000e+03 1.292640209197998047e+01 7.316902637481689453e+00 -1.438754959963262081e-03 -8.518776157870888710e-04 -6.871897494420409203e-04 -8.877526270225644112e-04
1.422000000000000000e+03 1.859204864501953125e+01 1.454388141632080078e+01 -3.965528607368469238e-01 -5.851498842239379883e-01 -2.945108115673065186e-01 2.735341787338256836e-01
1.423000000000000000e+03 3.496652364730834961e+00 3.603852081298828125e+01 5.259368568658828735e-02 -6.453498005867004395e-01 -1.778268218040466309e-01 9.482328593730926514e-02
1.424000000000000000e+03 1.962787628173828125e+00 2.751696395874023438e+01 2.841212786734104156e-03 -3.869983553886413574e-01 -1.152471378445625305e-01 1.323053687810897827e-01
1.425000000000000000e+03 3.497235059738159180e+00 3.018246078491210938e+01 2.006568200886249542e-02 -4.620452225208282471e-01 -1.325938552618026733e-01 1.831956952810287476e-01
1.426000000000000000e+03 1.905172705650329590e+00 2.611531066894531250e+01 2.271458273753523827e-03 -3.097675144672393799e-01 -9.224881976842880249e-02 1.305590867996215820e-01
1.427000000000000000e+03 3.290184497833251953e+00 2.740089416503906250e+01 1.026367954909801483e-02 -3.605661094188690186e-01 -1.050907298922538757e-01 1.991967856884002686e-01
1.428000000000000000e+03 5.420933723449707031e+00 3.267203140258789062e+01 6.313512474298477173e-02 -4.260710179805755615e-01 -1.088807657361030579e-01 1.881141960620880127e-01
1.429000000000000000e+03 3.906507015228271484e+00 3.309841918945312500e+01 4.365611821413040161e-02 -5.249900817871093750e-01 -1.444001793861389160e-01 1.571047604084014893e-01
1.430000000000000000e+03 3.399380445480346680e+00 2.878412246704101562e+01 1.570952869951725006e-02 -4.130481481552124023e-01 -1.192015856504440308e-01 1.921571791172027588e-01
1.431000000000000000e+03 6.018857002258300781e+00 3.828541564941406250e+01 8.725919574499130249e-02 -4.385167658329010010e-01 -1.053772717714309692e-01 9.395204484462738037e-02
1.432000000000000000e+03 2.028064012527465820e+00 3.718260574340820312e+01 5.590635817497968674e-03 -7.737683653831481934e-01 -2.304533123970031738e-01 3.160406276583671570e-02
1.433000000000000000e+03 3.874814987182617188e+00 3.461333084106445312e+01 6.465950608253479004e-02 -5.602708458900451660e-01 -1.486833989620208740e-01 1.263605654239654541e-01
1.434000000000000000e+03 4.353640079498291016e+00 -3.532624053955078125e+01 6.687019020318984985e-02 -7.956616282463073730e-01 -2.186374366283416748e-01 -1.505025476217269897e-01
1.435000000000000000e+03 4.115440368652343750e+00 -3.400994873046875000e+01 7.434119284152984619e-02 -7.726847529411315918e-01 -2.095030695199966431e-01 -1.741227209568023682e-01
1.436000000000000000e+03 3.725450515747070312e+00 -3.003644371032714844e+01 3.146957606077194214e-02 -6.520964503288269043e-01 -1.861880570650100708e-01 -2.369120717048645020e-01
1.437000000000000000e+03 2.146076679229736328e+00 -2.884395599365234375e+01 9.155308827757835388e-03 -6.508949398994445801e-01 -1.925218850374221802e-01 -1.703417301177978516e-01
1.438000000000000000e+03 4.997276782989501953e+00 -2.842423820495605469e+01 5.016576126217842102e-02 -5.465474128723144531e-01 -1.489144861698150635e-01 -3.186302781105041504e-01
1.439000000000000000e+03 3.156227588653564453e+00 2.318213462829589844e+01 -5.087041482329368591e-02 -1.579937934875488281e-01 -6.265926361083984375e-02 1.659946441650390625e-01
1.440000000000000000e+03 1.492020368576049805e+00 -1.315805721282958984e+01 1.644556876271963120e-03 6.339852232486009598e-03 2.395322546362876892e-03 7.571364752948284149e-03
1.441000000000000000e+03 1.745299696922302246e+00 2.043173599243164062e+01 -2.005035988986492157e-02 -3.082137554883956909e-02 -1.526152063161134720e-02 3.704847767949104309e-02
1.442000000000000000e+03 1.889253497123718262e+00 1.897410011291503906e+01 -1.530084665864706039e-02 -1.445947866886854172e-02 -8.928097784519195557e-03 1.848454028367996216e-02
1.443000000000000000e+03 5.546663284301757812e+00 1.826086425781250000e+01 -9.411764889955520630e-02 -2.638789452612400055e-02 -3.615166246891021729e-02 2.843367308378219604e-02
1.444000000000000000e+03 2.008018732070922852e+00 -1.866958427429199219e+01 -3.655807673931121826e-02 -2.572555653750896454e-02 -1.868508942425251007e-02 -2.801706269383430481e-02
1.445000000000000000e+03 3.156764268875122070e+00 -1.852052879333496094e+01 -6.917859613895416260e-02 -4.499031230807304382e-02 -3.425067290663719177e-02 -4.452327266335487366e-02
1.446000000000000000e+03 5.428735733032226562e+00 1.347470474243164062e+01 3.785047680139541626e-03 -1.221254561096429825e-02 -2.528249518945813179e-03 4.721131175756454468e-03
1.447000000000000000e+03 1.980395078659057617e+00 -2.166545295715332031e+01 -3.077066317200660706e-02 -1.447486132383346558e-01 -5.265578255057334900e-02 -1.213091909885406494e-01
1.448000000000000000e+03 6.841718196868896484e+00 -1.995752143859863281e+01 -3.232406079769134521e-01 -1.446848064661026001e-01 -1.403776258230209351e-01 -3.407258093357086182e-01
1.449000000000000000e+03 3.823025703430175781e+00 5.117690563201904297e+00 2.352336159674450755e-04 -3.575471055228263140e-04 -3.669405123218894005e-05 1.650019257795065641e-04
1.450000000000000000e+03 3.141038417816162109e+00 7.780616760253906250e+00 -2.455145877320319414e-04 3.176800091750919819e-04 2.164962643291801214e-05 -7.807155488990247250e-04
1.451000000000000000e+03 4.513290405273437500e+00 1.460123157501220703e+01 8.303326554596424103e-03 -1.648913323879241943e-02 -2.455742331221699715e-03 -1.847427105531096458e-03
1.452000000000000000e+03 1.861290454864501953e+00 1.745911979675292969e+01 -9.713640436530113220e-03 1.267539570108056068e-03 -2.533830236643552780e-03 -1.087031327188014984e-03
1.453000000000000000e+03 3.478331565856933594e+00 1.996828651428222656e+01 -6.155532598495483398e-02 -5.253136903047561646e-02 -3.422600775957107544e-02 6.692718714475631714e-02
1.454000000000000000e+03 2.924062967300415039e+00 9.051048278808593750e+00 2.304684370756149292e-03 -2.985033206641674042e-04 6.018542917445302010e-04 -8.752840221859514713e-04
1.455000000000000000e+03 2.740808010101318359e+00 -3.904851436614990234e+00 -2.937049721367657185e-04 -2.935785232693888247e-05 -9.691884770290926099e-05 -4.690817149821668863e-04
1.456000000000000000e+03 3.291148662567138672e+00 -1.478790473937988281e+01 5.118922796100378036e-03 -2.432070858776569366e-02 -5.760536063462495804e-03 8.588010445237159729e-03
1.457000000000000000e+03 7.844920635223388672e+00 -9.142921447753906250e+00 -6.077769794501364231e-04 2.165612298995256424e-03 4.673506191466003656e-04 -3.026044869329780340e-04
1.458000000000000000e+03 3.578420639038085938e+00 -2.866749191284179688e+01 3.756681829690933228e-02 -5.962850451469421387e-01 -1.676154732704162598e-01 -2.549114823341369629e-01
1.459000000000000000e+03 2.587443351745605469e+00 -3.566068267822265625e+01 3.999298438429832458e-02 -9.608767628669738770e-01 -2.762651145458221436e-01 -8.362040668725967407e-02
1.460000000000000000e+03 2.994214057922363281e+00 -9.065606117248535156e+00 8.745384984649717808e-04 2.855165803339332342e-04 3.480165032669901848e-04 -3.072764593525789678e-05
1.461000000000000000e+03 6.208612918853759766e+00 -3.486871337890625000e+01 1.184390932321548462e-01 -6.245384216308593750e-01 -1.518298089504241943e-01 -2.022400051355361938e-01
1.462000000000000000e+03 3.162821292877197266e+00 -1.996446418762207031e+01 -9.509380906820297241e-02 -9.511694312095642090e-02 -5.706322565674781799e-02 -1.193138137459754944e-01
1.463000000000000000e+03 1.994415521621704102e+00 -2.312863731384277344e+01 -2.455993928015232086e-02 -2.383132576942443848e-01 -7.886195927858352661e-02 -1.589025557041168213e-01
1.464000000000000000e+03 3.374777555465698242e+00 -2.583592224121093750e+01 3.737720893695950508e-03 -4.413290619850158691e-01 -1.312773972749710083e-01 -2.732907831668853760e-01
1.465000000000000000e+03 4.630546092987060547e+00 -2.570601654052734375e+01 -2.270164201036095619e-03 -4.416846930980682373e-01 -1.331864595413208008e-01 -3.434485197067260742e-01
1.466000000000000000e+03 3.742783069610595703e+00 -1.300921058654785156e+01 9.173710830509662628e-03 -1.516246236860752106e-02 -1.796625438146293163e-03 2.166751772165298462e-03
1.467000000000000000e+03 5.951152324676513672e+00 -9.396931648254394531e+00 5.131352809257805347e-04 7.797653961461037397e-05 1.773335388861596584e-04 -9.653328561398666352e-06
1.468000000000000000e+03 2.907670021057128906e+00 1.031636047363281250e+01 5.170762306079268456e-04 -2.253347629448398948e-04 8.752244320930913091e-05 -2.068977104499936104e-03
1.469000000000000000e+03 3.269167423248291016e+00 1.441310405731201172e+01 5.849555600434541702e-03 -1.098159048706293106e-02 -1.539610442705452442e-03 -6.157509982585906982e-03
1.470000000000000000e+03 6.842777252197265625e+00 1.667486190795898438e+01 -2.088891714811325073e-02 -1.071262545883655548e-02 -9.480463340878486633e-03 3.691934514790773392e-03
1.471000000000000000e+03 5.603315353393554688e+00 1.673314285278320312e+01 -2.840176969766616821e-02 -2.583029307425022125e-02 -1.626961864531040192e-02 7.662829943001270294e-03
1.472000000000000000e+03 4.314611911773681641e+00 1.702769279479980469e+01 -2.695344015955924988e-02 -3.235668316483497620e-02 -1.779303699731826782e-02 7.478067651391029358e-03
1.473000000000000000e+03 5.337603569030761719e+00 1.539752578735351562e+01 -2.963206730782985687e-03 -2.654008939862251282e-02 -8.850988931953907013e-03 3.845091909170150757e-03
1.474000000000000000e+03 7.451483726501464844e+00 1.512327480316162109e+01 1.875370740890502930e-03 1.162983849644660950e-02 4.051562864333391190e-03 1.905497349798679352e-02
1.475000000000000000e+03 4.218322277069091797e+00 -8.811166763305664062e+00 1.184010179713368416e-03 -5.786242545582354069e-04 1.816158037399873137e-04 6.274758488871157169e-04
1.476000000000000000e+03 9.551875114440917969e+00 -7.164827346801757812e+00 -1.924646348925307393e-04 1.112797996029257774e-03 2.761000068858265877e-04 -3.536314179655164480e-04
1.477000000000000000e+03 8.752364158630371094e+00 -8.132236480712890625e+00 5.850346642546355724e-04 -1.359075773507356644e-03 -2.322123182239010930e-04 2.773187588900327682e-04
1.478000000000000000e+03 1.190100097656250000e+01 7.054372310638427734e+00 8.894303464330732822e-04 1.263581914827227592e-03 6.459036958403885365e-04 9.332642075605690479e-04
1.479000000000000000e+03 1.584870815277099609e+01 1.817164802551269531e+01 -4.501526653766632080e-01 -5.720985531806945801e-01 -3.066753745079040527e-01 3.138099908828735352e-01
1.480000000000000000e+03 2.067066383361816406e+01 9.035627841949462891e-01 -1.837816834449768066e-02 -4.638543725013732910e-01 -1.446697711944580078e-01 2.788450717926025391e-01
1.481000000000000000e+03 2.364829826354980469e+01 4.586441993713378906e+00 9.694278240203857422e-03 -1.256757378578186035e-01 -3.479443490505218506e-02 2.732273638248443604e-01
1.482000000000000000e+03 1.946425247192382812e+01 1.326640892028808594e+01 -3.334460556507110596e-01 -5.615408420562744141e-01 -2.684960663318634033e-01 2.366686612367630005e-01
1.483000000000000000e+03 1.691514587402343750e+01 -1.411396980285644531e+01 -6.387484669685363770e-01 -3.652889430522918701e-01 -3.012112379074096680e-01 -5.553357005119323730e-01
1.484000000000000000e+03 1.761284828186035156e+01 -1.298713779449462891e+01 -6.225935220718383789e-01 -2.757644057273864746e-01 -2.695073783397674561e-01 -5.580061674118041992e-01
1.485000000000000000e+03 1.541278362274169922e+01 -1.645100212097167969e+01 -6.370213031768798828e-01 -4.782599806785583496e-01 -3.345843851566314697e-01 -5.431686639785766602e-01
1.486000000000000000e+03 2.111294937133789062e+01 9.258636474609375000e+00 -1.895659714937210083e-01 -4.779841005802154541e-01 -2.002650201320648193e-01 2.046779096126556396e-01
1.487000000000000000e+03 2.151779937744140625e+01 1.319412422180175781e+01 -2.363825887441635132e-01 -5.112924426794052124e-02 -8.625355362892150879e-02 2.650901675224304199e-02
1.488000000000000000e+03 1.090118122100830078e+01 -1.951540756225585938e+01 -4.392296075820922852e-01 -7.196679711341857910e-01 -3.476692736148834229e-01 -4.708670377731323242e-01
1.489000000000000000e+03 1.375962162017822266e+01 -1.970558547973632812e+01 -3.634641766548156738e-01 -5.119092464447021484e-01 -2.626120150089263916e-01 -4.084313213825225830e-01
1.490000000000000000e+03 1.989479637145996094e+01 -2.280000448226928711e+00 -1.780924946069717407e-02 -2.365887016057968140e-01 -7.631938904523849487e-02 1.557295620441436768e-01
1.491000000000000000e+03 1.874960136413574219e+01 1.665996170043945312e+01 -3.465346992015838623e-01 -3.064294159412384033e-01 -1.958892345428466797e-01 1.144393309950828552e-01
1.492000000000000000e+03 1.270134544372558594e+01 2.143917846679687500e+01 -1.880900561809539795e-01 -4.788421094417572021e-01 -2.000796496868133545e-01 3.353514671325683594e-01
1.493000000000000000e+03 1.139494991302490234e+01 2.023105812072753906e+01 -4.370358586311340332e-01 -4.919026792049407959e-01 -2.786815464496612549e-01 4.169297218322753906e-01
1.494000000000000000e+03 4.139227390289306641e+00 -1.556848526000976562e+01 3.099005669355392456e-03 -3.118563443422317505e-02 -8.425988256931304932e-03 7.711661746725440025e-04
1.495000000000000000e+03 4.962281227111816406e+00 -4.045829391479492188e+01 4.805279523134231567e-02 -8.360900878906250000e-01 -2.364111840724945068e-01 -7.148445397615432739e-02
1.496000000000000000e+03 8.840371131896972656e+00 -3.602133560180664062e+01 1.889748275279998779e-01 -4.223466515541076660e-01 -7.001154869794845581e-02 -1.803066730499267578e-01
1.497000000000000000e+03 4.859558105468750000e+00 4.039505386352539062e+01 3.346585109829902649e-02 -5.948107242584228516e-01 -1.684034615755081177e-01 5.806668847799301147e-02
1.498000000000000000e+03 4.360218429565429688e+01 -8.858660697937011719e+00 1.761427879333496094e+00 1.139657115936279297e+01 3.947399854660034180e+00 5.524768829345703125e+00
1.499000000000000000e+03 4.304347610473632812e+01 -4.326347351074218750e+00 3.212379217147827148e+00 7.999213695526123047e+00 3.363477945327758789e+00 -5.784568309783935547e+00
1.500000000000000000e+03 4.227787017822265625e+01 -4.483322143554687500e+00 3.408013582229614258e+00 3.838978528976440430e+00 2.174097537994384766e+00 -4.343445301055908203e+00
1.501000000000000000e+03 4.332062530517578125e+01 -4.601551055908203125e+00 3.392621755599975586e+00 9.647982597351074219e+00 3.912181377410888672e+00 -6.435092926025390625e+00
1.502000000000000000e+03 4.449617004394531250e+01 -4.418080806732177734e+00 1.607037186622619629e+00 1.728152656555175781e+01 5.666569232940673828e+00 -3.236271381378173828e+00
1.503000000000000000e+03 4.386101150512695312e+01 -4.456891059875488281e+00 2.177684545516967773e+00 1.393989562988281250e+01 4.835274219512939453e+00 -5.735981464385986328e+00
1.504000000000000000e+03 4.397715759277343750e+01 -8.491102218627929688e+00 1.724826574325561523e+00 1.485361194610595703e+01 4.973531723022460938e+00 5.420837879180908203e+00
1.505000000000000000e+03 4.665089035034179688e+01 -6.122606754302978516e+00 8.798679351806640625e+00 1.375358104705810547e+01 6.765678405761718750e+00 7.380874156951904297e-01
1.506000000000000000e+03 4.408290100097656250e+01 -4.377005100250244141e+00 1.856238484382629395e+00 1.514514255523681641e+01 5.100414276123046875e+00 -4.910728931427001953e+00
1.507000000000000000e+03 4.608354949951171875e+01 -4.673127174377441406e+00 4.525449275970458984e+00 1.590975666046142578e+01 6.130561828613281250e+00 1.713584423065185547e+00
1.508000000000000000e+03 4.519432449340820312e+01 -8.422665596008300781e+00 2.319126844406127930e+00 1.823720550537109375e+01 6.166899204254150391e+00 6.691165268421173096e-02
1.509000000000000000e+03 4.570185852050781250e+01 -4.958987712860107422e+00 5.116998672485351562e+00 1.755447959899902344e+01 6.801443099975585938e+00 1.794767022132873535e+00
1.510000000000000000e+03 4.630116271972656250e+01 -5.270483970642089844e+00 6.859847068786621094e+00 1.523374176025390625e+01 6.628076553344726562e+00 2.090180158615112305e+00
1.511000000000000000e+03 4.143095397949218750e+01 -9.379011154174804688e+00 1.957057952880859375e+00 3.088941812515258789e+00 1.513799905776977539e+00 3.354391813278198242e+00
1.512000000000000000e+03 4.169364166259765625e+01 -4.227209568023681641e+00 2.825292587280273438e+00 2.550492763519287109e+00 1.612735509872436523e+00 -3.353502988815307617e+00
1.513000000000000000e+03 4.216976547241210938e+01 -8.639724731445312500e+00 2.736321926116943359e+00 3.810591936111450195e+00 1.964074134826660156e+00 4.183848857879638672e+00
1.514000000000000000e+03 4.200403594970703125e+01 -4.497344017028808594e+00 3.184845685958862305e+00 3.007768630981445312e+00 1.857784271240234375e+00 -3.718657255172729492e+00
1.515000000000000000e+03 4.139838790893554688e+01 -4.288150787353515625e+00 2.531580686569213867e+00 1.975506782531738281e+00 1.352126240730285645e+00 -2.820637226104736328e+00
1.516000000000000000e+03 4.097296142578125000e+01 -8.923245429992675781e+00 1.693827390670776367e+00 1.641800880432128906e+00 1.000688552856445312e+00 2.408936500549316406e+00
1.517000000000000000e+03 4.032301712036132812e+01 -9.526827812194824219e+00 1.326637387275695801e+00 1.684858918190002441e+00 9.034488797187805176e-01 2.223155736923217773e+00
1.518000000000000000e+03 3.961584091186523438e+01 -3.946587562561035156e+00 1.195642828941345215e+00 7.850643992424011230e-01 5.942121744155883789e-01 -1.326985597610473633e+00
1.519000000000000000e+03 3.854869842529296875e+01 -3.424735069274902344e+00 8.807414174079895020e-01 6.855836510658264160e-01 4.698975384235382080e-01 -1.000995039939880371e+00
1.520000000000000000e+03 3.963399124145507812e+01 -3.472583293914794922e+00 1.496489524841308594e+00 1.102320551872253418e+00 7.796429991722106934e-01 -1.648698329925537109e+00
1.521000000000000000e+03 3.794277572631835938e+01 -3.352966308593750000e+00 6.804047822952270508e-01 5.392137169837951660e-01 3.658855557441711426e-01 -7.819129824638366699e-01
1.522000000000000000e+03 2.092960739135742188e+01 3.372343778610229492e+00 -4.702827706933021545e-02 -5.836308002471923828e-01 -1.891977190971374512e-01 2.932961881160736084e-01
1.523000000000000000e+03 2.561182022094726562e+01 -3.429800510406494141e+00 -3.234022557735443115e-01 -3.396631032228469849e-02 -1.072105690836906433e-01 3.598417937755584717e-01
1.524000000000000000e+03 2.446264266967773438e+01 -2.531955003738403320e+00 -1.900809407234191895e-01 -8.354803919792175293e-02 -8.208869397640228271e-02 3.810190260410308838e-01
1.525000000000000000e+03 1.981736946105957031e+01 -1.389564871788024902e+00 -1.623360253870487213e-02 -3.169702291488647461e-01 -9.996114671230316162e-02 1.763138771057128906e-01
1.526000000000000000e+03 2.701991462707519531e+01 -3.544450044631958008e+00 -4.052211344242095947e-01 -5.696763400919735432e-04 -1.217372417449951172e-01 3.574099838733673096e-01
1.527000000000000000e+03 2.513697624206542969e+01 -2.659666776657104492e+00 -2.251376509666442871e-01 -5.524796620011329651e-02 -8.411568403244018555e-02 3.869268000125885010e-01
1.528000000000000000e+03 2.843320465087890625e+01 -3.594377517700195312e+00 -4.708416163921356201e-01 2.623034268617630005e-02 -1.333833783864974976e-01 3.405949175357818604e-01
1.529000000000000000e+03 2.719489669799804688e+01 -2.892411708831787109e+00 -3.112674951553344727e-01 7.163662929087877274e-03 -9.123115241527557373e-02 3.773363530635833740e-01
1.530000000000000000e+03 8.509186744689941406e+00 4.160726070404052734e+00 4.427624226082116365e-04 8.100973209366202354e-04 3.758579259738326073e-04 3.064323391299694777e-04
1.531000000000000000e+03 2.788587760925292969e+01 -2.919533729553222656e+00 -3.291584849357604980e-01 2.606514655053615570e-02 -9.092799574136734009e-02 3.674161136150360107e-01
1.532000000000000000e+03 2.985911369323730469e+01 -3.614179849624633789e+00 -5.138980150222778320e-01 4.906145483255386353e-02 -1.394509673118591309e-01 3.076357841491699219e-01
1.533000000000000000e+03 9.541295051574707031e+00 -3.206345796585083008e+00 -4.125055056647397578e-05 7.658221147721633315e-05 1.059949772752588615e-05 5.529448972083628178e-04
1.534000000000000000e+03 8.855401039123535156e+00 -3.419064998626708984e+00 6.079380455048521981e-06 2.103683073073625565e-05 8.134863492159638554e-06 -3.719158121384680271e-04
1.535000000000000000e+03 7.773077487945556641e+00 4.150011539459228516e+00 -1.834686263464391232e-04 -6.938722799532115459e-04 -2.632022660691291094e-04 -2.315468591405078769e-04
1.536000000000000000e+03 6.835300922393798828e+00 4.909362792968750000e+00 -1.009070329018868506e-04 -5.485074361786246300e-04 -1.948243443621322513e-04 -6.267521530389785767e-05
1.537000000000000000e+03 5.130745887756347656e+00 3.916588783264160156e+00 -9.014430543174967170e-05 -4.651290073525160551e-04 -1.665819872869178653e-04 4.081765291630290449e-05
1.538000000000000000e+03 4.513431072235107422e+00 5.782068729400634766e+00 2.415165654383599758e-04 1.683239097474142909e-04 1.229521440109238029e-04 -3.415979444980621338e-04
1.539000000000000000e+03 2.482195138931274414e+00 4.632585048675537109e+00 -3.332116175442934036e-04 -2.170923253288492560e-04 -1.650911872275173664e-04 3.607805410865694284e-04
1.540000000000000000e+03 3.899559020996093750e+00 3.337450742721557617e+00 1.559350057505071163e-04 6.076692370697855949e-04 2.290812699357047677e-04 -1.907806581584736705e-04
1.541000000000000000e+03 5.167337417602539062e+00 5.154839992523193359e+00 9.738564403960481286e-05 -1.197990568471141160e-04 -6.724022568960208446e-06 2.493509382475167513e-04
1.542000000000000000e+03 1.474351525306701660e+00 4.895773887634277344e+00 5.018952069804072380e-04 1.417268067598342896e-04 1.930866128532215953e-04 -2.651030954439193010e-04
1.543000000000000000e+03 3.131451988220214844e+01 -3.626426458358764648e+00 -5.255575180053710938e-01 7.035195082426071167e-02 -1.365616768598556519e-01 2.550323903560638428e-01
1.544000000000000000e+03 3.070286941528320312e+01 -2.948482036590576172e+00 -3.313411474227905273e-01 9.028606116771697998e-02 -7.231651991605758667e-02 2.721889019012451172e-01
1.545000000000000000e+03 2.537207031250000000e+01 -1.999928832054138184e+00 -1.679366677999496460e-01 -5.267132818698883057e-02 -6.618239730596542358e-02 4.031840264797210693e-01
1.546000000000000000e+03 2.311751747131347656e+01 -2.233230829238891602e+00 -1.263907104730606079e-01 -1.437569707632064819e-01 -8.104430139064788818e-02 3.554489314556121826e-01
1.547000000000000000e+03 2.811382484436035156e+01 -1.670750141143798828e+00 -1.264383941888809204e-01 6.978856772184371948e-02 -1.699494570493698120e-02 3.584326803684234619e-01
1.548000000000000000e+03 3.278134918212890625e+01 -3.647688388824462891e+00 -4.952838420867919922e-01 9.596093744039535522e-02 -1.197968721389770508e-01 1.757885664701461792e-01
1.549000000000000000e+03 3.008548164367675781e+01 -2.269271135330200195e+00 -1.813632547855377197e-01 1.094855666160583496e-01 -2.156330831348896027e-02 2.831728458404541016e-01
1.550000000000000000e+03 7.228406906127929688e+00 -3.426245689392089844e+00 -1.454365556128323078e-04 2.498875837773084641e-04 3.133530481136403978e-05 -2.878705272451043129e-04
1.551000000000000000e+03 1.080997467041015625e+01 -5.267797470092773438e+00 -3.951269172830507159e-05 6.174056325107812881e-04 1.733678800519555807e-04 -3.750742471311241388e-04
1.552000000000000000e+03 3.289179229736328125e+01 -2.999547719955444336e+00 -2.359726428985595703e-01 1.463478058576583862e-01 -2.688745222985744476e-02 1.256815940141677856e-01
1.553000000000000000e+03 3.511421585083007812e+01 -3.106007337570190430e+00 8.823759853839874268e-03 2.433649301528930664e-01 7.565660774707794189e-02 -1.363121420145034790e-01
1.554000000000000000e+03 3.584711837768554688e+01 -3.157018661499023438e+00 1.243016496300697327e-01 2.840856313705444336e-01 1.225161924958229065e-01 -2.558899819850921631e-01
1.555000000000000000e+03 3.216178512573242188e+01 -2.977005481719970703e+00 -2.793971896171569824e-01 1.279497146606445312e-01 -4.543424025177955627e-02 1.829269081354141235e-01
1.556000000000000000e+03 3.758621978759765625e+01 -9.671796798706054688e+00 -1.039953306317329407e-01 4.319969415664672852e-01 9.840048849582672119e-02 6.782063841819763184e-01
1.557000000000000000e+03 3.891566467285156250e+01 -1.017439365386962891e+01 7.776216268539428711e-01 1.108649492263793945e+00 5.658813118934631348e-01 1.522294878959655762e+00
1.558000000000000000e+03 3.610835266113281250e+01 -9.798480987548828125e+00 -5.172105431556701660e-01 2.561273872852325439e-01 -7.832494378089904785e-02 3.374774754047393799e-01
1.559000000000000000e+03 3.752239990234375000e+01 -1.030736160278320312e+01 2.407176196575164795e-01 6.374253630638122559e-01 2.634429037570953369e-01 9.098789095878601074e-01
1.560000000000000000e+03 3.957075881958007812e+01 -1.014873886108398438e+01 1.061586022377014160e+00 1.533106446266174316e+00 7.784077525138854980e-01 1.949545264244079590e+00
1.561000000000000000e+03 3.535798645019531250e+01 -9.858651161193847656e+00 -6.643165349960327148e-01 1.995513439178466797e-01 -1.394295543432235718e-01 2.155821025371551514e-01
1.562000000000000000e+03 3.747216033935546875e+01 -1.095844650268554688e+01 4.818727374076843262e-01 8.875429630279541016e-01 4.108247160911560059e-01 1.123240351676940918e+00
1.563000000000000000e+03 1.095776844024658203e+01 3.358333349227905273e+00 5.458755767904222012e-04 5.191270611248910427e-04 3.195007739122956991e-04 5.369809223338961601e-04
1.564000000000000000e+03 1.159548950195312500e+01 4.992139339447021484e+00 -4.908443661406636238e-04 -1.046237186528742313e-03 -4.611244949046522379e-04 -9.799420367926359177e-04
1.565000000000000000e+03 3.679566574096679688e+01 -1.038727092742919922e+01 2.208981290459632874e-02 5.042989253997802734e-01 1.579166203737258911e-01 6.903706192970275879e-01
1.566000000000000000e+03 3.309071350097656250e+01 -9.997115135192871094e+00 -9.434552192687988281e-01 9.570889174938201904e-02 -2.543238997459411621e-01 -4.010513797402381897e-02
1.567000000000000000e+03 3.377985000610351562e+01 -1.067575836181640625e+01 -5.367469191551208496e-01 2.067415863275527954e-01 -9.900160133838653564e-02 1.238329410552978516e-01
1.568000000000000000e+03 3.454362869262695312e+01 -1.061381053924560547e+01 -4.349513053894042969e-01 2.599904239177703857e-01 -5.248826742172241211e-02 2.324914038181304932e-01
1.569000000000000000e+03 3.530366134643554688e+01 -1.054282283782958984e+01 -3.093020021915435791e-01 3.241984546184539795e-01 4.468938801437616348e-03 3.610757291316986084e-01
1.570000000000000000e+03 2.997555541992187500e+01 -1.085187816619873047e+01 -8.074494004249572754e-01 7.504378259181976318e-02 -2.197216898202896118e-01 -2.186677008867263794e-01
1.571000000000000000e+03 3.074237251281738281e+01 -1.081853294372558594e+01 -7.790836095809936523e-01 8.996700495481491089e-02 -2.067349851131439209e-01 -1.684679239988327026e-01
1.572000000000000000e+03 3.226457977294921875e+01 -1.075403881072998047e+01 -6.911197304725646973e-01 1.378796845674514771e-01 -1.659720242023468018e-01 -4.029316082596778870e-02
1.573000000000000000e+03 1.073740577697753906e+01 4.946144580841064453e+00 2.300156193086877465e-04 1.363113871775567532e-03 4.779388546012341976e-04 6.836412358097732067e-04
1.574000000000000000e+03 2.760631752014160156e+01 -1.086292648315429688e+01 -8.335942625999450684e-01 6.443321704864501953e-02 -2.307483106851577759e-01 -3.512581586837768555e-01
1.575000000000000000e+03 2.690998268127441406e+01 -1.008619976043701172e+01 -1.001299381256103516e+00 3.636316210031509399e-02 -2.894808650016784668e-01 -3.587078154087066650e-01
1.576000000000000000e+03 9.912805557250976562e+00 -4.863842964172363281e+00 4.013013676740229130e-04 -8.883483242243528366e-04 -1.461140782339498401e-04 2.349713322473689914e-04
1.577000000000000000e+03 5.539924621582031250e+00 -4.934558868408203125e+00 -2.935896627604961395e-04 4.374998970888555050e-04 4.317307320889085531e-05 -2.310603740625083447e-04
1.578000000000000000e+03 4.324589729309082031e+00 -3.554523229598999023e+00 2.887618211389053613e-05 1.092681759473634884e-05 1.194089963973965496e-05 -2.437086077407002449e-04
1.579000000000000000e+03 4.481067657470703125e+00 -4.273727416992187500e+00 -1.095090628950856626e-04 1.913583546411246061e-04 2.455478716001380235e-05 1.422614004695788026e-04
1.580000000000000000e+03 7.028259277343750000e+00 -5.030950069427490234e+00 -1.066944532794877887e-04 3.801564162131398916e-04 8.203859033528715372e-05 -3.175271558575332165e-04
1.581000000000000000e+03 8.039460182189941406e+00 -3.490067958831787109e+00 1.432746503269299865e-04 -1.839635951910167933e-04 -1.220668582391226664e-05 3.879077266901731491e-04
1.582000000000000000e+03 3.999101161956787109e+00 -7.596929073333740234e+00 4.810721438843756914e-04 1.614915381651371717e-04 1.927691046148538589e-04 -2.599041908979415894e-04
1.583000000000000000e+03 4.012552738189697266e+00 -6.408224105834960938e+00 5.127385375089943409e-04 2.575138569227419794e-05 1.615469809621572495e-04 3.276054048910737038e-04
1.584000000000000000e+03 2.823386430740356445e+00 -5.024291038513183594e+00 1.912965235533192754e-04 1.357690198346972466e-04 9.811966447159647942e-05 3.154667792841792107e-04
1.585000000000000000e+03 3.150674819946289062e+01 -1.078336143493652344e+01 -7.448558211326599121e-01 1.110083833336830139e-01 -1.901542395353317261e-01 -1.122650131583213806e-01
1.586000000000000000e+03 3.726965332031250000e+01 -3.283308506011962891e+00 4.654258787631988525e-01 4.346829652786254883e-01 2.700326442718505859e-01 -5.704599022865295410e-01
1.587000000000000000e+03 2.363715744018554688e+01 -1.061313343048095703e+01 -7.719874978065490723e-01 8.181259036064147949e-02 -2.070524692535400391e-01 -4.744299650192260742e-01
1.588000000000000000e+03 2.441555595397949219e+01 -1.067667961120605469e+01 -7.940067052841186523e-01 7.782214879989624023e-02 -2.148553729057312012e-01 -4.566605389118194580e-01
1.589000000000000000e+03 2.919860267639160156e+01 -1.087399768829345703e+01 -8.217606544494628906e-01 7.225725799798965454e-02 -2.248510122299194336e-01 -2.656201422214508057e-01
1.590000000000000000e+03 1.170531558990478516e+01 4.145208358764648438e+00 7.580402889288961887e-04 6.683309329673647881e-04 4.279113491065800190e-04 7.844556821510195732e-04
1.591000000000000000e+03 2.840643119812011719e+01 -1.087711429595947266e+01 -8.325033187866210938e-01 6.604970991611480713e-02 -2.299360781908035278e-01 -3.122317492961883545e-01
1.592000000000000000e+03 1.827384567260742188e+01 -1.193697929382324219e+01 -5.964254736900329590e-01 -1.936885714530944824e-01 -2.370342165231704712e-01 -5.444613099098205566e-01
1.593000000000000000e+03 2.520491409301757812e+01 -1.073968124389648438e+01 -8.111112713813781738e-01 7.062235474586486816e-02 -2.221466600894927979e-01 -4.394264221191406250e-01
1.594000000000000000e+03 2.205513381958007812e+01 -1.057184314727783203e+01 -7.064749002456665039e-01 7.393545657396316528e-02 -1.897618323564529419e-01 -4.975784122943878174e-01
1.595000000000000000e+03 2.285816383361816406e+01 -1.056977081298828125e+01 -7.435843348503112793e-01 8.170214295387268066e-02 -1.985646486282348633e-01 -4.860454201698303223e-01
1.596000000000000000e+03 4.078550720214843750e+01 -1.021343326568603516e+01 1.577703237533569336e+00 2.882034063339233398e+00 1.337921261787414551e+00 2.984338521957397461e+00
1.597000000000000000e+03 1.889477157592773438e+01 -1.098506832122802734e+01 -5.689614415168762207e-01 -1.203679218888282776e-01 -2.067988216876983643e-01 -5.120387077331542969e-01
1.598000000000000000e+03 1.945031738281250000e+01 -1.012361240386962891e+01 -5.590261816978454590e-01 -5.113358050584793091e-02 -1.830479204654693604e-01 -4.632568359375000000e-01
1.599000000000000000e+03 1.006004714965820312e+01 1.007847309112548828e+01 -5.991780199110507965e-04 -7.290325593203306198e-04 -3.984631621278822422e-04 -4.438448522705584764e-04
1.600000000000000000e+03 9.835455894470214844e+00 8.574323654174804688e+00 4.412716953083872795e-05 -8.527729660272598267e-04 -2.425937418593093753e-04 -1.871116728580091149e-05
1.601000000000000000e+03 3.037807464599609375e+00 1.161077308654785156e+01 5.228986963629722595e-03 -1.723954454064369202e-03 1.051509752869606018e-03 -3.040510695427656174e-03
1.602000000000000000e+03 6.656991004943847656e+00 1.830496978759765625e+01 -1.413089185953140259e-01 -1.150797121226787567e-02 -4.584506899118423462e-02 3.159865364432334900e-02
1.603000000000000000e+03 3.075495004653930664e+00 1.725549125671386719e+01 -1.776310801506042480e-02 -1.918990537524223328e-02 -1.108590420335531235e-02 1.444361871108412743e-03
1.604000000000000000e+03 9.921079635620117188e+00 4.953120708465576172e+00 -1.616498193470761180e-04 -1.150073017925024033e-03 -3.935168497264385223e-04 -3.094133280683308840e-04
1.605000000000000000e+03 4.226334095001220703e+00 1.125935363769531250e+01 2.104696119204163551e-03 -3.824577666819095612e-03 -5.159644642844796181e-04 -6.365039735101163387e-04
1.606000000000000000e+03 8.570344924926757812e+00 -2.619315910339355469e+01 7.303277403116226196e-02 -4.887549281120300293e-01 -1.247166469693183899e-01 -4.288132488727569580e-01
1.607000000000000000e+03 7.948690891265869141e+00 -2.378827476501464844e+01 -5.094665288925170898e-02 -4.593571126461029053e-01 -1.530911326408386230e-01 -4.769918620586395264e-01
1.608000000000000000e+03 6.217232227325439453e+00 -1.866970825195312500e+01 -3.499038219451904297e-01 -2.857685834169387817e-02 -1.135442033410072327e-01 -1.404075026512145996e-01
1.609000000000000000e+03 7.612702369689941406e+00 -2.138064384460449219e+01 -2.715156674385070801e-01 -3.161969482898712158e-01 -1.763137876987457275e-01 -4.713965952396392822e-01
1.610000000000000000e+03 2.229675865173339844e+01 7.404485702514648438e+00 -1.087169423699378967e-01 -2.820702493190765381e-01 -1.172361522912979126e-01 2.109607458114624023e-01
1.611000000000000000e+03 2.099088478088378906e+01 6.116921424865722656e+00 -9.481860697269439697e-02 -6.295419931411743164e-01 -2.173081934452056885e-01 2.683911919593811035e-01
1.612000000000000000e+03 2.060589027404785156e+01 -1.674373000860214233e-01 -1.651151478290557861e-02 -3.917384445667266846e-01 -1.224749907851219177e-01 2.609988451004028320e-01
1.613000000000000000e+03 9.136285781860351562e+00 9.503907203674316406e+00 3.673699029604904354e-05 1.524193445220589638e-03 4.682791186496615410e-04 6.899549625813961029e-04
1.614000000000000000e+03 1.252193260192871094e+01 5.025049686431884766e+00 9.630396962165832520e-04 6.358199752867221832e-04 4.796579014509916306e-04 8.311860729008913040e-04
1.615000000000000000e+03 8.562970161437988281e+00 -5.520915508270263672e+00 4.674931115005165339e-04 -7.483642548322677612e-04 -8.426134445471689105e-05 5.602417513728141785e-04
1.616000000000000000e+03 8.417712211608886719e+00 1.209954357147216797e+01 -6.839595735073089600e-04 3.028034232556819916e-03 7.032223511487245560e-04 -7.979464135132730007e-05
1.617000000000000000e+03 5.825241565704345703e+00 1.160674953460693359e+01 2.544814255088567734e-03 -5.789564922451972961e-03 -9.734252234920859337e-04 3.207596018910408020e-03
1.618000000000000000e+03 1.376124191284179688e+01 2.039527702331542969e+01 -2.967555224895477295e-01 -5.197170972824096680e-01 -2.449417859315872192e-01 3.002403080463409424e-01
1.619000000000000000e+03 7.518585205078125000e+01 1.393281364440917969e+01 -3.243296593427658081e-02 7.851728916168212891e+00 2.345788717269897461e+00 4.652071893215179443e-01
1.620000000000000000e+03 7.541722106933593750e+01 1.135529428720474243e-01 9.167189896106719971e-02 6.851384639739990234e+00 2.082916975021362305e+00 3.061362802982330322e-01
1.621000000000000000e+03 7.563687133789062500e+01 -1.495934200286865234e+01 6.197135522961616516e-02 6.875302791595458984e+00 2.081182241439819336e+00 -3.114694952964782715e-01
1.622000000000000000e+03 7.437117004394531250e+01 -1.223256397247314453e+01 1.372160911560058594e-01 6.878147602081298828e+00 2.104609251022338867e+00 -2.749973535537719727e-01
1.623000000000000000e+03 7.561820220947265625e+01 -1.361459827423095703e+01 7.499458640813827515e-02 6.809153079986572266e+00 2.065244436264038086e+00 -2.733494043350219727e-01
1.624000000000000000e+03 7.683041381835937500e+01 -1.232232856750488281e+01 4.893681034445762634e-02 6.608934879302978516e+00 1.997361540794372559e+00 -1.784889698028564453e-01
1.625000000000000000e+03 7.555107116699218750e+01 -1.090347671508789062e+01 1.011869683861732483e-01 6.708730220794677734e+00 2.042975187301635742e+00 -1.784224361181259155e-01
1.626000000000000000e+03 7.675218200683593750e+01 -6.832525253295898438e+00 6.438918411731719971e-02 6.490020751953125000e+00 1.966323018074035645e+00 8.548570622224360704e-05
1.627000000000000000e+03 7.544160461425781250e+01 -6.823867797851562500e+00 1.181458085775375366e-01 6.660569190979003906e+00 2.033614397048950195e+00 6.228028796613216400e-04
1.628000000000000000e+03 7.543043518066406250e+01 -4.057297229766845703e+00 1.173140183091163635e-01 6.693630695343017578e+00 2.043283462524414062e+00 1.313379853963851929e-01
1.629000000000000000e+03 7.608098602294921875e+01 3.540770339965820312e+01 -5.687211826443672180e-02 8.928944587707519531e+00 2.661621809005737305e+00 9.277031570672988892e-02
1.630000000000000000e+03 7.641361999511718750e+01 3.130768585205078125e+01 -2.744119428098201752e-02 8.867151260375976562e+00 2.651913166046142578e+00 1.423258334398269653e-01
1.631000000000000000e+03 7.560717010498046875e+01 -1.769920158386230469e+01 3.526087105274200439e-02 7.039076805114746094e+00 2.122301340103149414e+00 -3.669586181640625000e-01
1.632000000000000000e+03 7.671743774414062500e+01 1.508577942848205566e+00 4.332181811332702637e-02 6.794130325317382812e+00 2.051235675811767578e+00 2.708041667938232422e-01
1.633000000000000000e+03 7.540679168701171875e+01 1.498895406723022461e+00 7.834958285093307495e-02 6.928404331207275391e+00 2.102026224136352539e+00 3.532061576843261719e-01
1.634000000000000000e+03 7.530764007568359375e+01 7.058267116546630859e+00 2.500190399587154388e-02 7.317639350891113281e+00 2.202792406082153320e+00 4.714417457580566406e-01
1.635000000000000000e+03 7.543045806884765625e+01 -2.667571306228637695e+00 1.119551137089729309e-01 6.732232570648193359e+00 2.053256273269653320e+00 1.945249140262603760e-01
1.636000000000000000e+03 7.543183135986328125e+01 -5.446444988250732422e+00 1.206359192728996277e-01 6.670049667358398438e+00 2.037205696105957031e+00 6.586566567420959473e-02
1.637000000000000000e+03 7.666929626464843750e+01 8.470481872558593750e+00 6.892709061503410339e-03 7.362473011016845703e+00 2.210809707641601562e+00 3.664452135562896729e-01
1.638000000000000000e+03 7.563633728027343750e+01 -1.631584548950195312e+01 4.765049740672111511e-02 6.952973842620849609e+00 2.100187301635742188e+00 -3.411950469017028809e-01
1.639000000000000000e+03 7.555639648437500000e+01 -1.911370849609375000e+01 2.239808440208435059e-02 7.135944366455078125e+00 2.147502660751342773e+00 -3.864960670471191406e-01
1.640000000000000000e+03 7.682472991943359375e+01 -1.782563591003417969e+01 1.901106908917427063e-02 6.949345111846923828e+00 2.090506792068481445e+00 -2.855296432971954346e-01
1.641000000000000000e+03 7.526850128173828125e+01 9.842552185058593750e+00 4.544786352198570967e-04 7.531519889831542969e+00 2.259592294692993164e+00 4.836601614952087402e-01
1.642000000000000000e+03 7.405870819091796875e+01 2.816039562225341797e+00 1.040132641792297363e-01 7.120694160461425781e+00 2.167412281036376953e+00 4.718500077724456787e-01
1.643000000000000000e+03 7.539202880859375000e+01 2.882973670959472656e+00 6.585913151502609253e-02 7.014865398406982422e+00 2.124217271804809570e+00 3.923281729221343994e-01
1.644000000000000000e+03 7.515338134765625000e+01 -2.936620330810546875e+01 -5.264459177851676941e-02 7.776481151580810547e+00 2.317151069641113281e+00 -3.339506685733795166e-01
1.645000000000000000e+03 7.432016754150390625e+01 -2.317771530151367188e+01 -1.944524794816970825e-02 7.449751377105712891e+00 2.229091882705688477e+00 -4.681386053562164307e-01
1.646000000000000000e+03 7.530403137207031250e+01 1.120501136779785156e+01 -7.523207459598779678e-03 7.630079269409179688e+00 2.286766767501831055e+00 4.825398027896881104e-01
1.647000000000000000e+03 7.374776458740234375e+01 9.853195190429687500e+00 2.938642282970249653e-04 7.583668231964111328e+00 2.275188684463500977e+00 5.941234230995178223e-01
1.648000000000000000e+03 7.663552093505859375e+01 1.672912788391113281e+01 -2.174236439168453217e-02 8.083707809448242188e+00 2.418589591979980469e+00 3.228382170200347900e-01
1.649000000000000000e+03 7.528624725341796875e+01 1.816442680358886719e+01 -4.314205795526504517e-02 8.142012596130371094e+00 2.429661273956298828e+00 4.001688063144683838e-01
1.650000000000000000e+03 7.549160003662109375e+01 2.087041664123535156e+01 -3.862064704298973083e-02 8.314447402954101562e+00 2.482748031616210938e+00 3.420982658863067627e-01
1.651000000000000000e+03 7.538594055175781250e+01 1.954888153076171875e+01 -4.145190492272377014e-02 8.234011650085449219e+00 2.457767963409423828e+00 3.698647320270538330e-01
1.652000000000000000e+03 7.385198211669921875e+01 1.826152229309082031e+01 -7.032483071088790894e-02 8.100791931152343750e+00 2.409140110015869141e+00 4.815821945667266846e-01
1.653000000000000000e+03 7.682955932617187500e+01 2.217840003967285156e+01 -2.436611242592334747e-02 8.488097190856933594e+00 2.539119482040405273e+00 2.415293753147125244e-01
1.654000000000000000e+03 7.525936126708984375e+01 -2.482864761352539062e+01 -3.116454556584358215e-02 7.526878356933593750e+00 2.248714208602905273e+00 -3.964640498161315918e-01
1.655000000000000000e+03 7.653609466552734375e+01 -2.640340995788574219e+01 -2.293753437697887421e-02 7.606885433197021484e+00 2.275184392929077148e+00 -2.967942357063293457e-01
1.656000000000000000e+03 7.366052246093750000e+01 -2.628868675231933594e+01 -6.474326550960540771e-02 7.634624958038330078e+00 2.270964622497558594e+00 -4.700265526771545410e-01
1.657000000000000000e+03 7.679125213623046875e+01 2.351131248474121094e+01 -2.538643218576908112e-02 8.566702842712402344e+00 2.562394857406616211e+00 2.239210605621337891e-01
1.658000000000000000e+03 7.390260314941406250e+01 2.537981605529785156e+01 -8.409248292446136475e-02 8.424029350280761719e+00 2.501981019973754883e+00 3.299799859523773193e-01
1.659000000000000000e+03 7.641924285888671875e+01 2.633325576782226562e+01 -2.375372685492038727e-02 8.688835144042968750e+00 2.599524497985839844e+00 1.995222568511962891e-01
1.660000000000000000e+03 7.451165008544921875e+01 2.705255508422851562e+01 -5.747399479150772095e-02 8.544134140014648438e+00 2.545998096466064453e+00 2.691643536090850830e-01
1.661000000000000000e+03 7.516725158691406250e+01 2.937590408325195312e+01 -3.676671534776687622e-02 8.672826766967773438e+00 2.590818166732788086e+00 2.096748650074005127e-01
1.662000000000000000e+03 7.434691619873046875e+01 -3.273250579833984375e+01 -9.286399185657501221e-02 7.904031276702880859e+00 2.343350172042846680e+00 -2.970802485942840576e-01
1.663000000000000000e+03 7.497988128662109375e+01 -3.579058456420898438e+01 -8.887051790952682495e-02 8.022699356079101562e+00 2.380148410797119141e+00 -1.809161603450775146e-01
1.664000000000000000e+03 7.450816345214843750e+01 3.392099761962890625e+01 -6.767955422401428223e-02 8.692541122436523438e+00 2.587458372116088867e+00 1.491937041282653809e-01
1.665000000000000000e+03 7.646021270751953125e+01 -3.578083801269531250e+01 -5.490382388234138489e-02 8.116876602172851562e+00 2.418591976165771484e+00 -1.347341835498809814e-01
1.666000000000000000e+03 7.661029052734375000e+01 -3.324432373046875000e+01 -4.696922004222869873e-02 8.010083198547363281e+00 2.388934373855590820e+00 -1.830753237009048462e-01
1.667000000000000000e+03 7.517020416259765625e+01 -3.080331993103027344e+01 -6.179187074303627014e-02 7.845049381256103516e+00 2.334977149963378906e+00 -3.023236691951751709e-01
1.668000000000000000e+03 7.666316986083984375e+01 2.990163612365722656e+01 -1.918797381222248077e-02 8.844199180603027344e+00 2.647503376007080078e+00 1.486316174268722534e-01
1.669000000000000000e+03 3.099394798278808594e+00 1.584540367126464844e+01 -4.235253669321537018e-03 -1.498959399759769440e-02 -5.767454393208026886e-03 -7.555917371064424515e-03
1.670000000000000000e+03 4.210219860076904297e+00 -1.378516387939453125e+01 1.046102307736873627e-02 -1.679759100079536438e-02 -1.900970586575567722e-03 -2.142883837223052979e-03
1.671000000000000000e+03 5.447790622711181641e+00 1.966288757324218750e+01 -1.595035493373870850e-01 -3.637241944670677185e-02 -5.876279249787330627e-02 9.071630239486694336e-02
1.672000000000000000e+03 3.145081281661987305e+00 1.871476745605468750e+01 -3.936505690217018127e-02 -3.524469584226608276e-02 -2.238292619585990906e-02 3.109764121472835541e-02
1.673000000000000000e+03 5.260705471038818359e+00 2.104447555541992188e+01 -1.524585634469985962e-01 -8.079774677753448486e-02 -6.997688859701156616e-02 1.722556352615356445e-01
1.674000000000000000e+03 4.545753955841064453e+00 -1.735428810119628906e+01 -5.441274121403694153e-02 -4.651591554284095764e-02 -3.027859702706336975e-02 -9.714119136333465576e-03
1.675000000000000000e+03 4.366349220275878906e+00 1.838782691955566406e+01 -6.805338710546493530e-02 -3.495531156659126282e-02 -3.090260736644268036e-02 3.137438744306564331e-02
1.676000000000000000e+03 4.182495117187500000e+00 2.460910606384277344e+01 -2.768014185130596161e-02 -2.382310181856155396e-01 -7.977334409952163696e-02 2.342822849750518799e-01
1.677000000000000000e+03 4.899565696716308594e+00 3.007878303527832031e+01 4.286034032702445984e-02 -4.094755053520202637e-01 -1.099845468997955322e-01 2.213480770587921143e-01
1.678000000000000000e+03 6.059766292572021484e+00 -2.436500167846679688e+01 -4.171568527817726135e-02 -3.994389474391937256e-01 -1.323463916778564453e-01 -3.985037803649902344e-01
1.679000000000000000e+03 3.269810676574707031e+00 1.297641563415527344e+01 3.548901062458753586e-03 -6.317448336631059647e-03 -8.305641822516918182e-04 -4.727268591523170471e-03
1.680000000000000000e+03 4.654419898986816406e+00 -1.277952289581298828e+01 6.892960518598556519e-03 -8.613479323685169220e-03 -5.161557928659021854e-04 -2.523896517232060432e-03
1.681000000000000000e+03 2.797175645828247070e+00 -1.368597984313964844e+01 7.034473121166229248e-03 -6.450985558331012726e-03 1.750462251948192716e-04 1.011897623538970947e-02
1.682000000000000000e+03 3.152143478393554688e+00 -1.048935985565185547e+01 3.762742504477500916e-03 -2.798324450850486755e-03 2.893253986258059740e-04 1.701825414784252644e-03
1.683000000000000000e+03 5.424093723297119141e+00 -1.950899124145507812e+01 -2.261720001697540283e-01 -9.224766492843627930e-02 -9.552589803934097290e-02 -2.144581824541091919e-01
1.684000000000000000e+03 3.267831325531005859e+00 -2.296269989013671875e+01 -4.781654477119445801e-02 -2.663877904415130615e-01 -9.426129609346389771e-02 -2.345233112573623657e-01
1.685000000000000000e+03 5.785030364990234375e+00 -2.053002548217773438e+01 -2.112325727939605713e-01 -1.874592453241348267e-01 -1.196075454354286194e-01 -2.973716557025909424e-01
1.686000000000000000e+03 5.947431564331054688e+00 2.321720886230468750e+01 -1.046856418251991272e-01 -1.991002857685089111e-01 -9.113577753305435181e-02 2.980214357376098633e-01
1.687000000000000000e+03 4.429992675781250000e+00 2.586531066894531250e+01 -4.676287062466144562e-03 -2.885124385356903076e-01 -8.795661479234695435e-02 2.478951513767242432e-01
1.688000000000000000e+03 5.152210712432861328e+00 2.422616577148437500e+01 -4.967010766267776489e-02 -2.343928664922714233e-01 -8.521889150142669678e-02 2.737123966217041016e-01
1.689000000000000000e+03 3.341693162918090820e+00 -2.439071846008300781e+01 -2.687184326350688934e-02 -3.503361344337463379e-01 -1.131623908877372742e-01 -2.654726207256317139e-01
1.690000000000000000e+03 4.536269187927246094e+00 -2.278041648864746094e+01 -9.167397767305374146e-02 -2.813537120819091797e-01 -1.119083091616630554e-01 -3.253224492073059082e-01
1.691000000000000000e+03 5.511137962341308594e+00 -2.193263626098632812e+01 -1.611012965440750122e-01 -2.518966197967529297e-01 -1.238993704319000244e-01 -3.401142656803131104e-01
1.692000000000000000e+03 4.705533027648925781e+00 -2.419460105895996094e+01 -3.341476991772651672e-02 -3.689048886299133301e-01 -1.206958964467048645e-01 -3.394022583961486816e-01
1.693000000000000000e+03 3.841682434082031250e+00 -3.137871360778808594e+01 4.459771513938903809e-02 -6.969605684280395508e-01 -1.957088410854339600e-01 -2.198542952537536621e-01
1.694000000000000000e+03 5.297826766967773438e+00 -2.979017066955566406e+01 7.479952275753021240e-02 -5.820854902267456055e-01 -1.521857827901840210e-01 -2.986390292644500732e-01
1.695000000000000000e+03 5.084967613220214844e+00 9.871757507324218750e+00 1.066011958755552769e-03 -2.262294758111238480e-03 -3.588848630897700787e-04 1.049786922521889210e-03
1.696000000000000000e+03 6.328400135040283203e+00 3.011356163024902344e+01 7.234960794448852539e-02 -3.574929833412170410e-01 -8.554300665855407715e-02 2.558535337448120117e-01
1.697000000000000000e+03 6.196961879730224609e+00 3.645185470581054688e+01 8.599101006984710693e-02 -4.269638657569885254e-01 -1.022918522357940674e-01 1.295079290866851807e-01
1.698000000000000000e+03 6.063628673553466797e+00 -1.163184165954589844e+01 -7.855742005631327629e-04 5.704545415937900543e-03 1.475691329687833786e-03 -4.363447427749633789e-03
1.699000000000000000e+03 2.381854534149169922e+00 -1.257137107849121094e+01 4.547621123492717743e-03 -3.179108025506138802e-03 4.105539701413363218e-04 6.552626844495534897e-03
1.700000000000000000e+03 3.425177335739135742e+00 -1.186187076568603516e+01 5.421740002930164337e-03 -4.124207422137260437e-03 3.892597742378711700e-04 3.541566664353013039e-03
1.701000000000000000e+03 5.984878540039062500e+00 1.004784107208251953e+01 2.583430847153067589e-03 -2.873092191293835640e-03 -8.689841342857107520e-05 1.167398411780595779e-03
1.702000000000000000e+03 5.486900806427001953e+00 -3.117234992980957031e+01 6.557714194059371948e-02 -6.122179627418518066e-01 -1.639922559261322021e-01 -2.732740640640258789e-01
1.703000000000000000e+03 3.939407110214233398e+00 -3.270223236083984375e+01 4.897308722138404846e-02 -7.365765571594238281e-01 -2.062810361385345459e-01 -2.008155882358551025e-01
1.704000000000000000e+03 3.632579565048217773e+00 3.160740470886230469e+01 3.038250468671321869e-02 -4.953832030296325684e-01 -1.395002156496047974e-01 1.663005203008651733e-01
1.705000000000000000e+03 4.812505722045898438e+00 2.866763496398925781e+01 3.343012556433677673e-02 -3.763596117496490479e-01 -1.028788462281227112e-01 2.458617389202117920e-01
1.706000000000000000e+03 6.779545783996582031e+00 3.391407775878906250e+01 1.038129702210426331e-01 -3.613881468772888184e-01 -7.727254927158355713e-02 1.798469573259353638e-01
1.707000000000000000e+03 4.259482860565185547e+00 8.162534713745117188e+00 1.973599893972277641e-03 -1.100106164813041687e-03 2.620481245685368776e-04 1.577232760610058904e-04
1.708000000000000000e+03 2.883903503417968750e+00 -6.328685760498046875e+00 -1.555017224745824933e-04 9.762726404005661607e-05 -1.736233753035776317e-05 -3.606812970247119665e-04
1.709000000000000000e+03 2.914090871810913086e+00 5.785300254821777344e+00 5.284449434839189053e-04 4.273422819096595049e-04 2.867361763492226601e-04 -5.760422209277749062e-04
1.710000000000000000e+03 5.314342021942138672e+00 6.282314777374267578e+00 1.170378527604043484e-03 -4.481583600863814354e-04 2.166660706279799342e-04 1.409938995493575931e-04
1.711000000000000000e+03 6.483986377716064453e+00 -3.648152923583984375e+01 1.135013252496719360e-01 -6.393079757690429688e-01 -1.577419936656951904e-01 -1.685940325260162354e-01
1.712000000000000000e+03 7.988040447235107422e+00 -7.529633045196533203e+00 -4.456775204744189978e-04 1.225918647833168507e-03 2.340723440283909440e-04 3.140945045743137598e-04
1.713000000000000000e+03 1.466132068634033203e+01 -1.758429145812988281e+01 -6.172879338264465332e-01 -5.088592767715454102e-01 -3.378441631793975830e-01 -4.841472208499908447e-01
1.714000000000000000e+03 1.732588195800781250e+01 -1.600449752807617188e+01 -5.608379840850830078e-01 -2.532582581043243408e-01 -2.442288696765899658e-01 -4.785219728946685791e-01
1.715000000000000000e+03 5.387150764465332031e+00 -8.335436820983886719e+00 1.098493929021060467e-03 -4.398120654514059424e-05 3.163538058288395405e-04 -6.721598911099135876e-04
1.716000000000000000e+03 2.134979057312011719e+01 -1.142844390869140625e+01 -6.547172069549560547e-01 5.337048321962356567e-02 -1.804040074348449707e-01 -5.275433659553527832e-01
1.717000000000000000e+03 6.494659423828125000e+00 1.977543067932128906e+01 -2.219574302434921265e-01 -1.374505180865526199e-02 -7.071074098348617554e-02 1.021130755543708801e-01
1.718000000000000000e+03 4.433121681213378906e+00 1.961562728881835938e+01 -9.809472411870956421e-02 -4.667164757847785950e-02 -4.342991113662719727e-02 7.359343022108078003e-02
1.719000000000000000e+03 1.124024581909179688e+01 -2.102900505065917969e+01 -2.303173393011093140e-01 -6.044214367866516113e-01 -2.504216432571411133e-01 -4.836359620094299316e-01
1.720000000000000000e+03 2.260134887695312500e+01 1.228052043914794922e+01 -1.890787929296493530e-01 9.872309118509292603e-02 -2.710671164095401764e-02 -1.710691116750240326e-02
1.721000000000000000e+03 7.157060146331787109e+00 -1.213085269927978516e+01 -2.531345817260444164e-04 4.302999877836555243e-04 5.314962254487909377e-05 -1.038092796079581603e-05
1.722000000000000000e+03 6.831380844116210938e+00 -1.028101634979248047e+01 1.573603018186986446e-03 -9.646687540225684643e-04 1.826802617870271206e-04 -1.382032060064375401e-03
1.723000000000000000e+03 8.395689964294433594e+00 2.183489227294921875e+01 -2.064056098461151123e-01 -2.449288964271545410e-01 -1.354003548622131348e-01 3.706964850425720215e-01
1.724000000000000000e+03 2.226749801635742188e+01 5.989773273468017578e+00 -7.133768498897552490e-02 -3.430237174034118652e-01 -1.243084222078323364e-01 2.571483552455902100e-01
1.725000000000000000e+03 4.589094638824462891e+00 -1.010100555419921875e+01 2.446024911478161812e-03 -2.377374330535531044e-04 6.624862435273826122e-04 -1.652923179790377617e-03
1.726000000000000000e+03 1.663418006896972656e+01 -1.722406387329101562e+01 -5.107899904251098633e-01 -2.883176803588867188e-01 -2.397323101758956909e-01 -4.290571212768554688e-01
1.727000000000000000e+03 7.555706787109375000e+01 4.056679534912109375e+01 -9.679120033979415894e-03 9.007124900817871094e+00 2.699233770370483398e+00 7.148588448762893677e-02
1.728000000000000000e+03 2.028702735900878906e+01 -1.056499481201171875e+01 -6.244409084320068359e-01 5.282383877784013748e-03 -1.857475638389587402e-01 -4.986981451511383057e-01
1.729000000000000000e+03 1.689216995239257812e+01 1.906080245971679688e+01 -2.945815026760101318e-01 -3.544121384620666504e-01 -1.946980804204940796e-01 1.421511024236679077e-01
1.730000000000000000e+03 1.681584167480468750e+01 1.699135398864746094e+01 -4.773645997047424316e-01 -5.834274888038635254e-01 -3.182376325130462646e-01 3.088455796241760254e-01
1.731000000000000000e+03 2.229594230651855469e+01 4.567152976989746094e+00 -4.326964542269706726e-02 -3.559727072715759277e-01 -1.197727024555206299e-01 2.997523248195648193e-01
1.732000000000000000e+03 1.482622623443603516e+01 1.931070327758789062e+01 -4.093090295791625977e-01 -5.503008961677551270e-01 -2.878829836845397949e-01 3.093299567699432373e-01
1.733000000000000000e+03 1.398259544372558594e+01 -1.861416435241699219e+01 -5.023359656333923340e-01 -5.314664244651794434e-01 -3.101407289505004883e-01 -4.419665038585662842e-01
1.734000000000000000e+03 1.500337886810302734e+01 -1.947602653503417969e+01 -3.559442460536956787e-01 -3.958239853382110596e-01 -2.255304753780364990e-01 -3.740900754928588867e-01
1.735000000000000000e+03 2.252556037902832031e+01 8.847723007202148438e+00 -1.245140880346298218e-01 -1.382451057434082031e-01 -7.882776111364364624e-02 1.296131014823913574e-01
1.736000000000000000e+03 2.496372795104980469e+01 8.111791610717773438e+00 2.239985205233097076e-02 2.979680597782135010e-01 9.611037373542785645e-02 1.280937157571315765e-02
1.737000000000000000e+03 4.335006713867187500e+01 -4.051428794860839844e+00 2.482676267623901367e+00 1.002088832855224609e+01 3.751069545745849609e+00 -5.596894264221191406e+00
1.738000000000000000e+03 4.227518844604492188e+01 -4.067266941070556641e+00 3.111757040023803711e+00 4.618960857391357422e+00 2.319215297698974609e+00 -4.520284175872802734e+00
1.739000000000000000e+03 4.417843627929687500e+01 -8.443678855895996094e+00 1.480934023857116699e+00 1.620908164978027344e+01 5.307004928588867188e+00 4.682987213134765625e+00
1.740000000000000000e+03 4.655138397216796875e+01 -7.375074386596679688e+00 7.637908458709716797e+00 1.429731559753417969e+01 6.580567359924316406e+00 -1.826905012130737305e+00
1.741000000000000000e+03 4.532251739501953125e+01 -8.200527191162109375e+00 3.194232463836669922e+00 1.859046173095703125e+01 6.535408020019531250e+00 -7.735351920127868652e-01
1.742000000000000000e+03 4.437944412231445312e+01 -8.392773628234863281e+00 1.452105998992919922e+00 1.763249206542968750e+01 5.725379467010498047e+00 3.640382766723632812e+00
1.743000000000000000e+03 4.620632171630859375e+01 -7.514415264129638672e+00 7.407653331756591797e+00 1.564107799530029297e+01 6.914619445800781250e+00 -2.240898132324218750e+00
1.744000000000000000e+03 4.677668762207031250e+01 -6.414495944976806641e+00 8.869896888732910156e+00 1.343453884124755859e+01 6.691330432891845703e+00 -5.898689851164817810e-03
1.745000000000000000e+03 4.474946212768554688e+01 -8.270353317260742188e+00 1.852405309677124023e+00 1.936557960510253906e+01 6.365395545959472656e+00 1.739720344543457031e+00
1.746000000000000000e+03 4.623212814331054688e+01 -5.865420341491699219e+00 8.998927116394042969e+00 1.493947792053222656e+01 7.181521415710449219e+00 1.478261470794677734e+00
1.747000000000000000e+03 4.587545394897460938e+01 -4.386650562286376953e+00 3.372867345809936523e+00 1.623404884338378906e+01 5.882074832916259766e+00 1.138911843299865723e+00
1.748000000000000000e+03 4.528785705566406250e+01 -4.832953929901123047e+00 3.872648000717163086e+00 1.889482307434082031e+01 6.830241680145263672e+00 8.938755393028259277e-01
1.749000000000000000e+03 4.520839309692382812e+01 -4.610964298248291016e+00 2.856635332107543945e+00 1.824915313720703125e+01 6.331736564636230469e+00 3.556156530976295471e-02
1.750000000000000000e+03 4.089498138427734375e+01 -9.539633750915527344e+00 1.656919836997985840e+00 2.375128746032714844e+00 1.209614634513854980e+00 2.816392660140991211e+00
1.751000000000000000e+03 4.211818695068359375e+01 -9.440690040588378906e+00 2.166981697082519531e+00 4.859322547912597656e+00 2.107891321182250977e+00 4.302121162414550781e+00
1.752000000000000000e+03 4.167968368530273438e+01 -9.846554756164550781e+00 1.862136483192443848e+00 4.104702472686767578e+00 1.790051698684692383e+00 3.753199100494384766e+00
1.753000000000000000e+03 3.910209274291992188e+01 -3.468019008636474609e+00 1.201218247413635254e+00 8.854204416275024414e-01 6.259915828704833984e-01 -1.312061667442321777e+00
1.754000000000000000e+03 3.807920455932617188e+01 -2.799888134002685547e+00 1.011826872825622559e+00 8.377236127853393555e-01 5.548651218414306641e-01 -1.087677359580993652e+00
1.755000000000000000e+03 4.019168853759765625e+01 -1.016375064849853516e+01 1.338242292404174805e+00 2.059890508651733398e+00 1.019439816474914551e+00 2.417315959930419922e+00
1.756000000000000000e+03 3.912747192382812500e+01 -3.016370773315429688e+00 1.407724857330322266e+00 1.116854071617126465e+00 7.573736906051635742e-01 -1.554259419441223145e+00
1.757000000000000000e+03 2.379271125793457031e+01 -2.391217470169067383e+00 -1.594911366701126099e-01 -1.098903492093086243e-01 -8.081444352865219116e-02 3.709957301616668701e-01
1.758000000000000000e+03 2.339720916748046875e+01 -1.468970894813537598e+00 -9.776183962821960449e-02 -1.528197973966598511e-01 -7.517448812723159790e-02 3.851974308490753174e-01
1.759000000000000000e+03 2.201071548461914062e+01 -1.106572270393371582e+00 -5.541177839040756226e-02 -2.448424100875854492e-01 -9.007626026868820190e-02 3.363775908946990967e-01
1.760000000000000000e+03 2.243074035644531250e+01 -2.061822414398193359e+00 -9.685479104518890381e-02 -1.763882488012313843e-01 -8.197291195392608643e-02 3.315973281860351562e-01
1.761000000000000000e+03 2.472147560119628906e+01 -1.837220311164855957e+00 -1.461347043514251709e-01 -7.982235401868820190e-02 -6.778711825609207153e-02 4.032269120216369629e-01
1.762000000000000000e+03 2.650832366943359375e+01 -2.842666387557983398e+00 -2.866357564926147461e-01 -1.046388596296310425e-02 -8.912988752126693726e-02 3.851828873157501221e-01
1.763000000000000000e+03 2.642489433288574219e+01 -1.015314579010009766e+00 -8.131922781467437744e-02 4.063894040882587433e-03 -2.317660115659236908e-02 3.967541456222534180e-01
1.764000000000000000e+03 2.402912902832031250e+01 7.164213806390762329e-02 -3.295846655964851379e-02 -1.339090168476104736e-01 -5.006024613976478577e-02 4.070654213428497314e-01
1.765000000000000000e+03 3.667236328125000000e+01 -2.625000238418579102e+00 5.833521485328674316e-01 5.122554302215576172e-01 3.286822736263275146e-01 -5.992064476013183594e-01
1.766000000000000000e+03 2.602964782714843750e+01 -2.132461547851562500e+00 -1.926351636648178101e-01 -2.381595037877559662e-02 -6.493533402681350708e-02 4.022934734821319580e-01
1.767000000000000000e+03 3.357101440429687500e+00 4.332272052764892578e+00 1.975363120436668396e-04 5.677557783201336861e-04 2.295876329299062490e-04 -3.146354574710130692e-04
1.768000000000000000e+03 4.011097908020019531e+00 4.013423442840576172e+00 1.936986664077267051e-04 -6.660590879619121552e-04 -1.417081366525962949e-04 3.683519753394648433e-05
1.769000000000000000e+03 6.542138099670410156e+00 5.723272323608398438e+00 7.975796470418572426e-04 3.558299795258790255e-04 3.460228908807039261e-04 8.617864659754559398e-05
1.770000000000000000e+03 6.392922878265380859e+00 4.038400650024414062e+00 5.071207488072104752e-05 -6.655256147496402264e-04 -1.844440703280270100e-04 -1.300039730267599225e-04
1.771000000000000000e+03 5.566469669342041016e+00 4.616449832916259766e+00 2.940484846476465464e-04 -6.062562461011111736e-04 -9.366233280161395669e-05 8.522184361936524510e-05
1.772000000000000000e+03 2.998534011840820312e+01 -2.942421674728393555e+00 -3.428143560886383057e-01 7.276295125484466553e-02 -8.101542294025421143e-02 3.051420152187347412e-01
1.773000000000000000e+03 4.983088493347167969e+00 4.595007896423339844e+00 7.118399953469634056e-04 3.655077598523348570e-04 3.232043236494064331e-04 -2.604208712000399828e-04
1.774000000000000000e+03 2.802008628845214844e+01 -2.282608985900878906e+00 -2.241648435592651367e-01 4.268469661474227905e-02 -5.444404482841491699e-02 3.682953715324401855e-01
1.775000000000000000e+03 2.870235443115234375e+01 -2.282200574874877930e+00 -2.173548042774200439e-01 6.755826622247695923e-02 -4.493895918130874634e-02 3.466016352176666260e-01
1.776000000000000000e+03 8.344889640808105469e+00 4.998039245605468750e+00 -2.071061753667891026e-04 -8.505122386850416660e-04 -3.172855067532509565e-04 -1.151485994341783226e-04
1.777000000000000000e+03 7.064789772033691406e+00 4.108553409576416016e+00 3.496081626508384943e-04 6.985988002270460129e-04 3.144620859529823065e-04 2.635917044244706631e-04
1.778000000000000000e+03 8.997695922851562500e+00 8.054500579833984375e+00 -1.032178552122786641e-04 1.075525768101215363e-03 2.916923840530216694e-04 3.307963197585195303e-04
1.779000000000000000e+03 4.553536891937255859e+00 3.890241146087646484e+00 2.824503171723335981e-04 5.266828229650855064e-04 2.427399449516087770e-04 9.031059016706421971e-05
1.780000000000000000e+03 3.143194961547851562e+01 -2.959847688674926758e+00 -3.108309507369995117e-01 1.057813465595245361e-01 -6.151487678289413452e-02 2.327459752559661865e-01
1.781000000000000000e+03 2.877782440185546875e+01 -1.651556611061096191e+00 -1.065899357199668884e-01 9.381803870201110840e-02 -3.831568639725446701e-03 3.280581533908843994e-01
1.782000000000000000e+03 3.362813568115234375e+01 -3.027578353881835938e+00 -1.748647987842559814e-01 1.756613254547119141e-01 2.389572036918252707e-04 5.266976356506347656e-02
1.783000000000000000e+03 3.152728462219238281e+01 -2.285319566726684570e+00 -1.127231344580650330e-01 1.596495211124420166e-01 1.407791674137115479e-02 1.878825873136520386e-01
1.784000000000000000e+03 3.437104034423828125e+01 -3.062347888946533203e+00 -9.708847850561141968e-02 1.999792903661727905e-01 3.086724132299423218e-02 -3.097903355956077576e-02
1.785000000000000000e+03 3.816533279418945312e+01 -1.086461162567138672e+01 6.911948323249816895e-01 1.113533377647399902e+00 5.414184331893920898e-01 1.398651003837585449e+00
1.786000000000000000e+03 7.883119583129882812e+00 -4.269832611083984375e+00 -2.229431265732273459e-04 4.529939615167677402e-04 6.901525193825364113e-05 -1.356153807137161493e-04
1.787000000000000000e+03 3.656483459472656250e+01 -3.215620994567871094e+00 2.859009802341461182e-01 3.427011072635650635e-01 1.885806322097778320e-01 -4.076668024063110352e-01
1.788000000000000000e+03 6.408546447753906250e+00 -7.575234413146972656e+00 1.528319407952949405e-04 3.406654286663979292e-04 1.480492064729332924e-04 2.707771200221031904e-04
1.789000000000000000e+03 3.605546951293945312e+01 -1.046629524230957031e+01 -1.568235456943511963e-01 3.986373245716094971e-01 7.254413515329360962e-02 5.114784836769104004e-01
1.790000000000000000e+03 3.675189590454101562e+01 -1.105694198608398438e+01 2.951421439647674561e-01 7.069532275199890137e-01 3.006286025047302246e-01 8.852270841598510742e-01
1.791000000000000000e+03 3.298250961303710938e+01 -2.344348430633544922e+00 -1.518212142400443554e-03 2.211962938308715820e-01 6.590342521667480469e-02 5.072236806154251099e-02
1.792000000000000000e+03 7.025581359863281250e+00 -5.950762271881103516e+00 2.888221351895481348e-04 -1.163910128525458276e-04 5.172933742869645357e-05 4.146665160078555346e-04
1.793000000000000000e+03 5.069643974304199219e+00 -4.117122650146484375e+00 -1.837543823057785630e-04 2.508490870241075754e-04 2.012841650866903365e-05 -2.421112585579976439e-04
1.794000000000000000e+03 3.744159698486328125e+01 -1.163175678253173828e+01 6.483271121978759766e-01 1.154131531715393066e+00 5.407375693321228027e-01 1.311126470565795898e+00
1.795000000000000000e+03 3.520814514160156250e+01 -2.491937637329101562e+00 2.856828272342681885e-01 3.581869900226593018e-01 1.931609511375427246e-01 -2.701987624168395996e-01
1.796000000000000000e+03 3.446178817749023438e+01 -2.435838699340820312e+00 1.716690659523010254e-01 3.046413660049438477e-01 1.428931355476379395e-01 -1.473766863346099854e-01
1.797000000000000000e+03 3.301914215087890625e+01 -1.072295856475830078e+01 -6.185461282730102539e-01 1.645355969667434692e-01 -1.362031698226928711e-01 3.517296165227890015e-02
1.798000000000000000e+03 3.371643066406250000e+01 -1.141515731811523438e+01 -2.531406879425048828e-01 3.189342916011810303e-01 1.973808184266090393e-02 2.296482175588607788e-01
1.799000000000000000e+03 3.449441146850585938e+01 -1.132759380340576172e+01 -1.452387869358062744e-01 3.906285464763641357e-01 7.361692190170288086e-02 3.630531728267669678e-01
1.800000000000000000e+03 3.526151275634765625e+01 -1.123814010620117188e+01 -1.905111595988273621e-02 4.696873128414154053e-01 1.351908594369888306e-01 5.098727941513061523e-01
1.801000000000000000e+03 2.993121910095214844e+01 -1.163509750366210938e+01 -5.785393118858337402e-01 1.379287242889404297e-01 -1.321831643581390381e-01 -1.814676821231842041e-01
1.802000000000000000e+03 3.294182968139648438e+01 -1.147974491119384766e+01 -3.435625135898590088e-01 2.513467371463775635e-01 -2.766473405063152313e-02 1.208385005593299866e-01
1.803000000000000000e+03 3.882497024536132812e+01 -1.079229545593261719e+01 9.030730128288269043e-01 1.438376426696777344e+00 7.024348378181457520e-01 1.732580065727233887e+00
1.804000000000000000e+03 6.401730537414550781e+00 -4.194607257843017578e+00 -2.003921108553186059e-04 3.478701109997928143e-04 4.424339931574650109e-05 -2.981996221933513880e-04
1.805000000000000000e+03 5.706558227539062500e+00 -4.158941745758056641e+00 2.603026514407247305e-04 -1.324499462498351932e-04 3.835581446764990687e-05 2.593712415546178818e-04
1.806000000000000000e+03 2.680521965026855469e+01 -1.083540439605712891e+01 -8.305424451828002930e-01 6.194970011711120605e-02 -2.305778264999389648e-01 -3.857946395874023438e-01
1.807000000000000000e+03 3.145583915710449219e+01 -1.151852893829345703e+01 -4.916138052940368652e-01 1.801509410142898560e-01 -9.343885630369186401e-02 -5.437686294317245483e-02
1.808000000000000000e+03 3.219504928588867188e+01 -1.149550914764404297e+01 -4.218142330646514893e-01 2.193581163883209229e-01 -6.073683500289916992e-02 3.019955381751060486e-02
1.809000000000000000e+03 8.462941169738769531e+00 -4.717910766601562500e+00 2.800452930387109518e-04 -2.088437322527170181e-04 2.136047260137274861e-05 -4.801196337211877108e-04
1.810000000000000000e+03 3.070586967468261719e+01 -1.238560676574707031e+01 -3.280915617942810059e-01 2.275323867797851562e-01 -3.016775660216808319e-02 -5.757049843668937683e-02
1.811000000000000000e+03 2.266383934020996094e+01 -1.192881584167480469e+01 -6.458807587623596191e-01 1.009426638484001160e-01 -1.634814292192459106e-01 -5.191684961318969727e-01
1.812000000000000000e+03 2.600408363342285156e+01 -1.079399967193603516e+01 -8.236399292945861816e-01 6.695070862770080566e-02 -2.270067781209945679e-01 -4.129604399204254150e-01
1.813000000000000000e+03 2.833348083496093750e+01 -1.165903759002685547e+01 -6.343423128128051758e-01 1.135684475302696228e-01 -1.562321633100509644e-01 -3.025772273540496826e-01
1.814000000000000000e+03 2.914346504211425781e+01 -1.166024112701416016e+01 -6.104286313056945801e-01 1.246021687984466553e-01 -1.457479298114776611e-01 -2.467999607324600220e-01
1.815000000000000000e+03 3.738092803955078125e+01 -2.723778247833251953e+00 7.603435516357421875e-01 6.519483923912048340e-01 4.236875772476196289e-01 -8.003646135330200195e-01
1.816000000000000000e+03 2.751686286926269531e+01 -1.163599491119384766e+01 -6.590050458908081055e-01 1.001098975539207458e-01 -1.676685512065887451e-01 -3.512175977230072021e-01
1.817000000000000000e+03 1.085642910003662109e+01 4.147641181945800781e+00 -4.064760578330606222e-04 -8.079446270130574703e-04 -3.643262025434523821e-04 -6.796220550313591957e-04
1.818000000000000000e+03 3.069849777221679688e+01 -1.158158969879150391e+01 -5.431054234504699707e-01 1.439865082502365112e-01 -1.197356730699539185e-01 -1.204976588487625122e-01
1.819000000000000000e+03 2.119165420532226562e+01 -1.066204357147216797e+01 -6.693278551101684570e-01 4.697528854012489319e-02 -1.867057681083679199e-01 -5.066275596618652344e-01
1.820000000000000000e+03 1.137427711486816406e+01 5.879602432250976562e+00 4.166449652984738350e-04 1.382795744575560093e-03 5.398322246037423611e-04 9.520750027149915695e-04
1.821000000000000000e+03 2.507288932800292969e+01 -1.147941875457763672e+01 -6.996405720710754395e-01 9.576154500246047974e-02 -1.811637133359909058e-01 -4.545351564884185791e-01
1.822000000000000000e+03 2.409521865844726562e+01 -1.215485572814941406e+01 -6.165417432785034180e-01 1.179522052407264709e-01 -1.495768725872039795e-01 -4.855096042156219482e-01
1.823000000000000000e+03 2.588515853881835938e+01 -1.154229354858398438e+01 -6.914934515953063965e-01 9.423517435789108276e-02 -1.791774928569793701e-01 -4.275654852390289307e-01
1.824000000000000000e+03 1.983666801452636719e+01 -1.156437778472900391e+01 -6.241130232810974121e-01 -2.151992358267307281e-02 -1.936898827552795410e-01 -5.331033468246459961e-01
1.825000000000000000e+03 4.131165695190429688e+01 -1.039843845367431641e+01 1.633228898048400879e+00 3.869971036911010742e+00 1.650959968566894531e+00 3.464149236679077148e+00
1.826000000000000000e+03 2.204868316650390625e+01 -1.123576354980468750e+01 -6.815694570541381836e-01 7.627683132886886597e-02 -1.815877854824066162e-01 -5.150071382522583008e-01
1.827000000000000000e+03 2.427446365356445312e+01 -1.140454673767089844e+01 -7.032968401908874512e-01 9.579753130674362183e-02 -1.822497844696044922e-01 -4.788793027400970459e-01
1.828000000000000000e+03 2.064856338500976562e+01 -1.092610359191894531e+00 -2.588433213531970978e-02 -3.101271688938140869e-01 -1.008034497499465942e-01 2.452915459871292114e-01
1.829000000000000000e+03 2.303642272949218750e+01 1.024831676483154297e+01 -1.333581805229187012e-01 4.388092085719108582e-02 -2.684317901730537415e-02 3.800497576594352722e-02
1.830000000000000000e+03 7.538968563079833984e+00 1.142195892333984375e+01 -1.039709313772618771e-03 1.911368453875184059e-03 2.614977420307695866e-04 3.343624761328101158e-03
1.831000000000000000e+03 6.567272663116455078e+00 1.242261219024658203e+01 4.405118990689516068e-03 -1.517120166681706905e-03 8.663997286930680275e-04 5.934658460319042206e-03
1.832000000000000000e+03 8.281209945678710938e+00 8.911959648132324219e+00 4.153384070377796888e-04 2.489850448910146952e-04 1.992970355786383152e-04 7.529397844336926937e-04
1.833000000000000000e+03 8.266499519348144531e+00 7.510910511016845703e+00 7.597700459882616997e-04 2.557761908974498510e-04 3.046638739760965109e-04 4.085139080416411161e-04
1.834000000000000000e+03 4.767722606658935547e+00 -1.149604892730712891e+01 6.442267913371324539e-03 -6.846458651125431061e-03 -1.212572242366150022e-04 -3.383810631930828094e-03
1.835000000000000000e+03 9.131021499633789062e+00 4.987214088439941406e+00 4.817598965018987656e-04 1.067416626028716564e-03 4.647529858630150557e-04 2.831891761161386967e-04
1.836000000000000000e+03 1.046001338958740234e+01 7.652229309082031250e+00 2.224703348474577069e-04 1.620539929717779160e-03 5.529031041078269482e-04 5.608942592516541481e-04
1.837000000000000000e+03 5.587282657623291016e+00 -1.302659225463867188e+01 9.810632094740867615e-03 -7.870046421885490417e-03 5.821758531965315342e-04 -1.256722398102283478e-02
1.838000000000000000e+03 1.228841590881347656e+01 6.035015583038330078e+00 -8.456898503936827183e-04 -9.382002754136919975e-04 -5.351670552045106888e-04 -9.316591313108801842e-04
1.839000000000000000e+03 2.160964584350585938e+01 1.545649433135986328e+01 -2.250015288591384888e-01 1.478762477636337280e-01 -2.313758805394172668e-02 -8.536435663700103760e-02
1.840000000000000000e+03 2.054395866394042969e+01 1.430358695983886719e+01 -2.891578972339630127e-01 -1.899088174104690552e-01 -1.437200158834457397e-01 6.191948801279067993e-02
1.841000000000000000e+03 3.730594396591186523e+00 6.662123203277587891e+00 8.810429717414081097e-04 -4.807682125829160213e-04 1.200824262923561037e-04 2.019066014327108860e-04
1.842000000000000000e+03 9.359435081481933594e+00 -5.761193275451660156e+00 -3.646696277428418398e-04 1.005337224341928959e-03 1.922002556966617703e-04 -2.504401491023600101e-04
1.843000000000000000e+03 9.199602127075195312e+00 -4.242752552032470703e+00 -3.128445823676884174e-04 5.578518030233681202e-04 7.350216765189543366e-05 4.248000332154333591e-04
1.844000000000000000e+03 6.416073322296142578e+00 1.439300632476806641e+01 7.724456489086151123e-03 -7.269399706274271011e-03 1.365170610370114446e-04 1.067071873694658279e-02
1.845000000000000000e+03 2.133265495300292969e+01 -9.734122157096862793e-01 -3.790065646171569824e-02 -2.948420047760009766e-01 -9.982279688119888306e-02 3.057509660720825195e-01
1.846000000000000000e+03 2.158770370483398438e+01 8.460057377815246582e-01 -2.197835221886634827e-02 -3.737348914146423340e-01 -1.187139675021171570e-01 3.365913033485412598e-01
1.847000000000000000e+03 5.270568847656250000e+00 1.077627944946289062e+01 4.753216169774532318e-03 -2.737428760156035423e-03 6.047362112440168858e-04 -6.904637757543241605e-06
1.848000000000000000e+03 7.488978576660156250e+01 3.092785453796386719e+01 -5.203638598322868347e-02 8.677668571472167969e+00 2.587689638137817383e+00 1.909522712230682373e-01
1.849000000000000000e+03 7.346644592285156250e+01 2.910624504089355469e+01 -7.195534557104110718e-02 8.514315605163574219e+00 2.532707929611206055e+00 2.549889385700225830e-01
1.850000000000000000e+03 7.385843658447265625e+01 -3.085446929931640625e+01 -8.726601302623748779e-02 7.831114768981933594e+00 2.323154687881469727e+00 -3.553507328033447266e-01
1.851000000000000000e+03 7.511702728271484375e+01 -2.789247512817382812e+01 -4.888105764985084534e-02 7.701364040374755859e+00 2.295744895935058594e+00 -3.640866875648498535e-01
1.852000000000000000e+03 7.333876800537109375e+01 2.763111877441406250e+01 -7.240393012762069702e-02 8.463754653930664062e+00 2.517405033111572266e+00 2.899571061134338379e-01
1.853000000000000000e+03 7.432634735107421875e+01 2.217461395263671875e+01 -6.125774979591369629e-02 8.312368392944335938e+00 2.475333213806152344e+00 3.813123703002929688e-01
1.854000000000000000e+03 7.551338195800781250e+01 -2.054876708984375000e+01 9.064253419637680054e-03 7.229963779449462891e+00 2.171708345413208008e+00 -3.963072001934051514e-01
1.855000000000000000e+03 7.433255767822265625e+01 -2.192118453979492188e+01 1.189714457723312080e-04 7.376343727111816406e+00 2.212938785552978516e+00 -4.776904582977294922e-01
1.856000000000000000e+03 7.528855895996093750e+01 1.256800842285156250e+01 -2.254035696387290955e-02 7.747269630432128906e+00 2.317418813705444336e+00 4.791617393493652344e-01
1.857000000000000000e+03 7.353457641601562500e+01 1.527939605712890625e+01 -6.154974550008773804e-02 7.917306900024414062e+00 2.356727123260498047e+00 5.624085068702697754e-01
1.858000000000000000e+03 7.520114898681640625e+01 1.673469924926757812e+01 -4.229589179158210754e-02 8.042216300964355469e+00 2.399976015090942383e+00 4.308733940124511719e-01
1.859000000000000000e+03 7.382808685302734375e+01 8.388045310974121094e+00 2.097424119710922241e-02 7.482181549072265625e+00 2.250946760177612305e+00 5.860235691070556641e-01
1.860000000000000000e+03 7.411110687255859375e+01 6.491054594516754150e-02 1.429713815450668335e-01 6.975349903106689453e+00 2.135496377944946289e+00 3.674429953098297119e-01
1.861000000000000000e+03 7.537148284912109375e+01 4.275447368621826172e+00 5.160706490278244019e-02 7.110034465789794922e+00 2.148492336273193359e+00 4.258624315261840820e-01
1.862000000000000000e+03 7.408867645263671875e+01 1.441625118255615234e+00 1.239929720759391785e-01 7.044083595275878906e+00 2.150423049926757812e+00 4.229055941104888916e-01
1.863000000000000000e+03 7.509352111816406250e+01 2.584002685546875000e+01 -5.354847759008407593e-02 8.543304443359375000e+00 2.546926736831665039e+00 2.707853615283966064e-01
1.864000000000000000e+03 7.446128082275390625e+01 -1.619849205017089844e+01 7.698646932840347290e-02 7.044438838958740234e+00 2.136427640914916992e+00 -4.044500887393951416e-01
1.865000000000000000e+03 7.342366027832031250e+01 2.640613746643066406e+01 -8.683276921510696411e-02 8.417676925659179688e+00 2.499253273010253906e+00 3.169854581356048584e-01
1.866000000000000000e+03 7.410789489746093750e+01 -6.846094131469726562e+00 1.887715607881546021e-01 6.809062004089355469e+00 2.099349975585937500e+00 -6.253795581869781017e-04
1.867000000000000000e+03 7.421072387695312500e+01 -9.558616638183593750e+00 1.707876026630401611e-01 6.822975635528564453e+00 2.098129034042358398e+00 -1.462023854255676270e-01
1.868000000000000000e+03 7.390536499023437500e+01 1.122274494171142578e+01 -1.573950983583927155e-02 7.667187213897705078e+00 2.295434236526489258e+00 5.825930237770080566e-01
1.869000000000000000e+03 7.441555023193359375e+01 -1.356355476379394531e+01 1.148314401507377625e-01 6.927558422088623047e+00 2.112716913223266602e+00 -3.272795081138610840e-01
1.870000000000000000e+03 7.429971313476562500e+01 -1.089510154724121094e+01 1.586604565382003784e-01 6.844438076019287109e+00 2.100929498672485352e+00 -2.135201692581176758e-01
1.871000000000000000e+03 7.550523376464843750e+01 -9.546062469482421875e+00 1.085316687822341919e-01 6.680336475372314453e+00 2.036660432815551758e+00 -1.213098838925361633e-01
1.872000000000000000e+03 7.413947296142578125e+01 -8.208116531372070312e+00 1.793846935033798218e-01 6.811676979064941406e+00 2.097318410873413086e+00 -7.609396427869796753e-02
1.873000000000000000e+03 7.413139343261718750e+01 -2.698754787445068359e+00 1.735578924417495728e-01 6.870174407958984375e+00 2.113119602203369141e+00 2.335462421178817749e-01
1.874000000000000000e+03 7.412342071533203125e+01 -4.082149028778076172e+00 1.857084333896636963e-01 6.836180686950683594e+00 2.106566667556762695e+00 1.582212895154953003e-01
1.875000000000000000e+03 7.411004638671875000e+01 -5.469631195068359375e+00 1.894242018461227417e-01 6.815930843353271484e+00 2.101606607437133789e+00 7.858879864215850830e-02
1.876000000000000000e+03 7.401773071289062500e+01 4.195172309875488281e+00 8.300098776817321777e-02 7.205222129821777344e+00 2.186466932296752930e+00 5.115151405334472656e-01
1.877000000000000000e+03 7.434349822998046875e+01 -1.897360038757324219e+01 3.642047941684722900e-02 7.205077171325683594e+00 2.172449350357055664e+00 -4.575577676296234131e-01
1.878000000000000000e+03 7.374240112304687500e+01 1.679166793823242188e+01 -7.052265852689743042e-02 8.016447067260742188e+00 2.383777379989624023e+00 5.204925537109375000e-01
1.879000000000000000e+03 7.388597106933593750e+01 -2.458905029296875000e+01 -4.097127914428710938e-02 7.542479038238525391e+00 2.250452280044555664e+00 -4.839748442173004150e-01
1.880000000000000000e+03 7.372206115722656250e+01 -2.798308563232421875e+01 -7.959009706974029541e-02 7.716429710388183594e+00 2.291051864624023438e+00 -4.291658699512481689e-01
1.881000000000000000e+03 7.512607574462890625e+01 -2.635625648498535156e+01 -3.782392665743827820e-02 7.612022399902343750e+00 2.272259473800659180e+00 -3.869416415691375732e-01
1.882000000000000000e+03 7.552279663085937500e+01 2.338241004943847656e+01 -4.787744954228401184e-02 8.465719223022460938e+00 2.525352478027343750e+00 2.981918752193450928e-01
1.883000000000000000e+03 7.538033294677734375e+01 2.460524177551269531e+01 -5.025407671928405762e-02 8.515670776367187500e+00 2.539625167846679688e+00 2.825457155704498291e-01
1.884000000000000000e+03 7.423068237304687500e+01 -2.049014854431152344e+01 1.732038147747516632e-02 7.300011634826660156e+00 2.195199489593505859e+00 -4.770755171775817871e-01
1.885000000000000000e+03 7.390015411376953125e+01 6.973668098449707031e+00 4.101299494504928589e-02 7.387962341308593750e+00 2.228692531585693359e+00 5.684193968772888184e-01
1.886000000000000000e+03 7.533889770507812500e+01 -3.206147384643554688e+01 -6.370570510625839233e-02 7.902051448822021484e+00 2.351503610610961914e+00 -2.709089815616607666e-01
1.887000000000000000e+03 7.358962249755859375e+01 1.378136825561523438e+01 -4.711998254060745239e-02 7.829954147338867188e+00 2.334850311279296875e+00 5.762673616409301758e-01
1.888000000000000000e+03 7.411862945556640625e+01 2.100635528564453125e+01 -6.432934105396270752e-02 8.250026702880859375e+00 2.455709218978881836e+00 4.117718040943145752e-01
1.889000000000000000e+03 7.536924743652343750e+01 -3.316527938842773438e+01 -7.984565943479537964e-02 7.958230972290039062e+00 2.363515615463256836e+00 -2.406449019908905029e-01
1.890000000000000000e+03 7.340897369384765625e+01 3.060167694091796875e+01 -6.696213781833648682e-02 8.545674324035644531e+00 2.543613672256469727e+00 2.304401546716690063e-01
1.891000000000000000e+03 4.961307048797607422e+00 3.142097663879394531e+01 4.573130980134010315e-02 -4.420028626918792725e-01 -1.188814640045166016e-01 2.068082243204116821e-01
1.892000000000000000e+03 6.920869350433349609e+00 -2.942003822326660156e+01 9.910088032484054565e-02 -5.150618553161621094e-01 -1.247882843017578125e-01 -3.422008752822875977e-01
1.893000000000000000e+03 1.020926856994628906e+01 6.402139186859130859e+00 -4.080049984622746706e-04 1.220761216245591640e-03 2.438268711557611823e-04 2.210222592111676931e-04
1.894000000000000000e+03 4.656432628631591797e+00 2.725060462951660156e+01 1.312361191958189011e-02 -3.313462138175964355e-01 -9.546677768230438232e-02 2.518429756164550781e-01
1.895000000000000000e+03 4.724268436431884766e+00 -2.708103942871093750e+01 3.961119800806045532e-02 -5.056261420249938965e-01 -1.398044824600219727e-01 -3.292691409587860107e-01
1.896000000000000000e+03 7.061256408691406250e+00 -8.420846939086914062e+00 8.788526174612343311e-04 -3.973694110754877329e-04 1.444449735572561622e-04 -9.671767475083470345e-04
1.897000000000000000e+03 4.279180049896240234e+00 2.350986099243164062e+01 -6.422711908817291260e-02 -1.875001043081283569e-01 -7.551816850900650024e-02 2.292231768369674683e-01
1.898000000000000000e+03 1.172921848297119141e+01 2.253668212890625000e+01 -1.081124320626258850e-01 -4.326393008232116699e-01 -1.622255146503448486e-01 3.541187345981597900e-01
1.899000000000000000e+03 1.203389263153076172e+01 2.481585693359375000e+01 4.793358966708183289e-02 -3.252764642238616943e-01 -8.320286870002746582e-02 2.898781895637512207e-01
1.900000000000000000e+03 7.325618743896484375e+01 -3.565006637573242188e+01 -1.429384499788284302e-01 7.964976310729980469e+00 2.346611261367797852e+00 -2.241256237030029297e-01
1.901000000000000000e+03 4.797940731048583984e+00 -2.032380867004394531e+01 -1.579465568065643311e-01 -1.447449922561645508e-01 -9.080746769905090332e-02 -2.182465940713882446e-01
1.902000000000000000e+03 4.420564174652099609e+00 -2.149658584594726562e+01 -1.190332397818565369e-01 -1.894900500774383545e-01 -9.255698323249816895e-02 -2.345060259103775024e-01
1.903000000000000000e+03 4.648997783660888672e+00 1.244341850280761719e+01 7.741040084511041641e-03 -6.263617426156997681e-03 4.432269197423011065e-04 -7.309680222533643246e-04
1.904000000000000000e+03 5.698113441467285156e+00 2.553363227844238281e+01 -1.503758225589990616e-02 -2.745320498943328857e-01 -8.687089383602142334e-02 2.927137613296508789e-01
1.905000000000000000e+03 5.752640724182128906e+00 -2.572230911254882812e+01 1.707239635288715363e-02 -4.537542164325714111e-01 -1.310045421123504639e-01 -3.835300207138061523e-01
1.906000000000000000e+03 8.770132064819335938e+00 -6.685421466827392578e+00 6.275936029851436615e-04 -1.084224903024733067e-03 -1.369893725495785475e-04 7.589288725284859538e-05
1.907000000000000000e+03 5.853670120239257812e+00 -2.683327865600585938e+01 3.994136303663253784e-02 -4.860099554061889648e-01 -1.338205784559249878e-01 -3.743540346622467041e-01
1.908000000000000000e+03 6.199390411376953125e+00 3.158124542236328125e+01 7.579172402620315552e-02 -3.785276412963867188e-01 -9.082077443599700928e-02 2.176065891981124878e-01
1.909000000000000000e+03 4.222857952117919922e+00 2.067238616943359375e+01 -1.032798737287521362e-01 -7.487970590591430664e-02 -5.344787612557411194e-02 1.174134910106658936e-01
1.910000000000000000e+03 4.815980911254882812e+00 2.237066078186035156e+01 -1.201480329036712646e-01 -1.400675922632217407e-01 -7.806468755006790161e-02 2.189372926950454712e-01
1.911000000000000000e+03 5.699198246002197266e+00 -3.360782623291015625e+01 9.986013919115066528e-02 -6.385721564292907715e-01 -1.616135984659194946e-01 -2.245805859565734863e-01
1.912000000000000000e+03 1.246879291534423828e+01 -3.144647407531738281e+01 2.473175227642059326e-01 -2.566033303737640381e-01 -2.785745076835155487e-03 -2.486432492733001709e-01
1.913000000000000000e+03 7.311579704284667969e+00 2.126585388183593750e+01 -2.697517871856689453e-01 -1.415342837572097778e-01 -1.233858168125152588e-01 3.397366404533386230e-01
1.914000000000000000e+03 6.267538070678710938e+00 2.857348632812500000e+01 5.066997930407524109e-02 -3.344080448150634766e-01 -8.512142300605773926e-02 2.746334373950958252e-01
1.915000000000000000e+03 6.362819671630859375e+00 -2.801293754577636719e+01 7.921914756298065186e-02 -5.107658505439758301e-01 -1.294640153646469116e-01 -3.606413900852203369e-01
1.916000000000000000e+03 4.020358562469482422e+00 1.013184833526611328e+01 3.892088076099753380e-03 -1.429095864295959473e-03 7.388976518996059895e-04 -1.669183955527842045e-03
1.917000000000000000e+03 3.971526622772216797e+00 9.087535858154296875e+00 6.962622865103185177e-04 -1.012486754916608334e-03 -9.486736234975978732e-05 -8.061185944825410843e-04
1.918000000000000000e+03 6.714831352233886719e+00 7.700072288513183594e+00 2.458669769112020731e-04 4.382887345855124295e-05 8.690875256434082985e-05 1.023232354782521725e-03
1.919000000000000000e+03 4.974648952484130859e+00 -6.570879459381103516e+00 1.542473619338124990e-04 2.101214922731742263e-04 1.093106548069044948e-04 -1.714541431283578277e-04
1.920000000000000000e+03 4.392009735107421875e+00 -5.419398784637451172e+00 -3.993049904238432646e-04 3.893729881383478642e-04 -2.979598093588720076e-06 -9.152142592938616872e-05
1.921000000000000000e+03 1.394410800933837891e+01 2.252693939208984375e+01 -5.569206923246383667e-02 -3.756887614727020264e-01 -1.294142454862594604e-01 2.258793860673904419e-01
1.922000000000000000e+03 1.082916736602783203e+01 2.373545837402343750e+01 -3.072169981896877289e-02 -3.616476356983184814e-01 -1.177107989788055420e-01 3.650710284709930420e-01
1.923000000000000000e+03 1.964179420471191406e+01 1.547817993164062500e+01 -3.171696960926055908e-01 -2.717984616756439209e-01 -1.766904443502426147e-01 9.735277295112609863e-02
1.924000000000000000e+03 1.857509422302246094e+01 -1.671389770507812500e+01 -4.574664533138275146e-01 -1.014537289738655090e-01 -1.676760613918304443e-01 -4.202644228935241699e-01
1.925000000000000000e+03 1.783346557617187500e+01 1.785333061218261719e+01 -3.273260295391082764e-01 -3.462016880512237549e-01 -2.020583152770996094e-01 1.301897764205932617e-01
1.926000000000000000e+03 1.594052600860595703e+01 2.027713394165039062e+01 -2.057869732379913330e-01 -3.736458122730255127e-01 -1.738298237323760986e-01 1.591915190219879150e-01
1.927000000000000000e+03 1.985215187072753906e+01 -1.436187171936035156e+01 -5.502048134803771973e-01 -9.588672779500484467e-03 -1.679380536079406738e-01 -5.109443068504333496e-01
1.928000000000000000e+03 1.801045989990234375e+01 -1.482456684112548828e+01 -5.887712240219116211e-01 -1.916162222623825073e-01 -2.341162264347076416e-01 -5.132630467414855957e-01
1.929000000000000000e+03 1.796336936950683594e+01 -1.793023109436035156e+01 -3.895768225193023682e-01 -1.538916230201721191e-01 -1.630405336618423462e-01 -3.735031485557556152e-01
1.930000000000000000e+03 2.358905029296875000e+01 5.927390098571777344e+00 -2.648692391812801361e-02 -8.924067765474319458e-02 -3.471827879548072815e-02 2.172312736511230469e-01
1.931000000000000000e+03 2.212202072143554688e+01 3.187367200851440430e+00 -2.307325974106788635e-02 -3.713708817958831787e-01 -1.183332428336143494e-01 3.307773768901824951e-01
1.932000000000000000e+03 2.180643081665039062e+01 1.956681728363037109e+00 -2.307196892797946930e-02 -3.906539976596832275e-01 -1.241177916526794434e-01 3.426905870437622070e-01
1.933000000000000000e+03 2.322351074218750000e+01 2.677129507064819336e+00 3.030023071914911270e-03 -2.200633287429809570e-01 -6.510999053716659546e-02 3.493021428585052490e-01
1.934000000000000000e+03 1.919992446899414062e+01 -1.552992534637451172e+01 -5.048900246620178223e-01 -6.041463091969490051e-02 -1.695913970470428467e-01 -4.697060585021972656e-01
1.935000000000000000e+03 1.926011085510253906e+01 -1.260757637023925781e+01 -6.138839721679687500e-01 -7.622527331113815308e-02 -2.070327699184417725e-01 -5.474088191986083984e-01
1.936000000000000000e+03 1.556767272949218750e+01 -2.090527915954589844e+01 -1.772065758705139160e-01 -3.101897239685058594e-01 -1.462188959121704102e-01 -3.232518136501312256e-01
1.937000000000000000e+03 1.740866470336914062e+01 -1.928293609619140625e+01 -2.848032116889953613e-01 -1.748640984296798706e-01 -1.379001885652542114e-01 -3.276621103286743164e-01
1.938000000000000000e+03 1.887933731079101562e+01 1.876519393920898438e+01 -2.141192853450775146e-01 -1.011385843157768250e-01 -9.457735717296600342e-02 -1.291460823267698288e-02
1.939000000000000000e+03 7.208045959472656250e+01 4.108184432983398438e+01 -7.474643737077713013e-02 8.525875091552734375e+00 2.535338401794433594e+00 3.032629750669002533e-02
1.940000000000000000e+03 2.380496788024902344e+01 8.487583160400390625e+00 -5.621509626507759094e-02 9.746188670396804810e-02 1.237403694540262222e-02 7.051887363195419312e-02
1.941000000000000000e+03 2.430678558349609375e+01 9.728435516357421875e+00 -6.147882342338562012e-02 2.739089429378509521e-01 6.372903287410736084e-02 -1.802134700119495392e-02
1.942000000000000000e+03 4.275353240966796875e+01 -4.385499477386474609e+00 3.440901041030883789e+00 6.069544792175292969e+00 2.853133916854858398e+00 -5.309523105621337891e+00
1.943000000000000000e+03 4.265274429321289062e+01 -4.049011707305908203e+00 3.066072225570678711e+00 6.145223140716552734e+00 2.763388633728027344e+00 -5.084578037261962891e+00
1.944000000000000000e+03 4.263623809814453125e+01 -3.666528701782226562e+00 2.647403955459594727e+00 6.582975864410400391e+00 2.769114017486572266e+00 -4.955750465393066406e+00
1.945000000000000000e+03 4.195547866821289062e+01 -4.138410568237304688e+00 2.955801010131835938e+00 3.517657756805419922e+00 1.942037701606750488e+00 -3.857872724533081055e+00
1.946000000000000000e+03 4.364898300170898438e+01 -4.191318988800048828e+00 2.223363399505615234e+00 1.208081531524658203e+01 4.291253566741943359e+00 -5.666941165924072266e+00
1.947000000000000000e+03 4.551659774780273438e+01 -8.037435531616210938e+00 4.286892414093017578e+00 1.823225784301757812e+01 6.755744934082031250e+00 -1.561432242393493652e+00
1.948000000000000000e+03 4.363308715820312500e+01 -3.198521852493286133e+00 1.390207409858703613e+00 1.074591350555419922e+01 3.640836238861083984e+00 -4.500047206878662109e+00
1.949000000000000000e+03 4.593385696411132812e+01 -8.091158866882324219e+00 4.835207939147949219e+00 1.670446586608886719e+01 6.461902141571044922e+00 -2.022758722305297852e+00
1.950000000000000000e+03 4.393603897094726562e+01 -3.463810920715332031e+00 1.303126931190490723e+00 1.215336894989013672e+01 4.036948680877685547e+00 -4.339041233062744141e+00
1.951000000000000000e+03 4.505060577392578125e+01 -4.434247493743896484e+00 2.119680881500244141e+00 1.792766952514648438e+01 6.014205455780029297e+00 -7.938103079795837402e-01
1.952000000000000000e+03 4.628739929199218750e+01 -6.984136104583740234e+00 9.374571800231933594e+00 1.483268833160400391e+01 7.262177944183349609e+00 -1.415055155754089355e+00
1.953000000000000000e+03 4.690190124511718750e+01 -7.244441986083984375e+00 7.496824264526367188e+00 1.336793899536132812e+01 6.259428977966308594e+00 -1.449783086776733398e+00
1.954000000000000000e+03 4.706826019287109375e+01 -5.997738361358642578e+00 7.890361309051513672e+00 1.286942100524902344e+01 6.227934837341308594e+00 8.193002343177795410e-01
1.955000000000000000e+03 4.462999343872070312e+01 -3.770758867263793945e+00 1.166605949401855469e+00 1.521393394470214844e+01 4.914162158966064453e+00 -2.747750997543334961e+00
1.956000000000000000e+03 4.617557525634765625e+01 -4.113480567932128906e+00 3.152876138687133789e+00 1.526734447479248047e+01 5.526066303253173828e+00 1.157372713088989258e+00
1.957000000000000000e+03 4.557024002075195312e+01 -3.658380746841430664e+00 1.600424885749816895e+00 1.537072849273681641e+01 5.091345787048339844e+00 -4.083252251148223877e-01
1.958000000000000000e+03 4.250797653198242188e+01 -9.181702613830566406e+00 2.366904735565185547e+00 5.828652858734130859e+00 2.458667278289794922e+00 4.792069435119628906e+00
1.959000000000000000e+03 4.334559631347656250e+01 -9.128155708312988281e+00 1.837423443794250488e+00 9.832374572753906250e+00 3.500939369201660156e+00 5.352537155151367188e+00
1.960000000000000000e+03 4.390513229370117188e+01 -9.298918724060058594e+00 1.028028130531311035e+00 1.252058219909667969e+01 4.064583301544189453e+00 4.587163925170898438e+00
1.961000000000000000e+03 4.675359725952148438e+01 -7.628039836883544922e+00 6.737847805023193359e+00 1.396033096313476562e+01 6.209453582763671875e+00 -1.915990710258483887e+00
1.962000000000000000e+03 4.175723648071289062e+01 -1.067905330657958984e+01 1.491555452346801758e+00 5.061481952667236328e+00 1.965911149978637695e+00 3.805114746093750000e+00
1.963000000000000000e+03 4.304854583740234375e+01 -9.369820594787597656e+00 1.833052396774291992e+00 8.336781501770019531e+00 3.050950050354003906e+00 5.088693141937255859e+00
1.964000000000000000e+03 4.013361740112304688e+01 -3.479735851287841797e+00 1.779488563537597656e+00 1.463775515556335449e+00 9.729792475700378418e-01 -2.026971340179443359e+00
1.965000000000000000e+03 4.060028839111328125e+01 -3.935657262802124023e+00 1.925400853157043457e+00 1.446246385574340820e+00 1.011494159698486328e+00 -2.120706081390380859e+00
1.966000000000000000e+03 3.963910675048828125e+01 -2.987574100494384766e+00 1.645013570785522461e+00 1.479344844818115234e+00 9.373074769973754883e-01 -1.891235351562500000e+00
1.967000000000000000e+03 4.100815200805664062e+01 -3.894660472869873047e+00 2.324948549270629883e+00 2.004163265228271484e+00 1.298733472824096680e+00 -2.676311731338500977e+00
1.968000000000000000e+03 2.406651687622070312e+01 -1.657665491104125977e+00 -1.195858120918273926e-01 -1.163996085524559021e-01 -7.079562544822692871e-02 3.971180617809295654e-01
1.969000000000000000e+03 2.485530662536621094e+01 1.446464180946350098e+00 3.889041021466255188e-02 -5.723746865987777710e-02 -5.504117347300052643e-03 3.694420754909515381e-01
1.970000000000000000e+03 3.811883163452148438e+01 -2.250820875167846680e+00 1.204001188278198242e+00 1.064590334892272949e+00 6.805774569511413574e-01 -1.291659832000732422e+00
1.971000000000000000e+03 3.865872955322265625e+01 -2.929210186004638672e+00 1.211012244224548340e+00 1.002536535263061523e+00 6.640646457672119141e-01 -1.311055302619934082e+00
1.972000000000000000e+03 2.369648742675781250e+01 -6.933129429817199707e-01 -6.339611858129501343e-02 -1.555957347154617310e-01 -6.569755822420120239e-02 4.029642045497894287e-01
1.973000000000000000e+03 2.668771553039550781e+01 -2.218855381011962891e+00 -2.097843289375305176e-01 -1.155228354036808014e-03 -6.328186392784118652e-02 3.938286006450653076e-01
1.974000000000000000e+03 2.500771141052246094e+01 -1.164749026298522949e+00 -9.808342903852462769e-02 -7.031180709600448608e-02 -5.051856860518455505e-02 4.103979468345642090e-01
1.975000000000000000e+03 3.945406341552734375e+01 -1.075840568542480469e+01 1.121062636375427246e+00 1.845290422439575195e+00 8.899059295654296875e-01 2.099799633026123047e+00
1.976000000000000000e+03 4.059024047851562500e+01 -1.086721706390380859e+01 1.400822043418884277e+00 3.161610841751098633e+00 1.368729829788208008e+00 2.962969541549682617e+00
1.977000000000000000e+03 2.734701919555664062e+01 -2.264775991439819336e+00 -2.201194316148757935e-01 2.232898585498332977e-02 -5.933713540434837341e-02 3.846797943115234375e-01
1.978000000000000000e+03 2.683991622924804688e+01 -1.630541086196899414e+00 -1.384918838739395142e-01 1.654966734349727631e-02 -3.658266365528106689e-02 3.945614397525787354e-01
1.979000000000000000e+03 2.436963081359863281e+01 -9.342581033706665039e-01 -8.205711841583251953e-02 -1.054801344871520996e-01 -5.626117810606956482e-02 4.111294150352478027e-01
1.980000000000000000e+03 8.171719551086425781e+00 5.871147632598876953e+00 5.758830229751765728e-04 1.121563022024929523e-03 5.092337960377335548e-04 -3.638240377767942846e-05
1.981000000000000000e+03 2.562265205383300781e+01 -1.374185681343078613e+00 -1.176578402519226074e-01 -3.894974663853645325e-02 -4.698227345943450928e-02 4.089739024639129639e-01
1.982000000000000000e+03 9.858539581298828125e+00 5.779883384704589844e+00 2.782534284051507711e-04 1.571225235238671303e-03 5.548435728996992111e-04 5.180168664082884789e-04
1.983000000000000000e+03 2.623130416870117188e+01 -1.541777849197387695e+00 -1.290252208709716797e-01 -1.251837145537137985e-02 -4.246307909488677979e-02 4.023127853870391846e-01
1.984000000000000000e+03 2.938859939575195312e+01 -2.275402545928955078e+00 -2.040655016899108887e-01 8.654356002807617188e-02 -3.525658324360847473e-02 3.182931244373321533e-01
1.985000000000000000e+03 7.574091911315917969e+00 4.980092525482177734e+00 5.368001293390989304e-04 7.748625357635319233e-04 3.934988053515553474e-04 1.681865396676585078e-04
1.986000000000000000e+03 3.080120086669921875e+01 -2.271075963973999023e+00 -1.513379365205764771e-01 1.304995864629745483e-01 -6.251507904380559921e-03 2.409901022911071777e-01
1.987000000000000000e+03 2.944961929321289062e+01 -1.619950890541076660e+00 -7.493019849061965942e-02 1.234371960163116455e-01 1.455209963023662567e-02 2.933378815650939941e-01
1.988000000000000000e+03 6.153626441955566406e+00 4.781842708587646484e+00 3.491400275379419327e-04 5.396624328568577766e-04 2.666407381184399128e-04 2.057342207990586758e-04
1.989000000000000000e+03 2.879064369201660156e+01 -1.044880270957946777e+00 -1.113605778664350510e-02 1.286993324756622314e-01 3.526898100972175598e-02 3.061103820800781250e-01
1.990000000000000000e+03 3.014450073242187500e+01 -1.591858983039855957e+00 -3.724563866853713989e-02 1.520717442035675049e-01 3.444783389568328857e-02 2.487818300724029541e-01
1.991000000000000000e+03 3.231869125366210938e+01 -1.627759933471679688e+00 1.263184994459152222e-01 2.655235826969146729e-01 1.175526231527328491e-01 5.248022451996803284e-02
1.992000000000000000e+03 3.162903213500976562e+01 -8.735115528106689453e-01 2.171036452054977417e-01 3.032967746257781982e-01 1.561201214790344238e-01 5.607781559228897095e-02
1.993000000000000000e+03 3.371770477294921875e+01 -2.386040210723876953e+00 7.316388189792633057e-02 2.584260702133178711e-01 9.947699308395385742e-02 -3.633007407188415527e-02
1.994000000000000000e+03 3.159427642822265625e+01 -1.593510746955871582e+00 6.509552150964736938e-02 2.232418209314346313e-01 8.650120347738265991e-02 1.284593045711517334e-01
1.995000000000000000e+03 5.261522769927978516e+00 -5.738441467285156250e+00 5.255487048998475075e-04 -1.374148268951103091e-04 1.164401692221872509e-04 2.058064419543370605e-04
1.996000000000000000e+03 3.812207412719726562e+01 -1.151015949249267578e+01 8.106970191001892090e-01 1.418763518333435059e+00 6.688381433486938477e-01 1.588527917861938477e+00
1.997000000000000000e+03 3.527537918090820312e+01 -1.860861778259277344e+00 5.199822187423706055e-01 5.055366754531860352e-01 3.076556622982025146e-01 -4.226632118225097656e-01
1.998000000000000000e+03 3.367643737792968750e+01 -1.216276645660400391e+01 -1.379302795976400375e-02 4.562562704086303711e-01 1.327389776706695557e-01 3.433210253715515137e-01
1.999000000000000000e+03 3.601394271850585938e+01 -1.114939880371093750e+01 1.253619492053985596e-01 5.778461694717407227e-01 2.109624445438385010e-01 6.835753321647644043e-01
2.000000000000000000e+03 6.276718616485595703e+00 -5.037573337554931641e+00 3.352414933033287525e-04 -1.879771007224917412e-04 4.417931268108077347e-05 3.189592680428177118e-04
2.001000000000000000e+03 3.598067474365234375e+01 -1.185241508483886719e+01 3.437111675739288330e-01 7.725762724876403809e-01 3.348862528800964355e-01 8.447996973991394043e-01
2.002000000000000000e+03 3.672114944458007812e+01 -1.175132846832275391e+01 4.910477995872497559e-01 9.478356242179870605e-01 4.316650331020355225e-01 1.064107537269592285e+00
2.003000000000000000e+03 3.446516418457031250e+01 -1.203943061828613281e+01 8.220926672220230103e-02 5.353676080703735352e-01 1.852730661630630493e-01 4.888361096382141113e-01
2.004000000000000000e+03 3.523086929321289062e+01 -1.194174671173095703e+01 2.018769830465316772e-01 6.426872611045837402e-01 2.533692717552185059e-01 6.571786403656005859e-01
2.005000000000000000e+03 3.875777816772460938e+01 -1.140847587585449219e+01 9.697089791297912598e-01 1.733625054359436035e+00 8.110002279281616211e-01 1.877535581588745117e+00
2.006000000000000000e+03 3.452979660034179688e+01 -1.794733524322509766e+00 3.897832334041595459e-01 4.292246401309967041e-01 2.457023561000823975e-01 -2.677875161170959473e-01
2.007000000000000000e+03 3.594495010375976562e+01 -2.551322698593139648e+00 4.364805519580841064e-01 4.397697150707244873e-01 2.628750801086425781e-01 -4.271797239780426025e-01
2.008000000000000000e+03 5.756577491760253906e+00 -6.874433040618896484e+00 6.976124714128673077e-04 -2.314616722287610173e-04 1.398452295688912272e-04 -2.075826341751962900e-04
2.009000000000000000e+03 2.991618537902832031e+01 -1.247030067443847656e+01 -3.617162406444549561e-01 2.126955687999725342e-01 -4.470619931817054749e-02 -1.309085339307785034e-01
2.010000000000000000e+03 3.601695632934570312e+01 -1.927196264266967773e+00 6.580991744995117188e-01 6.109285354614257812e-01 3.807083070278167725e-01 -5.887742042541503906e-01
2.011000000000000000e+03 3.304961395263671875e+01 -1.675592303276062012e+00 1.978862285614013672e-01 3.119381070137023926e-01 1.529472917318344116e-01 -3.723496571183204651e-02
2.012000000000000000e+03 1.059174728393554688e+01 5.719927787780761719e+00 2.539564447943121195e-04 -1.629172125831246376e-03 -4.125647246837615967e-04 -7.754103862680494785e-04
2.013000000000000000e+03 3.144176292419433594e+01 -1.223482894897460938e+01 -2.995715141296386719e-01 2.523928880691528320e-01 -1.415358949452638626e-02 1.385082863271236420e-02
2.014000000000000000e+03 2.670044898986816406e+01 -1.159565353393554688e+01 -6.788641810417175293e-01 9.603811800479888916e-02 -1.748478263616561890e-01 -3.905856609344482422e-01
2.015000000000000000e+03 2.658891677856445312e+01 -1.236241054534912109e+01 -5.441125035285949707e-01 1.345126479864120483e-01 -1.228799447417259216e-01 -3.822824060916900635e-01
2.016000000000000000e+03 2.910099983215332031e+01 -1.247820186614990234e+01 -4.081202149391174316e-01 1.979933530092239380e-01 -6.303805857896804810e-02 -2.049282342195510864e-01
2.017000000000000000e+03 3.678794097900390625e+01 -2.000918388366699219e+00 8.515146374702453613e-01 7.550420761108398438e-01 4.819670021533966064e-01 -8.259343504905700684e-01
2.018000000000000000e+03 2.826223945617675781e+01 -1.246431446075439453e+01 -4.614911079406738281e-01 1.641767621040344238e-01 -8.919429779052734375e-02 -2.782040238380432129e-01
2.019000000000000000e+03 2.045487785339355469e+01 -1.625905418395996094e+01 -4.003734290599822998e-01 6.028724089264869690e-02 -1.020258590579032898e-01 -4.217001199722290039e-01
2.020000000000000000e+03 2.074701499938964844e+01 -1.211690998077392578e+01 -6.301940679550170898e-01 3.029834851622581482e-02 -1.799686998128890991e-01 -5.380557775497436523e-01
2.021000000000000000e+03 2.742236328125000000e+01 -1.242617607116699219e+01 -5.041140317916870117e-01 1.435728967189788818e-01 -1.081623435020446777e-01 -3.311736583709716797e-01
2.022000000000000000e+03 2.493864822387695312e+01 -1.222069358825683594e+01 -6.007993221282958984e-01 1.218712106347084045e-01 -1.436784416437149048e-01 -4.574085772037506104e-01
2.023000000000000000e+03 2.034046936035156250e+01 -1.319426059722900391e+01 -5.891782641410827637e-01 1.957184076309204102e-02 -1.708819270133972168e-01 -5.324888229370117188e-01
2.024000000000000000e+03 4.004717636108398438e+01 -1.078059482574462891e+01 1.322131514549255371e+00 2.427996873855590820e+00 1.125038504600524902e+00 2.553294897079467773e+00
2.025000000000000000e+03 2.286927604675292969e+01 -1.253189373016357422e+01 -5.932589769363403320e-01 1.156867742538452148e-01 -1.432716548442840576e-01 -5.103853940963745117e-01
2.026000000000000000e+03 2.276989364624023438e+01 -1.125315570831298828e+01 -6.930086016654968262e-01 8.992858231067657471e-02 -1.809240132570266724e-01 -5.123923420906066895e-01
2.027000000000000000e+03 2.193463134765625000e+01 -1.186300086975097656e+01 -6.445339918136596680e-01 7.708588987588882446e-02 -1.702344417572021484e-01 -5.309115648269653320e-01
2.028000000000000000e+03 2.351007461547851562e+01 -1.131289005279541016e+01 -7.024694085121154785e-01 1.007501035928726196e-01 -1.805157959461212158e-01 -4.945371150970458984e-01
2.029000000000000000e+03 1.098906898498535156e+01 6.760099411010742188e+00 -1.926160475704818964e-04 -1.305037178099155426e-03 -4.492959415074437857e-04 -7.159787928685545921e-04
2.030000000000000000e+03 7.526842594146728516e+00 9.811614036560058594e+00 2.861462417058646679e-04 2.406390922260470688e-05 9.306304127676412463e-05 1.317740534432232380e-03
2.031000000000000000e+03 7.108208179473876953e+00 6.769125938415527344e+00 1.109177363105118275e-03 5.101989372633397579e-04 4.858128959313035011e-04 -1.602231350261718035e-04
2.032000000000000000e+03 6.745538711547851562e+00 1.072305965423583984e+01 1.985666342079639435e-03 2.834582701325416565e-04 6.807374302297830582e-04 3.176748519763350487e-03
2.033000000000000000e+03 2.143797683715820312e+01 -1.404805779457092285e-01 -2.945627458393573761e-02 -3.285920619964599609e-01 -1.074145063757896423e-01 3.223500251770019531e-01
2.034000000000000000e+03 2.355300331115722656e+01 7.230126380920410156e+00 -4.697995632886886597e-02 -1.766989380121231079e-02 -1.939495466649532318e-02 1.483787596225738525e-01
2.035000000000000000e+03 2.182766532897949219e+01 1.773164749145507812e+01 -1.621720790863037109e-01 3.494481444358825684e-01 5.618282034993171692e-02 -1.895027756690979004e-01
2.036000000000000000e+03 2.349686622619628906e+01 -1.562343120574951172e+01 -3.060475289821624756e-01 2.242645323276519775e-01 -2.453489787876605988e-02 -3.742817938327789307e-01
2.037000000000000000e+03 6.326070308685302734e+00 2.112628746032714844e+01 -2.502992749214172363e-01 -8.233497291803359985e-02 -9.979026764631271362e-02 2.485851645469665527e-01
2.038000000000000000e+03 4.802552223205566406e+00 7.217114448547363281e+00 -1.834494905779138207e-04 2.852736506611108780e-04 3.054724584217183292e-05 -3.451101074460893869e-04
2.039000000000000000e+03 4.883241653442382812e+00 -4.731640338897705078e+00 4.893308505415916443e-04 -1.886897080112248659e-04 9.019234857987612486e-05 6.003188900649547577e-06
2.040000000000000000e+03 2.398219680786132812e+01 3.418023347854614258e+00 2.595455758273601532e-02 -1.228986158967018127e-01 -2.908321656286716461e-02 3.146365582942962646e-01
2.041000000000000000e+03 9.624464035034179688e+00 7.176743984222412109e+00 4.537540662568062544e-04 -1.012611901387572289e-03 -1.676573592703789473e-04 2.122307778336107731e-04
2.042000000000000000e+03 7.047003173828125000e+01 -2.579735565185546875e+01 -1.144260689616203308e-01 7.686013698577880859e+00 2.271476268768310547e+00 -6.047303080558776855e-01
2.043000000000000000e+03 7.126750946044921875e+01 -3.188633155822753906e+01 -1.672099083662033081e-01 7.836614608764648438e+00 2.300821542739868164e+00 -3.949456214904785156e-01
2.044000000000000000e+03 7.229282379150390625e+01 -3.325140762329101562e+01 -1.533221453428268433e-01 7.877087593078613281e+00 2.317129611968994141e+00 -3.376363813877105713e-01
2.045000000000000000e+03 7.340409088134765625e+01 -2.252847290039062500e+01 -1.278526801615953445e-02 7.447307109832763672e+00 2.230356693267822266e+00 -5.218399167060852051e-01
2.046000000000000000e+03 9.262335777282714844e+00 2.872788619995117188e+01 1.124742925167083740e-01 -2.807518839836120605e-01 -5.048327520489692688e-02 2.748393714427947998e-01
2.047000000000000000e+03 9.733867645263671875e+00 3.221773910522460938e+01 1.435442268848419189e-01 -2.128716856241226196e-01 -2.079823613166809082e-02 1.955322623252868652e-01
2.048000000000000000e+03 7.088746643066406250e+01 1.841872215270996094e+01 -1.384392082691192627e-01 8.010107994079589844e+00 2.361500740051269531e+00 6.120546460151672363e-01
2.049000000000000000e+03 7.236846160888671875e+01 1.695139122009277344e+01 -9.137332439422607422e-02 7.992806434631347656e+00 2.370429754257202148e+00 5.771234631538391113e-01
2.050000000000000000e+03 7.028330993652343750e+01 1.040967369079589844e+01 -1.752201095223426819e-02 7.707127094268798828e+00 2.306881666183471680e+00 7.763231396675109863e-01
2.051000000000000000e+03 7.332155609130859375e+01 -1.608290290832519531e+01 1.066927388310432434e-01 7.136235237121582031e+00 2.172878265380859375e+00 -4.607455730438232422e-01
2.052000000000000000e+03 7.328609466552734375e+01 -1.481395339965820312e+01 1.411498039960861206e-01 7.070783615112304688e+00 2.163579940795898438e+00 -4.168508350849151611e-01
2.053000000000000000e+03 7.325870513916015625e+01 -1.739478492736816406e+01 7.497388124465942383e-02 7.197826862335205078e+00 2.181840181350708008e+00 -4.873481392860412598e-01
2.054000000000000000e+03 7.442232513427734375e+01 -1.756022262573242188e+01 5.381651222705841064e-02 7.123435020446777344e+00 2.153175354003906250e+00 -4.347476661205291748e-01
2.055000000000000000e+03 7.288378143310546875e+01 -9.640771865844726562e+00 2.423966377973556519e-01 6.950230598449707031e+00 2.157788276672363281e+00 -1.753394901752471924e-01
2.056000000000000000e+03 7.119836425781250000e+01 3.836297273635864258e+00 1.719140857458114624e-01 7.369192600250244141e+00 2.262331962585449219e+00 6.521599888801574707e-01
2.057000000000000000e+03 7.306275177001953125e+01 -1.095115470886230469e+01 2.258478850126266479e-01 6.961884021759033203e+00 2.156319618225097656e+00 -2.473992854356765747e-01
2.058000000000000000e+03 7.275960540771484375e+01 -8.274445533752441406e+00 2.637812197208404541e-01 6.943270683288574219e+00 2.162115573883056641e+00 -9.189439564943313599e-02
2.059000000000000000e+03 7.283810424804687500e+01 -2.751245021820068359e+00 2.471768558025360107e-01 6.987238407135009766e+00 2.170324563980102539e+00 2.656803131103515625e-01
2.060000000000000000e+03 7.281970977783203125e+01 -4.119915962219238281e+00 2.628054916858673096e-01 6.959163665771484375e+00 2.166590690612792969e+00 1.813319623470306396e-01
2.061000000000000000e+03 7.396589660644531250e+01 5.582968711853027344e+00 6.157436966896057129e-02 7.294662952423095703e+00 2.206871271133422852e+00 5.444657206535339355e-01
2.062000000000000000e+03 6.959211730957031250e+01 4.922090053558349609e+00 1.792186796665191650e-01 7.510352611541748047e+00 2.306871414184570312e+00 7.580111622810363770e-01
2.063000000000000000e+03 7.412726593017578125e+01 -1.316338777542114258e+00 1.601900160312652588e-01 6.916363716125488281e+00 2.122966051101684570e+00 3.029568195343017578e-01
2.064000000000000000e+03 7.279606628417968750e+01 -3.082482516765594482e-02 2.054471522569656372e-01 7.083008766174316406e+00 2.186536788940429688e+00 4.186118841171264648e-01
2.065000000000000000e+03 7.394661712646484375e+01 1.244652080535888672e+01 -3.123028203845024109e-02 7.748823642730712891e+00 2.315278053283691406e+00 5.668597221374511719e-01
2.066000000000000000e+03 7.214746093750000000e+01 9.639385223388671875e+00 2.109193708747625351e-03 7.623425483703613281e+00 2.287660360336303711e+00 6.849253177642822266e-01
2.067000000000000000e+03 7.166231536865234375e+01 2.750095176696777344e+01 -1.205253005027770996e-01 8.311885833740234375e+00 2.457408189773559570e+00 3.373605906963348389e-01
2.068000000000000000e+03 7.220221710205078125e+01 -2.651519966125488281e+01 -9.590920060873031616e-02 7.668592453002929688e+00 2.271805047988891602e+00 -5.286931991577148438e-01
2.069000000000000000e+03 7.268414306640625000e+01 2.136382293701171875e+01 -9.714731574058532715e-02 8.192822456359863281e+00 2.428702592849731445e+00 4.677933156490325928e-01
2.070000000000000000e+03 7.395368957519531250e+01 1.968085098266601562e+01 -6.818997114896774292e-02 8.176136970520019531e+00 2.432384014129638672e+00 4.467428624629974365e-01
2.071000000000000000e+03 6.048650264739990234e+00 2.705430984497070312e+01 2.532206475734710693e-02 -3.174951970577239990e-01 -8.765193819999694824e-02 2.932752966880798340e-01
2.072000000000000000e+03 6.930221080780029297e+00 2.527519416809082031e+01 -1.913661696016788483e-02 -2.800251543521881104e-01 -8.974852412939071655e-02 3.300406932830810547e-01
2.073000000000000000e+03 1.036922931671142578e+01 2.136232185363769531e+01 -2.680054008960723877e-01 -3.828997313976287842e-01 -1.952715516090393066e-01 4.266837835311889648e-01
2.074000000000000000e+03 6.131202697753906250e+00 -5.975002288818359375e+00 -1.195109653053805232e-04 5.352729349397122860e-04 1.247285981662571430e-04 -2.253677812404930592e-04
2.075000000000000000e+03 4.997274875640869141e+00 -7.410398960113525391e+00 4.542447277344763279e-04 -1.978771024369052611e-06 1.356797874905169010e-04 3.088265075348317623e-04
2.076000000000000000e+03 7.785250186920166016e+00 2.848710441589355469e+01 7.361343502998352051e-02 -3.090049028396606445e-01 -7.061743736267089844e-02 2.919510900974273682e-01
2.077000000000000000e+03 5.830438613891601562e+00 7.471940517425537109e+00 2.322650281712412834e-03 -8.449010783806443214e-04 4.433247668202966452e-04 -6.690837326459586620e-04
2.078000000000000000e+03 2.564447784423828125e+01 7.399579048156738281e+00 6.079482659697532654e-02 3.739584684371948242e-01 1.304259896278381348e-01 8.860724978148937225e-03
2.079000000000000000e+03 9.312574386596679688e+00 -2.160664176940917969e+01 -1.569035053253173828e-01 -5.529243946075439453e-01 -2.129483669996261597e-01 -5.104156732559204102e-01
2.080000000000000000e+03 2.156787300109863281e+01 -1.253816223144531250e+01 -6.174244880676269531e-01 7.518733292818069458e-02 -1.626711338758468628e-01 -5.358626842498779297e-01
2.081000000000000000e+03 2.217483711242675781e+01 -1.300483131408691406e+01 -5.629723668098449707e-01 1.112082302570343018e-01 -1.355292350053787231e-01 -5.162660479545593262e-01
2.082000000000000000e+03 1.272996234893798828e+01 -2.258626174926757812e+01 -5.747694522142410278e-02 -5.003294348716735840e-01 -1.673419177532196045e-01 -3.971554040908813477e-01
2.083000000000000000e+03 1.397125434875488281e+01 -2.104011726379394531e+01 -2.166742086410522461e-01 -4.825617372989654541e-01 -2.097707837820053101e-01 -3.499585092067718506e-01
2.084000000000000000e+03 7.312374114990234375e+01 3.457796096801757812e+01 -9.071564674377441406e-02 8.554859161376953125e+00 2.539242982864379883e+00 1.529035419225692749e-01
2.085000000000000000e+03 6.704123687744140625e+01 3.039764022827148438e+01 -2.501677274703979492e-01 7.964694499969482422e+00 2.314357995986938477e+00 3.205358386039733887e-01
2.086000000000000000e+03 1.883841896057128906e+01 -1.971228790283203125e+01 -1.895998269319534302e-01 -2.860308811068534851e-02 -6.546087563037872314e-02 -2.842406630516052246e-01
2.087000000000000000e+03 1.496611118316650391e+01 2.145458793640136719e+01 -1.233654692769050598e-01 -3.937914967536926270e-01 -1.551470905542373657e-01 1.939443796873092651e-01
2.088000000000000000e+03 8.809729576110839844e+00 2.386177253723144531e+01 -5.571209266781806946e-02 -3.011495769023895264e-01 -1.070585027337074280e-01 3.699172437191009521e-01
2.089000000000000000e+03 1.295719242095947266e+01 2.361090469360351562e+01 1.193979196250438690e-02 -3.469441831111907959e-01 -1.005013212561607361e-01 2.673015296459197998e-01
2.090000000000000000e+03 2.352652549743652344e+01 1.357544612884521484e+01 -1.549052298069000244e-01 4.071407318115234375e-01 7.567065209150314331e-02 -1.432863771915435791e-01
2.091000000000000000e+03 2.454517364501953125e+01 1.666096496582031250e+01 -1.081921309232711792e-01 8.293750286102294922e-01 2.163548767566680908e-01 -3.325310647487640381e-01
2.092000000000000000e+03 2.105832862854003906e+01 -1.511460018157958984e+01 -4.551571607589721680e-01 8.701150864362716675e-02 -1.104436963796615601e-01 -4.651156961917877197e-01
2.093000000000000000e+03 9.345563888549804688e+00 -3.058319664001464844e+01 1.614887714385986328e-01 -4.385866224765777588e-01 -8.312935382127761841e-02 -3.170662820339202881e-01
2.094000000000000000e+03 1.512938594818115234e+01 2.366188240051269531e+01 4.369965940713882446e-02 -2.178631424903869629e-01 -5.224904417991638184e-02 1.404811590909957886e-01
2.095000000000000000e+03 1.730623054504394531e+01 -2.090314102172851562e+01 -1.407124251127243042e-01 -1.439863145351409912e-01 -8.540961891412734985e-02 -2.720009088516235352e-01
2.096000000000000000e+03 2.482603645324707031e+01 6.111592769622802734e+00 4.400927200913429260e-02 1.400166749954223633e-01 5.520778521895408630e-02 1.384937465190887451e-01
2.097000000000000000e+03 2.253400611877441406e+01 1.443919372558593750e+01 -1.964643150568008423e-01 2.531797587871551514e-01 1.701463572680950165e-02 -1.029388010501861572e-01
2.098000000000000000e+03 7.106935119628906250e+01 2.196173095703125000e+01 -1.436061412096023560e-01 8.128310203552246094e+00 2.395411252975463867e+00 5.080661177635192871e-01
2.099000000000000000e+03 7.195870971679687500e+01 1.565349483489990234e+01 -9.269432723522186279e-02 7.921941757202148438e+00 2.348774194717407227e+00 6.340272426605224609e-01
2.100000000000000000e+03 7.244892883300781250e+01 6.806852340698242188e+00 6.152168661355972290e-02 7.452298164367675781e+00 2.254146099090576172e+00 6.537100076675415039e-01
2.101000000000000000e+03 4.824713706970214844e+00 -1.885492324829101562e+01 -2.197369486093521118e-01 -4.956802353262901306e-02 -8.079148828983306885e-02 -1.296164840459823608e-01
2.102000000000000000e+03 7.580805778503417969e+00 -2.728168869018554688e+01 8.339720219373703003e-02 -4.839266538619995117e-01 -1.201588362455368042e-01 -4.017852842807769775e-01
2.103000000000000000e+03 1.128556823730468750e+01 -2.407249450683593750e+01 4.152195900678634644e-02 -4.946873784065246582e-01 -1.359496265649795532e-01 -4.278653562068939209e-01
2.104000000000000000e+03 7.162993621826171875e+01 2.920268249511718750e+01 -1.147123575210571289e-01 8.340280532836914062e+00 2.467670440673828125e+00 3.017553091049194336e-01
2.105000000000000000e+03 4.344576263427734375e+01 -3.730750560760498047e+00 2.002934217453002930e+00 1.033014583587646484e+01 3.699923992156982422e+00 -5.174577236175537109e+00
2.106000000000000000e+03 4.301383590698242188e+01 -4.014567852020263672e+00 2.807570934295654297e+00 8.108406066894531250e+00 3.274793148040771484e+00 -5.518219947814941406e+00
2.107000000000000000e+03 4.272132110595703125e+01 -9.602183341979980469e+00 1.802450537681579590e+00 7.040155887603759766e+00 2.652781963348388672e+00 4.777568340301513672e+00
2.108000000000000000e+03 4.465244293212890625e+01 -4.074387073516845703e+00 1.391144037246704102e+00 1.615066719055175781e+01 5.262543201446533203e+00 -2.584059715270996094e+00
2.109000000000000000e+03 4.486774826049804688e+01 -8.858681678771972656e+00 1.139039754867553711e+00 1.652177810668945312e+01 5.298245429992675781e+00 1.895730733871459961e+00
2.110000000000000000e+03 4.531918334960937500e+01 -3.847091674804687500e+00 1.624780297279357910e+00 1.584115600585937500e+01 5.239780902862548828e+00 -6.957577466964721680e-01
2.111000000000000000e+03 4.729404449462890625e+01 -6.338585376739501953e+00 7.715962409973144531e+00 1.240434360504150391e+01 6.036091804504394531e+00 1.654007285833358765e-01
2.112000000000000000e+03 4.443714523315429688e+01 -3.946916341781616211e+00 1.235741734504699707e+00 1.537425422668457031e+01 4.982998847961425781e+00 -3.429657936096191406e+00
2.113000000000000000e+03 4.641551208496093750e+01 -4.347387313842773438e+00 3.918969392776489258e+00 1.493076610565185547e+01 5.654920578002929688e+00 1.579596042633056641e+00
2.114000000000000000e+03 4.598649597167968750e+01 -3.844489574432373047e+00 2.409637212753295898e+00 1.527440452575683594e+01 5.305212497711181641e+00 6.088536977767944336e-01
2.115000000000000000e+03 4.653376388549804688e+01 -5.822432518005371094e+00 8.449974060058593750e+00 1.418414211273193359e+01 6.790234565734863281e+00 1.363173842430114746e+00
2.116000000000000000e+03 4.545471954345703125e+01 -8.506482124328613281e+00 2.616954565048217773e+00 1.739182853698730469e+01 6.002635002136230469e+00 -5.216798186302185059e-01
2.117000000000000000e+03 4.203034591674804688e+01 -1.021165847778320312e+01 1.665638566017150879e+00 5.408392429351806641e+00 2.122209310531616211e+00 4.100633621215820312e+00
2.118000000000000000e+03 3.877997970581054688e+01 -2.076020479202270508e+00 1.424204349517822266e+00 1.524183154106140137e+00 8.845162391662597656e-01 -1.695798039436340332e+00
2.119000000000000000e+03 2.509673690795898438e+01 4.083789885044097900e-01 2.192067680880427361e-03 -5.275439471006393433e-02 -1.516869850456714630e-02 3.948074281215667725e-01
2.120000000000000000e+03 2.471164894104003906e+01 -2.390546649694442749e-01 -3.851770609617233276e-02 -8.600317686796188354e-02 -3.735626488924026489e-02 4.070331752300262451e-01
2.121000000000000000e+03 3.900595092773437500e+01 -2.593354940414428711e+00 1.449656844139099121e+00 1.314735054969787598e+00 8.293175697326660156e-01 -1.646243810653686523e+00
2.122000000000000000e+03 3.784888839721679688e+01 -1.765030860900878906e+00 1.205822467803955078e+00 1.197183251380920410e+00 7.209017276763916016e-01 -1.326457023620605469e+00
2.123000000000000000e+03 2.533486747741699219e+01 -5.261781811714172363e-01 -5.122328549623489380e-02 -4.774338006973266602e-02 -2.968999929726123810e-02 4.083609580993652344e-01
2.124000000000000000e+03 9.037524223327636719e+00 5.888141632080078125e+00 -8.514831279171630740e-05 -1.306552905589342117e-03 -4.175103676971048117e-04 -6.568520620930939913e-05
2.125000000000000000e+03 2.746263504028320312e+01 -1.662547230720520020e+00 -1.383449584245681763e-01 3.679049387574195862e-02 -3.046633861958980560e-02 3.787883520126342773e-01
2.126000000000000000e+03 2.591016769409179688e+01 -7.898674011230468750e-01 -6.550724059343338013e-02 -1.789236068725585938e-02 -2.501988038420677185e-02 4.021785557270050049e-01
2.127000000000000000e+03 3.935641479492187500e+01 -1.135130119323730469e+01 1.119545698165893555e+00 2.167766094207763672e+00 9.861934781074523926e-01 2.229756593704223633e+00
2.128000000000000000e+03 3.748996353149414062e+01 -2.165736913681030273e+00 9.880442619323730469e-01 8.856379389762878418e-01 5.621046423912048340e-01 -1.015005350112915039e+00
2.129000000000000000e+03 2.798344612121582031e+01 -1.590345203876495361e-01 5.781874060630798340e-02 1.314354091882705688e-01 5.677624419331550598e-02 3.105184733867645264e-01
2.130000000000000000e+03 6.194056034088134766e+00 6.566478729248046875e+00 -2.155195979867130518e-04 -1.453650475014001131e-04 -1.082653907360509038e-04 4.412824346218258142e-04
2.131000000000000000e+03 2.752825927734375000e+01 -1.065556287765502930e+00 -5.987456813454627991e-02 6.159579753875732422e-02 5.163690075278282166e-04 3.659130334854125977e-01
2.132000000000000000e+03 3.086690902709960938e+01 -1.580602884292602539e+00 1.085355877876281738e-02 1.875366568565368652e-01 5.951706692576408386e-02 1.919868737459182739e-01
2.133000000000000000e+03 2.944607353210449219e+01 -9.664548039436340332e-01 3.064825572073459625e-02 1.609972417354583740e-01 5.749364942312240601e-02 2.602201998233795166e-01
2.134000000000000000e+03 7.342484474182128906e+00 -6.825209617614746094e+00 4.336465208325535059e-04 -1.460478670196607709e-04 8.627959323348477483e-05 -5.998784909024834633e-04
2.135000000000000000e+03 3.378461074829101562e+01 -1.731393218040466309e+00 2.888716757297515869e-01 3.651427030563354492e-01 1.962043046951293945e-01 -1.447056978940963745e-01
2.136000000000000000e+03 3.309553909301757812e+01 -9.875240325927734375e-01 3.659493625164031982e-01 4.244912266731262207e-01 2.371321767568588257e-01 -1.365674287080764771e-01
2.137000000000000000e+03 3.812161254882812500e+01 -1.217573356628417969e+01 8.726024627685546875e-01 1.724221348762512207e+00 7.790471315383911133e-01 1.734296917915344238e+00
2.138000000000000000e+03 3.284668731689453125e+01 -1.229742527008056641e+01 -9.726426005363464355e-02 3.621124029159545898e-01 7.945444434881210327e-02 2.131746262311935425e-01
2.139000000000000000e+03 3.445959472656250000e+01 -1.273417282104492188e+01 2.502451241016387939e-01 7.064260244369506836e-01 2.870013415813446045e-01 6.091685891151428223e-01
2.140000000000000000e+03 3.594498825073242188e+01 -1.258711814880371094e+01 4.902378618717193604e-01 9.861392974853515625e-01 4.429131448268890381e-01 9.860909581184387207e-01
2.141000000000000000e+03 3.082093620300292969e+01 -1.325364208221435547e+01 -9.409634768962860107e-02 3.481787443161010742e-01 7.622472196817398071e-02 4.270650073885917664e-02
2.142000000000000000e+03 3.210154724121093750e+01 -1.225850963592529297e+01 -1.970407515764236450e-01 3.134796619415283203e-01 3.493167087435722351e-02 1.148021817207336426e-01
2.143000000000000000e+03 3.370759582519531250e+01 -1.287919235229492188e+01 1.579377502202987671e-01 5.922148823738098145e-01 2.250458002090454102e-01 4.544870257377624512e-01
2.144000000000000000e+03 3.165784072875976562e+01 -1.285601425170898438e+01 -9.102451801300048828e-02 3.510004281997680664e-01 7.799277454614639282e-02 1.202138438820838928e-01
2.145000000000000000e+03 3.519798278808593750e+01 -1.266213417053222656e+01 3.683330714702606201e-01 8.224324584007263184e-01 3.572296500205993652e-01 7.906783223152160645e-01
2.146000000000000000e+03 3.445059204101562500e+01 -1.341084575653076172e+01 3.758485019207000732e-01 8.816433548927307129e-01 3.772475421428680420e-01 7.248697280883789062e-01
2.147000000000000000e+03 3.289508438110351562e+01 -1.311338424682617188e+01 8.804738521575927734e-02 5.058547258377075195e-01 1.781706362962722778e-01 3.280519247055053711e-01
2.148000000000000000e+03 3.604571533203125000e+01 -1.275672793388366699e+00 8.372923731803894043e-01 7.872158885002136230e-01 4.873524904251098633e-01 -7.509235739707946777e-01
2.149000000000000000e+03 2.992412948608398438e+01 -1.339410972595214844e+01 -1.493036895990371704e-01 3.227287232875823975e-01 5.202751234173774719e-02 -4.804421216249465942e-02
2.150000000000000000e+03 3.749284362792968750e+01 -1.242583274841308594e+00 1.194953918457031250e+00 1.300472974777221680e+00 7.486280798912048340e-01 -1.309646368026733398e+00
2.151000000000000000e+03 3.673594284057617188e+01 -6.937553882598876953e-01 1.071053624153137207e+00 1.244286894798278809e+00 6.946021318435668945e-01 -1.129739999771118164e+00
2.152000000000000000e+03 3.457154846191406250e+01 -1.129954814910888672e+00 5.731359720230102539e-01 5.727651715278625488e-01 3.437703549861907959e-01 -3.992445766925811768e-01
2.153000000000000000e+03 3.531225204467773438e+01 -1.203019142150878906e+00 6.907513141632080078e-01 6.816389560699462891e-01 4.117170870304107666e-01 -5.629413723945617676e-01
2.154000000000000000e+03 2.905506324768066406e+01 -1.330789089202880859e+01 -2.409974336624145508e-01 2.723347246646881104e-01 9.401183575391769409e-03 -1.556786447763442993e-01
2.155000000000000000e+03 2.576250076293945312e+01 -1.229352569580078125e+01 -5.772783756256103516e-01 1.241168975830078125e-01 -1.359484493732452393e-01 -4.224125742912292480e-01
2.156000000000000000e+03 2.334529495239257812e+01 -1.200124073028564453e+01 -6.323668956756591797e-01 1.159347221255302429e-01 -1.549296528100967407e-01 -5.043710470199584961e-01
2.157000000000000000e+03 2.731201171875000000e+01 -1.324234294891357422e+01 -3.682482838630676270e-01 1.956275999546051025e-01 -5.178620666265487671e-02 -2.987565398216247559e-01
2.158000000000000000e+03 2.298110198974609375e+01 -4.560610353946685791e-01 -5.141007900238037109e-02 -2.070969045162200928e-01 -7.755209505558013916e-02 3.868254125118255615e-01
2.159000000000000000e+03 2.481326103210449219e+01 -1.296204090118408203e+01 -5.138182640075683594e-01 1.464313119649887085e-01 -1.102160885930061340e-01 -4.467842876911163330e-01
2.160000000000000000e+03 2.138378334045410156e+01 -1.337386417388916016e+01 -5.607243180274963379e-01 7.714084535837173462e-02 -1.450750380754470825e-01 -5.181162953376770020e-01
2.161000000000000000e+03 2.631859779357910156e+01 -1.389188957214355469e+01 -3.298909962177276611e-01 2.151354551315307617e-01 -3.442666307091712952e-02 -3.312804400920867920e-01
2.162000000000000000e+03 7.487137317657470703e+00 8.264563560485839844e+00 4.102569073438644409e-04 -1.604002027306705713e-04 7.495700992876663804e-05 3.782313433475792408e-04
2.163000000000000000e+03 6.668194770812988281e+00 9.156350135803222656e+00 1.257086754776537418e-03 2.014069177675992250e-04 4.375480930320918560e-04 1.060461741872131824e-03
2.164000000000000000e+03 8.142218589782714844e+00 -6.226078987121582031e+00 -3.051632957067340612e-04 8.058910025283694267e-04 1.502183004049584270e-04 4.088276182301342487e-04
2.165000000000000000e+03 2.187451362609863281e+01 -1.426559448242187500e+01 -4.925271272659301758e-01 1.081211268901824951e-01 -1.153218001127243042e-01 -4.893139004707336426e-01
2.166000000000000000e+03 2.327386856079101562e+01 3.928311765193939209e-01 -2.441681548953056335e-02 -2.075560390949249268e-01 -6.959185749292373657e-02 3.955800533294677734e-01
2.167000000000000000e+03 2.245800971984863281e+01 6.694304347038269043e-01 -2.346774004399776459e-02 -2.825314104557037354e-01 -9.179974347352981567e-02 3.730567097663879395e-01
2.168000000000000000e+03 7.163445281982421875e+01 1.101607036590576172e+01 -2.701668068766593933e-02 7.710697174072265625e+00 2.305104255676269531e+00 7.089967131614685059e-01
2.169000000000000000e+03 7.321933746337890625e+01 -1.354810905456542969e+01 1.534602642059326172e-01 7.031225681304931641e+00 2.155405759811401367e+00 -3.683727979660034180e-01
2.170000000000000000e+03 7.207532501220703125e+01 -1.716982841491699219e+01 1.104213148355484009e-01 7.263802528381347656e+00 2.212267160415649414e+00 -5.343841314315795898e-01
2.171000000000000000e+03 7.255050659179687500e+01 5.428616046905517578e+00 9.206026047468185425e-02 7.370279312133789062e+00 2.238701820373535156e+00 6.246303319931030273e-01
2.172000000000000000e+03 2.555535697937011719e+01 9.215383529663085938e+00 1.780065894126892090e-02 4.881592988967895508e-01 1.517879813909530640e-01 -9.084250032901763916e-02
2.173000000000000000e+03 1.990934181213378906e+01 -1.743350982666015625e+01 -3.374515473842620850e-01 2.151338383555412292e-02 -9.478144347667694092e-02 -3.731997907161712646e-01
2.174000000000000000e+03 2.176824378967285156e+01 -1.693371772766113281e+01 -2.708603739738464355e-01 1.721838414669036865e-01 -2.960296161472797394e-02 -3.539553880691528320e-01
2.175000000000000000e+03 7.273265838623046875e+01 -6.891420364379882812e+00 2.723129987716674805e-01 6.940418243408203125e+00 2.163819313049316406e+00 -3.415566636249423027e-03
2.176000000000000000e+03 7.186497497558593750e+01 -1.114793586730957031e+01 2.889896333217620850e-01 7.069474220275878906e+00 2.207539319992065430e+00 -2.915105819702148438e-01
2.177000000000000000e+03 7.269487762451171875e+01 2.685035228729248047e+00 1.517691165208816528e-01 7.215453624725341797e+00 2.210166931152343750e+00 5.397084355354309082e-01
2.178000000000000000e+03 7.138861083984375000e+01 1.150471091270446777e+00 2.462107390165328979e-01 7.236533164978027344e+00 2.244823217391967773e+00 5.349737405776977539e-01
2.179000000000000000e+03 2.276739120483398438e+01 1.654104590415954590e+00 -1.267605274915695190e-02 -2.792958021163940430e-01 -8.759155869483947754e-02 3.715204596519470215e-01
2.180000000000000000e+03 2.483430480957031250e+01 3.740562200546264648e+00 5.504330992698669434e-02 8.691952563822269440e-03 1.912057958543300629e-02 2.824615240097045898e-01
2.181000000000000000e+03 7.296503448486328125e+01 -2.023028755187988281e+01 2.919035777449607849e-02 7.356480121612548828e+00 2.215701103210449219e+00 -5.415074825286865234e-01
2.182000000000000000e+03 7.161624908447265625e+01 -2.494428062438964844e+01 -7.663245499134063721e-02 7.624266624450683594e+00 2.264290094375610352e+00 -5.793023705482482910e-01
2.183000000000000000e+03 7.019152832031250000e+01 -5.397885799407958984e+00 4.569954574108123779e-01 7.144211769104003906e+00 2.280362129211425781e+00 1.221707910299301147e-01
2.184000000000000000e+03 5.793471813201904297e+00 5.508529186248779297e+00 5.024847723689163104e-06 -1.817931624827906489e-04 -5.303049329086206853e-05 -7.823912164894863963e-05
2.185000000000000000e+03 1.934057044982910156e+01 -1.858553314208984375e+01 -2.705465853214263916e-01 -4.646624904125928879e-03 -8.255796134471893311e-02 -3.227601051330566406e-01
2.186000000000000000e+03 2.069063758850097656e+01 -1.940526962280273438e+01 -1.287651658058166504e-01 1.380612850189208984e-01 2.788832644000649452e-03 -2.629853487014770508e-01
2.187000000000000000e+03 6.986978149414062500e+01 2.222501516342163086e+00 2.814201116561889648e-01 7.379418849945068359e+00 2.298251867294311523e+00 6.479669809341430664e-01
2.188000000000000000e+03 7.962265968322753906e+00 2.482377815246582031e+01 -3.145954012870788574e-02 -2.854968607425689697e-01 -9.508691728115081787e-02 3.489900529384613037e-01
2.189000000000000000e+03 7.421544647216796875e+01 2.324468994140625000e+01 -7.378645986318588257e-02 8.354989051818847656e+00 2.484360933303833008e+00 3.679290711879730225e-01
2.190000000000000000e+03 7.194966888427734375e+01 -1.848873710632324219e+01 7.673473656177520752e-02 7.335196971893310547e+00 2.223579645156860352e+00 -5.697301030158996582e-01
2.191000000000000000e+03 7.209267425537109375e+01 1.315853023529052734e+01 -5.818130820989608765e-02 7.809675216674804688e+00 2.325448036193847656e+00 6.689471602439880371e-01
2.192000000000000000e+03 7.155787658691406250e+01 -2.815030097961425781e+00 3.306266963481903076e-01 7.089162349700927734e+00 2.225936651229858398e+00 2.950764000415802002e-01
2.193000000000000000e+03 6.674447536468505859e+00 -2.276060295104980469e+01 -1.271430850028991699e-01 -3.437651395797729492e-01 -1.412724703550338745e-01 -4.365153014659881592e-01
2.194000000000000000e+03 7.081176757812500000e+01 1.219909286499023438e+01 -6.251734495162963867e-02 7.784515857696533203e+00 2.316599607467651367e+00 7.403987646102905273e-01
2.195000000000000000e+03 7.086029815673828125e+01 2.012679100036621094e+01 -1.494496464729309082e-01 8.060064315795898438e+00 2.373184442520141602e+00 5.670851469039916992e-01
2.196000000000000000e+03 7.803268432617187500e+00 3.026705932617187500e+01 1.059639081358909607e-01 -2.958575785160064697e-01 -5.696810036897659302e-02 2.477363497018814087e-01
2.197000000000000000e+03 1.042705249786376953e+01 2.967847442626953125e+01 1.428975164890289307e-01 -2.326201796531677246e-01 -2.691680192947387695e-02 2.433090656995773315e-01
2.198000000000000000e+03 7.240425109863281250e+01 -2.975204849243164062e+01 -1.240508109331130981e-01 7.786336898803710938e+00 2.298685789108276367e+00 -4.316019415855407715e-01
2.199000000000000000e+03 6.937985229492187500e+01 -2.845036697387695312e+01 -2.070980668067932129e-01 7.771494865417480469e+00 2.269319057464599609e+00 -5.619462132453918457e-01
2.200000000000000000e+03 7.181836700439453125e+01 -1.978235816955566406e+01 4.853055253624916077e-02 7.398130416870117188e+00 2.233998298645019531e+00 -5.940860509872436523e-01
2.201000000000000000e+03 6.974462890625000000e+01 2.720421409606933594e+01 -1.915459930896759033e-01 8.147848129272460938e+00 2.386890649795532227e+00 3.879081308841705322e-01
2.202000000000000000e+03 2.476140213012695312e+01 4.537005424499511719e+00 6.439992785453796387e-02 5.094807595014572144e-02 3.460440412163734436e-02 2.323116809129714966e-01
2.203000000000000000e+03 2.538220405578613281e+01 5.232869625091552734e+00 8.580108731985092163e-02 1.720632463693618774e-01 7.735929638147354126e-02 1.689067333936691284e-01
2.204000000000000000e+03 2.443252372741699219e+01 1.478888988494873047e+01 -1.197229847311973572e-01 6.853600144386291504e-01 1.696911156177520752e-01 -2.653723061084747314e-01
2.205000000000000000e+03 7.086980438232421875e+01 -2.845748710632324219e+01 -1.640586256980895996e-01 7.752276420593261719e+00 2.276465415954589844e+00 -5.268843173980712891e-01
2.206000000000000000e+03 7.152900695800781250e+01 -1.494701504707336426e+00 3.066306412220001221e-01 7.127887725830078125e+00 2.230355501174926758e+00 3.821553587913513184e-01
2.207000000000000000e+03 7.282834625244140625e+01 -1.387485861778259277e+00 2.281830310821533203e-01 7.029798984527587891e+00 2.177394628524780273e+00 3.466536998748779297e-01
2.208000000000000000e+03 7.129792785644531250e+01 -6.915098667144775391e+00 3.765112757682800293e-01 7.061626434326171875e+00 2.231441259384155273e+00 -7.430149242281913757e-03
2.209000000000000000e+03 1.712822914123535156e+01 2.119899940490722656e+01 -8.712456375360488892e-02 -1.561899185180664062e-01 -7.299434393644332886e-02 4.617565125226974487e-02
2.210000000000000000e+03 6.924153900146484375e+01 7.642181873321533203e+00 6.933934986591339111e-02 7.642685890197753906e+00 2.313607692718505859e+00 8.193904161453247070e-01
2.211000000000000000e+03 7.059115600585937500e+01 9.224104881286621094e+00 9.226285852491855621e-03 7.658726692199707031e+00 2.300385951995849609e+00 7.658630609512329102e-01
2.212000000000000000e+03 1.695042419433593750e+01 -2.581194877624511719e+01 1.969606131315231323e-01 -2.494959160685539246e-02 5.160330608487129211e-02 -2.024062722921371460e-01
2.213000000000000000e+03 1.092565059661865234e+01 -2.586859512329101562e+01 1.229031905531883240e-01 -4.595455527305603027e-01 -1.009927093982696533e-01 -3.960303366184234619e-01
2.214000000000000000e+03 7.492716312408447266e+00 2.679437065124511719e+01 3.907788917422294617e-02 -3.007522225379943848e-01 -7.850230485200881958e-02 3.118749558925628662e-01
2.215000000000000000e+03 7.101649475097656250e+01 1.437484264373779297e+01 -9.476819634437561035e-02 7.867380142211914062e+00 2.331783533096313477e+00 6.928312182426452637e-01
2.216000000000000000e+03 1.885846900939941406e+01 -2.096398162841796875e+01 -8.140084892511367798e-02 -6.064578774385154247e-04 -2.460219338536262512e-02 -2.353655546903610229e-01
2.217000000000000000e+03 1.991430282592773438e+01 1.976989364624023438e+01 -1.156650632619857788e-01 1.188545227050781250e-01 9.568364475853741169e-04 -1.109211593866348267e-01
2.218000000000000000e+03 7.367991638183593750e+01 -3.403388977050781250e+01 -1.352081894874572754e-01 7.926116943359375000e+00 2.337272644042968750e+00 -2.770736217498779297e-01
2.219000000000000000e+03 7.068307495117187500e+01 -2.180457496643066406e+01 -4.836683161556720734e-03 7.540310382843017578e+00 2.260642051696777344e+00 -6.493745446205139160e-01
2.220000000000000000e+03 7.245339202880859375e+01 -2.160029602050781250e+01 6.312790210358798504e-04 7.453084468841552734e+00 2.236114740371704102e+00 -5.722512602806091309e-01
2.221000000000000000e+03 2.135139656066894531e+01 -1.819298553466796875e+01 -2.002997547388076782e-01 1.778302788734436035e-01 -6.740842480212450027e-03 -3.020642101764678955e-01
2.222000000000000000e+03 9.850542068481445312e+00 -2.346366691589355469e+01 -1.117372699081897736e-02 -5.215740799903869629e-01 -1.598243415355682373e-01 -4.626766145229339600e-01
2.223000000000000000e+03 8.163892745971679688e+00 3.574223327636718750e+01 1.336696147918701172e-01 -2.616041898727416992e-01 -3.838036954402923584e-02 1.405391246080398560e-01
2.224000000000000000e+03 6.946640777587890625e+01 -2.504876518249511719e+01 -1.162720397114753723e-01 7.696377277374267578e+00 2.274031639099121094e+00 -6.450993418693542480e-01
2.225000000000000000e+03 7.231637573242187500e+01 -2.820284652709960938e+01 -1.184252053499221802e-01 7.735410690307617188e+00 2.285095691680908203e+00 -4.763845205307006836e-01
2.226000000000000000e+03 1.992847633361816406e+01 -2.044608497619628906e+01 -7.993126660585403442e-02 8.890924602746963501e-02 2.693392802029848099e-03 -2.346591353416442871e-01
2.227000000000000000e+03 8.513601303100585938e+00 -2.871420097351074219e+01 1.345949918031692505e-01 -4.733371734619140625e-01 -1.016226559877395630e-01 -3.638446331024169922e-01
2.228000000000000000e+03 7.197532653808593750e+01 3.078892517089843750e+01 -1.108272224664688110e-01 8.398637771606445312e+00 2.486343145370483398e+00 2.529794573783874512e-01
2.229000000000000000e+03 2.538630867004394531e+01 -1.464435863494873047e+01 -2.813797593116760254e-01 2.481454759836196899e-01 -9.970286861062049866e-03 -3.395088613033294678e-01
2.230000000000000000e+03 8.823408126831054688e+00 2.609397315979003906e+01 3.912543877959251404e-02 -3.036738038063049316e-01 -7.936450839042663574e-02 3.345889449119567871e-01
2.231000000000000000e+03 2.353579330444335938e+01 1.563511848449707031e+01 -1.442987471818923950e-01 5.665544867515563965e-01 1.266767382621765137e-01 -2.243078351020812988e-01
2.232000000000000000e+03 1.031034851074218750e+01 -3.274594497680664062e+01 2.035946696996688843e-01 -3.644092082977294922e-01 -4.824436455965042114e-02 -2.533086240291595459e-01
2.233000000000000000e+03 4.297509002685546875e+01 -3.697472333908081055e+00 2.409148693084716797e+00 8.054502487182617188e+00 3.139095306396484375e+00 -5.173269748687744141e+00
2.234000000000000000e+03 4.439825439453125000e+01 -3.202886104583740234e+00 8.946777582168579102e-01 1.312820053100585938e+01 4.206863403320312500e+00 -3.322187662124633789e+00
2.235000000000000000e+03 4.429846191406250000e+01 -9.643642425537109375e+00 5.815765261650085449e-01 1.312161350250244141e+01 4.110957145690917969e+00 3.463588476181030273e+00
2.236000000000000000e+03 4.269789123535156250e+01 -3.300221204757690430e+00 2.224705696105957031e+00 7.128120422363281250e+00 2.805847883224487305e+00 -4.741399765014648438e+00
2.237000000000000000e+03 4.632991027832031250e+01 -8.297411918640136719e+00 4.465931892395019531e+00 1.529089355468750000e+01 5.927047252655029297e+00 -1.874479651451110840e+00
2.238000000000000000e+03 4.173154067993164062e+01 -3.904038190841674805e+00 2.789234876632690430e+00 3.269325017929077148e+00 1.817567944526672363e+00 -3.677776098251342773e+00
2.239000000000000000e+03 4.574453735351562500e+01 -8.573139190673828125e+00 2.916939258575439453e+00 1.658123970031738281e+01 5.849453449249267578e+00 -9.958888888359069824e-01
2.240000000000000000e+03 4.659003067016601562e+01 -5.164145469665527344e+00 6.503494262695312500e+00 1.453904247283935547e+01 6.312760829925537109e+00 1.941213130950927734e+00
2.241000000000000000e+03 4.676797103881835938e+01 -4.476977825164794922e+00 4.475009441375732422e+00 1.414787578582763672e+01 5.586865425109863281e+00 1.753318071365356445e+00
2.242000000000000000e+03 4.533922195434570312e+01 -9.002302169799804688e+00 1.457100272178649902e+00 1.625466156005859375e+01 5.313528537750244141e+00 5.330209732055664062e-01
2.243000000000000000e+03 4.067681884765625000e+01 -3.113816261291503906e+00 2.117267847061157227e+00 2.400270938873291016e+00 1.355261683464050293e+00 -2.756114959716796875e+00
2.244000000000000000e+03 4.667720794677734375e+01 -5.386506557464599609e+00 7.208765029907226562e+00 1.418759250640869141e+01 6.418907165527343750e+00 1.790365695953369141e+00
2.245000000000000000e+03 4.682543945312500000e+01 -5.181208133697509766e+00 6.418608188629150391e+00 1.381377983093261719e+01 6.069716453552246094e+00 1.792137026786804199e+00
2.246000000000000000e+03 4.624126434326171875e+01 -3.610628604888916016e+00 2.287978649139404297e+00 1.454754543304443359e+01 5.050657272338867188e+00 7.016769647598266602e-01
2.247000000000000000e+03 4.672133255004882812e+01 -8.037945747375488281e+00 5.472979545593261719e+00 1.426743602752685547e+01 5.922124862670898438e+00 -1.989808678627014160e+00
2.248000000000000000e+03 4.727190017700195312e+01 -5.346207618713378906e+00 6.507823467254638672e+00 1.278545761108398438e+01 5.787984371185302734e+00 1.480195999145507812e+00
2.249000000000000000e+03 4.296918487548828125e+01 -1.002798175811767578e+01 1.346607208251953125e+00 8.040937423706054688e+00 2.816263437271118164e+00 4.603949069976806641e+00
2.250000000000000000e+03 3.979649734497070312e+01 -1.191187000274658203e+01 1.146731019020080566e+00 2.910444021224975586e+00 1.217152476310729980e+00 2.577476978302001953e+00
2.251000000000000000e+03 4.041796875000000000e+01 -1.145471954345703125e+01 1.256296753883361816e+00 3.316173076629638672e+00 1.371740937232971191e+00 2.896898984909057617e+00
2.252000000000000000e+03 3.959095001220703125e+01 -2.492377996444702148e+00 1.640459537506103516e+00 1.819968461990356445e+00 1.038128376007080078e+00 -2.064949274063110352e+00
2.253000000000000000e+03 3.844822692871093750e+01 -1.494083285331726074e+00 1.383279085159301758e+00 1.667631387710571289e+00 9.152731895446777344e-01 -1.697030782699584961e+00
2.254000000000000000e+03 2.693657875061035156e+01 -1.069014430046081543e+00 -7.318246364593505859e-02 3.212505951523780823e-02 -1.231721974909305573e-02 3.834146261215209961e-01
2.255000000000000000e+03 2.626387023925781250e+01 -2.697412669658660889e-01 -1.295684650540351868e-02 1.466262619942426682e-02 5.117340479046106339e-04 3.860908746719360352e-01
2.256000000000000000e+03 2.571121215820312500e+01 5.911137536168098450e-02 -2.743862569332122803e-03 -1.342811994254589081e-02 -4.851594567298889160e-03 3.897743523120880127e-01
2.257000000000000000e+03 2.815934562683105469e+01 -1.096343874931335449e+00 -4.320812225341796875e-02 9.237397462129592896e-02 1.474975515156984329e-02 3.402087092399597168e-01
2.258000000000000000e+03 2.674460411071777344e+01 -6.117231845855712891e-01 -3.118816763162612915e-02 3.368593379855155945e-02 7.493301527574658394e-04 3.793612718582153320e-01
2.259000000000000000e+03 4.108871459960937500e+01 -1.102735710144042969e+01 1.379729628562927246e+00 3.956145763397216797e+00 1.600762605667114258e+00 3.299265623092651367e+00
2.260000000000000000e+03 3.007435035705566406e+01 -2.069734930992126465e-01 1.822073757648468018e-01 2.571668326854705811e-01 1.318122595548629761e-01 1.602074652910232544e-01
2.261000000000000000e+03 2.716864013671875000e+01 -2.027500271797180176e-01 1.591279730200767517e-02 7.159387320280075073e-02 2.625200152397155762e-02 3.536845743656158447e-01
2.262000000000000000e+03 3.014575958251953125e+01 -9.053789973258972168e-01 8.734782040119171143e-02 2.058224827051162720e-01 8.795108646154403687e-02 2.047053277492523193e-01
2.263000000000000000e+03 3.043927574157714844e+01 1.624647736549377441e+00 3.853744864463806152e-01 4.971728622913360596e-01 2.647641897201538086e-01 -3.184137120842933655e-02
2.264000000000000000e+03 2.905754089355468750e+01 3.571946322917938232e-01 1.753340959548950195e-01 2.413011193275451660e-01 1.249905675649642944e-01 2.034353762865066528e-01
2.265000000000000000e+03 3.088689422607421875e+01 -8.702296614646911621e-01 1.515266448259353638e-01 2.542008459568023682e-01 1.217182427644729614e-01 1.337805092334747314e-01
2.266000000000000000e+03 2.696189689636230469e+01 2.588266372680664062e+00 1.710933297872543335e-01 2.193910181522369385e-01 1.171453073620796204e-01 2.151538282632827759e-01
2.267000000000000000e+03 3.236145782470703125e+01 -9.215381145477294922e-01 2.862131595611572266e-01 3.607836663722991943e-01 1.940990537405014038e-01 -3.085280954837799072e-02
2.268000000000000000e+03 3.239371109008789062e+01 -1.902958899736404419e-01 4.174426794052124023e-01 4.766732752323150635e-01 2.682347893714904785e-01 -1.272885054349899292e-01
2.269000000000000000e+03 3.714733886718750000e+01 5.750784277915954590e-01 1.140783071517944336e+00 1.857601404190063477e+00 8.995153307914733887e-01 -1.460838317871093750e+00
2.270000000000000000e+03 3.313090896606445312e+01 -2.813775539398193359e-01 5.006517767906188965e-01 5.477705597877502441e-01 3.145267069339752197e-01 -2.382344156503677368e-01
2.271000000000000000e+03 3.821067428588867188e+01 -1.287127399444580078e+01 9.009580016136169434e-01 2.118989944458007812e+00 9.059844017028808594e-01 1.894429564476013184e+00
2.272000000000000000e+03 3.744072723388671875e+01 -1.233779811859130859e+01 7.586668729782104492e-01 1.459561467170715332e+00 6.654685139656066895e-01 1.486482143402099609e+00
2.273000000000000000e+03 3.512800979614257812e+01 -1.343058776855468750e+01 4.808906614780426025e-01 9.990509152412414551e-01 4.439824819564819336e-01 8.899939656257629395e-01
2.274000000000000000e+03 2.894548034667968750e+01 -1.409314346313476562e+01 -1.285542845726013184e-01 3.214673697948455811e-01 5.787391960620880127e-02 -1.077701747417449951e-01
2.275000000000000000e+03 3.315342712402343750e+01 -1.388064289093017578e+01 2.565591335296630859e-01 6.916139125823974609e-01 2.844519019126892090e-01 4.823936522006988525e-01
2.276000000000000000e+03 3.203526687622070312e+01 -1.350322532653808594e+01 5.915873125195503235e-02 4.675748646259307861e-01 1.580200791358947754e-01 2.350634485483169556e-01
2.277000000000000000e+03 3.670340728759765625e+01 -1.247711372375488281e+01 6.224433779716491699e-01 1.211824536323547363e+00 5.502803921699523926e-01 1.221256375312805176e+00
2.278000000000000000e+03 2.818950462341308594e+01 -1.329228878021240234e+01 -3.075608015060424805e-01 2.230431735515594482e-01 -2.535528875887393951e-02 -2.332724779844284058e-01
2.279000000000000000e+03 3.045937347412109375e+01 -1.485570049285888672e+01 1.238937601447105408e-01 5.326446294784545898e-01 1.969615072011947632e-01 1.501042097806930542e-01
2.280000000000000000e+03 3.748989105224609375e+01 -1.309050559997558594e+01 8.075072169303894043e-01 1.796187758445739746e+00 7.811084985733032227e-01 1.642147183418273926e+00
2.281000000000000000e+03 3.383057403564453125e+01 -1.057523250579833984e+00 4.574611783027648926e-01 4.914368987083435059e-01 2.846694290637969971e-01 -2.586308717727661133e-01
2.282000000000000000e+03 3.590005874633789062e+01 -1.336282539367675781e+01 5.758152604103088379e-01 1.218840718269348145e+00 5.383967757225036621e-01 1.096268177032470703e+00
2.283000000000000000e+03 3.605777740478515625e+01 -5.713977217674255371e-01 9.552195072174072266e-01 1.036546230316162109e+00 5.975297093391418457e-01 -9.160671234130859375e-01
2.284000000000000000e+03 2.646134948730468750e+01 -1.312903118133544922e+01 -4.333969354629516602e-01 1.733156591653823853e-01 -7.802438735961914062e-02 -3.576983809471130371e-01
2.285000000000000000e+03 2.709187316894531250e+01 -1.398832225799560547e+01 -2.737134993076324463e-01 2.386387139558792114e-01 -1.052243355661630630e-02 -2.734539508819580078e-01
2.286000000000000000e+03 3.772772979736328125e+01 -4.586775302886962891e-01 1.232690691947937012e+00 1.714501619338989258e+00 8.841577172279357910e-01 -1.538299202919006348e+00
2.287000000000000000e+03 3.727746582031250000e+01 -6.880515813827514648e-01 1.169529199600219727e+00 1.432238936424255371e+00 7.805304527282714844e-01 -1.338112115859985352e+00
2.288000000000000000e+03 2.222877311706542969e+01 -2.550681233406066895e-01 -3.804304078221321106e-02 -2.727303504943847656e-01 -9.323202073574066162e-02 3.623573780059814453e-01
2.289000000000000000e+03 3.458873367309570312e+01 -4.349569082260131836e-01 6.929252743721008301e-01 7.387099862098693848e-01 4.294905662536621094e-01 -5.300528407096862793e-01
2.290000000000000000e+03 2.824108886718750000e+01 -1.407877349853515625e+01 -1.915416717529296875e-01 2.933425903320312500e-01 3.054028004407882690e-02 -1.820666939020156860e-01
2.291000000000000000e+03 2.563353919982910156e+01 -1.305025100708007812e+01 -4.787203967571258545e-01 1.614435464143753052e-01 -9.518305957317352295e-02 -4.084626734256744385e-01
2.292000000000000000e+03 2.268588256835937500e+01 -1.366319847106933594e+01 -5.064011216163635254e-01 1.316755414009094238e-01 -1.124176681041717529e-01 -4.936685860157012939e-01
2.293000000000000000e+03 3.880469512939453125e+01 -1.259155368804931641e+01 9.880746006965637207e-01 2.410472869873046875e+00 1.019564270973205566e+00 2.149023532867431641e+00
2.294000000000000000e+03 3.873626708984375000e+01 -1.201648712158203125e+01 9.816066026687622070e-01 2.065754175186157227e+00 9.142082333564758301e-01 2.016462802886962891e+00
2.295000000000000000e+03 2.464651679992675781e+01 -1.372594261169433594e+01 -4.332043826580047607e-01 1.781617850065231323e-01 -7.651277631521224976e-02 -4.289861321449279785e-01
2.296000000000000000e+03 2.549721336364746094e+01 -1.382856559753417969e+01 -3.808414041996002197e-01 2.026509940624237061e-01 -5.345711857080459595e-02 -3.785767555236816406e-01
2.297000000000000000e+03 7.343983650207519531e+00 5.842040061950683594e+00 -2.293104917043820024e-04 -6.141022313386201859e-04 -2.530238125473260880e-04 2.468751918058842421e-04
2.298000000000000000e+03 8.007343292236328125e+00 6.772705554962158203e+00 -4.821670881938189268e-05 -1.229787245392799377e-03 -3.834011731669306755e-04 8.857024367898702621e-04
2.299000000000000000e+03 2.280203056335449219e+01 -1.498419475555419922e+01 -3.871160149574279785e-01 1.731477379798889160e-01 -6.419048458337783813e-02 -4.304190278053283691e-01
2.300000000000000000e+03 2.213890838623046875e+01 -1.581393527984619141e+01 -3.493547439575195312e-01 1.624807864427566528e-01 -5.606218054890632629e-02 -4.092884957790374756e-01
2.301000000000000000e+03 2.765415000915527344e+01 -5.263435244560241699e-01 2.043453510850667953e-03 8.637817949056625366e-02 2.652649022638797760e-02 3.464852273464202881e-01
2.302000000000000000e+03 2.545045661926269531e+01 4.084544658660888672e+00 1.127406284213066101e-01 1.379657089710235596e-01 7.521189749240875244e-02 2.130298316478729248e-01
2.303000000000000000e+03 7.146746826171875000e+01 -1.767478585243225098e-01 2.787065804004669189e-01 7.178380489349365234e+00 2.237126111984252930e+00 4.632396101951599121e-01
2.304000000000000000e+03 7.129617309570312500e+01 2.485116958618164062e+00 2.107803523540496826e-01 7.300168037414550781e+00 2.253284454345703125e+00 5.990471839904785156e-01
2.305000000000000000e+03 7.029003143310546875e+01 -4.142103195190429688e+00 4.439216256141662598e-01 7.153148651123046875e+00 2.279121160507202148e+00 2.212073355913162231e-01
2.306000000000000000e+03 7.153740692138671875e+01 -4.144985198974609375e+00 3.482379317283630371e-01 7.063172340393066406e+00 2.223423004150390625e+00 2.006539106369018555e-01
2.307000000000000000e+03 7.108670043945312500e+01 5.200426578521728516e+00 1.307580918073654175e-01 7.441273689270019531e+00 2.271609544754028320e+00 6.962896585464477539e-01
2.308000000000000000e+03 6.973811340332031250e+01 3.563365221023559570e+00 2.325526624917984009e-01 7.443034648895263672e+00 2.302676200866699219e+00 7.091534733772277832e-01
2.309000000000000000e+03 2.495432090759277344e+01 1.099943256378173828e+01 -5.474665760993957520e-02 5.006733536720275879e-01 1.337780058383941650e-01 -1.393988728523254395e-01
2.310000000000000000e+03 2.410264968872070312e+01 1.991230487823486328e+00 3.214924037456512451e-02 -1.166348606348037720e-01 -2.534568682312965393e-02 3.611136078834533691e-01
2.311000000000000000e+03 2.531592941284179688e+01 3.068773984909057617e+00 7.388380914926528931e-02 4.753168299794197083e-02 3.642464801669120789e-02 2.904484570026397705e-01
2.312000000000000000e+03 7.022839355468750000e+01 -1.633820772171020508e+00 3.963759541511535645e-01 7.216858386993408203e+00 2.283970355987548828e+00 4.131773710250854492e-01
2.313000000000000000e+03 6.986447143554687500e+01 -2.383152389526367188e+01 -7.431586831808090210e-02 7.643069744110107422e+00 2.270626068115234375e+00 -6.501113772392272949e-01
2.314000000000000000e+03 6.978457641601562500e+01 -2.691781616210937500e+01 -1.596018821001052856e-01 7.737505435943603516e+00 2.273371219635009766e+00 -5.996108651161193848e-01
2.315000000000000000e+03 7.073838043212890625e+01 -1.828606605529785156e+01 1.094629392027854919e-01 7.405677318572998047e+00 2.254542112350463867e+00 -6.235024929046630859e-01
2.316000000000000000e+03 7.075282287597656250e+01 -1.971327590942382812e+01 5.650927498936653137e-02 7.460358619689941406e+00 2.255060195922851562e+00 -6.407695412635803223e-01
2.317000000000000000e+03 6.914356994628906250e+01 2.023130607604980469e+01 -1.956161409616470337e-01 8.006344795227050781e+00 2.343218564987182617e+00 6.049081087112426758e-01
2.318000000000000000e+03 7.108801269531250000e+01 1.681684303283691406e+01 -1.203261390328407288e-01 7.952245712280273438e+00 2.349575996398925781e+00 6.478272080421447754e-01
2.319000000000000000e+03 6.957527160644531250e+01 1.133411979675292969e+01 -5.226872861385345459e-02 7.765667438507080078e+00 2.314019680023193359e+00 7.955632805824279785e-01
2.320000000000000000e+03 6.897745513916015625e+01 1.027637290954589844e+01 -3.026342950761318207e-02 7.748610496520996094e+00 2.315504074096679688e+00 8.241692781448364258e-01
2.321000000000000000e+03 7.078985595703125000e+01 7.915027141571044922e+00 4.691870883107185364e-02 7.589859485626220703e+00 2.291033506393432617e+00 7.515097260475158691e-01
2.322000000000000000e+03 7.736085891723632812e+00 2.298338127136230469e+01 -1.314099878072738647e-01 -2.400475144386291504e-01 -1.114372536540031433e-01 3.574060499668121338e-01
2.323000000000000000e+03 9.893791198730468750e+00 2.494837379455566406e+01 8.124158717691898346e-03 -3.156412243843078613e-01 -9.225511550903320312e-02 3.495589494705200195e-01
2.324000000000000000e+03 2.376422309875488281e+01 1.158181762695312500e+01 -1.345484405755996704e-01 2.923681735992431641e-01 4.734592512249946594e-02 -7.093521207571029663e-02
2.325000000000000000e+03 2.466218948364257812e+01 7.151509761810302734e+00 -6.517860572785139084e-03 1.569467931985855103e-01 4.512868076562881470e-02 9.957498311996459961e-02
2.326000000000000000e+03 7.207131195068359375e+01 -1.227475738525390625e+01 2.409291863441467285e-01 7.081440448760986328e+00 2.196710824966430664e+00 -3.487854599952697754e-01
2.327000000000000000e+03 6.732467651367187500e+01 1.194445133209228516e+01 -1.039873808622360229e-01 7.828956127166748047e+00 2.317490577697753906e+00 8.454241752624511719e-01
2.328000000000000000e+03 7.086834716796875000e+01 -2.368088340759277344e+01 -5.607399716973304749e-02 7.600800991058349609e+00 2.263418197631835938e+00 -6.296641230583190918e-01
2.329000000000000000e+03 7.317403316497802734e+00 -2.511654853820800781e+01 4.167333245277404785e-03 -4.542854726314544678e-01 -1.350354403257369995e-01 -4.426188766956329346e-01
2.330000000000000000e+03 9.311225891113281250e+00 -2.484451484680175781e+01 3.970669582486152649e-02 -4.990241229534149170e-01 -1.377952247858047485e-01 -4.580852389335632324e-01
2.331000000000000000e+03 7.094590759277343750e+01 6.560578823089599609e+00 8.931826800107955933e-02 7.515372753143310547e+00 2.281407356262207031e+00 7.285959124565124512e-01
2.332000000000000000e+03 1.764942359924316406e+01 3.210686874389648438e+01 2.441840320825576782e-01 4.589958488941192627e-01 2.109539657831192017e-01 -7.624910678714513779e-03
2.333000000000000000e+03 9.247597694396972656e+00 3.028268051147460938e+01 1.220919638872146606e-01 -2.661809623241424561e-01 -4.322669655084609985e-02 2.426965683698654175e-01
2.334000000000000000e+03 6.962245178222656250e+01 1.657500839233398438e+01 -1.532149910926818848e-01 7.931640148162841797e+00 2.333527565002441406e+00 6.972340345382690430e-01
2.335000000000000000e+03 7.188193511962890625e+01 2.356476402282714844e+01 -1.252441555261611938e-01 8.217568397521972656e+00 2.427697181701660156e+00 4.418407082557678223e-01
2.336000000000000000e+03 6.916753387451171875e+01 2.229012680053710938e+01 -1.988176703453063965e-01 8.046518325805664062e+00 2.354310035705566406e+00 5.390976667404174805e-01
2.337000000000000000e+03 7.134577178955078125e+01 -2.081204795837402344e+01 2.345960028469562531e-02 7.471168041229248047e+00 2.248388290405273438e+00 -6.254864335060119629e-01
2.338000000000000000e+03 6.909870910644531250e+01 -3.041833305358886719e+01 -2.631492316722869873e-01 7.805922508239746094e+00 2.262831926345825195e+00 -4.954814016819000244e-01
2.339000000000000000e+03 7.086961364746093750e+01 -3.015249633789062500e+01 -1.863993108272552490e-01 7.802156925201416016e+00 2.284727334976196289e+00 -4.604631066322326660e-01
2.340000000000000000e+03 2.086215972900390625e+01 1.873784446716308594e+01 -1.448618471622467041e-01 2.609942555427551270e-01 3.483972325921058655e-02 -1.458812505006790161e-01
2.341000000000000000e+03 1.979886627197265625e+01 2.187105178833007812e+01 -1.796916685998439789e-02 2.506573200225830078e-01 6.980644166469573975e-02 -1.447966694831848145e-01
2.342000000000000000e+03 7.063845062255859375e+01 2.510430717468261719e+01 -1.612568795680999756e-01 8.168930053710937500e+00 2.402302026748657227e+00 4.392512142658233643e-01
2.343000000000000000e+03 1.289394378662109375e+01 -2.433457756042480469e+01 8.941043913364410400e-02 -4.362280070781707764e-01 -1.040452718734741211e-01 -3.640437722206115723e-01
2.344000000000000000e+03 1.021279811859130859e+01 -2.226345825195312500e+01 -9.875058382749557495e-02 -5.595861077308654785e-01 -1.975010186433792114e-01 -5.007533431053161621e-01
2.345000000000000000e+03 8.635559082031250000e+00 -2.254559707641601562e+01 -1.159874573349952698e-01 -4.962953925132751465e-01 -1.836848556995391846e-01 -5.303268432617187500e-01
2.346000000000000000e+03 7.087956237792968750e+01 -1.685658264160156250e+01 1.540369838476181030e-01 7.336938381195068359e+00 2.247292757034301758e+00 -5.825116038322448730e-01
2.347000000000000000e+03 6.931481933593750000e+01 1.833963584899902344e+01 -1.822461038827896118e-01 7.968742370605468750e+00 2.335948944091796875e+00 6.560631394386291504e-01
2.348000000000000000e+03 6.962450408935546875e+01 1.508089828491210938e+01 -1.300442218780517578e-01 7.892876625061035156e+00 2.328849792480468750e+00 7.248258590698242188e-01
2.349000000000000000e+03 7.130294799804687500e+01 -8.386024475097656250e+00 3.672383725643157959e-01 7.068234443664550781e+00 2.230641841888427734e+00 -1.104957461357116699e-01
2.350000000000000000e+03 6.998392486572265625e+01 -1.143902206420898438e+01 3.965505957603454590e-01 7.209151268005371094e+00 2.281710386276245117e+00 -3.562162220478057861e-01
2.351000000000000000e+03 1.949235343933105469e+01 -2.263885688781738281e+01 4.788858443498611450e-02 1.020382493734359741e-01 4.497804865241050720e-02 -1.729395687580108643e-01
2.352000000000000000e+03 2.524889183044433594e+01 1.590521240234375000e+01 -8.357724547386169434e-02 9.185020327568054199e-01 2.504774332046508789e-01 -3.554934859275817871e-01
2.353000000000000000e+03 1.002682971954345703e+01 2.734859275817871094e+01 9.556371718645095825e-02 -2.838059365749359131e-01 -5.647266283631324768e-02 2.983551323413848877e-01
2.354000000000000000e+03 1.107304763793945312e+01 2.607685470581054688e+01 8.266100287437438965e-02 -2.943812906742095947e-01 -6.351608037948608398e-02 3.073123097419738770e-01
2.355000000000000000e+03 1.796766090393066406e+01 1.993256950378417969e+01 -1.665227413177490234e-01 -1.454749405384063721e-01 -9.359930455684661865e-02 8.419285528361797333e-03
2.356000000000000000e+03 7.090524291992187500e+01 -2.695606613159179688e+01 -1.318749636411666870e-01 7.709154605865478516e+00 2.273183822631835938e+00 -5.647890567779541016e-01
2.357000000000000000e+03 2.205037117004394531e+01 -2.044702529907226562e+01 1.166982110589742661e-02 3.234216570854187012e-01 1.005274429917335510e-01 -1.700882315635681152e-01
2.358000000000000000e+03 2.346341705322265625e+01 -1.791786766052246094e+01 -9.804980456829071045e-02 3.212838768959045410e-01 6.697022169828414917e-02 -2.313811331987380981e-01
2.359000000000000000e+03 6.719498443603515625e+01 2.446402549743652344e+01 -2.713864743709564209e-01 7.939192295074462891e+00 2.300341844558715820e+00 5.002261996269226074e-01
2.360000000000000000e+03 4.361818313598632812e+01 -9.556746482849121094e+00 1.091098546981811523e+00 1.089403057098388672e+01 3.595538616180419922e+00 4.664615631103515625e+00
2.361000000000000000e+03 4.720837402343750000e+01 -7.070002555847167969e+00 7.380460262298583984e+00 1.263104057312011719e+01 6.003450393676757812e+00 -1.004495382308959961e+00
2.362000000000000000e+03 4.421965789794921875e+01 -3.706819057464599609e+00 1.205544590950012207e+00 1.386238384246826172e+01 4.520378589630126953e+00 -3.999183654785156250e+00
2.363000000000000000e+03 4.437766647338867188e+01 -9.015865325927734375e+00 8.831167221069335938e-01 1.524280357360839844e+01 4.837776184082031250e+00 3.585720539093017578e+00
2.364000000000000000e+03 4.264657592773437500e+01 -1.027181529998779297e+01 1.401714682579040527e+00 7.103793144226074219e+00 2.551652431488037109e+00 4.390662670135498047e+00
2.365000000000000000e+03 4.418828964233398438e+01 -1.004766750335693359e+01 4.785111844539642334e-01 1.206569766998291016e+01 3.763262748718261719e+00 3.531135320663452148e+00
2.366000000000000000e+03 4.314904403686523438e+01 -3.169821739196777344e+00 1.790040493011474609e+00 8.881586074829101562e+00 3.201488018035888672e+00 -4.785830974578857422e+00
2.367000000000000000e+03 4.506751632690429688e+01 -9.183373451232910156e+00 9.545391201972961426e-01 1.572375392913818359e+01 5.003488063812255859e+00 1.484109878540039062e+00
2.368000000000000000e+03 4.523101043701171875e+01 -4.249828338623046875e+00 1.993340015411376953e+00 1.708117675781250000e+01 5.722354888916015625e+00 -5.701835155487060547e-01
2.369000000000000000e+03 4.328723526000976562e+01 -9.783695220947265625e+00 1.255438804626464844e+00 9.206192970275878906e+00 3.138489484786987305e+00 4.678038597106933594e+00
2.370000000000000000e+03 4.559822845458984375e+01 -9.382832527160644531e+00 1.228898286819458008e+00 1.522774505615234375e+01 4.936992645263671875e+00 3.472421169281005859e-01
2.371000000000000000e+03 4.517998886108398438e+01 -3.370293378829956055e+00 1.033859729766845703e+00 1.475046443939208984e+01 4.735297203063964844e+00 -1.421248435974121094e+00
2.372000000000000000e+03 4.508779907226562500e+01 -3.998191595077514648e+00 1.613610386848449707e+00 1.635659980773925781e+01 5.391062736511230469e+00 -1.278612613677978516e+00
2.373000000000000000e+03 4.482951354980468750e+01 -3.564174890518188477e+00 1.029564619064331055e+00 1.484571075439453125e+01 4.762582778930664062e+00 -2.221951723098754883e+00
2.374000000000000000e+03 4.462004852294921875e+01 -3.336010932922363281e+00 8.867549300193786621e-01 1.394588947296142578e+01 4.449793338775634766e+00 -2.783330678939819336e+00
2.375000000000000000e+03 4.095437622070312500e+01 -3.437907457351684570e+00 2.214090108871459961e+00 2.499508857727050781e+00 1.414079785346984863e+00 -2.880524635314941406e+00
2.376000000000000000e+03 4.642543792724609375e+01 -3.825564622879028320e+00 2.835920333862304688e+00 1.452544784545898438e+01 5.208410263061523438e+00 1.120365142822265625e+00
2.377000000000000000e+03 4.320744705200195312e+01 -3.593526124954223633e+00 2.143724918365478516e+00 9.094448089599609375e+00 3.371451854705810547e+00 -5.231909751892089844e+00
2.378000000000000000e+03 4.667951965332031250e+01 -3.540793418884277344e+00 2.560167312622070312e+00 1.384331798553466797e+01 4.921045303344726562e+00 1.037166953086853027e+00
2.379000000000000000e+03 4.623322677612304688e+01 -9.061450958251953125e+00 2.505556821823120117e+00 1.505587100982666016e+01 5.268428325653076172e+00 -1.051983356475830078e+00
2.380000000000000000e+03 4.717921447753906250e+01 -4.590812683105468750e+00 4.866556644439697266e+00 1.328675556182861328e+01 5.445993900299072266e+00 1.750941276550292969e+00
2.381000000000000000e+03 4.234215927124023438e+01 -1.052685928344726562e+01 1.392596125602722168e+00 6.375570774078369141e+00 2.330450057983398438e+00 4.182118415832519531e+00
2.382000000000000000e+03 4.216019058227539062e+01 -1.088929080963134766e+01 1.281251192092895508e+00 6.086581707000732422e+00 2.210349798202514648e+00 3.958490848541259766e+00
2.383000000000000000e+03 4.022470855712890625e+01 -2.489476203918457031e+00 1.859050989151000977e+00 2.451227188110351562e+00 1.293083429336547852e+00 -2.563681364059448242e+00
2.384000000000000000e+03 4.057561111450195312e+01 -3.505330324172973633e+00 2.016304969787597656e+00 1.787106037139892578e+00 1.141023278236389160e+00 -2.420475959777832031e+00
2.385000000000000000e+03 4.017421340942382812e+01 -3.002286911010742188e+00 1.896668553352355957e+00 1.961910843849182129e+00 1.157573819160461426e+00 -2.348612785339355469e+00
2.386000000000000000e+03 3.947446823120117188e+01 -1.951807141304016113e+00 1.646314382553100586e+00 2.073129653930664062e+00 1.115833282470703125e+00 -2.157438993453979492e+00
2.387000000000000000e+03 3.804518890380859375e+01 -9.711397886276245117e-01 1.324270844459533691e+00 1.696219325065612793e+00 9.061470031738281250e-01 -1.615554571151733398e+00
2.388000000000000000e+03 4.025321578979492188e+01 -1.199724102020263672e+01 1.155138373374938965e+00 3.419893980026245117e+00 1.372509717941284180e+00 2.813024044036865234e+00
2.389000000000000000e+03 4.085255432128906250e+01 -2.643952369689941406e+00 2.050791025161743164e+00 3.109805107116699219e+00 1.548178791999816895e+00 -3.051462411880493164e+00
2.390000000000000000e+03 4.068761062622070312e+01 -1.214657402038574219e+01 1.106410503387451172e+00 4.034209251403808594e+00 1.542185902595520020e+00 3.029230833053588867e+00
2.391000000000000000e+03 4.157425308227539062e+01 -1.124014186859130859e+01 1.267404556274414062e+00 4.927039623260498047e+00 1.858333349227905273e+00 3.589513778686523438e+00
2.392000000000000000e+03 3.929022598266601562e+01 -1.240564060211181641e+01 1.049843668937683105e+00 2.667462110519409180e+00 1.115191698074340820e+00 2.350952148437500000e+00
2.393000000000000000e+03 3.929492950439453125e+01 -1.191246032714843750e+01 1.081655740737915039e+00 2.441787004470825195e+00 1.057032823562622070e+00 2.295420408248901367e+00
2.394000000000000000e+03 2.712613868713378906e+01 6.816362142562866211e-01 9.018101543188095093e-02 1.073826923966407776e-01 5.926911160349845886e-02 3.169034719467163086e-01
2.395000000000000000e+03 3.085348510742187500e+01 -1.346659809350967407e-01 2.663434445858001709e-01 3.327874839305877686e-01 1.797392815351486206e-01 6.915059685707092285e-02
2.396000000000000000e+03 3.068257904052734375e+01 4.907018542289733887e-01 3.224994838237762451e-01 3.815551102161407471e-01 2.112163752317428589e-01 3.469020500779151917e-02
2.397000000000000000e+03 3.106163978576660156e+01 8.954281210899353027e-01 3.927249014377593994e-01 4.650952816009521484e-01 2.573460638523101807e-01 -5.054989084601402283e-02
2.398000000000000000e+03 2.862383079528808594e+01 9.766270518302917480e-01 2.051976770162582397e-01 2.603044211864471436e-01 1.396506279706954956e-01 1.961865872144699097e-01
2.399000000000000000e+03 3.163497924804687500e+01 -1.064876914024353027e-01 3.412263095378875732e-01 4.007327556610107422e-01 2.225877195596694946e-01 -2.284716442227363586e-02
2.400000000000000000e+03 3.846292114257812500e+01 -6.589205265045166016e-01 1.360989332199096680e+00 2.029989480972290039e+00 1.017293691635131836e+00 -1.832081913948059082e+00
2.401000000000000000e+03 3.163932800292968750e+01 -1.467047977447509766e+01 2.147921472787857056e-01 6.191513538360595703e-01 2.501830458641052246e-01 2.979247868061065674e-01
2.402000000000000000e+03 2.913425445556640625e+01 -1.529338741302490234e+01 6.399360299110412598e-02 4.795994758605957031e-01 1.630779206752777100e-01 1.485400646924972534e-02
2.403000000000000000e+03 3.421137237548828125e+01 -1.407676410675048828e+01 4.315688312053680420e-01 9.813370108604431152e-01 4.238717555999755859e-01 7.532293796539306641e-01
2.404000000000000000e+03 3.669840240478515625e+01 -1.322490596771240234e+01 6.828445792198181152e-01 1.488455176353454590e+00 6.513898968696594238e-01 1.354239702224731445e+00
2.405000000000000000e+03 3.495847702026367188e+01 -1.429701519012451172e+01 5.418146252632141113e-01 1.206455945968627930e+00 5.244811773300170898e-01 9.613662958145141602e-01
2.406000000000000000e+03 3.747008895874023438e+01 -1.382679843902587891e+01 8.157765269279479980e-01 2.048148393630981445e+00 8.591775298118591309e-01 1.720799565315246582e+00
2.407000000000000000e+03 3.813212966918945312e+01 -1.932201981544494629e-01 1.294248938560485840e+00 2.078828811645507812e+00 1.011923313140869141e+00 -1.768193960189819336e+00
2.408000000000000000e+03 3.696668624877929688e+01 -2.304575145244598389e-01 1.116969347000122070e+00 1.484311461448669434e+00 7.803842425346374512e-01 -1.279070973396301270e+00
2.409000000000000000e+03 3.587318420410156250e+01 -1.417803001403808594e+01 6.410395503044128418e-01 1.491446256637573242e+00 6.397457718849182129e-01 1.209945082664489746e+00
2.410000000000000000e+03 3.114521789550781250e+01 -1.531873226165771484e+01 2.330897301435470581e-01 6.596266627311706543e-01 2.678149044513702393e-01 2.799281179904937744e-01
2.411000000000000000e+03 2.760330009460449219e+01 -1.441390800476074219e+01 -1.851941943168640137e-01 2.802487015724182129e-01 2.851635590195655823e-02 -2.117333263158798218e-01
2.412000000000000000e+03 2.857126617431640625e+01 -1.471262073516845703e+01 -5.254970490932464600e-02 3.715147674083709717e-01 9.568951278924942017e-02 -9.352321177721023560e-02
2.413000000000000000e+03 2.441909027099609375e+01 -1.455471515655517578e+01 -3.476958274841308594e-01 2.144179046154022217e-01 -3.998337686061859131e-02 -3.960384130477905273e-01
2.414000000000000000e+03 3.850811004638671875e+01 -1.348292160034179688e+01 8.919064998626708984e-01 2.564042091369628906e+00 1.036784529685974121e+00 2.069890737533569336e+00
2.415000000000000000e+03 2.363569068908691406e+01 1.230358958244323730e+00 -1.969881821423768997e-03 -1.719479709863662720e-01 -5.217535421252250671e-02 3.894001543521881104e-01
2.416000000000000000e+03 3.600004196166992188e+01 1.745007485151290894e-01 9.936032295227050781e-01 1.276387691497802734e+00 6.809973120689392090e-01 -1.029598236083984375e+00
2.417000000000000000e+03 3.528592300415039062e+01 2.353762537240982056e-01 8.802213072776794434e-01 1.039890885353088379e+00 5.760336518287658691e-01 -8.076595664024353027e-01
2.418000000000000000e+03 3.386208343505859375e+01 -3.643668889999389648e-01 5.904445648193359375e-01 6.398490071296691895e-01 3.690880835056304932e-01 -3.704242110252380371e-01
2.419000000000000000e+03 2.370568084716796875e+01 -1.632920837402343750e+01 -2.067939639091491699e-01 2.821055352687835693e-01 2.259347029030323029e-02 -3.134102821350097656e-01
2.420000000000000000e+03 2.634548759460449219e+01 5.739444255828857422e+00 1.504340022802352905e-01 3.766977488994598389e-01 1.581395268440246582e-01 4.694520309567451477e-02
2.421000000000000000e+03 2.623074150085449219e+01 -1.468785762786865234e+01 -2.232136726379394531e-01 2.664292752742767334e-01 1.296467613428831100e-02 -2.827396988868713379e-01
2.422000000000000000e+03 3.457817077636718750e+01 3.005539178848266602e-01 7.947462201118469238e-01 9.142235517501831055e-01 5.126909017562866211e-01 -6.454238295555114746e-01
2.423000000000000000e+03 2.711186981201171875e+01 -1.547840309143066406e+01 -8.633676171302795410e-02 3.515862524509429932e-01 7.957484573125839233e-02 -1.760627329349517822e-01
2.424000000000000000e+03 2.667462730407714844e+01 2.084531933069229126e-01 3.536636754870414734e-02 5.742812901735305786e-02 2.783834934234619141e-02 3.573540747165679932e-01
2.425000000000000000e+03 2.809734535217285156e+01 6.288548111915588379e-01 1.412999480962753296e-01 1.908416301012039185e-01 9.964247792959213257e-02 2.610343992710113525e-01
2.426000000000000000e+03 6.908431243896484375e+01 -4.135923385620117188e+00 5.407732129096984863e-01 7.234693050384521484e+00 2.332639932632446289e+00 2.411540448665618896e-01
2.427000000000000000e+03 8.835033416748046875e+00 6.793351650238037109e+00 7.496537000406533480e-05 1.506815780885517597e-03 4.745343467220664024e-04 -4.560418892651796341e-05
2.428000000000000000e+03 7.196188354492187500e+01 -1.358203697204589844e+01 2.177466899156570435e-01 7.133670330047607422e+00 2.205425024032592773e+00 -4.197090566158294678e-01
2.429000000000000000e+03 6.810466003417968750e+01 4.615447521209716797e+00 2.349794954061508179e-01 7.578669071197509766e+00 2.344094514846801758e+00 8.120789527893066406e-01
2.430000000000000000e+03 6.858496093750000000e+01 6.117409467697143555e-01 4.169057607650756836e-01 7.397314071655273438e+00 2.344265937805175781e+00 6.121686697006225586e-01
2.431000000000000000e+03 3.384030532836914062e+01 -1.354452419281005859e+01 2.918702661991119385e-01 7.495371103286743164e-01 3.124222159385681152e-01 5.691835880279541016e-01
2.432000000000000000e+03 9.613320350646972656e+00 2.267976760864257812e+01 -1.461310982704162598e-01 -3.162160515785217285e-01 -1.387041360139846802e-01 3.917737007141113281e-01
2.433000000000000000e+03 2.552620697021484375e+01 9.947431683540344238e-01 4.493190348148345947e-02 -3.981414251029491425e-03 1.228514686226844788e-02 3.675632476806640625e-01
2.434000000000000000e+03 2.535816192626953125e+01 2.008256435394287109e+00 7.537139952182769775e-02 1.010467018932104111e-02 2.564282156527042389e-02 3.359388113021850586e-01
2.435000000000000000e+03 3.387601852416992188e+01 3.454084694385528564e-01 6.868043541908264160e-01 8.066958785057067871e-01 4.480500817298889160e-01 -4.887746274471282959e-01
2.436000000000000000e+03 6.950822448730468750e+01 -1.817458534240722656e+01 1.342864781618118286e-01 7.474797248840332031e+00 2.282725095748901367e+00 -6.684079170227050781e-01
2.437000000000000000e+03 6.954401397705078125e+01 -2.121592521667480469e+01 1.493210718035697937e-02 7.565517902374267578e+00 2.274134874343872070e+00 -6.867967844009399414e-01
2.438000000000000000e+03 3.237564086914062500e+01 -1.425878143310546875e+01 2.267585545778274536e-01 6.537921428680419922e-01 2.641652226448059082e-01 3.779702186584472656e-01
2.439000000000000000e+03 6.874185180664062500e+01 1.225292873382568359e+01 -8.246577531099319458e-02 7.809543609619140625e+00 2.318123340606689453e+00 8.086410760879516602e-01
2.440000000000000000e+03 6.906822967529296875e+01 8.977382659912109375e+00 1.776488125324249268e-02 7.698171615600585938e+00 2.314780950546264648e+00 8.312563896179199219e-01
2.441000000000000000e+03 2.287303733825683594e+01 -1.713163566589355469e+01 -1.919998377561569214e-01 2.525139451026916504e-01 1.815423555672168732e-02 -3.124839961528778076e-01
2.442000000000000000e+03 2.533916473388671875e+01 -1.551843452453613281e+01 -1.828425824642181396e-01 2.962047159671783447e-01 3.400864079594612122e-02 -2.862766683101654053e-01
2.443000000000000000e+03 2.586516761779785156e+01 6.470086097717285156e+00 1.023291498422622681e-01 3.613949716091156006e-01 1.391172409057617188e-01 4.933541640639305115e-02
2.444000000000000000e+03 2.607758140563964844e+01 4.549304485321044922e+00 1.368745714426040649e-01 2.347314655780792236e-01 1.114818155765533447e-01 1.541140973567962646e-01
2.445000000000000000e+03 2.680079269409179688e+01 8.838284492492675781e+00 9.808734804391860962e-02 7.007640600204467773e-01 2.396554201841354370e-01 -1.673846691846847534e-01
2.446000000000000000e+03 2.458220291137695312e+01 1.287109184265136719e+01 -1.036344915628433228e-01 5.649368762969970703e-01 1.383907049894332886e-01 -2.022508233785629272e-01
2.447000000000000000e+03 6.875983428955078125e+01 -2.333844566345214844e+01 -7.919538021087646484e-02 7.681400775909423828e+00 2.280661582946777344e+00 -6.948392391204833984e-01
2.448000000000000000e+03 2.270732879638671875e+01 1.667448806762695312e+01 -1.671631783246994019e-01 4.348771274089813232e-01 8.031418919563293457e-02 -2.029268741607666016e-01
2.449000000000000000e+03 2.398194313049316406e+01 1.793992042541503906e+01 -9.688255190849304199e-02 7.924246191978454590e-01 2.086626142263412476e-01 -3.211194276809692383e-01
2.450000000000000000e+03 7.029352569580078125e+01 -2.889302730560302734e+00 4.211868345737457275e-01 7.177696704864501953e+00 2.279664993286132812e+00 3.197871744632720947e-01
2.451000000000000000e+03 7.011277770996093750e+01 -1.005256271362304688e+01 4.188345074653625488e-01 7.170836925506591797e+00 2.276901483535766602e+00 -2.493512630462646484e-01
2.452000000000000000e+03 6.726582336425781250e+01 2.018356132507324219e+01 -2.565451860427856445e-01 7.933377265930175781e+00 2.303049564361572266e+00 6.286063194274902344e-01
2.453000000000000000e+03 6.829071807861328125e+01 1.502145671844482422e+01 -1.607139408588409424e-01 7.890483856201171875e+00 2.318931102752685547e+00 7.603873014450073242e-01
2.454000000000000000e+03 6.791448211669921875e+01 5.997089862823486328e+00 1.631841510534286499e-01 7.640901565551757812e+00 2.341225624084472656e+00 8.495931625366210938e-01
2.455000000000000000e+03 6.988454437255859375e+01 -8.687666893005371094e+00 4.625176489353179932e-01 7.168851852416992188e+00 2.289410829544067383e+00 -1.427082866430282593e-01
2.456000000000000000e+03 2.283315277099609375e+01 -1.903895378112792969e+01 -5.547340586781501770e-02 3.256166875362396240e-01 8.104298263788223267e-02 -1.998467892408370972e-01
2.457000000000000000e+03 6.868691253662109375e+01 -2.637141609191894531e+01 -1.710691452026367188e-01 7.746979713439941406e+00 2.272773265838623047e+00 -6.265495419502258301e-01
2.458000000000000000e+03 2.001952934265136719e+01 2.364954566955566406e+01 6.392540782690048218e-02 3.862925469875335693e-01 1.350653916597366333e-01 -1.558609306812286377e-01
2.459000000000000000e+03 1.139008331298828125e+01 2.849598693847656250e+01 1.577099710702896118e-01 -2.150685638189315796e-01 -1.720758154988288879e-02 2.424024194478988647e-01
2.460000000000000000e+03 1.439291572570800781e+01 -2.410199356079101562e+01 7.897723466157913208e-02 -3.182182908058166504e-01 -7.177231460809707642e-02 -3.247645199298858643e-01
2.461000000000000000e+03 1.662719154357910156e+01 -2.761453437805175781e+01 2.492880821228027344e-01 -1.032533776015043259e-02 7.168882340192794800e-02 -2.012284547090530396e-01
2.462000000000000000e+03 7.108277893066406250e+01 -1.194371414184570312e+01 3.095728754997253418e-01 7.146318912506103516e+00 2.236767530441284180e+00 -3.539712727069854736e-01
2.463000000000000000e+03 7.071691131591796875e+01 -1.333769607543945312e+01 2.909450232982635498e-01 7.219194412231445312e+00 2.253041982650756836e+00 -4.497425854206085205e-01
2.464000000000000000e+03 1.330063915252685547e+01 2.582731056213378906e+01 1.110731586813926697e-01 -2.281835824251174927e-01 -3.513312712311744690e-02 2.205837368965148926e-01
2.465000000000000000e+03 1.411049556732177734e+01 2.457241439819335938e+01 6.604844331741333008e-02 -2.527231872081756592e-01 -5.600242689251899719e-02 1.889739930629730225e-01
2.466000000000000000e+03 6.789401245117187500e+01 -2.797218513488769531e+01 -2.331080883741378784e-01 7.790580749511718750e+00 2.267241716384887695e+00 -6.011026501655578613e-01
2.467000000000000000e+03 6.757998657226562500e+01 -2.549635696411132812e+01 -1.706487238407135010e-01 7.759355068206787109e+00 2.276612043380737305e+00 -6.676868796348571777e-01
2.468000000000000000e+03 7.107416534423828125e+01 -3.488995361328125000e+01 -2.141392678022384644e-01 7.887347221374511719e+00 2.301962375640869141e+00 -2.966414690017700195e-01
2.469000000000000000e+03 1.531021881103515625e+01 -2.526606750488281250e+01 1.742301285266876221e-01 -2.012264281511306763e-01 -8.098891004920005798e-03 -2.572052478790283203e-01
2.470000000000000000e+03 1.577837562561035156e+01 -2.397885131835937500e+01 9.641981124877929688e-02 -2.135884612798690796e-01 -3.515059500932693481e-02 -2.602494657039642334e-01
2.471000000000000000e+03 7.012371826171875000e+01 -3.699229955673217773e-01 3.630446791648864746e-01 7.263994216918945312e+00 2.288111686706542969e+00 4.993111789226531982e-01
2.472000000000000000e+03 6.952912902832031250e+01 2.949454116821289062e+01 -1.824248582124710083e-01 8.163796424865722656e+00 2.394411325454711914e+00 3.176102042198181152e-01
2.473000000000000000e+03 6.800415039062500000e+01 2.626183700561523438e+01 -2.388705313205718994e-01 8.022439002990722656e+00 2.335070610046386719e+00 4.267802536487579346e-01
2.474000000000000000e+03 4.159692382812500000e+01 -2.361959934234619141e+00 1.956601977348327637e+00 4.674738407135009766e+00 1.989402055740356445e+00 -3.675217151641845703e+00
2.475000000000000000e+03 4.695919036865234375e+01 -8.172801017761230469e+00 5.135101795196533203e+00 1.370975971221923828e+01 5.653458595275878906e+00 -1.883352041244506836e+00
2.476000000000000000e+03 4.640780258178710938e+01 -8.636881828308105469e+00 3.542479753494262695e+00 1.485139751434326172e+01 5.518163204193115234e+00 -1.520741462707519531e+00
2.477000000000000000e+03 4.354087829589843750e+01 -2.626235246658325195e+00 1.154804229736328125e+00 9.926939964294433594e+00 3.324523210525512695e+00 -4.155723094940185547e+00
2.478000000000000000e+03 4.793872070312500000e+01 -7.310474395751953125e+00 6.379363536834716797e+00 1.178804111480712891e+01 5.450221538543701172e+00 -1.022874712944030762e+00
2.479000000000000000e+03 4.529092407226562500e+01 -9.552513122558593750e+00 7.918533086776733398e-01 1.493468475341796875e+01 4.717961311340332031e+00 1.174254417419433594e+00
2.480000000000000000e+03 4.136667251586914062e+01 -3.386644124984741211e+00 2.414163589477539062e+00 3.179383277893066406e+00 1.678063988685607910e+00 -3.375625610351562500e+00
2.481000000000000000e+03 4.584545135498046875e+01 -3.540713787078857422e+00 1.768759727478027344e+00 1.490564727783203125e+01 5.002322196960449219e+00 1.496723946183919907e-02
2.482000000000000000e+03 4.544026184082031250e+01 -3.289653778076171875e+00 1.142761707305908203e+00 1.467133712768554688e+01 4.744229793548583984e+00 -9.396911859512329102e-01
2.483000000000000000e+03 4.584923934936523438e+01 -9.773245811462402344e+00 1.032454729080200195e+00 1.441076850891113281e+01 4.632966995239257812e+00 2.573990523815155029e-01
2.484000000000000000e+03 4.690699768066406250e+01 -4.080524444580078125e+00 3.630335807800292969e+00 1.374595832824707031e+01 5.212888240814208984e+00 1.545640826225280762e+00
2.485000000000000000e+03 4.710631942749023438e+01 -8.039130210876464844e+00 5.434544086456298828e+00 1.344476413726806641e+01 5.663792610168457031e+00 -1.891558051109313965e+00
2.486000000000000000e+03 4.711323165893554688e+01 -5.598280906677246094e+00 7.214042186737060547e+00 1.293604946136474609e+01 6.045027256011962891e+00 1.228649258613586426e+00
2.487000000000000000e+03 4.695870208740234375e+01 -4.926357269287109375e+00 5.644333839416503906e+00 1.361832904815673828e+01 5.778798580169677734e+00 1.776268482208251953e+00
2.488000000000000000e+03 4.588776016235351562e+01 -3.236248970031738281e+00 1.392314195632934570e+00 1.444581699371337891e+01 4.751439094543457031e+00 -1.975355148315429688e-01
2.489000000000000000e+03 4.225391769409179688e+01 -3.611559152603149414e+00 2.694647550582885742e+00 5.216665267944335938e+00 2.373394012451171875e+00 -4.472460746765136719e+00
2.490000000000000000e+03 4.702923202514648438e+01 -5.284325599670410156e+00 6.620759487152099609e+00 1.345351314544677734e+01 6.022281646728515625e+00 1.706952691078186035e+00
2.491000000000000000e+03 4.769237899780273438e+01 -5.763241291046142578e+00 6.815795898437500000e+00 1.200497436523437500e+01 5.646231174468994141e+00 9.097958803176879883e-01
2.492000000000000000e+03 4.756079864501953125e+01 -5.457648277282714844e+00 6.427449703216552734e+00 1.226775360107421875e+01 5.608561038970947266e+00 1.242268562316894531e+00
2.493000000000000000e+03 4.723169708251953125e+01 -5.094579219818115234e+00 5.963297367095947266e+00 1.299643516540527344e+01 5.687919616699218750e+00 1.651802778244018555e+00
2.494000000000000000e+03 4.142125701904296875e+01 -2.865384340286254883e+00 2.244616270065307617e+00 3.869839191436767578e+00 1.834336638450622559e+00 -3.572407007217407227e+00
2.495000000000000000e+03 4.082060241699218750e+01 -1.282749176025390625e+01 8.840464949607849121e-01 4.476340293884277344e+00 1.608116030693054199e+00 2.956593275070190430e+00
2.496000000000000000e+03 4.016122055053710938e+01 -1.952317595481872559e+00 1.804342389106750488e+00 2.802689075469970703e+00 1.382109403610229492e+00 -2.659224271774291992e+00
2.497000000000000000e+03 3.889336013793945312e+01 -1.111486673355102539e+00 1.488891959190368652e+00 2.096325397491455078e+00 1.075565218925476074e+00 -1.986349344253540039e+00
2.498000000000000000e+03 3.947192382812500000e+01 -1.396601200103759766e+00 1.590787053108215332e+00 2.424859285354614258e+00 1.204693913459777832e+00 -2.271306753158569336e+00
2.499000000000000000e+03 4.048540878295898438e+01 -1.262881374359130859e+01 1.000634789466857910e+00 4.007699012756347656e+00 1.502500057220458984e+00 2.880697011947631836e+00
2.500000000000000000e+03 3.900839614868164062e+01 -1.307717227935791016e+01 9.570081233978271484e-01 2.755603075027465820e+00 1.113783359527587891e+00 2.268464088439941406e+00
2.501000000000000000e+03 2.953959465026855469e+01 6.891959309577941895e-01 2.468157708644866943e-01 3.005336821079254150e-01 1.642048358917236328e-01 1.418588310480117798e-01
2.502000000000000000e+03 3.170763778686523438e+01 6.802700757980346680e-01 4.417542517185211182e-01 5.287224054336547852e-01 2.911430001258850098e-01 -1.164225414395332336e-01
2.503000000000000000e+03 2.877282714843750000e+01 1.985850811004638672e+00 2.803733944892883301e-01 3.590422570705413818e-01 1.918246895074844360e-01 1.098004579544067383e-01
2.504000000000000000e+03 3.004998397827148438e+01 4.080437719821929932e-01 2.578126490116119385e-01 3.132027685642242432e-01 1.713046282529830933e-01 1.110058873891830444e-01
2.505000000000000000e+03 2.639554595947265625e+01 2.944893360137939453e+00 1.364769786596298218e-01 1.776932328939437866e-01 9.425105899572372437e-02 2.374967187643051147e-01
2.506000000000000000e+03 3.244864273071289062e+01 5.582296252250671387e-01 5.148037672042846680e-01 5.962692499160766602e-01 3.333218991756439209e-01 -2.260392159223556519e-01
2.507000000000000000e+03 2.986366462707519531e+01 -1.599537372589111328e+01 1.965952068567276001e-01 6.411802172660827637e-01 2.513326406478881836e-01 1.657769083976745605e-01
2.508000000000000000e+03 2.791555213928222656e+01 -1.516664695739746094e+01 -5.170502513647079468e-02 3.786485493183135986e-01 9.808306396007537842e-02 -1.204253062605857849e-01
2.509000000000000000e+03 3.268342971801757812e+01 -1.505649757385253906e+01 3.633723258972167969e-01 8.776524066925048828e-01 3.723074197769165039e-01 5.285094976425170898e-01
2.510000000000000000e+03 2.893016815185546875e+01 -1.697981834411621094e+01 2.084316015243530273e-01 6.522754430770874023e-01 2.582121193408966064e-01 1.314675211906433105e-01
2.511000000000000000e+03 2.438243484497070312e+01 -1.543118667602539062e+01 -2.642201185226440430e-01 2.522382736206054688e-01 -3.594551235437393188e-03 -3.470757603645324707e-01
2.512000000000000000e+03 3.606348037719726562e+01 -1.492199611663818359e+01 6.852278113365173340e-01 1.764303326606750488e+00 7.348593473434448242e-01 1.334282159805297852e+00
2.513000000000000000e+03 3.671569824218750000e+01 -1.395777416229248047e+01 7.454094886779785156e-01 1.745290637016296387e+00 7.472100257873535156e-01 1.470971345901489258e+00
2.514000000000000000e+03 3.690896606445312500e+01 1.149872779846191406e+00 1.072904706001281738e+00 1.928149580955505371e+00 9.003162980079650879e-01 -1.416707396507263184e+00
2.515000000000000000e+03 3.662762069702148438e+01 3.088351488113403320e-01 1.083678364753723145e+00 1.542623281478881836e+00 7.878904938697814941e-01 -1.249409198760986328e+00
2.516000000000000000e+03 2.807926750183105469e+01 -1.888249015808105469e+01 2.439210116863250732e-01 7.583088874816894531e-01 3.006689846515655518e-01 1.535188555717468262e-01
2.517000000000000000e+03 3.861294937133789062e+01 -1.451392745971679688e+01 8.020335435867309570e-01 2.992852687835693359e+00 1.138465881347656250e+00 2.119790792465209961e+00
2.518000000000000000e+03 2.344695091247558594e+01 -1.424200534820556641e+01 -4.275276362895965576e-01 1.722906827926635742e-01 -7.657108455896377563e-02 -4.483295083045959473e-01
2.519000000000000000e+03 2.833655929565429688e+01 -1.600165939331054688e+01 7.134543359279632568e-02 4.885988235473632812e-01 1.679832786321640015e-01 -9.348540566861629486e-03
2.520000000000000000e+03 3.491848373413085938e+01 -1.599284076690673828e+01 5.960273146629333496e-01 1.631671071052551270e+00 6.683095097541809082e-01 1.090173959732055664e+00
2.521000000000000000e+03 2.923157119750976562e+01 3.085901260375976562e+00 3.453167676925659180e-01 5.240877270698547363e-01 2.608213424682617188e-01 -1.810844242572784424e-02
2.522000000000000000e+03 2.762036323547363281e+01 1.142652153968811035e+00 1.491073369979858398e-01 1.807464063167572021e-01 9.895612299442291260e-02 2.628652453422546387e-01
2.523000000000000000e+03 2.622687339782714844e+01 -1.558614921569824219e+01 -1.267776191234588623e-01 3.274749815464019775e-01 6.020920723676681519e-02 -2.319824993610382080e-01
2.524000000000000000e+03 3.112254524230957031e+01 1.566300749778747559e+00 4.509846866130828857e-01 5.699027180671691895e-01 3.062662184238433838e-01 -1.294577121734619141e-01
2.525000000000000000e+03 2.916342353820800781e+01 1.297692298889160156e+00 2.663470506668090820e-01 3.242152631282806396e-01 1.771686971187591553e-01 1.268731802701950073e-01
2.526000000000000000e+03 3.180601310729980469e+01 1.427964091300964355e+00 5.089864134788513184e-01 6.610502600669860840e-01 3.510110080242156982e-01 -2.142802774906158447e-01
2.527000000000000000e+03 2.708091926574707031e+01 1.619591951370239258e+00 1.395938396453857422e-01 1.562456786632537842e-01 8.875185251235961914e-02 2.691850364208221436e-01
2.528000000000000000e+03 2.612960815429687500e+01 5.951098203659057617e-01 4.176100343465805054e-02 3.085845895111560822e-02 2.178583852946758270e-02 3.638625144958496094e-01
2.529000000000000000e+03 3.591030883789062500e+01 8.640009164810180664e-01 9.916155934333801270e-01 1.454752922058105469e+00 7.339105606079101562e-01 -1.097904801368713379e+00
2.530000000000000000e+03 3.525760650634765625e+01 1.030673384666442871e+00 9.214876890182495117e-01 1.288275003433227539e+00 6.629288196563720703e-01 -9.285680055618286133e-01
2.531000000000000000e+03 3.187563323974609375e+01 -1.536109638214111328e+01 3.068944811820983887e-01 7.853162288665771484e-01 3.276632130146026611e-01 4.087450802326202393e-01
2.532000000000000000e+03 3.387347412109375000e+01 -1.548568630218505859e+01 5.192629694938659668e-01 1.197682857513427734e+00 5.150837302207946777e-01 8.242263793945312500e-01
2.533000000000000000e+03 6.873049163818359375e+01 -1.112042522430419922e+01 4.990451633930206299e-01 7.297876834869384766e+00 2.339076519012451172e+00 -3.732437193393707275e-01
2.534000000000000000e+03 6.957523345947265625e+01 -1.276150131225585938e+01 3.640479743480682373e-01 7.282201290130615234e+00 2.293874740600585938e+00 -4.531249701976776123e-01
2.535000000000000000e+03 2.599547004699707031e+01 1.532568693161010742e+00 8.264104276895523071e-02 5.596288666129112244e-02 4.158117994666099548e-02 3.316124081611633301e-01
2.536000000000000000e+03 2.441038131713867188e+01 7.980827093124389648e-01 5.619847681373357773e-03 -1.015125289559364319e-01 -2.876780554652214050e-02 3.905851244926452637e-01
2.537000000000000000e+03 7.000067901611328125e+01 9.128441810607910156e-01 3.252601921558380127e-01 7.318778514862060547e+00 2.293211698532104492e+00 5.786767601966857910e-01
2.538000000000000000e+03 6.713636016845703125e+01 2.385830879211425781e-01 5.261074900627136230e-01 7.468368530273437500e+00 2.398342847824096680e+00 6.358297467231750488e-01
2.539000000000000000e+03 2.658727264404296875e+01 1.107347249984741211e+00 9.196858108043670654e-02 9.008967131376266479e-02 5.461747571825981140e-02 3.224105238914489746e-01
2.540000000000000000e+03 6.819593048095703125e+01 -1.814898872375488281e+01 1.526801288127899170e-01 7.552758216857910156e+00 2.311631441116333008e+00 -7.096318602561950684e-01
2.541000000000000000e+03 2.657884216308593750e+01 3.867696285247802734e+00 1.882028281688690186e-01 2.706407010555267334e-01 1.376530528068542480e-01 1.484922617673873901e-01
2.542000000000000000e+03 7.013899993896484375e+01 -1.485532665252685547e+01 2.567686736583709717e-01 7.314527988433837891e+00 2.271389007568359375e+00 -5.418663024902343750e-01
2.543000000000000000e+03 7.125780487060546875e+01 -1.552644920349121094e+01 1.841746568679809570e-01 7.259381294250488281e+00 2.233066797256469727e+00 -5.243028402328491211e-01
2.544000000000000000e+03 6.881949615478515625e+01 -1.008765888214111328e+01 5.356583595275878906e-01 7.264332294464111328e+00 2.339997291564941406e+00 -2.714871466159820557e-01
2.545000000000000000e+03 2.302892875671386719e+01 1.915313911437988281e+01 -8.464920520782470703e-02 6.718372702598571777e-01 1.761564165353775024e-01 -2.923765182495117188e-01
2.546000000000000000e+03 2.182477951049804688e+01 1.995519828796386719e+01 -7.024971395730972290e-02 5.098266005516052246e-01 1.318730562925338745e-01 -2.407672107219696045e-01
2.547000000000000000e+03 6.662439727783203125e+01 -2.426375961303710938e+01 -1.508600562810897827e-01 7.771526336669921875e+00 2.286199808120727539e+00 -7.130092382431030273e-01
2.548000000000000000e+03 6.839428710937500000e+01 -2.441143226623535156e+01 -1.220376715064048767e-01 7.715642452239990234e+00 2.278081417083740234e+00 -6.783342957496643066e-01
2.549000000000000000e+03 2.731987380981445312e+01 1.003147506713867188e+01 7.797346264123916626e-02 9.058833718299865723e-01 2.951570451259613037e-01 -2.741672992706298828e-01
2.550000000000000000e+03 6.596420288085937500e+01 1.785448837280273438e+01 -2.691240012645721436e-01 7.890929698944091797e+00 2.286541700363159180e+00 7.133537530899047852e-01
2.551000000000000000e+03 6.799137878417968750e+01 1.642161941528320312e+01 -1.890334635972976685e-01 7.905556678771972656e+00 2.314956903457641602e+00 7.377699017524719238e-01
2.552000000000000000e+03 2.372682380676269531e+01 -1.710155487060546875e+01 -1.097417473793029785e-01 3.164764642715454102e-01 6.202040985226631165e-02 -2.706174850463867188e-01
2.553000000000000000e+03 2.677556991577148438e+01 7.620228767395019531e+00 1.383066922426223755e-01 5.865517258644104004e-01 2.174575179815292358e-01 -9.750467538833618164e-02
2.554000000000000000e+03 2.541754531860351562e+01 1.412998485565185547e+01 -8.734252303838729858e-02 8.275943398475646973e-01 2.220755517482757568e-01 -3.076994717121124268e-01
2.555000000000000000e+03 2.569031143188476562e+01 1.227481174468994141e+01 -5.269533768296241760e-02 7.528417706489562988e-01 2.100439220666885376e-01 -2.515072524547576904e-01
2.556000000000000000e+03 6.892409515380859375e+01 1.404820537567138672e+01 -1.290760785341262817e-01 7.863205432891845703e+00 2.320238828659057617e+00 7.682978510856628418e-01
2.557000000000000000e+03 6.990174102783203125e+01 1.320714473724365234e+01 -9.081887453794479370e-02 7.821096420288085938e+00 2.319083213806152344e+00 7.614050507545471191e-01
2.558000000000000000e+03 6.842403411865234375e+01 1.906411767005920410e+00 3.660774827003479004e-01 7.452391147613525391e+00 2.345540761947631836e+00 6.890919804573059082e-01
2.559000000000000000e+03 6.654730224609375000e+01 -2.689069557189941406e+01 -2.398405075073242188e-01 7.803649902343750000e+00 2.269142866134643555e+00 -6.421267986297607422e-01
2.560000000000000000e+03 9.979866027832031250e+00 -2.754024314880371094e+01 1.468885540962219238e-01 -4.478094875812530518e-01 -9.027627855539321899e-02 -3.826900422573089600e-01
2.561000000000000000e+03 2.914638328552246094e+01 1.061827373504638672e+01 1.396472901105880737e-01 1.341093420982360840e+00 4.442222118377685547e-01 -4.617969691753387451e-01
2.562000000000000000e+03 2.019776916503906250e+01 2.563007736206054688e+01 1.222181469202041626e-01 5.202602744102478027e-01 1.927435249090194702e-01 -1.604524701833724976e-01
2.563000000000000000e+03 2.614843559265136719e+01 1.048343563079833984e+01 2.154252119362354279e-02 7.135638594627380371e-01 2.205319106578826904e-01 -2.014190703630447388e-01
2.564000000000000000e+03 1.466661453247070312e+01 2.668328285217285156e+01 1.637944430112838745e-01 -8.984790742397308350e-02 2.218396216630935669e-02 1.219654008746147156e-01
2.565000000000000000e+03 1.236023330688476562e+01 2.717140388488769531e+01 1.440958678722381592e-01 -2.176052033901214600e-01 -2.205279842019081116e-02 2.367528975009918213e-01
2.566000000000000000e+03 1.541462230682373047e+01 2.508952522277832031e+01 1.157135739922523499e-01 -1.341890245676040649e-01 -5.542635917663574219e-03 1.012799963355064392e-01
2.567000000000000000e+03 6.995742797851562500e+01 -6.667063713073730469e+00 4.837576746940612793e-01 7.153226375579833984e+00 2.291095256805419922e+00 1.237942278385162354e-02
2.568000000000000000e+03 6.856461334228515625e+01 -9.022561073303222656e+00 5.613494515419006348e-01 7.262791633605957031e+00 2.347242355346679688e+00 -1.949835419654846191e-01
2.569000000000000000e+03 4.391967773437500000e+01 -1.077945995330810547e+01 3.882574439048767090e-01 1.055793190002441406e+01 3.283856868743896484e+00 3.539079189300537109e+00
2.570000000000000000e+03 4.496401214599609375e+01 -9.709366798400878906e+00 5.056182146072387695e-01 1.427474117279052734e+01 4.434107780456542969e+00 2.080485820770263672e+00
2.571000000000000000e+03 4.381399917602539062e+01 -1.039062118530273438e+01 4.840547740459442139e-01 1.060422992706298828e+01 3.326485395431518555e+00 3.800706386566162109e+00
2.572000000000000000e+03 4.723296737670898438e+01 -7.742751598358154297e+00 6.148118972778320312e+00 1.302534866333007812e+01 5.752040386199951172e+00 -1.687873482704162598e+00
2.573000000000000000e+03 4.430824661254882812e+01 -2.676882028579711914e+00 7.252360582351684570e-01 1.192984867095947266e+01 3.796525478363037109e+00 -3.246925354003906250e+00
2.574000000000000000e+03 4.468364715576171875e+01 -9.901942253112792969e+00 4.195468127727508545e-01 1.351554012298583984e+01 4.180525779724121094e+00 2.622839450836181641e+00
2.575000000000000000e+03 4.608609008789062500e+01 -8.667607307434082031e+00 3.172998428344726562e+00 1.569746208190917969e+01 5.661138057708740234e+00 -1.336001753807067871e+00
2.576000000000000000e+03 4.799036407470703125e+01 -6.883288383483886719e+00 6.631926536560058594e+00 1.159137344360351562e+01 5.466989994049072266e+00 -5.430126190185546875e-01
2.577000000000000000e+03 4.699118804931640625e+01 -8.583032608032226562e+00 4.153652191162109375e+00 1.373643875122070312e+01 5.367027282714843750e+00 -1.803902029991149902e+00
2.578000000000000000e+03 4.711666488647460938e+01 -8.305880546569824219e+00 4.786323547363281250e+00 1.337618255615234375e+01 5.448751926422119141e+00 -1.800142526626586914e+00
2.579000000000000000e+03 4.206130981445312500e+01 -2.568197965621948242e+00 1.978143215179443359e+00 5.608487129211425781e+00 2.275989055633544922e+00 -4.054898262023925781e+00
2.580000000000000000e+03 4.818088531494140625e+01 -6.482711791992187500e+00 6.568250656127929688e+00 1.132264804840087891e+01 5.367269992828369141e+00 -6.508471816778182983e-02
2.581000000000000000e+03 4.779792022705078125e+01 -6.171402931213378906e+00 6.941711902618408203e+00 1.176902294158935547e+01 5.613220691680908203e+00 3.404977619647979736e-01
2.582000000000000000e+03 4.511470413208007812e+01 -3.097584486007690430e+00 8.881182074546813965e-01 1.406447315216064453e+01 4.485777378082275391e+00 -1.638092756271362305e+00
2.583000000000000000e+03 4.568754577636718750e+01 -3.052214384078979492e+00 1.101259589195251465e+00 1.420620059967041016e+01 4.592237949371337891e+00 -6.558552384376525879e-01
2.584000000000000000e+03 4.684588623046875000e+01 -3.773464202880859375e+00 3.036675453186035156e+00 1.369764804840087891e+01 5.020297050476074219e+00 1.301415562629699707e+00
2.585000000000000000e+03 4.725484085083007812e+01 -3.946432113647460938e+00 3.652018308639526367e+00 1.328124427795410156e+01 5.079978466033935547e+00 1.625019073486328125e+00
2.586000000000000000e+03 4.313220977783203125e+01 -1.125341033935546875e+01 6.403166651725769043e-01 8.359814643859863281e+00 2.700039625167846680e+00 3.778084516525268555e+00
2.587000000000000000e+03 4.754581451416015625e+01 -4.825142383575439453e+00 5.359665870666503906e+00 1.256166839599609375e+01 5.376400470733642578e+00 1.601778388023376465e+00
2.588000000000000000e+03 4.324495697021484375e+01 -1.048152732849121094e+01 8.826270103454589844e-01 8.969469070434570312e+00 2.955628633499145508e+00 4.190013408660888672e+00
2.589000000000000000e+03 4.832963180541992188e+01 -4.678598403930664062e+00 4.827662944793701172e+00 1.151594352722167969e+01 4.903081893920898438e+00 1.408033132553100586e+00
2.590000000000000000e+03 4.815116882324218750e+01 -5.975537776947021484e+00 6.352248191833496094e+00 1.133737754821777344e+01 5.306887626647949219e+00 5.362444519996643066e-01
2.591000000000000000e+03 4.789734268188476562e+01 -5.102948665618896484e+00 5.715761184692382812e+00 1.198218631744384766e+01 5.309384346008300781e+00 1.366795063018798828e+00
2.592000000000000000e+03 4.289174270629882812e+01 -1.072569561004638672e+01 1.009184837341308594e+00 7.803442001342773438e+00 2.643788099288940430e+00 4.127532958984375000e+00
2.593000000000000000e+03 4.007350921630859375e+01 -1.447937846183776855e+00 1.656347513198852539e+00 3.039065599441528320e+00 1.408623933792114258e+00 -2.645596504211425781e+00
2.594000000000000000e+03 3.916801452636718750e+01 -6.696667075157165527e-01 1.456673860549926758e+00 2.614247322082519531e+00 1.221276402473449707e+00 -2.204797506332397461e+00
2.595000000000000000e+03 3.786878204345703125e+01 3.000450730323791504e-01 1.229093551635742188e+00 2.114483833312988281e+00 1.003073215484619141e+00 -1.695013284683227539e+00
2.596000000000000000e+03 4.008641815185546875e+01 -1.251230049133300781e+01 1.061320543289184570e+00 3.479157209396362305e+00 1.362143278121948242e+00 2.736325502395629883e+00
2.597000000000000000e+03 3.999808883666992188e+01 -1.295980930328369141e+01 9.544261693954467773e-01 3.603696107864379883e+00 1.367436647415161133e+00 2.661425113677978516e+00
2.598000000000000000e+03 2.976350975036621094e+01 1.533277988433837891e+00 3.291047513484954834e-01 4.210215508937835693e-01 2.250378876924514771e-01 4.297349229454994202e-02
2.599000000000000000e+03 3.023317909240722656e+01 3.137399196624755859e+00 4.296415746212005615e-01 6.854904890060424805e-01 3.345396220684051514e-01 -1.503015309572219849e-01
2.600000000000000000e+03 3.112436485290527344e+01 2.285613298416137695e+00 4.911635220050811768e-01 6.792833805084228516e-01 3.511340618133544922e-01 -1.994375884532928467e-01
2.601000000000000000e+03 3.323081207275390625e+01 1.164713263511657715e+00 6.583731770515441895e-01 8.498201966285705566e-01 4.524580240249633789e-01 -4.516230523586273193e-01
2.602000000000000000e+03 3.202423858642578125e+01 2.737536668777465820e+00 5.962034463882446289e-01 9.261426925659179688e-01 4.567038416862487793e-01 -4.007062613964080811e-01
2.603000000000000000e+03 3.018412208557128906e+01 3.986136674880981445e+00 4.344964325428009033e-01 7.847380638122558594e-01 3.657703399658203125e-01 -2.138181030750274658e-01
2.604000000000000000e+03 2.732478141784667969e+01 -1.646519470214843750e+01 4.422725737094879150e-02 4.703609645366668701e-01 1.543764621019363403e-01 -7.465884089469909668e-02
2.605000000000000000e+03 2.949690437316894531e+01 -1.828226089477539062e+01 3.126877844333648682e-01 8.806072473526000977e-01 3.579885065555572510e-01 2.790270745754241943e-01
2.606000000000000000e+03 3.873114013671875000e+01 4.426686763763427734e-01 1.263561964035034180e+00 2.735234737396240234e+00 1.199638962745666504e+00 -2.057043075561523438e+00
2.607000000000000000e+03 3.452686309814453125e+01 1.112140297889709473e+00 8.253297209739685059e-01 1.110481977462768555e+00 5.807434916496276855e-01 -7.425691485404968262e-01
2.608000000000000000e+03 3.750852203369140625e+01 -1.602198982238769531e+01 6.776198148727416992e-01 2.761358261108398438e+00 1.031693458557128906e+00 1.768754601478576660e+00
2.609000000000000000e+03 3.595154571533203125e+01 -1.604365348815917969e+01 6.576020717620849609e-01 2.031546354293823242e+00 8.067445755004882812e-01 1.381607055664062500e+00
2.610000000000000000e+03 3.696966552734375000e+01 -1.524444866180419922e+01 7.115292549133300781e-01 2.253329277038574219e+00 8.894575834274291992e-01 1.610332846641540527e+00
2.611000000000000000e+03 3.753920364379882812e+01 -1.447901439666748047e+01 7.872037291526794434e-01 2.342006206512451172e+00 9.387630224227905273e-01 1.779326438903808594e+00
2.612000000000000000e+03 3.764240264892578125e+01 -1.519530391693115234e+01 7.293691635131835938e-01 2.575795412063598633e+00 9.915493726730346680e-01 1.819701790809631348e+00
2.613000000000000000e+03 3.682534790039062500e+01 1.708206295967102051e+00 1.024833559989929199e+00 2.067522764205932617e+00 9.277068972587585449e-01 -1.422898650169372559e+00
2.614000000000000000e+03 3.641847991943359375e+01 9.510214924812316895e-01 1.043708205223083496e+00 1.659209609031677246e+00 8.108753561973571777e-01 -1.249108195304870605e+00
2.615000000000000000e+03 2.623099708557128906e+01 -1.805089187622070312e+01 9.331518411636352539e-02 5.147328972816467285e-01 1.824144124984741211e-01 -5.590381473302841187e-02
2.616000000000000000e+03 3.545765304565429688e+01 1.720538735389709473e+00 9.177686572074890137e-01 1.544359207153320312e+00 7.386383414268493652e-01 -1.047590136528015137e+00
2.617000000000000000e+03 2.463969612121582031e+01 -1.708377075195312500e+01 -7.377032190561294556e-02 3.459201157093048096e-01 8.164493739604949951e-02 -2.313460856676101685e-01
2.618000000000000000e+03 3.354247665405273438e+01 -1.463640689849853516e+01 4.119733273983001709e-01 9.462238550186157227e-01 4.074591696262359619e-01 6.701073646545410156e-01
2.619000000000000000e+03 3.538708114624023438e+01 -1.669139099121093750e+01 6.249319911003112793e-01 1.938057065010070801e+00 7.688966989517211914e-01 1.245121002197265625e+00
2.620000000000000000e+03 2.815721511840820312e+01 1.590729355812072754e+00 2.107280045747756958e-01 2.685076594352722168e-01 1.437706947326660156e-01 1.931390911340713501e-01
2.621000000000000000e+03 2.593534088134765625e+01 3.491107225418090820e+00 1.222515404224395752e-01 1.506209224462509155e-01 8.186174184083938599e-02 2.294699251651763916e-01
2.622000000000000000e+03 2.588893508911132812e+01 2.503625154495239258e+00 1.065055802464485168e-01 9.047051519155502319e-02 5.909282714128494263e-02 2.899962067604064941e-01
2.623000000000000000e+03 2.563778495788574219e+01 1.709126853942871094e+01 -8.852783590555191040e-02 1.054369568824768066e+00 2.897525131702423096e-01 -4.023896455764770508e-01
2.624000000000000000e+03 6.962921142578125000e+01 -1.649525260925292969e+01 2.079983800649642944e-01 7.408816337585449219e+00 2.285044431686401367e+00 -6.203294992446899414e-01
2.625000000000000000e+03 2.801721382141113281e+01 5.139846324920654297e+00 2.623848021030426025e-01 5.642530322074890137e-01 2.479913532733917236e-01 -4.638751968741416931e-02
2.626000000000000000e+03 2.785943794250488281e+01 8.645888328552246094e+00 1.605237871408462524e-01 8.840656876564025879e-01 3.133768439292907715e-01 -2.562868297100067139e-01
2.627000000000000000e+03 6.786694335937500000e+01 -3.148201465606689453e+00 6.245830059051513672e-01 7.327687740325927734e+00 2.385681152343750000e+00 3.453041017055511475e-01
2.628000000000000000e+03 6.839811706542968750e+01 -2.133996200561523438e+01 1.348540972685441375e-04 7.636232376098632812e+00 2.290910243988037109e+00 -7.196417450904846191e-01
2.629000000000000000e+03 6.955730438232421875e+01 -1.979442787170410156e+01 6.191314011812210083e-02 7.526627063751220703e+00 2.276561975479125977e+00 -6.822839379310607910e-01
2.630000000000000000e+03 6.826649475097656250e+01 -1.642238044738769531e+01 2.557789087295532227e-01 7.484379768371582031e+00 2.322047710418701172e+00 -6.634899377822875977e-01
2.631000000000000000e+03 6.827127075195312500e+01 3.248991727828979492e+00 3.050948381423950195e-01 7.514422893524169922e+00 2.345855236053466797e+00 7.576643824577331543e-01
2.632000000000000000e+03 3.194715309143066406e+01 -1.630174255371093750e+01 3.962289690971374512e-01 9.773622751235961914e-01 4.120773673057556152e-01 5.129033327102661133e-01
2.633000000000000000e+03 2.694533157348632812e+01 4.987839221954345703e+00 1.894294917583465576e-01 3.876316249370574951e-01 1.731183379888534546e-01 6.463946402072906494e-02
2.634000000000000000e+03 2.758584022521972656e+01 1.298915004730224609e+01 6.768004037439823151e-03 1.196121096611022949e+00 3.608667254447937012e-01 -4.105847179889678955e-01
2.635000000000000000e+03 6.879798889160156250e+01 -6.295405864715576172e+00 5.965929031372070312e-01 7.236322402954101562e+00 2.349874496459960938e+00 5.206415802240371704e-02
2.636000000000000000e+03 1.327046108245849609e+01 -2.821183586120605469e+01 2.225433737039566040e-01 -2.725113928318023682e-01 -1.499040611088275909e-02 -2.917989194393157959e-01
2.637000000000000000e+03 2.248834800720214844e+01 -2.341521072387695312e+01 1.924677342176437378e-01 5.001763105392456055e-01 2.077932059764862061e-01 -2.460217103362083435e-02
2.638000000000000000e+03 2.353994369506835938e+01 -2.150494766235351562e+01 1.503322422504425049e-01 5.211288928985595703e-01 2.014383375644683838e-01 -3.210036084055900574e-02
2.639000000000000000e+03 6.743566131591796875e+01 1.037269306182861328e+01 -4.657850414514541626e-02 7.791702270507812500e+00 2.323537111282348633e+00 8.715944886207580566e-01
2.640000000000000000e+03 6.942245483398437500e+01 6.282865047454833984e+00 1.233825162053108215e-01 7.578167438507080078e+00 2.310465097427368164e+00 7.952020168304443359e-01
2.641000000000000000e+03 2.553631591796875000e+01 1.863753128051757812e+01 -6.387024372816085815e-02 1.119990229606628418e+00 3.168359994888305664e-01 -4.159756302833557129e-01
2.642000000000000000e+03 6.709297180175781250e+01 2.233171463012695312e+01 -2.647971510887145996e-01 7.941687107086181641e+00 2.303066968917846680e+00 5.666630268096923828e-01
2.643000000000000000e+03 6.898540496826171875e+01 2.439006996154785156e+01 -1.978576034307479858e-01 8.087677001953125000e+00 2.366945743560791016e+00 4.838414192199707031e-01
2.644000000000000000e+03 6.794503021240234375e+01 -4.163768291473388672e+00 6.407352685928344727e-01 7.306698322296142578e+00 2.384230136871337891e+00 2.591977715492248535e-01
2.645000000000000000e+03 6.893600463867187500e+01 -1.818111896514892578e+00 4.954656064510345459e-01 7.294415473937988281e+00 2.336964368820190430e+00 4.376603364944458008e-01
2.646000000000000000e+03 6.572538757324218750e+01 -2.279335784912109375e+01 -1.063671931624412537e-01 7.796558856964111328e+00 2.307057380676269531e+00 -7.575013637542724609e-01
2.647000000000000000e+03 6.367741394042968750e+01 -2.320722579956054688e+01 -1.911807507276535034e-01 7.897526741027832031e+00 2.311903715133666992e+00 -7.601972222328186035e-01
2.648000000000000000e+03 2.219414710998535156e+01 2.145366096496582031e+01 -2.189186774194240570e-02 6.332224607467651367e-01 1.833991855382919312e-01 -2.680370211601257324e-01
2.649000000000000000e+03 6.641455078125000000e+01 1.603024864196777344e+01 -2.283085733652114868e-01 7.895424842834472656e+00 2.300134897232055664e+00 7.613053917884826660e-01
2.650000000000000000e+03 6.690211486816406250e+01 1.437398433685302734e+01 -1.807945668697357178e-01 7.876623153686523438e+00 2.308748483657836914e+00 8.015741705894470215e-01
2.651000000000000000e+03 2.218187332153320312e+01 2.339957237243652344e+01 5.805023014545440674e-02 7.356638908386230469e-01 2.381142377853393555e-01 -2.719345986843109131e-01
2.652000000000000000e+03 1.612263488769531250e+01 2.751498603820800781e+01 1.900476664304733276e-01 7.493077963590621948e-02 7.949353754520416260e-02 7.109341770410537720e-02
2.653000000000000000e+03 1.712156105041503906e+01 2.557223892211914062e+01 1.259237229824066162e-01 1.020189225673675537e-01 6.838279217481613159e-02 1.505662407726049423e-02
2.654000000000000000e+03 2.785997200012207031e+01 7.762562751770019531e+00 2.016148269176483154e-01 8.053383231163024902e-01 3.020859360694885254e-01 -2.050054818391799927e-01
2.655000000000000000e+03 4.680228805541992188e+01 -9.230098724365234375e+00 2.724048137664794922e+00 1.392206573486328125e+01 4.993834018707275391e+00 -1.350944995880126953e+00
2.656000000000000000e+03 4.109222412109375000e+01 -2.114736557006835938e+00 1.927325010299682617e+00 3.877958059310913086e+00 1.741584897041320801e+00 -3.292985677719116211e+00
2.657000000000000000e+03 4.333946228027343750e+01 -2.914801359176635742e+00 1.443030357360839844e+00 9.420798301696777344e+00 3.259148597717285156e+00 -4.479362487792968750e+00
2.658000000000000000e+03 4.489567565917968750e+01 -1.023887538909912109e+01 2.818508446216583252e-01 1.316402912139892578e+01 4.033763885498046875e+00 2.211097478866577148e+00
2.659000000000000000e+03 4.453474807739257812e+01 -1.062751388549804688e+01 1.924829334020614624e-01 1.195438575744628906e+01 3.644060373306274414e+00 2.902990341186523438e+00
2.660000000000000000e+03 4.762265396118164062e+01 -8.034049987792968750e+00 5.307054042816162109e+00 1.244788646697998047e+01 5.326482295989990234e+00 -1.674585103988647461e+00
2.661000000000000000e+03 4.477151107788085938e+01 -3.084807872772216797e+00 7.814955115318298340e-01 1.376029205322265625e+01 4.362536430358886719e+00 -2.433191537857055664e+00
2.662000000000000000e+03 4.756189727783203125e+01 -7.686343669891357422e+00 6.049892902374267578e+00 1.236632919311523438e+01 5.524866580963134766e+00 -1.498141050338745117e+00
2.663000000000000000e+03 4.373436737060546875e+01 -2.292568922042846680e+00 8.627831935882568359e-01 1.017640972137451172e+01 3.311757802963256836e+00 -3.742287158966064453e+00
2.664000000000000000e+03 4.648715972900390625e+01 -3.334726095199584961e+00 2.127079248428344727e+00 1.393647480010986328e+01 4.819066047668457031e+00 7.287676930427551270e-01
2.665000000000000000e+03 4.208784484863281250e+01 -1.143457698822021484e+01 1.039301633834838867e+00 6.044077873229980469e+00 2.125013828277587891e+00 3.732128858566284180e+00
2.666000000000000000e+03 4.716528701782226562e+01 -3.560704469680786133e+00 2.887060403823852539e+00 1.322511672973632812e+01 4.833652973175048828e+00 1.327765822410583496e+00
2.667000000000000000e+03 4.617266845703125000e+01 -9.611531257629394531e+00 1.503410220146179199e+00 1.433469486236572266e+01 4.751431465148925781e+00 -3.392059803009033203e-01
2.668000000000000000e+03 4.247421646118164062e+01 -2.764386415481567383e+00 1.940689444541931152e+00 6.622812747955322266e+00 2.569050550460815430e+00 -4.335019111633300781e+00
2.669000000000000000e+03 4.138440704345703125e+01 -1.184667205810546875e+01 1.084393739700317383e+00 4.891288757324218750e+00 1.792704820632934570e+00 3.385739326477050781e+00
2.670000000000000000e+03 4.691686630249023438e+01 -8.350523948669433594e+00 4.639864444732666016e+00 1.380619335174560547e+01 5.533817291259765625e+00 -1.826321601867675781e+00
2.671000000000000000e+03 4.191316986083984375e+01 -3.024119377136230469e+00 2.311830997467041016e+00 4.908884525299072266e+00 2.166214466094970703e+00 -4.054630756378173828e+00
2.672000000000000000e+03 4.098406982421875000e+01 -1.394823074340820312e+00 1.659016489982604980e+00 4.266159057617187500e+00 1.777552604675292969e+00 -3.223170042037963867e+00
2.673000000000000000e+03 4.748746490478515625e+01 -4.207594394683837891e+00 4.155731201171875000e+00 1.283881473541259766e+01 5.098363876342773438e+00 1.654901981353759766e+00
2.674000000000000000e+03 4.840124511718750000e+01 -6.166094779968261719e+00 6.217186927795410156e+00 1.107124137878417969e+01 5.186528682708740234e+00 3.186596333980560303e-01
2.675000000000000000e+03 4.806377792358398438e+01 -5.664318084716796875e+00 6.259322643280029297e+00 1.154019451141357422e+01 5.339855194091796875e+00 8.525767922401428223e-01
2.676000000000000000e+03 4.789675521850585938e+01 -4.412980556488037109e+00 4.537560939788818359e+00 1.217877101898193359e+01 5.014899730682373047e+00 1.600298166275024414e+00
2.677000000000000000e+03 3.960737228393554688e+01 -9.131184220314025879e-01 1.512446880340576172e+00 2.876107692718505859e+00 1.316566348075866699e+00 -2.400218486785888672e+00
2.678000000000000000e+03 3.910712814331054688e+01 7.688847184181213379e-02 1.322802901268005371e+00 2.923560857772827148e+00 1.273909091949462891e+00 -2.220936775207519531e+00
2.679000000000000000e+03 4.110242462158203125e+01 -1.238268280029296875e+01 9.766186475753784180e-01 4.740986824035644531e+00 1.715281724929809570e+00 3.169909477233886719e+00
2.680000000000000000e+03 2.950971031188964844e+01 2.247804880142211914e+00 3.411671519279479980e-01 4.589881598949432373e-01 2.400465905666351318e-01 2.247810363769531250e-02
2.681000000000000000e+03 3.253510665893554688e+01 1.336475968360900879e+00 5.870834589004516602e-01 7.664296030998229980e-01 4.060539305210113525e-01 -3.379732072353363037e-01
2.682000000000000000e+03 2.914122581481933594e+01 5.005797386169433594e+00 3.424469828605651855e-01 7.544523477554321289e-01 3.290697932243347168e-01 -1.594618409872055054e-01
2.683000000000000000e+03 3.896631622314453125e+01 -1.390896034240722656e+01 8.532671332359313965e-01 3.055953025817871094e+00 1.172766089439392090e+00 2.247530221939086914e+00
2.684000000000000000e+03 3.932006072998046875e+01 -1.344819831848144531e+01 8.969549536705017090e-01 3.136731147766113281e+00 1.210105776786804199e+00 2.376235485076904297e+00
2.685000000000000000e+03 4.026733016967773438e+01 -1.341740036010742188e+01 8.533807992935180664e-01 4.027130126953125000e+00 1.464153289794921875e+00 2.698151588439941406e+00
2.686000000000000000e+03 3.032661247253417969e+01 2.342537641525268555e+00 4.171775877475738525e-01 5.886058807373046875e-01 3.017350435256958008e-01 -9.147060662508010864e-02
2.687000000000000000e+03 2.910579299926757812e+01 4.035160064697265625e+00 3.455415368080139160e-01 6.171422600746154785e-01 2.888051569461822510e-01 -7.278341054916381836e-02
2.688000000000000000e+03 4.381263732910156250e+01 -1.145863819122314453e+01 2.607308626174926758e-01 9.698860168457031250e+00 2.987877368927001953e+00 3.298075437545776367e+00
2.689000000000000000e+03 2.760876083374023438e+01 2.190201997756958008e+00 1.976940333843231201e-01 2.520293295383453369e-01 1.349170058965682983e-01 1.959080398082733154e-01
2.690000000000000000e+03 3.385652160644531250e+01 1.044439911842346191e+00 7.412433028221130371e-01 9.450690746307373047e-01 5.058937072753906250e-01 -5.751017928123474121e-01
2.691000000000000000e+03 3.491802597045898438e+01 2.295552492141723633e+00 8.590057492256164551e-01 1.515962481498718262e+00 7.124904394149780273e-01 -9.627937078475952148e-01
2.692000000000000000e+03 3.182955932617187500e+01 2.121424674987792969e+00 5.411739349365234375e-01 7.556863427162170410e-01 3.890580832958221436e-01 -2.792705297470092773e-01
2.693000000000000000e+03 3.820832061767578125e+01 -1.617667388916015625e+01 6.379162669181823730e-01 3.153561830520629883e+00 1.137443423271179199e+00 1.942189574241638184e+00
2.694000000000000000e+03 3.837442016601562500e+01 -1.529584789276123047e+01 7.187060117721557617e-01 3.013484716415405273e+00 1.119657158851623535e+00 2.015597820281982422e+00
2.695000000000000000e+03 3.741197586059570312e+01 1.318148732185363770e+00 1.109353184700012207e+00 2.262474536895751953e+00 1.011548280715942383e+00 -1.628376603126525879e+00
2.696000000000000000e+03 3.293675994873046875e+01 -1.595123672485351562e+01 4.589084684848785400e-01 1.092396855354309082e+00 4.653916060924530029e-01 6.666147708892822266e-01
2.697000000000000000e+03 3.803442382812500000e+01 -1.715110588073730469e+01 5.456057190895080566e-01 3.284808874130249023e+00 1.149124383926391602e+00 1.821800708770751953e+00
2.698000000000000000e+03 3.701589202880859375e+01 2.137257337570190430e+00 9.766496419906616211e-01 2.334996938705444336e+00 9.934939742088317871e-01 -1.509241104125976562e+00
2.699000000000000000e+03 3.634101486206054688e+01 1.909285306930541992e+00 9.786891341209411621e-01 1.886480212211608887e+00 8.595507740974426270e-01 -1.291431784629821777e+00
2.700000000000000000e+03 3.605561065673828125e+01 1.394571423530578613e+00 9.980020523071289062e-01 1.652671098709106445e+00 7.952019572257995605e-01 -1.195614337921142578e+00
2.701000000000000000e+03 3.324783706665039062e+01 -1.695393180847167969e+01 5.228030085563659668e-01 1.356756091117858887e+00 5.638677477836608887e-01 8.048214912414550781e-01
2.702000000000000000e+03 2.830152511596679688e+01 2.762924432754516602e+00 2.687407433986663818e-01 3.745557963848114014e-01 1.929889619350433350e-01 9.798242151737213135e-02
2.703000000000000000e+03 6.836498260498046875e+01 -8.063253402709960938e+00 6.023271083831787109e-01 7.259689331054687500e+00 2.358604907989501953e+00 -1.231809034943580627e-01
2.704000000000000000e+03 6.692524719238281250e+01 -1.343640708923339844e+01 4.994257092475891113e-01 7.472939491271972656e+00 2.391709566116333008e+00 -5.732378959655761719e-01
2.705000000000000000e+03 3.084922218322753906e+01 -1.640793609619140625e+01 3.083826005458831787e-01 7.963799834251403809e-01 3.314287662506103516e-01 3.320237696170806885e-01
2.706000000000000000e+03 3.547591400146484375e+01 2.670157670974731445e+00 8.773718476295471191e-01 1.819591403007507324e+00 8.090890049934387207e-01 -1.128500461578369141e+00
2.707000000000000000e+03 2.432870674133300781e+01 -1.978397369384765625e+01 9.136380255222320557e-02 4.914271235466003418e-01 1.748372763395309448e-01 -7.312663644552230835e-02
2.708000000000000000e+03 2.476291275024414062e+01 -1.821844291687011719e+01 6.556570995599031448e-03 4.392746388912200928e-01 1.337493658065795898e-01 -1.412457674741744995e-01
2.709000000000000000e+03 2.699109649658203125e+01 3.203673362731933594e+00 1.977263689041137695e-01 2.613527178764343262e-01 1.377237290143966675e-01 1.719512939453125000e-01
2.710000000000000000e+03 2.619099044799804688e+01 -1.667812538146972656e+01 -2.321644499897956848e-02 4.050224721431732178e-01 1.145418062806129456e-01 -1.582984030246734619e-01
2.711000000000000000e+03 2.649083137512207031e+01 2.045364141464233398e+00 1.312331408262252808e-01 1.330793499946594238e-01 7.929374277591705322e-02 2.804844975471496582e-01
2.712000000000000000e+03 3.416254425048828125e+01 -1.643314933776855469e+01 5.645776987075805664e-01 1.523666501045227051e+00 6.264732480049133301e-01 9.677238464355468750e-01
2.713000000000000000e+03 2.691340637207031250e+01 1.693557548522949219e+01 -6.529413163661956787e-02 1.310486674308776855e+00 3.735577762126922607e-01 -4.661985039710998535e-01
2.714000000000000000e+03 6.721058654785156250e+01 -8.031624794006347656e+00 7.279479503631591797e-01 7.336864471435546875e+00 2.419443607330322266e+00 -1.247079521417617798e-01
2.715000000000000000e+03 6.719456481933593750e+01 -9.215739250183105469e+00 7.002481222152709961e-01 7.353444576263427734e+00 2.416107892990112305e+00 -2.416265457868576050e-01
2.716000000000000000e+03 6.876318359375000000e+01 -6.238736510276794434e-01 4.616299867630004883e-01 7.344056606292724609e+00 2.341705799102783203e+00 5.299740433692932129e-01
2.717000000000000000e+03 6.739228820800781250e+01 -9.702077507972717285e-01 5.708141326904296875e-01 7.418367385864257812e+00 2.396754503250122070e+00 5.503038763999938965e-01
2.718000000000000000e+03 6.688837432861328125e+01 -1.654927635192871094e+01 2.946932315826416016e-01 7.582232475280761719e+00 2.363077640533447266e+00 -7.159872651100158691e-01
2.719000000000000000e+03 6.679991912841796875e+01 -1.817345809936523438e+01 1.817781180143356323e-01 7.638420104980468750e+00 2.346059322357177734e+00 -7.561081051826477051e-01
2.720000000000000000e+03 6.819535064697265625e+01 -1.982432365417480469e+01 6.764350831508636475e-02 7.604302883148193359e+00 2.301584005355834961e+00 -7.274059057235717773e-01
2.721000000000000000e+03 2.765081214904785156e+01 -1.760336303710937500e+01 1.693965792655944824e-01 6.105186343193054199e-01 2.339745759963989258e-01 4.247165098786354065e-02
2.722000000000000000e+03 6.696939849853515625e+01 1.557257294654846191e+00 4.681438803672790527e-01 7.525267124176025391e+00 2.398023366928100586e+00 7.253119349479675293e-01
2.723000000000000000e+03 6.665634155273437500e+01 4.301100254058837891e+00 2.954900264739990234e-01 7.647325038909912109e+00 2.382844448089599609e+00 8.557178378105163574e-01
2.724000000000000000e+03 6.900572204589843750e+01 -5.247948169708251953e+00 5.597240924835205078e-01 7.228589057922363281e+00 2.336493968963623047e+00 1.425114721059799194e-01
2.725000000000000000e+03 6.847725677490234375e+01 -7.213798046112060547e+00 6.140497922897338867e-01 7.249691486358642578e+00 2.359122276306152344e+00 -2.014833129942417145e-02
2.726000000000000000e+03 3.078730201721191406e+01 9.101028442382812500e+00 2.750980556011199951e-01 1.583610057830810547e+00 5.576124191284179688e-01 -5.734728574752807617e-01
2.727000000000000000e+03 6.751419067382812500e+01 -1.395398235321044922e+01 4.275610446929931641e-01 7.446214199066162109e+00 2.362132549285888672e+00 -5.801529884338378906e-01
2.728000000000000000e+03 6.899752807617187500e+01 -1.405732059478759766e+01 3.468659222126007080e-01 7.363600730895996094e+00 2.313140153884887695e+00 -5.467441082000732422e-01
2.729000000000000000e+03 2.621500396728515625e+01 1.542746734619140625e+01 -6.202355399727821350e-02 1.065815806388854980e+00 3.011376559734344482e-01 -3.996357321739196777e-01
2.730000000000000000e+03 2.830168914794921875e+01 1.426023769378662109e+01 -6.778345908969640732e-03 1.447897315025329590e+00 4.323356747627258301e-01 -4.840159118175506592e-01
2.731000000000000000e+03 2.646009445190429688e+01 1.354865550994873047e+01 -3.772411867976188660e-02 9.935634136199951172e-01 2.867517769336700439e-01 -3.578095436096191406e-01
2.732000000000000000e+03 6.770907592773437500e+01 7.400148391723632812e+00 9.172666072845458984e-02 7.697592735290527344e+00 2.336795806884765625e+00 8.729861378669738770e-01
2.733000000000000000e+03 6.809300231933593750e+01 -1.324008083343505859e+01 4.452670514583587646e-01 7.399998664855957031e+00 2.353579759597778320e+00 -5.364317893981933594e-01
2.734000000000000000e+03 6.842760467529296875e+01 -1.220038986206054688e+01 4.666177332401275635e-01 7.343667984008789062e+00 2.343085765838623047e+00 -4.474904537200927734e-01
2.735000000000000000e+03 3.120977401733398438e+01 3.062671184539794922e+00 5.252605080604553223e-01 8.311793804168701172e-01 4.069319665431976318e-01 -2.984231710433959961e-01
2.736000000000000000e+03 2.806698799133300781e+01 6.182838916778564453e+00 2.488249838352203369e-01 6.748746037483215332e-01 2.771098911762237549e-01 -1.200196817517280579e-01
2.737000000000000000e+03 6.333090591430664062e+01 1.359519958496093750e+01 -2.641113400459289551e-01 7.887699604034423828e+00 2.287076473236083984e+00 8.275654911994934082e-01
2.738000000000000000e+03 6.781150054931640625e+01 1.318677425384521484e+01 -1.335467994213104248e-01 7.853227615356445312e+00 2.315904140472412109e+00 8.173840641975402832e-01
2.739000000000000000e+03 6.595243835449218750e+01 8.656463623046875000e+00 2.390576153993606567e-02 7.803782463073730469e+00 2.348306417465209961e+00 9.180396199226379395e-01
2.740000000000000000e+03 1.756877517700195312e+01 2.857014274597167969e+01 1.993972808122634888e-01 3.028199672698974609e-01 1.506651788949966431e-01 -4.370858427137136459e-03
2.741000000000000000e+03 1.370609664916992188e+01 2.821193313598632812e+01 1.878726333379745483e-01 -7.661645859479904175e-02 3.337685391306877136e-02 1.638817340135574341e-01
2.742000000000000000e+03 2.224730873107910156e+01 2.558578681945800781e+01 1.048816293478012085e-01 8.292204737663269043e-01 2.802306413650512695e-01 -2.646925747394561768e-01
2.743000000000000000e+03 2.009671783447265625e+01 2.750800895690917969e+01 1.688704043626785278e-01 6.192352175712585449e-01 2.364316880702972412e-01 -1.349327862262725830e-01
2.744000000000000000e+03 2.570865058898925781e+01 2.063916397094726562e+01 -1.466961391270160675e-02 1.265425324440002441e+00 3.752267062664031982e-01 -4.419837892055511475e-01
2.745000000000000000e+03 4.403139114379882812e+01 -2.475254058837890625e+00 7.609629631042480469e-01 1.113244628906250000e+01 3.568022966384887695e+00 -3.538491010665893555e+00
2.746000000000000000e+03 4.353190994262695312e+01 -1.097109031677246094e+01 5.131514668464660645e-01 9.519329071044921875e+00 3.009744167327880859e+00 3.750837564468383789e+00
2.747000000000000000e+03 4.192150115966796875e+01 -1.207012081146240234e+01 8.707368373870849609e-01 5.868906021118164062e+00 2.021892786026000977e+00 3.494065999984741211e+00
2.748000000000000000e+03 4.451394271850585938e+01 -1.171353435516357422e+01 -1.422655954957008362e-02 1.057308387756347656e+01 3.167657375335693359e+00 2.611899614334106445e+00
2.749000000000000000e+03 4.682757568359375000e+01 -8.923361778259277344e+00 3.317052125930786133e+00 1.394923686981201172e+01 5.179886817932128906e+00 -1.556199073791503906e+00
2.750000000000000000e+03 4.916923141479492188e+01 -7.095111846923828125e+00 5.419613361358642578e+00 1.052043056488037109e+01 4.782013416290283203e+00 -5.754182338714599609e-01
2.751000000000000000e+03 4.711610412597656250e+01 -8.862616539001464844e+00 3.571429491043090820e+00 1.350566864013671875e+01 5.123129367828369141e+00 -1.655444025993347168e+00
2.752000000000000000e+03 4.137063217163085938e+01 -1.274542427062988281e+01 8.234437108039855957e-01 5.211199760437011719e+00 1.810393095016479492e+00 3.175113677978515625e+00
2.753000000000000000e+03 4.455443191528320312e+01 -2.879352807998657227e+00 6.936857104301452637e-01 1.277956104278564453e+01 4.041974067687988281e+00 -2.903643846511840820e+00
2.754000000000000000e+03 4.648139953613281250e+01 -2.866718053817749023e+00 1.504112362861633301e+00 1.344796752929687500e+01 4.485624313354492188e+00 3.673035204410552979e-01
2.755000000000000000e+03 4.553541564941406250e+01 -9.936647415161132812e+00 6.525276303291320801e-01 1.415845680236816406e+01 4.443295478820800781e+00 9.234441518783569336e-01
2.756000000000000000e+03 4.567847824096679688e+01 -2.558450698852539062e+00 7.835583686828613281e-01 1.338074016571044922e+01 4.249289512634277344e+00 -8.863037824630737305e-01
2.757000000000000000e+03 4.295994186401367188e+01 -2.083948373794555664e+00 1.261972665786743164e+00 8.007618904113769531e+00 2.780877590179443359e+00 -4.000777244567871094e+00
2.758000000000000000e+03 4.302109527587890625e+01 -2.657598733901977539e+00 1.537605404853820801e+00 8.347665786743164062e+00 2.965581417083740234e+00 -4.375900745391845703e+00
2.759000000000000000e+03 4.751918411254882812e+01 -8.327781677246093750e+00 4.751492977142333984e+00 1.268545532226562500e+01 5.231084346771240234e+00 -1.741644382476806641e+00
2.760000000000000000e+03 4.862406539916992188e+01 -7.063867092132568359e+00 5.784719467163085938e+00 1.088939285278320312e+01 5.002233505249023438e+00 -6.185464859008789062e-01
2.761000000000000000e+03 4.881743621826171875e+01 -6.229105949401855469e+00 5.915791988372802734e+00 1.073609161376953125e+01 4.995564937591552734e+00 2.229231446981430054e-01
2.762000000000000000e+03 4.761683654785156250e+01 -3.819258451461791992e+00 3.512642621994018555e+00 1.261629199981689453e+01 4.838680267333984375e+00 1.543080210685729980e+00
2.763000000000000000e+03 4.672763824462890625e+01 -3.010945081710815430e+00 1.816090464591979980e+00 1.333731079101562500e+01 4.546020507812500000e+00 6.668614745140075684e-01
2.764000000000000000e+03 4.008348083496093750e+01 -9.909445047378540039e-01 1.542863726615905762e+00 3.238188028335571289e+00 1.434315562248229980e+00 -2.624701499938964844e+00
2.765000000000000000e+03 4.798644256591796875e+01 -3.690073728561401367e+00 3.439350843429565430e+00 1.214245796203613281e+01 4.674542427062988281e+00 1.522505640983581543e+00
2.766000000000000000e+03 4.058597183227539062e+01 -1.324687957763671875e+01 8.238880038261413574e-01 4.320220470428466797e+00 1.543232560157775879e+00 2.816391229629516602e+00
2.767000000000000000e+03 3.941543960571289062e+01 -2.953885197639465332e-01 1.398046374320983887e+00 3.004232168197631836e+00 1.320683598518371582e+00 -2.338911771774291992e+00
2.768000000000000000e+03 4.086481857299804688e+01 -1.351103591918945312e+01 7.411437630653381348e-01 4.729086399078369141e+00 1.641069054603576660e+00 2.895056486129760742e+00
2.769000000000000000e+03 4.884962081909179688e+01 -5.840414047241210938e+00 5.617589473724365234e+00 1.074961853027343750e+01 4.910162448883056641e+00 5.562816858291625977e-01
2.770000000000000000e+03 3.123093795776367188e+01 3.911998271942138672e+00 5.193100571632385254e-01 9.626990556716918945e-01 4.446027278900146484e-01 -3.660427629947662354e-01
2.771000000000000000e+03 3.965782928466796875e+01 -1.308855915069580078e+01 9.644700288772583008e-01 3.297411680221557617e+00 1.278564572334289551e+00 2.525985717773437500e+00
2.772000000000000000e+03 4.032817840576171875e+01 -1.304069423675537109e+01 9.071505069732666016e-01 3.919427871704101562e+00 1.447973489761352539e+00 2.788228511810302734e+00
2.773000000000000000e+03 3.899271392822265625e+01 8.918156623840332031e-01 1.195507526397705078e+00 3.111966133117675781e+00 1.292242050170898438e+00 -2.155944347381591797e+00
2.774000000000000000e+03 3.814223861694335938e+01 1.054992079734802246e+00 1.167064428329467773e+00 2.569631099700927734e+00 1.121008753776550293e+00 -1.859457254409790039e+00
2.775000000000000000e+03 2.772936630249023438e+01 3.493021249771118164e+00 2.506414055824279785e-01 3.775335550308227539e-01 1.884524822235107422e-01 9.203467518091201782e-02
2.776000000000000000e+03 3.688373947143554688e+01 -1.584773635864257812e+01 7.003465294837951660e-01 2.374959468841552734e+00 9.225917458534240723e-01 1.616614580154418945e+00
2.777000000000000000e+03 3.426634979248046875e+01 1.950265765190124512e+00 8.093115091323852539e-01 1.254711747169494629e+00 6.192069649696350098e-01 -7.808280587196350098e-01
2.778000000000000000e+03 3.653513336181640625e+01 -1.653466606140136719e+01 6.473159193992614746e-01 2.409679651260375977e+00 9.170986413955688477e-01 1.551526665687561035e+00
2.779000000000000000e+03 3.723774337768554688e+01 -1.688981628417968750e+01 6.122902631759643555e-01 2.785370349884033203e+00 1.019298195838928223e+00 1.684329628944396973e+00
2.780000000000000000e+03 3.771423339843750000e+01 -1.816946983337402344e+01 4.778760969638824463e-01 3.248745203018188477e+00 1.117986440658569336e+00 1.691979885101318359e+00
2.781000000000000000e+03 3.786609649658203125e+01 1.567250370979309082e+00 1.097589015960693359e+00 2.565039396286010742e+00 1.098788499832153320e+00 -1.771301984786987305e+00
2.782000000000000000e+03 3.714675903320312500e+01 2.952535152435302734e+00 8.975036740303039551e-01 2.594992399215698242e+00 1.047748804092407227e+00 -1.553492188453674316e+00
2.783000000000000000e+03 3.383732986450195312e+01 2.767179727554321289e+00 7.489278316497802734e-01 1.340213298797607422e+00 6.267423033714294434e-01 -7.567521929740905762e-01
2.784000000000000000e+03 3.662733840942382812e+01 2.506024360656738281e+00 9.370115995407104492e-01 2.235598802566528320e+00 9.517831206321716309e-01 -1.413248658180236816e+00
2.785000000000000000e+03 3.583363723754882812e+01 2.224296331405639648e+00 9.314493536949157715e-01 1.811282277107238770e+00 8.228194713592529297e-01 -1.199579477310180664e+00
2.786000000000000000e+03 6.571939849853515625e+01 -9.427558898925781250e+00 8.417401313781738281e-01 7.441513061523437500e+00 2.484976053237915039e+00 -2.844660580158233643e-01
2.787000000000000000e+03 6.609810638427734375e+01 -1.170496463775634766e+01 6.868427395820617676e-01 7.476702213287353516e+00 2.449063539505004883e+00 -4.885260760784149170e-01
2.788000000000000000e+03 6.676019287109375000e+01 -3.373482942581176758e+00 7.323557734489440918e-01 7.392294406890869141e+00 2.437395095825195312e+00 3.527949154376983643e-01
2.789000000000000000e+03 6.688464355468750000e+01 -4.259781360626220703e+00 7.558506727218627930e-01 7.364233970642089844e+00 2.436025381088256836e+00 2.658960223197937012e-01
2.790000000000000000e+03 3.136041069030761719e+01 -1.927778053283691406e+01 4.389694035053253174e-01 1.347640633583068848e+00 5.359830260276794434e-01 5.982735753059387207e-01
2.791000000000000000e+03 3.465461349487304688e+01 -1.735928916931152344e+01 5.807901620864868164e-01 1.849137783050537109e+00 7.289783954620361328e-01 1.102981328964233398e+00
2.792000000000000000e+03 3.683895111083984375e+01 -1.785476493835449219e+01 5.628719925880432129e-01 2.822708129882812500e+00 1.015673995018005371e+00 1.599471807479858398e+00
2.793000000000000000e+03 3.603793334960937500e+01 -1.734186172485351562e+01 5.938126444816589355e-01 2.391454935073852539e+00 8.955802321434020996e-01 1.415203213691711426e+00
2.794000000000000000e+03 6.934892272949218750e+01 -7.668565750122070312e+00 5.170658826828002930e-01 7.189616203308105469e+00 2.312004566192626953e+00 -7.338955998420715332e-02
2.795000000000000000e+03 3.116808700561523438e+01 4.779334545135498047e+00 5.032048225402832031e-01 1.092491507530212402e+00 4.787088930606842041e-01 -4.204864501953125000e-01
2.796000000000000000e+03 6.684821319580078125e+01 -1.519407272338867188e+01 3.797149062156677246e-01 7.540325164794921875e+00 2.376012086868286133e+00 -6.699624061584472656e-01
2.797000000000000000e+03 2.924340820312500000e+01 9.013242721557617188e+00 2.151366025209426880e-01 1.208314895629882812e+00 4.270354509353637695e-01 -4.030056297779083252e-01
2.798000000000000000e+03 3.006767082214355469e+01 9.898767471313476562e+00 2.039886564016342163e-01 1.471339225769042969e+00 5.025983452796936035e-01 -5.178232192993164062e-01
2.799000000000000000e+03 6.670507812500000000e+01 -2.001664161682128906e+01 6.018458306789398193e-02 7.696087837219238281e+00 2.326881647109985352e+00 -7.705761790275573730e-01
2.800000000000000000e+03 6.196923446655273438e+01 -2.499000740051269531e+01 -3.397237956523895264e-01 7.945813655853271484e+00 2.281826972961425781e+00 -6.842375397682189941e-01
2.801000000000000000e+03 6.706483459472656250e+01 -2.185962295532226562e+01 -3.903141617774963379e-02 7.719563961029052734e+00 2.304159879684448242e+00 -7.533669471740722656e-01
2.802000000000000000e+03 2.943405914306640625e+01 6.844602584838867188e+00 3.072642087936401367e-01 1.019450664520263672e+00 3.980144560337066650e-01 -3.167738914489746094e-01
2.803000000000000000e+03 2.723737525939941406e+01 1.487290477752685547e+01 -4.272987693548202515e-02 1.224106073379516602e+00 3.544128537178039551e-01 -4.368609786033630371e-01
2.804000000000000000e+03 2.901005363464355469e+01 1.547228050231933594e+01 -1.050433795899152756e-02 1.686720013618469238e+00 5.028647184371948242e-01 -5.713508129119873047e-01
2.805000000000000000e+03 6.521919250488281250e+01 1.382663726806640625e+01 -2.089641988277435303e-01 7.877277851104736328e+00 2.300493955612182617e+00 8.283731937408447266e-01
2.806000000000000000e+03 6.197509002685546875e+01 6.043548107147216797e+00 2.074001282453536987e-01 7.969233512878417969e+00 2.452990055084228516e+00 9.951806664466857910e-01
2.807000000000000000e+03 6.527220153808593750e+01 3.998174428939819336e+00 3.592048883438110352e-01 7.716455936431884766e+00 2.422698259353637695e+00 8.954578638076782227e-01
2.808000000000000000e+03 6.408359527587890625e+01 -4.421409368515014648e-01 8.009406924247741699e-01 7.634850025177001953e+00 2.530737161636352539e+00 6.935188770294189453e-01
2.809000000000000000e+03 6.557566070556640625e+01 -1.648720550537109375e+01 3.345025777816772461e-01 7.665818214416503906e+00 2.400096178054809570e+00 -7.577025294303894043e-01
2.810000000000000000e+03 2.921062850952148438e+01 7.635870456695556641e+00 2.785744965076446533e-01 1.075157403945922852e+00 4.061195850372314453e-01 -3.504458069801330566e-01
2.811000000000000000e+03 2.666803550720214844e+01 -1.938483810424804688e+01 1.849007308483123779e-01 6.654965877532958984e-01 2.551192045211791992e-01 6.040842458605766296e-02
2.812000000000000000e+03 2.995588493347167969e+01 -1.985921669006347656e+01 3.853140473365783691e-01 1.166532993316650391e+00 4.655541181564331055e-01 4.324768781661987305e-01
2.813000000000000000e+03 3.089286041259765625e+01 -1.779924392700195312e+01 3.819172680377960205e-01 1.014518380165100098e+00 4.189306795597076416e-01 4.406507015228271484e-01
2.814000000000000000e+03 2.750497245788574219e+01 2.032283020019531250e+01 -2.076809667050838470e-02 1.647157549858093262e+00 4.879168272018432617e-01 -5.233799219131469727e-01
2.815000000000000000e+03 2.714664077758789062e+01 1.861107826232910156e+01 -4.357330501079559326e-02 1.455395460128784180e+00 4.235466718673706055e-01 -5.074028968811035156e-01
2.816000000000000000e+03 2.464602661132812500e+01 -2.454023933410644531e+01 2.879419624805450439e-01 7.914801836013793945e-01 3.238266408443450928e-01 1.247766390442848206e-01
2.817000000000000000e+03 2.520377731323242188e+01 -2.223893165588378906e+01 2.366888523101806641e-01 7.094733119010925293e-01 2.838486433029174805e-01 8.696303516626358032e-02
2.818000000000000000e+03 2.625033378601074219e+01 2.295727157592773438e+01 4.694777540862560272e-03 1.467363476753234863e+00 4.416174888610839844e-01 -4.467623233795166016e-01
2.819000000000000000e+03 6.542743682861328125e+01 2.621989965438842773e+00 4.666919410228729248e-01 7.659365177154541016e+00 2.437817096710205078e+00 8.367717862129211426e-01
2.820000000000000000e+03 6.482768249511718750e+01 2.244507408142089844e+01 -3.481916785240173340e-01 7.815876483917236328e+00 2.240305423736572266e+00 5.494550466537475586e-01
2.821000000000000000e+03 6.293704986572265625e+01 1.735062026977539062e+01 -3.720111846923828125e-01 7.811657428741455078e+00 2.231894016265869141e+00 6.909647583961486816e-01
2.822000000000000000e+03 6.689525604248046875e+01 -1.109217357635498047e+01 6.482451558113098145e-01 7.408404350280761719e+00 2.416994810104370117e+00 -4.060311019420623779e-01
2.823000000000000000e+03 6.675827026367187500e+01 -1.417029762268066406e+01 4.432316422462463379e-01 7.510426521301269531e+00 2.386097431182861328e+00 -6.135737895965576172e-01
2.824000000000000000e+03 6.791203308105468750e+01 -5.137012481689453125e+00 6.687011122703552246e-01 7.294507980346679688e+00 2.388962745666503906e+00 1.603601127862930298e-01
2.825000000000000000e+03 4.531711196899414062e+01 -2.971624374389648438e+00 8.420788049697875977e-01 1.387218189239501953e+01 4.414278030395507812e+00 -1.382570505142211914e+00
2.826000000000000000e+03 4.414743804931640625e+01 -1.049595069885253906e+01 3.479635715484619141e-01 1.123033142089843750e+01 3.473488569259643555e+00 3.371679306030273438e+00
2.827000000000000000e+03 4.461478805541992188e+01 -1.110424327850341797e+01 7.874774932861328125e-02 1.143479251861572266e+01 3.454061985015869141e+00 2.674648046493530273e+00
2.828000000000000000e+03 4.519149780273437500e+01 -2.677013874053955078e+00 6.687769293785095215e-01 1.327963829040527344e+01 4.184524536132812500e+00 -1.665153384208679199e+00
2.829000000000000000e+03 4.264253616333007812e+01 -1.146477794647216797e+01 7.954747080802917480e-01 7.243600845336914062e+00 2.411722660064697266e+00 3.788771390914916992e+00
2.830000000000000000e+03 4.238672637939453125e+01 -1.232970046997070312e+01 6.483575701713562012e-01 6.722699642181396484e+00 2.211317062377929688e+00 3.504760265350341797e+00
2.831000000000000000e+03 4.324079132080078125e+01 -2.381295442581176758e+00 1.242136597633361816e+00 8.857808113098144531e+00 3.029983282089233398e+00 -4.122948169708251953e+00
2.832000000000000000e+03 4.355727005004882812e+01 -1.824864387512207031e+00 7.960977554321289062e-01 9.428082466125488281e+00 3.067254066467285156e+00 -3.595919847488403320e+00
2.833000000000000000e+03 4.421084594726562500e+01 -1.126819324493408203e+01 1.462540477514266968e-01 1.056365108489990234e+01 3.212971687316894531e+00 3.051857709884643555e+00
2.834000000000000000e+03 4.267583465576171875e+01 -2.382409572601318359e+00 1.580259799957275391e+00 7.283580780029296875e+00 2.659152030944824219e+00 -4.167572021484375000e+00
2.835000000000000000e+03 4.697865295410156250e+01 -3.243123054504394531e+00 2.346063375473022461e+00 1.318286418914794922e+01 4.658678531646728516e+00 1.024959683418273926e+00
2.836000000000000000e+03 4.109382629394531250e+01 -1.306105899810791016e+01 8.205325007438659668e-01 4.834110736846923828e+00 1.696392893791198730e+00 3.051350593566894531e+00
2.837000000000000000e+03 4.879307937622070312e+01 -5.440955638885498047e+00 5.425863742828369141e+00 1.084005546569824219e+01 4.879776000976562500e+00 8.180423378944396973e-01
2.838000000000000000e+03 4.868955230712890625e+01 -4.173408985137939453e+00 4.154090881347656250e+00 1.128386497497558594e+01 4.631386756896972656e+00 1.457543373107910156e+00
2.839000000000000000e+03 4.010779953002929688e+01 -5.684702992439270020e-01 1.472500324249267578e+00 3.484989643096923828e+00 1.487246990203857422e+00 -2.644392967224121094e+00
2.840000000000000000e+03 4.724670791625976562e+01 -9.405982971191406250e+00 2.718298912048339844e+00 1.316831493377685547e+01 4.765984058380126953e+00 -1.367077827453613281e+00
2.841000000000000000e+03 4.177781677246093750e+01 -1.268352508544921875e+01 7.389594912528991699e-01 5.708890914916992188e+00 1.934355139732360840e+00 3.268166780471801758e+00
2.842000000000000000e+03 4.277264404296875000e+01 -1.206320381164550781e+01 5.551956295967102051e-01 7.400691986083984375e+00 2.386766433715820312e+00 3.506193399429321289e+00
2.843000000000000000e+03 4.792747497558593750e+01 -7.680240154266357422e+00 5.811256885528564453e+00 1.194611644744873047e+01 5.327211856842041016e+00 -1.369130492210388184e+00
2.844000000000000000e+03 4.920861816406250000e+01 -6.678405761718750000e+00 5.494711875915527344e+00 1.043605518341064453e+01 4.779230117797851562e+00 -2.073747813701629639e-01
2.845000000000000000e+03 4.933631134033203125e+01 -5.786768436431884766e+00 5.276570796966552734e+00 1.041621303558349609e+01 4.707835197448730469e+00 5.308465957641601562e-01
2.846000000000000000e+03 3.972370910644531250e+01 -5.203548669815063477e-01 1.456162929534912109e+00 3.149420261383056641e+00 1.381675004959106445e+00 -2.462662935256958008e+00
2.847000000000000000e+03 3.944814682006835938e+01 -1.418407630920410156e+01 7.954588532447814941e-01 3.518772363662719727e+00 1.294269323348999023e+00 2.390541553497314453e+00
2.848000000000000000e+03 3.831194305419921875e+01 5.183085799217224121e-01 1.238185644149780273e+00 2.489406108856201172e+00 1.118277549743652344e+00 -1.899099349975585938e+00
2.849000000000000000e+03 3.993397140502929688e+01 5.050888657569885254e-01 1.200833201408386230e+00 3.786689758300781250e+00 1.496256947517395020e+00 -2.512058734893798828e+00
2.850000000000000000e+03 4.015923309326171875e+01 -1.387507915496826172e+01 7.640094757080078125e-01 4.040766239166259766e+00 1.441432714462280273e+00 2.611696720123291016e+00
2.851000000000000000e+03 4.922756195068359375e+01 -4.837185859680175781e+00 4.666917324066162109e+00 1.065228271484375000e+01 4.595759868621826172e+00 1.133271098136901855e+00
2.852000000000000000e+03 3.827342224121093750e+01 1.915941476821899414e+00 1.034680247306823730e+00 2.936016082763671875e+00 1.191208958625793457e+00 -1.896963477134704590e+00
2.853000000000000000e+03 3.313031387329101562e+01 2.397313356399536133e+00 7.011446952819824219e-01 1.070522546768188477e+00 5.315001606941223145e-01 -5.657921433448791504e-01
2.854000000000000000e+03 3.246752929687500000e+01 2.107589244842529297e+00 6.226876378059387207e-01 9.019557237625122070e-01 4.573929905891418457e-01 -4.153128266334533691e-01
2.855000000000000000e+03 3.893951797485351562e+01 -1.630912208557128906e+01 5.625831484794616699e-01 3.635388851165771484e+00 1.259391546249389648e+00 2.071981191635131836e+00
2.856000000000000000e+03 3.262586212158203125e+01 3.210598230361938477e+00 6.324949860572814941e-01 1.119839906692504883e+00 5.257004499435424805e-01 -5.352249741554260254e-01
2.857000000000000000e+03 3.358956527709960938e+01 1.681028246879577637e+00 7.237356305122375488e-01 1.016602754592895508e+00 5.221015214920043945e-01 -5.875384211540222168e-01
2.858000000000000000e+03 3.454209899902343750e+01 3.090058326721191406e+00 7.872055172920227051e-01 1.591227054595947266e+00 7.135297656059265137e-01 -9.330580830574035645e-01
2.859000000000000000e+03 3.759901428222656250e+01 1.986505746841430664e+00 1.034620046615600586e+00 2.542380094528198242e+00 1.073099970817565918e+00 -1.711592197418212891e+00
2.860000000000000000e+03 3.759283065795898438e+01 3.953338861465454102e+00 7.595806121826171875e-01 3.070693969726562500e+00 1.149082422256469727e+00 -1.644976615905761719e+00
2.861000000000000000e+03 3.681796264648437500e+01 3.637163877487182617e+00 8.108217120170593262e-01 2.582651615142822266e+00 1.018041968345642090e+00 -1.463178753852844238e+00
2.862000000000000000e+03 3.606627655029296875e+01 2.770268678665161133e+00 9.027794599533081055e-01 2.059983491897583008e+00 8.888288736343383789e-01 -1.294741392135620117e+00
2.863000000000000000e+03 6.695305633544921875e+01 -5.061452865600585938e+00 7.457880377769470215e-01 7.349003791809082031e+00 2.428437471389770508e+00 1.809159517288208008e-01
2.864000000000000000e+03 6.624351501464843750e+01 -7.559007644653320312e+00 8.257371187210083008e-01 7.388482570648193359e+00 2.464265823364257812e+00 -8.940168470144271851e-02
2.865000000000000000e+03 3.264126205444335938e+01 -1.867884445190429688e+01 4.864183366298675537e-01 1.522768378257751465e+00 6.027560234069824219e-01 7.774232029914855957e-01
2.866000000000000000e+03 3.374683761596679688e+01 -1.803364181518554688e+01 5.357300639152526855e-01 1.715484023094177246e+00 6.753642559051513672e-01 9.544237256050109863e-01
2.867000000000000000e+03 2.924484443664550781e+01 5.936264038085937500e+00 3.499958515167236328e-01 8.850623965263366699e-01 3.705174922943115234e-01 -2.454190850257873535e-01
2.868000000000000000e+03 3.000243759155273438e+01 8.286687850952148438e+00 2.813631296157836914e-01 1.294261813163757324e+00 4.726874828338623047e-01 -4.472105205059051514e-01
2.869000000000000000e+03 3.019540596008300781e+01 4.876102447509765625e+00 4.339709281921386719e-01 9.093779921531677246e-01 4.030046761035919189e-01 -2.904514074325561523e-01
2.870000000000000000e+03 3.555731201171875000e+01 -2.031289672851562500e+01 4.356527626514434814e-01 2.715546846389770508e+00 9.453598856925964355e-01 1.263193845748901367e+00
2.871000000000000000e+03 3.208630752563476562e+01 5.427210807800292969e+00 5.396497249603271484e-01 1.406704545021057129e+00 5.839062929153442383e-01 -6.111952066421508789e-01
2.872000000000000000e+03 2.951361274719238281e+01 1.370861625671386719e+01 3.298676759004592896e-02 1.695563316345214844e+00 5.185650587081909180e-01 -5.732840895652770996e-01
2.873000000000000000e+03 2.802842712402343750e+01 1.120135974884033203e+01 8.846846967935562134e-02 1.159866094589233398e+00 3.745003640651702881e-01 -3.870951831340789795e-01
2.874000000000000000e+03 3.117823219299316406e+01 1.084620857238769531e+01 1.885167062282562256e-01 1.868177056312561035e+00 6.170081496238708496e-01 -6.709686517715454102e-01
2.875000000000000000e+03 6.618910217285156250e+01 -1.306725120544433594e+01 5.628686547279357910e-01 7.511167049407958984e+00 2.422210693359375000e+00 -5.652059316635131836e-01
2.876000000000000000e+03 6.381169891357421875e+01 -1.063174247741699219e+01 9.589180946350097656e-01 7.596951007843017578e+00 2.566760778427124023e+00 -4.515068829059600830e-01
2.877000000000000000e+03 6.570613098144531250e+01 -1.513350391387939453e+01 4.367343187332153320e-01 7.614755153656005859e+00 2.415446758270263672e+00 -7.049711942672729492e-01
2.878000000000000000e+03 2.847178459167480469e+01 -2.037847709655761719e+01 3.251293599605560303e-01 9.767376780509948730e-01 3.905601203441619873e-01 2.821328043937683105e-01
2.879000000000000000e+03 3.335891342163085938e+01 -2.000234222412109375e+01 4.861679077148437500e-01 1.949857354164123535e+00 7.308076024055480957e-01 9.345833659172058105e-01
2.880000000000000000e+03 6.730615997314453125e+01 -1.279470634460449219e+01 5.003322362899780273e-01 7.431394577026367188e+00 2.379518032073974609e+00 -5.299967527389526367e-01
2.881000000000000000e+03 6.387475967407226562e+01 -5.609472274780273438e+00 1.124028205871582031e+00 7.515407562255859375e+00 2.591830730438232422e+00 1.536841839551925659e-01
2.882000000000000000e+03 6.354935836791992188e+01 -1.938309478759765625e+01 1.017091497778892517e-01 7.878099918365478516e+00 2.393942594528198242e+00 -8.394249081611633301e-01
2.883000000000000000e+03 6.446875762939453125e+01 -2.166914749145507812e+01 -6.495740264654159546e-02 7.844756126403808594e+00 2.333939790725708008e+00 -7.964301109313964844e-01
2.884000000000000000e+03 6.414096832275390625e+01 -2.645453643798828125e+01 -3.233432173728942871e-01 7.876523017883300781e+00 2.265954017639160156e+00 -6.654275059700012207e-01
2.885000000000000000e+03 6.466829681396484375e+01 -2.402503967285156250e+01 -1.953615397214889526e-01 7.854551315307617188e+00 2.297756910324096680e+00 -7.385624051094055176e-01
2.886000000000000000e+03 2.149206542968750000e+01 -2.756593894958496094e+01 3.095954358577728271e-01 5.501915216445922852e-01 2.579360902309417725e-01 1.526123262010514736e-03
2.887000000000000000e+03 2.570416641235351562e+01 -2.043250656127929688e+01 1.974760442972183228e-01 6.471679806709289551e-01 2.533932030200958252e-01 4.094896465539932251e-02
2.888000000000000000e+03 2.701398277282714844e+01 -2.069705772399902344e+01 2.761670649051666260e-01 8.229825496673583984e-01 3.297448754310607910e-01 1.579918861389160156e-01
2.889000000000000000e+03 2.937953567504882812e+01 1.757461357116699219e+01 -3.593239933252334595e-02 1.890976548194885254e+00 5.565132498741149902e-01 -6.140992641448974609e-01
2.890000000000000000e+03 6.144702911376953125e+01 1.338294506072998047e+01 -3.232659697532653809e-01 7.898766040802001953e+00 2.272650003433227539e+00 7.949680685997009277e-01
2.891000000000000000e+03 6.444953918457031250e+01 1.739770126342773438e+01 -3.047079443931579590e-01 7.869334220886230469e+00 2.269387960433959961e+00 7.194357514381408691e-01
2.892000000000000000e+03 6.524298858642578125e+01 1.995494270324707031e+01 -3.252616822719573975e-01 7.857251167297363281e+00 2.259596824645996094e+00 6.359527111053466797e-01
2.893000000000000000e+03 4.388243103027343750e+01 -1.898213624954223633e+00 6.569563150405883789e-01 1.013696002960205078e+01 3.238174915313720703e+00 -3.383644342422485352e+00
2.894000000000000000e+03 4.423781585693359375e+01 -2.041094541549682617e+00 5.373282432556152344e-01 1.096778678894042969e+01 3.451534509658813477e+00 -3.061664342880249023e+00
2.895000000000000000e+03 4.488989639282226562e+01 -1.988202810287475586e+00 3.855418562889099121e-01 1.189706039428710938e+01 3.684780597686767578e+00 -2.222488164901733398e+00
2.896000000000000000e+03 4.140362167358398438e+01 -1.601103186607360840e+00 1.648995757102966309e+00 4.812888622283935547e+00 1.938565373420715332e+00 -3.411883115768432617e+00
2.897000000000000000e+03 4.552606964111328125e+01 -2.813585758209228516e+00 8.410158753395080566e-01 1.380787181854248047e+01 4.394666194915771484e+00 -1.065366864204406738e+00
2.898000000000000000e+03 4.346839141845703125e+01 -1.170914554595947266e+01 3.590361177921295166e-01 8.808734893798828125e+00 2.750331163406372070e+00 3.453742265701293945e+00
2.899000000000000000e+03 4.494565200805664062e+01 -1.063689231872558594e+01 1.615058034658432007e-01 1.256200695037841797e+01 3.817053794860839844e+00 2.153948783874511719e+00
2.900000000000000000e+03 4.725078201293945312e+01 -2.893861532211303711e+00 2.078625917434692383e+00 1.278017807006835938e+01 4.457641124725341797e+00 9.822124838829040527e-01
2.901000000000000000e+03 4.209052276611328125e+01 -1.454106926918029785e+00 1.404404401779174805e+00 6.109541893005371094e+00 2.254184007644653320e+00 -3.664029121398925781e+00
2.902000000000000000e+03 4.864837265014648438e+01 -5.024523735046386719e+00 5.142014980316162109e+00 1.110692119598388672e+01 4.874680995941162109e+00 1.180697202682495117e+00
2.903000000000000000e+03 4.505924224853515625e+01 -2.357732295989990234e+00 4.939070641994476318e-01 1.263510417938232422e+01 3.938703536987304688e+00 -1.972434520721435547e+00
2.904000000000000000e+03 4.986711883544921875e+01 -5.241456985473632812e+00 4.661485195159912109e+00 1.011250019073486328e+01 4.432195663452148438e+00 7.905076742172241211e-01
2.905000000000000000e+03 4.740496826171875000e+01 -9.059115409851074219e+00 3.399839401245117188e+00 1.305314922332763672e+01 4.935896396636962891e+00 -1.618346810340881348e+00
2.906000000000000000e+03 4.578027725219726562e+01 -1.031263828277587891e+01 5.802502632141113281e-01 1.358126926422119141e+01 4.248456001281738281e+00 7.258639335632324219e-01
2.907000000000000000e+03 4.678200912475585938e+01 -9.856425285339355469e+00 1.724813699722290039e+00 1.344322681427001953e+01 4.550412178039550781e+00 -7.736277580261230469e-01
2.908000000000000000e+03 4.100574111938476562e+01 -9.063981771469116211e-01 1.483290910720825195e+00 4.483178615570068359e+00 1.789940834045410156e+00 -3.153069019317626953e+00
2.909000000000000000e+03 4.699701690673828125e+01 -2.664538860321044922e+00 1.623188614845275879e+00 1.285951709747314453e+01 4.344811439514160156e+00 6.496204733848571777e-01
2.910000000000000000e+03 4.107681274414062500e+01 -1.424029827117919922e+01 5.437248349189758301e-01 5.139258861541748047e+00 1.704895019531250000e+00 2.786732435226440430e+00
2.911000000000000000e+03 4.609038162231445312e+01 -1.015803241729736328e+01 8.601790666580200195e-01 1.368609142303466797e+01 4.363881111145019531e+00 2.152813822031021118e-01
2.912000000000000000e+03 4.390185165405273438e+01 -1.192204093933105469e+01 1.116685867309570312e-01 9.519666671752929688e+00 2.889400720596313477e+00 3.027763128280639648e+00
2.913000000000000000e+03 4.739596176147460938e+01 -8.754312515258789062e+00 3.973461389541625977e+00 1.297436046600341797e+01 5.084346771240234375e+00 -1.720710515975952148e+00
2.914000000000000000e+03 4.828219604492187500e+01 -7.831936359405517578e+00 5.358705997467041016e+00 1.154981517791748047e+01 5.072556495666503906e+00 -1.334244370460510254e+00
2.915000000000000000e+03 4.137854385375976562e+01 -1.318791103363037109e+01 7.066048383712768555e-01 5.350948333740234375e+00 1.817265987396240234e+00 3.082892417907714844e+00
2.916000000000000000e+03 3.922967529296875000e+01 -1.475743389129638672e+01 7.362480759620666504e-01 3.539489746093750000e+00 1.282721400260925293e+00 2.279332637786865234e+00
2.917000000000000000e+03 3.936518096923828125e+01 1.266919136047363281e+00 1.093317151069641113e+00 3.572632789611816406e+00 1.399785041809082031e+00 -2.274315118789672852e+00
2.918000000000000000e+03 4.277518463134765625e+01 -1.257509040832519531e+01 4.056033194065093994e-01 7.411958694458007812e+00 2.345268726348876953e+00 3.268746852874755859e+00
2.919000000000000000e+03 4.931908035278320312e+01 -6.242856502532958984e+00 5.422302246093750000e+00 1.035147285461425781e+01 4.732132434844970703e+00 1.598111391067504883e-01
2.920000000000000000e+03 3.220518493652343750e+01 4.018108844757080078e+00 5.876784920692443848e-01 1.172452688217163086e+00 5.280393958091735840e-01 -5.283918380737304688e-01
2.921000000000000000e+03 4.013093948364257812e+01 -1.613868331909179688e+01 4.253385961055755615e-01 4.509818077087402344e+00 1.480546951293945312e+00 2.277522325515747070e+00
2.922000000000000000e+03 3.845618438720703125e+01 3.353556871414184570e+00 7.923970818519592285e-01 3.426389694213867188e+00 1.265635967254638672e+00 -1.874745965003967285e+00
2.923000000000000000e+03 3.525389099121093750e+01 3.351115942001342773e+00 8.213522434234619141e-01 1.865354657173156738e+00 8.060120940208435059e-01 -1.110115766525268555e+00
2.924000000000000000e+03 3.422930908203125000e+01 3.938978672027587891e+00 7.327086925506591797e-01 1.697626113891601562e+00 7.291004657745361328e-01 -9.241927266120910645e-01
2.925000000000000000e+03 3.602477645874023438e+01 3.477022886276245117e+00 8.425014615058898926e-01 2.214067697525024414e+00 9.169707298278808594e-01 -1.305171966552734375e+00
2.926000000000000000e+03 3.842190551757812500e+01 -1.876185989379882812e+01 3.511519730091094971e-01 3.776469707489013672e+00 1.238286495208740234e+00 1.737496495246887207e+00
2.927000000000000000e+03 3.741366958618164062e+01 2.406707048416137695e+00 9.718930721282958984e-01 2.603594541549682617e+00 1.072646260261535645e+00 -1.653243899345397949e+00
2.928000000000000000e+03 3.768924331665039062e+01 5.198386192321777344e+00 5.834143757820129395e-01 3.372550725936889648e+00 1.186789512634277344e+00 -1.602310776710510254e+00
2.929000000000000000e+03 3.449595642089843750e+01 -1.915737152099609375e+01 5.181329846382141113e-01 2.128090143203735352e+00 7.938668727874755859e-01 1.109463334083557129e+00
2.930000000000000000e+03 6.459384918212890625e+01 -1.488633060455322266e+01 5.058360099792480469e-01 7.683115005493164062e+00 2.456685304641723633e+00 -7.292580604553222656e-01
2.931000000000000000e+03 6.586670684814453125e+01 -1.399380970001220703e+01 5.145920515060424805e-01 7.562001705169677734e+00 2.422978162765502930e+00 -6.363560557365417480e-01
2.932000000000000000e+03 6.472364044189453125e+01 -1.086934089660644531e+01 8.310731053352355957e-01 7.537953376770019531e+00 2.510707855224609375e+00 -4.451383948326110840e-01
2.933000000000000000e+03 3.200640487670898438e+01 4.767882823944091797e+00 5.414966940879821777e-01 1.260545849800109863e+00 5.406127572059631348e-01 -5.425612330436706543e-01
2.934000000000000000e+03 3.537594985961914062e+01 -1.824626541137695312e+01 5.579344630241394043e-01 2.274083852767944336e+00 8.496055006980895996e-01 1.255964636802673340e+00
2.935000000000000000e+03 3.636890792846679688e+01 -1.905554962158203125e+01 4.778653383255004883e-01 2.856914997100830078e+00 1.000434041023254395e+00 1.437255501747131348e+00
2.936000000000000000e+03 6.663299560546875000e+01 -6.770177364349365234e+00 7.793976664543151855e-01 7.351152420043945312e+00 2.439165115356445312e+00 1.331635750830173492e-02
2.937000000000000000e+03 3.047472000122070312e+01 6.726660251617431641e+00 3.740696310997009277e-01 1.223398327827453613e+00 4.792403578758239746e-01 -4.368741512298583984e-01
2.938000000000000000e+03 3.085327720642089844e+01 7.650518894195556641e+00 3.451449275016784668e-01 1.420341849327087402e+00 5.296460390090942383e-01 -5.260316133499145508e-01
2.939000000000000000e+03 6.431313323974609375e+01 -3.724427938461303711e+00 1.004525899887084961e+00 7.524194240570068359e+00 2.558615922927856445e+00 3.699421882629394531e-01
2.940000000000000000e+03 6.380527877807617188e+01 -1.956201076507568359e+00 9.440162181854248047e-01 7.601341247558593750e+00 2.563607215881347656e+00 5.723361968994140625e-01
2.941000000000000000e+03 6.682559967041015625e+01 2.922528743743896484e+00 3.847162425518035889e-01 7.587398052215576172e+00 2.391634225845336914e+00 8.016517162322998047e-01
2.942000000000000000e+03 3.029564285278320312e+01 5.782074451446533203e+00 4.117885231971740723e-01 1.050807356834411621e+00 4.387787580490112305e-01 -3.605829477310180664e-01
2.943000000000000000e+03 6.398663330078125000e+01 -1.775081634521484375e+01 2.520192861557006836e-01 7.810112476348876953e+00 2.418639421463012695e+00 -8.248722553253173828e-01
2.944000000000000000e+03 6.431419372558593750e+01 -1.624450683593750000e+01 3.926243484020233154e-01 7.745385169982910156e+00 2.441402912139892578e+00 -7.896624803543090820e-01
2.945000000000000000e+03 6.352653884887695312e+01 -2.472683334350585938e+01 -2.620757520198822021e-01 7.896389007568359375e+00 2.290293931961059570e+00 -7.125700116157531738e-01
2.946000000000000000e+03 2.810100936889648438e+01 1.632945060729980469e+01 -4.051594436168670654e-02 1.533735990524291992e+00 4.479660093784332275e-01 -5.176354646682739258e-01
2.947000000000000000e+03 6.585083007812500000e+01 -1.073704051971435547e+01 7.296443581581115723e-01 7.466341972351074219e+00 2.458795785903930664e+00 -4.095888733863830566e-01
2.948000000000000000e+03 3.118904685974121094e+01 -2.327230262756347656e+01 3.996618092060089111e-01 1.838775396347045898e+00 6.715312004089355469e-01 6.613078117370605469e-01
2.949000000000000000e+03 3.201199340820312500e+01 -2.079187393188476562e+01 4.490324556827545166e-01 1.716240882873535156e+00 6.495819687843322754e-01 7.399388551712036133e-01
2.950000000000000000e+03 6.271738815307617188e+01 2.584325408935546875e+01 -3.966395854949951172e-01 7.637115955352783203e+00 2.172142982482910156e+00 4.128136932849884033e-01
2.951000000000000000e+03 4.437444305419921875e+01 -1.541780233383178711e+00 3.781565427780151367e-01 1.069197845458984375e+01 3.321040391921997070e+00 -2.749186754226684570e+00
2.952000000000000000e+03 4.799233627319335938e+01 -8.032142639160156250e+00 5.232785224914550781e+00 1.198742008209228516e+01 5.166061401367187500e+00 -1.558186531066894531e+00
2.953000000000000000e+03 4.822821807861328125e+01 -8.448231697082519531e+00 4.542380332946777344e+00 1.180369567871093750e+01 4.903822898864746094e+00 -1.560234546661376953e+00
2.954000000000000000e+03 4.144739913940429688e+01 -6.854264736175537109e-01 1.299991607666015625e+00 5.222109794616699219e+00 1.956630468368530273e+00 -3.233333587646484375e+00
2.955000000000000000e+03 4.326632690429687500e+01 -1.888486504554748535e+00 1.003666520118713379e+00 8.701418876647949219e+00 2.911525487899780273e+00 -3.785843372344970703e+00
2.956000000000000000e+03 4.589273071289062500e+01 -2.738030195236206055e+00 9.725203514099121094e-01 1.359861564636230469e+01 4.371340751647949219e+00 -5.073629021644592285e-01
2.957000000000000000e+03 4.485031509399414062e+01 -1.154309558868408203e+01 -5.446491762995719910e-02 1.115809726715087891e+01 3.331089496612548828e+00 2.320881605148315430e+00
2.958000000000000000e+03 4.660806274414062500e+01 -1.033810234069824219e+01 1.094207882881164551e+00 1.322237014770507812e+01 4.294973373413085938e+00 -2.955377399921417236e-01
2.959000000000000000e+03 4.499404144287109375e+01 -1.103784179687500000e+01 6.530690193176269531e-02 1.202768802642822266e+01 3.627898454666137695e+00 2.158262968063354492e+00
2.960000000000000000e+03 4.529384994506835938e+01 -1.800657033920288086e+00 3.720498383045196533e-01 1.204262065887451172e+01 3.724401235580444336e+00 -1.666383385658264160e+00
2.961000000000000000e+03 4.061289596557617188e+01 -1.408611202239990234e+01 6.568368077278137207e-01 4.600585460662841797e+00 1.577226758003234863e+00 2.702553749084472656e+00
2.962000000000000000e+03 4.476352310180664062e+01 -1.554806828498840332e+00 3.115544915199279785e-01 1.126027870178222656e+01 3.471549987792968750e+00 -2.358862638473510742e+00
2.963000000000000000e+03 4.734134674072265625e+01 -1.029467868804931641e+01 1.615588426589965820e+00 1.263258934020996094e+01 4.274453639984130859e+00 -8.746926784515380859e-01
2.964000000000000000e+03 4.832852172851562500e+01 -3.070518493652343750e+00 2.745623111724853516e+00 1.175658416748046875e+01 4.350662231445312500e+00 1.400723814964294434e+00
2.965000000000000000e+03 4.330124664306640625e+01 -1.218265533447265625e+01 3.074845969676971436e-01 8.327830314636230469e+00 2.590594530105590820e+00 3.364229440689086914e+00
2.966000000000000000e+03 4.227068710327148438e+01 -2.126857995986938477e+00 1.623318791389465332e+00 6.334311008453369141e+00 2.387288808822631836e+00 -3.974260568618774414e+00
2.967000000000000000e+03 4.760907745361328125e+01 -9.674424171447753906e+00 2.544722557067871094e+00 1.260866355895996094e+01 4.546015739440917969e+00 -1.342208147048950195e+00
2.968000000000000000e+03 4.010024261474609375e+01 -1.694220006465911865e-01 1.362185239791870117e+00 3.721650600433349609e+00 1.525150775909423828e+00 -2.651523113250732422e+00
2.969000000000000000e+03 4.691326141357421875e+01 -1.025294780731201172e+01 1.356564164161682129e+00 1.303165912628173828e+01 4.316466808319091797e+00 -5.729951858520507812e-01
2.970000000000000000e+03 4.244850158691406250e+01 -1.709079623222351074e+00 1.352197170257568359e+00 6.830014705657958984e+00 2.454663515090942383e+00 -3.825327873229980469e+00
2.971000000000000000e+03 3.991294479370117188e+01 -1.435447788238525391e+01 7.316944003105163574e-01 3.980103969573974609e+00 1.413539528846740723e+00 2.513622045516967773e+00
2.972000000000000000e+03 4.434670257568359375e+01 -1.205655574798583984e+01 -3.041579574346542358e-02 1.007965755462646484e+01 3.014772415161132812e+00 2.701572179794311523e+00
2.973000000000000000e+03 4.123544311523437500e+01 -1.366466808319091797e+01 6.211834549903869629e-01 5.184514522552490234e+00 1.741709351539611816e+00 2.941777944564819336e+00
2.974000000000000000e+03 4.173436355590820312e+01 -1.120699048042297363e+00 1.397493004798889160e+00 5.551899909973144531e+00 2.084817886352539062e+00 -3.438576698303222656e+00
2.975000000000000000e+03 4.886727142333984375e+01 -3.575263738632202148e+00 3.335637807846069336e+00 1.121028423309326172e+01 4.363776683807373047e+00 1.431341290473937988e+00
2.976000000000000000e+03 4.992841339111328125e+01 -5.704274177551269531e+00 4.845387458801269531e+00 1.001552581787109375e+01 4.458273887634277344e+00 5.125790238380432129e-01
2.977000000000000000e+03 4.734349060058593750e+01 -2.495506763458251953e+00 1.665133237838745117e+00 1.244709587097167969e+01 4.233668804168701172e+00 7.878586053848266602e-01
2.978000000000000000e+03 4.047760391235351562e+01 -1.247231215238571167e-01 1.312891364097595215e+00 4.134370326995849609e+00 1.634178519248962402e+00 -2.780578374862670898e+00
2.979000000000000000e+03 4.956058502197265625e+01 -6.872350215911865234e+00 5.144670963287353516e+00 1.018163490295410156e+01 4.597891807556152344e+00 -3.316998183727264404e-01
2.980000000000000000e+03 4.172346496582031250e+01 -1.323213672637939453e+01 6.019223332405090332e-01 5.761417865753173828e+00 1.909002065658569336e+00 3.079406261444091797e+00
2.981000000000000000e+03 4.027672576904296875e+01 -1.460888481140136719e+01 6.195619106292724609e-01 4.394203186035156250e+00 1.504129528999328613e+00 2.539229869842529297e+00
2.982000000000000000e+03 4.041091156005859375e+01 2.906128764152526855e-01 1.207323074340820312e+00 4.175959587097167969e+00 1.614984869956970215e+00 -2.700746059417724609e+00
2.983000000000000000e+03 3.974551773071289062e+01 1.521254062652587891e+00 1.000422239303588867e+00 3.941329479217529297e+00 1.482525467872619629e+00 -2.347141265869140625e+00
2.984000000000000000e+03 3.991996002197265625e+01 -1.748514366149902344e+01 3.159170448780059814e-01 4.547050952911376953e+00 1.458890318870544434e+00 2.105953216552734375e+00
2.985000000000000000e+03 3.906744003295898438e+01 1.830103754997253418e+00 1.011002302169799805e+00 3.480440378189086914e+00 1.347432851791381836e+00 -2.124260902404785156e+00
2.986000000000000000e+03 4.997577285766601562e+01 -4.256031990051269531e+00 3.942300081253051758e+00 1.021776485443115234e+01 4.248019218444824219e+00 1.157859802246093750e+00
2.987000000000000000e+03 4.930202102661132812e+01 -4.245655059814453125e+00 4.111673355102539062e+00 1.071921443939208984e+01 4.449266433715820312e+00 1.299472928047180176e+00
2.988000000000000000e+03 3.868823242187500000e+01 2.380909442901611328e+00 9.494383931159973145e-01 3.318729162216186523e+00 1.280450224876403809e+00 -2.007009983062744141e+00
2.989000000000000000e+03 3.787225341796875000e+01 2.326253414154052734e+00 9.770534634590148926e-01 2.811183214187622070e+00 1.136471033096313477e+00 -1.775190234184265137e+00
2.990000000000000000e+03 3.817744445800781250e+01 2.776293516159057617e+00 9.057245254516601562e-01 3.115803241729736328e+00 1.206458330154418945e+00 -1.840173244476318359e+00
2.991000000000000000e+03 3.306132507324218750e+01 4.380457878112792969e+00 6.312618255615234375e-01 1.447371721267700195e+00 6.235900521278381348e-01 -7.073873877525329590e-01
2.992000000000000000e+03 3.244404220581054688e+01 6.134866714477539062e+00 5.040426254272460938e-01 1.610920310020446777e+00 6.344888806343078613e-01 -6.994596719741821289e-01
2.993000000000000000e+03 3.343294906616210938e+01 3.589145183563232422e+00 6.879477500915527344e-01 1.407018542289733887e+00 6.284899115562438965e-01 -7.295186519622802734e-01
2.994000000000000000e+03 3.585537338256835938e+01 4.269926071166992188e+00 7.478540539741516113e-01 2.328675746917724609e+00 9.229589700698852539e-01 -1.267720103263854980e+00
2.995000000000000000e+03 6.491074371337890625e+01 -1.365778923034667969e+01 6.043698787689208984e-01 7.619049072265625000e+00 2.467025756835937500e+00 -6.537743210792541504e-01
2.996000000000000000e+03 3.214553833007812500e+01 8.850421905517578125e+00 3.294827044010162354e-01 1.886433124542236328e+00 6.647747159004211426e-01 -7.448977828025817871e-01
2.997000000000000000e+03 6.365322494506835938e+01 -9.135309219360351562e+00 1.055190443992614746e+00 7.558465957641601562e+00 2.584096908569335938e+00 -2.938193678855895996e-01
2.998000000000000000e+03 6.439281463623046875e+01 -1.203771305084228516e+01 7.738007307052612305e-01 7.591872215270996094e+00 2.509701967239379883e+00 -5.556107163429260254e-01
2.999000000000000000e+03 3.750118255615234375e+01 -1.930599021911621094e+01 3.932358622550964355e-01 3.343265533447265625e+00 1.120950460433959961e+00 1.564971446990966797e+00
3.000000000000000000e+03 3.267277908325195312e+01 5.041096210479736328e+00 5.878726840019226074e-01 1.458314180374145508e+00 6.138560771942138672e-01 -6.869456768035888672e-01
3.001000000000000000e+03 3.430226135253906250e+01 -2.138649177551269531e+01 4.221449494361877441e-01 2.434385061264038086e+00 8.569589853286743164e-01 1.049717426300048828e+00
3.002000000000000000e+03 6.500820922851562500e+01 -6.773150920867919922e+00 1.002378344535827637e+00 7.454366207122802734e+00 2.537023305892944336e+00 6.473287474364042282e-03
3.003000000000000000e+03 6.408259582519531250e+01 -8.042246818542480469e+00 1.058205723762512207e+00 7.515206813812255859e+00 2.572023630142211914e+00 -1.660278439521789551e-01
3.004000000000000000e+03 6.768388366699218750e+01 -2.079590559005737305e+00 6.158607006072998047e-01 7.366856575012207031e+00 2.394815206527709961e+00 4.526256918907165527e-01
3.005000000000000000e+03 6.600802612304687500e+01 -1.501995086669921875e+00 7.189764380455017090e-01 7.483512878417968750e+00 2.460746765136718750e+00 5.481019616127014160e-01
3.006000000000000000e+03 3.182901000976562500e+01 7.267933845520019531e+00 4.145126640796661377e-01 1.616305112838745117e+00 6.092453598976135254e-01 -6.493857502937316895e-01
3.007000000000000000e+03 6.409967803955078125e+01 1.041597127914428711e+00 6.610993742942810059e-01 7.685241699218750000e+00 2.503902196884155273e+00 7.975666522979736328e-01
3.008000000000000000e+03 6.245051193237304688e+01 -1.824772000312805176e+00 1.064407587051391602e+00 7.700913429260253906e+00 2.629596233367919922e+00 6.329541802406311035e-01
3.009000000000000000e+03 3.266448211669921875e+01 1.302986431121826172e+01 7.678804546594619751e-02 2.418762922286987305e+00 7.486652731895446777e-01 -7.916408181190490723e-01
3.010000000000000000e+03 3.014742851257324219e+01 1.179706382751464844e+01 1.251472532749176025e-01 1.710488080978393555e+00 5.506905913352966309e-01 -5.998050570487976074e-01
3.011000000000000000e+03 6.536937713623046875e+01 -1.251499462127685547e+01 6.688767075538635254e-01 7.542296409606933594e+00 2.463351964950561523e+00 -5.550847053527832031e-01
3.012000000000000000e+03 3.884996032714843750e+01 -1.715604591369628906e+01 4.629738330841064453e-01 3.738086462020874023e+00 1.260318040847778320e+00 1.934557437896728516e+00
3.013000000000000000e+03 4.136370468139648438e+01 -1.748060989379882812e+01 6.525379419326782227e-02 5.549525260925292969e+00 1.684433698654174805e+00 2.153838157653808594e+00
3.014000000000000000e+03 6.616195678710937500e+01 -4.776362419128417969e+00 8.223792314529418945e-01 7.399308204650878906e+00 2.466506242752075195e+00 2.253741323947906494e-01
3.015000000000000000e+03 6.581967926025390625e+01 -3.206411123275756836e+00 8.020451664924621582e-01 7.447246074676513672e+00 2.474787235260009766e+00 3.895440399646759033e-01
3.016000000000000000e+03 6.188479614257812500e+01 -1.538762187957763672e+01 5.570387244224548340e-01 7.909493446350097656e+00 2.539959669113159180e+00 -8.379120826721191406e-01
3.017000000000000000e+03 6.526568603515625000e+01 -4.312087535858154297e+00 9.206682443618774414e-01 7.458920955657958984e+00 2.513876914978027344e+00 2.946917414665222168e-01
3.018000000000000000e+03 6.348408126831054688e+01 -1.452408790588378906e+01 5.953207612037658691e-01 7.750959396362304688e+00 2.503884077072143555e+00 -7.506653070449829102e-01
3.019000000000000000e+03 6.211935806274414062e+01 -1.886498832702636719e+01 1.444592177867889404e-01 7.968894481658935547e+00 2.434005975723266602e+00 -8.652859330177307129e-01
3.020000000000000000e+03 3.000388717651367188e+01 1.499170875549316406e+01 2.269383892416954041e-02 1.903484463691711426e+00 5.778535008430480957e-01 -6.279319524765014648e-01
3.021000000000000000e+03 3.145169830322265625e+01 1.659534072875976562e+01 -4.116165265440940857e-02 2.348491668701171875e+00 6.921989917755126953e-01 -7.020714282989501953e-01
3.022000000000000000e+03 6.409829711914062500e+01 2.403605222702026367e+00 5.546516180038452148e-01 7.732293605804443359e+00 2.486083745956420898e+00 8.749113678932189941e-01
3.023000000000000000e+03 6.266591262817382812e+01 1.042330980300903320e+00 7.580620050430297852e-01 7.787818431854248047e+00 2.563764095306396484e+00 8.488698601722717285e-01
3.024000000000000000e+03 6.283190917968750000e+01 2.351038932800292969e+00 6.160774230957031250e-01 7.824867248535156250e+00 2.532283306121826172e+00 9.250552058219909668e-01
3.025000000000000000e+03 6.232110214233398438e+01 -2.286180877685546875e+01 -2.016400694847106934e-01 7.961400032043457031e+00 2.327928066253662109e+00 -7.733960747718811035e-01
3.026000000000000000e+03 6.249043273925781250e+01 -2.715978050231933594e+01 -4.044775068759918213e-01 7.907812595367431641e+00 2.251000642776489258e+00 -6.233390569686889648e-01
3.027000000000000000e+03 4.517103958129882812e+01 -1.353140830993652344e+00 2.415966391563415527e-01 1.141956806182861328e+01 3.498349428176879883e+00 -1.852290511131286621e+00
3.028000000000000000e+03 4.610630035400390625e+01 -2.517559766769409180e+00 9.779927730560302734e-01 1.323407649993896484e+01 4.263620853424072266e+00 -3.633021414279937744e-01
3.029000000000000000e+03 4.547173690795898438e+01 -1.045508289337158203e+01 3.747012913227081299e-01 1.319559192657470703e+01 4.071087837219238281e+00 1.295044422149658203e+00
3.030000000000000000e+03 4.088998031616210938e+01 -4.736431539058685303e-01 1.361691594123840332e+00 4.505263328552246094e+00 1.760086417198181152e+00 -3.026905059814453125e+00
3.031000000000000000e+03 4.381674194335937500e+01 -1.242109584808349609e+01 6.307566910982131958e-02 9.064484596252441406e+00 2.738267898559570312e+00 2.944731712341308594e+00
3.032000000000000000e+03 4.574071121215820312e+01 -2.155816555023193359e+00 5.796353816986083984e-01 1.277388858795166016e+01 4.006057262420654297e+00 -9.835329651832580566e-01
3.033000000000000000e+03 4.776358795166015625e+01 -2.530533075332641602e+00 1.945654869079589844e+00 1.211712646484375000e+01 4.218834400177001953e+00 1.040366053581237793e+00
3.034000000000000000e+03 4.788752746582031250e+01 -3.258515357971191406e+00 2.813311338424682617e+00 1.220141315460205078e+01 4.504417419433593750e+00 1.368825912475585938e+00
3.035000000000000000e+03 4.500092315673828125e+01 -9.100761413574218750e-01 1.523469537496566772e-01 1.073426342010498047e+01 3.265983104705810547e+00 -2.038995742797851562e+00
3.036000000000000000e+03 4.306037521362304688e+01 -1.334501934051513672e+01 1.501561701297760010e-01 7.601482868194580078e+00 2.325491666793823242e+00 2.957722425460815430e+00
3.037000000000000000e+03 4.606945037841796875e+01 -2.195143461227416992e+00 7.295185923576354980e-01 1.283350467681884766e+01 4.068906784057617188e+00 -5.733821392059326172e-01
3.038000000000000000e+03 4.897496032714843750e+01 -7.845659732818603516e+00 4.984143733978271484e+00 1.077726840972900391e+01 4.728423595428466797e+00 -1.067961692810058594e+00
3.039000000000000000e+03 4.948898696899414062e+01 -3.565120220184326172e+00 3.348947525024414062e+00 1.069371128082275391e+01 4.212797641754150391e+00 1.368011236190795898e+00
3.040000000000000000e+03 4.396185302734375000e+01 -1.420712828636169434e+00 4.917965829372406006e-01 9.898941993713378906e+00 3.117221593856811523e+00 -3.086915016174316406e+00
3.041000000000000000e+03 4.687141799926757812e+01 -1.056793117523193359e+01 1.055916309356689453e+00 1.283822059631347656e+01 4.168241024017333984e+00 -3.536227941513061523e-01
3.042000000000000000e+03 4.280397415161132812e+01 -1.719902157783508301e+00 1.197951436042785645e+00 7.532979011535644531e+00 2.619279146194458008e+00 -3.836655378341674805e+00
3.043000000000000000e+03 4.276511764526367188e+01 -1.376803779602050781e+01 1.788244396448135376e-01 7.153652191162109375e+00 2.199743032455444336e+00 2.923913955688476562e+00
3.044000000000000000e+03 4.086896514892578125e+01 -6.515394896268844604e-02 1.222918152809143066e+00 4.639041423797607422e+00 1.758587837219238281e+00 -2.912765026092529297e+00
3.045000000000000000e+03 4.513877487182617188e+01 -1.194272422790527344e+01 -1.236855685710906982e-01 1.099850463867187500e+01 3.262445688247680664e+00 1.939061045646667480e+00
3.046000000000000000e+03 4.564385223388671875e+01 -1.076950168609619141e+01 2.947487235069274902e-01 1.278876972198486328e+01 3.925055503845214844e+00 1.098340988159179688e+00
3.047000000000000000e+03 4.250160980224609375e+01 -4.066459834575653076e-01 8.569193482398986816e-01 6.925729274749755859e+00 2.334794521331787109e+00 -3.245294570922851562e+00
3.048000000000000000e+03 4.024406814575195312e+01 6.946626901626586914e-01 1.132812738418579102e+00 4.152340888977050781e+00 1.585546016693115234e+00 -2.601318836212158203e+00
3.049000000000000000e+03 4.776250839233398438e+01 -8.628051757812500000e+00 4.272524833679199219e+00 1.246664810180664062e+01 5.021751880645751953e+00 -1.683492183685302734e+00
3.050000000000000000e+03 4.944346618652343750e+01 -7.555566310882568359e+00 4.939930915832519531e+00 1.041529369354248047e+01 4.606567382812500000e+00 -8.128740191459655762e-01
3.051000000000000000e+03 4.837968826293945312e+01 -3.568386554718017578e+00 3.327805519104003906e+00 1.168433570861816406e+01 4.503642559051513672e+00 1.480365753173828125e+00
3.052000000000000000e+03 4.788438034057617188e+01 -9.053887367248535156e+00 3.548792839050292969e+00 1.233794784545898438e+01 4.766022205352783203e+00 -1.599169969558715820e+00
3.053000000000000000e+03 3.985539627075195312e+01 -1.544091129302978516e+01 5.570789575576782227e-01 4.156457424163818359e+00 1.414060831069946289e+00 2.309825181961059570e+00
3.054000000000000000e+03 4.987598800659179688e+01 -6.199668884277343750e+00 4.984491348266601562e+00 1.000875568389892578e+01 4.497973918914794922e+00 1.537199914455413818e-01
3.055000000000000000e+03 5.059183502197265625e+01 -5.713402748107910156e+00 4.464960575103759766e+00 9.659974098205566406e+00 4.237480163574218750e+00 4.346519112586975098e-01
3.056000000000000000e+03 4.992575836181640625e+01 -6.620527744293212891e+00 4.943080902099609375e+00 9.987215995788574219e+00 4.479089260101318359e+00 -1.342520862817764282e-01
3.057000000000000000e+03 4.033899307250976562e+01 1.316664814949035645e+00 9.564314484596252441e-01 4.418497562408447266e+00 1.612478613853454590e+00 -2.523245096206665039e+00
3.058000000000000000e+03 4.825661468505859375e+01 -2.533711671829223633e+00 2.145102977752685547e+00 1.171715545654296875e+01 4.158677577972412109e+00 1.195516467094421387e+00
3.059000000000000000e+03 4.761522293090820312e+01 -3.009560346603393555e+00 2.388553142547607422e+00 1.248523712158203125e+01 4.462137222290039062e+00 1.207617521286010742e+00
3.060000000000000000e+03 4.061426162719726562e+01 -1.730246353149414062e+01 2.200392484664916992e-01 5.020605564117431641e+00 1.572193503379821777e+00 2.155004262924194336e+00
3.061000000000000000e+03 4.073987579345703125e+01 -1.648253440856933594e+01 2.686378657817840576e-01 5.052134037017822266e+00 1.596231460571289062e+00 2.301650285720825195e+00
3.062000000000000000e+03 5.030435180664062500e+01 -4.932803630828857422e+00 4.307847499847412109e+00 9.898996353149414062e+00 4.262053012847900391e+00 8.798345327377319336e-01
3.063000000000000000e+03 4.982444000244140625e+01 -4.801035404205322266e+00 4.398792743682861328e+00 1.020928096771240234e+01 4.382421970367431641e+00 1.011557817459106445e+00
3.064000000000000000e+03 3.504106521606445312e+01 4.176186084747314453e+00 7.605413198471069336e-01 1.974737286567687988e+00 8.205835819244384766e-01 -1.102051734924316406e+00
3.065000000000000000e+03 3.149819946289062500e+01 6.443418502807617188e+00 4.467985928058624268e-01 1.431221246719360352e+00 5.634059906005859375e-01 -5.702061653137207031e-01
3.066000000000000000e+03 3.909111404418945312e+01 3.033372163772583008e+00 7.839159369468688965e-01 3.762669801712036133e+00 1.363975763320922852e+00 -2.007078886032104492e+00
3.067000000000000000e+03 3.780098724365234375e+01 3.256610393524169922e+00 8.351975083351135254e-01 3.024428844451904297e+00 1.157887935638427734e+00 -1.722064733505249023e+00
3.068000000000000000e+03 3.878115081787109375e+01 5.668385505676269531e+00 4.478948414325714111e-01 3.997539758682250977e+00 1.333630442619323730e+00 -1.730533838272094727e+00
3.069000000000000000e+03 3.660267639160156250e+01 4.331455707550048828e+00 7.479123473167419434e-01 2.646039009094238281e+00 1.018185496330261230e+00 -1.423639535903930664e+00
3.070000000000000000e+03 3.390807723999023438e+01 4.869641780853271484e+00 6.565867066383361816e-01 1.785915970802307129e+00 7.327508330345153809e-01 -9.050492644309997559e-01
3.071000000000000000e+03 3.125757408142089844e+01 5.616598129272460938e+00 4.688940942287445068e-01 1.249744892120361328e+00 5.155916810035705566e-01 -4.863141477108001709e-01
3.072000000000000000e+03 3.919138336181640625e+01 -1.805200576782226562e+01 3.523641526699066162e-01 4.057775974273681641e+00 1.323042035102844238e+00 1.919592499732971191e+00
3.073000000000000000e+03 4.176380538940429688e+01 -1.519541645050048828e+01 2.450945377349853516e-01 5.914313793182373047e+00 1.847822546958923340e+00 2.633499145507812500e+00
3.074000000000000000e+03 3.486476135253906250e+01 5.152669906616210938e+00 6.581221818923950195e-01 2.128460168838500977e+00 8.359746932983398438e-01 -1.084454178810119629e+00
3.075000000000000000e+03 6.529064178466796875e+01 -8.044375419616699219e+00 9.184777736663818359e-01 7.447728633880615234e+00 2.509861946105957031e+00 -1.492405235767364502e-01
3.076000000000000000e+03 6.449751281738281250e+01 -9.848606109619140625e+00 9.395369887351989746e-01 7.524745941162109375e+00 2.539284944534301758e+00 -3.467790782451629639e-01
3.077000000000000000e+03 6.294644546508789062e+01 -1.012732601165771484e+01 1.075706839561462402e+00 7.634229183197021484e+00 2.612980842590332031e+00 -4.316536188125610352e-01
3.078000000000000000e+03 6.390475082397460938e+01 -1.326197624206542969e+01 6.982074975967407227e-01 7.674596786499023438e+00 2.511841297149658203e+00 -6.638476252555847168e-01
3.079000000000000000e+03 3.176721191406250000e+01 9.743948936462402344e+00 2.703720629215240479e-01 1.913614511489868164e+00 6.551959514617919922e-01 -7.151139378547668457e-01
3.080000000000000000e+03 6.495101165771484375e+01 -2.482669591903686523e+00 8.626932501792907715e-01 7.519258975982666016e+00 2.514585733413696289e+00 4.861997067928314209e-01
3.081000000000000000e+03 3.297741317749023438e+01 1.009315872192382812e+01 2.642842829227447510e-01 2.234963417053222656e+00 7.497742772102355957e-01 -8.510520458221435547e-01
3.082000000000000000e+03 3.543142700195312500e+01 -2.289431762695312500e+01 3.046762049198150635e-01 2.966147184371948242e+00 9.812470078468322754e-01 1.117388486862182617e+00
3.083000000000000000e+03 6.126955413818359375e+01 -4.184335470199584961e-01 1.023168563842773438e+00 7.835513114929199219e+00 2.657604455947875977e+00 8.005735278129577637e-01
3.084000000000000000e+03 6.263423156738281250e+01 -4.000222384929656982e-01 9.184657931327819824e-01 7.736484527587890625e+00 2.596485137939453125e+00 7.509710788726806641e-01
3.085000000000000000e+03 6.264634323120117188e+01 -1.731019783020019531e+01 3.116417527198791504e-01 7.901186943054199219e+00 2.463848590850830078e+00 -8.549104332923889160e-01
3.086000000000000000e+03 6.644551849365234375e+01 5.701773166656494141e+00 2.052668482065200806e-01 7.704918861389160156e+00 2.373055696487426758e+00 8.946532011032104492e-01
3.087000000000000000e+03 6.503540802001953125e+01 5.397671699523925781e+00 2.474424093961715698e-01 7.775145053863525391e+00 2.406776189804077148e+00 9.316906332969665527e-01
3.088000000000000000e+03 6.136356353759765625e+01 -1.678557205200195312e+01 3.880497515201568604e-01 7.993228435516357422e+00 2.514383554458618164e+00 -8.820077776908874512e-01
3.089000000000000000e+03 6.308549118041992188e+01 -1.586589050292968750e+01 4.643297791481018066e-01 7.825656890869140625e+00 2.486996173858642578e+00 -8.151727914810180664e-01
3.090000000000000000e+03 6.081292343139648438e+01 -2.239440345764160156e+01 -2.089057862758636475e-01 8.039566040039062500e+00 2.349198102951049805e+00 -7.738580703735351562e-01
3.091000000000000000e+03 6.295203018188476562e+01 -2.107041549682617188e+01 -4.492663964629173279e-02 7.931159496307373047e+00 2.365869760513305664e+00 -8.212037682533264160e-01
3.092000000000000000e+03 3.295804595947265625e+01 1.638669395446777344e+01 -5.876686424016952515e-02 2.677565813064575195e+00 7.856397032737731934e-01 -7.501576542854309082e-01
3.093000000000000000e+03 3.108450317382812500e+01 1.839922904968261719e+01 -6.256668269634246826e-02 2.324843406677246094e+00 6.786830425262451172e-01 -6.702688932418823242e-01
3.094000000000000000e+03 3.388616180419921875e+01 -2.404178047180175781e+01 3.289659917354583740e-01 2.596546888351440430e+00 8.776538372039794922e-01 9.169484376907348633e-01
3.095000000000000000e+03 3.284897613525390625e+01 -2.236538505554199219e+01 4.100647270679473877e-01 2.138845205307006836e+00 7.646729946136474609e-01 8.584640622138977051e-01
3.096000000000000000e+03 4.076557922363281250e+01 -1.952448463439941406e+01 2.118764258921146393e-02 5.122634410858154297e+00 1.543146610260009766e+00 1.812857985496520996e+00
3.097000000000000000e+03 6.334711074829101562e+01 -1.167402553558349609e+01 9.055917263031005859e-01 7.659954071044921875e+00 2.569663763046264648e+00 -5.587511062622070312e-01
3.098000000000000000e+03 6.108905029296875000e+01 1.775114822387695312e+01 -4.399929344654083252e-01 7.771738529205322266e+00 2.199523687362670898e+00 6.321194767951965332e-01
3.099000000000000000e+03 4.531000900268554688e+01 -1.100353622436523438e+01 1.215908080339431763e-01 1.234175872802734375e+01 3.739004850387573242e+00 1.696485280990600586e+00
3.100000000000000000e+03 4.600584411621093750e+01 -1.071906280517578125e+01 4.569405913352966309e-01 1.293657302856445312e+01 4.018054008483886719e+00 6.418502330780029297e-01
3.101000000000000000e+03 4.607468414306640625e+01 -1.528024673461914062e+00 4.206470251083374023e-01 1.208951187133789062e+01 3.753047704696655273e+00 -8.333868384361267090e-01
3.102000000000000000e+03 4.050513458251953125e+01 -1.512442684173583984e+01 4.940919578075408936e-01 4.761826038360595703e+00 1.576775431632995605e+00 2.530816793441772461e+00
3.103000000000000000e+03 4.544540405273437500e+01 -1.171533012390136719e+01 -8.125293254852294922e-02 1.150641918182373047e+01 3.427549839019775391e+00 1.607892870903015137e+00
3.104000000000000000e+03 4.081333541870117188e+01 4.150030910968780518e-01 1.106152892112731934e+00 4.692126750946044922e+00 1.739483833312988281e+00 -2.805229187011718750e+00
3.105000000000000000e+03 4.700425338745117188e+01 -1.109149456024169922e+01 7.602778673171997070e-01 1.221333122253417969e+01 3.892082691192626953e+00 -2.079898566007614136e-01
3.106000000000000000e+03 4.353794479370117188e+01 -1.433209538459777832e+00 7.019978165626525879e-01 9.072250366210937500e+00 2.932274580001831055e+00 -3.418781995773315430e+00
3.107000000000000000e+03 5.043997192382812500e+01 -6.194302082061767578e+00 4.579401969909667969e+00 9.703039169311523438e+00 4.284732341766357422e+00 1.518459767103195190e-01
3.108000000000000000e+03 4.823821258544921875e+01 -1.996911287307739258e+00 1.624699115753173828e+00 1.152984809875488281e+01 3.946364402770996094e+00 9.694507122039794922e-01
3.109000000000000000e+03 4.322218322753906250e+01 -1.275889587402343750e+01 2.239298671483993530e-01 7.943578720092773438e+00 2.450252532958984375e+00 3.107722997665405273e+00
3.110000000000000000e+03 4.843358230590820312e+01 -8.949961662292480469e+00 3.775973558425903320e+00 1.165565013885498047e+01 4.629487037658691406e+00 -1.550812482833862305e+00
3.111000000000000000e+03 4.723805236816406250e+01 -9.817996978759765625e+00 2.101235389709472656e+00 1.302995491027832031e+01 4.539357185363769531e+00 -1.113068342208862305e+00
3.112000000000000000e+03 4.154230117797851562e+01 1.552376151084899902e-01 1.020052552223205566e+00 5.520773410797119141e+00 1.962247848510742188e+00 -3.034068346023559570e+00
3.113000000000000000e+03 3.999963760375976562e+01 1.089038133621215820e+00 1.061786055564880371e+00 4.050364017486572266e+00 1.533644914627075195e+00 -2.469470262527465820e+00
3.114000000000000000e+03 4.974308395385742188e+01 -8.446416854858398438e+00 4.085339069366455078e+00 1.036118125915527344e+01 4.333956241607666016e+00 -1.140396714210510254e+00
3.115000000000000000e+03 4.862236022949218750e+01 -8.168297767639160156e+00 4.806226253509521484e+00 1.126580715179443359e+01 4.821609973907470703e+00 -1.372078418731689453e+00
3.116000000000000000e+03 4.162682342529296875e+01 -1.373734188079833984e+01 5.061804652214050293e-01 5.698075771331787109e+00 1.861276865005493164e+00 2.945504903793334961e+00
3.117000000000000000e+03 3.955505752563476562e+01 2.062325954437255859e+00 9.064964056015014648e-01 3.939031600952148438e+00 1.453658461570739746e+00 -2.207582950592041016e+00
3.118000000000000000e+03 4.262869644165039062e+01 -1.304835128784179688e+01 3.370867073535919189e-01 7.075865745544433594e+00 2.223885774612426758e+00 3.207867622375488281e+00
3.119000000000000000e+03 4.209515762329101562e+01 -1.332377719879150391e+01 4.755829870700836182e-01 6.269579887390136719e+00 2.023548841476440430e+00 3.108632564544677734e+00
3.120000000000000000e+03 3.854545974731445312e+01 4.888031959533691406e+00 5.674484372138977051e-01 3.776203632354736328e+00 1.303095579147338867e+00 -1.768831372261047363e+00
3.121000000000000000e+03 5.059348297119140625e+01 -4.367069244384765625e+00 3.820349216461181641e+00 9.825910568237304688e+00 4.093877792358398438e+00 1.015968084335327148e+00
3.122000000000000000e+03 3.802120971679687500e+01 5.879714012145996094e+00 4.947911500930786133e-01 3.610143661499023438e+00 1.231480479240417480e+00 -1.629526138305664062e+00
3.123000000000000000e+03 3.961273193359375000e+01 2.668592691421508789e+00 7.898378968238830566e-01 4.090538024902343750e+00 1.464112758636474609e+00 -2.161883354187011719e+00
3.124000000000000000e+03 3.962451553344726562e+01 3.682554006576538086e+00 6.192509531974792480e-01 4.295402526855468750e+00 1.474395990371704102e+00 -2.036778211593627930e+00
3.125000000000000000e+03 3.688518905639648438e+01 5.650307178497314453e+00 5.804526805877685547e-01 3.000192880630493164e+00 1.074193716049194336e+00 -1.416223645210266113e+00
3.126000000000000000e+03 3.581505966186523438e+01 5.111319541931152344e+00 6.649667024612426758e-01 2.490525245666503906e+00 9.466475844383239746e-01 -1.264816284179687500e+00
3.127000000000000000e+03 3.283207702636718750e+01 6.972641944885253906e+00 4.740253388881683350e-01 1.820477008819580078e+00 6.883506774902343750e-01 -7.813564538955688477e-01
3.128000000000000000e+03 6.127627944946289062e+01 -1.683183550834655762e+00 1.179386019706726074e+00 7.785848140716552734e+00 2.689570188522338867e+00 6.811117529869079590e-01
3.129000000000000000e+03 6.335499572753906250e+01 -3.328051567077636719e+00 1.103052616119384766e+00 7.589408874511718750e+00 2.607738494873046875e+00 4.385790526866912842e-01
3.130000000000000000e+03 6.314757537841796875e+01 -6.924922943115234375e+00 1.200086832046508789e+00 7.560088157653808594e+00 2.628052473068237305e+00 -1.675597578287124634e-02
3.131000000000000000e+03 6.263275527954101562e+01 -8.643381118774414062e+00 1.215631365776062012e+00 7.614735603332519531e+00 2.649110078811645508e+00 -2.519127428531646729e-01
3.132000000000000000e+03 4.014679718017578125e+01 -2.067582511901855469e+01 1.716494746506214142e-02 4.791865348815917969e+00 1.442709088325500488e+00 1.661403775215148926e+00
3.133000000000000000e+03 4.337152099609375000e+01 -1.507993030548095703e+01 -1.300955563783645630e-01 7.455433368682861328e+00 2.197601318359375000e+00 2.424246549606323242e+00
3.134000000000000000e+03 3.331881332397460938e+01 5.659134864807128906e+00 5.820013284683227539e-01 1.761736154556274414e+00 7.031212449073791504e-01 -8.376476168632507324e-01
3.135000000000000000e+03 6.200463104248046875e+01 -9.594015121459960938e+00 1.217929601669311523e+00 7.684836864471435547e+00 2.670830011367797852e+00 -3.938471078872680664e-01
3.136000000000000000e+03 6.187158584594726562e+01 2.933643579483032227e+00 5.658423304557800293e-01 7.917130947113037109e+00 2.544891834259033203e+00 9.680054783821105957e-01
3.137000000000000000e+03 3.729454803466796875e+01 6.394530296325683594e+00 4.720745980739593506e-01 3.371739625930786133e+00 1.153144240379333496e+00 -1.464807987213134766e+00
3.138000000000000000e+03 3.263555526733398438e+01 1.140565681457519531e+01 1.721280664205551147e-01 2.291817426681518555e+00 7.391836643218994141e-01 -8.153279423713684082e-01
3.139000000000000000e+03 3.129092407226562500e+01 1.483372020721435547e+01 2.462363615632057190e-02 2.205967664718627930e+00 6.691774129867553711e-01 -7.238087654113769531e-01
3.140000000000000000e+03 6.076578521728515625e+01 -1.828365707397460938e+01 1.954081505537033081e-01 8.066008567810058594e+00 2.478425025939941406e+00 -8.849556446075439453e-01
3.141000000000000000e+03 6.370011901855468750e+01 5.075556755065917969e+00 2.895150482654571533e-01 7.841913700103759766e+00 2.439428567886352539e+00 9.566314816474914551e-01
3.142000000000000000e+03 6.285474777221679688e+01 -1.283691787719726562e+01 8.138049244880676270e-01 7.737356185913085938e+00 2.565348386764526367e+00 -6.706563830375671387e-01
3.143000000000000000e+03 6.071092605590820312e+01 -1.482964992523193359e+01 6.740001440048217773e-01 7.997016429901123047e+00 2.601305007934570312e+00 -8.602384924888610840e-01
3.144000000000000000e+03 6.282353210449218750e+01 3.477760553359985352e+00 4.561930894851684570e-01 7.859825611114501953e+00 2.494805574417114258e+00 9.494412541389465332e-01
3.145000000000000000e+03 6.149309539794921875e+01 -2.052835083007812500e+01 -3.360424190759658813e-02 8.018983840942382812e+00 2.395613908767700195e+00 -8.373169898986816406e-01
3.146000000000000000e+03 6.236495971679687500e+01 -5.017591953277587891e+00 1.302010774612426758e+00 7.615276336669921875e+00 2.675186157226562500e+00 2.460808008909225464e-01
3.147000000000000000e+03 6.493251800537109375e+01 -5.537460327148437500e+00 9.986259341239929199e-01 7.467258453369140625e+00 2.539765357971191406e+00 1.574817150831222534e-01
3.148000000000000000e+03 6.225343322753906250e+01 -3.179106950759887695e+00 1.211878061294555664e+00 7.659789085388183594e+00 2.661500215530395508e+00 4.905157983303070068e-01
3.149000000000000000e+03 3.676456451416015625e+01 -2.455917549133300781e+01 1.505180597305297852e-01 3.558935880661010742e+00 1.112836122512817383e+00 1.126903891563415527e+00
3.150000000000000000e+03 6.234742736816406250e+01 -1.119852066040039062e+01 1.043580055236816406e+00 7.712772846221923828e+00 2.626905679702758789e+00 -5.556617379188537598e-01
3.151000000000000000e+03 4.438578414916992188e+01 -7.119502425193786621e-01 2.379056364297866821e-01 9.993320465087890625e+00 3.069367885589599609e+00 -2.497138738632202148e+00
3.152000000000000000e+03 4.777042007446289062e+01 -1.970514655113220215e+00 1.418620109558105469e+00 1.182161140441894531e+01 3.972069501876831055e+00 7.617790699005126953e-01
3.153000000000000000e+03 4.797536087036132812e+01 -9.930274009704589844e+00 2.349282026290893555e+00 1.213764286041259766e+01 4.346077442169189453e+00 -1.311451554298400879e+00
3.154000000000000000e+03 4.266121292114257812e+01 -1.384110331535339355e+00 1.107096314430236816e+00 7.225407123565673828e+00 2.499751091003417969e+00 -3.651582241058349609e+00
3.155000000000000000e+03 4.699227905273437500e+01 -2.017867565155029297e+00 1.114304900169372559e+00 1.248014736175537109e+01 4.078335762023925781e+00 3.499269485473632812e-01
3.156000000000000000e+03 4.436557388305664062e+01 -1.259725856781005859e+01 -1.073052287101745605e-01 9.638221740722656250e+00 2.859274864196777344e+00 2.537657260894775391e+00
3.157000000000000000e+03 4.583797073364257812e+01 -1.187910461425781250e+01 -8.213578164577484131e-02 1.160627841949462891e+01 3.457242965698242188e+00 1.224102377891540527e+00
3.158000000000000000e+03 4.583860397338867188e+01 -1.127129459381103516e+01 1.332566887140274048e-01 1.234456539154052734e+01 3.743346691131591797e+00 1.047040581703186035e+00
3.159000000000000000e+03 4.560163879394531250e+01 -1.148813366889953613e+00 2.217310816049575806e-01 1.141949558258056641e+01 3.492367982864379883e+00 -1.361826658248901367e+00
3.160000000000000000e+03 4.672978210449218750e+01 -1.848300933837890625e+00 8.844094276428222656e-01 1.237137603759765625e+01 3.976735830307006836e+00 3.158808127045631409e-02
3.161000000000000000e+03 4.538756942749023438e+01 -1.237461853027343750e+01 -1.792574673891067505e-01 1.084685993194580078e+01 3.200280904769897461e+00 1.674982547760009766e+00
3.162000000000000000e+03 4.569726943969726562e+01 -1.665501952171325684e+00 3.870262205600738525e-01 1.215539836883544922e+01 3.762727260589599609e+00 -1.151494622230529785e+00
3.163000000000000000e+03 4.184732818603515625e+01 -3.058609664440155029e-01 1.059651136398315430e+00 5.931890964508056641e+00 2.097462654113769531e+00 -3.229611158370971680e+00
3.164000000000000000e+03 4.986725234985351562e+01 -7.223018169403076172e+00 4.784163475036621094e+00 1.004253005981445312e+01 4.448008060455322266e+00 -5.010463595390319824e-01
3.165000000000000000e+03 4.355699539184570312e+01 -1.361841106414794922e+01 -9.236413985490798950e-03 8.093536376953125000e+00 2.425290107727050781e+00 2.737267732620239258e+00
3.166000000000000000e+03 4.372302246093750000e+01 -1.298289775848388672e+01 7.397630251944065094e-03 8.612788200378417969e+00 2.586055755615234375e+00 2.871202707290649414e+00
3.167000000000000000e+03 4.682658386230468750e+01 -1.081995725631713867e+00 4.847571253776550293e-01 1.163768863677978516e+01 3.636733770370483398e+00 -2.118544280529022217e-01
3.168000000000000000e+03 4.606737136840820312e+01 -1.066029906272888184e+00 2.459601610898971558e-01 1.159198093414306641e+01 3.551382303237915039e+00 -9.301180839538574219e-01
3.169000000000000000e+03 4.904481124877929688e+01 -8.925052642822265625e+00 3.764929533004760742e+00 1.105947494506835938e+01 4.447321414947509766e+00 -1.435118198394775391e+00
3.170000000000000000e+03 4.967760086059570312e+01 -9.002724647521972656e+00 3.585508108139038086e+00 1.054174137115478516e+01 4.238174915313720703e+00 -1.313806176185607910e+00
3.171000000000000000e+03 4.889842987060546875e+01 -2.971987009048461914e+00 2.721980333328247070e+00 1.120497512817382812e+01 4.178086757659912109e+00 1.375117182731628418e+00
3.172000000000000000e+03 4.660176467895507812e+01 -1.114796733856201172e+01 4.913466274738311768e-01 1.236280918121337891e+01 3.856246709823608398e+00 2.148932963609695435e-01
3.173000000000000000e+03 4.716255187988281250e+01 -1.152754592895507812e+01 5.619550347328186035e-01 1.190785121917724609e+01 3.740941762924194336e+00 -1.278188228607177734e-01
3.174000000000000000e+03 4.726893997192382812e+01 -1.077291202545166016e+01 1.085269927978515625e+00 1.233323764801025391e+01 4.025552272796630859e+00 -5.263882279396057129e-01
3.175000000000000000e+03 4.850205230712890625e+01 -9.484703063964843750e+00 3.073574781417846680e+00 1.165398597717285156e+01 4.418268203735351562e+00 -1.493905305862426758e+00
3.176000000000000000e+03 4.096195983886718750e+01 1.168303847312927246e+00 8.747837543487548828e-01 5.007559776306152344e+00 1.764703035354614258e+00 -2.673078536987304688e+00
3.177000000000000000e+03 4.059484100341796875e+01 8.973637223243713379e-01 1.014976382255554199e+00 4.579252719879150391e+00 1.678268790245056152e+00 -2.652388334274291992e+00
3.178000000000000000e+03 4.201187896728515625e+01 -1.381271457672119141e+01 3.935379683971405029e-01 6.201851844787597656e+00 1.978617072105407715e+00 2.942017555236816406e+00
3.179000000000000000e+03 4.153553009033203125e+01 -1.423460674285888672e+01 4.381743669509887695e-01 5.619637012481689453e+00 1.817343473434448242e+00 2.836024284362792969e+00
3.180000000000000000e+03 4.161003494262695312e+01 -1.468556690216064453e+01 3.436264693737030029e-01 5.786563873291015625e+00 1.839057087898254395e+00 2.728147506713867188e+00
3.181000000000000000e+03 5.097286987304687500e+01 -6.355894565582275391e+00 4.296978950500488281e+00 9.452684402465820312e+00 4.124898910522460938e+00 6.720592826604843140e-02
3.182000000000000000e+03 5.034122848510742188e+01 -6.587838649749755859e+00 4.668960094451904297e+00 9.748779296875000000e+00 4.325321674346923828e+00 -9.296246618032455444e-02
3.183000000000000000e+03 4.788236618041992188e+01 -1.041738986968994141e+01 1.781803369522094727e+00 1.212053871154785156e+01 4.170702457427978516e+00 -1.077477693557739258e+00
3.184000000000000000e+03 4.099799728393554688e+01 1.987864851951599121e+00 7.028616666793823242e-01 5.184265613555908203e+00 1.766138195991516113e+00 -2.531660079956054688e+00
3.185000000000000000e+03 4.009725189208984375e+01 1.691544651985168457e+00 8.966704010963439941e-01 4.311603546142578125e+00 1.562482237815856934e+00 -2.397675752639770508e+00
3.186000000000000000e+03 4.120428466796875000e+01 -2.356859445571899414e-01 1.204522371292114258e+00 4.975259304046630859e+00 1.853934526443481445e+00 -3.037621021270751953e+00
3.187000000000000000e+03 4.073073577880859375e+01 -1.576510143280029297e+01 3.807612061500549316e-01 5.016852378845214844e+00 1.619284033775329590e+00 2.461450099945068359e+00
3.188000000000000000e+03 4.958554840087890625e+01 -2.820395708084106445e+00 2.644045591354370117e+00 1.068514156341552734e+01 3.998756170272827148e+00 1.356090784072875977e+00
3.189000000000000000e+03 4.002199172973632812e+01 3.093786954879760742e+00 6.514829993247985840e-01 4.494569778442382812e+00 1.543815732002258301e+00 -2.194511175155639648e+00
3.190000000000000000e+03 5.152226257324218750e+01 -5.293076992034912109e+00 3.835743188858032227e+00 9.270159721374511719e+00 3.931770801544189453e+00 5.162990689277648926e-01
3.191000000000000000e+03 4.204323959350585938e+01 -1.870065689086914062e+01 -1.360434591770172119e-01 5.935110092163085938e+00 1.739719986915588379e+00 1.915109872817993164e+00
3.192000000000000000e+03 4.284684753417968750e+01 -1.509641075134277344e+01 -1.314709056168794632e-02 6.978021144866943359e+00 2.089462280273437500e+00 2.533447980880737305e+00
3.193000000000000000e+03 5.020879364013671875e+01 -3.573602437973022461e+00 3.306267023086547852e+00 1.019603252410888672e+01 4.050689697265625000e+00 1.271724939346313477e+00
3.194000000000000000e+03 4.941262054443359375e+01 -2.178225040435791016e+00 2.123904228210449219e+00 1.075087833404541016e+01 3.862434864044189453e+00 1.256521344184875488e+00
3.195000000000000000e+03 3.919997024536132812e+01 4.415795803070068359e+00 5.708559155464172363e-01 4.074042797088623047e+00 1.393469572067260742e+00 -1.898502588272094727e+00
3.196000000000000000e+03 3.841555404663085938e+01 4.106750488281250000e+00 6.967975497245788574e-01 3.555793523788452148e+00 1.275777339935302734e+00 -1.826808929443359375e+00
3.197000000000000000e+03 3.387946319580078125e+01 6.589788913726806641e+00 5.245369672775268555e-01 2.066160917282104492e+00 7.772093415260314941e-01 -9.442542195320129395e-01
3.198000000000000000e+03 4.235731124877929688e+01 -1.442669200897216797e+01 2.116373032331466675e-01 6.515115737915039062e+00 2.018025875091552734e+00 2.792142868041992188e+00
3.199000000000000000e+03 6.189272689819335938e+01 -6.597820281982421875e+00 1.390512943267822266e+00 7.638954639434814453e+00 2.708840370178222656e+00 2.274807170033454895e-02
3.200000000000000000e+03 6.346985244750976562e+01 -4.470284938812255859e+00 1.137645959854125977e+00 7.558297634124755859e+00 2.608783006668090820e+00 3.034290075302124023e-01
3.201000000000000000e+03 6.118888854980468750e+01 -3.427102804183959961e+00 1.360870242118835449e+00 7.733549594879150391e+00 2.728325843811035156e+00 4.967694878578186035e-01
3.202000000000000000e+03 3.600347900390625000e+01 6.009972572326660156e+00 5.768906474113464355e-01 2.713072061538696289e+00 9.869888424873352051e-01 -1.283456563949584961e+00
3.203000000000000000e+03 6.177674865722656250e+01 -8.075815200805664062e+00 1.360885858535766602e+00 7.662717342376708984e+00 2.707080841064453125e+00 -1.901686787605285645e-01
3.204000000000000000e+03 6.242179489135742188e+01 -7.324606895446777344e+00 1.303041219711303711e+00 7.611869812011718750e+00 2.674473285675048828e+00 -8.125994354486465454e-02
3.205000000000000000e+03 3.312538528442382812e+01 7.939529418945312500e+00 4.128130972385406494e-01 2.034738779067993164e+00 7.342655658721923828e-01 -8.442517518997192383e-01
3.206000000000000000e+03 3.425627899169921875e+01 7.748584747314453125e+00 4.379644691944122314e-01 2.384395360946655273e+00 8.467079401016235352e-01 -1.014106631278991699e+00
3.207000000000000000e+03 3.403295135498046875e+01 1.536282348632812500e+01 -4.233879595994949341e-02 2.924909353256225586e+00 8.647711873054504395e-01 -8.379061818122863770e-01
3.208000000000000000e+03 6.125236129760742188e+01 -1.354976272583007812e+01 8.325305581092834473e-01 7.898859977722167969e+00 2.619417190551757812e+00 -7.801761627197265625e-01
3.209000000000000000e+03 6.236835861206054688e+01 -1.407331371307373047e+01 7.035107612609863281e-01 7.822666168212890625e+00 2.557852983474731445e+00 -7.682568430900573730e-01
3.210000000000000000e+03 5.943635177612304688e+01 1.572543010115623474e-02 1.112445354461669922e+00 8.037607192993164062e+00 2.745015621185302734e+00 9.322248697280883789e-01
3.211000000000000000e+03 3.926287841796875000e+01 -2.189401626586914062e+01 4.125072434544563293e-02 4.410527229309082031e+00 1.335533380508422852e+00 1.488878965377807617e+00
3.212000000000000000e+03 4.211994934082031250e+01 -1.760168266296386719e+01 -7.865841686725616455e-02 6.059132575988769531e+00 1.794142246246337891e+00 2.098158836364746094e+00
3.213000000000000000e+03 6.126003265380859375e+01 9.606530070304870605e-01 8.598198294639587402e-01 7.892316341400146484e+00 2.625640869140625000e+00 8.987196087837219238e-01
3.214000000000000000e+03 6.620131683349609375e+01 7.146010398864746094e+00 1.145892515778541565e-01 7.759534358978271484e+00 2.362236976623535156e+00 9.155110716819763184e-01
3.215000000000000000e+03 6.135848999023437500e+01 -1.065223026275634766e+01 1.198851227760314941e+00 7.771364688873291016e+00 2.691064834594726562e+00 -5.391411781311035156e-01
3.216000000000000000e+03 6.179229354858398438e+01 -1.234335136413574219e+01 9.573851823806762695e-01 7.804223537445068359e+00 2.628482580184936523e+00 -6.742643713951110840e-01
3.217000000000000000e+03 3.049517440795898438e+01 -2.151888847351074219e+01 4.055317640304565430e-01 1.485968232154846191e+00 5.674499869346618652e-01 5.605918169021606445e-01
3.218000000000000000e+03 3.516647720336914062e+01 -2.588717842102050781e+01 1.917322874069213867e-01 3.133343935012817383e+00 9.975228905677795410e-01 9.342100620269775391e-01
3.219000000000000000e+03 3.812639617919921875e+01 -2.320240592956542969e+01 9.369771927595138550e-02 4.000028133392333984e+00 1.228117823600769043e+00 1.307844161987304688e+00
3.220000000000000000e+03 5.743265151977539062e+01 -1.830246353149414062e+01 9.561189264059066772e-02 8.361345291137695312e+00 2.537087202072143555e+00 -8.601105213165283203e-01
3.221000000000000000e+03 6.007556533813476562e+01 -1.989601898193359375e+01 -7.856522686779499054e-03 8.118980407714843750e+00 2.433337211608886719e+00 -8.500678539276123047e-01
3.222000000000000000e+03 6.108282089233398438e+01 -8.994665145874023438e+00 1.402106761932373047e+00 7.734398841857910156e+00 2.740951776504516602e+00 -3.388155102729797363e-01
3.223000000000000000e+03 7.165776824951171875e+01 3.332667160034179688e+01 -1.103274077177047729e-01 8.406215667724609375e+00 2.488766431808471680e+00 1.936170309782028198e-01
3.224000000000000000e+03 4.274091720581054688e+01 -7.731476426124572754e-01 8.713169693946838379e-01 7.398244857788085938e+00 2.480868577957153320e+00 -3.367944478988647461e+00
3.225000000000000000e+03 4.523414230346679688e+01 -1.306638050079345703e+01 -2.772265970706939697e-01 1.012489223480224609e+01 2.954299688339233398e+00 1.838615059852600098e+00
3.226000000000000000e+03 4.563800048828125000e+01 -1.279827880859375000e+01 -2.343838512897491455e-01 1.064229679107666016e+01 3.122373819351196289e+00 1.498470187187194824e+00
3.227000000000000000e+03 4.344018173217773438e+01 -9.574810862541198730e-01 6.040478348731994629e-01 8.633191108703613281e+00 2.771171569824218750e+00 -3.257029533386230469e+00
3.228000000000000000e+03 4.735659408569335938e+01 -1.180111646652221680e+00 7.334090471267700195e-01 1.156211662292480469e+01 3.688657522201538086e+00 2.002681493759155273e-01
3.229000000000000000e+03 4.683967590332031250e+01 -1.538152694702148438e+00 7.295813560485839844e-01 1.204888629913330078e+01 3.833540439605712891e+00 -4.025448579341173172e-03
3.230000000000000000e+03 4.626051712036132812e+01 -1.154691791534423828e+01 1.538971811532974243e-01 1.195806217193603516e+01 3.633587837219238281e+00 7.071423530578613281e-01
3.231000000000000000e+03 5.026706695556640625e+01 -9.085772514343261719e+00 3.397699356079101562e+00 1.016011333465576172e+01 4.067343711853027344e+00 -1.215681076049804688e+00
3.232000000000000000e+03 5.032278060913085938e+01 -7.522510528564453125e+00 4.485578060150146484e+00 9.867186546325683594e+00 4.305829524993896484e+00 -6.263216137886047363e-01
3.233000000000000000e+03 4.998458480834960938e+01 -7.948600769042968750e+00 4.410926818847656250e+00 1.013130569458007812e+01 4.362669944763183594e+00 -9.279729723930358887e-01
3.234000000000000000e+03 4.671650314331054688e+01 -5.121693015098571777e-01 2.653550207614898682e-01 1.121702194213867188e+01 3.444713115692138672e+00 -4.662130773067474365e-01
3.235000000000000000e+03 4.430325698852539062e+01 -1.319540405273437500e+01 -1.612977981567382812e-01 9.194697380065917969e+00 2.710020065307617188e+00 2.449186801910400391e+00
3.236000000000000000e+03 4.880951309204101562e+01 -2.428107738494873047e+00 2.237378835678100586e+00 1.124831008911132812e+01 4.045706748962402344e+00 1.280774950981140137e+00
3.237000000000000000e+03 4.617744064331054688e+01 -5.567947030067443848e-01 1.629515439271926880e-01 1.118773651123046875e+01 3.405206441879272461e+00 -8.956744670867919922e-01
3.238000000000000000e+03 4.238911437988281250e+01 -1.387686729431152344e+01 2.772541344165802002e-01 6.631884574890136719e+00 2.072741508483886719e+00 2.925546407699584961e+00
3.239000000000000000e+03 4.341930007934570312e+01 -1.434013366699218750e+01 -6.995249539613723755e-02 7.706110477447509766e+00 2.290847539901733398e+00 2.597634077072143555e+00
3.240000000000000000e+03 4.300651931762695312e+01 -1.127217650413513184e+00 8.622919321060180664e-01 7.863761425018310547e+00 2.617815971374511719e+00 -3.502171993255615234e+00
3.241000000000000000e+03 4.211584472656250000e+01 -7.301179170608520508e-01 1.094053268432617188e+00 6.308856010437011719e+00 2.220872879028320312e+00 -3.359899520874023438e+00
3.242000000000000000e+03 4.192132568359375000e+01 -1.432705307006835938e+01 3.103785514831542969e-01 6.098102569580078125e+00 1.922544360160827637e+00 2.813049793243408203e+00
3.243000000000000000e+03 4.167332077026367188e+01 -1.581583690643310547e+01 1.734939664602279663e-01 5.797569274902343750e+00 1.791319012641906738e+00 2.472195386886596680e+00
3.244000000000000000e+03 4.667960357666015625e+01 -1.154430103302001953e+01 3.104109764099121094e-01 1.197575950622558594e+01 3.685851097106933594e+00 3.176347911357879639e-01
3.245000000000000000e+03 4.617705917358398438e+01 -1.115270614624023438e+01 3.282239735126495361e-01 1.242710781097412109e+01 3.826599597930908203e+00 6.432427763938903809e-01
3.246000000000000000e+03 4.123846817016601562e+01 6.616213917732238770e-01 9.552851319313049316e-01 5.214487552642822266e+00 1.850931763648986816e+00 -2.843890428543090820e+00
3.247000000000000000e+03 5.059054565429687500e+01 -7.111845493316650391e+00 4.451739311218261719e+00 9.702557563781738281e+00 4.246288776397705078e+00 -3.640339970588684082e-01
3.248000000000000000e+03 5.017781829833984375e+01 -6.910269737243652344e+00 4.752575397491455078e+00 9.860574722290039062e+00 4.383944988250732422e+00 -3.362286388874053955e-01
3.249000000000000000e+03 4.066873550415039062e+01 1.603196263313293457e+00 8.332732319831848145e-01 4.803561687469482422e+00 1.691050529479980469e+00 -2.532419443130493164e+00
3.250000000000000000e+03 4.908158874511718750e+01 -1.006698894500732422e+01 2.526355743408203125e+00 1.113369846343994141e+01 4.098016262054443359e+00 -1.376830577850341797e+00
3.251000000000000000e+03 4.907012176513671875e+01 -9.503108024597167969e+00 3.109269380569458008e+00 1.112180423736572266e+01 4.269321918487548828e+00 -1.451817393302917480e+00
3.252000000000000000e+03 4.766981124877929688e+01 -1.216526317596435547e+01 4.183083176612854004e-01 1.132095909118652344e+01 3.521780252456665039e+00 -1.751300692558288574e-01
3.253000000000000000e+03 4.780221557617187500e+01 -1.098393821716308594e+01 1.182175040245056152e+00 1.191201210021972656e+01 3.928256273269653320e+00 -7.283580303192138672e-01
3.254000000000000000e+03 5.094893646240234375e+01 -3.705082416534423828e+00 3.273578405380249023e+00 9.736520767211914062e+00 3.903029680252075195e+00 1.126905441284179688e+00
3.255000000000000000e+03 4.006572723388671875e+01 4.968094825744628906e+00 3.942174315452575684e-01 4.689268112182617188e+00 1.525045633316040039e+00 -1.918980479240417480e+00
3.256000000000000000e+03 4.000694274902343750e+01 2.085962533950805664e+00 8.419858217239379883e-01 4.373536586761474609e+00 1.564656734466552734e+00 -2.339397192001342773e+00
3.257000000000000000e+03 5.126440429687500000e+01 -5.900716781616210938e+00 4.116160392761230469e+00 9.331824302673339844e+00 4.034395217895507812e+00 2.768693864345550537e-01
3.258000000000000000e+03 5.218262863159179688e+01 -5.443188190460205078e+00 3.658067464828491211e+00 9.047465324401855469e+00 3.811659812927246094e+00 4.266828894615173340e-01
3.259000000000000000e+03 5.034818649291992188e+01 -8.647192955017089844e+00 3.745635032653808594e+00 1.001417160034179688e+01 4.127942085266113281e+00 -1.072628140449523926e+00
3.260000000000000000e+03 4.783673477172851562e+01 -1.385002493858337402e+00 1.025282979011535645e+00 1.150425815582275391e+01 3.758862257003784180e+00 5.592970848083496094e-01
3.261000000000000000e+03 4.092291641235351562e+01 2.862156152725219727e+00 5.626983046531677246e-01 5.184612751007080078e+00 1.724193334579467773e+00 -2.350061655044555664e+00
3.262000000000000000e+03 4.036200332641601562e+01 1.945803999900817871e+00 8.283516764640808105e-01 4.602849483489990234e+00 1.629360318183898926e+00 -2.449452400207519531e+00
3.263000000000000000e+03 3.739511871337890625e+01 1.167367649078369141e+01 -9.038922726176679134e-04 3.848628759384155273e+00 1.154317498207092285e+00 -1.139508008956909180e+00
3.264000000000000000e+03 4.217054748535156250e+01 -1.666481590270996094e+01 -6.810592953115701675e-03 6.194727897644042969e+00 1.856375217437744141e+00 2.272714614868164062e+00
3.265000000000000000e+03 4.287746047973632812e+01 -1.435756874084472656e+01 6.568656861782073975e-02 7.159917354583740234e+00 2.167681217193603516e+00 2.733060836791992188e+00
3.266000000000000000e+03 4.224906158447265625e+01 -1.586244583129882812e+01 3.288289532065391541e-02 6.299484729766845703e+00 1.899710178375244141e+00 2.420778036117553711e+00
3.267000000000000000e+03 4.412933349609375000e+01 -1.381767177581787109e+01 -1.823938190937042236e-01 8.643349647521972656e+00 2.538286685943603516e+00 2.407513618469238281e+00
3.268000000000000000e+03 6.023370742797851562e+01 -8.314988136291503906e+00 1.572606921195983887e+00 7.781975746154785156e+00 2.806374788284301758e+00 -2.594822645187377930e-01
3.269000000000000000e+03 5.956312179565429688e+01 -1.422151088714599609e+01 8.130227923393249512e-01 8.092564582824707031e+00 2.671676158905029297e+00 -8.795592784881591797e-01
3.270000000000000000e+03 4.282809448242187500e+01 -1.666203689575195312e+01 -1.421499997377395630e-01 6.670587062835693359e+00 1.958531141281127930e+00 2.190515756607055664e+00
3.271000000000000000e+03 3.497584152221679688e+01 6.262891769409179688e+00 5.632082223892211914e-01 2.353159427642822266e+00 8.749102950096130371e-01 -1.111902475357055664e+00
3.272000000000000000e+03 3.851755905151367188e+01 6.388395309448242188e+00 3.868596553802490234e-01 3.956506252288818359e+00 1.303009748458862305e+00 -1.644671559333801270e+00
3.273000000000000000e+03 3.537078475952148438e+01 1.092076110839843750e+01 1.458085328340530396e-01 3.064099550247192383e+00 9.629724621772766113e-01 -1.049583554267883301e+00
3.274000000000000000e+03 4.148690414428710938e+01 -2.143632316589355469e+01 -1.931066960096359253e-01 5.429394721984863281e+00 1.570886373519897461e+00 1.537865757942199707e+00
3.275000000000000000e+03 3.452322387695312500e+01 9.011206626892089844e+00 3.097963929176330566e-01 2.621163368225097656e+00 8.792879581451416016e-01 -1.013824820518493652e+00
3.276000000000000000e+03 6.085563659667968750e+01 2.206191778182983398e+00 6.890812516212463379e-01 7.982080936431884766e+00 2.601348638534545898e+00 9.792273640632629395e-01
3.277000000000000000e+03 6.004543304443359375e+01 1.207256317138671875e+00 8.827792406082153320e-01 8.028588294982910156e+00 2.673410415649414062e+00 9.632970690727233887e-01
3.278000000000000000e+03 5.676552200317382812e+01 -1.418847370147705078e+01 8.772197365760803223e-01 8.463434219360351562e+00 2.802196025848388672e+00 -9.749951362609863281e-01
3.279000000000000000e+03 6.243922424316406250e+01 4.678033351898193359e+00 3.527909517288208008e-01 7.911915302276611328e+00 2.479411840438842773e+00 9.823192358016967773e-01
3.280000000000000000e+03 6.125872802734375000e+01 4.130838394165039062e+00 4.262937307357788086e-01 7.996064186096191406e+00 2.526707410812377930e+00 1.002899765968322754e+00
3.281000000000000000e+03 6.332247924804687500e+01 6.491882801055908203e+00 1.701621115207672119e-01 7.891746997833251953e+00 2.418572664260864258e+00 9.746959209442138672e-01
3.282000000000000000e+03 6.172658157348632812e+01 -4.213753223419189453e+00 1.327979922294616699e+00 7.668761253356933594e+00 2.699022293090820312e+00 3.571177124977111816e-01
3.283000000000000000e+03 6.282934570312500000e+01 -6.000608444213867188e+00 1.245155930519104004e+00 7.580290794372558594e+00 2.647634029388427734e+00 1.117044761776924133e-01
3.284000000000000000e+03 6.104642105102539062e+01 -7.388912200927734375e+00 1.503027319908142090e+00 7.702761650085449219e+00 2.761736631393432617e+00 -1.048931330442428589e-01
3.285000000000000000e+03 6.819840240478515625e+01 3.304600143432617188e+01 -1.903174817562103271e-01 8.092038154602050781e+00 2.370516300201416016e+00 2.327702939510345459e-01
3.286000000000000000e+03 3.442797851562500000e+01 1.280088996887207031e+01 7.110650837421417236e-02 2.889117717742919922e+00 8.880673050880432129e-01 -9.121540188789367676e-01
3.287000000000000000e+03 3.841474151611328125e+01 1.469979190826416016e+01 -2.008503228425979614e-01 4.224458694458007812e+00 1.207082629203796387e+00 -9.997586011886596680e-01
3.288000000000000000e+03 7.001684570312500000e+01 3.506089782714843750e+01 -1.542244702577590942e-01 8.245972633361816406e+00 2.427524566650390625e+00 1.737083494663238525e-01
3.289000000000000000e+03 3.673862457275390625e+01 -2.789209365844726562e+01 2.734708972275257111e-02 3.695098876953125000e+00 1.116733789443969727e+00 8.837886452674865723e-01
3.290000000000000000e+03 3.836277008056640625e+01 -2.628859710693359375e+01 -5.542704463005065918e-02 4.200151443481445312e+00 1.243417382240295410e+00 1.035860300064086914e+00
3.291000000000000000e+03 4.297314453125000000e+01 -1.875613975524902344e+01 -2.833450436592102051e-01 6.459896087646484375e+00 1.852965354919433594e+00 1.817654371261596680e+00
3.292000000000000000e+03 4.164774322509765625e+01 1.040007472038269043e+00 7.498655915260314941e-01 5.760521888732910156e+00 1.953116297721862793e+00 -2.795281410217285156e+00
3.293000000000000000e+03 4.541835784912109375e+01 -6.438298821449279785e-01 9.484633803367614746e-02 1.085482501983642578e+01 3.284901380538940430e+00 -1.571187376976013184e+00
3.294000000000000000e+03 4.511954879760742188e+01 -1.862072646617889404e-01 4.506256058812141418e-02 1.017273235321044922e+01 3.065338611602783203e+00 -1.834912657737731934e+00
3.295000000000000000e+03 4.717319107055664062e+01 -1.663517117500305176e+00 9.270362257957458496e-01 1.199448108673095703e+01 3.876455068588256836e+00 2.616525590419769287e-01
3.296000000000000000e+03 4.392411041259765625e+01 -8.822290897369384766e-01 3.916116654872894287e-01 9.470979690551757812e+00 2.958777427673339844e+00 -2.914997816085815430e+00
3.297000000000000000e+03 4.829101562500000000e+01 -1.491516232490539551e+00 1.269713044166564941e+00 1.129545211791992188e+01 3.769549608230590820e+00 8.242538571357727051e-01
3.298000000000000000e+03 4.291144180297851562e+01 -3.656017780303955078e-01 6.975799798965454102e-01 7.545432567596435547e+00 2.472903728485107422e+00 -3.169694900512695312e+00
3.299000000000000000e+03 4.585369110107421875e+01 -1.224701213836669922e+01 -1.241940706968307495e-01 1.124460124969482422e+01 3.336122035980224609e+00 1.265360236167907715e+00
3.300000000000000000e+03 4.869200134277343750e+01 -1.972202897071838379e+00 1.755193591117858887e+00 1.123599147796630859e+01 3.897355556488037109e+00 1.108707189559936523e+00
3.301000000000000000e+03 4.479522323608398438e+01 -4.860174953937530518e-01 1.276355832815170288e-01 1.022232341766357422e+01 3.104987621307373047e+00 -2.153155565261840820e+00
3.302000000000000000e+03 4.615430068969726562e+01 -3.343093767762184143e-02 4.557907581329345703e-02 1.066645050048828125e+01 3.213608980178833008e+00 -9.626438021659851074e-01
3.303000000000000000e+03 4.490755462646484375e+01 -1.257323837280273438e+01 -1.881102472543716431e-01 1.023718547821044922e+01 3.014722347259521484e+00 2.125643491744995117e+00
3.304000000000000000e+03 4.491560745239257812e+01 -1.349183082580566406e+01 -2.832913994789123535e-01 9.588211059570312500e+00 2.791475772857666016e+00 2.017981767654418945e+00
3.305000000000000000e+03 4.842432022094726562e+01 -1.113189411163330078e+01 1.352642178535461426e+00 1.143480205535888672e+01 3.836233139038085938e+00 -9.346356391906738281e-01
3.306000000000000000e+03 4.847265243530273438e+01 -1.055616378784179688e+01 1.880979537963867188e+00 1.153182125091552734e+01 4.023840427398681641e+00 -1.156324625015258789e+00
3.307000000000000000e+03 4.626903152465820312e+01 -1.220276546478271484e+01 -3.667905181646347046e-02 1.146601581573486328e+01 3.428800821304321289e+00 8.468791246414184570e-01
3.308000000000000000e+03 4.668716812133789062e+01 -1.193112277984619141e+01 1.716058403253555298e-01 1.166279983520507812e+01 3.550321817398071289e+00 4.545603096485137939e-01
3.309000000000000000e+03 4.195304870605468750e+01 5.476524829864501953e-01 7.737041115760803223e-01 6.135793685913085938e+00 2.072849273681640625e+00 -2.939559459686279297e+00
3.310000000000000000e+03 4.133980178833007812e+01 1.532258033752441406e+00 7.265974283218383789e-01 5.435912132263183594e+00 1.848752856254577637e+00 -2.658962488174438477e+00
3.311000000000000000e+03 5.159621047973632812e+01 -4.032052516937255859e+00 3.316082477569580078e+00 9.407624244689941406e+00 3.817111968994140625e+00 9.685468673706054688e-01
3.312000000000000000e+03 4.907184600830078125e+01 -1.765048623085021973e+00 1.709226131439208984e+00 1.094274902343750000e+01 3.795592546463012695e+00 1.129918098449707031e+00
3.313000000000000000e+03 4.714231491088867188e+01 -1.202723598480224609e+01 3.094055354595184326e-01 1.150163269042968750e+01 3.543311595916748047e+00 1.006366685032844543e-01
3.314000000000000000e+03 5.111372756958007812e+01 -7.266553401947021484e+00 4.127227783203125000e+00 9.439523696899414062e+00 4.070025444030761719e+00 -4.066473543643951416e-01
3.315000000000000000e+03 5.061238479614257812e+01 -8.233194351196289062e+00 3.924815654754638672e+00 9.825439453125000000e+00 4.125076770782470703e+00 -9.304530024528503418e-01
3.316000000000000000e+03 4.336151123046875000e+01 -4.533458948135375977e-01 5.231581926345825195e-01 8.358708381652832031e+00 2.664560079574584961e+00 -3.078397989273071289e+00
3.317000000000000000e+03 4.206151199340820312e+01 1.442145586013793945e+00 5.514845848083496094e-01 6.240512847900390625e+00 2.037599086761474609e+00 -2.685711860656738281e+00
3.318000000000000000e+03 4.836609268188476562e+01 -1.172949504852294922e+01 9.188507795333862305e-01 1.126856422424316406e+01 3.656224727630615234e+00 -6.914794445037841797e-01
3.319000000000000000e+03 4.773208236694335938e+01 -1.157612800598144531e+01 7.710147500038146973e-01 1.162829875946044922e+01 3.719794034957885742e+00 -4.416238367557525635e-01
3.320000000000000000e+03 4.967766952514648438e+01 -9.557092666625976562e+00 3.076273202896118164e+00 1.066184234619140625e+01 4.121434688568115234e+00 -1.391091823577880859e+00
3.321000000000000000e+03 4.850986862182617188e+01 -1.001222515106201172e+01 2.429195642471313477e+00 1.161459541320800781e+01 4.213137626647949219e+00 -1.349726915359497070e+00
3.322000000000000000e+03 4.987668991088867188e+01 -1.632355809211730957e+00 1.839122414588928223e+00 1.047791767120361328e+01 3.695111989974975586e+00 1.211468338966369629e+00
3.323000000000000000e+03 5.075272369384765625e+01 -6.715533733367919922e+00 4.481263637542724609e+00 9.574518203735351562e+00 4.216734409332275391e+00 -1.508624404668807983e-01
3.324000000000000000e+03 4.282102966308593750e+01 -1.584732246398925781e+01 -7.925987988710403442e-02 6.801058769226074219e+00 2.016539573669433594e+00 2.373934745788574219e+00
3.325000000000000000e+03 5.121890258789062500e+01 -6.743981838226318359e+00 4.173575401306152344e+00 9.363479614257812500e+00 4.061116695404052734e+00 -1.352260708808898926e-01
3.326000000000000000e+03 5.114800643920898438e+01 -4.561598777770996094e+00 3.749470472335815430e+00 9.555954933166503906e+00 3.991627454757690430e+00 8.983209133148193359e-01
3.327000000000000000e+03 5.042277908325195312e+01 -2.752300262451171875e+00 2.620574951171875000e+00 1.017247867584228516e+01 3.837916135787963867e+00 1.309096336364746094e+00
3.328000000000000000e+03 5.081535720825195312e+01 -8.996831893920898438e+00 3.360487699508666992e+00 9.794052124023437500e+00 3.946362018585205078e+00 -1.101184010505676270e+00
3.329000000000000000e+03 4.124321746826171875e+01 3.432157754898071289e+00 3.900843262672424316e-01 5.502327442169189453e+00 1.767723560333251953e+00 -2.232732057571411133e+00
3.330000000000000000e+03 4.058597946166992188e+01 2.384634494781494141e+00 7.059475779533386230e-01 4.866114139556884766e+00 1.671618580818176270e+00 -2.393028497695922852e+00
3.331000000000000000e+03 4.907624816894531250e+01 -1.064241600036621094e+01 1.985730290412902832e+00 1.109313201904296875e+01 3.923658847808837891e+00 -1.234044551849365234e+00
3.332000000000000000e+03 3.643724441528320312e+01 6.960440635681152344e+00 4.602088928222656250e-01 2.994277954101562500e+00 1.036346077919006348e+00 -1.289955615997314453e+00
3.333000000000000000e+03 3.889376831054687500e+01 1.122411823272705078e+01 -6.755792349576950073e-02 4.328850269317626953e+00 1.278387784957885742e+00 -1.219000935554504395e+00
3.334000000000000000e+03 3.869193267822265625e+01 7.610513210296630859e+00 2.418204396963119507e-01 4.125077247619628906e+00 1.310069322586059570e+00 -1.530777454376220703e+00
3.335000000000000000e+03 4.039150619506835938e+01 4.095700740814208984e+00 4.510101377964019775e-01 4.839339256286621094e+00 1.587104797363281250e+00 -2.071870565414428711e+00
3.336000000000000000e+03 4.137084197998046875e+01 2.453711032867431641e+00 5.533061623573303223e-01 5.496346950531005859e+00 1.814895868301391602e+00 -2.460532426834106445e+00
3.337000000000000000e+03 3.932828903198242188e+01 6.850308895111083984e+00 2.591942250728607178e-01 4.354821681976318359e+00 1.384204745292663574e+00 -1.639955043792724609e+00
3.338000000000000000e+03 3.790072631835937500e+01 7.080958843231201172e+00 3.592830896377563477e-01 3.754582881927490234e+00 1.234159827232360840e+00 -1.528799295425415039e+00
3.339000000000000000e+03 4.288309478759765625e+01 -1.761243629455566406e+01 -2.029949724674224854e-01 6.578617095947265625e+00 1.912686586380004883e+00 2.013481140136718750e+00
3.340000000000000000e+03 4.387469482421875000e+01 -1.509904098510742188e+01 -2.387883663177490234e-01 7.867245197296142578e+00 2.288537025451660156e+00 2.289252281188964844e+00
3.341000000000000000e+03 6.014653015136718750e+01 -1.297283172607421875e+01 9.890536665916442871e-01 7.980335712432861328e+00 2.690816879272460938e+00 -7.900223731994628906e-01
3.342000000000000000e+03 5.512577056884765625e+01 -1.468862819671630859e+01 7.132365107536315918e-01 8.743238449096679688e+00 2.836942434310913086e+00 -9.799928069114685059e-01
3.343000000000000000e+03 5.947176361083984375e+01 -1.762494468688964844e+01 2.639400362968444824e-01 8.176193237304687500e+00 2.532040119171142578e+00 -9.059621691703796387e-01
3.344000000000000000e+03 5.894646453857421875e+01 -1.553703689575195312e+01 5.952331423759460449e-01 8.201945304870605469e+00 2.639153480529785156e+00 -9.263933897018432617e-01
3.345000000000000000e+03 6.026295089721679688e+01 -1.806287765502929688e+00 1.284739136695861816e+00 7.861661911010742188e+00 2.743920326232910156e+00 7.168893814086914062e-01
3.346000000000000000e+03 5.912051010131835938e+01 -4.971260547637939453e+00 1.785295128822326660e+00 7.862420558929443359e+00 2.894314765930175781e+00 2.988961637020111084e-01
3.347000000000000000e+03 6.007373809814453125e+01 -7.646803259849548340e-01 1.179118275642395020e+00 7.929222583770751953e+00 2.732502222061157227e+00 8.178164958953857422e-01
3.348000000000000000e+03 6.037867736816406250e+01 -6.638510704040527344e+00 1.625187158584594727e+00 7.741128444671630859e+00 2.809894800186157227e+00 7.036771625280380249e-03
3.349000000000000000e+03 6.069707489013671875e+01 5.489765644073486328e+00 2.663396596908569336e-01 8.054314613342285156e+00 2.496196269989013672e+00 1.010036110877990723e+00
3.350000000000000000e+03 5.844939422607421875e+01 -1.358603191375732422e+01 9.768436551094055176e-01 8.196493148803710938e+00 2.752001047134399414e+00 -8.989503979682922363e-01
3.351000000000000000e+03 3.595645904541015625e+01 1.222658824920654297e+01 4.691290110349655151e-02 3.400774478912353516e+00 1.034306287765502930e+00 -1.057750821113586426e+00
3.352000000000000000e+03 4.363851165771484375e+01 -1.749493026733398438e+01 -3.230226337909698486e-01 7.076449871063232422e+00 2.026028156280517578e+00 1.902010202407836914e+00
3.353000000000000000e+03 3.714817810058593750e+01 7.940996170043945312e+00 3.074536621570587158e-01 3.506396770477294922e+00 1.144155144691467285e+00 -1.345273256301879883e+00
3.354000000000000000e+03 3.671966934204101562e+01 1.017784690856933594e+01 1.385819762945175171e-01 3.501990079879760742e+00 1.092171669006347656e+00 -1.180953502655029297e+00
3.355000000000000000e+03 4.186042785644531250e+01 -1.997867584228515625e+01 -1.727481782436370850e-01 5.733348369598388672e+00 1.668180108070373535e+00 1.709347963333129883e+00
3.356000000000000000e+03 4.306469726562500000e+01 -2.014917564392089844e+01 -3.510739803314208984e-01 6.359501838684082031e+00 1.802528381347656250e+00 1.603540420532226562e+00
3.357000000000000000e+03 6.037610244750976562e+01 -1.003657150268554688e+01 1.378006100654602051e+00 7.831503391265869141e+00 2.762852907180786133e+00 -5.062175989151000977e-01
3.358000000000000000e+03 5.943067550659179688e+01 -9.349802017211914062e+00 1.604144930839538574e+00 7.888357162475585938e+00 2.847750663757324219e+00 -4.487467110157012939e-01
3.359000000000000000e+03 5.835525894165039062e+01 4.456564486026763916e-01 1.071100831031799316e+00 8.168745040893554688e+00 2.771953821182250977e+00 9.858103394508361816e-01
3.360000000000000000e+03 3.512639236450195312e+01 1.427194213867187500e+01 -2.867762744426727295e-02 3.190292119979858398e+00 9.484843015670776367e-01 -9.145606756210327148e-01
3.361000000000000000e+03 3.517190170288085938e+01 1.664868354797363281e+01 -1.085797399282455444e-01 3.309647560119628906e+00 9.603203535079956055e-01 -8.582725524902343750e-01
3.362000000000000000e+03 3.210991668701171875e+01 -2.513248443603515625e+01 3.426450490951538086e-01 2.234051465988159180e+00 7.730089426040649414e-01 7.328610420227050781e-01
3.363000000000000000e+03 4.425248336791992188e+01 -1.718130260705947876e-01 1.908961534500122070e-01 9.317807197570800781e+00 2.852611064910888672e+00 -2.466843128204345703e+00
3.364000000000000000e+03 4.578277587890625000e+01 -3.040061891078948975e-01 5.201516672968864441e-02 1.081079101562500000e+01 3.258841991424560547e+00 -1.295634627342224121e+00
3.365000000000000000e+03 4.657591247558593750e+01 4.127944260835647583e-02 6.702932715415954590e-02 1.064616203308105469e+01 3.213957309722900391e+00 -7.154106497764587402e-01
3.366000000000000000e+03 4.381864166259765625e+01 -3.770218193531036377e-01 3.468686938285827637e-01 8.958518981933593750e+00 2.791616439819335938e+00 -2.840095996856689453e+00
3.367000000000000000e+03 4.842843627929687500e+01 -1.027091979980468750e+00 1.047761678695678711e+00 1.110635280609130859e+01 3.646234512329101562e+00 7.328776717185974121e-01
3.368000000000000000e+03 4.471327590942382812e+01 -1.406089305877685547e+01 -3.005619943141937256e-01 9.046579360961914062e+00 2.623805284500122070e+00 2.077645778656005859e+00
3.369000000000000000e+03 4.719606018066406250e+01 -2.285356074571609497e-01 2.850275039672851562e-01 1.100045204162597656e+01 3.385643959045410156e+00 -1.749172657728195190e-01
3.370000000000000000e+03 4.226859283447265625e+01 6.593170762062072754e-02 8.043103218078613281e-01 6.558080673217773438e+00 2.208717346191406250e+00 -3.101839065551757812e+00
3.371000000000000000e+03 4.547979354858398438e+01 1.800284981727600098e-01 -2.343921549618244171e-02 1.022012138366699219e+01 3.059004783630371094e+00 -1.554478645324707031e+00
3.372000000000000000e+03 4.548894119262695312e+01 -1.383958244323730469e+01 -3.512155413627624512e-01 9.778368949890136719e+00 2.828145980834960938e+00 1.587127566337585449e+00
3.373000000000000000e+03 4.762567138671875000e+01 -5.674998164176940918e-01 5.388156175613403320e-01 1.112344074249267578e+01 3.498676776885986328e+00 1.669764518737792969e-01
3.374000000000000000e+03 4.595846557617187500e+01 -1.314036273956298828e+01 -2.875869870185852051e-01 1.047703742980957031e+01 3.056835174560546875e+00 1.282434582710266113e+00
3.375000000000000000e+03 4.871590423583984375e+01 -1.568623065948486328e+00 1.449642300605773926e+00 1.113045597076416016e+01 3.774029493331909180e+00 9.854683279991149902e-01
3.376000000000000000e+03 4.338893127441406250e+01 -1.579966354370117188e+01 -1.905765831470489502e-01 7.268990993499755859e+00 2.123524427413940430e+00 2.251092433929443359e+00
3.377000000000000000e+03 4.347755050659179688e+01 -1.657579994201660156e+01 -2.566790878772735596e-01 7.161024570465087891e+00 2.071303606033325195e+00 2.102283477783203125e+00
3.378000000000000000e+03 4.453815460205078125e+01 -1.467331314086914062e+01 -3.175642788410186768e-01 8.605834007263183594e+00 2.486480951309204102e+00 2.054154872894287109e+00
3.379000000000000000e+03 4.699793624877929688e+01 -1.249161434173583984e+01 6.956673413515090942e-02 1.119225120544433594e+01 3.378545284271240234e+00 3.796702325344085693e-01
3.380000000000000000e+03 4.934325790405273438e+01 -1.316354155540466309e+00 1.500040411949157715e+00 1.073237419128417969e+01 3.669724464416503906e+00 1.075310111045837402e+00
3.381000000000000000e+03 4.812187194824218750e+01 -1.295067024230957031e+01 2.437018603086471558e-01 1.077957725524902344e+01 3.306983709335327148e+00 -1.655356884002685547e-01
3.382000000000000000e+03 5.874486160278320312e+01 -6.738354206085205078e+00 1.907462358474731445e+00 7.881141662597656250e+00 2.936581134796142578e+00 -2.299711108207702637e-02
3.383000000000000000e+03 5.247611618041992188e+01 -4.722443103790283203e+00 3.313177824020385742e+00 9.010377883911132812e+00 3.697066783905029297e+00 6.715899109840393066e-01
3.384000000000000000e+03 5.089031219482421875e+01 -7.768117904663085938e+00 4.070289134979248047e+00 9.617623329162597656e+00 4.106373786926269531e+00 -6.972446441650390625e-01
3.385000000000000000e+03 5.184895324707031250e+01 -6.749121189117431641e+00 3.885029315948486328e+00 9.126088142395019531e+00 3.903335094451904297e+00 -1.034103184938430786e-01
3.386000000000000000e+03 4.968458175659179688e+01 -1.011474704742431641e+01 2.576040744781494141e+00 1.069945621490478516e+01 3.982649087905883789e+00 -1.357880711555480957e+00
3.387000000000000000e+03 5.176852416992187500e+01 -4.614399433135986328e+00 3.501258850097656250e+00 9.262392997741699219e+00 3.829095602035522461e+00 7.865648269653320312e-01
3.388000000000000000e+03 4.249995803833007812e+01 1.823220491409301758e+00 3.699100911617279053e-01 6.678036689758300781e+00 2.114383935928344727e+00 -2.552886247634887695e+00
3.389000000000000000e+03 5.125107192993164062e+01 -8.591819763183593750e+00 3.478968381881713867e+00 9.569942474365234375e+00 3.914673328399658203e+00 -9.439996480941772461e-01
3.390000000000000000e+03 5.032054519653320312e+01 -9.610074996948242188e+00 3.003129720687866211e+00 1.022587299346923828e+01 3.968700885772705078e+00 -1.282323479652404785e+00
3.391000000000000000e+03 4.529675674438476562e+01 -1.434279346466064453e+01 -3.922112882137298584e-01 9.352921485900878906e+00 2.688212871551513672e+00 1.701189160346984863e+00
3.392000000000000000e+03 4.906826019287109375e+01 -1.124556064605712891e+01 1.493318438529968262e+00 1.098463153839111328e+01 3.743385076522827148e+00 -1.045932173728942871e+00
3.393000000000000000e+03 5.174361801147460938e+01 -7.397539138793945312e+00 3.814904689788818359e+00 9.203527450561523438e+00 3.905529499053955078e+00 -4.210522770881652832e-01
3.394000000000000000e+03 5.032823944091796875e+01 -1.017142009735107422e+01 2.557494163513183594e+00 1.031236267089843750e+01 3.860956907272338867e+00 -1.307102680206298828e+00
3.395000000000000000e+03 5.102488708496093750e+01 -9.597219467163085938e+00 2.953063011169433594e+00 9.777082443237304688e+00 3.819043874740600586e+00 -1.160579085350036621e+00
3.396000000000000000e+03 4.111038208007812500e+01 5.324702262878417969e+00 1.748920232057571411e-01 5.408522129058837891e+00 1.675024271011352539e+00 -1.891512155532836914e+00
3.397000000000000000e+03 5.229122924804687500e+01 -3.305130243301391602e+00 2.801318883895874023e+00 9.222806930541992188e+00 3.607237577438354492e+00 1.043160796165466309e+00
3.398000000000000000e+03 5.139126205444335938e+01 -2.867914199829101562e+00 2.667576074600219727e+00 9.618528366088867188e+00 3.685831308364868164e+00 1.204562902450561523e+00
3.399000000000000000e+03 3.936349487304687500e+01 8.288314819335937500e+00 8.032635599374771118e-02 4.497126102447509766e+00 1.373235702514648438e+00 -1.455553293228149414e+00
3.400000000000000000e+03 3.974888610839843750e+01 5.945522785186767578e+00 3.168584406375885010e-01 4.491846084594726562e+00 1.442611336708068848e+00 -1.772411465644836426e+00
3.401000000000000000e+03 4.127211380004882812e+01 4.282710552215576172e+00 2.769851982593536377e-01 5.500469207763671875e+00 1.733236312866210938e+00 -2.085500717163085938e+00
3.402000000000000000e+03 5.961516571044921875e+01 -3.286628484725952148e+00 1.578172445297241211e+00 7.863759994506835938e+00 2.832579851150512695e+00 5.521086454391479492e-01
3.403000000000000000e+03 5.344981002807617188e+01 -6.223898887634277344e+00 3.248053073883056641e+00 8.652589797973632812e+00 3.570192813873291016e+00 1.006367355585098267e-01
3.404000000000000000e+03 3.822112274169921875e+01 8.507668495178222656e+00 1.783987134695053101e-01 3.972611665725708008e+00 1.245303153991699219e+00 -1.406275987625122070e+00
3.405000000000000000e+03 4.435786819458007812e+01 -1.725470542907714844e+01 -4.255709350109100342e-01 7.565676689147949219e+00 2.142031669616699219e+00 1.757367253303527832e+00
3.406000000000000000e+03 5.973698425292968750e+01 -5.837893009185791016e+00 1.717147350311279297e+00 7.795049190521240234e+00 2.853658914566040039e+00 1.449274718761444092e-01
3.407000000000000000e+03 5.946108627319335938e+01 -7.566032409667968750e+00 1.742918252944946289e+00 7.830413818359375000e+00 2.871999502182006836e+00 -1.615782678127288818e-01
3.408000000000000000e+03 4.413491821289062500e+01 -1.639503479003906250e+01 -3.555794358253479004e-01 7.668485164642333984e+00 2.193871736526489258e+00 1.961909770965576172e+00
3.409000000000000000e+03 5.895095825195312500e+01 1.664354205131530762e+00 8.363816738128662109e-01 8.139329910278320312e+00 2.692713499069213867e+00 1.010635018348693848e+00
3.410000000000000000e+03 5.366429519653320312e+01 -4.604957580566406250e+00 2.926301002502441406e+00 8.679600715637207031e+00 3.481770515441894531e+00 6.023917794227600098e-01
3.411000000000000000e+03 5.178950500488281250e+01 -9.638528823852539062e+00 2.840833187103271484e+00 9.483521461486816406e+00 3.697306394577026367e+00 -1.100236654281616211e+00
3.412000000000000000e+03 5.737916183471679688e+01 -1.294938182830810547e+01 1.166205763816833496e+00 8.318981170654296875e+00 2.845556020736694336e+00 -9.238790869712829590e-01
3.413000000000000000e+03 5.905691528320312500e+01 -1.234942817687988281e+01 1.171755909919738770e+00 8.067241668701171875e+00 2.771699190139770508e+00 -7.961818575859069824e-01
3.414000000000000000e+03 5.878309249877929688e+01 6.344985008239746094e+00 1.178834214806556702e-01 8.200767517089843750e+00 2.495595216751098633e+00 9.843940138816833496e-01
3.415000000000000000e+03 6.144436645507812500e+01 7.557744503021240234e+00 5.359697714447975159e-02 8.007028579711914062e+00 2.418187618255615234e+00 9.762386679649353027e-01
3.416000000000000000e+03 6.007503509521484375e+01 6.994037151336669922e+00 7.617055624723434448e-02 8.097340583801269531e+00 2.452053546905517578e+00 9.826366901397705078e-01
3.417000000000000000e+03 5.884877395629882812e+01 2.892693996429443359e+00 6.346452236175537109e-01 8.190894126892089844e+00 2.647661924362182617e+00 1.038437962532043457e+00
3.418000000000000000e+03 6.439926910400390625e+01 8.378479003906250000e+00 3.057625330984592438e-02 7.864340782165527344e+00 2.368474960327148438e+00 9.473617076873779297e-01
3.419000000000000000e+03 6.405223846435546875e+01 1.001259517669677734e+01 -7.712238281965255737e-02 7.890511989593505859e+00 2.344016790390014648e+00 9.250893592834472656e-01
3.420000000000000000e+03 5.601748657226562500e+01 4.080060958862304688e+00 3.511922657489776611e-01 8.517213821411132812e+00 2.660521745681762695e+00 9.920635223388671875e-01
3.421000000000000000e+03 3.600466918945312500e+01 8.722657203674316406e+00 2.922682762145996094e-01 3.099838495254516602e+00 1.017632007598876953e+00 -1.190455913543701172e+00
3.422000000000000000e+03 3.414406204223632812e+01 1.141920089721679688e+01 1.308651715517044067e-01 2.729239702224731445e+00 8.580315113067626953e-01 -9.079521298408508301e-01
3.423000000000000000e+03 4.478769302368164062e+01 -2.159006309509277344e+01 -5.614668726921081543e-01 6.836980342864990234e+00 1.882654070854187012e+00 1.191959977149963379e+00
3.424000000000000000e+03 3.403627395629882812e+01 1.799508094787597656e+01 -1.083922535181045532e-01 2.996044635772705078e+00 8.662957549095153809e-01 -7.751999497413635254e-01
3.425000000000000000e+03 3.855930328369140625e+01 1.644555854797363281e+01 -2.681584954261779785e-01 4.275872707366943359e+00 1.202314257621765137e+00 -8.926913738250732422e-01
3.426000000000000000e+03 3.714079284667968750e+01 1.621692276000976562e+01 -1.775586158037185669e-01 3.869244337081909180e+00 1.107505798339843750e+00 -8.975513577461242676e-01
3.427000000000000000e+03 4.791025543212890625e+01 2.239536494016647339e-02 3.885131180286407471e-01 1.073055171966552734e+01 3.335719347000122070e+00 1.487116068601608276e-01
3.428000000000000000e+03 4.471520996093750000e+01 1.054149237461388111e-03 6.044870242476463318e-02 9.753248214721679688e+00 2.944108963012695312e+00 -2.124329090118408203e+00
3.429000000000000000e+03 4.335285186767578125e+01 7.250472307205200195e-01 3.077813386917114258e-01 7.821223258972167969e+00 2.438701391220092773e+00 -2.644965648651123047e+00
3.430000000000000000e+03 4.334331893920898438e+01 1.137185096740722656e+00 2.495808452367782593e-01 7.679358482360839844e+00 2.378681659698486328e+00 -2.530689716339111328e+00
3.431000000000000000e+03 4.397904205322265625e+01 -1.446751785278320312e+01 -1.974429488182067871e-01 8.191398620605468750e+00 2.398186683654785156e+00 2.363372802734375000e+00
3.432000000000000000e+03 4.571432876586914062e+01 -1.344198322296142578e+01 -3.163428604602813721e-01 1.014887332916259766e+01 2.949759244918823242e+00 1.439012408256530762e+00
3.433000000000000000e+03 4.886879348754882812e+01 -1.126225113868713379e+00 1.238789081573486328e+00 1.093188762664794922e+01 3.651203155517578125e+00 8.933498263359069824e-01
3.434000000000000000e+03 4.845782470703125000e+01 -5.754524469375610352e-01 7.824416160583496094e-01 1.088618946075439453e+01 3.500589370727539062e+00 5.618745684623718262e-01
3.435000000000000000e+03 4.301138687133789062e+01 8.863095045089721680e-01 3.657120764255523682e-01 7.442927837371826172e+00 2.342592000961303711e+00 -2.705491304397583008e+00
3.436000000000000000e+03 4.603315353393554688e+01 -1.261972427368164062e+01 -1.633508503437042236e-01 1.095615959167480469e+01 3.237842559814453125e+00 1.152506351470947266e+00
3.437000000000000000e+03 4.510747528076171875e+01 -1.493293380737304688e+01 -4.037029445171356201e-01 8.896621704101562500e+00 2.547875404357910156e+00 1.767110586166381836e+00
3.438000000000000000e+03 4.235755538940429688e+01 9.430328011512756348e-01 5.692659020423889160e-01 6.588310241699218750e+00 2.147272825241088867e+00 -2.810195684432983398e+00
3.439000000000000000e+03 4.751398468017578125e+01 -1.273494815826416016e+01 1.416902244091033936e-01 1.097812461853027344e+01 3.335944414138793945e+00 1.035601347684860229e-01
3.440000000000000000e+03 4.684410095214843750e+01 -1.326387023925781250e+01 -1.776600778102874756e-01 1.065050220489501953e+01 3.141852617263793945e+00 6.787613034248352051e-01
3.441000000000000000e+03 4.639543914794921875e+01 -1.248704528808593750e+01 -8.628182858228683472e-02 1.124473476409912109e+01 3.347535848617553711e+00 8.240950107574462891e-01
3.442000000000000000e+03 4.337528228759765625e+01 -2.402047067880630493e-02 4.420504868030548096e-01 8.187495231628417969e+00 2.588863849639892578e+00 -2.924709081649780273e+00
3.443000000000000000e+03 4.827489471435546875e+01 -1.233715438842773438e+01 5.498788952827453613e-01 1.103328037261962891e+01 3.474947929382324219e+00 -4.343047142028808594e-01
3.444000000000000000e+03 5.153934478759765625e+01 -8.009880065917968750e+00 3.658795833587646484e+00 9.348593711853027344e+00 3.902216911315917969e+00 -6.923255324363708496e-01
3.445000000000000000e+03 5.260494613647460938e+01 -6.851911544799804688e+00 3.539610147476196289e+00 8.891477584838867188e+00 3.729326248168945312e+00 -1.296173781156539917e-01
3.446000000000000000e+03 4.298536682128906250e+01 2.137074947357177734e+00 1.923616230487823486e-01 7.116681098937988281e+00 2.192712783813476562e+00 -2.395200490951538086e+00
3.447000000000000000e+03 4.174559402465820312e+01 1.960087060928344727e+00 5.457658767700195312e-01 5.874314785003662109e+00 1.926024198532104492e+00 -2.556786060333251953e+00
3.448000000000000000e+03 4.968468475341796875e+01 -1.068602466583251953e+01 2.092388153076171875e+00 1.069528198242187500e+01 3.836301088333129883e+00 -1.269240975379943848e+00
3.449000000000000000e+03 5.270046234130859375e+01 -6.204233646392822266e+00 3.534633874893188477e+00 8.855916023254394531e+00 3.717164993286132812e+00 1.134447827935218811e-01
3.450000000000000000e+03 5.338835906982421875e+01 -6.927674293518066406e+00 3.251779794692993164e+00 8.673681259155273438e+00 3.577638387680053711e+00 -1.340937167406082153e-01
3.451000000000000000e+03 5.196716690063476562e+01 -6.094656944274902344e+00 3.828858137130737305e+00 9.092586517333984375e+00 3.876433372497558594e+00 1.720750182867050171e-01
3.452000000000000000e+03 5.199882888793945312e+01 -8.941125869750976562e+00 3.101087093353271484e+00 9.319519042968750000e+00 3.726181745529174805e+00 -9.285487532615661621e-01
3.453000000000000000e+03 4.181222534179687500e+01 3.026749610900878906e+00 3.408848643302917480e-01 5.913782119750976562e+00 1.876400113105773926e+00 -2.309106111526489258e+00
3.454000000000000000e+03 4.904673767089843750e+01 -1.187853050231933594e+01 1.038634419441223145e+00 1.087048244476318359e+01 3.572735071182250977e+00 -8.585145473480224609e-01
3.455000000000000000e+03 5.027477645874023438e+01 -1.070462417602539062e+01 2.155352830886840820e+00 1.035015869140625000e+01 3.751653432846069336e+00 -1.275534987449645996e+00
3.456000000000000000e+03 4.962149047851562500e+01 -3.151683509349822998e-02 8.649498820304870605e-01 1.030503940582275391e+01 3.350996732711791992e+00 8.237854838371276855e-01
3.457000000000000000e+03 5.246752929687500000e+01 -7.540021896362304688e+00 3.487480640411376953e+00 8.969495773315429688e+00 3.737092971801757812e+00 -4.122393429279327393e-01
3.458000000000000000e+03 4.639287185668945312e+01 8.515417575836181641e-01 -7.185851037502288818e-02 1.010171985626220703e+01 3.008958339691162109e+00 -8.955937027931213379e-01
3.459000000000000000e+03 4.091679000854492188e+01 6.504708290100097656e+00 7.176771014928817749e-02 5.265320777893066406e+00 1.601126551628112793e+00 -1.714646577835083008e+00
3.460000000000000000e+03 5.103351974487304688e+01 -1.029127979278564453e+01 2.410616397857666016e+00 9.860429763793945312e+00 3.681313753128051758e+00 -1.211035609245300293e+00
3.461000000000000000e+03 5.249110794067382812e+01 -9.977032661437988281e+00 2.513760805130004883e+00 9.229743003845214844e+00 3.523051023483276367e+00 -1.047823667526245117e+00
3.462000000000000000e+03 5.159715652465820312e+01 -1.883030652999877930e+00 2.129395961761474609e+00 9.609379768371582031e+00 3.521632671356201172e+00 1.219931483268737793e+00
3.463000000000000000e+03 5.061504364013671875e+01 -1.861490726470947266e+00 2.074624538421630859e+00 1.010899162292480469e+01 3.655084848403930664e+00 1.257261037826538086e+00
3.464000000000000000e+03 5.074239349365234375e+01 -1.027768731117248535e+00 1.548649072647094727e+00 9.999596595764160156e+00 3.464473724365234375e+00 1.154554724693298340e+00
3.465000000000000000e+03 5.303664398193359375e+01 -3.962512731552124023e+00 2.916246652603149414e+00 8.911081314086914062e+00 3.548198461532592773e+00 8.263010382652282715e-01
3.466000000000000000e+03 4.390333175659179688e+01 -1.860125160217285156e+01 -4.020568430423736572e-01 7.004652500152587891e+00 1.980778694152832031e+00 1.681935071945190430e+00
3.467000000000000000e+03 4.534213256835937500e+01 -1.647764968872070312e+01 -5.032923817634582520e-01 8.365648269653320312e+00 2.358706712722778320e+00 1.524992108345031738e+00
3.468000000000000000e+03 3.945281219482421875e+01 1.275836086273193359e+01 -1.810182332992553711e-01 4.555887699127197266e+00 1.312460780143737793e+00 -1.124173045158386230e+00
3.469000000000000000e+03 5.855669403076171875e+01 -8.589083671569824219e+00 1.815934777259826660e+00 7.942333221435546875e+00 2.927480459213256836e+00 -3.549447655677795410e-01
3.470000000000000000e+03 5.853244018554687500e+01 -4.024906158447265625e+00 1.802254557609558105e+00 7.940791606903076172e+00 2.922913789749145508e+00 4.759503901004791260e-01
3.471000000000000000e+03 4.478950881958007812e+01 -1.822076416015625000e+01 -4.891551733016967773e-01 7.533653736114501953e+00 2.113349676132202148e+00 1.533345937728881836e+00
3.472000000000000000e+03 5.866145324707031250e+01 1.046230506896972656e+01 -2.733905911445617676e-01 8.057949066162109375e+00 2.335367679595947266e+00 8.142697811126708984e-01
3.473000000000000000e+03 5.763373565673828125e+01 -9.724488258361816406e+00 1.810789704322814941e+00 8.106915473937988281e+00 2.975311756134033203e+00 -5.853490233421325684e-01
3.474000000000000000e+03 5.743264007568359375e+01 1.023695349693298340e+00 1.005127668380737305e+00 8.306726455688476562e+00 2.793556451797485352e+00 1.042997598648071289e+00
3.475000000000000000e+03 5.761569595336914062e+01 5.614757537841796875e+00 1.643589437007904053e-01 8.298780441284179688e+00 2.538941860198974609e+00 9.819994568824768066e-01
3.476000000000000000e+03 5.798145675659179688e+01 -1.169456481933593750e+01 1.387274980545043945e+00 8.161396980285644531e+00 2.864601612091064453e+00 -7.943783998489379883e-01
3.477000000000000000e+03 5.579621124267578125e+01 -1.357639789581298828e+01 1.028559327125549316e+00 8.606620788574218750e+00 2.890553951263427734e+00 -9.983589649200439453e-01
3.478000000000000000e+03 5.279587936401367188e+01 -5.604482173919677734e+00 3.452002525329589844e+00 8.853514671325683594e+00 3.691655158996582031e+00 3.344429135322570801e-01
3.479000000000000000e+03 6.288842010498046875e+01 8.016139030456542969e+00 3.773912042379379272e-02 7.931202888488769531e+00 2.390682458877563477e+00 9.654434323310852051e-01
3.480000000000000000e+03 4.263704681396484375e+01 -2.393348121643066406e+01 -4.041185975074768066e-01 5.818534374237060547e+00 1.624324798583984375e+00 1.204649329185485840e+00
3.481000000000000000e+03 5.781235122680664062e+01 -8.714218735694885254e-01 1.399265885353088379e+00 8.175807952880859375e+00 2.872522115707397461e+00 9.286904335021972656e-01
3.482000000000000000e+03 5.896720886230468750e+01 -1.098398685455322266e+00 1.363618850708007812e+00 8.029154777526855469e+00 2.817832231521606445e+00 8.487635850906372070e-01
3.483000000000000000e+03 3.653699874877929688e+01 1.360525226593017578e+01 -5.467148497700691223e-02 3.628426074981689453e+00 1.072126388549804688e+00 -1.011927843093872070e+00
3.484000000000000000e+03 3.569756698608398438e+01 1.939667892456054688e+01 -1.974606066942214966e-01 3.495187520980834961e+00 9.893180727958679199e-01 -7.595341205596923828e-01
3.485000000000000000e+03 4.594967269897460938e+01 4.854120016098022461e-01 -6.724893301725387573e-02 1.022540473937988281e+01 3.047446727752685547e+00 -1.164508342742919922e+00
3.486000000000000000e+03 4.268442153930664062e+01 4.724193215370178223e-01 5.633075833320617676e-01 7.111959457397460938e+00 2.302580118179321289e+00 -2.933270692825317383e+00
3.487000000000000000e+03 4.667487335205078125e+01 4.963189363479614258e-01 7.107062265276908875e-03 1.042949485778808594e+01 3.130980730056762695e+00 -6.966332197189331055e-01
3.488000000000000000e+03 4.318583297729492188e+01 1.591191887855529785e+00 2.200063169002532959e-01 7.432737350463867188e+00 2.295823097229003906e+00 -2.472537279129028320e+00
3.489000000000000000e+03 4.472125625610351562e+01 6.303711533546447754e-01 -2.394174225628376007e-04 9.327742576599121094e+00 2.798250913619995117e+00 -2.027762413024902344e+00
3.490000000000000000e+03 4.275479507446289062e+01 1.309017181396484375e+00 3.760518431663513184e-01 7.042134761810302734e+00 2.225455999374389648e+00 -2.670522689819335938e+00
3.491000000000000000e+03 4.604071044921875000e+01 -1.409037303924560547e+01 -3.739906251430511475e-01 9.849395751953125000e+00 2.842621564865112305e+00 1.242673635482788086e+00
3.492000000000000000e+03 4.667273712158203125e+01 -1.281126213073730469e+01 -1.066328063607215881e-01 1.096352672576904297e+01 3.257068157196044922e+00 6.977666020393371582e-01
3.493000000000000000e+03 4.790894699096679688e+01 -1.357573509216308594e+01 -1.418046653270721436e-02 1.051831340789794922e+01 3.151239871978759766e+00 9.771335124969482422e-02
3.494000000000000000e+03 4.707285308837890625e+01 -1.375532341003417969e+01 -2.409495860338211060e-01 1.034150886535644531e+01 3.030167579650878906e+00 6.278833746910095215e-01
3.495000000000000000e+03 4.734854507446289062e+01 -1.329615497589111328e+01 -7.171171158552169800e-02 1.066454887390136719e+01 3.177851200103759766e+00 3.411751389503479004e-01
3.496000000000000000e+03 4.302817153930664062e+01 1.091457903385162354e-01 5.208953022956848145e-01 7.662545680999755859e+00 2.455032348632812500e+00 -2.960534334182739258e+00
3.497000000000000000e+03 4.434609222412109375e+01 -1.530447196960449219e+01 -3.366729021072387695e-01 8.172664642333984375e+00 2.350797653198242188e+00 2.056211233139038086e+00
3.498000000000000000e+03 4.476598739624023438e+01 -1.628368377685546875e+01 -4.375378191471099854e-01 8.085510253906250000e+00 2.294391632080078125e+00 1.782619714736938477e+00
3.499000000000000000e+03 4.951614761352539062e+01 -7.217696309089660645e-01 1.187821030616760254e+00 1.053540420532226562e+01 3.516967535018920898e+00 9.652310013771057129e-01
3.500000000000000000e+03 4.905532073974609375e+01 7.273545861244201660e-01 4.134082794189453125e-01 1.021516418457031250e+01 3.188571691513061523e+00 4.598508477210998535e-01
3.501000000000000000e+03 5.008554077148437500e+01 -9.003248214721679688e-01 1.404378533363342285e+00 1.028519725799560547e+01 3.506872892379760742e+00 1.093486547470092773e+00
3.502000000000000000e+03 5.526823806762695312e+01 -6.043878078460693359e+00 2.673918008804321289e+00 8.313300132751464844e+00 3.296165466308593750e+00 1.264904588460922241e-01
3.503000000000000000e+03 5.020402908325195312e+01 -1.669657826423645020e-01 1.038179516792297363e+00 1.013652801513671875e+01 3.352412223815917969e+00 9.673991203308105469e-01
3.504000000000000000e+03 4.805507278442382812e+01 -8.403030037879943848e-01 7.851177453994750977e-01 1.112991046905517578e+01 3.574508428573608398e+00 4.699358940124511719e-01
3.505000000000000000e+03 5.746232223510742188e+01 -4.842956066131591797e+00 2.081185102462768555e+00 8.035114288330078125e+00 3.034889936447143555e+00 3.622541427612304688e-01
3.506000000000000000e+03 4.972197341918945312e+01 -1.129160690307617188e+01 1.631077647209167480e+00 1.061854362487792969e+01 3.674886226654052734e+00 -1.149948596954345703e+00
3.507000000000000000e+03 5.150478363037109375e+01 -9.546872973442077637e-01 1.575575232505798340e+00 9.673962593078613281e+00 3.374861478805541992e+00 1.178020834922790527e+00
3.508000000000000000e+03 5.635766983032226562e+01 -1.237787914276123047e+01 1.352469801902770996e+00 8.457703590393066406e+00 2.943052053451538086e+00 -9.533678889274597168e-01
3.509000000000000000e+03 4.895238494873046875e+01 -1.252728366851806641e+01 6.820473670959472656e-01 1.073058605194091797e+01 3.423789978027343750e+00 -6.528420448303222656e-01
3.510000000000000000e+03 4.981084442138671875e+01 -1.198288726806640625e+01 1.190022468566894531e+00 1.046598434448242188e+01 3.496802091598510742e+00 -9.974836707115173340e-01
3.511000000000000000e+03 5.323702621459960938e+01 -7.674890995025634766e+00 3.173798799514770508e+00 8.761806488037109375e+00 3.580681562423706055e+00 -3.913750052452087402e-01
3.512000000000000000e+03 4.243958282470703125e+01 3.513447046279907227e+00 1.549895256757736206e-01 6.361435890197753906e+00 1.954927682876586914e+00 -2.161673545837402344e+00
3.513000000000000000e+03 4.219540786743164062e+01 4.416502475738525391e+00 1.040272489190101624e-01 6.133438587188720703e+00 1.871239781379699707e+00 -2.022526025772094727e+00
3.514000000000000000e+03 4.497022247314453125e+01 -1.694387626647949219e+01 -4.853358864784240723e-01 7.969129085540771484e+00 2.245137929916381836e+00 1.637066006660461426e+00
3.515000000000000000e+03 3.987454223632812500e+01 9.391062736511230469e+00 -2.788123860955238342e-02 4.727686882019042969e+00 1.409941673278808594e+00 -1.392732620239257812e+00
3.516000000000000000e+03 5.082481384277343750e+01 -1.088264942169189453e+01 2.066661596298217773e+00 1.002141857147216797e+01 3.626424074172973633e+00 -1.240972876548767090e+00
3.517000000000000000e+03 5.796392822265625000e+01 2.125338077545166016e+00 7.697377800941467285e-01 8.269050598144531250e+00 2.711636543273925781e+00 1.051249384880065918e+00
3.518000000000000000e+03 5.716855239868164062e+01 -2.132244586944580078e+00 1.728373050689697266e+00 8.197000503540039062e+00 2.977612018585205078e+00 8.273749947547912598e-01
3.519000000000000000e+03 5.485446929931640625e+01 -2.859114885330200195e+00 2.225353717803955078e+00 8.562641143798828125e+00 3.236398458480834961e+00 8.879829049110412598e-01
3.520000000000000000e+03 5.307735824584960938e+01 -5.082356929779052734e+00 3.204645395278930664e+00 8.799266815185546875e+00 3.601173877716064453e+00 5.032665729522705078e-01
3.521000000000000000e+03 5.866253280639648438e+01 -1.047951793670654297e+01 1.525867700576782227e+00 8.021446228027343750e+00 2.864194393157958984e+00 -6.371909379959106445e-01
3.522000000000000000e+03 5.226813125610351562e+01 -8.243800163269042969e+00 3.331927537918090820e+00 9.113128662109375000e+00 3.733516931533813477e+00 -6.775708198547363281e-01
3.523000000000000000e+03 3.796724700927734375e+01 1.314825916290283203e+01 -1.058977395296096802e-01 4.073801040649414062e+00 1.190371036529541016e+00 -1.074073195457458496e+00
3.524000000000000000e+03 4.427632904052734375e+01 -1.993027877807617188e+01 -4.818299710750579834e-01 6.901125907897949219e+00 1.925788760185241699e+00 1.462821364402770996e+00
3.525000000000000000e+03 4.553564834594726562e+01 -1.764174461364746094e+01 -5.552250146865844727e-01 8.045691490173339844e+00 2.247140169143676758e+00 1.375272631645202637e+00
3.526000000000000000e+03 4.193900299072265625e+01 1.026192188262939453e+01 -2.794940471649169922e-01 5.576747417449951172e+00 1.589175939559936523e+00 -1.251612544059753418e+00
3.527000000000000000e+03 5.533467102050781250e+01 -8.458205223083496094e+00 2.469327688217163086e+00 8.371111869812011719e+00 3.252131938934326172e+00 -4.778134822845458984e-01
3.528000000000000000e+03 5.794208526611328125e+01 -2.989199638366699219e+00 1.764855980873107910e+00 8.059092521667480469e+00 2.947184801101684570e+00 6.837370395660400391e-01
3.529000000000000000e+03 5.185096740722656250e+01 -1.036208248138427734e+01 2.372681856155395508e+00 9.528694152832031250e+00 3.570412874221801758e+00 -1.161724686622619629e+00
3.530000000000000000e+03 5.605885696411132812e+01 -1.539377593994140625e+01 5.802878141403198242e-01 8.582011222839355469e+00 2.748689651489257812e+00 -9.577274918556213379e-01
3.531000000000000000e+03 5.781983947753906250e+01 -1.485877895355224609e+01 7.295059561729431152e-01 8.326221466064453125e+00 2.716718196868896484e+00 -9.518864750862121582e-01
3.532000000000000000e+03 5.807377243041992188e+01 -5.826017856597900391e+00 2.020848751068115234e+00 7.944244384765625000e+00 2.989527940750122070e+00 1.598623842000961304e-01
3.533000000000000000e+03 5.776584625244140625e+01 -7.710206031799316406e+00 2.029187440872192383e+00 7.995633602142333984e+00 3.007446289062500000e+00 -2.295337915420532227e-01
3.534000000000000000e+03 5.707714080810546875e+01 3.834617614746093750e+00 4.453290700912475586e-01 8.382228851318359375e+00 2.648267269134521484e+00 1.038807392120361328e+00
3.535000000000000000e+03 5.685097885131835938e+01 2.603748083114624023e+00 6.907581686973571777e-01 8.419165611267089844e+00 2.732977151870727539e+00 1.064284682273864746e+00
3.536000000000000000e+03 5.826007080078125000e+01 4.213017463684082031e+00 4.050367474555969238e-01 8.264412879943847656e+00 2.600834846496582031e+00 1.037307977676391602e+00
3.537000000000000000e+03 5.937478256225585938e+01 8.642671585083007812e+00 -1.065241172909736633e-01 8.096138000488281250e+00 2.396883964538574219e+00 9.101023674011230469e-01
3.538000000000000000e+03 6.086241912841796875e+01 9.215236663818359375e+00 -1.029427349567413330e-01 8.019187927246093750e+00 2.374873638153076172e+00 9.268400669097900391e-01
3.539000000000000000e+03 5.666027069091796875e+01 -5.809922218322753906e-01 1.410365819931030273e+00 8.368016242980957031e+00 2.933514595031738281e+00 1.017773389816284180e+00
3.540000000000000000e+03 6.241930389404296875e+01 9.665712356567382812e+00 -9.111519157886505127e-02 7.949802875518798828e+00 2.357606410980224609e+00 9.313296675682067871e-01
3.541000000000000000e+03 5.303934097290039062e+01 -8.446895599365234375e+00 3.025561571121215820e+00 8.879453659057617188e+00 3.571504354476928711e+00 -6.691740155220031738e-01
3.542000000000000000e+03 4.152023696899414062e+01 1.417781352996826172e+01 -3.766909837722778320e-01 5.194380283355712891e+00 1.445306777954101562e+00 -9.682961106300354004e-01
3.543000000000000000e+03 4.017501068115234375e+01 1.647624015808105469e+01 -3.554463684558868408e-01 4.729925632476806641e+00 1.312343716621398926e+00 -8.797952532768249512e-01
3.544000000000000000e+03 3.761304855346679688e+01 2.056904220581054688e+01 -2.795766890048980713e-01 3.976476907730102539e+00 1.109070062637329102e+00 -7.157287001609802246e-01
3.545000000000000000e+03 2.442570495605468750e+01 2.562965202331542969e+01 7.677114009857177734e-02 1.226706743240356445e+00 3.910433650016784668e-01 -3.397599756717681885e-01
3.546000000000000000e+03 4.351898574829101562e+01 2.363191127777099609e+00 4.549386352300643921e-02 7.504335880279541016e+00 2.264948844909667969e+00 -2.207976579666137695e+00
3.547000000000000000e+03 4.404734802246093750e+01 2.167586833238601685e-01 1.710170209407806396e-01 8.904544830322265625e+00 2.722668647766113281e+00 -2.508448600769042969e+00
3.548000000000000000e+03 4.658681869506835938e+01 -1.406269741058349609e+01 -3.511506021022796631e-01 1.012676811218261719e+01 2.932685375213623047e+00 9.016512036323547363e-01
3.549000000000000000e+03 4.570325088500976562e+01 -1.519752693176269531e+01 -4.596016108989715576e-01 9.087639808654785156e+00 2.588411331176757812e+00 1.427081942558288574e+00
3.550000000000000000e+03 4.334648895263671875e+01 3.355144262313842773e-01 3.683553636074066162e-01 7.937891483306884766e+00 2.491873979568481445e+00 -2.769378185272216797e+00
3.551000000000000000e+03 4.371953964233398438e+01 3.445247709751129150e-01 2.496467530727386475e-01 8.390817642211914062e+00 2.592139244079589844e+00 -2.602272033691406250e+00
3.552000000000000000e+03 4.903978347778320312e+01 1.593548804521560669e-02 7.018666267395019531e-01 1.047149372100830078e+01 3.352008104324340820e+00 6.300447583198547363e-01
3.553000000000000000e+03 4.848229598999023438e+01 6.279916167259216309e-01 3.016197681427001953e-01 1.035955238342285156e+01 3.198351621627807617e+00 2.386169135570526123e-01
3.554000000000000000e+03 4.553418350219726562e+01 -1.584484195709228516e+01 -4.874238371849060059e-01 8.691609382629394531e+00 2.461255550384521484e+00 1.478538513183593750e+00
3.555000000000000000e+03 4.489366149902343750e+01 -1.559643173217773438e+01 -4.171441495418548584e-01 8.416086196899414062e+00 2.399682760238647461e+00 1.802255034446716309e+00
3.556000000000000000e+03 4.572095108032226562e+01 9.835473299026489258e-01 -1.280750334262847900e-01 9.783390998840332031e+00 2.896594762802124023e+00 -1.333990693092346191e+00
3.557000000000000000e+03 4.220475006103515625e+01 2.400827646255493164e+00 3.514477014541625977e-01 6.334678649902343750e+00 2.005837917327880859e+00 -2.430453777313232422e+00
3.558000000000000000e+03 4.760118865966796875e+01 -1.420752525329589844e+01 -2.499648779630661011e-01 1.016350936889648438e+01 2.974063158035278320e+00 4.130024015903472900e-01
3.559000000000000000e+03 5.422549819946289062e+01 -6.985089302062988281e+00 2.982137918472290039e+00 8.499874114990234375e+00 3.444603681564331055e+00 -1.244413703680038452e-01
3.560000000000000000e+03 5.321464157104492188e+01 -2.447546482086181641e+00 2.281595706939697266e+00 9.007306098937988281e+00 3.386670589447021484e+00 1.076249361038208008e+00
3.561000000000000000e+03 5.263438034057617188e+01 -1.565735101699829102e+00 1.970580935478210449e+00 9.246759414672851562e+00 3.365202188491821289e+00 1.182149052619934082e+00
3.562000000000000000e+03 4.844836044311523438e+01 -1.341475546360015869e-02 5.473733544349670410e-01 1.064546966552734375e+01 3.357852935791015625e+00 3.983587622642517090e-01
3.563000000000000000e+03 5.193020629882812500e+01 -1.113864517211914062e+01 1.981362938880920410e+00 9.540244102478027344e+00 3.456482172012329102e+00 -1.161088347434997559e+00
3.564000000000000000e+03 5.390611267089843750e+01 -3.277092933654785156e+00 2.507171869277954102e+00 8.740675926208496094e+00 3.374354362487792969e+00 8.989738821983337402e-01
3.565000000000000000e+03 4.972359466552734375e+01 -1.273538017272949219e+01 7.933405637741088867e-01 1.036566066741943359e+01 3.347700357437133789e+00 -8.102047443389892578e-01
3.566000000000000000e+03 5.229916381835937500e+01 -1.350659751892089844e+01 8.621777892112731934e-01 9.415332794189453125e+00 3.083253145217895508e+00 -9.638254046440124512e-01
3.567000000000000000e+03 5.057469940185546875e+01 -1.181573390960693359e+01 1.434265494346618652e+00 1.015921688079833984e+01 3.478044748306274414e+00 -1.105020284652709961e+00
3.568000000000000000e+03 5.033575439453125000e+01 -1.121132183074951172e+01 1.782220602035522461e+00 1.030119419097900391e+01 3.625024318695068359e+00 -1.199707865715026855e+00
3.569000000000000000e+03 4.308470916748046875e+01 4.593082427978515625e+00 -6.986489146947860718e-02 6.717502593994140625e+00 1.994291305541992188e+00 -1.860646247863769531e+00
3.570000000000000000e+03 5.493346405029296875e+01 -5.018357276916503906e+00 2.674064874649047852e+00 8.399332046508789062e+00 3.322019100189208984e+00 4.210389852523803711e-01
3.571000000000000000e+03 5.338975524902343750e+01 -5.583524703979492188e+00 3.212939739227294922e+00 8.675753593444824219e+00 3.566607952117919922e+00 3.068144023418426514e-01
3.572000000000000000e+03 4.306554794311523438e+01 5.442584514617919922e+00 -1.396131366491317749e-01 6.511594772338867188e+00 1.911594510078430176e+00 -1.708440899848937988e+00
3.573000000000000000e+03 4.213598632812500000e+01 5.484048366546630859e+00 -2.425550192128866911e-04 5.993699550628662109e+00 1.798037171363830566e+00 -1.830233812332153320e+00
3.574000000000000000e+03 4.541910934448242188e+01 -1.932606506347656250e+01 -5.774436593055725098e-01 7.515104770660400391e+00 2.081298351287841797e+00 1.245625972747802734e+00
3.575000000000000000e+03 4.723696136474609375e+01 -1.471234130859375000e+01 -3.821561336517333984e-01 9.897548675537109375e+00 2.854617834091186523e+00 6.506016254425048828e-01
3.576000000000000000e+03 5.429701232910156250e+01 -3.465419411659240723e-01 1.465838909149169922e+00 8.819887161254882812e+00 3.085717678070068359e+00 1.113508105278015137e+00
3.577000000000000000e+03 4.621921920776367188e+01 -2.058414840698242188e+01 -6.571884751319885254e-01 7.565497875213623047e+00 2.072492837905883789e+00 9.908709526062011719e-01
3.578000000000000000e+03 5.490575408935546875e+01 -1.305043506622314453e+01 1.174091696739196777e+00 8.772513389587402344e+00 2.983981609344482422e+00 -1.029881834983825684e+00
3.579000000000000000e+03 5.460338973999023438e+01 -9.583701133728027344e+00 2.356121301651000977e+00 8.609064102172851562e+00 3.289555788040161133e+00 -7.851125597953796387e-01
3.580000000000000000e+03 5.570324325561523438e+01 -9.423818588256835938e+00 2.181919574737548828e+00 8.366447448730468750e+00 3.164510011672973633e+00 -6.527543663978576660e-01
3.581000000000000000e+03 5.688784027099609375e+01 -1.103931617736816406e+01 1.651915431022644043e+00 8.281373023986816406e+00 2.979986429214477539e+00 -7.954490184783935547e-01
3.582000000000000000e+03 5.637215042114257812e+01 -5.621475696563720703e+00 2.397794485092163086e+00 8.164402961730957031e+00 3.168659210205078125e+00 2.139279991388320923e-01
3.583000000000000000e+03 5.587834930419921875e+01 -4.556102275848388672e+00 2.415305852890014648e+00 8.270275115966796875e+00 3.205674409866333008e+00 4.868201613426208496e-01
3.584000000000000000e+03 4.124278259277343750e+01 8.746733665466308594e+00 -1.279713064432144165e-01 5.348857879638671875e+00 1.566265940666198730e+00 -1.446310400962829590e+00
3.585000000000000000e+03 4.100657272338867188e+01 1.236224460601806641e+01 -2.864755094051361084e-01 5.108556747436523438e+00 1.446624398231506348e+00 -1.120712518692016602e+00
3.586000000000000000e+03 4.043589782714843750e+01 1.077962398529052734e+01 -1.639709174633026123e-01 4.938914299011230469e+00 1.432482957839965820e+00 -1.276086926460266113e+00
3.587000000000000000e+03 5.663755798339843750e+01 4.907218933105468750e+00 2.163346260786056519e-01 8.397813796997070312e+00 2.584244489669799805e+00 9.718952178955078125e-01
3.588000000000000000e+03 5.554840469360351562e+01 1.317039966583251953e+00 9.230256676673889160e-01 8.591544151306152344e+00 2.854370832443237305e+00 1.075864076614379883e+00
3.589000000000000000e+03 3.834645462036132812e+01 9.765044212341308594e+00 7.329819351434707642e-02 4.074625015258789062e+00 1.244376897811889648e+00 -1.314408063888549805e+00
3.590000000000000000e+03 4.379677963256835938e+01 1.576187896728515625e+01 -5.246523618698120117e-01 5.739591598510742188e+00 1.564481854438781738e+00 -7.403016090393066406e-01
3.591000000000000000e+03 4.435434341430664062e+01 1.801096153259277344e+01 -5.587639212608337402e-01 5.710038661956787109e+00 1.545382380485534668e+00 -5.942535400390625000e-01
3.592000000000000000e+03 4.459971237182617188e+01 -2.502580070495605469e+01 -5.775298476219177246e-01 6.369003772735595703e+00 1.737442135810852051e+00 9.575242400169372559e-01
3.593000000000000000e+03 5.560653305053710938e+01 -5.428498983383178711e-01 1.466385006904602051e+00 8.561224937438964844e+00 3.008283138275146484e+00 1.073443293571472168e+00
3.594000000000000000e+03 5.489684295654296875e+01 -2.059755802154541016e+00 1.977503538131713867e+00 8.617949485778808594e+00 3.178635835647583008e+00 9.975799918174743652e-01
3.595000000000000000e+03 6.752138519287109375e+01 8.842968940734863281e+00 2.288399636745452881e-02 7.748981475830078125e+00 2.331559658050537109e+00 8.802587389945983887e-01
3.596000000000000000e+03 5.787926483154296875e+01 1.246595287322998047e+01 -4.213215112686157227e-01 7.963357925415039062e+00 2.262610912322998047e+00 6.832142472267150879e-01
3.597000000000000000e+03 6.370104217529296875e+01 1.175712585449218750e+01 -1.781440973281860352e-01 7.899288654327392578e+00 2.316343307495117188e+00 8.847016096115112305e-01
3.598000000000000000e+03 6.193003082275390625e+01 1.144953250885009766e+01 -2.127656936645507812e-01 7.941285133361816406e+00 2.318555831909179688e+00 8.744798302650451660e-01
3.599000000000000000e+03 5.710346984863281250e+01 -1.614290046691894531e+01 4.588144421577453613e-01 8.434242248535156250e+00 2.667916774749755859e+00 -9.384651184082031250e-01
3.600000000000000000e+03 5.626025390625000000e+01 -1.742407989501953125e+01 1.816209256649017334e-01 8.511801719665527344e+00 2.608026742935180664e+00 -8.680889010429382324e-01
3.601000000000000000e+03 2.927970504760742188e+01 -2.406132698059082031e+01 3.705035448074340820e-01 1.527872085571289062e+00 5.695126652717590332e-01 4.736424684524536133e-01
3.602000000000000000e+03 4.589821624755859375e+01 -1.460080528259277344e+01 -4.222591817378997803e-01 9.534998893737792969e+00 2.733822107315063477e+00 1.328105688095092773e+00
3.603000000000000000e+03 4.700416946411132812e+01 8.348466157913208008e-01 -3.431219235062599182e-02 1.034016323089599609e+01 3.091755390167236328e+00 -5.374416112899780273e-01
3.604000000000000000e+03 4.417450332641601562e+01 1.896683216094970703e+00 -3.285839781165122986e-02 8.192790031433105469e+00 2.447979688644409180e+00 -2.048768043518066406e+00
3.605000000000000000e+03 4.421597671508789062e+01 6.790898442268371582e-01 7.960788160562515259e-02 8.836826324462890625e+00 2.674930334091186523e+00 -2.318323373794555664e+00
3.606000000000000000e+03 4.470072555541992188e+01 2.672641038894653320e+00 -1.943439096212387085e-01 8.271275520324707031e+00 2.423079490661621094e+00 -1.694219946861267090e+00
3.607000000000000000e+03 4.615196228027343750e+01 1.316574692726135254e+00 -1.773109734058380127e-01 9.781992912292480469e+00 2.881404399871826172e+00 -1.084257245063781738e+00
3.608000000000000000e+03 4.839097976684570312e+01 1.207463145256042480e+00 1.242393478751182556e-01 1.017827033996582031e+01 3.090752840042114258e+00 1.039606481790542603e-01
3.609000000000000000e+03 4.274602127075195312e+01 2.772715806961059570e+00 1.750192046165466309e-01 6.768431186676025391e+00 2.083034992218017578e+00 -2.278478860855102539e+00
3.610000000000000000e+03 4.366694641113281250e+01 1.778380870819091797e+00 8.936374634504318237e-02 7.807312965393066406e+00 2.369003057479858398e+00 -2.284585237503051758e+00
3.611000000000000000e+03 4.600106811523437500e+01 -1.690192222595214844e+01 -5.588666796684265137e-01 8.491514205932617188e+00 2.379794120788574219e+00 1.251507997512817383e+00
3.612000000000000000e+03 4.693913650512695312e+01 -1.628824043273925781e+01 -5.287793278694152832e-01 9.152123451232910156e+00 2.587003231048583984e+00 8.466271162033081055e-01
3.613000000000000000e+03 4.689988327026367188e+01 -1.548591423034667969e+01 -4.802033603191375732e-01 9.457871437072753906e+00 2.693300485610961914e+00 8.552017211914062500e-01
3.614000000000000000e+03 4.690994262695312500e+01 -1.733637046813964844e+01 -5.924087166786193848e-01 8.682756423950195312e+00 2.427104473114013672e+00 8.867501020431518555e-01
3.615000000000000000e+03 4.876523590087890625e+01 -1.318330097198486328e+01 3.483106195926666260e-01 1.052469158172607422e+01 3.261900663375854492e+00 -3.837373554706573486e-01
3.616000000000000000e+03 4.422579193115234375e+01 1.280746817588806152e+00 1.080949418246746063e-02 8.560612678527832031e+00 2.571426630020141602e+00 -2.163179636001586914e+00
3.617000000000000000e+03 4.799370956420898438e+01 5.844710469245910645e-01 2.180328220129013062e-01 1.044935607910156250e+01 3.200216770172119141e+00 6.726158410310745239e-02
3.618000000000000000e+03 5.231560516357421875e+01 -6.168609261512756348e-01 1.507076740264892578e+00 9.386354446411132812e+00 3.268029451370239258e+00 1.167742967605590820e+00
3.619000000000000000e+03 4.589959716796875000e+01 1.678959608078002930e+00 -2.009601891040802002e-01 9.502175331115722656e+00 2.790364742279052734e+00 -1.184908628463745117e+00
3.620000000000000000e+03 4.641624832153320312e+01 -1.843524932861328125e+01 -6.308420896530151367e-01 8.193305969238281250e+00 2.268739223480224609e+00 1.029572010040283203e+00
3.621000000000000000e+03 5.364161300659179688e+01 -9.481538772583007812e+00 2.545211791992187500e+00 8.813768386840820312e+00 3.407694101333618164e+00 -8.453918695449829102e-01
3.622000000000000000e+03 5.121426773071289062e+01 -1.135980415344238281e+01 1.847462892532348633e+00 9.862714767456054688e+00 3.513053178787231445e+00 -1.195695281028747559e+00
3.623000000000000000e+03 5.163241958618164062e+01 -1.184343338012695312e+01 1.551620960235595703e+00 9.673827171325683594e+00 3.367634534835815430e+00 -1.130277037620544434e+00
3.624000000000000000e+03 5.408522033691406250e+01 -5.340814113616943359e+00 2.944811344146728516e+00 8.546852111816406250e+00 3.447499036788940430e+00 3.547660410404205322e-01
3.625000000000000000e+03 5.103913879394531250e+01 -1.243623256683349609e+01 1.179641485214233398e+00 9.928368568420410156e+00 3.332403182983398438e+00 -1.053590655326843262e+00
3.626000000000000000e+03 5.077688217163085938e+01 -3.107952177524566650e-01 1.195668816566467285e+00 9.900837898254394531e+00 3.328952074050903320e+00 1.061123728752136230e+00
3.627000000000000000e+03 5.039658737182617188e+01 6.246241927146911621e-01 7.236424088478088379e-01 9.889427185058593750e+00 3.183920860290527344e+00 8.378278017044067383e-01
3.628000000000000000e+03 4.335754013061523438e+01 3.015595197677612305e+00 1.261966209858655930e-02 7.221561431884765625e+00 2.170254230499267578e+00 -2.107000112533569336e+00
3.629000000000000000e+03 5.446360778808593750e+01 -1.065776062011718750e+01 2.027740240097045898e+00 8.729022026062011719e+00 3.227028846740722656e+00 -9.340904355049133301e-01
3.630000000000000000e+03 5.626223754882812500e+01 -3.048046350479125977e+00 2.047223806381225586e+00 8.291476249694824219e+00 3.101610183715820312e+00 7.596275806427001953e-01
3.631000000000000000e+03 5.148040008544921875e+01 8.918302655220031738e-01 8.198251128196716309e-01 9.595370292663574219e+00 3.124558448791503906e+00 9.770339131355285645e-01
3.632000000000000000e+03 4.340173339843750000e+01 6.463641643524169922e+00 -2.578893601894378662e-01 6.592264175415039062e+00 1.900312542915344238e+00 -1.522159337997436523e+00
3.633000000000000000e+03 4.220099639892578125e+01 6.730905532836914062e+00 -1.103334426879882812e-01 5.902313709259033203e+00 1.737594127655029297e+00 -1.620150208473205566e+00
3.634000000000000000e+03 5.410580444335937500e+01 -1.261431407928466797e+01 1.291418194770812988e+00 8.916796684265136719e+00 3.062464237213134766e+00 -1.044631123542785645e+00
3.635000000000000000e+03 5.535581970214843750e+01 -1.195548915863037109e+01 1.518535614013671875e+00 8.614459037780761719e+00 3.039898395538330078e+00 -9.822629690170288086e-01
3.636000000000000000e+03 5.678190612792968750e+01 -8.741713523864746094e+00 2.094022274017333984e+00 8.160799980163574219e+00 3.076446533203125000e+00 -4.717935621738433838e-01
3.637000000000000000e+03 5.570387649536132812e+01 -1.069538688659667969e+01 1.858629703521728516e+00 8.449657440185546875e+00 3.092486143112182617e+00 -8.356446027755737305e-01
3.638000000000000000e+03 5.557702636718750000e+01 3.358840346336364746e-01 1.225261449813842773e+00 8.575523376464843750e+00 2.940235614776611328e+00 1.077165484428405762e+00
3.639000000000000000e+03 5.401951980590820312e+01 -7.801806449890136719e+00 2.892468452453613281e+00 8.572228431701660156e+00 3.439409017562866211e+00 -3.835818767547607422e-01
3.640000000000000000e+03 5.517806625366210938e+01 -7.111734867095947266e+00 2.676698923110961914e+00 8.328662872314453125e+00 3.301608562469482422e+00 -1.508295387029647827e-01
3.641000000000000000e+03 4.418850708007812500e+01 1.128209590911865234e+01 -4.960110485553741455e-01 6.269676685333251953e+00 1.732099652290344238e+00 -9.639360904693603516e-01
3.642000000000000000e+03 5.477388000488281250e+01 -7.973234653472900391e+00 2.679985761642456055e+00 8.435992240905761719e+00 3.334793329238891602e+00 -4.046942591667175293e-01
3.643000000000000000e+03 5.699988174438476562e+01 -6.719892501831054688e+00 2.256888151168823242e+00 8.077058792114257812e+00 3.100184202194213867e+00 -3.650613874197006226e-02
3.644000000000000000e+03 5.353760528564453125e+01 -9.510131478309631348e-01 1.692190647125244141e+00 9.004695892333984375e+00 3.209065914154052734e+00 1.149815201759338379e+00
3.645000000000000000e+03 4.339856338500976562e+01 9.683325767517089844e+00 -3.890405297279357910e-01 6.162909984588623047e+00 1.732160925865173340e+00 -1.179109215736389160e+00
3.646000000000000000e+03 5.429701614379882812e+01 -1.403780364990234375e+01 8.489069938659667969e-01 8.891591072082519531e+00 2.922149181365966797e+00 -9.936817884445190430e-01
3.647000000000000000e+03 5.521472549438476562e+01 -1.655756378173828125e+01 2.855482995510101318e-01 8.678336143493652344e+00 2.689165353775024414e+00 -8.757106065750122070e-01
3.648000000000000000e+03 6.555014801025390625e+01 1.199306964874267578e+01 -1.420705020427703857e-01 7.864433765411376953e+00 2.316709041595458984e+00 8.745708465576171875e-01
3.649000000000000000e+03 5.710758972167968750e+01 9.792018890380859375e+00 -2.965805530548095703e-01 8.139164924621582031e+00 2.352775096893310547e+00 7.616940736770629883e-01
3.650000000000000000e+03 5.570672225952148438e+01 5.822575569152832031e+00 3.599969670176506042e-02 8.456558227539062500e+00 2.547767162322998047e+00 8.839644193649291992e-01
3.651000000000000000e+03 4.832421112060546875e+01 -1.597824192047119141e+01 -4.230129718780517578e-01 9.418735504150390625e+00 2.698716878890991211e+00 3.493262827396392822e-01
3.652000000000000000e+03 4.321564102172851562e+01 1.371779918670654297e+01 -4.754998385906219482e-01 5.738363265991210938e+00 1.578859090805053711e+00 -8.976819515228271484e-01
3.653000000000000000e+03 5.419919967651367188e+01 9.935446739196777344e+00 -4.605596065521240234e-01 8.150235176086425781e+00 2.306902647018432617e+00 4.981113076210021973e-01
3.654000000000000000e+03 6.024907684326171875e+01 1.103200626373291016e+01 -2.456586509943008423e-01 7.993028163909912109e+00 2.324210882186889648e+00 8.470402956008911133e-01
3.655000000000000000e+03 4.155350494384765625e+01 -2.595895767211914062e+01 -3.338944315910339355e-01 5.310900211334228516e+00 1.493101716041564941e+00 1.058723330497741699e+00
3.656000000000000000e+03 4.722461700439453125e+01 -2.187552642822265625e+01 -7.109651565551757812e-01 7.617962360382080078e+00 2.072099208831787109e+00 7.529358267784118652e-01
3.657000000000000000e+03 5.332690811157226562e+01 -1.669464492797851562e+01 1.022077798843383789e-01 8.936902046203613281e+00 2.711733102798461914e+00 -7.344300150871276855e-01
3.658000000000000000e+03 4.680841064453125000e+01 1.235239267349243164e+00 -9.625444561243057251e-02 9.990433692932128906e+00 2.968253850936889648e+00 -6.763546466827392578e-01
3.659000000000000000e+03 4.468540573120117188e+01 1.965120553970336914e+00 -1.321459561586380005e-01 8.586363792419433594e+00 2.536265373229980469e+00 -1.821378827095031738e+00
3.660000000000000000e+03 4.658525085449218750e+01 1.782931208610534668e+00 -2.146544605493545532e-01 9.689350128173828125e+00 2.842408657073974609e+00 -8.454191088676452637e-01
3.661000000000000000e+03 4.943486404418945312e+01 -1.344187450408935547e+01 4.133779406547546387e-01 1.025088405609130859e+01 3.199278593063354492e+00 -5.503408312797546387e-01
3.662000000000000000e+03 4.325053024291992188e+01 3.782012224197387695e+00 -4.330573603510856628e-02 6.957085609436035156e+00 2.074133872985839844e+00 -1.957305908203125000e+00
3.663000000000000000e+03 4.396395111083984375e+01 3.131475687026977539e+00 -1.044830605387687683e-01 7.594909191131591797e+00 2.247127771377563477e+00 -1.925317049026489258e+00
3.664000000000000000e+03 4.852672958374023438e+01 -1.385440063476562500e+01 4.004369303584098816e-02 1.029149341583251953e+01 3.099461078643798828e+00 -1.005342528223991394e-01
3.665000000000000000e+03 4.917007064819335938e+01 -1.412135791778564453e+01 9.754039347171783447e-02 1.006703567504882812e+01 3.049372911453247070e+00 -2.993467450141906738e-01
3.666000000000000000e+03 4.759568786621093750e+01 1.064127564430236816e+00 3.215958550572395325e-02 1.024300003051757812e+01 3.082547903060913086e+00 -2.124802619218826294e-01
3.667000000000000000e+03 4.971225357055664062e+01 7.907062768936157227e-01 5.424436926841735840e-01 1.004728412628173828e+01 3.176918268203735352e+00 6.589912772178649902e-01
3.668000000000000000e+03 5.452602767944335938e+01 6.607923030853271484e+00 -1.335231065750122070e-01 8.470502853393554688e+00 2.501093864440917969e+00 7.457213401794433594e-01
3.669000000000000000e+03 4.797122955322265625e+01 -1.730007362365722656e+01 -5.605074167251586914e-01 8.928247451782226562e+00 2.510321855545043945e+00 5.450512766838073730e-01
3.670000000000000000e+03 4.744144439697265625e+01 -1.947322082519531250e+01 -6.762657761573791504e-01 8.202238082885742188e+00 2.257791757583618164e+00 7.390224933624267578e-01
3.671000000000000000e+03 5.459808349609375000e+01 -8.705960273742675781e+00 2.551994323730468750e+00 8.527871131896972656e+00 3.323959827423095703e+00 -5.895491838455200195e-01
3.672000000000000000e+03 5.606967544555664062e+01 -7.682910919189453125e+00 2.426770448684692383e+00 8.222142219543457031e+00 3.194673776626586914e+00 -2.647947669029235840e-01
3.673000000000000000e+03 5.445690917968750000e+01 -4.134669303894042969e+00 2.652350902557373047e+00 8.540567398071289062e+00 3.357875347137451172e+00 6.593845486640930176e-01
3.674000000000000000e+03 5.411697387695312500e+01 -1.654233098030090332e+00 1.891059398651123047e+00 8.814195632934570312e+00 3.211576461791992188e+00 1.073901295661926270e+00
3.675000000000000000e+03 5.687970733642578125e+01 -3.872170448303222656e+00 2.109067201614379883e+00 8.154154777526855469e+00 3.078966617584228516e+00 5.829003453254699707e-01
3.676000000000000000e+03 5.563844299316406250e+01 -2.414389133453369141e+00 1.971356034278869629e+00 8.417443275451660156e+00 3.116639852523803711e+00 8.767148852348327637e-01
3.677000000000000000e+03 5.168683242797851562e+01 -1.294877529144287109e+01 1.029032111167907715e+00 9.638386726379394531e+00 3.200225830078125000e+00 -1.015527367591857910e+00
3.678000000000000000e+03 5.050122070312500000e+01 -1.313508605957031250e+01 7.708871960639953613e-01 1.003359222412109375e+01 3.241343975067138672e+00 -8.736963272094726562e-01
3.679000000000000000e+03 5.624604797363281250e+01 -1.615380764007568359e+00 1.730467796325683594e+00 8.376058578491210938e+00 3.031957864761352539e+00 9.488546252250671387e-01
3.680000000000000000e+03 5.282347869873046875e+01 -1.141818046569824219e+01 1.855141401290893555e+00 9.241940498352050781e+00 3.329124689102172852e+00 -1.119017958641052246e+00
3.681000000000000000e+03 5.289157485961914062e+01 -1.280702781677246094e+01 1.217488169670104980e+00 9.292294502258300781e+00 3.152934789657592773e+00 -1.080114245414733887e+00
3.682000000000000000e+03 5.421345901489257812e+01 -1.767932319641113281e+01 -9.252381511032581329e-03 8.732866287231445312e+00 2.617084264755249023e+00 -7.223530411720275879e-01
3.683000000000000000e+03 5.649507141113281250e+01 -1.973643684387207031e+01 -1.544053107500076294e-01 8.375424385070800781e+00 2.466305732727050781e+00 -7.402113080024719238e-01
3.684000000000000000e+03 5.500678253173828125e+01 4.710223674774169922e+00 1.771773695945739746e-01 8.594754219055175781e+00 2.631579399108886719e+00 9.088829755783081055e-01
3.685000000000000000e+03 5.467208862304687500e+01 3.628875315189361572e-01 1.211640954017639160e+00 8.764781951904296875e+00 2.992927074432373047e+00 1.105242729187011719e+00
3.686000000000000000e+03 5.427698516845703125e+01 -6.152173519134521484e+00 2.983274221420288086e+00 8.484639167785644531e+00 3.440374135971069336e+00 1.065694764256477356e-01
3.687000000000000000e+03 5.332533645629882812e+01 -1.044124031066894531e+01 2.215170383453369141e+00 9.008291244506835938e+00 3.367038488388061523e+00 -1.016195535659790039e+00
3.688000000000000000e+03 5.431567764282226562e+01 -1.572702980041503906e+01 4.013729691505432129e-01 8.845629692077636719e+00 2.774100780487060547e+00 -8.883169293403625488e-01
3.689000000000000000e+03 4.887168121337890625e+01 -1.671658897399902344e+01 -4.426869153976440430e-01 9.244394302368164062e+00 2.640512228012084961e+00 1.921100914478302002e-01
3.690000000000000000e+03 5.558055114746093750e+01 3.012182950973510742e+00 5.502809286117553711e-01 8.598475456237792969e+00 2.744626998901367188e+00 1.045037984848022461e+00
3.691000000000000000e+03 4.263002395629882812e+01 8.166354179382324219e+00 -2.410421073436737061e-01 5.997447967529296875e+00 1.726921677589416504e+00 -1.417862653732299805e+00
3.692000000000000000e+03 4.481348037719726562e+01 9.002941131591796875e+00 -4.859252274036407471e-01 6.797106266021728516e+00 1.893354296684265137e+00 -1.045981407165527344e+00
3.693000000000000000e+03 4.398462295532226562e+01 7.666832447052001953e+00 -3.727644979953765869e-01 6.697637081146240234e+00 1.897461771965026855e+00 -1.307046175003051758e+00
3.694000000000000000e+03 4.584680557250976562e+01 -2.323421669006347656e+01 -6.453552842140197754e-01 6.935915946960449219e+00 1.887168169021606445e+00 9.322565197944641113e-01
3.695000000000000000e+03 4.846620178222656250e+01 -2.068928909301757812e+01 -7.019659280776977539e-01 8.125406265258789062e+00 2.227031946182250977e+00 4.994508922100067139e-01
3.696000000000000000e+03 4.979872894287109375e+01 -1.437889003753662109e+01 1.540923565626144409e-01 9.907037734985351562e+00 3.018339157104492188e+00 -4.521901905536651611e-01
3.697000000000000000e+03 5.685801315307617188e+01 1.468958759307861328e+01 -5.418741106986999512e-01 7.772614002227783203e+00 2.169221878051757812e+00 5.155646800994873047e-01
3.698000000000000000e+03 4.841775894165039062e+01 -2.305753707885742188e+01 -7.490142583847045898e-01 7.641406059265136719e+00 2.067717552185058594e+00 5.083445310592651367e-01
3.699000000000000000e+03 3.971781921386718750e+01 -2.464527130126953125e+01 -1.251448243856430054e-01 4.679979324340820312e+00 1.366450428962707520e+00 1.218419551849365234e+00
3.700000000000000000e+03 4.354900741577148438e+01 -2.718984031677246094e+01 -5.107390880584716797e-01 5.865328788757324219e+00 1.606377005577087402e+00 8.701214194297790527e-01
3.701000000000000000e+03 5.524379730224609375e+01 7.957438468933105469e+00 -2.422618120908737183e-01 8.313903808593750000e+00 2.421492576599121094e+00 7.234175205230712891e-01
3.702000000000000000e+03 8.638179779052734375e+00 3.823590850830078125e+01 1.320750415325164795e-01 -2.469140440225601196e-01 -3.445170074701309204e-02 9.383893013000488281e-02
3.703000000000000000e+03 4.514773559570312500e+01 1.354650855064392090e+00 -1.291054189205169678e-01 9.185944557189941406e+00 2.717051744461059570e+00 -1.696424484252929688e+00
3.704000000000000000e+03 4.640775299072265625e+01 -1.483911418914794922e+01 -4.535174965858459473e-01 9.676097869873046875e+00 2.766774177551269531e+00 1.062525749206542969e+00
3.705000000000000000e+03 4.683434677124023438e+01 -1.493221950531005859e+01 -4.098134338855743408e-01 9.593073844909667969e+00 2.754977941513061523e+00 8.253948092460632324e-01
3.706000000000000000e+03 4.721699142456054688e+01 1.261265277862548828e+00 -7.113710045814514160e-02 1.010547351837158203e+01 3.010300874710083008e+00 -4.561542570590972900e-01
3.707000000000000000e+03 4.530197143554687500e+01 2.628115415573120117e+00 -2.601763308048248291e-01 8.646909713745117188e+00 2.516020059585571289e+00 -1.480210185050964355e+00
3.708000000000000000e+03 4.469446563720703125e+01 1.308001279830932617e+00 -7.164264470338821411e-02 8.880970001220703125e+00 2.642798423767089844e+00 -1.923997998237609863e+00
3.709000000000000000e+03 4.524419021606445312e+01 7.467294335365295410e-01 -8.324592560529708862e-02 9.677245140075683594e+00 2.878199815750122070e+00 -1.691051483154296875e+00
3.710000000000000000e+03 5.007459259033203125e+01 -1.378808784484863281e+01 4.120559394359588623e-01 1.000065517425537109e+01 3.123813390731811523e+00 -6.401590108871459961e-01
3.711000000000000000e+03 4.895114898681640625e+01 -1.482179927825927734e+01 -1.245397403836250305e-01 9.839756965637207031e+00 2.914565086364746094e+00 -7.187657803297042847e-02
3.712000000000000000e+03 4.891407012939453125e+01 1.492480754852294922e+00 1.478173732757568359e-01 9.969994544982910156e+00 3.035343408584594727e+00 2.491344809532165527e-01
3.713000000000000000e+03 4.516233444213867188e+01 1.959171772003173828e+00 -1.912601739168167114e-01 8.856547355651855469e+00 2.599586248397827148e+00 -1.622796177864074707e+00
3.714000000000000000e+03 4.408820724487304688e+01 2.521160364151000977e+00 -7.254618406295776367e-02 7.855564594268798828e+00 2.334905624389648438e+00 -1.980436921119689941e+00
3.715000000000000000e+03 5.040994644165039062e+01 1.987430930137634277e+00 2.690344452857971191e-01 9.602927207946777344e+00 2.961588621139526367e+00 5.918279886245727539e-01
3.716000000000000000e+03 4.768135452270507812e+01 -1.623466491699218750e+01 -4.993749558925628662e-01 9.306861877441406250e+00 2.642246007919311523e+00 5.863356590270996094e-01
3.717000000000000000e+03 4.512657165527343750e+01 3.889947652816772461e+00 -3.159245550632476807e-01 8.118722915649414062e+00 2.340839624404907227e+00 -1.431427836418151855e+00
3.718000000000000000e+03 4.401080322265625000e+01 3.768035173416137695e+00 -1.682489812374114990e-01 7.460637092590332031e+00 2.187716484069824219e+00 -1.774659395217895508e+00
3.719000000000000000e+03 5.134325790405273438e+01 -2.025381922721862793e-01 1.220952033996582031e+00 9.710857391357421875e+00 3.279542684555053711e+00 1.100182652473449707e+00
3.720000000000000000e+03 5.312730407714843750e+01 -1.153226867318153381e-01 1.368523597717285156e+00 9.144610404968261719e+00 3.153940200805664062e+00 1.159057140350341797e+00
3.721000000000000000e+03 5.480175781250000000e+01 -8.888981938362121582e-01 1.589406251907348633e+00 8.704693794250488281e+00 3.088230133056640625e+00 1.085095524787902832e+00
3.722000000000000000e+03 4.750988388061523438e+01 -1.536138916015625000e+01 -4.222952723503112793e-01 9.662960052490234375e+00 2.772199392318725586e+00 5.751325488090515137e-01
3.723000000000000000e+03 5.098621749877929688e+01 2.860704064369201660e-01 9.608743190765380859e-01 9.764234542846679688e+00 3.217532634735107422e+00 9.939917922019958496e-01
3.724000000000000000e+03 5.500599288940429688e+01 2.049721240997314453e+00 7.482600808143615723e-01 8.688653945922851562e+00 2.831073999404907227e+00 1.065486192703247070e+00
3.725000000000000000e+03 5.528052139282226562e+01 -1.869483757019042969e+01 -9.412871301174163818e-02 8.540629386901855469e+00 2.533950090408325195e+00 -7.274838089942932129e-01
3.726000000000000000e+03 4.446283340454101562e+01 4.504249095916748047e+00 -2.721573114395141602e-01 7.525038242340087891e+00 2.175864219665527344e+00 -1.567130088806152344e+00
3.727000000000000000e+03 4.379133224487304688e+01 5.076269149780273438e+00 -2.325426042079925537e-01 7.056762218475341797e+00 2.047266006469726562e+00 -1.628792405128479004e+00
3.728000000000000000e+03 5.434221267700195312e+01 -1.172329425811767578e+01 1.661008000373840332e+00 8.826907157897949219e+00 3.146374464035034180e+00 -1.025178194046020508e+00
3.729000000000000000e+03 5.355221939086914062e+01 -1.341915607452392578e+01 1.018751859664916992e+00 9.073239326477050781e+00 3.027597427368164062e+00 -1.034860610961914062e+00
3.730000000000000000e+03 5.119129943847656250e+01 -1.358124637603759766e+01 6.941844224929809570e-01 9.736221313476562500e+00 3.129121541976928711e+00 -8.782236576080322266e-01
3.731000000000000000e+03 5.540335464477539062e+01 -1.301279783248901367e+00 1.689836859703063965e+00 8.562574386596679688e+00 3.075723171234130859e+00 1.037745833396911621e+00
3.732000000000000000e+03 5.289726638793945312e+01 -1.418153381347656250e+01 7.021868228912353516e-01 9.212285995483398438e+00 2.974341869354248047e+00 -9.452174901962280273e-01
3.733000000000000000e+03 4.864416122436523438e+01 -1.847177886962890625e+01 -6.096146702766418457e-01 8.689417839050292969e+00 2.423940896987915039e+00 4.112409949302673340e-01
3.734000000000000000e+03 5.468534469604492188e+01 1.216407537460327148e+00 9.529295563697814941e-01 8.769524574279785156e+00 2.916736364364624023e+00 1.088077902793884277e+00
3.735000000000000000e+03 5.871113586425781250e+01 -1.914653205871582031e+01 3.343894705176353455e-02 8.228046417236328125e+00 2.478445529937744141e+00 -8.549871444702148438e-01
3.736000000000000000e+03 4.577265930175781250e+01 1.047906017303466797e+01 -5.768123269081115723e-01 6.856939792633056641e+00 1.884038329124450684e+00 -8.045384287834167480e-01
3.737000000000000000e+03 5.308763504028320312e+01 -1.875453567504882812e+01 -2.823144495487213135e-01 8.698446273803710938e+00 2.524839401245117188e+00 -4.919511079788208008e-01
3.738000000000000000e+03 4.510177230834960938e+01 7.001147747039794922e+00 -4.586030542850494385e-01 7.273800373077392578e+00 2.044559240341186523e+00 -1.157033205032348633e+00
3.739000000000000000e+03 5.068169784545898438e+01 -2.317765998840332031e+01 -7.335169911384582520e-01 7.942525863647460938e+00 2.162702798843383789e+00 1.437089294195175171e-01
3.740000000000000000e+03 4.966342163085937500e+01 -1.963066291809082031e+01 -6.320114731788635254e-01 8.515232086181640625e+00 2.364966392517089844e+00 2.160255312919616699e-01
3.741000000000000000e+03 4.966388320922851562e+01 -1.512333869934082031e+01 -4.506850242614746094e-02 9.696236610412597656e+00 2.895350456237792969e+00 -2.748810946941375732e-01
3.742000000000000000e+03 5.633806991577148438e+01 1.169416141510009766e+01 -4.584681689739227295e-01 7.979842185974121094e+00 2.256412267684936523e+00 6.031702756881713867e-01
3.743000000000000000e+03 5.212799072265625000e+01 1.740112423896789551e+00 5.878500938415527344e-01 9.299592018127441406e+00 2.966232776641845703e+00 9.177730083465576172e-01
3.744000000000000000e+03 5.444447326660156250e+01 3.582030057907104492e+00 3.384127914905548096e-01 8.740596771240234375e+00 2.723702669143676758e+00 9.518361091613769531e-01
3.745000000000000000e+03 5.543539810180664062e+01 -2.114611434936523438e+01 -3.731737136840820312e-01 8.325863838195800781e+00 2.385807037353515625e+00 -5.751277208328247070e-01
3.746000000000000000e+03 6.478750610351562500e+01 1.564971446990966797e+01 -2.733168303966522217e-01 7.876510620117187500e+00 2.280958175659179688e+00 7.740814685821533203e-01
3.747000000000000000e+03 6.107778549194335938e+01 1.547970962524414062e+01 -3.990940451622009277e-01 7.829622745513916016e+00 2.229158639907836914e+00 7.064407467842102051e-01
3.748000000000000000e+03 4.568288040161132812e+01 -2.831708908081054688e+01 -6.502256989479064941e-01 6.376167297363281250e+00 1.717782497406005859e+00 6.595314145088195801e-01
3.749000000000000000e+03 4.024691772460937500e+01 -2.795664978027343750e+01 -2.673956453800201416e-01 4.846708774566650391e+00 1.373793959617614746e+00 9.166448712348937988e-01
3.750000000000000000e+03 5.880823898315429688e+01 1.809123229980468750e+01 -5.223745107650756836e-01 7.658437728881835938e+00 2.140818834304809570e+00 5.180129408836364746e-01
3.751000000000000000e+03 4.796721267700195312e+01 1.055967211723327637e+00 9.531492739915847778e-02 1.028373718261718750e+01 3.113715648651123047e+00 -1.755570992827415466e-02
3.752000000000000000e+03 4.637489318847656250e+01 3.835757970809936523e+00 -3.857544958591461182e-01 8.647684097290039062e+00 2.478579044342041016e+00 -9.768448472023010254e-01
3.753000000000000000e+03 4.556318283081054688e+01 1.438449740409851074e+00 -1.705956161022186279e-01 9.417784690856933594e+00 2.774156570434570312e+00 -1.438148140907287598e+00
3.754000000000000000e+03 4.872805023193359375e+01 -1.549515151977539062e+01 -2.827520072460174561e-01 9.642476081848144531e+00 2.807917118072509766e+00 9.255596995353698730e-02
3.755000000000000000e+03 5.211904907226562500e+01 -1.757886123657226562e+01 -1.992449611425399780e-01 8.957731246948242188e+00 2.627545833587646484e+00 -4.631979167461395264e-01
3.756000000000000000e+03 4.453047943115234375e+01 3.347869396209716797e+00 -2.222042381763458252e-01 7.952743530273437500e+00 2.319161891937255859e+00 -1.662396550178527832e+00
3.757000000000000000e+03 4.557823944091796875e+01 1.876937150955200195e+00 -2.103048115968704224e-01 9.117317199707031250e+00 2.672103881835937500e+00 -1.415961861610412598e+00
3.758000000000000000e+03 4.812446212768554688e+01 -1.527072429656982422e+01 -3.411195278167724609e-01 9.720880508422851562e+00 2.813928127288818359e+00 3.426814675331115723e-01
3.759000000000000000e+03 5.373379898071289062e+01 1.266914129257202148e+00 9.101881384849548340e-01 8.981677055358886719e+00 2.967559576034545898e+00 1.080868601799011230e+00
3.760000000000000000e+03 5.534935760498046875e+01 -3.668584585189819336e+00 2.376759052276611328e+00 8.400543212890625000e+00 3.233190774917602539e+00 7.084432244300842285e-01
3.761000000000000000e+03 5.390597152709960938e+01 3.028424382209777832e-01 1.241917490959167480e+00 8.968189239501953125e+00 3.063032150268554688e+00 1.142960429191589355e+00
3.762000000000000000e+03 5.108017730712890625e+01 -1.431248950958251953e+01 4.238491058349609375e-01 9.679690361022949219e+00 3.031061887741088867e+00 -7.461841702461242676e-01
3.763000000000000000e+03 5.351007843017578125e+01 -1.204205894470214844e+01 1.570059537887573242e+00 9.066583633422851562e+00 3.190992832183837891e+00 -1.072569966316223145e+00
3.764000000000000000e+03 5.129900360107421875e+01 -1.521325111389160156e+01 1.780981272459030151e-01 9.484390258789062500e+00 2.898746490478515625e+00 -6.311688423156738281e-01
3.765000000000000000e+03 5.355329895019531250e+01 -1.493240451812744141e+01 5.460658669471740723e-01 9.030625343322753906e+00 2.873007297515869141e+00 -9.226561188697814941e-01
3.766000000000000000e+03 4.961333847045898438e+01 1.746684908866882324e+00 2.075702100992202759e-01 9.796014785766601562e+00 3.001075506210327148e+00 4.401196837425231934e-01
3.767000000000000000e+03 4.765655517578125000e+01 5.912816524505615234e+00 -5.046214461326599121e-01 8.337668418884277344e+00 2.349914073944091797e+00 -5.350496768951416016e-01
3.768000000000000000e+03 4.908011627197265625e+01 5.070004940032958984e+00 -4.004977643489837646e-01 8.819458961486816406e+00 2.525688171386718750e+00 -1.124155297875404358e-01
3.769000000000000000e+03 5.025981140136718750e+01 2.923679351806640625e+00 4.621129482984542847e-02 9.425714492797851562e+00 2.841577768325805664e+00 4.366846680641174316e-01
3.770000000000000000e+03 4.516263198852539062e+01 5.324508190155029297e+00 -3.980751633644104004e-01 7.684422016143798828e+00 2.185904026031494141e+00 -1.278227567672729492e+00
3.771000000000000000e+03 4.437365722656250000e+01 5.973205566406250000e+00 -3.483864367008209229e-01 7.186283111572265625e+00 2.051368951797485352e+00 -1.415112614631652832e+00
3.772000000000000000e+03 5.073193359375000000e+01 -2.084619331359863281e+01 -6.374851465225219727e-01 8.361821174621582031e+00 2.317301034927368164e+00 5.053100362420082092e-02
3.773000000000000000e+03 5.391653823852539062e+01 2.421324253082275391e+00 5.723446607589721680e-01 8.906965255737304688e+00 2.843792915344238281e+00 1.007693171501159668e+00
3.774000000000000000e+03 4.978177642822265625e+01 -1.752844238281250000e+01 -4.348320066928863525e-01 9.070212364196777344e+00 2.590614318847656250e+00 4.891733173280954361e-03
3.775000000000000000e+03 4.941120147705078125e+01 -1.594696331024169922e+01 -2.783410549163818359e-01 9.483077049255371094e+00 2.761420726776123047e+00 -4.999705031514167786e-02
3.776000000000000000e+03 5.682074737548828125e+01 -2.238323402404785156e+01 -4.011548459529876709e-01 8.190798759460449219e+00 2.336893081665039062e+00 -6.107527017593383789e-01
3.777000000000000000e+03 4.739340972900390625e+01 -2.449165916442871094e+01 -7.262915372848510742e-01 7.167068481445312500e+00 1.932233095169067383e+00 6.206155419349670410e-01
3.778000000000000000e+03 4.959983444213867188e+01 -2.411865806579589844e+01 -7.653738260269165039e-01 7.660898208618164062e+00 2.068657159805297852e+00 3.194326758384704590e-01
3.779000000000000000e+03 5.419315719604492188e+01 -1.992622184753417969e+01 -3.313042223453521729e-01 8.497230529785156250e+00 2.449777841567993164e+00 -5.340988039970397949e-01
3.780000000000000000e+03 4.606447601318359375e+01 8.143066406250000000e+00 -5.499607324600219727e-01 7.387083530426025391e+00 2.051136732101440430e+00 -8.863489031791687012e-01
3.781000000000000000e+03 5.391363525390625000e+01 5.354458332061767578e+00 -7.161853834986686707e-03 8.636869430541992188e+00 2.588912248611450195e+00 7.711515426635742188e-01
3.782000000000000000e+03 5.316481018066406250e+01 7.262906074523925781e+00 -3.138867616653442383e-01 8.448170661926269531e+00 2.440285205841064453e+00 5.319079160690307617e-01
3.783000000000000000e+03 5.558156204223632812e+01 9.478437423706054688e+00 -3.418878018856048584e-01 8.174623489379882812e+00 2.349820613861083984e+00 6.711231470108032227e-01
3.784000000000000000e+03 5.279982757568359375e+01 2.893261194229125977e+00 3.699461817741394043e-01 9.034795761108398438e+00 2.821422576904296875e+00 8.662238717079162598e-01
3.785000000000000000e+03 5.960282135009765625e+01 1.305111503601074219e+01 -3.782582581043243408e-01 7.927270889282226562e+00 2.264703750610351562e+00 7.439597845077514648e-01
3.786000000000000000e+03 6.301396942138671875e+01 1.548765850067138672e+01 -3.258824944496154785e-01 7.858064651489257812e+00 2.259654760360717773e+00 7.576742768287658691e-01
3.787000000000000000e+03 4.748369979858398438e+01 1.739215850830078125e+00 -1.151087805628776550e-01 9.893452644348144531e+00 2.933503150939941406e+00 -3.897635936737060547e-01
3.788000000000000000e+03 4.616721343994140625e+01 2.706510066986083984e+00 -3.191832304000854492e-01 9.101978302001953125e+00 2.634838581085205078e+00 -1.080156207084655762e+00
3.789000000000000000e+03 4.598282623291015625e+01 6.187519073486328125e+00 -4.872167110443115234e-01 7.794821262359619141e+00 2.192281484603881836e+00 -1.008154630661010742e+00
3.790000000000000000e+03 4.796076583862304688e+01 2.033778190612792969e+00 -1.121181026101112366e-01 9.736527442932128906e+00 2.887322902679443359e+00 -2.242517024278640747e-01
3.791000000000000000e+03 5.083291625976562500e+01 1.346088171005249023e+00 5.579118728637695312e-01 9.640603065490722656e+00 3.059554576873779297e+00 7.901566028594970703e-01
3.792000000000000000e+03 5.276534271240234375e+01 8.752584457397460938e-01 9.460505247116088867e-01 9.209009170532226562e+00 3.046518087387084961e+00 1.066834926605224609e+00
3.793000000000000000e+03 5.265061569213867188e+01 -1.572421932220458984e+01 2.353069931268692017e-01 9.121965408325195312e+00 2.807181835174560547e+00 -7.576946020126342773e-01
3.794000000000000000e+03 5.171778869628906250e+01 -1.406810474395751953e+01 6.088668107986450195e-01 9.521628379821777344e+00 3.039148569107055664e+00 -8.600038886070251465e-01
3.795000000000000000e+03 4.570401000976562500e+01 3.278882026672363281e+00 -3.284177780151367188e-01 8.609722137451171875e+00 2.484391450881958008e+00 -1.266624212265014648e+00
3.796000000000000000e+03 5.036851501464843750e+01 -1.639253616333007812e+01 -2.129236459732055664e-01 9.311141014099121094e+00 2.729465246200561523e+00 -2.684113383293151855e-01
3.797000000000000000e+03 5.154130935668945312e+01 -1.634041404724121094e+01 -5.398935452103614807e-02 9.214783668518066406e+00 2.748238325119018555e+00 -5.065738558769226074e-01
3.798000000000000000e+03 5.123725891113281250e+01 2.114851713180541992e+00 3.599247038364410400e-01 9.388399124145507812e+00 2.924497127532958984e+00 7.392902970314025879e-01
3.799000000000000000e+03 4.582774734497070312e+01 4.594754695892333984e+00 -4.118469953536987305e-01 8.191398620605468750e+00 2.333865642547607422e+00 -1.134123682975769043e+00
3.800000000000000000e+03 4.780597686767578125e+01 2.626338958740234375e+00 -2.285853326320648193e-01 9.503490447998046875e+00 2.782471656799316406e+00 -3.416516184806823730e-01
3.801000000000000000e+03 4.259386062622070312e+01 1.189581298828125000e+01 -3.945445418357849121e-01 5.678606986999511719e+00 1.585218667984008789e+00 -1.067596793174743652e+00
3.802000000000000000e+03 5.191349792480468750e+01 -1.980900764465332031e+01 -4.855736196041107178e-01 8.571273803710937500e+00 2.425709962844848633e+00 -2.310018539428710938e-01
3.803000000000000000e+03 5.337874984741210938e+01 4.134686470031738281e+00 1.525030434131622314e-01 8.805285453796386719e+00 2.687336683273315430e+00 8.161289095878601074e-01
3.804000000000000000e+03 5.271733856201171875e+01 5.930357933044433594e+00 -1.921822577714920044e-01 8.644143104553222656e+00 2.535588264465332031e+00 5.834164023399353027e-01
3.805000000000000000e+03 5.426987457275390625e+01 -2.247140884399414062e+01 -5.469548106193542480e-01 8.213564872741699219e+00 2.299983024597167969e+00 -3.835839331150054932e-01
3.806000000000000000e+03 5.189568328857421875e+01 3.568648576736450195e+00 1.252536624670028687e-01 9.094163894653320312e+00 2.765825271606445312e+00 6.831501722335815430e-01
3.807000000000000000e+03 5.303972244262695312e+01 -2.109153366088867188e+01 -5.175541639328002930e-01 8.374219894409179688e+00 2.356999635696411133e+00 -3.130613863468170166e-01
3.808000000000000000e+03 4.893695831298828125e+01 -2.535735511779785156e+01 -7.683389186859130859e-01 7.388032913208007812e+00 1.985908269882202148e+00 3.977705538272857666e-01
3.809000000000000000e+03 5.892334747314453125e+01 1.540462017059326172e+01 -4.841654896736145020e-01 7.793940544128417969e+00 2.192932605743408203e+00 6.115391254425048828e-01
3.810000000000000000e+03 5.210101699829101562e+01 9.353465080261230469e+00 -5.366882681846618652e-01 8.159030914306640625e+00 2.286702871322631836e+00 2.632900178432464600e-01
3.811000000000000000e+03 5.523636245727539062e+01 1.662416458129882812e+01 -6.172681450843811035e-01 7.550631999969482422e+00 2.080009222030639648e+00 3.396599590778350830e-01
3.812000000000000000e+03 4.717982482910156250e+01 4.345955848693847656e+00 -4.239510595798492432e-01 8.724088668823242188e+00 2.490041255950927734e+00 -6.711478829383850098e-01
3.813000000000000000e+03 4.857512664794921875e+01 2.731370925903320312e+00 -1.463519781827926636e-01 9.538786888122558594e+00 2.817730426788330078e+00 -3.940634801983833313e-02
3.814000000000000000e+03 4.666461944580078125e+01 5.281759738922119141e+00 -4.712194204330444336e-01 8.251253128051757812e+00 2.334010124206542969e+00 -8.455450534820556641e-01
3.815000000000000000e+03 5.085866165161132812e+01 -1.856101036071777344e+01 -4.499486982822418213e-01 8.827187538146972656e+00 2.513171672821044922e+00 -1.362476944923400879e-01
3.816000000000000000e+03 5.044960784912109375e+01 -1.529851531982421875e+01 5.031035467982292175e-02 9.587064743041992188e+00 2.891212463378906250e+00 -4.711618423461914062e-01
3.817000000000000000e+03 4.678845596313476562e+01 3.037928581237792969e+00 -3.317698240280151367e-01 9.131573677062988281e+00 2.639940977096557617e+00 -8.077124953269958496e-01
3.818000000000000000e+03 5.214241409301757812e+01 -1.481857490539550781e+01 4.242761433124542236e-01 9.333976745605468750e+00 2.927475690841674805e+00 -8.047530651092529297e-01
3.819000000000000000e+03 5.012683486938476562e+01 5.174866199493408203e+00 -3.287039995193481445e-01 8.839335441589355469e+00 2.553189277648925781e+00 1.389077603816986084e-01
3.820000000000000000e+03 6.013804244995117188e+01 -2.463689994812011719e+01 -3.940349221229553223e-01 8.001418113708496094e+00 2.282214879989624023e+00 -6.599518656730651855e-01
3.821000000000000000e+03 4.496705627441406250e+01 1.304224872589111328e+01 -5.670801997184753418e-01 6.305171012878417969e+00 1.721427202224731445e+00 -7.728311419486999512e-01
3.822000000000000000e+03 5.367670059204101562e+01 8.620497703552246094e+00 -4.071508347988128662e-01 8.265707015991210938e+00 2.357566833496093750e+00 5.054930448532104492e-01
3.823000000000000000e+03 4.949620056152343750e+01 1.292112064361572266e+01 -6.893233060836791992e-01 7.335834980010986328e+00 1.993953466415405273e+00 -1.913492232561111450e-01
3.824000000000000000e+03 4.701346969604492188e+01 7.078203678131103516e+00 -5.552989840507507324e-01 7.857189178466796875e+00 2.190567016601562500e+00 -7.163113951683044434e-01
3.825000000000000000e+03 4.730679702758789062e+01 9.413343429565429688e+00 -6.242772340774536133e-01 7.476043224334716797e+00 2.055529832839965820e+00 -5.763627290725708008e-01
3.826000000000000000e+03 5.185479354858398438e+01 -2.217374038696289062e+01 -6.481084823608398438e-01 8.180478096008300781e+00 2.259711027145385742e+00 -8.097693324089050293e-02
3.827000000000000000e+03 5.428212356567382812e+01 -2.538600730895996094e+01 -6.861462593078613281e-01 7.916499614715576172e+00 2.169106006622314453e+00 -2.545669674873352051e-01
3.828000000000000000e+03 5.519228744506835938e+01 1.345511531829833984e+01 -5.757733583450317383e-01 7.800686359405517578e+00 2.167473793029785156e+00 4.273770153522491455e-01
3.829000000000000000e+03 4.755242156982421875e+01 3.435172557830810547e+00 -3.325977325439453125e-01 9.171092987060546875e+00 2.651548385620117188e+00 -4.912650585174560547e-01
3.830000000000000000e+03 4.940399169921875000e+01 2.785223960876464844e+00 -5.612538009881973267e-02 9.501227378845214844e+00 2.833530426025390625e+00 2.093268781900405884e-01
3.831000000000000000e+03 5.117127609252929688e+01 3.024801015853881836e+00 1.600934416055679321e-01 9.270751953125000000e+00 2.829253435134887695e+00 6.222088932991027832e-01
3.832000000000000000e+03 4.926503372192382812e+01 3.886048316955566406e+00 -2.462233603000640869e-01 9.165443420410156250e+00 2.675765991210937500e+00 3.724893182516098022e-02
3.833000000000000000e+03 5.166175842285156250e+01 7.833185672760009766e+00 -4.670922756195068359e-01 8.341938018798828125e+00 2.362453699111938477e+00 2.730079591274261475e-01
3.834000000000000000e+03 5.722820281982421875e+01 -2.550301933288574219e+01 -5.669017434120178223e-01 7.986885547637939453e+00 2.225995063781738281e+00 -4.870783984661102295e-01
3.835000000000000000e+03 5.837900161743164062e+01 -2.357942962646484375e+01 -4.106849730014801025e-01 8.085459709167480469e+00 2.302432537078857422e+00 -6.376546621322631836e-01
3.836000000000000000e+03 5.503470993041992188e+01 1.093211078643798828e+01 -4.782234430313110352e-01 8.033574104309082031e+00 2.266605138778686523e+00 5.300915241241455078e-01
3.837000000000000000e+03 5.302429962158203125e+01 -2.368291282653808594e+01 -6.720091700553894043e-01 8.034053802490234375e+00 2.208613395690917969e+00 -1.852714121341705322e-01
3.838000000000000000e+03 5.384565734863281250e+01 1.221526050567626953e+01 -5.916211009025573730e-01 7.876659393310546875e+00 2.185511589050292969e+00 3.504431247711181641e-01
3.839000000000000000e+03 5.281529998779296875e+01 1.084360980987548828e+01 -5.778877139091491699e-01 7.982815265655517578e+00 2.221478223800659180e+00 2.872099876403808594e-01
3.840000000000000000e+03 4.834223556518554688e+01 7.948868274688720703e+00 -5.939963459968566895e-01 7.976619243621826172e+00 2.214786767959594727e+00 -3.862171471118927002e-01
3.841000000000000000e+03 5.085226821899414062e+01 -2.738151550292968750e+01 -7.839331626892089844e-01 7.390950679779052734e+00 1.982105255126953125e+00 1.410203427076339722e-01
3.842000000000000000e+03 5.141295623779296875e+01 6.366940498352050781e+00 -3.525533676147460938e-01 8.588501930236816406e+00 2.470784425735473633e+00 3.132819235324859619e-01
3.843000000000000000e+03 4.577584457397460938e+01 2.348855733871459961e+00 -2.807939648628234863e-01 9.014732360839843750e+00 2.620181560516357422e+00 -1.281093358993530273e+00
3.844000000000000000e+03 4.809384918212890625e+01 4.778587818145751953e+00 -4.293107986450195312e-01 8.788148880004882812e+00 2.507651329040527344e+00 -3.709872663021087646e-01
3.845000000000000000e+03 4.839278793334960938e+01 3.717168807983398438e+00 -3.047399222850799561e-01 9.163424491882324219e+00 2.657605409622192383e+00 -2.102130353450775146e-01
3.846000000000000000e+03 4.573549270629882812e+01 1.498477840423583984e+01 -6.117081046104431152e-01 6.301804542541503906e+00 1.707028985023498535e+00 -6.008910536766052246e-01
3.847000000000000000e+03 4.998495101928710938e+01 8.228720664978027344e+00 -5.742658972740173340e-01 8.146734237670898438e+00 2.271740436553955078e+00 -6.949969381093978882e-02
3.848000000000000000e+03 5.033172607421875000e+01 1.007082271575927734e+01 -6.324918866157531738e-01 7.874778270721435547e+00 2.172685861587524414e+00 -5.762728676199913025e-02
3.849000000000000000e+03 5.016761016845703125e+01 3.973885297775268555e+00 -1.668554246425628662e-01 9.143413543701171875e+00 2.692967414855957031e+00 2.701685130596160889e-01
3.850000000000000000e+03 5.232856369018554688e+01 4.677006721496582031e+00 -3.430533409118652344e-02 8.861569404602050781e+00 2.648179054260253906e+00 6.368647813796997070e-01
3.851000000000000000e+03 5.107632827758789062e+01 3.953843116760253906e+00 -6.878975778818130493e-02 9.083005905151367188e+00 2.704264879226684570e+00 4.699034988880157471e-01
3.852000000000000000e+03 5.122724914550781250e+01 1.184089469909667969e+01 -6.593681573867797852e-01 7.700116634368896484e+00 2.112224578857421875e+00 3.994257748126983643e-02
3.853000000000000000e+03 5.272010040283203125e+01 -2.656400108337402344e+01 -7.576957345008850098e-01 7.692458152770996094e+00 2.080428600311279297e+00 -7.436108589172363281e-02
3.854000000000000000e+03 5.564089584350585938e+01 -2.395559310913085938e+01 -5.659883022308349609e-01 8.081277847290039062e+00 2.254586696624755859e+00 -4.406675100326538086e-01
3.855000000000000000e+03 4.879967880249023438e+01 6.393926620483398438e+00 -5.082126259803771973e-01 8.449539184570312500e+00 2.382397890090942383e+00 -2.387650609016418457e-01
3.856000000000000000e+03 4.653262329101562500e+01 -2.626875114440917969e+01 -6.967767477035522461e-01 6.752147197723388672e+00 1.816611170768737793e+00 6.708219051361083984e-01
3.857000000000000000e+03 4.797188186645507812e+01 -2.927540969848632812e+01 -7.412653565406799316e-01 6.788965225219726562e+00 1.814309954643249512e+00 4.000988304615020752e-01
3.858000000000000000e+03 5.037206649780273438e+01 -2.541870117187500000e+01 -7.717244029045104980e-01 7.576494216918945312e+00 2.041430950164794922e+00 2.097254395484924316e-01
3.859000000000000000e+03 5.123358535766601562e+01 5.053231239318847656e+00 -2.079610675573348999e-01 8.871535301208496094e+00 2.599072217941284180e+00 3.855062723159790039e-01
3.860000000000000000e+03 5.233915710449218750e+01 1.348987865447998047e+01 -6.598089933395385742e-01 7.613911151885986328e+00 2.086230754852294922e+00 1.504824459552764893e-01
3.861000000000000000e+03 4.849272155761718750e+01 1.103636932373046875e+01 -6.670790314674377441e-01 7.448284626007080078e+00 2.034361600875854492e+00 -3.538126647472381592e-01
3.862000000000000000e+03 4.765831375122070312e+01 1.401296615600585938e+01 -6.788305044174194336e-01 6.870203495025634766e+00 1.857411861419677734e+00 -4.227686822414398193e-01
3.863000000000000000e+03 4.862510681152343750e+01 1.598376464843750000e+01 -6.878514885902404785e-01 6.833160877227783203e+00 1.843592762947082520e+00 -2.720511853694915771e-01
3.864000000000000000e+03 5.182772827148437500e+01 1.660835838317871094e+01 -6.813341975212097168e-01 7.233857154846191406e+00 1.965756893157958984e+00 4.578101634979248047e-02
3.865000000000000000e+03 4.651360702514648438e+01 1.707089614868164062e+01 -6.364156603813171387e-01 6.303389072418212891e+00 1.700092077255249023e+00 -4.566821455955505371e-01
3.866000000000000000e+03 4.731046676635742188e+01 1.919193458557128906e+01 -6.407424807548522949e-01 6.277730941772460938e+00 1.691096544265747070e+00 -3.408613502979278564e-01
3.867000000000000000e+03 5.034829711914062500e+01 2.016774177551269531e+01 -6.655693650245666504e-01 6.737475395202636719e+00 1.821571826934814453e+00 -8.922033011913299561e-02
3.868000000000000000e+03 5.329677963256835938e+01 1.810641288757324219e+01 -6.620877385139465332e-01 7.241228580474853516e+00 1.973742246627807617e+00 1.420247852802276611e-01
3.869000000000000000e+03 5.246619796752929688e+01 1.991157913208007812e+01 -6.675928831100463867e-01 7.036229610443115234e+00 1.910591006278991699e+00 5.117778480052947998e-02
3.870000000000000000e+03 6.169233703613281250e+01 2.018249893188476562e+01 -4.432509839534759521e-01 7.714562416076660156e+00 2.181393384933471680e+00 5.615208745002746582e-01
3.871000000000000000e+03 5.642169570922851562e+01 1.877429962158203125e+01 -5.930250883102416992e-01 7.474761486053466797e+00 2.064520835876464844e+00 3.629036843776702881e-01
3.872000000000000000e+03 5.929654312133789062e+01 2.084897994995117188e+01 -5.184839963912963867e-01 7.543952941894531250e+00 2.107640743255615234e+00 4.472899734973907471e-01
3.873000000000000000e+03 3.829556655883789062e+01 1.841579818725585938e+01 -2.867758572101593018e-01 4.197712421417236328e+00 1.173280954360961914e+00 -7.906929254531860352e-01
3.874000000000000000e+03 1.894510841369628906e+01 -2.775714111328125000e+01 2.864285707473754883e-01 2.445817589759826660e-01 1.593030989170074463e-01 -1.056300997734069824e-01
3.875000000000000000e+03 3.450929641723632812e+01 2.115267753601074219e+01 -1.623670458793640137e-01 3.227811098098754883e+00 9.196332097053527832e-01 -6.925451159477233887e-01
3.876000000000000000e+03 2.450655364990234375e+01 -2.753458595275878906e+01 3.401352167129516602e-01 9.762673974037170410e-01 3.949207961559295654e-01 1.541464924812316895e-01
3.877000000000000000e+03 4.240170288085937500e+01 -2.946801757812500000e+01 -4.411874413490295410e-01 5.426130771636962891e+00 1.495482921600341797e+00 7.601185441017150879e-01
3.878000000000000000e+03 3.003131103515625000e+01 -2.614563179016113281e+01 3.555515408515930176e-01 1.860496878623962402e+00 6.648145318031311035e-01 5.433777570724487305e-01
3.879000000000000000e+03 3.482960510253906250e+01 -2.938087272644042969e+01 9.526488929986953735e-02 3.227462768554687500e+00 9.968183040618896484e-01 7.239950895309448242e-01
3.880000000000000000e+03 2.881604385375976562e+01 -2.211680412292480469e+01 3.672616481781005859e-01 1.234214544296264648e+00 4.804428517818450928e-01 3.814979791641235352e-01
3.881000000000000000e+03 2.708303260803222656e+01 -2.458704948425292969e+01 3.358976244926452637e-01 1.165096879005432129e+00 4.502983689308166504e-01 2.865713536739349365e-01
3.882000000000000000e+03 1.152439975738525391e+01 3.118628120422363281e+01 1.770547032356262207e-01 -1.449422240257263184e-01 9.633743204176425934e-03 1.842546910047531128e-01
3.883000000000000000e+03 1.076328182220458984e+01 3.459957885742187500e+01 1.792159378528594971e-01 -1.157787442207336426e-01 1.903115585446357727e-02 1.373125314712524414e-01
3.884000000000000000e+03 6.113055801391601562e+01 -2.861795806884765625e+01 -4.991951882839202881e-01 7.870633125305175781e+00 2.211431503295898438e+00 -5.196600556373596191e-01
3.885000000000000000e+03 1.919197082519531250e+01 2.965033149719238281e+01 2.123231440782546997e-01 5.611751675605773926e-01 2.320494800806045532e-01 -9.409510344266891479e-02
3.886000000000000000e+03 1.148355102539062500e+01 -3.505279159545898438e+01 2.420623600482940674e-01 -2.543891966342926025e-01 -3.698044922202825546e-03 -1.788066178560256958e-01
3.887000000000000000e+03 4.221346664428710938e+01 1.864492988586425781e+01 -4.721625745296478271e-01 5.163264751434326172e+00 1.407330632209777832e+00 -7.068885564804077148e-01
3.888000000000000000e+03 1.761653900146484375e+01 -2.274847412109375000e+01 3.789508715271949768e-02 -5.640780180692672729e-02 -5.553814582526683807e-03 -2.205395400524139404e-01
3.889000000000000000e+03 1.460039234161376953e+01 -2.683187675476074219e+01 2.128045409917831421e-01 -2.067181318998336792e-01 1.825921353884041309e-03 -2.756497263908386230e-01
3.890000000000000000e+03 1.436292076110839844e+01 -3.010639381408691406e+01 2.712119817733764648e-01 -1.606567502021789551e-01 3.316656500101089478e-02 -2.424350231885910034e-01
3.891000000000000000e+03 7.661968231201171875e+01 -3.701394653320312500e+01 -4.521699994802474976e-02 8.167953491210937500e+00 2.436820983886718750e+00 -9.266283363103866577e-02
3.892000000000000000e+03 5.577811431884765625e+01 -2.726917457580566406e+01 -6.816586256027221680e-01 7.822554588317871094e+00 2.142268657684326172e+00 -3.136511743068695068e-01
3.893000000000000000e+03 1.273487186431884766e+01 2.973524284362792969e+01 1.946653425693511963e-01 -1.055561155080795288e-01 2.673276886343955994e-02 1.861505806446075439e-01
3.894000000000000000e+03 1.616603469848632812e+01 3.043304252624511719e+01 2.221586257219314575e-01 2.181766033172607422e-01 1.321005672216415405e-01 6.187817454338073730e-02
3.895000000000000000e+03 5.171672821044921875e+01 -2.470928001403808594e+01 -7.391971945762634277e-01 7.790964603424072266e+00 2.115530252456665039e+00 1.648394204676151276e-02
3.896000000000000000e+03 3.021986007690429688e+01 2.008508110046386719e+01 -5.513386428356170654e-02 2.187030553817749023e+00 6.395689845085144043e-01 -6.192662715911865234e-01
3.897000000000000000e+03 7.453535461425781250e+01 3.246799850463867188e+01 -5.803115665912628174e-02 8.674015045166015625e+00 2.584795236587524414e+00 1.691732257604598999e-01
3.898000000000000000e+03 4.498853683471679688e+01 2.039448738098144531e+01 -5.708119869232177734e-01 5.732524394989013672e+00 1.548513770103454590e+00 -4.722754359245300293e-01
3.899000000000000000e+03 6.316903305053710938e+01 -3.250347137451171875e+01 -4.973168075084686279e-01 7.800334930419921875e+00 2.190905332565307617e+00 -4.088494181632995605e-01
3.900000000000000000e+03 6.521803283691406250e+01 -2.853349494934082031e+01 -3.504709303379058838e-01 7.841230869293212891e+00 2.247228145599365234e+00 -5.800780057907104492e-01
3.901000000000000000e+03 2.089666557312011719e+01 2.093179512023925781e+01 -4.777190089225769043e-02 3.893795609474182129e-01 1.024822965264320374e-01 -1.852050572633743286e-01
3.902000000000000000e+03 5.912928771972656250e+01 -2.702800178527832031e+01 -5.373199582099914551e-01 7.922498703002929688e+00 2.215553760528564453e+00 -5.204123854637145996e-01
3.903000000000000000e+03 5.067641448974609375e+01 2.222375106811523438e+01 -6.379561424255371094e-01 6.629390716552734375e+00 1.797430276870727539e+00 -6.384712457656860352e-02
3.904000000000000000e+03 4.812276840209960938e+01 2.124734306335449219e+01 -6.367610096931457520e-01 6.294573307037353516e+00 1.697343707084655762e+00 -2.543614506721496582e-01
3.905000000000000000e+03 8.178602218627929688e+00 -4.107839965820312500e+01 1.329431384801864624e-01 -5.263955593109130859e-01 -1.180357187986373901e-01 -4.472353309392929077e-02
3.906000000000000000e+03 1.277520561218261719e+01 -2.629162597656250000e+01 1.644299328327178955e-01 -3.724647462368011475e-01 -6.241044029593467712e-02 -3.411734998226165771e-01
3.907000000000000000e+03 2.200732612609863281e+01 2.790203666687011719e+01 1.508391797542572021e-01 8.925653100013732910e-01 3.130213618278503418e-01 -2.203007489442825317e-01
3.908000000000000000e+03 1.507711410522460938e+01 2.913833236694335938e+01 2.046675980091094971e-01 4.772555455565452576e-02 7.571794837713241577e-02 9.112400561571121216e-02
3.909000000000000000e+03 1.389030456542968750e+01 -3.351674652099609375e+01 2.862418293952941895e-01 -1.125379726290702820e-01 5.211116001009941101e-02 -1.812223196029663086e-01
3.910000000000000000e+03 6.562079620361328125e+01 3.505526733398437500e+01 -2.562744617462158203e-01 7.815587997436523438e+00 2.267794132232666016e+00 1.853700578212738037e-01
3.911000000000000000e+03 4.965413665771484375e+01 -3.101171493530273438e+01 -7.803565859794616699e-01 6.917840957641601562e+00 1.841245293617248535e+00 2.082649022340774536e-01
3.912000000000000000e+03 1.580755901336669922e+01 -3.565869140625000000e+01 3.238815665245056152e-01 1.440741419792175293e-01 1.403867155313491821e-01 -1.056584119796752930e-01
3.913000000000000000e+03 1.261969852447509766e+01 -3.768080139160156250e+01 2.652695477008819580e-01 -1.164553686976432800e-01 4.464425891637802124e-02 -1.071602180600166321e-01
3.914000000000000000e+03 2.314826011657714844e+01 -3.770135879516601562e+01 3.445960283279418945e-01 1.123733401298522949e+00 4.404988586902618408e-01 4.221984371542930603e-02
3.915000000000000000e+03 3.915825271606445312e+01 -3.465594863891601562e+01 -2.685042917728424072e-01 4.471716880798339844e+00 1.260963678359985352e+00 4.444610178470611572e-01
3.916000000000000000e+03 3.595467758178710938e+01 -3.668166351318359375e+01 -1.110864430665969849e-01 3.753145694732666016e+00 1.092617750167846680e+00 3.270485997200012207e-01
3.917000000000000000e+03 4.737355804443359375e+01 -4.072713470458984375e+01 -6.983963847160339355e-01 6.184055328369140625e+00 1.645697712898254395e+00 5.136681720614433289e-02
3.918000000000000000e+03 4.725559616088867188e+01 -3.727296066284179688e+01 -6.936137080192565918e-01 6.198570728302001953e+00 1.651487112045288086e+00 1.579333543777465820e-01
3.919000000000000000e+03 4.463863372802734375e+01 3.650995254516601562e+01 -4.017011225223541260e-01 5.066846847534179688e+00 1.399543762207031250e+00 -1.063056439161300659e-01
3.920000000000000000e+03 5.850154495239257812e+01 -3.416189193725585938e+01 -6.916034221649169922e-01 7.618453502655029297e+00 2.078054904937744141e+00 -2.286188602447509766e-01
3.921000000000000000e+03 5.557134628295898438e+01 -3.629182052612304688e+01 -7.604339718818664551e-01 7.367617607116699219e+00 1.982155084609985352e+00 -9.591637551784515381e-02
3.922000000000000000e+03 5.758262634277343750e+01 3.714509582519531250e+01 -4.148803949356079102e-01 6.948826789855957031e+00 1.960183978080749512e+00 7.799382507801055908e-02
3.923000000000000000e+03 6.199275207519531250e+01 3.661020660400390625e+01 -3.362002670764923096e-01 7.454817771911621094e+00 2.135585308074951172e+00 1.228660866618156433e-01
3.924000000000000000e+03 6.679548645019531250e+01 -3.692715835571289062e+01 -3.827587068080902100e-01 7.829511642456054688e+00 2.234025716781616211e+00 -2.438641190528869629e-01
3.925000000000000000e+03 6.831725311279296875e+01 3.747857284545898438e+01 -1.805493980646133423e-01 8.067298889160156250e+00 2.366024971008300781e+00 1.212115287780761719e-01
3.926000000000000000e+03 3.543959426879882812e+01 3.784239196777343750e+01 -1.376358121633529663e-01 3.428731679916381836e+00 9.873287677764892578e-01 -1.476914435625076294e-01
3.927000000000000000e+03 1.866525077819824219e+01 3.676669311523437500e+01 2.385625094175338745e-01 6.676490902900695801e-01 2.718634903430938721e-01 -2.332498319447040558e-02
3.928000000000000000e+03 2.271702194213867188e+01 3.726938629150390625e+01 1.892050057649612427e-01 1.242397546768188477e+00 4.294807612895965576e-01 -6.774017959833145142e-02
3.929000000000000000e+03 1.543933868408203125e+01 3.504573822021484375e+01 2.319720685482025146e-01 2.835825383663177490e-01 1.546663790941238403e-01 5.505601689219474792e-02
3.930000000000000000e+03 5.972055435180664062e+01 2.363871192932128906e+01 -4.961760640144348145e-01 7.470527648925781250e+00 2.092305421829223633e+00 3.957187235355377197e-01
3.931000000000000000e+03 4.017849731445312500e+01 1.877082252502441406e+01 -3.798970282077789307e-01 4.696165561676025391e+00 1.294880628585815430e+00 -7.622213959693908691e-01
3.932000000000000000e+03 2.041766357421875000e+01 -3.379907989501953125e+01 3.701958656311035156e-01 6.390244364738464355e-01 3.027660846710205078e-01 1.987903146073222160e-03
3.933000000000000000e+03 6.327355957031250000e+01 -2.943875885009765625e+01 -4.374074935913085938e-01 7.844910621643066406e+00 2.222250938415527344e+00 -5.246990323066711426e-01
3.934000000000000000e+03 6.943074035644531250e+01 -3.290031814575195312e+01 -2.561748027801513672e-01 7.839706420898437500e+00 2.275059461593627930e+00 -3.874158859252929688e-01
3.935000000000000000e+03 4.102159118652343750e+01 -3.194124794006347656e+01 -3.732430934906005859e-01 5.017996788024902344e+00 1.393426060676574707e+00 6.216454505920410156e-01
3.936000000000000000e+03 3.865742492675781250e+01 -2.997015190124511719e+01 -1.736820042133331299e-01 4.334090709686279297e+00 1.248122572898864746e+00 7.413145899772644043e-01
3.937000000000000000e+03 2.826245498657226562e+01 2.244207191467285156e+01 -2.910535596311092377e-02 1.847841382026672363e+00 5.456207990646362305e-01 -5.174004435539245605e-01
3.938000000000000000e+03 2.432123374938964844e+01 2.819866752624511719e+01 1.167834177613258362e-01 1.260458707809448242e+00 4.131726324558258057e-01 -2.932085394859313965e-01
3.939000000000000000e+03 5.403306198120117188e+01 -2.877496719360351562e+01 -7.595845460891723633e-01 7.617088794708251953e+00 2.057251214981079102e+00 -1.338898837566375732e-01
3.940000000000000000e+03 6.514402008056640625e+01 2.510198974609375000e+01 -3.373171389102935791e-01 7.814504146575927734e+00 2.243155956268310547e+00 4.632331430912017822e-01
3.941000000000000000e+03 3.165683555603027344e+01 2.111265754699707031e+01 -8.347827941179275513e-02 2.548676967620849609e+00 7.395595908164978027e-01 -6.260943412780761719e-01
3.942000000000000000e+03 3.459278869628906250e+01 2.480296134948730469e+01 -1.745770126581192017e-01 3.284025192260742188e+00 9.328344464302062988e-01 -5.688264369964599609e-01
3.943000000000000000e+03 5.693024063110351562e+01 2.143841552734375000e+01 -5.679512619972229004e-01 7.356451988220214844e+00 2.036550283432006836e+00 3.350275456905364990e-01
3.944000000000000000e+03 6.006596374511718750e+01 -3.122906112670898438e+01 -6.070382595062255859e-01 7.786879062652587891e+00 2.153952360153198242e+00 -3.829042017459869385e-01
3.945000000000000000e+03 5.766370773315429688e+01 -2.928148460388183594e+01 -6.636706590652465820e-01 7.776595115661621094e+00 2.133877277374267578e+00 -3.570040762424468994e-01
3.946000000000000000e+03 2.424265480041503906e+01 2.326578521728515625e+01 4.019223526120185852e-02 1.118710041046142578e+00 3.476707041263580322e-01 -3.723759055137634277e-01
3.947000000000000000e+03 2.015458869934082031e+01 3.336117172241210938e+01 2.269819974899291992e-01 7.936031818389892578e-01 3.061755597591400146e-01 -7.790353149175643921e-02
3.948000000000000000e+03 5.256421661376953125e+01 2.211824607849121094e+01 -6.469195485115051270e-01 6.865615844726562500e+00 1.865608930587768555e+00 3.656806424260139465e-02
3.949000000000000000e+03 6.230945205688476562e+01 2.290745544433593750e+01 -4.270455539226531982e-01 7.673735141754150391e+00 2.174006938934326172e+00 4.915549159049987793e-01
3.950000000000000000e+03 2.751588058471679688e+01 -2.715229606628417969e+01 3.566377758979797363e-01 1.443450689315795898e+00 5.400265455245971680e-01 3.505637943744659424e-01
3.951000000000000000e+03 5.354584884643554688e+01 -3.286928939819335938e+01 -7.905734777450561523e-01 7.300241470336914062e+00 1.952900409698486328e+00 -5.561375617980957031e-02
3.952000000000000000e+03 3.987522125244140625e+01 2.151012420654296875e+01 -3.798078298568725586e-01 4.540174961090087891e+00 1.248110175132751465e+00 -6.412021517753601074e-01
3.953000000000000000e+03 2.315687751770019531e+01 3.394329071044921875e+01 1.825487315654754639e-01 1.267809867858886719e+00 4.351075887680053711e-01 -1.376896947622299194e-01
3.954000000000000000e+03 2.375644302368164062e+01 -3.437419128417968750e+01 3.492959737777709961e-01 1.141099572181701660e+00 4.471186399459838867e-01 8.749555051326751709e-02
3.955000000000000000e+03 4.729134368896484375e+01 -3.407725524902343750e+01 -6.914608478546142578e-01 6.278356552124023438e+00 1.676068663597106934e+00 2.825206518173217773e-01
3.956000000000000000e+03 2.437198066711425781e+01 -3.096751785278320312e+01 3.558583259582519531e-01 1.123600006103515625e+00 4.438374936580657959e-01 1.467795521020889282e-01
3.957000000000000000e+03 3.119183921813964844e+01 -2.828011322021484375e+01 2.801722586154937744e-01 2.241893529891967773e+00 7.566197514533996582e-01 5.787408947944641113e-01
3.958000000000000000e+03 5.150778579711914062e+01 -3.714504623413085938e+01 -7.825299501419067383e-01 6.890649795532226562e+00 1.832435965538024902e+00 4.365774989128112793e-02
3.959000000000000000e+03 5.726103973388671875e+01 2.711858177185058594e+01 -5.247812867164611816e-01 7.131122589111328125e+00 1.981902360916137695e+00 2.221849262714385986e-01
3.960000000000000000e+03 2.379794120788574219e+01 3.095106124877929688e+01 1.556287854909896851e-01 1.271275997161865234e+00 4.280714392662048340e-01 -2.276937812566757202e-01
3.961000000000000000e+03 2.731695556640625000e+01 -3.464942169189453125e+01 2.941536903381347656e-01 1.750172257423400879e+00 6.132978200912475586e-01 2.030588239431381226e-01
3.962000000000000000e+03 1.865457344055175781e+01 -3.022129821777343750e+01 3.279461264610290527e-01 2.997259795665740967e-01 1.883016377687454224e-01 -8.753020316362380981e-02
3.963000000000000000e+03 5.716444015502929688e+01 2.419757843017578125e+01 -5.587965250015258789e-01 7.246867656707763672e+00 2.006421327590942383e+00 2.804542779922485352e-01
3.964000000000000000e+03 6.005975341796875000e+01 2.657411956787109375e+01 -4.675193727016448975e-01 7.414188385009765625e+00 2.084000825881958008e+00 3.290527760982513428e-01
3.965000000000000000e+03 6.336476516723632812e+01 2.877142524719238281e+01 -3.602030277252197266e-01 7.644959449768066406e+00 2.185426950454711914e+00 3.357428312301635742e-01
3.966000000000000000e+03 1.636391067504882812e+01 -2.971981430053710938e+01 2.908106148242950439e-01 3.442473709583282471e-02 9.757061302661895752e-02 -1.908818930387496948e-01
3.967000000000000000e+03 2.655818176269531250e+01 3.129838752746582031e+01 9.032610058784484863e-02 1.768301844596862793e+00 5.575883984565734863e-01 -2.824815213680267334e-01
3.968000000000000000e+03 5.440626144409179688e+01 2.733134269714355469e+01 -5.623865127563476562e-01 6.813684940338134766e+00 1.875389575958251953e+00 1.096571534872055054e-01
3.969000000000000000e+03 4.245691680908203125e+01 2.145778083801269531e+01 -4.749577045440673828e-01 5.101899623870849609e+00 1.388082504272460938e+00 -5.707851648330688477e-01
3.970000000000000000e+03 2.982380104064941406e+01 2.796319007873535156e+01 -1.807692088186740875e-02 2.275179147720336914e+00 6.771306991577148438e-01 -4.176674783229827881e-01
3.971000000000000000e+03 4.730014038085937500e+01 2.477909469604492188e+01 -5.785170197486877441e-01 5.942711830139160156e+00 1.609258532524108887e+00 -2.429918497800827026e-01
3.972000000000000000e+03 3.259156417846679688e+01 -3.065206146240234375e+01 1.647350341081619263e-01 2.713299274444580078e+00 8.634102940559387207e-01 5.609712004661560059e-01
3.973000000000000000e+03 2.741785812377929688e+01 -3.158044815063476562e+01 3.201563358306884766e-01 1.662659287452697754e+00 5.948446989059448242e-01 2.769433856010437012e-01
3.974000000000000000e+03 2.701872825622558594e+01 2.842685508728027344e+01 5.585535988211631775e-02 1.780429482460021973e+00 5.508854389190673828e-01 -3.623931407928466797e-01
3.975000000000000000e+03 2.896905136108398438e+01 2.504054260253906250e+01 -8.209964260458946228e-03 2.054042339324951172e+00 6.137496829032897949e-01 -4.891168773174285889e-01
3.976000000000000000e+03 4.591523742675781250e+01 2.272140884399414062e+01 -5.700020790100097656e-01 5.782857894897460938e+00 1.563856720924377441e+00 -3.544826805591583252e-01
3.977000000000000000e+03 2.664490509033203125e+01 3.708732986450195312e+01 1.243041381239891052e-01 1.868198990821838379e+00 5.977509021759033203e-01 -1.214904636144638062e-01
3.978000000000000000e+03 3.169251823425292969e+01 -3.755452728271484375e+01 1.149345040321350098e-01 2.749764204025268555e+00 8.594095706939697266e-01 2.025643438100814819e-01
3.979000000000000000e+03 2.740540885925292969e+01 -3.783617019653320312e+01 2.755841612815856934e-01 1.853658318519592285e+00 6.387727856636047363e-01 1.312492638826370239e-01
3.980000000000000000e+03 4.922804260253906250e+01 2.627681350708007812e+01 -5.800294280052185059e-01 6.169438838958740234e+00 1.676822900772094727e+00 -1.285936385393142700e-01
3.981000000000000000e+03 3.836486053466796875e+01 2.900537681579589844e+01 -2.903027236461639404e-01 4.064820289611816406e+00 1.132355213165283203e+00 -4.025453031063079834e-01
3.982000000000000000e+03 3.641693878173828125e+01 2.686889839172363281e+01 -2.248732596635818481e-01 3.679154634475708008e+00 1.036284446716308594e+00 -4.694662690162658691e-01
3.983000000000000000e+03 4.514070892333984375e+01 2.706842803955078125e+01 -5.018133521080017090e-01 5.412344932556152344e+00 1.473159432411193848e+00 -2.980079352855682373e-01
3.984000000000000000e+03 2.880585479736328125e+01 -2.946582794189453125e+01 3.046870231628417969e-01 1.800046205520629883e+00 6.314199566841125488e-01 3.943996429443359375e-01
3.985000000000000000e+03 3.124308776855468750e+01 3.106878280639648438e+01 -3.814852610230445862e-02 2.600286960601806641e+00 7.686415314674377441e-01 -3.522368669509887695e-01
3.986000000000000000e+03 5.401610183715820312e+01 3.039934730529785156e+01 -5.166252851486206055e-01 6.649635314941406250e+00 1.839902997016906738e+00 7.386947423219680786e-02
3.987000000000000000e+03 6.047462081909179688e+01 2.966748428344726562e+01 -4.315777122974395752e-01 7.373274803161621094e+00 2.082509040832519531e+00 2.586849629878997803e-01
3.988000000000000000e+03 4.970985412597656250e+01 3.341647720336914062e+01 -4.846686720848083496e-01 5.970828533172607422e+00 1.645848035812377930e+00 -5.133181437849998474e-02
3.989000000000000000e+03 5.314444732666015625e+01 3.726896667480468750e+01 -4.539701640605926514e-01 6.385555744171142578e+00 1.779475688934326172e+00 1.747145876288414001e-02
3.990000000000000000e+03 3.398134994506835938e+01 2.912683296203613281e+01 -1.350781917572021484e-01 3.126930236816406250e+00 8.975555896759033203e-01 -4.283283948898315430e-01
3.991000000000000000e+03 4.759272003173828125e+01 2.906929206848144531e+01 -5.156353116035461426e-01 5.755750179290771484e+00 1.572034358978271484e+00 -1.689850836992263794e-01
3.992000000000000000e+03 4.278797531127929688e+01 3.200124740600585938e+01 -3.974274694919586182e-01 4.888299465179443359e+00 1.347261548042297363e+00 -2.486449778079986572e-01
3.993000000000000000e+03 4.258309936523437500e+01 2.898524856567382812e+01 -4.119478464126586914e-01 4.943860054016113281e+00 1.359573721885681152e+00 -3.104937374591827393e-01
3.994000000000000000e+03 5.037693786621093750e+01 2.409947395324707031e+01 -6.148542761802673340e-01 6.450088024139404297e+00 1.750570178031921387e+00 -7.923860847949981689e-02
3.995000000000000000e+03 5.166216278076171875e+01 2.708324432373046875e+01 -5.777062177658081055e-01 6.460462570190429688e+00 1.764826893806457520e+00 -1.035968400537967682e-02
3.996000000000000000e+03 3.319044113159179688e+01 3.426625442504882812e+01 -9.014835953712463379e-02 2.965384483337402344e+00 8.625708222389221191e-01 -2.567210495471954346e-01
3.997000000000000000e+03 3.825435256958007812e+01 3.407955932617187500e+01 -2.478018552064895630e-01 4.030866622924804688e+00 1.134919404983520508e+00 -2.460119277238845825e-01
3.998000000000000000e+03 3.876400589942932129e-01 2.095154523849487305e+00 -2.432663459330797195e-04 -2.148652274627238512e-04 -1.374394632875919342e-04 1.528349821455776691e-04
3.999000000000000000e+03 4.106098556518554688e+01 -4.354233741760253906e+00 2.093918323516845703e+00 1.433004379272460938e+00 1.058076739311218262e+00 -2.286659955978393555e+00
4.000000000000000000e+03 4.150080871582031250e+01 -4.619447708129882812e+00 2.411857604980468750e+00 1.603638172149658203e+00 1.204648733139038086e+00 -2.588825702667236328e+00
4.001000000000000000e+03 4.260143280029296875e+01 -4.911928653717041016e+00 3.936020851135253906e+00 4.038034915924072266e+00 2.392216682434082031e+00 -4.654951572418212891e+00
4.002000000000000000e+03 4.277302932739257812e+01 -4.915120124816894531e+00 4.163611412048339844e+00 4.898852825164794922e+00 2.718739271163940430e+00 -5.255453109741210938e+00
4.003000000000000000e+03 4.295761489868164062e+01 -4.886538028717041016e+00 4.324449062347412109e+00 6.010351181030273438e+00 3.100440025329589844e+00 -5.904886722564697266e+00
4.004000000000000000e+03 4.310027313232421875e+01 -4.605630397796630859e+00 3.629208087921142578e+00 7.839663505554199219e+00 3.440661430358886719e+00 -6.084407329559326172e+00
4.005000000000000000e+03 4.376023483276367188e+01 -4.840199470520019531e+00 3.059470176696777344e+00 1.381343269348144531e+01 5.061870574951171875e+00 -6.795779228210449219e+00
4.006000000000000000e+03 4.395870208740234375e+01 -4.805863857269287109e+00 2.501735448837280273e+00 1.601131439208984375e+01 5.553915023803710938e+00 -6.049163818359375000e+00
4.007000000000000000e+03 4.428574752807617188e+01 -4.221522808074951172e+00 1.514331936836242676e+00 1.573294925689697266e+01 5.174184322357177734e+00 -3.992076396942138672e+00
4.008000000000000000e+03 4.498607254028320312e+01 -5.068964004516601562e+00 3.860934019088745117e+00 2.065019226074218750e+01 7.353338241577148438e+00 4.037549495697021484e-01
4.009000000000000000e+03 4.508787918090820312e+01 -4.798943519592285156e+00 3.255758762359619141e+00 1.942941856384277344e+01 6.805553436279296875e+00 8.859192579984664917e-02
4.010000000000000000e+03 4.585133361816406250e+01 -5.208503723144531250e+00 6.415865421295166016e+00 1.706416893005371094e+01 7.044010162353515625e+00 2.204069614410400391e+00
4.011000000000000000e+03 4.602411270141601562e+01 -6.790931224822998047e+00 1.047752189636230469e+01 1.556292533874511719e+01 7.812134265899658203e+00 -1.175742745399475098e+00
4.012000000000000000e+03 4.605643463134765625e+01 -6.589263916015625000e+00 1.076272964477539062e+01 1.544524097442626953e+01 7.862391471862792969e+00 -4.555837810039520264e-01
4.013000000000000000e+03 4.601840209960937500e+01 -7.004827499389648438e+00 9.902742385864257812e+00 1.581062507629394531e+01 7.714010238647460938e+00 -1.734628438949584961e+00
4.014000000000000000e+03 4.591812515258789062e+01 -7.664916992187500000e+00 6.759199142456054688e+00 1.678257942199707031e+01 7.062533378601074219e+00 -2.420762777328491211e+00
4.015000000000000000e+03 4.494480895996093750e+01 -8.270718574523925781e+00 2.208904504776000977e+00 1.910263824462890625e+01 6.393463134765625000e+00 7.195376157760620117e-01
4.016000000000000000e+03 4.345585632324218750e+01 -8.207783699035644531e+00 3.062273263931274414e+00 1.058270263671875000e+01 4.093492984771728516e+00 6.632682323455810547e+00
4.017000000000000000e+03 4.304365921020507812e+01 -8.190998077392578125e+00 3.491136789321899414e+00 7.095056533813476562e+00 3.175858020782470703e+00 6.004230499267578125e+00
4.018000000000000000e+03 4.244025802612304688e+01 -8.149890899658203125e+00 3.263955116271972656e+00 3.383948087692260742e+00 1.994370937347412109e+00 4.278275489807128906e+00
4.019000000000000000e+03 4.226008987426757812e+01 -8.165734291076660156e+00 2.942322969436645508e+00 3.006859302520751953e+00 1.784754633903503418e+00 3.821802139282226562e+00
4.020000000000000000e+03 4.143555068969726562e+01 -8.587772369384765625e+00 1.901598334312438965e+00 1.786120176315307617e+00 1.106315493583679199e+00 2.673222780227661133e+00
4.021000000000000000e+03 4.118669509887695312e+01 -8.499991416931152344e+00 1.439408659934997559e+00 1.278483748435974121e+00 8.153676986694335938e-01 2.219044685363769531e+00
4.022000000000000000e+03 6.958670616149902344e-01 3.026858091354370117e+00 -8.796966540103312582e-06 1.258270640391856432e-04 3.510903115966357291e-05 -4.131697933189570904e-04
4.023000000000000000e+03 1.807961654663085938e+01 -7.636824131011962891e+00 -1.288988441228866577e-01 -9.213967621326446533e-02 -6.631156057119369507e-02 -1.215627491474151611e-01
4.024000000000000000e+03 1.839405632019042969e+01 -7.893306732177734375e+00 -2.366152554750442505e-01 -1.302987337112426758e-01 -1.100741997361183167e-01 -2.333362549543380737e-01
4.025000000000000000e+03 4.622257995605468750e+01 -4.971165180206298828e+00 5.658193588256835938e+00 1.558536434173583984e+01 6.373067378997802734e+00 1.984663605690002441e+00
4.026000000000000000e+03 4.601158905029296875e+01 -5.847682952880859375e+00 9.639150619506835938e+00 1.591639614105224609e+01 7.666663646697998047e+00 1.815609931945800781e+00
4.027000000000000000e+03 4.137372970581054688e+01 -3.860862493515014648e+00 2.541473150253295898e+00 2.590108871459960938e+00 1.539474606513977051e+00 -3.171922445297241211e+00
4.028000000000000000e+03 2.836448192596435547e+00 -3.824643325805664062e+01 4.181613028049468994e-02 -1.017568707466125488e+00 -2.927258014678955078e-01 -1.841917075216770172e-02
4.029000000000000000e+03 1.013392925262451172e+01 -2.114296913146972656e+01 -2.314156740903854370e-01 -5.843979120254516602e-01 -2.447440624237060547e-01 -4.811690747737884521e-01
4.030000000000000000e+03 1.761092185974121094e+01 -7.477475643157958984e+00 -7.469080388545989990e-02 -1.568378806114196777e-01 -6.945860385894775391e-02 -1.086018383502960205e-01
4.031000000000000000e+03 1.781053352355957031e+01 -8.005290985107421875e+00 -1.704850941896438599e-01 -1.654106229543685913e-01 -1.007687151432037354e-01 -1.832027137279510498e-01
4.032000000000000000e+03 4.174896240234375000e+01 -4.542268276214599609e+00 2.833140134811401367e+00 2.208933115005493164e+00 1.512621998786926270e+00 -3.078888893127441406e+00
4.033000000000000000e+03 4.331076049804687500e+01 -4.337931632995605469e+00 2.950107812881469727e+00 9.770090103149414062e+00 3.816059350967407227e+00 -6.042411804199218750e+00
4.034000000000000000e+03 4.135232162475585938e+01 -8.925217628479003906e+00 2.066812753677368164e+00 2.245513916015625000e+00 1.293697953224182129e+00 2.990268468856811523e+00
4.035000000000000000e+03 4.284637832641601562e+01 -8.994520187377929688e+00 2.443915843963623047e+00 7.209978103637695312e+00 2.896168231964111328e+00 5.312920093536376953e+00
4.036000000000000000e+03 4.403123855590820312e+01 -8.771518707275390625e+00 1.239401698112487793e+00 1.399342250823974609e+01 4.569847106933593750e+00 4.729101657867431641e+00
4.037000000000000000e+03 4.427418518066406250e+01 -8.729078292846679688e+00 1.074351191520690918e+00 1.565861511230468750e+01 5.019889831542968750e+00 3.912219285964965820e+00
4.038000000000000000e+03 4.469531250000000000e+01 -8.586828231811523438e+00 1.366421818733215332e+00 1.762051010131835938e+01 5.696079730987548828e+00 2.300409793853759766e+00
4.039000000000000000e+03 4.507790374755859375e+01 -8.687587738037109375e+00 1.653037786483764648e+00 1.732922554016113281e+01 5.694678783416748047e+00 9.235595464706420898e-01
4.040000000000000000e+03 4.486295318603515625e+01 -8.471520423889160156e+00 1.627620339393615723e+00 1.815675163269042969e+01 5.935311794281005859e+00 1.487424373626708984e+00
4.041000000000000000e+03 4.555438995361328125e+01 -4.666448593139648438e+00 3.746921300888061523e+00 1.762367248535156250e+01 6.411178112030029297e+00 1.072961211204528809e+00
4.042000000000000000e+03 4.486874389648437500e+01 -4.215385437011718750e+00 1.530331492424011230e+00 1.702798652648925781e+01 5.567495346069335938e+00 -1.803611874580383301e+00
4.043000000000000000e+03 4.406218719482421875e+01 -4.028687953948974609e+00 1.501142740249633789e+00 1.382736015319824219e+01 4.598550796508789062e+00 -4.688146591186523438e+00
4.044000000000000000e+03 4.235463333129882812e+01 -8.381881713867187500e+00 3.146357536315917969e+00 3.723770856857299805e+00 2.061038494110107422e+00 4.387562751770019531e+00
4.045000000000000000e+03 4.243815231323242188e+01 -8.790846824645996094e+00 2.647935152053833008e+00 4.990359783172607422e+00 2.291488647460937500e+00 4.681796073913574219e+00
4.046000000000000000e+03 2.173784065246582031e+01 -1.882185459136962891e+00 -6.920153647661209106e-02 -2.138033360242843628e-01 -8.490145951509475708e-02 3.010618686676025391e-01
4.047000000000000000e+03 7.786071777343750000e+01 -3.588859939575195312e+01 -2.202463150024414062e-02 8.188767433166503906e+00 2.450022935867309570e+00 -6.764364242553710938e-02
4.048000000000000000e+03 3.130755901336669922e+00 3.729482650756835938e+01 3.842877969145774841e-02 -7.190027236938476562e-01 -2.041721940040588379e-01 4.117939993739128113e-02
4.049000000000000000e+03 4.628564453125000000e+01 -6.228062152862548828e+00 9.839464187622070312e+00 1.463205718994140625e+01 7.341456413269042969e+00 6.242770552635192871e-01
4.050000000000000000e+03 4.627922058105468750e+01 -6.804812908172607422e+00 9.760936737060546875e+00 1.480072593688964844e+01 7.368498802185058594e+00 -1.058559536933898926e+00
4.051000000000000000e+03 4.637259674072265625e+01 -7.160279750823974609e+00 8.448484420776367188e+00 1.463225364685058594e+01 6.924221515655517578e+00 -1.670115232467651367e+00
4.052000000000000000e+03 4.182710266113281250e+01 -3.500063896179199219e+00 2.603123903274536133e+00 4.146529197692871094e+00 2.024895906448364258e+00 -3.966496229171752930e+00
4.053000000000000000e+03 4.570265579223632812e+01 -7.844554424285888672e+00 5.596873283386230469e+00 1.773210906982421875e+01 6.998694896697998047e+00 -2.178335905075073242e+00
4.054000000000000000e+03 4.645614242553710938e+01 -7.809533596038818359e+00 6.171568870544433594e+00 1.492997169494628906e+01 6.330461978912353516e+00 -2.140605211257934570e+00
4.055000000000000000e+03 4.617831039428710938e+01 -7.969514369964599609e+00 5.527992248535156250e+00 1.576984024047851562e+01 6.389349460601806641e+00 -2.121848821640014648e+00
4.056000000000000000e+03 4.661268997192382812e+01 -4.863957881927490234e+00 5.480104923248291016e+00 1.449573516845703125e+01 5.992752075195312500e+00 1.899763107299804688e+00
4.057000000000000000e+03 4.570891189575195312e+01 -4.044306278228759766e+00 2.424339532852172852e+00 1.607422065734863281e+01 5.549568176269531250e+00 4.122547805309295654e-01
4.058000000000000000e+03 4.539244079589843750e+01 -4.432266235351562500e+00 2.744853973388671875e+00 1.727027130126953125e+01 6.004537582397460938e+00 2.249732613563537598e-01
4.059000000000000000e+03 5.479470252990722656e+00 -3.246691513061523438e+01 8.825721591711044312e-02 -6.382848024368286133e-01 -1.650082767009735107e-01 -2.484746277332305908e-01
4.060000000000000000e+03 1.438201618194580078e+01 3.083190155029296875e+01 2.328759282827377319e-01 7.076325267553329468e-02 9.109175205230712891e-02 1.201767101883888245e-01
4.061000000000000000e+03 1.869890332221984863e+00 -3.849548339843750000e+00 6.289280718192458153e-04 -2.195036795455962420e-04 1.228273176820948720e-04 9.049172149389050901e-06
4.062000000000000000e+03 4.642557907104492188e+01 -5.533228397369384766e+00 7.750530242919921875e+00 1.466015815734863281e+01 6.723206520080566406e+00 1.884833097457885742e+00
4.063000000000000000e+03 4.633578109741210938e+01 -6.634496212005615234e+00 9.743375778198242188e+00 1.436808872222900391e+01 7.233439445495605469e+00 -4.741421937942504883e-01
4.064000000000000000e+03 4.683998489379882812e+01 -6.714213848114013672e+00 8.596602439880371094e+00 1.336303234100341797e+01 6.587890625000000000e+00 -5.388295054435729980e-01
4.065000000000000000e+03 4.377138900756835938e+01 -3.860503196716308594e+00 1.742113709449768066e+00 1.220408439636230469e+01 4.183859348297119141e+00 -5.019986629486083984e+00
4.066000000000000000e+03 4.413349151611328125e+01 -9.085166931152343750e+00 1.003670334815979004e+00 1.380242538452148438e+01 4.441828727722167969e+00 4.278726100921630859e+00
4.067000000000000000e+03 4.560984039306640625e+01 -8.828256607055664062e+00 2.163143873214721680e+00 1.641152381896972656e+01 5.572400569915771484e+00 -3.807032406330108643e-01
4.068000000000000000e+03 4.353937530517578125e+01 -4.407025814056396484e+00 2.677173614501953125e+00 1.144668292999267578e+01 4.237156867980957031e+00 -6.113161563873291016e+00
4.069000000000000000e+03 4.340233993530273438e+01 -3.420711040496826172e+00 1.742591619491577148e+00 1.017076492309570312e+01 3.574006795883178711e+00 -4.939228534698486328e+00
4.070000000000000000e+03 4.798880100250244141e+00 3.640410232543945312e+01 5.884028598666191101e-02 -5.263343453407287598e-01 -1.402482241392135620e-01 1.126669123768806458e-01
4.071000000000000000e+03 4.412731170654296875e+01 -3.072166442871093750e+00 9.468683600425720215e-01 1.219535541534423828e+01 3.942667245864868164e+00 -3.728344678878784180e+00
4.072000000000000000e+03 4.233229827880859375e+01 -3.171593189239501953e+00 2.301765918731689453e+00 5.942778110504150391e+00 2.473363161087036133e+00 -4.449663639068603516e+00
4.073000000000000000e+03 4.578404235839843750e+01 -8.271956443786621094e+00 3.862514495849609375e+00 1.702232551574707031e+01 6.265451908111572266e+00 -1.571071624755859375e+00
4.074000000000000000e+03 4.590409088134765625e+01 -9.202031135559082031e+00 1.839649319648742676e+00 1.526498985290527344e+01 5.131391525268554688e+00 -4.059298038482666016e-01
4.075000000000000000e+03 4.449581909179687500e+01 -8.670239448547363281e+00 1.083328247070312500e+00 1.676444625854492188e+01 5.354332447052001953e+00 3.222690343856811523e+00
4.076000000000000000e+03 4.463098144531250000e+01 -8.966653823852539062e+00 9.238124489784240723e-01 1.596150207519531250e+01 5.065594673156738281e+00 2.792899370193481445e+00
4.077000000000000000e+03 6.692822933197021484e+00 -2.622139358520507812e+01 3.653985261917114258e-02 -4.716594517230987549e-01 -1.305358856916427612e-01 -4.037704765796661377e-01
4.078000000000000000e+03 4.237585449218750000e+01 -9.863698959350585938e+00 1.759328126907348633e+00 6.072810173034667969e+00 2.349641561508178711e+00 4.451833248138427734e+00
4.079000000000000000e+03 4.687660980224609375e+01 -5.739460468292236328e+00 7.823920726776123047e+00 1.342387294769287109e+01 6.374338150024414062e+00 1.283179879188537598e+00
4.080000000000000000e+03 4.662773132324218750e+01 -4.012032985687255859e+00 3.334576368331909180e+00 1.429508876800537109e+01 5.288899421691894531e+00 1.406447410583496094e+00
4.081000000000000000e+03 4.544416809082031250e+01 -4.157831668853759766e+00 2.223357200622558594e+00 1.661472702026367188e+01 5.651424884796142578e+00 -2.253988385200500488e-02
4.082000000000000000e+03 4.353327941894531250e+01 -1.019860076904296875e+01 8.094636201858520508e-01 1.002223682403564453e+01 3.249510049819946289e+00 4.329374790191650391e+00
4.083000000000000000e+03 4.381499862670898438e+01 -1.000058269500732422e+01 7.258422374725341797e-01 1.115755558013916016e+01 3.565019369125366211e+00 4.165850162506103516e+00
4.084000000000000000e+03 4.442052841186523438e+01 -9.317765235900878906e+00 6.691935062408447266e-01 1.424888038635253906e+01 4.475422382354736328e+00 3.354713201522827148e+00
4.085000000000000000e+03 1.130887508392333984e+01 -2.934628105163574219e+01 2.040602117776870728e-01 -3.610735535621643066e-01 -4.710400477051734924e-02 -3.196007907390594482e-01
4.086000000000000000e+03 4.652674865722656250e+01 -6.989458560943603516e+00 8.629360198974609375e+00 1.408697605133056641e+01 6.814900875091552734e+00 -1.215799450874328613e+00
4.087000000000000000e+03 4.650737380981445312e+01 -6.766396522521972656e+00 9.159312248229980469e+00 1.392918014526367188e+01 6.926548004150390625e+00 -7.144050002098083496e-01
4.088000000000000000e+03 9.825963973999023438e+00 -3.731677770614624023e+00 4.085790424142032862e-04 -7.149642333388328552e-04 -9.191555727738887072e-05 2.919044709415175021e-05
4.089000000000000000e+03 4.476277160644531250e+01 -9.319297790527343750e+00 6.824460029602050781e-01 1.491990947723388672e+01 4.680706977844238281e+00 2.432603836059570312e+00
4.090000000000000000e+03 4.383733272552490234e+00 4.495572090148925781e+00 -5.944126678514294326e-05 -1.355701806460274383e-05 -2.189948645536787808e-05 -5.400456575443968177e-05
4.091000000000000000e+03 4.509264755249023438e+01 -3.694592237472534180e+00 1.230384707450866699e+00 1.553131389617919922e+01 5.028509616851806641e+00 -1.483325839042663574e+00
4.092000000000000000e+03 7.325674533843994141e+00 -3.109806251525878906e+01 1.264722794294357300e-01 -5.160048604011535645e-01 -1.168597713112831116e-01 -3.048954010009765625e-01
4.093000000000000000e+03 4.736377716064453125e+01 -6.746717453002929688e+00 7.502782821655273438e+00 1.233868598937988281e+01 5.952440738677978516e+00 -5.109241604804992676e-01
4.094000000000000000e+03 4.683282089233398438e+01 -6.994956016540527344e+00 8.052638053894042969e+00 1.339864063262939453e+01 6.435383319854736328e+00 -1.063823461532592773e+00
4.095000000000000000e+03 4.443350219726562500e+01 -3.504465103149414062e+00 9.753598570823669434e-01 1.379271411895751953e+01 4.430422306060791016e+00 -3.299885034561157227e+00
4.096000000000000000e+03 4.383687210083007812e+01 -2.856504201889038086e+00 1.040651559829711914e+00 1.105286026000976562e+01 3.628053665161132812e+00 -4.027223110198974609e+00
4.097000000000000000e+03 4.628733062744140625e+01 -3.147663354873657227e+00 1.689212918281555176e+00 1.396759414672851562e+01 4.697041988372802734e+00 3.610781431198120117e-01
4.098000000000000000e+03 4.607686614990234375e+01 -3.393092155456542969e+00 1.849711537361145020e+00 1.450138092041015625e+01 4.905327796936035156e+00 3.145293891429901123e-01
4.099000000000000000e+03 4.664221572875976562e+01 -8.304431915283203125e+00 4.718355178833007812e+00 1.448077487945556641e+01 5.759738922119140625e+00 -1.913979887962341309e+00
4.100000000000000000e+03 4.694891738891601562e+01 -7.855124473571777344e+00 6.059664249420166016e+00 1.371789360046386719e+01 5.933267116546630859e+00 -1.929311394691467285e+00
4.101000000000000000e+03 4.670974349975585938e+01 -8.612770080566406250e+00 3.856837511062622070e+00 1.431941795349121094e+01 5.452876567840576172e+00 -1.746397495269775391e+00
4.102000000000000000e+03 4.745931625366210938e+01 -7.341222286224365234e+00 6.780940532684326172e+00 1.240659236907958984e+01 5.756259918212890625e+00 -1.228963375091552734e+00
4.103000000000000000e+03 4.688843917846679688e+01 -5.505404472351074219e+00 7.251210689544677734e+00 1.362706661224365234e+01 6.263483047485351562e+00 1.582781076431274414e+00
4.104000000000000000e+03 4.456314468383789062e+01 -1.020758247375488281e+01 2.842673063278198242e-01 1.267905712127685547e+01 3.888997316360473633e+00 2.917801618576049805e+00
4.105000000000000000e+03 1.866600036621093750e+01 2.664153289794921875e+01 1.660145074129104614e-01 3.286778330802917480e-01 1.484076976776123047e-01 -8.028969913721084595e-02
4.106000000000000000e+03 4.652405548095703125e+01 -9.454070091247558594e+00 2.063658475875854492e+00 1.405711460113525391e+01 4.836231708526611328e+00 -8.816157579421997070e-01
4.107000000000000000e+03 4.299961090087890625e+01 -3.418490886688232422e+00 2.155157804489135742e+00 8.194571495056152344e+00 3.104918718338012695e+00 -4.944702148437500000e+00
4.108000000000000000e+03 3.110605621337890625e+01 2.416100692749023438e+01 -7.458067685365676880e-02 2.467491388320922852e+00 7.178732156753540039e-01 -5.383872389793395996e-01
4.109000000000000000e+03 3.299346923828125000e+01 2.283134078979492188e+01 -1.291982829570770264e-01 2.893069982528686523e+00 8.291615247726440430e-01 -6.133689284324645996e-01
4.110000000000000000e+03 4.653108215332031250e+01 -8.960370063781738281e+00 2.983025550842285156e+00 1.451863956451416016e+01 5.250499725341796875e+00 -1.370933294296264648e+00
4.111000000000000000e+03 4.604954528808593750e+01 -8.342227935791015625e+00 4.038963317871093750e+00 1.605482292175292969e+01 6.028135776519775391e+00 -1.713986277580261230e+00
4.112000000000000000e+03 5.413292884826660156e+00 3.514919662475585938e+01 8.670275658369064331e-02 -4.574950933456420898e-01 -1.112377047538757324e-01 1.439249813556671143e-01
4.113000000000000000e+03 4.734740447998046875e+01 -5.761906147003173828e+00 7.232269287109375000e+00 1.256029415130615234e+01 5.937768936157226562e+00 1.006507515907287598e+00
4.114000000000000000e+03 7.757361888885498047e+00 -4.953789234161376953e+00 1.739301515044644475e-04 -1.646242890274152160e-04 2.791758333842153661e-06 5.036860238760709763e-04
4.115000000000000000e+03 4.283507919311523438e+01 -2.962119817733764648e+00 1.860918402671813965e+00 7.698726177215576172e+00 2.867893457412719727e+00 -4.553244113922119141e+00
4.116000000000000000e+03 1.862931251525878906e+01 -2.560329246520996094e+01 2.010110020637512207e-01 1.299568265676498413e-01 9.929034858942031860e-02 -1.438918858766555786e-01
4.117000000000000000e+03 1.740370368957519531e+01 -2.437257194519042969e+01 1.421356499195098877e-01 -2.814105898141860962e-02 3.419837728142738342e-02 -2.024202346801757812e-01
4.118000000000000000e+03 4.725708770751953125e+01 -8.499229431152343750e+00 4.358231544494628906e+00 1.313975811004638672e+01 5.249396800994873047e+00 -1.744009256362915039e+00
4.119000000000000000e+03 4.731722640991210938e+01 -7.984681129455566406e+00 5.543474197387695312e+00 1.299282455444335938e+01 5.560889720916748047e+00 -1.817705035209655762e+00
4.120000000000000000e+03 4.727118682861328125e+01 -8.173862457275390625e+00 5.105899810791015625e+00 1.311162281036376953e+01 5.465256690979003906e+00 -1.793319225311279297e+00
4.121000000000000000e+03 4.608707046508789062e+01 -2.964128255844116211e+00 1.277407765388488770e+00 1.385711193084716797e+01 4.540355682373046875e+00 -8.476586639881134033e-02
4.122000000000000000e+03 4.627518844604492188e+01 -2.737618923187255859e+00 1.217759847640991211e+00 1.348381233215332031e+01 4.410471439361572266e+00 1.634683459997177124e-02
4.123000000000000000e+03 4.454896926879882812e+01 -2.289080381393432617e+00 5.076777935028076172e-01 1.180910873413085938e+01 3.695035934448242188e+00 -2.739422082901000977e+00
4.124000000000000000e+03 4.182979202270507812e+01 -1.886839985847473145e+00 1.673129558563232422e+00 5.433232307434082031e+00 2.131908655166625977e+00 -3.699246406555175781e+00
4.125000000000000000e+03 4.640965270996093750e+01 -9.994287490844726562e+00 1.251135110855102539e+00 1.367937278747558594e+01 4.479152202606201172e+00 -3.127664029598236084e-01
4.126000000000000000e+03 4.822166824340820312e+01 -3.999320030212402344e+00 3.908830642700195312e+00 1.185970973968505859e+01 4.730562210083007812e+00 1.559042572975158691e+00
4.127000000000000000e+03 4.089707946777343750e+01 -1.161169719696044922e+01 1.218657970428466797e+00 4.022627353668212891e+00 1.572385668754577637e+00 3.162559270858764648e+00
4.128000000000000000e+03 3.015977287292480469e+01 2.195884132385253906e+01 -5.371274426579475403e-02 2.218116998672485352e+00 6.493213176727294922e-01 -5.859881043434143066e-01
4.129000000000000000e+03 4.253128814697265625e+01 -1.090680885314941406e+01 1.113088488578796387e+00 6.972313404083251953e+00 2.425620555877685547e+00 4.066625595092773438e+00
4.130000000000000000e+03 4.521889495849609375e+01 -1.010978221893310547e+01 4.199834465980529785e-01 1.363257503509521484e+01 4.215767383575439453e+00 1.594482779502868652e+00
4.131000000000000000e+03 4.496207427978515625e+01 -2.853181838989257812e+00 6.612447500228881836e-01 1.343064403533935547e+01 4.227566719055175781e+00 -2.053421497344970703e+00
4.132000000000000000e+03 4.477700424194335938e+01 -2.586261272430419922e+00 5.624912381172180176e-01 1.272353649139404297e+01 3.985808372497558594e+00 -2.407396554946899414e+00
4.133000000000000000e+03 4.345406723022460938e+01 -2.123473882675170898e+00 9.705667495727539062e-01 9.320563316345214844e+00 3.087339162826538086e+00 -3.846480607986450195e+00
4.134000000000000000e+03 4.952837467193603516e+00 8.865616798400878906e+00 2.312081167474389076e-03 -1.286917831748723984e-04 6.550168036483228207e-04 -9.504393674433231354e-04
4.135000000000000000e+03 5.938718318939208984e+00 8.384073257446289062e+00 7.433133432641625404e-04 -1.700911554507911205e-03 -2.872794575523585081e-04 1.021510688588023186e-03
4.136000000000000000e+03 4.849466323852539062e+01 -7.486351966857910156e+00 5.612753868103027344e+00 1.110771465301513672e+01 5.016140460968017578e+00 -9.600728154182434082e-01
4.137000000000000000e+03 4.496513366699218750e+01 -3.280918359756469727e+00 9.195700287818908691e-01 1.440834140777587891e+01 4.598373413085937500e+00 -1.942852616310119629e+00
4.138000000000000000e+03 1.901276206970214844e+01 2.076500129699707031e+01 -9.050817787647247314e-02 5.357325077056884766e-02 -1.108047738671302795e-02 -8.764256536960601807e-02
4.139000000000000000e+03 4.649020385742187500e+01 -2.586079835891723633e+00 1.249987840652465820e+00 1.317245292663574219e+01 4.326732158660888672e+00 2.030603140592575073e-01
4.140000000000000000e+03 4.631446456909179688e+01 -2.346370697021484375e+00 9.830471873283386230e-01 1.288466072082519531e+01 4.160312175750732422e+00 -1.406208574771881104e-01
4.141000000000000000e+03 4.870946884155273438e+01 -6.626779556274414062e+00 5.960038661956787109e+00 1.078546619415283203e+01 5.023651599884033203e+00 -2.034642249345779419e-01
4.142000000000000000e+03 4.821644210815429688e+01 -5.335887432098388672e+00 5.834027767181396484e+00 1.147844219207763672e+01 5.193740844726562500e+00 1.112106800079345703e+00
4.143000000000000000e+03 4.839646911621093750e+01 -5.583781719207763672e+00 5.753492832183837891e+00 1.115266418457031250e+01 5.071846961975097656e+00 7.867741584777832031e-01
4.144000000000000000e+03 4.531150436401367188e+01 -1.069525051116943359e+01 1.908536106348037720e-01 1.278706455230712891e+01 3.893375635147094727e+00 1.653961777687072754e+00
4.145000000000000000e+03 3.991150283813476562e+01 -1.136588573455810547e+01 1.217700958251953125e+00 2.700026750564575195e+00 1.175318360328674316e+00 2.575998306274414062e+00
4.146000000000000000e+03 4.220918655395507812e+01 -1.283237266540527344e+01 5.597078204154968262e-01 6.406777381896972656e+00 2.089945554733276367e+00 3.314055681228637695e+00
4.147000000000000000e+03 4.069830703735351562e+01 -1.790413022041320801e+00 1.820224165916442871e+00 3.535443305969238281e+00 1.606700181961059570e+00 -3.030856132507324219e+00
4.148000000000000000e+03 4.054265594482421875e+01 -9.675203561782836914e-01 1.560717225074768066e+00 3.753460645675659180e+00 1.594253420829772949e+00 -2.908277034759521484e+00
4.149000000000000000e+03 4.056052780151367188e+01 -1.392377018928527832e+00 1.657313704490661621e+00 3.531020641326904297e+00 1.556500315666198730e+00 -2.886191129684448242e+00
4.150000000000000000e+03 4.677315139770507812e+01 -2.373194932937622070e+00 1.240400314331054688e+00 1.278723239898681641e+01 4.208289623260498047e+00 3.150372803211212158e-01
4.151000000000000000e+03 4.652089691162109375e+01 -2.110557794570922852e+00 9.529529213905334473e-01 1.265861415863037109e+01 4.083470344543457031e+00 -2.991602011024951935e-02
4.152000000000000000e+03 4.910503768920898438e+01 -8.355372428894042969e+00 4.396987438201904297e+00 1.087092781066894531e+01 4.580374717712402344e+00 -1.287040233612060547e+00
4.153000000000000000e+03 2.688595962524414062e+01 6.500854969024658203e+00 1.692269891500473022e-01 5.126327276229858398e-01 2.045579105615615845e-01 -4.072755947709083557e-02
4.154000000000000000e+03 1.840280914306640625e+01 2.190545272827148438e+01 -2.242618985474109650e-02 5.443087592720985413e-02 9.601405821740627289e-03 -5.343431979417800903e-02
4.155000000000000000e+03 3.986345672607421875e+01 -1.886894798278808594e+01 1.781770437955856323e-01 4.612477779388427734e+00 1.437196373939514160e+00 1.884871482849121094e+00
4.156000000000000000e+03 3.911550521850585938e+01 -1.974486732482910156e+01 2.212125360965728760e-01 4.241971969604492188e+00 1.338955283164978027e+00 1.741800069808959961e+00
4.157000000000000000e+03 4.845880508422851562e+01 -5.880865097045898438e+00 5.957465171813964844e+00 1.105563163757324219e+01 5.103929042816162109e+00 5.641738176345825195e-01
4.158000000000000000e+03 2.881970596313476562e+01 1.242777442932128906e+01 5.080360174179077148e-02 1.443825364112854004e+00 4.483886957168579102e-01 -4.888427853584289551e-01
4.159000000000000000e+03 4.753010940551757812e+01 -3.417754888534545898e+00 2.891249418258666992e+00 1.272602653503417969e+01 4.685182571411132812e+00 1.389703035354614258e+00
4.160000000000000000e+03 4.797925186157226562e+01 -9.499367713928222656e+00 2.933880090713500977e+00 1.219211483001708984e+01 4.537798404693603516e+00 -1.469805240631103516e+00
4.161000000000000000e+03 2.728499984741210938e+01 4.175553798675537109e+00 2.167068868875503540e-01 3.775048851966857910e-01 1.782635301351547241e-01 8.947865664958953857e-02
4.162000000000000000e+03 2.810198593139648438e+01 4.184044361114501953e+00 2.805398404598236084e-01 4.718251824378967285e-01 2.257094979286193848e-01 1.687940768897533417e-02
4.163000000000000000e+03 4.315782165527343750e+01 -1.541304945945739746e+00 9.167325496673583984e-01 8.394945144653320312e+00 2.793503284454345703e+00 -3.678355932235717773e+00
4.164000000000000000e+03 4.929520416259765625e+01 -5.333296298980712891e+00 5.077412128448486328e+00 1.050178718566894531e+01 4.673759937286376953e+00 8.238490819931030273e-01
4.165000000000000000e+03 4.459958267211914062e+01 -1.153627157211303711e+00 2.465592026710510254e-01 1.055389213562011719e+01 3.240135431289672852e+00 -2.462560176849365234e+00
4.166000000000000000e+03 4.538622665405273438e+01 -2.211937665939331055e+00 4.866723418235778809e-01 1.267718696594238281e+01 3.949157953262329102e+00 -1.488659381866455078e+00
4.167000000000000000e+03 4.516354751586914062e+01 -1.139835929870605469e+01 -2.565420791506767273e-02 1.162671089172363281e+01 3.480316877365112305e+00 1.954153299331665039e+00
4.168000000000000000e+03 4.541723632812500000e+01 -1.125368595123291016e+01 3.430227562785148621e-02 1.203070449829101562e+01 3.619502067565917969e+00 1.572372436523437500e+00
4.169000000000000000e+03 3.969030761718750000e+01 -1.240739440917968750e+01 1.060240030288696289e+00 3.071998596191406250e+00 1.239671587944030762e+00 2.545970916748046875e+00
4.170000000000000000e+03 2.859226989746093750e+01 8.270774841308593750e+00 2.276305556297302246e-01 1.023046374320983887e+00 3.752030730247497559e-01 -3.115143179893493652e-01
4.171000000000000000e+03 3.275507354736328125e+01 1.472998905181884766e+01 6.308529525995254517e-03 2.525439977645874023e+00 7.595245242118835449e-01 -7.745780348777770996e-01
4.172000000000000000e+03 3.094496154785156250e+01 1.322838497161865234e+01 6.942564249038696289e-02 1.993572473526000977e+00 6.188994050025939941e-01 -6.856496334075927734e-01
4.173000000000000000e+03 7.014141845703125000e+01 -2.280976486206054688e+01 -4.060126841068267822e-02 7.603282928466796875e+00 2.268804550170898438e+00 -6.622899174690246582e-01
4.174000000000000000e+03 4.563104629516601562e+01 -1.146522903442382812e+01 -6.609268952161073685e-03 1.198382663726806641e+01 3.593165159225463867e+00 1.388445258140563965e+00
4.175000000000000000e+03 7.320326995849609375e+01 2.261849021911621094e+01 -8.709069341421127319e-02 8.261505126953125000e+00 2.452324390411376953e+00 4.230856895446777344e-01
4.176000000000000000e+03 4.475189590454101562e+01 -1.209227657318115234e+01 -1.023317426443099976e-01 1.047301197052001953e+01 3.111203908920288086e+00 2.291008472442626953e+00
4.177000000000000000e+03 2.848601722717285156e+01 7.069176673889160156e+00 2.327192276716232300e-01 8.346074819564819336e-01 3.201979994773864746e-01 -2.084047645330429077e-01
4.178000000000000000e+03 4.040351867675781250e+01 -1.808391189575195312e+01 1.621564924716949463e-01 4.890696525573730469e+00 1.515855908393859863e+00 2.008133649826049805e+00
4.179000000000000000e+03 6.911927032470703125e+01 -2.227633476257324219e+01 -3.275563195347785950e-02 7.629673957824707031e+00 2.279075384140014648e+00 -6.965594291687011719e-01
4.180000000000000000e+03 4.654623031616210938e+01 -1.625762224197387695e+00 6.618403196334838867e-01 1.207969188690185547e+01 3.822459697723388672e+00 -2.628208696842193604e-01
4.181000000000000000e+03 4.626800918579101562e+01 -1.864767551422119141e+00 6.503918766975402832e-01 1.238457298278808594e+01 3.910489320755004883e+00 -4.974259436130523682e-01
4.182000000000000000e+03 4.050899124145507812e+01 -5.432956218719482422e-01 1.440061092376708984e+00 4.005614280700683594e+00 1.633702516555786133e+00 -2.877143383026123047e+00
4.183000000000000000e+03 4.666965103149414062e+01 -1.082757949829101562e+01 7.721856832504272461e-01 1.266730213165283203e+01 4.031846523284912109e+00 -4.198551550507545471e-02
4.184000000000000000e+03 4.639807510375976562e+01 -1.282512545585632324e+00 4.394335448741912842e-01 1.175991916656494141e+01 3.659805774688720703e+00 -5.365558862686157227e-01
4.185000000000000000e+03 4.590546035766601562e+01 -1.156215953826904297e+01 3.004330769181251526e-02 1.201516914367675781e+01 3.613563776016235352e+00 1.057570695877075195e+00
4.186000000000000000e+03 3.605560684204101562e+01 1.551029014587402344e+01 -1.122697517275810242e-01 3.520248413085937500e+00 1.022393584251403809e+00 -9.017720222473144531e-01
4.187000000000000000e+03 3.000241088867187500e+01 1.625637817382812500e+01 -2.022326737642288208e-02 1.964094161987304688e+00 5.831612348556518555e-01 -6.416264176368713379e-01
4.188000000000000000e+03 4.246165084838867188e+01 -1.346539211273193359e+01 3.338465690612792969e-01 6.814335346221923828e+00 2.144454717636108398e+00 3.076904535293579102e+00
4.189000000000000000e+03 4.116171646118164062e+01 -1.845945930480957031e+01 2.135108783841133118e-02 5.382558822631835938e+00 1.621173024177551270e+00 1.972017765045166016e+00
4.190000000000000000e+03 3.943650817871093750e+01 -1.277410602569580078e+01 1.008366107940673828e+00 2.999981403350830078e+00 1.202504277229309082e+00 2.437753677368164062e+00
4.191000000000000000e+03 3.216807556152343750e+01 -1.743683433532714844e+01 4.616347849369049072e-01 1.209266781806945801e+00 5.012704730033874512e-01 6.361918449401855469e-01
4.192000000000000000e+03 3.708660888671875000e+01 1.491697216033935547e+01 -1.474737673997879028e-01 3.830304622650146484e+00 1.104849219322204590e+00 -9.582351446151733398e-01
4.193000000000000000e+03 4.634196090698242188e+01 -1.054432392120361328e+01 7.671469449996948242e-01 1.308850288391113281e+01 4.156694889068603516e+00 1.396329104900360107e-01
4.194000000000000000e+03 2.299686813354492188e+01 -1.622591972351074219e+01 -2.741681933403015137e-01 2.257090508937835693e-01 -1.453773956745862961e-02 -3.676084280014038086e-01
4.195000000000000000e+03 4.560393524169921875e+01 -1.106284999847412109e+01 1.492662727832794189e-01 1.251326847076416016e+01 3.798760414123535156e+00 1.241286873817443848e+00
4.196000000000000000e+03 3.954278564453125000e+01 -1.672978210449218750e+01 4.265114665031433105e-01 4.176141738891601562e+00 1.380795955657958984e+00 2.127001762390136719e+00
4.197000000000000000e+03 3.880039596557617188e+01 -3.054955899715423584e-01 1.385022640228271484e+00 2.419544219970703125e+00 1.141370058059692383e+00 -2.050514936447143555e+00
4.198000000000000000e+03 3.972592163085937500e+01 -1.553519666194915771e-01 1.369194865226745605e+00 3.333591461181640625e+00 1.410835862159729004e+00 -2.466159343719482422e+00
4.199000000000000000e+03 2.760180854797363281e+01 2.481262087821960449e-01 8.117500692605972290e-02 1.253177970647811890e-01 6.194784119725227356e-02 3.142850697040557861e-01
4.200000000000000000e+03 3.546189117431640625e+01 -1.546273899078369141e+01 6.359379887580871582e-01 1.658043265342712402e+00 6.881943941116333008e-01 1.212194681167602539e+00
4.201000000000000000e+03 4.626881027221679688e+01 -1.189270114898681641e+01 4.770505055785179138e-02 1.165910339355468750e+01 3.512042522430419922e+00 7.793464064598083496e-01
4.202000000000000000e+03 4.733477020263671875e+01 -2.029105901718139648e+00 1.280938982963562012e+00 1.215246677398681641e+01 4.030021667480468750e+00 5.441622734069824219e-01
4.203000000000000000e+03 5.084613037109375000e+01 -5.147961616516113281e+00 4.101536750793457031e+00 9.620315551757812500e+00 4.116555690765380859e+00 6.920585036277770996e-01
4.204000000000000000e+03 4.373053359985351562e+01 1.396786607801914215e-02 3.145435750484466553e-01 8.612943649291992188e+00 2.678246259689331055e+00 -2.739922761917114258e+00
4.205000000000000000e+03 4.148024368286132812e+01 -1.657151603698730469e+01 1.337863951921463013e-01 5.648527145385742188e+00 1.734694123268127441e+00 2.314453125000000000e+00
4.206000000000000000e+03 2.401490211486816406e+01 -1.287343788146972656e+01 -5.443212985992431641e-01 1.375932544469833374e-01 -1.220184117555618286e-01 -4.752013683319091797e-01
4.207000000000000000e+03 3.848594665527343750e+01 7.485120743513107300e-02 1.316191434860229492e+00 2.376208066940307617e+00 1.107719779014587402e+00 -1.936393618583679199e+00
4.208000000000000000e+03 3.679528045654296875e+01 -1.341106414794921875e+00 9.936037659645080566e-01 9.905435442924499512e-01 5.952441692352294922e-01 -9.864650368690490723e-01
4.209000000000000000e+03 2.446070671081542969e+01 -1.627613449096679688e+01 -1.735473573207855225e-01 2.901240885257720947e-01 3.497301787137985229e-02 -2.835382819175720215e-01
4.210000000000000000e+03 2.523154640197753906e+01 -1.648541450500488281e+01 -1.029986143112182617e-01 3.460935354232788086e-01 7.292848080396652222e-02 -2.312135994434356689e-01
4.211000000000000000e+03 3.806181716918945312e+01 -1.407035827636718750e+01 8.296673893928527832e-01 2.464261054992675781e+00 9.881784915924072266e-01 1.926164150238037109e+00
4.212000000000000000e+03 4.543607711791992188e+01 -2.556857347488403320e+00 6.831659674644470215e-01 1.319490146636962891e+01 4.163420200347900391e+00 -1.350952267646789551e+00
4.213000000000000000e+03 4.620932769775390625e+01 -1.369366645812988281e+01 -3.143874108791351318e-01 1.027434062957763672e+01 2.987985849380493164e+00 1.101758241653442383e+00
4.214000000000000000e+03 4.006775283813476562e+01 1.949909627437591553e-01 1.279280424118041992e+00 3.818093061447143555e+00 1.529212117195129395e+00 -2.605720043182373047e+00
4.215000000000000000e+03 3.973511505126953125e+01 2.217135280370712280e-01 1.301725745201110840e+00 3.493482351303100586e+00 1.438562393188476562e+00 -2.474608421325683594e+00
4.216000000000000000e+03 3.938157272338867188e+01 4.800682067871093750e-01 1.263076901435852051e+00 3.292036533355712891e+00 1.366533994674682617e+00 -2.339980840682983398e+00
4.217000000000000000e+03 2.697875785827636719e+01 -1.467276477813720703e+01 -1.806021928787231445e-01 2.888431251049041748e-01 3.247227892279624939e-02 -2.401645332574844360e-01
4.218000000000000000e+03 4.230459213256835938e+01 -1.511945724487304688e+01 1.344516128301620483e-01 6.417594432830810547e+00 1.965613842010498047e+00 2.623466014862060547e+00
4.219000000000000000e+03 3.970457839965820312e+01 -1.371075916290283203e+01 8.429097533226013184e-01 3.574299573898315430e+00 1.325162768363952637e+00 2.511008262634277344e+00
4.220000000000000000e+03 3.990996170043945312e+01 -1.332352542877197266e+01 8.824120163917541504e-01 3.654248476028442383e+00 1.360998153686523438e+00 2.576098203659057617e+00
4.221000000000000000e+03 4.107998657226562500e+01 -1.486242389678955078e+01 4.489981234073638916e-01 5.180318832397460938e+00 1.688795208930969238e+00 2.652270793914794922e+00
4.222000000000000000e+03 4.636415100097656250e+01 -1.332398414611816406e+01 -2.865034341812133789e-01 1.053515148162841797e+01 3.074594259262084961e+00 1.008133888244628906e+00
4.223000000000000000e+03 4.629721450805664062e+01 -1.541502571105957031e+01 -5.001823902130126953e-01 9.292334556579589844e+00 2.637645721435546875e+00 1.115360260009765625e+00
4.224000000000000000e+03 4.620472717285156250e+01 -1.611908340454101562e+01 -5.141894221305847168e-01 8.903264999389648438e+00 2.516722679138183594e+00 1.160013914108276367e+00
4.225000000000000000e+03 3.214732360839843750e+01 8.069549560546875000e+00 3.722540736198425293e-01 1.780912876129150391e+00 6.459500789642333984e-01 -7.174834609031677246e-01
4.226000000000000000e+03 3.319639205932617188e+01 8.980835914611816406e+00 3.312099575996398926e-01 2.171767234802246094e+00 7.508931756019592285e-01 -8.633852601051330566e-01
4.227000000000000000e+03 4.626412963867187500e+01 -1.295706272125244141e+01 -2.126446962356567383e-01 1.076917362213134766e+01 3.166958808898925781e+00 1.026940226554870605e+00
4.228000000000000000e+03 2.815745925903320312e+01 -5.851854681968688965e-01 1.560829859226942062e-02 1.172321885824203491e-01 3.985214605927467346e-02 3.194056153297424316e-01
4.229000000000000000e+03 2.848093414306640625e+01 9.681011736392974854e-02 1.120322644710540771e-01 1.764323711395263672e-01 8.653939515352249146e-02 2.656276524066925049e-01
4.230000000000000000e+03 3.966906356811523438e+01 8.329929113388061523e-01 1.162852764129638672e+00 3.675391674041748047e+00 1.451473355293273926e+00 -2.407751560211181641e+00
4.231000000000000000e+03 4.661375427246093750e+01 -1.226773738861083984e+01 3.492107987403869629e-02 1.140507030487060547e+01 3.431997299194335938e+00 6.057392358779907227e-01
4.232000000000000000e+03 2.871043395996093750e+01 -4.607972800731658936e-01 5.726110562682151794e-02 1.541963815689086914e-01 6.343724578619003296e-02 2.834154069423675537e-01
4.233000000000000000e+03 3.642796707153320312e+01 -1.549995040893554688e+01 6.830178499221801758e-01 2.095491409301757812e+00 8.335527777671813965e-01 1.481635570526123047e+00
4.234000000000000000e+03 3.140778732299804688e+01 8.415428161621093750e+00 3.226858377456665039e-01 1.658478379249572754e+00 5.943492650985717773e-01 -6.246817111968994141e-01
4.235000000000000000e+03 4.377478790283203125e+01 7.432456016540527344e-01 1.908928602933883667e-01 8.288534164428710938e+00 2.543828248977661133e+00 -2.510487318038940430e+00
4.236000000000000000e+03 7.211712646484375000e+01 -1.484945201873779297e+01 1.862222254276275635e-01 7.172586917877197266e+00 2.207642793655395508e+00 -4.719341397285461426e-01
4.237000000000000000e+03 2.998166275024414062e+01 9.380596876144409180e-01 3.144572377204895020e-01 3.827426433563232422e-01 2.091599702835083008e-01 6.314730644226074219e-02
4.238000000000000000e+03 4.898085021972656250e+01 -6.012617945671081543e-01 9.686647653579711914e-01 1.069347572326660156e+01 3.498642206192016602e+00 7.807204723358154297e-01
4.239000000000000000e+03 3.861832046508789062e+01 1.398701071739196777e+00 1.119805097579956055e+00 2.979474544525146484e+00 1.229783892631530762e+00 -2.017377853393554688e+00
4.240000000000000000e+03 3.316654205322265625e+01 4.376024007797241211e-01 5.859278440475463867e-01 6.889889836311340332e-01 3.824750483036041260e-01 -3.354029953479766846e-01
4.241000000000000000e+03 4.395438385009765625e+01 -1.569457817077636719e+01 -2.931663393974304199e-01 7.751315116882324219e+00 2.237444639205932617e+00 2.127969026565551758e+00
4.242000000000000000e+03 4.127083587646484375e+01 -1.546772670745849609e+01 3.160677254199981689e-01 5.389281272888183594e+00 1.711604595184326172e+00 2.525297403335571289e+00
4.243000000000000000e+03 4.749907302856445312e+01 1.907018572092056274e-01 2.426653355360031128e-01 1.075643920898437500e+01 3.299731492996215820e+00 -8.865838497877120972e-02
4.244000000000000000e+03 4.693480300903320312e+01 1.884983777999877930e-01 7.413645833730697632e-02 1.075208759307861328e+01 3.247867107391357422e+00 -4.923402667045593262e-01
4.245000000000000000e+03 3.763709640502929688e+01 8.122456073760986328e-01 1.159268736839294434e+00 2.168823957443237305e+00 9.984277486801147461e-01 -1.648253440856933594e+00
4.246000000000000000e+03 6.802642059326171875e+01 -1.493668460845947266e+01 3.371839225292205811e-01 7.452187061309814453e+00 2.336811304092407227e+00 -6.122735738754272461e-01
4.247000000000000000e+03 3.051834106445312500e+01 1.016182899475097656e+00 3.499071896076202393e-01 4.378270208835601807e-01 2.363202571868896484e-01 4.370703827589750290e-03
4.248000000000000000e+03 5.197694396972656250e+01 2.344804853200912476e-01 1.103636503219604492e+00 9.487107276916503906e+00 3.177222967147827148e+00 1.074011087417602539e+00
4.249000000000000000e+03 6.905336761474609375e+01 -2.991190910339355469e+00 5.239362716674804688e-01 7.258392810821533203e+00 2.334698677062988281e+00 3.382991552352905273e-01
4.250000000000000000e+03 4.675169372558593750e+01 -1.452960872650146484e+01 -3.702106475830078125e-01 9.902099609375000000e+00 2.859566450119018555e+00 8.504860401153564453e-01
4.251000000000000000e+03 6.740797424316406250e+01 -1.201570129394531250e+01 5.625885128974914551e-01 7.399647712707519531e+00 2.388670921325683594e+00 -4.637211263179779053e-01
4.252000000000000000e+03 3.979354476928710938e+01 -1.482211971282958984e+01 6.634662747383117676e-01 3.994898080825805664e+00 1.397509336471557617e+00 2.409212112426757812e+00
4.253000000000000000e+03 4.757999420166015625e+01 6.185880303382873535e-01 1.190733239054679871e-01 1.046495151519775391e+01 3.175207376480102539e+00 -1.430480927228927612e-01
4.254000000000000000e+03 5.225418090820312500e+01 -1.226007461547851562e+01 1.380300045013427734e+00 9.485883712768554688e+00 3.259855031967163086e+00 -1.095870256423950195e+00
4.255000000000000000e+03 5.280904769897460938e+01 -9.222014427185058594e+00 2.765577077865600586e+00 9.027306556701660156e+00 3.537865161895751953e+00 -8.780093789100646973e-01
4.256000000000000000e+03 5.382049179077148438e+01 -8.616299629211425781e+00 2.754776239395141602e+00 8.690158843994140625e+00 3.433480262756347656e+00 -6.466518640518188477e-01
4.257000000000000000e+03 4.618984222412109375e+01 2.133221864700317383e+00 -2.502701580524444580e-01 9.350352287292480469e+00 2.730024576187133789e+00 -1.047441124916076660e+00
4.258000000000000000e+03 4.376541519165039062e+01 1.235402226448059082e+00 1.348637044429779053e-01 8.089209556579589844e+00 2.467221975326538086e+00 -2.383017539978027344e+00
4.259000000000000000e+03 4.849867248535156250e+01 2.004663944244384766e+00 -2.567951567471027374e-02 9.804236412048339844e+00 2.933567047119140625e+00 2.947650291025638580e-02
4.260000000000000000e+03 6.774830627441406250e+01 -6.081947803497314453e+00 6.751480698585510254e-01 7.295320987701416016e+00 2.391140699386596680e+00 7.865845412015914917e-02
4.261000000000000000e+03 6.751046752929687500e+01 -7.023685455322265625e+00 6.991998553276062012e-01 7.308864593505859375e+00 2.402419328689575195e+00 -3.605537815019488335e-03
4.262000000000000000e+03 3.661165237426757812e+01 4.967328548431396484e+00 6.632613539695739746e-01 2.811611413955688477e+00 1.042461872100830078e+00 -1.416325926780700684e+00
4.263000000000000000e+03 3.723450469970703125e+01 1.775052905082702637e+00 1.043089866638183594e+00 2.326993227005004883e+00 1.011024951934814453e+00 -1.598269820213317871e+00
4.264000000000000000e+03 4.816117095947265625e+01 1.640595197677612305e+00 2.004206180572509766e-02 1.001296043395996094e+01 3.009900808334350586e+00 -4.426543042063713074e-02
4.265000000000000000e+03 4.713152313232421875e+01 2.275232076644897461e+00 -2.348051965236663818e-01 9.572836875915527344e+00 2.801409482955932617e+00 -6.132335662841796875e-01
4.266000000000000000e+03 4.010468292236328125e+01 2.564958572387695312e+00 7.556850314140319824e-01 4.514350891113281250e+00 1.581010818481445312e+00 -2.292080163955688477e+00
4.267000000000000000e+03 4.779983901977539062e+01 1.406888127326965332e+00 7.584241684526205063e-04 1.009073066711425781e+01 3.027446746826171875e+00 -1.633173972368240356e-01
4.268000000000000000e+03 5.662479782104492188e+01 4.522611200809478760e-01 1.161743760108947754e+00 8.416407585144042969e+00 2.873445272445678711e+00 1.046714663505554199e+00
4.269000000000000000e+03 5.652171325683593750e+01 1.442574977874755859e+00 9.106703400611877441e-01 8.466308593750000000e+00 2.813093662261962891e+00 1.078420996665954590e+00
4.270000000000000000e+03 3.722983169555664062e+01 4.604539394378662109e+00 6.974189281463623047e-01 3.032319068908691406e+00 1.118921399116516113e+00 -1.557348012924194336e+00
4.271000000000000000e+03 4.060324859619140625e+01 3.367016077041625977e+00 5.314233899116516113e-01 4.940217018127441406e+00 1.641492009162902832e+00 -2.201240777969360352e+00
4.272000000000000000e+03 6.678961944580078125e+01 -5.899550437927246094e+00 7.721267342567443848e-01 7.346428871154785156e+00 2.435566663742065430e+00 1.040780842304229736e-01
4.273000000000000000e+03 6.015779876708984375e+01 -4.180382728576660156e+00 1.561591863632202148e+00 7.793619155883789062e+00 2.806563377380371094e+00 4.099298119544982910e-01
4.274000000000000000e+03 5.912316513061523438e+01 -2.272444963455200195e+00 1.487353086471557617e+00 7.966540336608886719e+00 2.836168050765991211e+00 7.234117984771728516e-01
4.275000000000000000e+03 6.309821319580078125e+01 -7.783059597015380859e+00 1.192204833030700684e+00 7.574537277221679688e+00 2.630022764205932617e+00 -1.427958011627197266e-01
4.276000000000000000e+03 6.068707275390625000e+01 -2.615255355834960938e+00 1.344667315483093262e+00 7.792818069458007812e+00 2.741245746612548828e+00 6.128547787666320801e-01
4.277000000000000000e+03 6.588542938232421875e+01 -5.710307598114013672e+00 8.793423771858215332e-01 7.406600475311279297e+00 2.485782861709594727e+00 1.348602026700973511e-01
4.278000000000000000e+03 6.585780334472656250e+01 -6.674811840057373047e+00 9.028289318084716797e-01 7.411987304687500000e+00 2.494444847106933594e+00 1.644309237599372864e-02
4.279000000000000000e+03 6.405181121826171875e+01 -6.833442687988281250e+00 1.081642031669616699e+00 7.504935264587402344e+00 2.575973272323608398e+00 1.696105930022895336e-03
4.280000000000000000e+03 1.488040065765380859e+01 1.046121835708618164e+00 -1.523975370218977332e-04 1.140345702879130840e-04 -1.150889056589221582e-05 4.740084841614589095e-05
4.281000000000000000e+03 1.433596038818359375e+01 8.109902739524841309e-01 -6.280530942603945732e-05 3.194034798070788383e-05 -9.259488251700531691e-06 1.529226574348285794e-04
4.282000000000000000e+03 1.339948463439941406e+01 9.943951964378356934e-01 2.291501441504806280e-04 -4.891238495474681258e-05 5.407132630352862179e-05 7.416756034217542037e-06
4.283000000000000000e+03 1.399857616424560547e+01 1.078236818313598633e+00 -3.036375273950397968e-04 -1.523708124295808375e-05 -9.566238441038876772e-05 -5.237180812400765717e-05
4.284000000000000000e+03 1.342517852783203125e+01 2.516243755817413330e-01 -6.666732224402949214e-05 7.274812378454953432e-05 1.824241280701244250e-06 1.030684325087349862e-05
4.285000000000000000e+03 1.503903388977050781e+01 3.840551078319549561e-01 -3.349772305227816105e-05 -2.907624002546072006e-05 -1.877218892332166433e-05 -2.428676998533774167e-05
4.286000000000000000e+03 1.424006271362304688e+01 2.423980534076690674e-01 3.602150900405831635e-05 -1.089505440177163109e-05 7.537936198787065223e-06 -1.879611045296769589e-05
4.287000000000000000e+03 1.447602939605712891e+01 1.142013788223266602e+00 2.645516069605946541e-04 -8.669069757161196321e-06 7.676476525375619531e-05 5.975143358227796853e-05
4.288000000000000000e+03 1.113503360748291016e+01 3.384475409984588623e-01 -9.192721336148679256e-06 -9.196039900416508317e-05 -3.034593646589200944e-05 3.201000436092726886e-05
4.289000000000000000e+03 1.115649890899658203e+01 1.078244447708129883e+00 -2.741494099609553814e-04 -1.505479394836584106e-05 -8.676126162754371762e-05 -1.768459915183484554e-04
4.290000000000000000e+03 1.038435840606689453e+01 3.729175329208374023e-01 -1.685682946117594838e-04 2.651347858773078769e-05 -4.261644426151178777e-05 -7.758852007100358605e-05
4.291000000000000000e+03 1.188578510284423828e+01 3.038018345832824707e-01 -1.015977686620317400e-04 1.265262108063325286e-04 7.478534371330169961e-06 -3.997841486125253141e-05
4.292000000000000000e+03 1.263660717010498047e+01 2.689834535121917725e-01 4.903830995317548513e-05 -1.276824914384633303e-04 -2.359325480938423425e-05 -2.194914031861117110e-06
4.293000000000000000e+03 1.266393947601318359e+01 1.008509635925292969e+00 -2.060484694084152579e-04 -5.742527264374075457e-06 -6.353729986585676670e-05 -8.686447836225852370e-05
4.294000000000000000e+03 1.040289020538330078e+01 1.112849831581115723e+00 1.571084285387769341e-04 1.042098156176507473e-04 7.839546742616221309e-05 1.877053728094324470e-04
4.295000000000000000e+03 1.191018390655517578e+01 1.043463349342346191e+00 1.572442270116880536e-04 2.193769205405260436e-06 4.783139956998638809e-05 4.480358620639890432e-05
4.296000000000000000e+03 9.630480766296386719e+00 3.871794641017913818e-01 -5.145768591319210827e-05 1.012080028885975480e-04 1.492509545641951263e-05 9.678697824710980058e-05
4.297000000000000000e+03 8.873666763305664062e+00 3.829238712787628174e-01 -1.931042061187326908e-04 -2.511771454010158777e-04 -1.332843967247754335e-04 -1.262974401470273733e-04
4.298000000000000000e+03 9.660673141479492188e+00 1.127179503440856934e+00 -2.602529712021350861e-04 -1.949184952536597848e-04 -1.365514472126960754e-04 -2.816884370986372232e-04
4.299000000000000000e+03 8.116720199584960938e+00 3.805542886257171631e-01 -5.533559306059032679e-05 4.049275012221187353e-04 1.048775739036500454e-04 1.425474474672228098e-04
4.300000000000000000e+03 7.360193252563476562e+00 3.795430362224578857e-01 -2.128017804352566600e-04 -5.406314157880842686e-04 -2.260299515910446644e-04 -1.659572153585031629e-04
4.301000000000000000e+03 5.847065925598144531e+00 3.768712580204010010e-01 -2.111109934048727155e-04 -6.944505730643868446e-04 -2.716684830375015736e-04 -1.815047144191339612e-04
4.302000000000000000e+03 5.091114044189453125e+00 3.758820295333862305e-01 -3.730311800609342754e-05 6.918163853697478771e-04 1.963539689313620329e-04 1.819825411075726151e-04
4.303000000000000000e+03 3.579006433486938477e+00 3.681437373161315918e-01 -7.814585842425003648e-06 5.350881256163120270e-04 1.581820542924106121e-04 1.468896080041304231e-04
4.304000000000000000e+03 2.823871612548828125e+00 3.614119887351989746e-01 -1.421844644937664270e-04 -4.213673819322139025e-04 -1.690655481070280075e-04 -1.053593441611155868e-04
4.305000000000000000e+03 2.070111274719238281e+00 3.578882515430450439e-01 2.694623253773897886e-05 3.065146738663315773e-04 1.000382762867957354e-04 9.791890624910593033e-05
4.306000000000000000e+03 2.362852334976196289e+00 1.097888231277465820e+00 -1.252529618795961142e-04 -3.246898413635790348e-04 -1.349828380625694990e-04 5.795904598926426843e-06
4.307000000000000000e+03 1.328713655471801758e+00 3.659794926643371582e-01 -3.840026693069376051e-05 -1.850571570685133338e-04 -6.703723192913457751e-05 -2.290107295266352594e-05
4.308000000000000000e+03 1.647709608078002930e+00 1.105979442596435547e+00 2.556146500864997506e-05 2.870181342586874962e-04 9.377388050779700279e-05 3.477413338259793818e-05
4.309000000000000000e+03 6.516475677490234375e-01 3.939257264137268066e-01 -1.542010249977465719e-05 3.472425305517390370e-05 5.791244802821893245e-06 -3.458440551185049117e-05
4.310000000000000000e+03 3.489431142807006836e-01 9.570703506469726562e-01 1.150459283962845802e-04 7.756710692774504423e-05 5.778391277999617159e-05 -1.591055115568451583e-05
4.311000000000000000e+03 3.090358018875122070e+00 1.101411938667297363e+00 6.068822403904050589e-05 4.041138745378702879e-04 1.394406281178817153e-04 6.239901995286345482e-05
4.312000000000000000e+03 3.819237709045410156e+00 1.108143687248229980e+00 -1.555190392537042499e-04 -4.721465229522436857e-04 -1.882996730273589492e-04 -3.398143962840549648e-05
4.313000000000000000e+03 4.335169315338134766e+00 3.733847737312316895e-01 -1.838926255004480481e-04 -6.299205124378204346e-04 -2.441439428366720676e-04 -1.523780374554917216e-04
4.314000000000000000e+03 6.008533000946044922e+00 1.116871237754821777e+00 7.036813622107729316e-05 5.565591272898018360e-04 1.880781783256679773e-04 2.182186144636943936e-04
4.315000000000000000e+03 6.603851795196533203e+00 3.786112964153289795e-01 -4.936454206472262740e-05 6.436353432945907116e-04 1.782812323654070497e-04 1.809913374017924070e-04
4.316000000000000000e+03 8.930113792419433594e+00 1.122923851013183594e+00 1.192542113130912185e-04 2.942107093986123800e-04 1.240394776687026024e-04 2.804645628202706575e-04
4.317000000000000000e+03 8.199422836303710938e+00 1.120554327964782715e+00 -2.698034222703427076e-04 -3.775931836571544409e-04 -1.942189701367169619e-04 -3.028725041076540947e-04
4.318000000000000000e+03 7.469150543212890625e+00 1.119543075561523438e+00 1.051632425514981151e-04 4.642420972231775522e-04 1.708216004772111773e-04 2.862097171600908041e-04
4.319000000000000000e+03 6.739063739776611328e+00 1.118611335754394531e+00 -2.425347629468888044e-04 -5.156286642886698246e-04 -2.274490252602845430e-04 -2.537182590458542109e-04
4.320000000000000000e+03 5.278835773468017578e+00 1.115882039070129395e+00 -1.903635566122829914e-04 -5.537332617677748203e-04 -2.232290571555495262e-04 -1.439758489141240716e-04
4.321000000000000000e+03 4.549146175384521484e+00 1.113384723663330078e+00 3.943139381590299308e-05 5.385028780438005924e-04 1.733802928356453776e-04 1.188330134027637541e-04
4.322000000000000000e+03 9.968983530998229980e-01 1.133925795555114746e+00 -3.435162216192111373e-05 -3.107784432359039783e-04 -1.035390232573263347e-04 1.017665490508079529e-04
4.323000000000000000e+03 7.947246074676513672e+00 -3.790149092674255371e-01 -1.309866493102163076e-04 6.998192111495882273e-05 -1.830141809477936476e-05 5.953674553893506527e-05
4.324000000000000000e+03 8.798082351684570312e+00 -1.121163964271545410e+00 -6.892520468682050705e-05 4.805806747754104435e-05 -6.260141617531189695e-06 1.812389818951487541e-04
4.325000000000000000e+03 9.582462310791015625e+00 -3.862577378749847412e-01 -8.074724610196426511e-05 1.362034381600096822e-04 1.663685725361574441e-05 5.737653191317804158e-05
4.326000000000000000e+03 7.128131389617919922e+00 -3.778152763843536377e-01 -1.623747957637533545e-04 -3.231824302929453552e-05 -5.840791345690377057e-05 -4.117973367101512849e-05
4.327000000000000000e+03 6.302709579467773438e+00 -3.771458566188812256e-01 -1.562183460919186473e-04 1.221468210133025423e-05 -4.320110019762068987e-05 4.506915138335898519e-05
4.328000000000000000e+03 5.439445972442626953e+00 -3.834656774997711182e-01 -1.469715352868661284e-04 1.633319698157720268e-05 -3.919150185538455844e-05 -6.251171726034954190e-05
4.329000000000000000e+03 4.549984931945800781e+00 -3.402172923088073730e-01 -7.726547482889145613e-05 -3.645051037892699242e-05 -3.411479337955825031e-05 2.726520870055537671e-05
4.330000000000000000e+03 4.365737915039062500e+00 -8.721476197242736816e-01 -4.399615572765469551e-04 -4.035418044168181950e-07 -1.321095332968980074e-04 -1.982753165066242218e-04
4.331000000000000000e+03 2.784216165542602539e+00 -7.810403704643249512e-01 -1.216110977111384273e-04 1.236827083630487323e-04 6.214841050677932799e-07 -2.710636763367801905e-04
4.332000000000000000e+03 1.180924773216247559e+00 -3.613742887973785400e-01 1.026622776407748461e-04 -8.307507232530042529e-05 5.876161594642326236e-06 3.051191197300795466e-05
4.333000000000000000e+03 4.100910127162933350e-01 -5.529776215553283691e-01 -1.881201455944392364e-06 3.331074185553006828e-05 9.428862540517002344e-06 8.131385584420058876e-06
4.334000000000000000e+03 7.475960254669189453e-01 -1.101374268531799316e+00 -4.319616418797522783e-04 -4.229061971727787750e-07 -1.297153648920357227e-04 -1.196663215523585677e-04
4.335000000000000000e+03 9.582078933715820312e+00 -1.126257777214050293e+00 -6.600066262762993574e-05 -7.215283403638750315e-05 -4.144604827160947025e-05 -9.900728036882355809e-05
4.336000000000000000e+03 8.013586997985839844e+00 -1.119014978408813477e+00 -1.118759828386828303e-04 -7.722243026364594698e-06 -3.587946775951422751e-05 -1.270561770070344210e-04
4.337000000000000000e+03 7.227835178375244141e+00 -1.117815256118774414e+00 -9.388572652824223042e-05 -1.420436456101015210e-05 -3.242702587158419192e-05 1.693415833869948983e-04
4.338000000000000000e+03 6.435775756835937500e+00 -1.117145895957946777e+00 -1.021289353957399726e-04 8.329162665177136660e-05 -5.651193077937932685e-06 -1.576840586494654417e-04
4.339000000000000000e+03 5.605874538421630859e+00 -1.123465657234191895e+00 -2.244064526166766882e-04 -9.592414426151663065e-05 -9.609917469788342714e-05 1.828758395276963711e-04
4.340000000000000000e+03 4.870606899261474609e+00 -1.221678614616394043e+00 1.893959415610879660e-04 2.222797193098813295e-04 1.235027011716738343e-04 -1.747798960423097014e-04
4.341000000000000000e+03 4.215381145477294922e+00 -1.291930317878723145e+00 2.106517604261171073e-05 -2.177421702072024345e-04 -5.900309770368039608e-05 2.177686546929180622e-04
4.342000000000000000e+03 3.483533143997192383e+00 -1.264367222785949707e+00 -2.311242424184456468e-04 1.294414832955226302e-04 -3.050482700928114355e-05 -3.887305792886763811e-04
4.343000000000000000e+03 2.720056772232055664e+00 -1.259521603584289551e+00 4.703343074652366340e-05 -4.676236642353615025e-07 1.396974221279378980e-05 2.897001686505973339e-04
4.344000000000000000e+03 1.356012225151062012e+00 -1.203287243843078613e+00 5.025068530812859535e-04 8.533510845154523849e-05 1.763525797287002206e-04 7.058803748805075884e-05
4.345000000000000000e+03 1.973117947578430176e+00 -8.476541042327880859e-01 -2.460066170897334814e-04 -1.246847677975893021e-04 -1.112074096454307437e-04 2.481050323694944382e-04
4.346000000000000000e+03 8.765102386474609375e+00 -3.811639845371246338e-01 -1.182480264105834067e-04 -1.062007868313230574e-04 -6.733464397257193923e-05 -3.788023241213522851e-05
4.347000000000000000e+03 3.694828748703002930e+00 -2.827752828598022461e-01 -1.172573975054547191e-04 2.007946022786200047e-05 -2.915338154707569629e-05 -4.234016159898601472e-05
4.348000000000000000e+03 2.863922595977783203e+00 -2.815187871456146240e-01 -3.527770968503318727e-05 -2.491501163603970781e-06 -1.133076330006588250e-05 3.413895683479495347e-05
4.349000000000000000e+03 1.994147539138793945e+00 -3.323310017585754395e-01 -3.669112993520684540e-05 9.605792001821100712e-06 -8.125601198116783053e-06 -8.540475391782820225e-05
4.350000000000000000e+03 1.978801369667053223e+00 -1.275323033332824707e+00 -1.651647617109119892e-04 -1.700834254734218121e-04 -1.005744561553001404e-04 -2.913505886681377888e-04
4.351000000000000000e+03 3.578665971755981445e+00 -7.871425151824951172e-01 5.755292022513458505e-06 -2.350184877286665142e-05 -5.323966888681752607e-06 1.814225543057546020e-04
4.352000000000000000e+03 1.511178874969482422e+01 -1.151870131492614746e+00 -3.757776721613481641e-05 -4.350172821432352066e-05 -2.432385008432902396e-05 -3.131105768261477351e-05
4.353000000000000000e+03 1.328532791137695312e+01 -1.267471551895141602e+00 3.367668978171423078e-05 4.165572681813500822e-05 2.259972461615689099e-05 6.680630031041800976e-05
4.354000000000000000e+03 1.480503654479980469e+01 -5.744030475616455078e-01 4.466421887627802789e-05 -7.388977792288642377e-06 1.118257205234840512e-05 1.456838253943715245e-05
4.355000000000000000e+03 1.453040313720703125e+01 -1.313965797424316406e+00 -6.068537186365574598e-05 6.630827556364238262e-05 1.686870291450759396e-06 4.474315574043430388e-05
4.356000000000000000e+03 1.393833351135253906e+01 -1.278923630714416504e+00 -7.611871296830940992e-06 -2.883381421270314604e-05 -1.093370610760757700e-05 -6.046710041118785739e-05
4.357000000000000000e+03 1.336329460144042969e+01 -5.279909372329711914e-01 -9.788394891074858606e-06 -1.003737197606824338e-04 -3.304863639641553164e-05 -3.402882794034667313e-05
4.358000000000000000e+03 1.411463356018066406e+01 -5.394020080566406250e-01 1.095260449801571667e-05 7.389315578620880842e-05 2.545372808526735753e-05 3.019926043634768575e-05
4.359000000000000000e+03 1.111242771148681641e+01 -4.403275847434997559e-01 -2.954643969133030623e-05 1.544741098769009113e-04 3.747829759959131479e-05 4.270841236575506628e-05
4.360000000000000000e+03 1.260764503479003906e+01 -5.095726251602172852e-01 1.184640677820425481e-05 1.122776884585618973e-04 3.723722693393938243e-05 3.036841735593043268e-05
4.361000000000000000e+03 1.185993289947509766e+01 -4.741277396678924561e-01 -1.921317925734911114e-05 -1.402246125508099794e-04 -4.783133772434666753e-05 -1.465041350456885993e-05
4.362000000000000000e+03 1.109096240997314453e+01 -1.180124521255493164e+00 -2.613224569358862936e-05 -1.242044236278161407e-04 -4.510100188781507313e-05 -5.476494334288872778e-05
4.363000000000000000e+03 1.036482620239257812e+01 -4.067706167697906494e-01 -6.071736061130650342e-05 -1.611457118997350335e-04 -6.655892502749338746e-05 -2.417777432128787041e-05
4.364000000000000000e+03 1.034629440307617188e+01 -1.146702885627746582e+00 -4.192513370071537793e-05 1.000550983007997274e-04 1.743899156281258911e-05 1.515681942692026496e-04
4.365000000000000000e+03 1.258031177520751953e+01 -1.249099493026733398e+00 -3.448461575317196548e-05 -9.260505612473934889e-05 -3.812690192717127502e-05 -4.464572339202277362e-05
4.366000000000000000e+03 1.183553314208984375e+01 -1.213789224624633789e+00 1.699278300293372013e-07 9.959313319995999336e-05 2.992891859321389347e-05 8.790929132374003530e-05
4.367000000000000000e+03 4.401664733886718750e+01 -6.493608474731445312e+00 3.398352813720703125e+01 6.837119579315185547e+00 1.224619483947753906e+01 1.283479309082031250e+01
4.368000000000000000e+03 4.402096176147460938e+01 -6.512593269348144531e+00 3.073644256591796875e+01 1.960215759277343750e+01 1.510158061981201172e+01 2.365333366394042969e+01
4.369000000000000000e+03 4.402888870239257812e+01 -6.530374526977539062e+00 2.808461952209472656e+01 3.171960639953613281e+01 1.794126701354980469e+01 2.726200103759765625e+01
4.370000000000000000e+03 4.404012298583984375e+01 -6.546272754669189453e+00 2.413436317443847656e+01 4.409838104248046875e+01 2.046982192993164062e+01 2.801414489746093750e+01
4.371000000000000000e+03 4.405424118041992188e+01 -6.559679508209228516e+00 2.069895553588867188e+01 5.538774490356445312e+01 2.282600975036621094e+01 2.578403472900390625e+01
4.372000000000000000e+03 4.407069396972656250e+01 -6.570081233978271484e+00 1.754446983337402344e+01 6.466352844238281250e+01 2.466239929199218750e+01 2.120789909362792969e+01
4.373000000000000000e+03 4.408886337280273438e+01 -6.577080726623535156e+00 1.628050422668457031e+01 7.149224853515625000e+01 2.633182525634765625e+01 1.477894973754882812e+01
4.374000000000000000e+03 4.410804367065429688e+01 -6.580409049987792969e+00 1.648449516296386719e+01 7.500495910644531250e+01 2.744683647155761719e+01 7.475739955902099609e+00
4.375000000000000000e+03 4.412750625610351562e+01 -6.579939365386962891e+00 1.892151641845703125e+01 7.539259338378906250e+01 2.829423332214355469e+01 3.923341929912567139e-01
4.376000000000000000e+03 4.414650726318359375e+01 -6.575689792633056641e+00 2.300157356262207031e+01 7.294284057617187500e+01 2.878332328796386719e+01 -5.587226867675781250e+00
4.377000000000000000e+03 4.416431427001953125e+01 -6.567822933197021484e+00 2.829311561584472656e+01 6.853560638427734375e+01 2.904861640930175781e+01 -9.697922706604003906e+00
4.378000000000000000e+03 4.418024826049804688e+01 -6.556639671325683594e+00 3.389542388916015625e+01 6.303058624267578125e+01 2.907780265808105469e+01 -1.165588378906250000e+01
4.379000000000000000e+03 4.419370269775390625e+01 -6.542568206787109375e+00 3.914670562744140625e+01 5.756689834594726562e+01 2.901408195495605469e+01 -1.144475364685058594e+01
4.380000000000000000e+03 4.420415878295898438e+01 -6.526146411895751953e+00 4.345510482788085938e+01 5.284082794189453125e+01 2.888878059387207031e+01 -9.423248291015625000e+00
4.381000000000000000e+03 4.421121978759765625e+01 -6.508003234863281250e+00 4.642858505249023438e+01 4.951106643676757812e+01 2.878189659118652344e+01 -6.091523647308349609e+00
4.382000000000000000e+03 4.421461105346679688e+01 -6.488833427429199219e+00 4.782850265502929688e+01 4.779391098022460938e+01 2.868672370910644531e+01 -2.013647556304931641e+00
4.383000000000000000e+03 4.421420669555664062e+01 -6.469369411468505859e+00 4.768724441528320312e+01 4.805263519287109375e+01 2.872196388244628906e+01 2.259357213973999023e+00
4.384000000000000000e+03 4.421002197265625000e+01 -6.450356483459472656e+00 4.588222503662109375e+01 4.997351074218750000e+01 2.875672149658203125e+01 6.233421325683593750e+00
4.385000000000000000e+03 4.420221328735351562e+01 -6.432522296905517578e+00 4.268779754638671875e+01 5.360705184936523438e+01 2.888845443725585938e+01 9.270041465759277344e+00
4.386000000000000000e+03 4.419108200073242188e+01 -6.416549682617187500e+00 3.819481277465820312e+01 5.852392959594726562e+01 2.901562309265136719e+01 1.092473697662353516e+01
4.387000000000000000e+03 4.417705535888671875e+01 -6.403049468994140625e+00 3.288439941406250000e+01 6.395835876464843750e+01 2.905282592773437500e+01 1.071101856231689453e+01
4.388000000000000000e+03 4.416067123413085938e+01 -6.392538070678710938e+00 2.742702484130859375e+01 6.928713989257812500e+01 2.901424980163574219e+01 8.300861358642578125e+00
4.389000000000000000e+03 4.414255142211914062e+01 -6.385417938232421875e+00 2.247619819641113281e+01 7.332614135742187500e+01 2.874070167541503906e+01 3.813307523727416992e+00
4.390000000000000000e+03 4.412339019775390625e+01 -6.381961345672607422e+00 1.882712554931640625e+01 7.526950073242187500e+01 2.822898674011230469e+01 -2.460182428359985352e+00
4.391000000000000000e+03 4.410392761230468750e+01 -6.382301330566406250e+00 1.692064285278320312e+01 7.427322387695312500e+01 2.735816001892089844e+01 -9.570599555969238281e+00
4.392000000000000000e+03 4.408489990234375000e+01 -6.386424064636230469e+00 1.718995094299316406e+01 7.009694671630859375e+01 2.618606758117675781e+01 -1.674890899658203125e+01
4.393000000000000000e+03 4.406703948974609375e+01 -6.394171714782714844e+00 1.898684692382812500e+01 6.283613586425781250e+01 2.454689598083496094e+01 -2.276346588134765625e+01
4.394000000000000000e+03 4.405102920532226562e+01 -6.405248641967773438e+00 2.235177993774414062e+01 5.305064392089843750e+01 2.262072753906250000e+01 -2.688021469116210938e+01
4.395000000000000000e+03 4.403748321533203125e+01 -6.419230461120605469e+00 2.582794189453125000e+01 4.171694183349609375e+01 2.026346588134765625e+01 -2.849724960327148438e+01
4.396000000000000000e+03 4.402691650390625000e+01 -6.435581684112548828e+00 2.962306404113769531e+01 2.941186904907226562e+01 1.771047973632812500e+01 -2.710343170166015625e+01
4.397000000000000000e+03 4.401973724365234375e+01 -6.453677654266357422e+00 3.184398269653320312e+01 1.762220001220703125e+01 1.483985519409179688e+01 -2.298305892944335938e+01
4.398000000000000000e+03 4.401621627807617188e+01 -6.472825050354003906e+00 3.415847015380859375e+01 5.835462093353271484e+00 1.199818038940429688e+01 -1.160232448577880859e+01
