# el_label, x, y, sXX, sYY, sZZ, sXY
1.000000000000000000e+00 1.987362480163574219e+01 -5.971895217895507812e+00 -7.163824081420898438e+00 -1.075653076171875000e+00 -2.471843004226684570e+00 -1.065458655357360840e+00
2.000000000000000000e+00 1.967587852478027344e+01 -5.949204444885253906e+00 -1.999459266662597656e+00 3.846405744552612305e-01 -4.844456017017364502e-01 8.918786644935607910e-01
3.000000000000000000e+00 1.947813415527343750e+01 -5.926513195037841797e+00 -2.479891538619995117e+00 -2.866299152374267578e-01 -8.299564719200134277e-01 2.689394354820251465e-01
4.000000000000000000e+00 1.928038787841796875e+01 -5.903822422027587891e+00 -2.081456184387207031e+00 1.258966028690338135e-01 -5.866678953170776367e-01 3.523267209529876709e-01
5.000000000000000000e+00 1.987266921997070312e+01 -6.030230522155761719e+00 4.931768894195556641e+00 -1.866749525070190430e+00 9.195057749748229980e-01 -8.045710921287536621e-01
6.000000000000000000e+00 1.967428588867187500e+01 -6.046430110931396484e+00 8.335438966751098633e-01 -1.302925962954759598e-02 2.461543828248977661e-01 2.631819546222686768e-01
7.000000000000000000e+00 1.947590255737304688e+01 -6.062629222869873047e+00 1.509962916374206543e+00 1.738528311252593994e-01 5.051447153091430664e-01 6.819701790809631348e-01
8.000000000000000000e+00 1.927752113342285156e+01 -6.078828334808349609e+00 7.975433468818664551e-01 2.991432324051856995e-02 2.482372969388961792e-01 1.885588318109512329e-01
9.000000000000000000e+00 1.988307571411132812e+01 -6.087638378143310547e+00 1.092042064666748047e+01 -4.756975769996643066e-01 3.133416891098022461e+00 3.504809617996215820e+00
1.000000000000000000e+01 1.969163131713867188e+01 -6.142109394073486328e+00 6.150221347808837891e+00 -1.295199692249298096e-01 1.806210398674011230e+00 1.771516919136047363e+00
1.100000000000000000e+01 1.950018692016601562e+01 -6.196579933166503906e+00 4.044857501983642578e+00 5.189758539199829102e-01 1.369149923324584961e+00 1.520398736000061035e+00
1.200000000000000000e+01 1.930874252319335938e+01 -6.251050949096679688e+00 3.628862380981445312e+00 5.892322659492492676e-01 1.265428423881530762e+00 1.333652853965759277e+00
1.300000000000000000e+01 1.990444946289062500e+01 -6.141925811767578125e+00 1.417266464233398438e+01 2.622640371322631836e+00 5.038591384887695312e+00 7.598913669586181641e+00
1.400000000000000000e+01 1.972725296020507812e+01 -6.232588291168212891e+00 8.727560997009277344e+00 1.593920588493347168e+00 3.096444606781005859e+00 4.781970024108886719e+00
1.500000000000000000e+01 1.955005645751953125e+01 -6.323250770568847656e+00 6.768276691436767578e+00 1.584877610206604004e+00 2.505946397781372070e+00 3.464693307876586914e+00
1.600000000000000000e+01 1.937285995483398438e+01 -6.413913249969482422e+00 5.225776672363281250e+00 1.525501012802124023e+00 2.025383234024047852e+00 2.895645618438720703e+00
1.700000000000000000e+01 1.993597221374511719e+01 -6.191020011901855469e+00 1.426883220672607422e+01 7.385790348052978516e+00 6.496387004852294922e+00 1.135518550872802734e+01
1.800000000000000000e+01 1.977979087829589844e+01 -6.314412117004394531e+00 1.004386329650878906e+01 4.675384044647216797e+00 4.415773868560791016e+00 7.473492622375488281e+00
1.900000000000000000e+01 1.962360954284667969e+01 -6.437804222106933594e+00 7.579453945159912109e+00 3.887546539306640625e+00 3.440100193023681641e+00 5.860458374023437500e+00
2.000000000000000000e+01 1.946742820739746094e+01 -6.561196327209472656e+00 6.324209213256835938e+00 3.519106388092041016e+00 2.952994585037231445e+00 4.797435760498046875e+00
2.100000000000000000e+01 1.997644042968750000e+01 -6.233046531677246094e+00 1.313677787780761719e+01 1.309585475921630859e+01 7.869789600372314453e+00 1.356615352630615234e+01
2.200000000000000000e+01 1.984723854064941406e+01 -6.384456634521484375e+00 9.329062461853027344e+00 8.920282363891601562e+00 5.474803447723388672e+00 9.560136795043945312e+00
2.300000000000000000e+01 1.971803665161132812e+01 -6.535866260528564453e+00 7.718704223632812500e+00 7.047948360443115234e+00 4.429995536804199219e+00 7.642967700958251953e+00
2.400000000000000000e+01 1.958883285522460938e+01 -6.687276363372802734e+00 6.134210586547851562e+00 6.354517936706542969e+00 3.746618509292602539e+00 6.674838066101074219e+00
2.500000000000000000e+01 2.002430915832519531e+01 -6.266400814056396484e+00 1.054929733276367188e+01 1.928589820861816406e+01 8.950558662414550781e+00 1.402442836761474609e+01
2.600000000000000000e+01 1.992701911926269531e+01 -6.440046787261962891e+00 8.307845115661621094e+00 1.341965866088867188e+01 6.518250942230224609e+00 1.047040557861328125e+01
2.700000000000000000e+01 1.982972908020019531e+01 -6.613692760467529297e+00 6.448853015899658203e+00 1.106965637207031250e+01 5.255552768707275391e+00 8.587927818298339844e+00
2.800000000000000000e+01 1.973244094848632812e+01 -6.787338256835937500e+00 5.796164512634277344e+00 9.327325820922851562e+00 4.537047386169433594e+00 7.517226219177246094e+00
2.900000000000000000e+01 2.007775115966796875e+01 -6.289808750152587891e+00 8.516789436340332031e+00 2.480587005615234375e+01 9.996798515319824219e+00 1.284470939636230469e+01
3.000000000000000000e+01 2.001608848571777344e+01 -6.479059696197509766e+00 6.466563224792480469e+00 1.800020408630371094e+01 7.340030193328857422e+00 9.991661071777343750e+00
3.100000000000000000e+01 1.995442771911621094e+01 -6.668310642242431641e+00 5.449960708618164062e+00 1.483615493774414062e+01 6.085834503173828125e+00 8.599923133850097656e+00
3.200000000000000000e+01 1.989276504516601562e+01 -6.857561588287353516e+00 4.296165466308593750e+00 1.310440635681152344e+01 5.220171451568603516e+00 7.293055534362792969e+00
3.300000000000000000e+01 2.013472366333007812e+01 -6.302376270294189453e+00 6.769159793853759766e+00 2.917477798461914062e+01 1.078318119049072266e+01 1.006374645233154297e+01
3.400000000000000000e+01 2.011104583740234375e+01 -6.500005722045898438e+00 5.414374828338623047e+00 2.181994819641113281e+01 8.170296669006347656e+00 8.659916877746582031e+00
3.500000000000000000e+01 2.008736610412597656e+01 -6.697635173797607422e+00 4.074982166290283203e+00 1.832503890991210938e+01 6.720006465911865234e+00 7.298022747039794922e+00
3.600000000000000000e+01 2.006368637084960938e+01 -6.895264625549316406e+00 3.519871950149536133e+00 1.627357292175292969e+01 5.938033580780029297e+00 6.739218235015869141e+00
3.700000000000000000e+01 2.019305419921875000e+01 -6.303624153137207031e+00 6.610291004180908203e+00 3.194459915161132812e+01 1.156646728515625000e+01 6.889672279357910156e+00
3.800000000000000000e+01 2.020826148986816406e+01 -6.502085208892822266e+00 4.693727493286132812e+00 2.457907867431640625e+01 8.781842231750488281e+00 6.212109088897705078e+00
3.900000000000000000e+01 2.022346687316894531e+01 -6.700546264648437500e+00 3.607045412063598633e+00 2.100634384155273438e+01 7.384016513824462891e+00 5.686852931976318359e+00
4.000000000000000000e+01 2.023867416381835938e+01 -6.899007797241210938e+00 2.902738571166992188e+00 1.850887489318847656e+01 6.423484325408935547e+00 4.920066833496093750e+00
4.100000000000000000e+01 2.025051307678222656e+01 -6.293503761291503906e+00 7.642161369323730469e+00 3.293614959716796875e+01 1.217349243164062500e+01 3.291299343109130859e+00
4.200000000000000000e+01 2.030402565002441406e+01 -6.485218524932861328e+00 5.038341045379638672e+00 2.613933563232421875e+01 9.353302955627441406e+00 3.852172136306762695e+00
4.300000000000000000e+01 2.035753822326660156e+01 -6.676933288574218750e+00 3.793899536132812500e+00 2.246112823486328125e+01 7.876508235931396484e+00 3.407014369964599609e+00
4.400000000000000000e+01 2.041105079650878906e+01 -6.868647575378417969e+00 2.879131793975830078e+00 2.029938697814941406e+01 6.953555583953857422e+00 3.129433155059814453e+00
4.500000000000000000e+01 2.030490684509277344e+01 -6.272402763366699219e+00 9.314384460449218750e+00 3.264476394653320312e+01 1.258774471282958984e+01 6.463605165481567383e-01
4.600000000000000000e+01 2.039468193054199219e+01 -6.450049877166748047e+00 6.678042888641357422e+00 2.634854507446289062e+01 9.907976150512695312e+00 1.285982012748718262e+00
4.700000000000000000e+01 2.048445701599121094e+01 -6.627696990966796875e+00 4.583509922027587891e+00 2.286280632019042969e+01 8.233895301818847656e+00 1.577970147132873535e+00
4.800000000000000000e+01 2.057423210144042969e+01 -6.805344104766845703e+00 3.693988084793090820e+00 2.079415512084960938e+01 7.346442699432373047e+00 1.450090646743774414e+00
4.900000000000000000e+01 2.035415840148925781e+01 -6.241126060485839844e+00 1.249697113037109375e+01 3.129956054687500000e+01 1.313895988464355469e+01 -1.170511841773986816e+00
5.000000000000000000e+01 2.047676849365234375e+01 -6.397922039031982422e+00 8.124418258666992188e+00 2.566473197937011719e+01 1.013674449920654297e+01 -5.366100072860717773e-01
5.100000000000000000e+01 2.059937667846679688e+01 -6.554718494415283203e+00 6.954188346862792969e+00 2.227257537841796875e+01 8.768029212951660156e+00 -7.000441849231719971e-02
5.200000000000000000e+01 2.072198677062988281e+01 -6.711514472961425781e+00 4.855893611907958984e+00 1.985207939147949219e+01 7.412392139434814453e+00 4.044409394264221191e-01
5.300000000000000000e+01 2.039638519287109375e+01 -6.200868129730224609e+00 1.483971214294433594e+01 2.949969291687011719e+01 1.330182170867919922e+01 -2.008052349090576172e+00
5.400000000000000000e+01 2.054714775085449219e+01 -6.330825805664062500e+00 1.093193912506103516e+01 2.427374839782714844e+01 1.056170654296875000e+01 -1.342331886291503906e+00
5.500000000000000000e+01 2.069791030883789062e+01 -6.460783481597900391e+00 8.434257507324218750e+00 2.117090034484863281e+01 8.881547927856445312e+00 -1.066035151481628418e+00
5.600000000000000000e+01 2.084867286682128906e+01 -6.590741157531738281e+00 7.911283969879150391e+00 1.892062950134277344e+01 8.049573898315429688e+00 -8.126915693283081055e-01
5.700000000000000000e+01 2.042997932434082031e+01 -6.153166770935058594e+00 1.751455688476562500e+01 2.760134506225585938e+01 1.353477096557617188e+01 -1.631897807121276855e+00
5.800000000000000000e+01 2.060313606262207031e+01 -6.251323223114013672e+00 1.291268062591552734e+01 2.287773704528808594e+01 1.073712539672851562e+01 -1.388576984405517578e+00
5.900000000000000000e+01 2.077629280090332031e+01 -6.349479675292968750e+00 1.072696304321289062e+01 1.963003158569335938e+01 9.107098579406738281e+00 -1.040964007377624512e+00
6.000000000000000000e+01 2.094945144653320312e+01 -6.447636127471923828e+00 8.880305290222167969e+00 1.861216545104980469e+01 8.247741699218750000e+00 -1.079211711883544922e+00
6.100000000000000000e+01 2.045365333557128906e+01 -6.099843025207519531e+00 1.921632385253906250e+01 2.654968833923339844e+01 1.372980403900146484e+01 -5.928086638450622559e-01
6.200000000000000000e+01 2.064259529113769531e+01 -6.162450313568115234e+00 1.477274131774902344e+01 2.115245056152343750e+01 1.077755737304687500e+01 -4.013598561286926270e-01
6.300000000000000000e+01 2.083153343200683594e+01 -6.225057125091552734e+00 1.204285812377929688e+01 1.904976844787597656e+01 9.327787399291992188e+00 -4.487147033214569092e-01
6.400000000000000000e+01 2.102047538757324219e+01 -6.287664413452148438e+00 1.016800880432128906e+01 1.674187278747558594e+01 8.072964668273925781e+00 2.580038011074066162e-01
6.500000000000000000e+01 2.046650695800781250e+01 -6.042932510375976562e+00 2.017211151123046875e+01 2.540536689758300781e+01 1.367324352264404297e+01 1.318886876106262207e+00
6.600000000000000000e+01 2.066401481628417969e+01 -6.067599773406982422e+00 1.553965282440185547e+01 2.080276679992675781e+01 1.090272617340087891e+01 8.385477662086486816e-01
6.700000000000000000e+01 2.086152267456054688e+01 -6.092267036437988281e+00 1.278994274139404297e+01 1.795468902587890625e+01 9.223389625549316406e+00 1.196502923965454102e+00
6.800000000000000000e+01 2.105903244018554688e+01 -6.116934299468994141e+00 1.133794593811035156e+01 1.625975036621093750e+01 8.279308319091796875e+00 9.143478274345397949e-01
6.900000000000000000e+01 2.046804618835449219e+01 -5.984610080718994141e+00 2.013673591613769531e+01 2.542085266113281250e+01 1.366727638244628906e+01 3.014592409133911133e+00
7.000000000000000000e+01 2.066658020019531250e+01 -5.970395088195800781e+00 1.517454528808593750e+01 2.083486366271972656e+01 1.080282306671142578e+01 2.875586271286010742e+00
7.100000000000000000e+01 2.086511611938476562e+01 -5.956180572509765625e+00 1.273990726470947266e+01 1.791453170776367188e+01 9.196331977844238281e+00 2.250671148300170898e+00
7.200000000000000000e+01 2.106365013122558594e+01 -5.941966056823730469e+00 1.101284313201904297e+01 1.632576370239257812e+01 8.201581954956054688e+00 2.320530652999877930e+00
7.300000000000000000e+01 2.045821189880371094e+01 -5.927101135253906250e+00 1.882214355468750000e+01 2.616765213012695312e+01 1.349693870544433594e+01 4.932308197021484375e+00
7.400000000000000000e+01 2.065019226074218750e+01 -5.874547481536865234e+00 1.413568210601806641e+01 2.154718971252441406e+01 1.070486164093017578e+01 4.376206398010253906e+00
7.500000000000000000e+01 2.084217262268066406e+01 -5.821993827819824219e+00 1.117260169982910156e+01 1.902372741699218750e+01 9.058898925781250000e+00 3.600916385650634766e+00
7.600000000000000000e+01 2.103415298461914062e+01 -5.769439697265625000e+00 9.804147720336914062e+00 1.655542182922363281e+01 7.907870769500732422e+00 3.024033069610595703e+00
7.700000000000000000e+01 2.043738365173339844e+01 -5.872602939605712891e+00 1.671295547485351562e+01 2.778853797912597656e+01 1.335044860839843750e+01 6.245863437652587891e+00
7.800000000000000000e+01 2.061547851562500000e+01 -5.783716678619384766e+00 1.185459327697753906e+01 2.278793334960937500e+01 1.039275741577148438e+01 5.328788280487060547e+00
7.900000000000000000e+01 2.079357147216796875e+01 -5.694830417633056641e+00 9.437920570373535156e+00 2.046897888183593750e+01 8.972070693969726562e+00 4.596634864807128906e+00
8.000000000000000000e+01 2.097166633605957031e+01 -5.605944633483886719e+00 7.257462024688720703e+00 1.827415275573730469e+01 7.659484863281250000e+00 3.621440172195434570e+00
8.100000000000000000e+01 2.040635490417480469e+01 -5.823195934295654297e+00 1.354314708709716797e+01 2.955217933654785156e+01 1.292859745025634766e+01 6.803139209747314453e+00
8.200000000000000000e+01 2.056376075744628906e+01 -5.701371669769287109e+00 9.266020774841308594e+00 2.467073249816894531e+01 1.018102550506591797e+01 5.326054573059082031e+00
8.300000000000000000e+01 2.072116851806640625e+01 -5.579547405242919922e+00 6.979619026184082031e+00 2.148792839050292969e+01 8.540264129638671875e+00 4.676767826080322266e+00
8.400000000000000000e+01 2.087857627868652344e+01 -5.457723140716552734e+00 6.001508712768554688e+00 2.034924507141113281e+01 7.905226230621337891e+00 4.322370052337646484e+00
8.500000000000000000e+01 2.036630821228027344e+01 -5.780766487121582031e+00 1.010927009582519531e+01 3.164285659790039062e+01 1.252563762664794922e+01 6.096316814422607422e+00
8.600000000000000000e+01 2.049701690673828125e+01 -5.630656242370605469e+00 6.402422428131103516e+00 2.607283973693847656e+01 9.742578506469726562e+00 4.390537738800048828e+00
8.700000000000000000e+01 2.062772750854492188e+01 -5.480545997619628906e+00 4.677340507507324219e+00 2.268836784362792969e+01 8.209712028503417969e+00 3.791358232498168945e+00
8.800000000000000000e+01 2.075843620300292969e+01 -5.330435276031494141e+00 4.425267219543457031e+00 2.048650741577148438e+01 7.473532199859619141e+00 3.232272863388061523e+00
8.900000000000000000e+01 2.031877517700195312e+01 -5.746935367584228516e+00 6.864779472351074219e+00 3.340481948852539062e+01 1.208088016510009766e+01 4.046891689300537109e+00
9.000000000000000000e+01 2.041779518127441406e+01 -5.574271202087402344e+00 3.708108425140380859e+00 2.674394226074218750e+01 9.135615348815917969e+00 2.550514221191406250e+00
9.100000000000000000e+01 2.051681709289550781e+01 -5.401606559753417969e+00 2.982580900192260742e+00 2.318869590759277344e+01 7.851383209228515625e+00 1.955783843994140625e+00
9.200000000000000000e+01 2.061583709716796875e+01 -5.228942394256591797e+00 1.488478899002075195e+00 2.068790245056152344e+01 6.652914524078369141e+00 1.218404173851013184e+00
9.300000000000000000e+01 2.026556968688964844e+01 -5.722994327545166016e+00 3.783711671829223633e+00 3.380697631835937500e+01 1.127720546722412109e+01 1.010742187500000000e+00
9.400000000000000000e+01 2.032912063598632812e+01 -5.534369468688964844e+00 2.297686100006103516e+00 2.658054542541503906e+01 8.663469314575195312e+00 -1.333961188793182373e-01
9.500000000000000000e+01 2.039267158508300781e+01 -5.345744609832763672e+00 1.119025230407714844e+00 2.249931335449218750e+01 7.085501670837402344e+00 -4.214439094066619873e-01
9.600000000000000000e+01 2.045622253417968750e+01 -5.157119274139404297e+00 3.672711253166198730e-01 2.071942520141601562e+01 6.326008796691894531e+00 -2.443008720874786377e-01
9.700000000000000000e+01 2.020872497558593750e+01 -5.709857463836669922e+00 2.461000680923461914e+00 3.290182113647460938e+01 1.060884666442871094e+01 -2.828995943069458008e+00
9.800000000000000000e+01 2.023438072204589844e+01 -5.512475013732910156e+00 1.276656270027160645e+00 2.477581596374511719e+01 7.815741539001464844e+00 -3.001935243606567383e+00
9.900000000000000000e+01 2.026003456115722656e+01 -5.315092086791992188e+00 5.922276377677917480e-01 2.114673805236816406e+01 6.521689891815185547e+00 -2.783118963241577148e+00
1.000000000000000000e+02 2.028568840026855469e+01 -5.117709159851074219e+00 3.411124944686889648e-01 1.841372299194335938e+01 5.626450538635253906e+00 -2.115674257278442383e+00
1.010000000000000000e+02 2.015041160583496094e+01 -5.708026885986328125e+00 2.208590269088745117e+00 2.986959648132324219e+01 9.623456001281738281e+00 -6.584408760070800781e+00
1.020000000000000000e+02 2.013718986511230469e+01 -5.509423255920410156e+00 1.516510009765625000e+00 2.192033195495605469e+01 7.031052112579345703e+00 -5.682975769042968750e+00
1.030000000000000000e+02 2.012396812438964844e+01 -5.310820102691650391e+00 8.930606842041015625e-01 1.812565422058105469e+01 5.705614566802978516e+00 -4.625676155090332031e+00
1.040000000000000000e+02 2.011074447631835938e+01 -5.112216472625732422e+00 6.581050157546997070e-01 1.584699726104736328e+01 4.951530933380126953e+00 -4.286683082580566406e+00
1.050000000000000000e+02 2.009285354614257812e+01 -5.717571735382080078e+00 3.494258642196655273e+00 2.510641098022460938e+01 8.580201148986816406e+00 -9.754529953002929688e+00
1.060000000000000000e+02 2.004125976562500000e+01 -5.525331497192382812e+00 2.391583204269409180e+00 1.768736457824707031e+01 6.023684024810791016e+00 -7.276349544525146484e+00
1.070000000000000000e+02 1.998966598510742188e+01 -5.333091259002685547e+00 1.896485567092895508e+00 1.437623691558837891e+01 4.881816864013671875e+00 -6.091042518615722656e+00
1.080000000000000000e+02 1.993807220458984375e+01 -5.140851497650146484e+00 1.225563645362854004e+00 1.265550136566162109e+01 4.164319515228271484e+00 -5.028440475463867188e+00
1.090000000000000000e+02 2.003825187683105469e+01 -5.738128185272216797e+00 5.261817932128906250e+00 1.896424293518066406e+01 7.267818450927734375e+00 -1.116361141204833984e+01
1.100000000000000000e+02 1.995025634765625000e+01 -5.559591770172119141e+00 3.919370412826538086e+00 1.266451072692871094e+01 4.975164413452148438e+00 -7.923712730407714844e+00
1.110000000000000000e+02 1.986226272583007812e+01 -5.381055831909179688e+00 2.735472917556762695e+00 1.024239158630371094e+01 3.893359184265136719e+00 -6.092612743377685547e+00
1.120000000000000000e+02 1.977426719665527344e+01 -5.202519893646240234e+00 2.303638458251953125e+00 8.849744796752929688e+00 3.346015214920043945e+00 -5.096621513366699219e+00
1.130000000000000000e+02 1.998868942260742188e+01 -5.768910408020019531e+00 7.504425525665283203e+00 1.197256755828857422e+01 5.843098163604736328e+00 -1.075798702239990234e+01
1.140000000000000000e+02 1.986765480041503906e+01 -5.610896110534667969e+00 4.584147453308105469e+00 7.666278362274169922e+00 3.675127744674682617e+00 -6.890221595764160156e+00
1.150000000000000000e+02 1.974661827087402344e+01 -5.452881813049316406e+00 3.670459032058715820e+00 6.161077022552490234e+00 2.949460744857788086e+00 -5.160353183746337891e+00
1.160000000000000000e+02 1.962558364868164062e+01 -5.294867515563964844e+00 2.558395147323608398e+00 5.334782123565673828e+00 2.367953300476074219e+00 -4.104544162750244141e+00
1.170000000000000000e+02 1.994606208801269531e+01 -5.808743953704833984e+00 7.906594276428222656e+00 5.375512599945068359e+00 3.984632015228271484e+00 -8.140892982482910156e+00
1.180000000000000000e+02 1.979660606384277344e+01 -5.677285194396972656e+00 4.743527412414550781e+00 3.205083847045898438e+00 2.384583234786987305e+00 -4.605662822723388672e+00
1.190000000000000000e+02 1.964715194702148438e+01 -5.545826911926269531e+00 2.947633743286132812e+00 3.058109760284423828e+00 1.801723003387451172e+00 -3.194679498672485352e+00
1.200000000000000000e+02 1.949769592285156250e+01 -5.414368152618408203e+00 2.502451896667480469e+00 2.753300666809082031e+00 1.576725721359252930e+00 -2.768689393997192383e+00
1.210000000000000000e+02 1.991199302673339844e+01 -5.856107234954833984e+00 6.629987716674804688e+00 -6.395310163497924805e-01 1.797137022018432617e+00 -3.493491649627685547e+00
1.220000000000000000e+02 1.973982620239257812e+01 -5.756224155426025391e+00 1.856615662574768066e+00 9.413939714431762695e-01 8.394029140472412109e-01 -1.386075019836425781e+00
1.230000000000000000e+02 1.956765937805175781e+01 -5.656341075897216797e+00 1.663749456405639648e+00 1.328139781951904297e+00 8.975667953491210938e-01 -1.676494836807250977e+00
1.240000000000000000e+02 1.939549064636230469e+01 -5.556457996368408203e+00 1.145009875297546387e+00 6.941502094268798828e-01 5.517480373382568359e-01 -9.931884407997131348e-01
1.250000000000000000e+02 1.988778495788574219e+01 -5.909192085266113281e+00 -2.348847150802612305e+00 -2.720730781555175781e+00 -1.520873308181762695e+00 2.010325431823730469e+00
1.260000000000000000e+02 1.969948005676269531e+01 -5.844698429107666016e+00 -5.908282995223999023e-01 9.072982072830200195e-01 9.494096040725708008e-02 -2.744432389736175537e-01
1.270000000000000000e+02 1.951117515563964844e+01 -5.780204772949218750e+00 -1.253507971763610840e+00 -3.464690446853637695e-01 -4.799931049346923828e-01 2.457441836595535278e-01
1.280000000000000000e+02 1.932287025451660156e+01 -5.715711593627929688e+00 -1.294742584228515625e+00 1.361696124076843262e-01 -3.475719094276428223e-01 3.281418085098266602e-01
1.290000000000000000e+02 2.002529907226562500e+01 -7.098198890686035156e+00 2.902918577194213867e+00 1.441451263427734375e+01 5.195229530334472656e+00 5.930018901824951172e+00
1.300000000000000000e+02 2.115445709228515625e+01 -6.609996318817138672e+00 7.092137813568115234e+00 1.621152687072753906e+01 6.991099357604980469e+00 -6.742725372314453125e-01
1.310000000000000000e+02 2.125043106079101562e+01 -5.835666656494140625e+00 9.665177345275878906e+00 1.566916179656982422e+01 7.600301742553710938e+00 2.623471498489379883e+00
1.320000000000000000e+02 2.123715019226074219e+01 -6.027527332305908203e+00 1.012492275238037109e+01 1.577501869201660156e+01 7.769982814788818359e+00 1.761367201805114746e+00
1.330000000000000000e+02 2.091963005065917969e+01 -5.096800804138183594e+00 2.353737115859985352e+00 1.772156715393066406e+01 6.022591114044189453e+00 1.987259149551391602e+00
1.340000000000000000e+02 1.860502433776855469e+01 -4.616838932037353516e+00 3.435518965125083923e-02 6.521753072738647461e-01 2.059591412544250488e-01 -5.972439646720886230e-01
1.350000000000000000e+02 1.845726776123046875e+01 -4.185875892639160156e+00 -7.168374657630920410e-01 -2.423294484615325928e-01 -2.877500653266906738e-01 4.188357591629028320e-01
1.360000000000000000e+02 2.022576522827148438e+01 -4.620933532714843750e+00 -4.661735892295837402e-01 1.434336376190185547e+01 4.163156986236572266e+00 -2.708855628967285156e+00
1.370000000000000000e+02 2.047296524047851562e+01 -4.933055877685546875e+00 3.762559294700622559e-01 1.813649940490722656e+01 5.553826808929443359e+00 -2.707543671131134033e-01
1.380000000000000000e+02 2.062923622131347656e+01 -6.954641342163085938e+00 3.246834278106689453e+00 1.930807304382324219e+01 6.766472339630126953e+00 1.707380175590515137e+00
1.390000000000000000e+02 1.979205703735351562e+01 -7.051608085632324219e+00 4.118449687957763672e+00 1.071061801910400391e+01 4.448720455169677734e+00 6.831902980804443359e+00
1.400000000000000000e+02 1.908356094360351562e+01 -6.087647438049316406e+00 5.810532569885253906e-01 3.499717712402343750e-01 2.793075144290924072e-01 6.037151440978050232e-02
1.410000000000000000e+02 1.878767395019531250e+01 -7.119145393371582031e+00 3.077273607254028320e+00 3.011253356933593750e+00 1.826558113098144531e+00 3.433254241943359375e+00
1.420000000000000000e+02 1.918787193298339844e+01 -6.496239662170410156e+00 4.408349037170410156e+00 1.542587876319885254e+00 1.785281062126159668e+00 2.456478118896484375e+00
1.430000000000000000e+02 1.911668014526367188e+01 -6.773538112640380859e+00 4.244374275207519531e+00 2.950283288955688477e+00 2.158397197723388672e+00 3.565429449081420898e+00
1.440000000000000000e+02 1.967170524597167969e+01 -5.024929523468017578e+00 1.548498511314392090e+00 7.707573890686035156e+00 2.776821613311767578e+00 -4.287912845611572266e+00
1.450000000000000000e+02 1.949815559387207031e+01 -5.133661270141601562e+00 2.161191940307617188e+00 5.013300895690917969e+00 2.152347803115844727e+00 -3.501873970031738281e+00
1.460000000000000000e+02 1.882772827148437500e+01 -4.263640880584716797e+00 1.950962245464324951e-01 3.021422624588012695e+00 9.649556875228881836e-01 -1.665173411369323730e+00
1.470000000000000000e+02 1.863951873779296875e+01 -4.222646236419677734e+00 -5.801027417182922363e-01 2.710606813430786133e+00 6.391512155532836914e-01 -7.988607287406921387e-01
1.480000000000000000e+02 1.919087028503417969e+01 -5.087230205535888672e+00 1.472776055335998535e+00 2.329981327056884766e+00 1.140827178955078125e+00 -1.600195407867431641e+00
1.490000000000000000e+02 1.854674530029296875e+01 -5.514231204986572266e+00 -2.780805528163909912e-01 -1.202233880758285522e-01 -1.194911822676658630e-01 2.699350416660308838e-01
1.500000000000000000e+02 1.835757827758789062e+01 -5.468429565429687500e+00 -5.119107291102409363e-02 -1.555703729391098022e-01 -6.202843412756919861e-02 8.966328203678131104e-02
1.510000000000000000e+02 1.893716049194335938e+01 -5.600417137145996094e+00 -9.763891696929931641e-01 -2.671607770025730133e-02 -3.009315729141235352e-01 3.980806469917297363e-01
1.520000000000000000e+02 1.913231658935546875e+01 -5.652732372283935547e+00 -1.191156387329101562e+00 -1.682510077953338623e-01 -4.078222215175628662e-01 3.650582432746887207e-01
1.530000000000000000e+02 2.119967651367187500e+01 -6.159197330474853516e+00 1.072859001159667969e+01 1.575981903076171875e+01 7.946522712707519531e+00 9.396378993988037109e-01
1.540000000000000000e+02 2.005956077575683594e+01 -4.877656459808349609e+00 7.991068810224533081e-02 1.378757858276367188e+01 4.160246849060058594e+00 -3.757918834686279297e+00
1.550000000000000000e+02 1.985583877563476562e+01 -4.927421569824218750e+00 8.724887371063232422e-01 1.097019481658935547e+01 3.552805185317993164e+00 -4.419997215270996094e+00
1.560000000000000000e+02 1.933200645446777344e+01 -5.270482540130615234e+00 1.829563856124877930e+00 2.245573759078979492e+00 1.222541332244873047e+00 -1.951416492462158203e+00
1.570000000000000000e+02 1.908697891235351562e+01 -5.878400325775146484e+00 -1.807552576065063477e+00 -4.894777759909629822e-02 -5.569500923156738281e-01 1.529402881860733032e-01
1.580000000000000000e+02 1.889644050598144531e+01 -5.848544597625732422e+00 -1.415498971939086914e+00 1.351516097784042358e-01 -3.841041922569274902e-01 5.296580493450164795e-02
1.590000000000000000e+02 1.942345046997070312e+01 -6.842874526977539062e+00 5.127944946289062500e+00 5.482063770294189453e+00 3.183002710342407227e+00 5.678923130035400391e+00
1.600000000000000000e+02 1.987051010131835938e+01 -7.324686527252197266e+00 2.956561803817749023e+00 1.152836036682128906e+01 4.345476627349853516e+00 5.855392456054687500e+00
1.610000000000000000e+02 1.850691032409667969e+01 -5.772033691406250000e+00 -5.187883377075195312e-01 4.279566928744316101e-02 -1.427977979183197021e-01 -1.734647452831268311e-01
1.620000000000000000e+02 1.830823707580566406e+01 -5.720851421356201172e+00 -1.638051718473434448e-01 -7.792913913726806641e-02 -7.252029329538345337e-02 -1.132795363664627075e-01
1.630000000000000000e+02 1.822063827514648438e+01 -6.979763507843017578e+00 1.329028725624084473e+00 5.745124816894531250e-01 5.710623860359191895e-01 1.325071811676025391e+00
1.640000000000000000e+02 1.802906036376953125e+01 -6.933096885681152344e+00 6.609986424446105957e-01 4.610658586025238037e-01 3.366193473339080811e-01 9.896454215049743652e-01
1.650000000000000000e+02 1.784995079040527344e+01 -6.910208225250244141e+00 -3.694965839385986328e-01 -4.299019277095794678e-01 -2.398195415735244751e-01 -1.093587949872016907e-01
1.660000000000000000e+02 2.118083953857421875e+01 -6.328020095825195312e+00 9.211793899536132812e+00 1.571452808380126953e+01 7.477896690368652344e+00 3.898739814758300781e-02
1.670000000000000000e+02 2.149435424804687500e+01 -5.938306808471679688e+00 8.397244453430175781e+00 1.421883392333984375e+01 6.784823417663574219e+00 1.811276912689208984e+00
1.680000000000000000e+02 1.898421669006347656e+01 -7.154718399047851562e+00 3.376741409301757812e+00 3.733790874481201172e+00 2.133159637451171875e+00 3.990412950515747070e+00
1.690000000000000000e+02 2.043053245544433594e+01 -4.662028312683105469e+00 -1.487316042184829712e-01 1.521686553955078125e+01 4.520440101623535156e+00 -1.483202099800109863e+00
1.700000000000000000e+02 1.959230804443359375e+01 -4.456734180450439453e+00 1.564972400665283203e-01 8.089085578918457031e+00 2.473674774169921875e+00 -3.305150985717773438e+00
1.710000000000000000e+02 2.078844642639160156e+01 -6.887194156646728516e+00 4.104315757751464844e+00 1.857220077514648438e+01 6.802955150604248047e+00 2.636350691318511963e-01
1.720000000000000000e+02 2.138466262817382812e+01 -6.474079608917236328e+00 7.579887866973876953e+00 1.515873432159423828e+01 6.821586608886718750e+00 -3.360205292701721191e-01
1.730000000000000000e+02 2.029741477966308594e+01 -7.336737632751464844e+00 2.067208766937255859e+00 1.520954704284667969e+01 5.183026790618896484e+00 4.508501529693603516e+00
1.740000000000000000e+02 2.027099990844726562e+01 -4.892095565795898438e+00 5.548749119043350220e-02 1.609769058227539062e+01 4.845952987670898438e+00 -2.588800668716430664e+00
1.750000000000000000e+02 2.001397514343261719e+01 -4.587516784667968750e+00 -6.442429125308990479e-02 1.236657238006591797e+01 3.690644502639770508e+00 -3.445197343826293945e+00
1.760000000000000000e+02 1.888965797424316406e+01 -6.083413124084472656e+00 2.303966432809829712e-01 2.524885535240173340e-01 1.448655575513839722e-01 -2.201610356569290161e-01
1.770000000000000000e+02 1.870281600952148438e+01 -5.813751220703125000e+00 -9.788734912872314453e-01 8.556064963340759277e-02 -2.679938673973083496e-01 -1.156001538038253784e-01
1.780000000000000000e+02 2.117628097534179688e+01 -5.314540863037109375e+00 4.999038219451904297e+00 1.681732177734375000e+01 6.544907569885253906e+00 3.588837146759033203e+00
1.790000000000000000e+02 2.044612693786621094e+01 -7.019400119781494141e+00 2.728081941604614258e+00 1.939402008056640625e+01 6.636630535125732422e+00 2.998237609863281250e+00
1.800000000000000000e+02 2.025192260742187500e+01 -7.076267719268798828e+00 2.499139070510864258e+00 1.718570518493652344e+01 5.905453681945800781e+00 4.625535488128662109e+00
1.810000000000000000e+02 2.068485069274902344e+01 -5.021170616149902344e+00 4.716153442859649658e-01 1.973136901855468750e+01 6.060895442962646484e+00 1.073027372360229492e+00
1.820000000000000000e+02 2.127905845642089844e+01 -6.228633880615234375e+00 9.350331306457519531e+00 1.564878559112548828e+01 7.499735355377197266e+00 3.258266448974609375e-01
1.830000000000000000e+02 2.083106613159179688e+01 -7.170064449310302734e+00 3.027836561203002930e+00 1.719642257690429688e+01 6.067277908325195312e+00 5.879036188125610352e-01
1.840000000000000000e+02 1.820082855224609375e+01 -6.175437927246093750e+00 -1.331248730421066284e-01 -6.704226732254028320e-01 -2.410642653703689575e-01 -4.394034743309020996e-01
1.850000000000000000e+02 1.890823364257812500e+01 -6.330504417419433594e+00 1.913443446159362793e+00 7.617641091346740723e-01 8.025622367858886719e-01 5.779475569725036621e-01
1.860000000000000000e+02 1.874029541015625000e+01 -5.557982921600341797e+00 -6.442397236824035645e-01 -1.552831679582595825e-01 -2.398568689823150635e-01 3.726528882980346680e-01
1.870000000000000000e+02 1.958721160888671875e+01 -6.975929260253906250e+00 4.496035099029541016e+00 8.057374954223632812e+00 3.766023159027099609e+00 6.766911506652832031e+00
1.880000000000000000e+02 1.963467979431152344e+01 -7.277012825012207031e+00 3.419385910034179688e+00 9.474317550659179688e+00 3.868111133575439453e+00 6.729153156280517578e+00
1.890000000000000000e+02 1.971307373046875000e+01 -4.742225646972656250e+00 7.143482565879821777e-01 9.378747940063476562e+00 3.027928829193115234e+00 -3.920978784561157227e+00
1.900000000000000000e+02 2.077434158325195312e+01 -4.811566352844238281e+00 4.203787744045257568e-01 1.791467475891113281e+01 5.500515937805175781e+00 8.506254553794860840e-01
1.910000000000000000e+02 2.067878913879394531e+01 -7.062134742736816406e+00 3.357349395751953125e+00 1.815712738037109375e+01 6.454343318939208984e+00 1.429032444953918457e+00
1.920000000000000000e+02 1.847496223449707031e+01 -6.015805721282958984e+00 -2.898196578025817871e-01 9.101065248250961304e-02 -5.964270234107971191e-02 -4.811627566814422607e-01
1.930000000000000000e+02 1.979747962951660156e+01 -4.527078628540039062e+00 4.488220065832138062e-02 1.014784812927246094e+01 3.057819128036499023e+00 -3.520660400390625000e+00
1.940000000000000000e+02 1.919951057434082031e+01 -7.179651737213134766e+00 3.533663511276245117e+00 5.234944820404052734e+00 2.630582571029663086e+00 5.043950557708740234e+00
1.950000000000000000e+02 1.942136001586914062e+01 -7.218317985534667969e+00 3.826359033584594727e+00 7.336751937866210938e+00 3.348933219909667969e+00 5.905483722686767578e+00
1.960000000000000000e+02 1.914920234680175781e+01 -4.549669742584228516e+00 3.907696902751922607e-01 4.338685989379882812e+00 1.418836712837219238e+00 -2.013062953948974609e+00
1.970000000000000000e+02 1.810554313659667969e+01 -6.389182090759277344e+00 -6.234382838010787964e-02 -9.326468706130981445e-01 -2.984972000122070312e-01 -4.078678488731384277e-01
1.980000000000000000e+02 1.882263946533203125e+01 -6.896350860595703125e+00 3.174739122390747070e+00 2.265652656555175781e+00 1.632117629051208496e+00 2.846507787704467773e+00
1.990000000000000000e+02 1.920516395568847656e+01 -4.354255676269531250e+00 2.455121874809265137e-01 5.457486629486083984e+00 1.710899710655212402e+00 -2.511243343353271484e+00
2.000000000000000000e+02 1.825978469848632812e+01 -5.943487167358398438e+00 -1.979639083147048950e-01 -3.241081833839416504e-01 -1.566216200590133667e-01 -3.305390775203704834e-01
2.010000000000000000e+02 1.806092453002929688e+01 -6.712079048156738281e+00 4.310152232646942139e-01 -5.006241202354431152e-01 -2.088266797363758087e-02 1.952855288982391357e-01
2.020000000000000000e+02 1.846098518371582031e+01 -6.870668411254882812e+00 1.782469868659973145e+00 1.373786449432373047e+00 9.468768835067749023e-01 1.619413018226623535e+00
2.030000000000000000e+02 1.791688728332519531e+01 -6.718285083770751953e+00 2.203354239463806152e-01 -6.194517016410827637e-01 -1.197348833084106445e-01 -1.720148175954818726e-01
2.040000000000000000e+02 1.843116188049316406e+01 -5.043044090270996094e+00 1.877073198556900024e-02 -8.804985284805297852e-01 -2.585183382034301758e-01 6.482616066932678223e-02
2.050000000000000000e+02 1.844659614562988281e+01 -4.822696208953857422e+00 2.020483613014221191e-01 -8.984790444374084473e-01 -2.089291960000991821e-01 -1.730440557003021240e-01
2.060000000000000000e+02 1.862244415283203125e+01 -4.421778202056884766e+00 -3.122829832136631012e-02 8.281185626983642578e-01 2.390670776367187500e-01 -4.441209137439727783e-01
2.070000000000000000e+02 2.127648925781250000e+01 -5.606616973876953125e+00 6.809465408325195312e+00 1.595821571350097656e+01 6.830304145812988281e+00 3.131430864334106445e+00
2.080000000000000000e+02 1.955427932739257812e+01 -4.850438117980957031e+00 1.350567579269409180e+00 7.017055511474609375e+00 2.510287046432495117e+00 -3.639809608459472656e+00
2.090000000000000000e+02 1.823203659057617188e+01 -6.602960586547851562e+00 4.964980781078338623e-01 1.499556899070739746e-01 1.939361244440078735e-01 3.722366094589233398e-01
2.100000000000000000e+02 1.897026634216308594e+01 -4.503890991210937500e+00 3.575226664543151855e-01 3.335006237030029297e+00 1.107758641242980957e+00 -1.702292799949645996e+00
2.110000000000000000e+02 1.924572753906250000e+01 -4.800438880920410156e+00 1.118095159530639648e+00 4.236643314361572266e+00 1.606421470642089844e+00 -2.341481924057006836e+00
2.120000000000000000e+02 1.864549827575683594e+01 -6.534734249114990234e+00 1.866728186607360840e+00 8.658457994461059570e-01 8.197721838951110840e-01 8.723059892654418945e-01
2.130000000000000000e+02 1.839286613464355469e+01 -5.258766174316406250e+00 4.799081385135650635e-02 -5.030982494354248047e-01 -1.365322321653366089e-01 1.039662286639213562e-01
2.140000000000000000e+02 1.898638153076171875e+01 -5.151640892028808594e+00 1.009559392929077148e+00 1.037452697753906250e+00 6.141036748886108398e-01 -6.298898458480834961e-01
2.150000000000000000e+02 1.877421188354492188e+01 -5.352449417114257812e+00 1.672049164772033691e-01 1.247062012553215027e-01 8.757333457469940186e-02 2.847728729248046875e-01
2.160000000000000000e+02 1.873509788513183594e+01 -4.975899696350097656e+00 5.470317602157592773e-01 4.905656278133392334e-01 3.112792372703552246e-01 -3.197122514247894287e-01
2.170000000000000000e+02 1.843105697631835938e+01 -6.515954494476318359e+00 9.284814000129699707e-01 3.652760982513427734e-01 3.881272375583648682e-01 3.544461429119110107e-01
2.180000000000000000e+02 1.832399559020996094e+01 -6.792489051818847656e+00 1.414101362228393555e+00 7.045166492462158203e-01 6.355853676795959473e-01 1.127891540527343750e+00
2.190000000000000000e+02 1.937276077270507812e+01 -4.954981803894042969e+00 1.525962948799133301e+00 4.653059005737304688e+00 1.853706598281860352e+00 -2.930340290069580078e+00
2.200000000000000000e+02 1.843671035766601562e+01 -6.268776416778564453e+00 2.644725143909454346e-01 2.692646384239196777e-01 1.601211577653884888e-01 -1.744890362024307251e-01
2.210000000000000000e+02 2.099542617797851562e+01 -6.834599494934082031e+00 5.117406368255615234e+00 1.734800338745117188e+01 6.739622592926025391e+00 -2.796050608158111572e-01
2.220000000000000000e+02 1.845016288757324219e+01 -4.394790172576904297e+00 2.474166303873062134e-01 3.975912928581237793e-03 7.541776448488235474e-02 -3.215777575969696045e-01
2.230000000000000000e+02 1.879614257812500000e+01 -4.460019111633300781e+00 -1.609172075986862183e-01 2.720105409622192383e+00 7.677564620971679688e-01 -1.154898881912231445e+00
2.240000000000000000e+02 1.901563835144042969e+01 -4.307400703430175781e+00 -2.353990077972412109e-02 4.188202381134033203e+00 1.249398708343505859e+00 -1.685489296913146973e+00
2.250000000000000000e+02 1.844301605224609375e+01 -4.606377601623535156e+00 -1.889227628707885742e-01 -6.032078862190246582e-01 -2.376392036676406860e-01 -1.664473116397857666e-01
2.260000000000000000e+02 1.863944816589355469e+01 -4.798794746398925781e+00 1.938138902187347412e-01 5.582658648490905762e-01 2.256239354610443115e-01 -3.254573345184326172e-01
2.270000000000000000e+02 1.933534240722656250e+01 -4.617023944854736328e+00 7.366299033164978027e-01 5.662529468536376953e+00 1.919747829437255859e+00 -2.885102987289428711e+00
2.280000000000000000e+02 1.840576553344726562e+01 -7.043491363525390625e+00 1.885053992271423340e+00 1.634279608726501465e+00 1.055800080299377441e+00 1.917322158813476562e+00
2.290000000000000000e+02 1.859520149230957031e+01 -7.085296154022216797e+00 2.692164421081542969e+00 2.335336446762084961e+00 1.508250236511230469e+00 2.665030717849731445e+00
2.300000000000000000e+02 1.799270820617675781e+01 -6.554499626159667969e+00 -2.276723533868789673e-01 -1.006906509399414062e+00 -3.703736662864685059e-01 -2.664522230625152588e-01
2.310000000000000000e+02 1.863063240051269531e+01 -6.892471313476562500e+00 2.217935800552368164e+00 1.789868950843811035e+00 1.202341437339782715e+00 2.102624416351318359e+00
2.320000000000000000e+02 1.929773902893066406e+01 -6.673671245574951172e+00 5.000769615173339844e+00 2.984678745269775391e+00 2.395634651184082031e+00 4.160744667053222656e+00
2.330000000000000000e+02 1.901686859130859375e+01 -6.930619239807128906e+00 3.713054656982421875e+00 3.066669702529907227e+00 2.033917427062988281e+00 3.738396883010864258e+00
2.340000000000000000e+02 2.041077041625976562e+01 -7.147045135498046875e+00 2.546237230300903320e+00 1.772358322143554688e+01 6.080945968627929688e+00 3.820659160614013672e+00
2.350000000000000000e+02 1.939732742309570312e+01 -4.405227661132812500e+00 1.641257107257843018e-01 6.715422630310058594e+00 2.063864469528198242e+00 -2.815663814544677734e+00
2.360000000000000000e+02 1.952862358093261719e+01 -4.666608810424804688e+00 7.144999504089355469e-01 7.149477958679199219e+00 2.359193325042724609e+00 -3.321070432662963867e+00
2.370000000000000000e+02 1.857936477661132812e+01 -5.309935092926025391e+00 1.004473343491554260e-01 -3.415941596031188965e-01 -7.234404236078262329e-02 4.252188503742218018e-01
2.380000000000000000e+02 1.911514091491699219e+01 -6.297124385833740234e+00 2.707909584045410156e+00 5.989403128623962402e-01 9.920549392700195312e-01 9.118069410324096680e-01
2.390000000000000000e+02 1.898354911804199219e+01 -6.579238414764404297e+00 3.396222829818725586e+00 1.441831469535827637e+00 1.451416254043579102e+00 2.010650396347045898e+00
2.400000000000000000e+02 1.920613288879394531e+01 -5.448740005493164062e+00 9.321972131729125977e-01 7.262077927589416504e-01 4.975215196609497070e-01 -6.149209737777709961e-01
2.410000000000000000e+02 1.898918533325195312e+01 -5.379361629486083984e+00 6.092888116836547852e-01 3.114625215530395508e-01 2.762253880500793457e-01 -1.609042882919311523e-01
2.420000000000000000e+02 1.921655082702636719e+01 -6.945393562316894531e+00 4.545285224914550781e+00 4.400990009307861328e+00 2.683882713317871094e+00 4.798758983612060547e+00
2.430000000000000000e+02 1.878808212280273438e+01 -5.158753395080566406e+00 6.645023822784423828e-01 3.234831392765045166e-01 2.963956594467163086e-01 -2.102112770080566406e-02
2.440000000000000000e+02 1.868551254272460938e+01 -6.060424327850341797e+00 -7.357978820800781250e-02 3.720381259918212891e-01 8.953750133514404297e-02 -3.301519155502319336e-01
2.450000000000000000e+02 1.910731124877929688e+01 -4.900084495544433594e+00 1.037361979484558105e+00 2.877902269363403320e+00 1.174579381942749023e+00 -1.713928580284118652e+00
2.460000000000000000e+02 1.867771148681640625e+01 -6.316231727600097656e+00 1.124454021453857422e+00 5.175625085830688477e-01 4.926049709320068359e-01 1.596583575010299683e-01
2.470000000000000000e+02 1.892847251892089844e+01 -4.930246353149414062e+00 8.438951969146728516e-01 1.678715229034423828e+00 7.567831277847290039e-01 -8.899214863777160645e-01
2.480000000000000000e+02 1.909730720520019531e+01 -4.732633590698242188e+00 8.530091643333435059e-01 3.433203935623168945e+00 1.285863876342773438e+00 -1.895441293716430664e+00
2.490000000000000000e+02 1.846692276000976562e+01 -6.712936878204345703e+00 1.548532366752624512e+00 9.565936923027038574e-01 7.515377998352050781e-01 1.312831282615661621e+00
2.500000000000000000e+02 1.875521659851074219e+01 -4.661451816558837891e+00 4.151126444339752197e-01 1.317401766777038574e+00 5.197542905807495117e-01 -8.102347850799560547e-01
2.510000000000000000e+02 1.879360198974609375e+01 -6.669528961181640625e+00 2.552100896835327148e+00 1.566184878349304199e+00 1.235485672950744629e+00 1.774420142173767090e+00
2.520000000000000000e+02 1.862857437133789062e+01 -6.709823608398437500e+00 1.909542083740234375e+00 1.378910899162292480e+00 9.865359067916870117e-01 1.582093834877014160e+00
2.530000000000000000e+02 1.861740875244140625e+01 -5.112075805664062500e+00 2.486595213413238525e-01 -3.695648396387696266e-03 7.348915934562683105e-02 1.706382185220718384e-01
2.540000000000000000e+02 1.892297172546386719e+01 -4.714347362518310547e+00 4.498951137065887451e-01 2.562103986740112305e+00 9.035997390747070312e-01 -1.251485347747802734e+00
2.550000000000000000e+02 1.933627700805664062e+01 -7.699975013732910156e+00 3.112754106521606445e+00 7.729794979095458984e+00 3.252764701843261719e+00 5.215232849121093750e+00
2.560000000000000000e+02 2.127433776855468750e+01 -7.690105915069580078e+00 2.347624540328979492e+00 1.484846115112304688e+01 5.158825874328613281e+00 6.462823748588562012e-01
2.570000000000000000e+02 2.128808975219726562e+01 -9.043016433715820312e+00 8.898017406463623047e-01 1.214436912536621094e+01 3.910251379013061523e+00 1.547261953353881836e+00
2.580000000000000000e+02 2.261708259582519531e+01 -6.738522529602050781e+00 5.249784469604492188e+00 1.199220085144042969e+01 5.172595500946044922e+00 1.215713843703269958e-01
2.590000000000000000e+02 2.182926559448242188e+01 -7.184196472167968750e+00 4.767657756805419922e+00 1.371966171264648438e+01 5.546195983886718750e+00 -4.762546122074127197e-01
2.600000000000000000e+02 1.500506401062011719e+01 -1.281807804107666016e+01 1.780397772789001465e+00 4.131629943847656250e+00 1.773608326911926270e+00 2.579565048217773438e+00
2.610000000000000000e+02 1.231094837188720703e+01 -1.597557449340820312e+01 1.502363204956054688e+00 2.172324657440185547e+00 1.102406382560729980e+00 1.762387394905090332e+00
2.620000000000000000e+02 1.497868728637695312e+01 -1.481440734863281250e+01 1.321590423583984375e+00 3.930848121643066406e+00 1.575731515884399414e+00 2.097299337387084961e+00
2.630000000000000000e+02 1.443374443054199219e+01 -2.459280395507812500e+01 -1.480681151151657104e-01 3.761786937713623047e+00 1.084115624427795410e+00 1.115188002586364746e+00
2.640000000000000000e+02 1.803997230529785156e+01 -4.058312606811523438e+01 -7.265695929527282715e-01 4.585984706878662109e+00 1.157824516296386719e+00 9.206368029117584229e-02
2.650000000000000000e+02 2.286840248107910156e+01 -4.088988494873046875e+01 -9.380530714988708496e-01 5.699477195739746094e+00 1.428427219390869141e+00 4.097683727741241455e-02
2.660000000000000000e+02 1.972108840942382812e+01 -3.696656417846679688e+01 -7.869817018508911133e-01 5.002048015594482422e+00 1.264519929885864258e+00 2.488618046045303345e-01
2.670000000000000000e+02 2.155796432495117188e+01 -3.392337417602539062e+01 -8.456331491470336914e-01 5.580842018127441406e+00 1.420562624931335449e+00 3.381604850292205811e-01
2.680000000000000000e+02 2.337731742858886719e+01 -2.281295013427734375e+01 -6.076118350028991699e-01 6.780560493469238281e+00 1.851884603500366211e+00 5.422868728637695312e-01
2.690000000000000000e+02 2.010591697692871094e+01 -1.733954429626464844e+01 -2.115416713058948517e-02 6.540271759033203125e+00 1.955735325813293457e+00 1.398788213729858398e+00
2.700000000000000000e+02 2.230190849304199219e+01 -1.745309638977050781e+01 -2.146013379096984863e-01 7.318038940429687500e+00 2.131031274795532227e+00 9.496821761131286621e-01
2.710000000000000000e+02 1.325659084320068359e+01 -1.496341609954833984e+01 1.667222499847412109e+00 2.691240549087524414e+00 1.307538866996765137e+00 2.073555231094360352e+00
2.720000000000000000e+02 1.131968116760253906e+01 -1.696321296691894531e+01 1.405847072601318359e+00 1.716137647628784180e+00 9.365954399108886719e-01 1.479334592819213867e+00
2.730000000000000000e+02 1.021670055389404297e+01 -1.792166328430175781e+01 1.035411000251770020e+00 1.081021189689636230e+00 6.349296569824218750e-01 1.044141650199890137e+00
2.740000000000000000e+02 8.979272842407226562e+00 -1.836027717590332031e+01 3.054568767547607422e-01 3.515683412551879883e-01 1.971075683832168579e-01 6.021168231964111328e-01
2.750000000000000000e+02 7.176526546478271484e+00 -1.734804916381835938e+01 -1.939147263765335083e-01 -1.214136704802513123e-01 -9.459851682186126709e-02 1.033885031938552856e-01
2.760000000000000000e+02 6.356867790222167969e+00 -1.634257888793945312e+01 -8.118528127670288086e-02 -1.313038449734449387e-02 -2.829469926655292511e-02 7.541823387145996094e-02
2.770000000000000000e+02 7.052284240722656250e+00 -1.510420036315917969e+01 -2.279883716255426407e-03 -3.729764372110366821e-02 -1.187325827777385712e-02 1.758477091789245605e-02
2.780000000000000000e+02 8.906113624572753906e+00 -1.144765663146972656e+01 -3.946588374674320221e-03 1.117171952500939369e-03 -8.488249150104820728e-04 3.647366305813193321e-03
2.790000000000000000e+02 9.675006866455078125e+00 -1.030913066864013672e+01 4.526449833065271378e-03 3.004665253683924675e-03 2.259334549307823181e-03 -1.816008007153868675e-03
2.800000000000000000e+02 1.212798404693603516e+01 -7.065403461456298828e+00 -3.520821221172809601e-03 -7.657394744455814362e-04 -1.285968115553259850e-03 1.631025108508765697e-03
2.810000000000000000e+02 1.170573997497558594e+01 -2.767037391662597656e+00 -1.545308623462915421e-03 -3.949427045881748199e-04 -5.820753867737948895e-04 1.068827812559902668e-03
2.820000000000000000e+02 1.223159503936767578e+01 -4.660658359527587891e+00 2.299307612702250481e-03 1.105281640775501728e-03 1.021376694552600384e-03 -1.244315528310835361e-03
2.830000000000000000e+02 1.104296016693115234e+01 -1.915468215942382812e+00 -7.148698205128312111e-04 -8.417036733590066433e-04 -4.669720365200191736e-04 7.279983838088810444e-04
2.840000000000000000e+02 4.279042720794677734e+00 -1.934640526771545410e+00 5.122592556290328503e-04 2.780594222713261843e-04 2.370956062804907560e-04 3.612820291891694069e-04
2.850000000000000000e+02 1.579759001731872559e+00 -1.474289417266845703e+01 -1.488425116986036301e-02 -1.093074958771467209e-02 -7.744499947875738144e-03 -1.835119165480136871e-02
2.860000000000000000e+02 4.576464176177978516e+00 -1.832752227783203125e+01 3.052092529833316803e-02 1.293901503086090088e-01 4.797332361340522766e-02 -9.500578045845031738e-02
2.870000000000000000e+02 6.491156816482543945e-01 -2.478182983398437500e+01 1.490154303610324860e-02 -2.551182508468627930e-01 -7.206501811742782593e-02 2.525042556226253510e-02
2.880000000000000000e+02 7.080574035644531250e-01 -3.189110183715820312e+01 -1.852188026532530785e-03 2.069388329982757568e-01 6.152599304914474487e-02 4.849950969219207764e-02
2.890000000000000000e+02 2.887740135192871094e+00 -3.762067413330078125e+01 -1.216899909195490181e-04 9.029369950294494629e-01 2.708446085453033447e-01 1.650982201099395752e-01
2.900000000000000000e+02 8.015730381011962891e-01 -3.721627807617187500e+01 1.112523116171360016e-02 6.181296110153198242e-01 1.887764483690261841e-01 5.952351912856101990e-02
2.910000000000000000e+02 9.475956916809082031e+00 -3.710295104980468750e+01 -2.547956407070159912e-01 2.449663877487182617e+00 6.584604382514953613e-01 2.510190308094024658e-01
2.920000000000000000e+02 6.308038711547851562e+00 -3.154215812683105469e+01 -6.137062236666679382e-02 1.430921435356140137e+00 4.108652472496032715e-01 3.670164048671722412e-01
2.930000000000000000e+02 1.281732749938964844e+01 -2.033151626586914062e+01 3.221069872379302979e-01 2.909479856491088867e+00 9.694760441780090332e-01 1.367392301559448242e+00
2.940000000000000000e+02 1.052090454101562500e+01 -2.156149101257324219e+01 3.427090048789978027e-01 1.922202706336975098e+00 6.794735193252563477e-01 1.068488478660583496e+00
2.950000000000000000e+02 6.298642754554748535e-01 -2.337475395202636719e+01 2.137908944860100746e-03 -2.897822558879852295e-01 -8.629330247640609741e-02 5.312314722687005997e-03
2.960000000000000000e+02 1.254027175903320312e+01 -2.004718780517578125e+00 -8.741813362576067448e-04 -1.680294371908530593e-04 -3.126632364001125097e-04 -5.033815250499173999e-05
2.970000000000000000e+02 2.768264007568359375e+01 -4.096393203735351562e+01 -1.033190011978149414e+00 6.500347137451171875e+00 1.640147209167480469e+00 1.502991188317537308e-02
2.980000000000000000e+02 2.805721473693847656e+01 -3.780725097656250000e+01 -1.029304265975952148e+00 6.580509662628173828e+00 1.665361642837524414e+00 5.078784376382827759e-02
2.990000000000000000e+02 2.862184906005859375e+01 -3.131615638732910156e+01 -9.450863599777221680e-01 6.904146194458007812e+00 1.787717938423156738e+00 5.296602100133895874e-02
3.000000000000000000e+02 2.895502471923828125e+01 -2.546356964111328125e+01 -7.484478950500488281e-01 7.317263603210449219e+00 1.970644712448120117e+00 -1.443780213594436646e-02
3.010000000000000000e+02 2.794300842285156250e+01 -1.595118618011474609e+01 6.583856046199798584e-02 8.331357002258300781e+00 2.519158840179443359e+00 -2.183498591184616089e-01
3.020000000000000000e+02 2.620231056213378906e+01 -1.038059902191162109e+01 1.428231716156005859e+00 9.261142730712890625e+00 3.206812381744384766e+00 -4.232247471809387207e-01
3.030000000000000000e+02 3.026708412170410156e+01 8.244536399841308594e+00 9.718940258026123047e-01 8.466428756713867188e+00 2.831496715545654297e+00 7.085207104682922363e-02
3.040000000000000000e+02 2.771271514892578125e+01 1.589807510375976562e+01 3.307536840438842773e-01 7.943651676177978516e+00 2.482321500778198242e+00 6.037434563040733337e-02
3.050000000000000000e+02 2.674383354187011719e+01 2.441779327392578125e+01 -5.790635347366333008e-01 7.156172275543212891e+00 1.973132610321044922e+00 -5.310209468007087708e-02
3.060000000000000000e+02 3.258675003051757812e+01 4.075886917114257812e+01 -1.021327733993530273e+00 7.138412952423095703e+00 1.835125565528869629e+00 2.108909934759140015e-02
3.070000000000000000e+02 2.825199890136718750e+01 3.742793273925781250e+01 -1.015993118286132812e+00 6.687829971313476562e+00 1.701550960540771484e+00 -1.614789292216300964e-02
3.080000000000000000e+02 1.794173049926757812e+01 4.062388610839843750e+01 -7.540128231048583984e-01 4.636554241180419922e+00 1.164762377738952637e+00 -9.369424730539321899e-02
3.090000000000000000e+02 2.288830566406250000e+01 4.079969406127929688e+01 -9.608784317970275879e-01 5.778250217437744141e+00 1.445211529731750488e+00 -4.147536680102348328e-02
3.100000000000000000e+02 2.119693946838378906e+01 3.337435150146484375e+01 -8.379215598106384277e-01 5.601338863372802734e+00 1.429025173187255859e+00 -3.455696403980255127e-01
3.110000000000000000e+02 2.213292121887207031e+01 2.282955932617187500e+01 -4.576964676380157471e-01 6.713472843170166016e+00 1.876732945442199707e+00 -5.077801942825317383e-01
3.120000000000000000e+02 2.189674568176269531e+01 1.486699771881103516e+01 7.246629595756530762e-01 7.991521835327148438e+00 2.614855289459228516e+00 -8.086221814155578613e-01
3.130000000000000000e+02 2.132040596008300781e+01 1.277504920959472656e+01 1.069472551345825195e+00 8.565147399902343750e+00 2.890386104583740234e+00 -1.136186122894287109e+00
3.140000000000000000e+02 1.987413024902343750e+01 3.845983743667602539e+00 5.418292880058288574e-01 1.121310997009277344e+01 3.526481866836547852e+00 -1.106553435325622559e+00
3.150000000000000000e+02 2.187353324890136719e+01 -4.241445064544677734e+00 1.289800167083740234e+00 1.433236598968505859e+01 4.686649799346923828e+00 1.828540086746215820e+00
3.160000000000000000e+02 2.224031829833984375e+01 -5.823479652404785156e+00 6.294299602508544922e+00 1.256477737426757812e+01 5.657722949981689453e+00 1.579536914825439453e+00
3.170000000000000000e+02 2.371900558471679688e+01 -6.455986976623535156e+00 4.287298679351806641e+00 1.058918476104736328e+01 4.462944984436035156e+00 4.984942674636840820e-01
3.180000000000000000e+02 2.756552696228027344e+01 -5.795803070068359375e+00 2.459427118301391602e+00 9.116070747375488281e+00 3.472649335861206055e+00 2.157117128372192383e-01
3.190000000000000000e+02 4.236767196655273438e+01 -4.061372756958007812e+01 -8.330117464065551758e-01 7.739115238189697266e+00 2.071830987930297852e+00 -5.334326252341270447e-02
3.200000000000000000e+02 3.742988967895507812e+01 -4.078457260131835938e+01 -9.646487236022949219e-01 7.509962081909179688e+00 1.963594079017639160e+00 -4.140633344650268555e-02
3.210000000000000000e+02 3.650758361816406250e+01 -3.391327667236328125e+01 -8.995696306228637695e-01 7.521446228027343750e+00 1.986563086509704590e+00 -1.808155179023742676e-01
3.220000000000000000e+02 3.660934066772460938e+01 -2.406779098510742188e+01 -4.470562338829040527e-01 7.774209022521972656e+00 2.198145866394042969e+00 -4.585557281970977783e-01
3.230000000000000000e+02 3.407264328002929688e+01 -1.572079181671142578e+01 3.556596338748931885e-01 8.037034034729003906e+00 2.517808198928833008e+00 -6.120836734771728516e-01
3.240000000000000000e+02 3.396620941162109375e+01 -1.187385177612304688e+01 9.399144649505615234e-01 8.073832511901855469e+00 2.704123973846435547e+00 -6.049515008926391602e-01
3.250000000000000000e+02 3.493073654174804688e+01 -3.671567201614379883e+00 1.499392151832580566e+00 8.064687728881835938e+00 2.869223833084106445e+00 -3.386327996850013733e-02
3.260000000000000000e+02 3.269940948486328125e+01 3.781028509140014648e+00 1.177085876464843750e+00 8.459380149841308594e+00 2.890939712524414062e+00 2.124332189559936523e-01
3.270000000000000000e+02 3.470016479492187500e+01 9.858111381530761719e+00 7.838785052299499512e-01 8.055787086486816406e+00 2.651899576187133789e+00 3.575091063976287842e-01
3.280000000000000000e+02 3.551702880859375000e+01 1.427381992340087891e+01 4.239542186260223389e-01 7.904999256134033203e+00 2.498686075210571289e+00 4.361473917961120605e-01
3.290000000000000000e+02 3.706042098999023438e+01 2.669032287597656250e+01 -5.327554345130920410e-01 7.650243759155273438e+00 2.135246515274047852e+00 3.694031536579132080e-01
3.300000000000000000e+02 3.270918655395507812e+01 3.375185012817382812e+01 -9.108580350875854492e-01 7.250862598419189453e+00 1.902001261711120605e+00 1.249799281358718872e-01
3.310000000000000000e+02 3.745604324340820312e+01 4.052787399291992188e+01 -9.268129467964172363e-01 7.504630565643310547e+00 1.973345279693603516e+00 4.765042290091514587e-02
3.320000000000000000e+02 4.471765136718750000e+01 -2.323598670959472656e+01 -2.086175382137298584e-01 7.817331790924072266e+00 2.282614231109619141e+00 -5.389217138290405273e-01
3.330000000000000000e+02 4.199095153808593750e+01 -1.422895050048828125e+01 4.807491898536682129e-01 7.757467746734619141e+00 2.471465110778808594e+00 -5.934595465660095215e-01
3.340000000000000000e+02 4.020385360717773438e+01 -1.174754714965820312e+01 7.348446846008300781e-01 7.764123439788818359e+00 2.549690485000610352e+00 -5.523649454116821289e-01
3.350000000000000000e+02 3.986447525024414062e+01 -3.382182121276855469e+00 1.193792939186096191e+00 7.753858566284179688e+00 2.684295415878295898e+00 -8.254679292440414429e-02
3.360000000000000000e+02 4.188135910034179688e+01 2.477626085281372070e+00 9.896261692047119141e-01 7.727941513061523438e+00 2.615270137786865234e+00 1.936852484941482544e-01
3.370000000000000000e+02 4.561134338378906250e+01 1.174971961975097656e+01 4.388734102249145508e-01 7.707863807678222656e+00 2.444021224975585938e+00 4.540041089057922363e-01
3.380000000000000000e+02 4.238764572143554688e+01 1.724929618835449219e+01 1.421111077070236206e-01 7.763556003570556641e+00 2.371700048446655273e+00 5.225973725318908691e-01
3.390000000000000000e+02 4.222227859497070312e+01 2.950549125671386719e+01 -5.502455234527587891e-01 7.738727092742919922e+00 2.156544446945190430e+00 3.638576269149780273e-01
3.400000000000000000e+02 3.936458587646484375e+01 3.194825363159179688e+01 -7.015370130538940430e-01 7.664694309234619141e+00 2.088947296142578125e+00 2.905694544315338135e-01
3.410000000000000000e+02 4.248382949829101562e+01 4.000045394897460938e+01 -7.774248719215393066e-01 7.725318908691406250e+00 2.084368228912353516e+00 7.921254634857177734e-02
3.420000000000000000e+02 4.733667373657226562e+01 -4.058708953857421875e+01 -6.884284615516662598e-01 7.853723526000976562e+00 2.149588584899902344e+00 -6.055348739027976990e-02
3.430000000000000000e+02 5.202217483520507812e+01 -3.711936950683593750e+01 -4.991821944713592529e-01 7.899456977844238281e+00 2.220082521438598633e+00 -1.670687943696975708e-01
3.440000000000000000e+02 5.249399948120117188e+01 -3.005394172668457031e+01 -3.536403179168701172e-01 7.863468647003173828e+00 2.252948522567749023e+00 -3.538182675838470459e-01
3.450000000000000000e+02 4.989988708496093750e+01 -2.592890930175781250e+01 -2.500492036342620850e-01 7.831158638000488281e+00 2.274332761764526367e+00 -4.551984369754791260e-01
3.460000000000000000e+02 5.210995101928710938e+01 -1.540473270416259766e+01 2.411290258169174194e-01 7.684561729431152344e+00 2.377707242965698242e+00 -4.518736600875854492e-01
3.470000000000000000e+02 5.003569412231445312e+01 -9.444126129150390625e+00 5.428069829940795898e-01 7.606887340545654297e+00 2.444908142089843750e+00 -3.401631712913513184e-01
3.480000000000000000e+02 4.704206848144531250e+01 -6.802104949951171875e+00 7.418262958526611328e-01 7.601408004760742188e+00 2.502970218658447266e+00 -2.715155780315399170e-01
3.490000000000000000e+02 4.764353942871093750e+01 1.024720573425292969e+01 4.743717312812805176e-01 7.670616626739501953e+00 2.443496465682983398e+00 4.045467972755432129e-01
3.500000000000000000e+02 4.846293640136718750e+01 1.588303470611572266e+01 1.929773539304733276e-01 7.721868038177490234e+00 2.374453783035278320e+00 4.800082147121429443e-01
3.510000000000000000e+02 5.199593734741210938e+01 2.809129524230957031e+01 -2.844299376010894775e-01 7.826518058776855469e+00 2.262626409530639648e+00 3.717780113220214844e-01
3.520000000000000000e+02 5.057728958129882812e+01 3.121964263916015625e+01 -4.020078480243682861e-01 7.839322090148925781e+00 2.231194257736206055e+00 3.164670169353485107e-01
3.530000000000000000e+02 4.765927124023437500e+01 3.991276931762695312e+01 -6.350625753402709961e-01 7.830171108245849609e+00 2.158532619476318359e+00 8.453334867954254150e-02
3.540000000000000000e+02 4.880788040161132812e+01 3.515124511718750000e+01 -5.392900109291076660e-01 7.834599018096923828e+00 2.188592672348022461e+00 2.138867825269699097e-01
3.550000000000000000e+02 6.210274887084960938e+01 -4.087595367431640625e+01 -2.500776052474975586e-01 7.921298027038574219e+00 2.301366090774536133e+00 -3.867890313267707825e-02
3.560000000000000000e+02 5.722292709350585938e+01 -4.082668304443359375e+01 -3.797116577625274658e-01 7.919715404510498047e+00 2.262001037597656250e+00 -4.744557663798332214e-02
3.570000000000000000e+02 5.578318786621093750e+01 -2.358153533935546875e+01 -9.095495939254760742e-02 7.792432785034179688e+00 2.310443401336669922e+00 -4.210206568241119385e-01
3.580000000000000000e+02 5.720763778686523438e+01 -1.781174278259277344e+01 9.312479943037033081e-02 7.710753917694091797e+00 2.341163635253906250e+00 -4.032265543937683105e-01
3.590000000000000000e+02 5.813618850708007812e+01 -1.102592754364013672e+01 2.688738107681274414e-01 7.620602607727050781e+00 2.366842985153198242e+00 -2.930513918399810791e-01
3.600000000000000000e+02 5.872397994995117188e+01 -4.647837162017822266e+00 3.548693060874938965e-01 7.567656517028808594e+00 2.376757860183715820e+00 -1.271151453256607056e-01
3.610000000000000000e+02 5.755775833129882812e+01 2.363116264343261719e+00 3.873851597309112549e-01 7.567883014678955078e+00 2.386580467224121094e+00 8.752889186143875122e-02
3.620000000000000000e+02 6.017818069458007812e+01 1.015156841278076172e+01 2.163004428148269653e-01 7.626036167144775391e+00 2.352700948715209961e+00 2.654965519905090332e-01
3.630000000000000000e+02 5.761500549316406250e+01 1.722719955444335938e+01 8.266623318195343018e-02 7.712259292602539062e+00 2.338477611541748047e+00 3.818616271018981934e-01
3.640000000000000000e+02 5.177266693115234375e+01 2.403875350952148438e+01 -1.494329422712326050e-01 7.795725822448730469e+00 2.293887853622436523e+00 4.326359331607818604e-01
3.650000000000000000e+02 5.741926956176757812e+01 3.204299163818359375e+01 -2.824907302856445312e-01 7.867064476013183594e+00 2.275372028350830078e+00 2.545745074748992920e-01
3.660000000000000000e+02 5.780830001831054688e+01 4.024312973022460938e+01 -3.356284499168395996e-01 7.897969245910644531e+00 2.268702268600463867e+00 5.772866308689117432e-02
3.670000000000000000e+02 5.274076461791992188e+01 4.025983047485351562e+01 -4.741573929786682129e-01 7.882279396057128906e+00 2.222436666488647461e+00 6.252277642488479614e-02
3.680000000000000000e+02 5.962343215942382812e+01 -3.057786178588867188e+01 -2.164147347211837769e-01 7.869047164916992188e+00 2.295789718627929688e+00 -2.813133001327514648e-01
3.690000000000000000e+02 6.367311859130859375e+01 -2.444745826721191406e+01 -6.300979852676391602e-02 7.796333312988281250e+00 2.319997072219848633e+00 -3.135349750518798828e-01
3.700000000000000000e+02 6.507046508789062500e+01 -1.809977912902832031e+01 4.241145774722099304e-02 7.704807281494140625e+00 2.324165582656860352e+00 -2.964820265769958496e-01
3.710000000000000000e+02 6.570175170898437500e+01 -1.030572986602783203e+01 1.333580315113067627e-01 7.606305599212646484e+00 2.321899175643920898e+00 -1.987256854772567749e-01
3.720000000000000000e+02 6.526721191406250000e+01 3.034075260162353516e+00 1.873575001955032349e-01 7.565085887908935547e+00 2.325732946395874023e+00 7.791166752576828003e-02
3.730000000000000000e+02 6.726803588867187500e+01 1.166007041931152344e+01 9.026127308607101440e-02 7.626179218292236328e+00 2.314932107925415039e+00 2.139692455530166626e-01
3.740000000000000000e+02 6.378984451293945312e+01 2.134698486328125000e+01 -1.662437245249748230e-02 7.757172584533691406e+00 2.322164535522460938e+00 3.142722547054290771e-01
3.750000000000000000e+02 6.265607833862304688e+01 2.804877853393554688e+01 -1.319175362586975098e-01 7.836527347564697266e+00 2.311383008956909180e+00 2.743838429450988770e-01
3.760000000000000000e+02 6.054432296752929688e+01 3.142151641845703125e+01 -2.142600715160369873e-01 7.865581512451171875e+00 2.295396566390991211e+00 2.419559210538864136e-01
3.770000000000000000e+02 6.283919906616210938e+01 4.049359893798828125e+01 -2.254189401865005493e-01 7.910267829895019531e+00 2.305454730987548828e+00 4.375459626317024231e-02
3.780000000000000000e+02 6.689705657958984375e+01 -4.087079620361328125e+01 -1.460737735033035278e-01 7.937021255493164062e+00 2.337284326553344727e+00 -3.031039983034133911e-02
3.790000000000000000e+02 7.143405914306640625e+01 -3.083058929443359375e+01 -4.698781296610832214e-02 7.894230842590332031e+00 2.354172945022583008e+00 -1.545613855123519897e-01
3.800000000000000000e+02 7.218079376220703125e+01 -2.559311294555664062e+01 -1.969997771084308624e-02 7.821660995483398438e+00 2.340588331222534180e+00 -1.805976778268814087e-01
3.810000000000000000e+02 7.254327392578125000e+01 -1.757425880432128906e+01 1.441556587815284729e-02 7.677306652069091797e+00 2.307516574859619141e+00 -1.793351471424102783e-01
3.820000000000000000e+02 7.133538055419921875e+01 -9.902471542358398438e+00 5.798981338739395142e-02 7.570516586303710938e+00 2.288551807403564453e+00 -1.375952363014221191e-01
3.830000000000000000e+02 6.980784606933593750e+01 -4.571528434753417969e+00 9.633881598711013794e-02 7.541203022003173828e+00 2.291262626647949219e+00 -7.179226726293563843e-02
3.840000000000000000e+02 7.255986022949218750e+01 4.155076980590820312e+00 5.489391833543777466e-02 7.510975360870361328e+00 2.269760847091674805e+00 6.242566928267478943e-02
3.850000000000000000e+02 7.239338684082031250e+01 1.097123432159423828e+01 3.945962339639663696e-02 7.582932949066162109e+00 2.286717891693115234e+00 1.426250785589218140e-01
3.860000000000000000e+02 7.193616485595703125e+01 1.860191535949707031e+01 7.190479431301355362e-03 7.710697650909423828e+00 2.315366506576538086e+00 1.932737678289413452e-01
3.870000000000000000e+02 7.221235656738281250e+01 2.656471061706542969e+01 -2.275913022458553314e-02 7.844001293182373047e+00 2.346372604370117188e+00 1.682485938072204590e-01
3.880000000000000000e+02 6.890505218505859375e+01 2.957933616638183594e+01 -6.521020084619522095e-02 7.868462562561035156e+00 2.340975761413574219e+00 1.899335086345672607e-01
3.890000000000000000e+02 7.184615325927734375e+01 3.777012252807617188e+01 -5.726409703493118286e-02 7.974020957946777344e+00 2.375027179718017578e+00 6.050627678632736206e-02
3.900000000000000000e+02 6.810653686523437500e+01 3.780828094482421875e+01 -1.158709228038787842e-01 7.932293891906738281e+00 2.344926834106445312e+00 7.631628960371017456e-02
3.910000000000000000e+02 7.790401458740234375e+01 -4.161954498291015625e+01 -2.340997307328507304e-04 8.120749473571777344e+00 2.436154603958129883e+00 -7.027864194242283702e-05
3.920000000000000000e+02 7.768228149414062500e+01 -3.674726486206054688e+01 -6.310680881142616272e-03 8.077571868896484375e+00 2.421378135681152344e+00 -2.301857061684131622e-02
3.930000000000000000e+02 7.790805816650390625e+01 -3.036718368530273438e+01 -5.588302388787269592e-03 7.976612091064453125e+00 2.391307115554809570e+00 -4.983589425683021545e-02
3.940000000000000000e+02 7.804170989990234375e+01 -2.347400474548339844e+01 -1.819292519940063357e-04 7.804127693176269531e+00 2.341183662414550781e+00 -6.020099297165870667e-02
3.950000000000000000e+02 7.804063415527343750e+01 -1.660605430603027344e+01 1.475302502512931824e-03 7.614221572875976562e+00 2.284708976745605469e+00 -5.734703317284584045e-02
3.960000000000000000e+02 7.804735565185546875e+01 -9.692734718322753906e+00 4.033670760691165924e-03 7.454944133758544922e+00 2.237693309783935547e+00 -3.949121385812759399e-02
3.970000000000000000e+02 7.802404022216796875e+01 -2.734063386917114258e+00 5.145216826349496841e-03 7.372913837432861328e+00 2.213417768478393555e+00 -1.069262623786926270e-02
3.980000000000000000e+02 7.800892639160156250e+01 4.264158725738525391e+00 5.034198053181171417e-03 7.390446186065673828e+00 2.218644142150878906e+00 2.136179991066455841e-02
3.990000000000000000e+02 7.798873138427734375e+01 1.122231292724609375e+01 3.495725803077220917e-03 7.502296447753906250e+00 2.251737594604492188e+00 4.805573448538780212e-02
4.000000000000000000e+02 7.789669799804687500e+01 1.965928459167480469e+01 3.003155288752168417e-04 7.716907978057861328e+00 2.315162420272827148e+00 6.421212106943130493e-02
4.010000000000000000e+02 7.646986389160156250e+01 2.256308937072753906e+01 -2.330220537260174751e-03 7.791332721710205078e+00 2.336700677871704102e+00 9.965030848979949951e-02
4.020000000000000000e+02 7.917013549804687500e+01 3.228297424316406250e+01 -1.409460091963410378e-03 8.054223060607910156e+00 2.415843963623046875e+00 1.742422580718994141e-02
4.030000000000000000e+02 7.658996582031250000e+01 3.815089416503906250e+01 -2.000796236097812653e-02 8.061879158020019531e+00 2.412561178207397461e+00 2.495888248085975647e-02
4.040000000000000000e+02 7.925196075439453125e+01 3.748259735107421875e+01 -3.955481515731662512e-04 8.134598731994628906e+00 2.440260887145996094e+00 4.421940073370933533e-03
4.050000000000000000e+02 1.397672939300537109e+01 3.003383636474609375e+01 -3.579562902450561523e-01 3.639033079147338867e+00 9.843230247497558594e-01 -7.501838207244873047e-01
4.060000000000000000e+02 1.713398361206054688e+01 2.173667907714843750e+01 -1.289567798376083374e-01 5.360956668853759766e+00 1.569599986076354980e+00 -1.259604096412658691e+00
4.070000000000000000e+02 1.302555656433105469e+01 1.744134712219238281e+01 1.974046349525451660e+00 2.471953392028808594e+00 1.333799839019775391e+00 -2.118967294692993164e+00
4.080000000000000000e+02 1.500544261932373047e+01 1.537263393402099609e+01 2.643927097320556641e+00 5.338357448577880859e+00 2.394685268402099609e+00 -3.441942930221557617e+00
4.090000000000000000e+02 1.794143867492675781e+01 1.558195209503173828e+01 1.129908680915832520e+00 7.153985023498535156e+00 2.485168218612670898e+00 -1.944455981254577637e+00
4.100000000000000000e+02 1.582251262664794922e+01 1.423225116729736328e+01 2.411607265472412109e+00 7.101580619812011719e+00 2.853956460952758789e+00 -3.693031787872314453e+00
4.110000000000000000e+02 1.818572044372558594e+01 9.148394584655761719e+00 1.140565872192382812e+00 1.160533523559570312e+01 3.823770284652709961e+00 -2.772843122482299805e+00
4.120000000000000000e+02 1.867202949523925781e+01 6.352731704711914062e+00 5.071729421615600586e-01 1.185248851776123047e+01 3.707898378372192383e+00 -1.827740311622619629e+00
4.130000000000000000e+02 1.889038658142089844e+01 2.339482545852661133e+00 1.595252007246017456e-01 1.123774433135986328e+01 3.419180870056152344e+00 -3.626921772956848145e-01
4.140000000000000000e+02 1.900234985351562500e+01 -7.652861475944519043e-01 -4.069499671459197998e-02 9.045833587646484375e+00 2.701541423797607422e+00 -5.256420373916625977e-01
4.150000000000000000e+02 1.890991401672363281e+01 -1.940865278244018555e+00 -1.113844662904739380e-01 7.535767555236816406e+00 2.227314949035644531e+00 -7.045019865036010742e-01
4.160000000000000000e+02 1.291185855865478516e+01 4.076821136474609375e+01 -4.968364834785461426e-01 3.444932222366333008e+00 8.844287395477294922e-01 -1.105291694402694702e-01
4.170000000000000000e+02 8.206917762756347656e+00 4.106725692749023438e+01 -2.259282767772674561e-01 2.106102943420410156e+00 5.640524029731750488e-01 -5.587522312998771667e-02
4.180000000000000000e+02 6.701055049896240234e+00 3.248862457275390625e+01 -8.511709421873092651e-02 1.618209600448608398e+00 4.599277675151824951e-01 -3.981261253356933594e-01
4.190000000000000000e+02 1.217699527740478516e+01 2.108616256713867188e+01 4.910028278827667236e-01 2.456325292587280273e+00 8.841984868049621582e-01 -1.504295110702514648e+00
4.200000000000000000e+02 1.024416065216064453e+01 1.905218696594238281e+01 6.705961227416992188e-01 6.876794695854187012e-01 4.074826836585998535e-01 -8.273978829383850098e-01
4.210000000000000000e+02 1.180855464935302734e+01 1.841951942443847656e+01 1.371829271316528320e+00 1.487706661224365234e+00 8.578608036041259766e-01 -1.378566741943359375e+00
4.220000000000000000e+02 2.020168066024780273e+00 4.164967727661132812e+01 -1.085263118147850037e-01 7.243390083312988281e-01 1.847438067197799683e-01 -3.076790645718574524e-02
4.230000000000000000e+02 4.616152286529541016e+00 3.787589645385742188e+01 -3.778020292520523071e-02 1.147890925407409668e+00 3.330332040786743164e-01 -6.474936008453369141e-02
4.240000000000000000e+02 2.168612003326416016e+00 3.575391769409179688e+01 1.038009067997336388e-03 6.213521361351013184e-01 1.867170482873916626e-01 -1.357680559158325195e-01
4.250000000000000000e+02 2.318647861480712891e+00 2.880072975158691406e+01 9.341044351458549500e-03 2.477303743362426758e-01 7.712142914533615112e-02 -1.479466259479522705e-01
4.260000000000000000e+02 1.837488055229187012e+00 2.306433868408203125e+01 3.608244284987449646e-02 -9.981235861778259277e-02 -1.911897398531436920e-02 1.882690191268920898e-02
4.270000000000000000e+02 4.494060039520263672e+00 1.549421596527099609e+01 -5.301931872963905334e-02 3.346575424075126648e-02 -5.866069346666336060e-03 4.235693719238042831e-03
4.280000000000000000e+02 5.164130330085754395e-01 6.429057121276855469e+00 -1.857901224866509438e-03 1.733890152536332607e-03 -3.720331369549967349e-05 1.647146273171529174e-04
4.290000000000000000e+02 6.534224987030029297e+00 1.898530960083007812e+00 8.316060411743819714e-04 -3.945183707401156425e-04 1.311263040406629443e-04 -6.745170103386044502e-04
4.300000000000000000e+02 9.607425689697265625e+00 1.885940313339233398e+00 6.973334820941090584e-04 -3.257758799009025097e-04 1.114672850235365331e-04 -6.234774482436478138e-04
4.310000000000000000e+02 1.036792278289794922e+01 1.876165032386779785e+00 3.191494033671915531e-05 2.221871545771136880e-04 7.623062992934137583e-05 1.116715953685343266e-03
4.320000000000000000e+02 1.393656539916992188e+01 1.815304636955261230e+00 7.410924445139244199e-05 4.180293180979788303e-04 1.476415636716410518e-04 1.400503533659502864e-04
4.330000000000000000e+02 1.453104496002197266e+01 6.201693534851074219e+00 5.978184635750949383e-04 6.671185838058590889e-04 3.794811200350522995e-04 5.513628129847347736e-04
4.340000000000000000e+02 1.195286846160888672e+01 9.389387130737304688e+00 4.403256461955606937e-04 5.329191684722900391e-03 1.730855205096304417e-03 2.394757466390728951e-03
4.350000000000000000e+02 1.135004615783691406e+01 1.228041553497314453e+01 -3.438777755945920944e-03 -3.140080953016877174e-03 -1.973657635971903801e-03 -6.170458160340785980e-03
4.360000000000000000e+02 1.220157051086425781e+01 1.117582130432128906e+01 3.494615200906991959e-03 5.330735351890325546e-03 2.647605026140809059e-03 2.335591940209269524e-03
4.370000000000000000e+02 9.444299697875976562e+00 1.439612007141113281e+01 -5.042820237576961517e-03 -1.011567283421754837e-02 -4.547548014670610428e-03 -1.515704300254583359e-02
4.380000000000000000e+02 7.802165031433105469e+00 1.669651222229003906e+01 -4.245398193597793579e-02 -1.340725570917129517e-01 -5.295796319842338562e-02 -7.671363651752471924e-02
4.390000000000000000e+02 1.913010478019714355e+00 2.165373039245605469e+01 2.969687990844249725e-02 -9.590475261211395264e-02 -1.986236311495304108e-02 5.826202407479286194e-02
4.400000000000000000e+02 1.395304107666015625e+01 2.753202676773071289e+00 3.470661467872560024e-04 -7.088461425155401230e-04 -1.085340045392513275e-04 3.768445458263158798e-04
4.410000000000000000e+02 2.070609855651855469e+01 -8.242831230163574219e+00 1.153643846511840820e+00 1.343213844299316406e+01 4.375734806060791016e+00 2.669836997985839844e+00
4.420000000000000000e+02 2.012079238891601562e+01 -7.751577377319335938e+00 1.460379123687744141e+00 1.290452575683593750e+01 4.309471607208251953e+00 4.403430938720703125e+00
4.430000000000000000e+02 2.779246139526367188e+01 -1.098921012878417969e+01 1.219823002815246582e+00 8.827948570251464844e+00 3.014331340789794922e+00 -4.941275715827941895e-01
4.440000000000000000e+02 3.484978866577148438e+01 -6.877510547637939453e+00 1.452960729598999023e+00 7.998461246490478516e+00 2.835426568984985352e+00 -2.707749605178833008e-01
4.450000000000000000e+02 4.273462295532226562e+01 -8.928377151489257812e+00 8.400478959083557129e-01 7.675281524658203125e+00 2.554598808288574219e+00 -3.960466086864471436e-01
4.460000000000000000e+02 5.206964874267578125e+01 -1.096732521057128906e+01 4.232139289379119873e-01 7.621933937072753906e+00 2.413544416427612305e+00 -3.706664144992828369e-01
4.470000000000000000e+02 6.081398773193359375e+01 -1.202763462066650391e+01 1.969211250543594360e-01 7.631661415100097656e+00 2.348574638366699219e+00 -2.861450910568237305e-01
4.480000000000000000e+02 6.571241760253906250e+01 -1.164123916625976562e+01 1.271939426660537720e-01 7.617918014526367188e+00 2.323533535003662109e+00 -2.231909930706024170e-01
4.490000000000000000e+02 7.279751586914062500e+01 -1.246380329132080078e+01 3.329629823565483093e-02 7.590203762054443359e+00 2.287050008773803711e+00 -1.442555040121078491e-01
4.500000000000000000e+02 7.935118865966796875e+01 -1.251231002807617188e+01 5.092029459774494171e-04 7.483508586883544922e+00 2.245205402374267578e+00 -1.726965047419071198e-02
4.510000000000000000e+02 7.934616851806640625e+01 -5.554297447204589844e+00 1.006180304102599621e-03 7.350521087646484375e+00 2.205458164215087891e+00 -8.277790620923042297e-03
4.520000000000000000e+02 7.267890930175781250e+01 -5.689423084259033203e+00 5.191529542207717896e-02 7.514176845550537109e+00 2.269827604293823242e+00 -7.126711308956146240e-02
4.530000000000000000e+02 6.488780975341796875e+01 -5.411617279052734375e+00 1.887435168027877808e-01 7.571212768554687500e+00 2.327986955642700195e+00 -1.139057353138923645e-01
4.540000000000000000e+02 5.981985855102539062e+01 -3.127370357513427734e+00 3.288564980030059814e-01 7.564433574676513672e+00 2.367986917495727539e+00 -7.278193533420562744e-02
4.550000000000000000e+02 5.397452926635742188e+01 -2.383501052856445312e+00 5.168855786323547363e-01 7.560540676116943359e+00 2.423227787017822266e+00 -5.998212471604347229e-02
4.560000000000000000e+02 4.197021484375000000e+01 7.410699129104614258e-02 1.051285147666931152e+00 7.705678462982177734e+00 2.627089023590087891e+00 7.769479602575302124e-02
4.570000000000000000e+02 3.608588409423828125e+01 -7.375568747520446777e-01 1.357275366783142090e+00 8.029192924499511719e+00 2.815940618515014648e+00 1.136451512575149536e-01
4.580000000000000000e+02 2.144011688232421875e+01 -2.448306846618652344e+01 -6.280300617218017578e-01 6.063236236572265625e+00 1.630561828613281250e+00 7.338811159133911133e-01
4.590000000000000000e+02 1.588944149017333984e+01 -2.344793701171875000e+01 -2.024088203907012939e-01 4.359994888305664062e+00 1.247275829315185547e+00 1.176729202270507812e+00
4.600000000000000000e+02 2.425637817382812500e+01 -1.857004928588867188e+01 -3.733568787574768066e-01 7.586226463317871094e+00 2.163860797882080078e+00 4.821380078792572021e-01
4.610000000000000000e+02 3.351801681518554688e+01 -1.989385986328125000e+01 -2.004186213016510010e-01 7.881856441497802734e+00 2.304431200027465820e+00 -4.770892858505249023e-01
4.620000000000000000e+02 4.390620040893554688e+01 -1.573760890960693359e+01 3.227058053016662598e-01 7.749226093292236328e+00 2.421579599380493164e+00 -5.853604078292846680e-01
4.630000000000000000e+02 5.346472930908203125e+01 -1.824180984497070312e+01 1.088164225220680237e-01 7.724636554718017578e+00 2.350035905838012695e+00 -4.672157764434814453e-01
4.640000000000000000e+02 5.932384872436523438e+01 -1.777102851867675781e+01 7.996501028537750244e-02 7.707322597503662109e+00 2.336186408996582031e+00 -3.745288848876953125e-01
4.650000000000000000e+02 7.229043579101562500e+01 -1.902324867248535156e+01 8.413042873144149780e-03 7.705625534057617188e+00 2.314211606979370117e+00 -1.881852895021438599e-01
4.660000000000000000e+02 7.934934234619140625e+01 -2.223016929626464844e+01 2.273858408443629742e-04 7.772522926330566406e+00 2.331825017929077148e+00 -2.175152860581874847e-02
4.670000000000000000e+02 5.337662696838378906e+00 -1.557634639739990234e+01 -6.702093034982681274e-02 3.467319905757904053e-02 -9.704318828880786896e-03 1.639048382639884949e-02
4.680000000000000000e+02 1.834900021553039551e+00 -1.745475959777832031e+01 -2.087037824094295502e-02 -2.681523188948631287e-02 -1.430568285286426544e-02 -6.322783976793289185e-02
4.690000000000000000e+02 5.497696399688720703e-01 -1.068575191497802734e+01 -1.972486265003681183e-03 3.295208793133497238e-03 3.968167584389448166e-04 1.900691859191283584e-04
4.700000000000000000e+02 2.466932868957519531e+01 -3.436947631835937500e+01 -9.457396864891052246e-01 6.080148696899414062e+00 1.540322661399841309e+00 1.952663511037826538e-01
4.710000000000000000e+02 1.572887897491455078e+01 -3.229004287719726562e+01 -5.318865776062011719e-01 4.031728267669677734e+00 1.049952626228332520e+00 5.537438988685607910e-01
4.720000000000000000e+02 2.803319358825683594e+01 -2.347844886779785156e+01 -6.436186432838439941e-01 7.421688556671142578e+00 2.033421039581298828e+00 3.895312920212745667e-02
4.730000000000000000e+02 3.745527267456054688e+01 -2.668718910217285156e+01 -5.950304269790649414e-01 7.726356029510498047e+00 2.139397621154785156e+00 -4.038883149623870850e-01
4.740000000000000000e+02 4.582447052001953125e+01 -2.757872009277343750e+01 -4.029006063938140869e-01 7.838562011718750000e+00 2.230698347091674805e+00 -4.457243084907531738e-01
4.750000000000000000e+02 5.916504669189453125e+01 -2.717572784423828125e+01 -1.561096310615539551e-01 7.831622123718261719e+00 2.302653789520263672e+00 -3.415599763393402100e-01
4.760000000000000000e+02 7.303018188476562500e+01 -2.436980247497558594e+01 -1.203111000359058380e-02 7.805213451385498047e+00 2.337954759597778320e+00 -1.682292371988296509e-01
4.770000000000000000e+02 7.933312988281250000e+01 -2.640176391601562500e+01 -9.018592536449432373e-04 7.901011466979980469e+00 2.370033025741577148e+00 -2.060089074075222015e-02
4.780000000000000000e+02 7.324996590614318848e-01 -3.046878814697265625e+01 -2.769004087895154953e-03 1.087074875831604004e-01 3.178154304623603821e-02 5.297855287790298462e-02
4.790000000000000000e+02 7.840997219085693359e+00 -3.302954101562500000e+01 -1.465932130813598633e-01 1.979015350341796875e+00 5.497266650199890137e-01 3.838506937026977539e-01
4.800000000000000000e+02 2.839603233337402344e+01 -3.454850387573242188e+01 -1.010202050209045410e+00 6.723922252655029297e+00 1.714116096496582031e+00 6.376153230667114258e-02
4.810000000000000000e+02 4.392453002929687500e+01 -3.060234260559082031e+01 -5.907358527183532715e-01 7.813671112060546875e+00 2.166880607604980469e+00 -3.602868318557739258e-01
4.820000000000000000e+02 5.210223388671875000e+01 -3.354767227172851562e+01 -4.464173913002014160e-01 7.883917331695556641e+00 2.231250047683715820e+00 -2.625956535339355469e-01
4.830000000000000000e+02 6.040586853027343750e+01 -3.403843307495117188e+01 -2.482359707355499268e-01 7.894567966461181641e+00 2.293899536132812500e+00 -2.023363709449768066e-01
4.840000000000000000e+02 6.509296417236328125e+01 -2.956107330322265625e+01 -1.189409419894218445e-01 7.858233451843261719e+00 2.321787834167480469e+00 -2.429246306419372559e-01
4.850000000000000000e+02 7.447194671630859375e+01 -3.403252792358398438e+01 -3.082927688956260681e-02 7.978583335876464844e+00 2.384326219558715820e+00 -8.232820779085159302e-02
4.860000000000000000e+02 7.930028533935546875e+01 -3.332846450805664062e+01 -7.659956463612616062e-04 8.069157600402832031e+00 2.420517444610595703e+00 -1.204188447445631027e-02
4.870000000000000000e+02 7.933494567871093750e+01 2.816331148147583008e+00 1.112189958803355694e-03 7.331734657287597656e+00 2.199854135513305664e+00 5.415237974375486374e-03
4.880000000000000000e+02 7.262677001953125000e+01 1.335986971855163574e+00 5.682989582419395447e-02 7.497577190399169922e+00 2.266322135925292969e+00 2.375861257314682007e-02
4.890000000000000000e+02 6.790878295898437500e+01 4.934309005737304688e+00 1.245010569691658020e-01 7.562668800354003906e+00 2.306150913238525391e+00 1.032606363296508789e-01
4.900000000000000000e+02 5.238486480712890625e+01 1.618551015853881836e+00 5.637472867965698242e-01 7.568236827850341797e+00 2.439595222473144531e+00 9.070943295955657959e-02
4.910000000000000000e+02 3.531033325195312500e+01 4.333109855651855469e+00 1.110168457031250000e+00 8.126446723937988281e+00 2.770984649658203125e+00 2.661525309085845947e-01
4.920000000000000000e+02 2.624983215332031250e+01 2.063350677490234375e+00 8.623824119567871094e-01 9.907133102416992188e+00 3.230854511260986328e+00 -1.649560183286666870e-01
4.930000000000000000e+02 7.933778381347656250e+01 8.390770912170410156e+00 9.096486028283834457e-04 7.408607482910156250e+00 2.222855091094970703e+00 1.375833246856927872e-02
4.940000000000000000e+02 7.243952941894531250e+01 8.254029273986816406e+00 4.682760685682296753e-02 7.548749923706054688e+00 2.278673171997070312e+00 1.141468584537506104e-01
4.950000000000000000e+02 6.165993118286132812e+01 8.752662658691406250e+00 2.091714888811111450e-01 7.610534191131591797e+00 2.345911741256713867e+00 2.238755822181701660e-01
4.960000000000000000e+02 5.415625381469726562e+01 1.040701770782470703e+01 3.272200226783752441e-01 7.636332988739013672e+00 2.389065980911254883e+00 3.345723748207092285e-01
4.970000000000000000e+02 4.116092681884765625e+01 8.628958702087402344e+00 7.149288654327392578e-01 7.776944637298583984e+00 2.547562122344970703e+00 4.066587090492248535e-01
4.980000000000000000e+02 3.707621383666992188e+01 1.110882568359375000e+01 6.455383300781250000e-01 7.915073394775390625e+00 2.568183422088623047e+00 4.240793883800506592e-01
4.990000000000000000e+02 2.013717460632324219e+01 1.186765193939208984e+01 1.264520406723022461e+00 9.009567260742187500e+00 3.082226276397705078e+00 -1.663030862808227539e+00
5.000000000000000000e+02 2.613331031799316406e+01 1.224852943420410156e+01 8.283237814903259277e-01 8.348948478698730469e+00 2.753181695938110352e+00 -2.401630282402038574e-01
5.010000000000000000e+02 1.884415435791015625e+01 3.625043869018554688e+00 2.262542545795440674e-01 1.197576522827148438e+01 3.660605907440185547e+00 -8.261607885360717773e-01
5.020000000000000000e+02 7.930405426025390625e+01 1.676564216613769531e+01 3.903707256540656090e-04 7.624603748321533203e+00 2.287498235702514648e+00 2.222217805683612823e-02
5.030000000000000000e+02 7.203023529052734375e+01 1.691847229003906250e+01 1.533160544931888580e-02 7.680731773376464844e+00 2.308819055557250977e+00 1.868765801191329956e-01
5.040000000000000000e+02 6.479009246826171875e+01 1.748343467712402344e+01 4.006481170654296875e-02 7.707264900207519531e+00 2.324198961257934570e+00 2.940257787704467773e-01
5.050000000000000000e+02 5.724772644042968750e+01 1.362862777709960938e+01 1.840207278728485107e-01 7.668508529663085938e+00 2.355758905410766602e+00 3.531220853328704834e-01
5.060000000000000000e+02 5.047856521606445312e+01 1.402799606323242188e+01 2.576476037502288818e-01 7.692602634429931641e+00 2.385075092315673828e+00 4.395014047622680664e-01
5.070000000000000000e+02 4.478206634521484375e+01 1.552101516723632812e+01 2.397964000701904297e-01 7.742089271545410156e+00 2.394565820693969727e+00 5.082000494003295898e-01
5.080000000000000000e+02 3.967497253417968750e+01 1.899613189697265625e+01 2.864098176360130310e-02 7.781003475189208984e+00 2.342893362045288086e+00 5.119306445121765137e-01
5.090000000000000000e+02 2.115214920043945312e+01 1.601554489135742188e+01 5.587423443794250488e-01 7.668807029724121094e+00 2.468264818191528320e+00 -9.066301584243774414e-01
5.100000000000000000e+02 2.892469406127929688e+01 1.447759151458740234e+01 4.666571915149688721e-01 8.028198242187500000e+00 2.548456668853759766e+00 1.326575279235839844e-01
5.110000000000000000e+02 7.928486633300781250e+01 2.374973487854003906e+01 8.123938459903001785e-05 7.839508533477783203e+00 2.351876974105834961e+00 2.280053310096263885e-02
5.120000000000000000e+02 7.254773712158203125e+01 2.195300674438476562e+01 -6.635515019297599792e-03 7.767944335937500000e+00 2.328392744064331055e+00 1.827584058046340942e-01
5.130000000000000000e+02 6.613759613037109375e+01 2.795479583740234375e+01 -8.218558132648468018e-02 7.841624736785888672e+00 2.327831745147705078e+00 2.351926416158676147e-01
5.140000000000000000e+02 5.375817489624023438e+01 2.594772720336914062e+01 -1.899377852678298950e-01 7.811564445495605469e+00 2.286488056182861328e+00 3.881588578224182129e-01
5.150000000000000000e+02 4.971506118774414062e+01 2.649577522277832031e+01 -2.728178203105926514e-01 7.812896728515625000e+00 2.262023687362670898e+00 4.059272110462188721e-01
5.160000000000000000e+02 4.124493789672851562e+01 2.161454963684082031e+01 -1.417204737663269043e-01 7.760926246643066406e+00 2.285761833190917969e+00 5.117598772048950195e-01
5.170000000000000000e+02 3.291565322875976562e+01 2.261020088195800781e+01 -3.314454853534698486e-01 7.631259918212890625e+00 2.189944267272949219e+00 3.408363461494445801e-01
5.180000000000000000e+02 2.040525817871093750e+01 2.511348724365234375e+01 -5.770785808563232422e-01 6.032301425933837891e+00 1.636566758155822754e+00 -6.576213836669921875e-01
5.190000000000000000e+02 2.656213569641113281e+01 2.231401443481445312e+01 -3.961922824382781982e-01 7.368702411651611328e+00 2.091753005981445312e+00 -3.858136013150215149e-02
5.200000000000000000e+02 1.924766302108764648e+00 2.020816040039062500e+01 1.318287104368209839e-02 -7.774570584297180176e-02 -1.936885155737400055e-02 9.281685948371887207e-02
5.210000000000000000e+02 7.914344787597656250e+01 2.943445587158203125e+01 -2.077666111290454865e-03 7.995730400085449219e+00 2.398095846176147461e+00 2.134755253791809082e-02
5.220000000000000000e+02 7.041918182373046875e+01 3.031761360168457031e+01 -5.473204702138900757e-02 7.886107921600341797e+00 2.349412679672241211e+00 1.652704328298568726e-01
5.230000000000000000e+02 6.430723571777343750e+01 3.248913574218750000e+01 -1.433912068605422974e-01 7.880400180816650391e+00 2.321102619171142578e+00 1.927280277013778687e-01
5.240000000000000000e+02 5.742937088012695312e+01 2.840733146667480469e+01 -2.091922461986541748e-01 7.834368228912353516e+00 2.287552833557128906e+00 3.237494826316833496e-01
5.250000000000000000e+02 3.636493682861328125e+01 3.338971328735351562e+01 -8.276693820953369141e-01 7.492412567138671875e+00 1.999422907829284668e+00 2.022132426500320435e-01
5.260000000000000000e+02 2.486020088195800781e+01 3.379542541503906250e+01 -9.327725768089294434e-01 6.266522884368896484e+00 1.600125193595886230e+00 -1.491911560297012329e-01
5.270000000000000000e+02 1.462180614471435547e+01 2.402386665344238281e+01 -1.016765236854553223e-01 4.024420738220214844e+00 1.176823258399963379e+00 -1.273279309272766113e+00
5.280000000000000000e+02 8.829655647277832031e+00 2.498024559020996094e+01 2.396511286497116089e-01 1.596743941307067871e+00 5.509185194969177246e-01 -7.745195627212524414e-01
5.290000000000000000e+02 1.821356582641601562e+01 3.249570083618164062e+01 -7.052660584449768066e-01 4.966130256652832031e+00 1.278259158134460449e+00 -4.782685041427612305e-01
5.300000000000000000e+02 2.272277832031250000e+00 3.173231887817382812e+01 -6.873432546854019165e-03 4.041503667831420898e-01 1.191830784082412720e-01 -1.344759613275527954e-01
5.310000000000000000e+02 1.619559049606323242e+00 9.194706916809082031e+00 2.354625612497329712e-03 1.590132131241261959e-03 1.183427288196980953e-03 -2.453690161928534508e-03
5.320000000000000000e+02 1.971606063842773438e+01 -7.653400897979736328e+00 2.184777498245239258e+00 9.853993415832519531e+00 3.611631155014038086e+00 5.941126823425292969e+00
5.330000000000000000e+02 1.720349693298339844e+01 -9.504626274108886719e+00 1.547614455223083496e+00 4.163238525390625000e+00 1.713255882263183594e+00 2.698416233062744141e+00
5.340000000000000000e+02 1.416590595245361328e+01 -1.391787052154541016e+01 1.836077928543090820e+00 3.451216459274291992e+00 1.586188316345214844e+00 2.406359195709228516e+00
5.350000000000000000e+02 7.516350269317626953e+00 -1.383896160125732422e+01 -3.459045430645346642e-03 5.612250883132219315e-03 6.459617288783192635e-04 4.105618689209222794e-03
5.360000000000000000e+02 1.131500148773193359e+01 -8.134566307067871094e+00 3.911943174898624420e-03 1.514275791123509407e-03 1.627865713089704514e-03 -1.862697419710457325e-03
5.370000000000000000e+02 1.009826564788818359e+01 -3.129043102264404297e+00 -3.796066739596426487e-04 2.561035100370645523e-03 6.544285570271313190e-04 -6.774484645575284958e-04
5.380000000000000000e+02 1.320675373077392578e+01 -1.964703798294067383e+00 3.534136048983782530e-04 5.015645874664187431e-04 2.564934839028865099e-04 1.585055433679372072e-04
5.390000000000000000e+02 1.491057872772216797e+01 -2.294550895690917969e+00 -5.987186450511217117e-04 -2.980658027809113264e-04 -2.690353139769285917e-04 2.389962319284677505e-04
5.400000000000000000e+02 1.430324363708496094e+01 -2.143062591552734375e+00 3.054021799471229315e-04 5.144349997863173485e-04 2.459511742927134037e-04 -2.798555942717939615e-04
5.410000000000000000e+02 1.374949645996093750e+01 -1.998966336250305176e+00 -1.012655338854528964e-04 -6.797197856940329075e-04 -2.342955995118245482e-04 2.370828442508354783e-04
5.420000000000000000e+02 1.178920650482177734e+01 -1.976346254348754883e+00 1.084247371181845665e-03 3.407315816730260849e-04 4.274936800356954336e-04 -4.933501477353274822e-04
5.430000000000000000e+02 1.030916309356689453e+01 -1.852962017059326172e+00 4.617361701093614101e-04 1.297568553127348423e-03 5.277913878671824932e-04 -7.116547785699367523e-04
5.440000000000000000e+02 9.571565628051757812e+00 -1.820242285728454590e+00 -2.457856026012450457e-04 -1.320860697887837887e-03 -4.699938872363418341e-04 3.015663824044167995e-04
5.450000000000000000e+02 8.824437141418457031e+00 -1.820349574089050293e+00 4.369113594293594360e-04 1.290914020501077175e-03 5.183476023375988007e-04 -1.919571368489414454e-04
5.460000000000000000e+02 7.319656848907470703e+00 -1.847585797309875488e+00 5.819161306135356426e-04 9.531425312161445618e-04 4.605175927281379700e-04 1.595338253537192941e-04
5.470000000000000000e+02 5.799798011779785156e+00 -1.880087971687316895e+00 3.963413764722645283e-04 7.664049626328051090e-04 3.488239017315208912e-04 3.945809730794280767e-04
5.480000000000000000e+02 3.516929388046264648e+00 -1.980194926261901855e+00 -4.728342173621058464e-04 -1.030624553095549345e-04 -1.727689959807321429e-04 -2.431367611279711127e-04
5.490000000000000000e+02 5.038919448852539062e+00 -1.902366876602172852e+00 1.890086969069670886e-05 -7.160635432228446007e-04 -2.091488131554797292e-04 -3.097181324847042561e-04
5.500000000000000000e+02 4.433679103851318359e+00 -2.790542602539062500e+00 -3.683177346829324961e-04 -6.067184149287641048e-04 -2.925108419731259346e-04 -4.750191292259842157e-04
5.510000000000000000e+02 2.750841379165649414e+00 -2.034753084182739258e+00 9.043280151672661304e-04 2.598650826257653534e-05 2.790943544823676348e-04 2.839467197190970182e-04
5.520000000000000000e+02 1.976613998413085938e+00 -2.079463720321655273e+00 -6.854533567093312740e-04 -5.206370406085625291e-05 -2.212551189586520195e-04 2.987045736517757177e-04
5.530000000000000000e+02 5.000081062316894531e-01 -3.609330654144287109e+00 1.163927372545003891e-03 1.123153415392152965e-04 3.828728222288191319e-04 1.054627864505164325e-04
5.540000000000000000e+02 2.062978267669677734e+00 -4.159354782104492188e+01 -1.045976802706718445e-01 8.622307777404785156e-01 2.272899299860000610e-01 2.963428199291229248e-02
5.550000000000000000e+02 6.512008666992187500e+00 -3.711928176879882812e+01 -1.256279945373535156e-01 1.787408709526062012e+00 4.985342025756835938e-01 1.876872330904006958e-01
5.560000000000000000e+02 1.047972321510314941e+00 -3.856835937500000000e+01 1.489462796598672867e-03 7.160747051239013672e-01 2.152692526578903198e-01 6.505307555198669434e-02
5.570000000000000000e+02 5.735098719596862793e-01 -3.473769760131835938e+01 -1.318736840039491653e-02 3.916822671890258789e-01 1.135484725236892700e-01 3.648431226611137390e-02
5.580000000000000000e+02 6.958360075950622559e-01 -3.334710311889648438e+01 7.233216892927885056e-04 3.062554597854614258e-01 9.209363162517547607e-02 4.747582226991653442e-02
5.590000000000000000e+02 7.240834832191467285e-01 -2.904029464721679688e+01 1.832039852160960436e-04 4.350197035819292068e-03 1.360020367428660393e-03 5.540824681520462036e-02
5.600000000000000000e+02 6.980302333831787109e-01 -2.761398506164550781e+01 8.704286068677902222e-03 -9.744245558977127075e-02 -2.662145160138607025e-02 4.702854529023170471e-02
5.610000000000000000e+02 6.716791987419128418e-01 -2.619444847106933594e+01 -1.320396433584392071e-03 -1.864130347967147827e-01 -5.632003024220466614e-02 3.853942453861236572e-02
5.620000000000000000e+02 6.207035183906555176e-01 -2.196376037597656250e+01 1.115809567272663116e-02 -2.853778004646301270e-01 -8.226591348648071289e-02 -9.107935242354869843e-03
5.630000000000000000e+02 1.857776045799255371e+00 -2.047157859802246094e+01 3.212304040789604187e-02 -6.483202427625656128e-02 -9.812694974243640900e-03 -5.240999907255172729e-02
5.640000000000000000e+02 5.545375943183898926e-01 -1.626280403137207031e+01 -5.749992560595273972e-03 -4.921605065464973450e-02 -1.648981310427188873e-02 -1.692547462880611420e-02
5.650000000000000000e+02 5.269964337348937988e-01 -1.487065887451171875e+01 -9.059288422577083111e-04 -1.538373064249753952e-02 -4.886897746473550797e-03 -7.651755586266517639e-03
5.660000000000000000e+02 5.274271965026855469e-01 -1.348099899291992188e+01 -2.894888631999492645e-03 -1.166581991128623486e-03 -1.218441175296902657e-03 -2.384811639785766602e-03
5.670000000000000000e+02 4.367967605590820312e+00 -1.484202289581298828e+01 -3.944778069853782654e-02 2.461443096399307251e-02 -4.450005479156970978e-03 3.722144989296793938e-03
5.680000000000000000e+02 5.462499260902404785e-01 -9.288355827331542969e+00 1.681118272244930267e-03 2.620631596073508263e-03 1.290524960495531559e-03 3.338506212458014488e-04
5.690000000000000000e+02 5.358391404151916504e-01 -7.895416736602783203e+00 -1.524220453575253487e-03 1.545627601444721222e-03 6.422140359063632786e-06 4.691479844041168690e-04
5.700000000000000000e+02 5.299733281135559082e-01 -6.500923156738281250e+00 1.491943723522126675e-03 9.060995071195065975e-04 7.194129866547882557e-04 4.629825707525014877e-05
5.710000000000000000e+02 7.458343505859375000e+01 -4.011175918579101562e+01 -2.316506020724773407e-02 8.025382995605468750e+00 2.400665283203125000e+00 -3.290051221847534180e-02
5.720000000000000000e+02 5.229992294311523438e+01 -4.071495819091796875e+01 -5.306026339530944824e-01 7.908136844635009766e+00 2.213260173797607422e+00 -5.727649852633476257e-02
5.730000000000000000e+02 3.253660964965820312e+01 -3.770061492919921875e+01 -1.029184579849243164e+00 7.143843173980712891e+00 1.834397554397583008e+00 -4.133782908320426941e-02
5.740000000000000000e+02 1.308793544769287109e+01 -4.051700973510742188e+01 -4.728493094444274902e-01 3.424203872680664062e+00 8.854063153266906738e-01 1.200134605169296265e-01
5.750000000000000000e+02 7.598246765136718750e+01 4.042048263549804688e+01 -1.421268843114376068e-02 8.077013015747070312e+00 2.418840169906616211e+00 2.489494718611240387e-02
5.760000000000000000e+02 7.808118438720703125e+01 4.174555587768554688e+01 8.976118639111518860e-03 8.122735023498535156e+00 2.439513444900512695e+00 -2.504977630451321602e-03
5.770000000000000000e+02 7.886858367919921875e+01 3.881924057006835938e+01 -6.732510868459939957e-03 8.133687973022460938e+00 2.438086509704589844e+00 -2.558180131018161774e-03
5.780000000000000000e+02 7.804915618896484375e+01 3.674801254272460938e+01 -6.063506007194519043e-03 8.083493232727050781e+00 2.423228740692138672e+00 2.438894659280776978e-02
5.790000000000000000e+02 7.928442382812500000e+01 3.501254653930664062e+01 -3.609586507081985474e-03 8.107015609741210938e+00 2.431021928787231445e+00 1.095629110932350159e-02
5.800000000000000000e+02 7.778979492187500000e+01 3.411880493164062500e+01 -5.040873773396015167e-03 8.046624183654785156e+00 2.412475109100341797e+00 3.394421935081481934e-02
5.810000000000000000e+02 7.924731445312500000e+01 3.365439605712890625e+01 -1.228761742822825909e-03 8.081976890563964844e+00 2.424224376678466797e+00 1.501063350588083267e-02
5.820000000000000000e+02 7.912133789062500000e+01 3.088094329833984375e+01 -6.405864260159432888e-04 8.026209831237792969e+00 2.407670736312866211e+00 1.884038187563419342e-02
5.830000000000000000e+02 7.768069458007812500e+01 2.812587738037109375e+01 -3.524785861372947693e-03 7.933734893798828125e+00 2.379062891006469727e+00 5.862584710121154785e-02
5.840000000000000000e+02 7.924855804443359375e+01 2.655052375793457031e+01 4.338763537816703320e-04 7.921110630035400391e+00 2.376463413238525391e+00 2.238822542130947113e-02
5.850000000000000000e+02 7.639442443847656250e+01 2.534546852111816406e+01 -4.929445683956146240e-03 7.855790138244628906e+00 2.355258226394653320e+00 9.633537381887435913e-02
5.860000000000000000e+02 7.927230072021484375e+01 2.514547348022460938e+01 -4.446906677912920713e-04 7.880930900573730469e+00 2.364145755767822266e+00 2.245963551104068756e-02
5.870000000000000000e+02 7.929795074462890625e+01 2.095847892761230469e+01 7.149812881834805012e-05 7.753839492797851562e+00 2.326173305511474609e+00 2.320659346878528595e-02
5.880000000000000000e+02 7.929998016357421875e+01 1.956059455871582031e+01 3.288211519247852266e-05 7.710358619689941406e+00 2.313117504119873047e+00 2.308512851595878601e-02
5.890000000000000000e+02 7.930142211914062500e+01 1.816326522827148438e+01 2.142448211088776588e-04 7.667119503021240234e+00 2.300199985504150391e+00 2.286105975508689880e-02
5.900000000000000000e+02 7.931746673583984375e+01 1.397125816345214844e+01 6.494229310192167759e-04 7.543378353118896484e+00 2.263208389282226562e+00 2.021664008498191833e-02
5.910000000000000000e+02 7.932411956787109375e+01 1.257346916198730469e+01 6.792384083382785320e-04 7.505534648895263672e+00 2.251864194869995117e+00 1.888191886246204376e-02
5.920000000000000000e+02 7.933060455322265625e+01 1.117792034149169922e+01 7.988395518623292446e-04 7.470167636871337891e+00 2.241289854049682617e+00 1.731551438570022583e-02
5.930000000000000000e+02 7.933836364746093750e+01 6.998186588287353516e+00 9.211080614477396011e-04 7.383209228515625000e+00 2.215239048004150391e+00 1.185446605086326599e-02
5.940000000000000000e+02 7.933743286132812500e+01 5.604945182800292969e+00 1.009556348435580730e-03 7.361803054809570312e+00 2.208843946456909180e+00 9.783403947949409485e-03
5.950000000000000000e+02 7.933591461181640625e+01 4.211455345153808594e+00 1.012346590869128704e-03 7.344574928283691406e+00 2.203676223754882812e+00 7.682362571358680725e-03
5.960000000000000000e+02 7.933627319335937500e+01 2.722325921058654785e-02 1.136328908614814281e-03 7.319615364074707031e+00 2.196225643157958984e+00 7.879604236222803593e-04
5.970000000000000000e+02 7.933845520019531250e+01 -1.369075894355773926e+00 1.073576277121901512e-03 7.320456981658935547e+00 2.196459054946899414e+00 -1.512093585915863514e-03
5.980000000000000000e+02 7.803176116943359375e+01 -4.130331993103027344e+00 5.044528283178806305e-03 7.381615161895751953e+00 2.215997934341430664e+00 -1.702567562460899353e-02
5.990000000000000000e+02 7.934404754638671875e+01 -4.159729480743408203e+00 1.033157226629555225e-03 7.335967063903808594e+00 2.201100111007690430e+00 -6.072687916457653046e-03
6.000000000000000000e+02 7.934842681884765625e+01 -8.338682174682617188e+00 9.397159446962177753e-04 7.392443656921386719e+00 2.218014955520629883e+00 -1.237234752625226974e-02
6.010000000000000000e+02 7.805009460449218750e+01 -1.107818794250488281e+01 3.467316972091794014e-03 7.481736183166503906e+00 2.245561122894287109e+00 -4.395045712590217590e-02
6.020000000000000000e+02 7.935003662109375000e+01 -1.112174034118652344e+01 8.346163085661828518e-04 7.449826240539550781e+00 2.235198259353637695e+00 -1.586856506764888763e-02
6.030000000000000000e+02 7.934960174560546875e+01 -1.529114627838134766e+01 2.857438521459698677e-04 7.559027194976806641e+00 2.267793893814086914e+00 -1.971342228353023529e-02
6.040000000000000000e+02 7.803588104248046875e+01 -1.798627662658691406e+01 1.306164078414440155e-03 7.651476860046386719e+00 2.295835018157958984e+00 -5.919514968991279602e-02
6.050000000000000000e+02 7.934739685058593750e+01 -1.807074356079101562e+01 4.371483737486414611e-05 7.642039775848388672e+00 2.292624950408935547e+00 -2.118634991347789764e-02
6.060000000000000000e+02 7.934726715087890625e+01 -2.361817359924316406e+01 -3.522783517837524414e-04 7.816162586212158203e+00 2.344743013381958008e+00 -2.152615971863269806e-02
6.070000000000000000e+02 7.802764892578125000e+01 -2.485609626770019531e+01 -1.484924578107893467e-03 7.841885089874267578e+00 2.352120161056518555e+00 -5.908904597163200378e-02
6.080000000000000000e+02 7.934187316894531250e+01 -2.500892639160156250e+01 2.243894850835204124e-04 7.859319210052490234e+00 2.357863187789916992e+00 -2.146950736641883850e-02
6.090000000000000000e+02 7.931605529785156250e+01 -2.917814826965332031e+01 -1.727243885397911072e-03 7.979007720947265625e+00 2.393184185028076172e+00 -1.891078241169452667e-02
6.100000000000000000e+02 7.788404083251953125e+01 -3.173999214172363281e+01 -5.280848592519760132e-03 8.004613876342773438e+00 2.399800062179565430e+00 -4.420419782400131226e-02
6.110000000000000000e+02 7.930352783203125000e+01 -3.194732284545898438e+01 -2.438086550682783127e-03 8.044335365295410156e+00 2.412569284439086914e+00 -1.499399822205305099e-02
6.120000000000000000e+02 7.928493499755859375e+01 -3.604794692993164062e+01 -7.523173699155449867e-04 8.103981971740722656e+00 2.430968999862670898e+00 -7.431540638208389282e-03
6.130000000000000000e+02 7.916808319091796875e+01 -3.736835479736328125e+01 -1.926515251398086548e-03 8.113544464111328125e+00 2.433485269546508789e+00 -4.549560137093067169e-03
6.140000000000000000e+02 7.891953277587890625e+01 -3.866963958740234375e+01 4.224548465572297573e-04 8.119259834289550781e+00 2.435904502868652344e+00 -4.193999338895082474e-03
6.150000000000000000e+02 7.853878021240234375e+01 -4.003147888183593750e+01 -3.786439541727304459e-03 8.120801925659179688e+00 2.435104608535766602e+00 -9.578118915669620037e-04
6.160000000000000000e+02 1.273641395568847656e+01 3.767379379272460938e+01 -4.680044353008270264e-01 3.385279893875122070e+00 8.751826286315917969e-01 -2.836951017379760742e-01
6.170000000000000000e+02 2.774440002441406250e+01 4.083462905883789062e+01 -1.040042281150817871e+00 6.577386856079101562e+00 1.661203384399414062e+00 -6.697761826217174530e-03
6.180000000000000000e+02 6.764268493652343750e+01 4.090728759765625000e+01 -1.215964481234550476e-01 7.932809829711914062e+00 2.343364000320434570e+00 2.351334691047668457e-02
6.190000000000000000e+02 3.876792192459106445e-01 2.166637420654296875e+00 4.896814934909343719e-04 2.002841501962393522e-04 2.069897018373012543e-04 -2.754253509920090437e-04
6.200000000000000000e+02 3.404531955718994141e+00 2.887281656265258789e+00 -1.887885446194559336e-04 9.116867295233532786e-05 -2.928596404672134668e-05 4.156304930802434683e-04
6.210000000000000000e+02 4.683611392974853516e+00 5.951546192169189453e+00 2.221985720098018646e-03 -2.073818352073431015e-03 4.445025115273892879e-05 -5.590274231508374214e-04
6.220000000000000000e+02 1.565257310867309570e+00 4.994476795196533203e+00 -1.257918193005025387e-03 8.020043023861944675e-04 -1.367741642752662301e-04 1.713581514195539057e-05
6.230000000000000000e+02 5.405129194259643555e-01 9.253321647644042969e+00 -3.335547866299748421e-03 4.041383042931556702e-03 2.117505500791594386e-04 2.434371344861574471e-05
6.240000000000000000e+02 5.908318758010864258e-01 1.205857563018798828e+01 -5.197425838559865952e-03 5.523499567061662674e-03 9.782206325326114893e-05 8.815363980829715729e-04
6.250000000000000000e+02 1.789237380027770996e+00 1.194776058197021484e+01 6.459561409428715706e-04 1.301778102060779929e-04 2.328401751583442092e-04 2.705459774006158113e-04
6.260000000000000000e+02 5.733842253684997559e-01 1.765641021728515625e+01 -1.247944217175245285e-02 -7.963300496339797974e-02 -2.763373404741287231e-02 2.524939365684986115e-02
6.270000000000000000e+02 7.333756446838378906e+00 1.804308700561523438e+01 -2.566808760166168213e-01 -3.841808810830116272e-02 -8.852969110012054443e-02 -8.333279192447662354e-02
6.280000000000000000e+02 3.514873266220092773e+00 1.745827865600585938e+01 -6.109312921762466431e-02 3.941736370325088501e-02 -6.502729374915361404e-03 6.181672215461730957e-02
6.290000000000000000e+02 6.355882883071899414e-01 2.187232780456542969e+01 6.738216150552034378e-03 -3.038144707679748535e-01 -8.912287652492523193e-02 2.862993068993091583e-02
6.300000000000000000e+02 6.279073953628540039e-01 2.328947067260742188e+01 1.084355637431144714e-02 -3.415287435054779053e-01 -9.920555353164672852e-02 7.579485420137643814e-03
6.310000000000000000e+02 6.601207256317138672e-01 2.470477676391601562e+01 7.552820257842540741e-03 -3.336230814456939697e-01 -9.782107174396514893e-02 -1.205406058579683304e-02
6.320000000000000000e+02 7.749721407890319824e-01 2.897689819335937500e+01 1.316495588980615139e-03 -1.334896832704544067e-01 -3.965195640921592712e-02 -4.334117099642753601e-02
6.330000000000000000e+02 7.639050483703613281e-01 3.041524314880371094e+01 4.615717101842164993e-03 -4.845931380987167358e-02 -1.315307896584272385e-02 -4.897177219390869141e-02
6.340000000000000000e+02 2.291968345642089844e+00 3.030198478698730469e+01 7.425971794873476028e-03 3.497900366783142090e-01 1.071648001670837402e-01 -1.504437625408172607e-01
6.350000000000000000e+02 7.453442811965942383e-01 3.183163642883300781e+01 1.511783339083194733e-03 4.883349686861038208e-02 1.510358415544033051e-02 -5.474755540490150452e-02
6.360000000000000000e+02 7.218150496482849121e-01 3.600736236572265625e+01 -1.037167292088270187e-02 3.407303392887115479e-01 9.910760074853897095e-02 -5.023168772459030151e-02
6.370000000000000000e+02 3.424518108367919922e+00 3.722657775878906250e+01 2.906885696575045586e-03 8.094755411148071289e-01 2.437147200107574463e-01 -1.727907508611679077e-01
6.380000000000000000e+02 9.349680542945861816e-01 3.873976516723632812e+01 -9.027017280459403992e-03 5.675040483474731445e-01 1.675431132316589355e-01 -6.600763648748397827e-02
6.390000000000000000e+02 1.302824020385742188e+00 4.010457229614257812e+01 3.239874914288520813e-02 6.780787706375122070e-01 2.131432592868804932e-01 -9.180481731891632080e-02
6.400000000000000000e+02 8.842206954956054688e+00 1.886946916580200195e+00 7.606019789818674326e-05 2.613533870317041874e-04 1.012240754789672792e-04 9.848695481196045876e-04
6.410000000000000000e+02 8.779522895812988281e+00 2.672508001327514648e+00 8.731926791369915009e-04 -6.992915295995771885e-04 5.217034413362853229e-05 -7.716325344517827034e-04
6.420000000000000000e+02 8.076034545898437500e+00 1.889012098312377930e+00 8.257704903371632099e-04 -4.211138584651052952e-04 1.213969881064258516e-04 -5.986795295029878616e-04
6.430000000000000000e+02 5.760473728179931641e+00 1.907983064651489258e+00 2.482109121046960354e-04 9.187595424009487033e-05 1.020260606310330331e-04 4.972866736352443695e-04
6.440000000000000000e+02 4.987830638885498047e+00 1.922252416610717773e+00 7.540471851825714111e-04 -2.734013251028954983e-04 1.441937638446688652e-04 -8.320240885950624943e-04
6.450000000000000000e+02 4.216117858886718750e+00 1.939078569412231445e+00 9.491509990766644478e-05 9.560240141581743956e-05 5.715524821425788105e-05 3.511930699460208416e-04
6.460000000000000000e+02 3.446615219116210938e+00 1.956442713737487793e+00 7.372153922915458679e-04 -1.775297423591837287e-04 1.679056877037510276e-04 -8.705900982022285461e-04
6.470000000000000000e+02 2.683862686157226562e+00 1.973015666007995605e+00 -2.455220092087984085e-04 2.387826680205762386e-04 -2.021805812546517700e-06 1.478628691984340549e-04
6.480000000000000000e+02 1.157840132713317871e+00 2.072038650512695312e+00 -1.624645374249666929e-04 6.867641059216111898e-05 -2.813643732224591076e-05 1.368512894259765744e-04
6.490000000000000000e+02 1.261745643615722656e+01 1.838481426239013672e+00 -6.405030580935999751e-05 1.464454981032758951e-04 2.471855987096205354e-05 -4.221828421577811241e-04
6.500000000000000000e+02 1.330413627624511719e+01 1.832749485969543457e+00 3.932522085960954428e-04 -2.793752355501055717e-04 3.416309482418000698e-05 4.388926026877015829e-04
6.510000000000000000e+02 1.513513755798339844e+01 1.865056395530700684e+00 1.505147811258211732e-04 -3.302262339275330305e-04 -5.391343802330084145e-05 -5.339412600733339787e-04
6.520000000000000000e+02 1.489282035827636719e+01 3.576016187667846680e+00 -3.989088290836662054e-04 -1.482143125031143427e-04 -1.641369453864172101e-04 4.680064739659428596e-04
6.530000000000000000e+02 1.412539768218994141e+01 7.503491878509521484e+00 -1.174095901660621166e-03 8.642696047900244594e-05 -3.263006510678678751e-04 -1.048068399541079998e-03
6.540000000000000000e+02 1.357499504089355469e+01 8.765445709228515625e+00 1.801066682673990726e-03 2.148020081222057343e-03 1.184726017527282238e-03 1.142728375270962715e-03
6.550000000000000000e+02 1.292933464050292969e+01 9.992869377136230469e+00 -2.276893937960267067e-03 -5.387603887356817722e-04 -8.446963038295507431e-04 -2.664024941623210907e-03
6.560000000000000000e+02 1.035504722595214844e+01 1.149670600891113281e+01 -7.927055121399462223e-04 1.121229305863380432e-02 3.125876188278198242e-03 2.920834114775061607e-03
6.570000000000000000e+02 8.527503013610839844e+00 1.362301063537597656e+01 -6.027948576956987381e-03 1.830298639833927155e-02 3.682511392980813980e-03 2.085551386699080467e-03
6.580000000000000000e+02 8.461623191833496094e+00 1.547672367095947266e+01 1.631056889891624451e-02 2.698671072721481323e-02 1.298918388783931732e-02 1.151704695075750351e-02
6.590000000000000000e+02 1.600914382934570312e+01 1.607069015502929688e+01 1.568875193595886230e+00 6.010404109954833984e+00 2.273783922195434570e+00 -2.470557212829589844e+00
6.600000000000000000e+02 1.651320838928222656e+01 1.301775646209716797e+01 1.853965163230895996e+00 8.045162200927734375e+00 2.969738245010375977e+00 -3.624308347702026367e+00
6.610000000000000000e+02 1.771797370910644531e+01 1.048768424987792969e+01 1.521113157272338867e+00 1.068754863739013672e+01 3.662598609924316406e+00 -3.370503902435302734e+00
6.620000000000000000e+02 1.848915290832519531e+01 7.757789134979248047e+00 6.537709236145019531e-01 1.161203861236572266e+01 3.679742813110351562e+00 -2.225624561309814453e+00
6.630000000000000000e+02 1.878616333007812500e+01 4.970211982727050781e+00 3.910185098648071289e-01 1.220107746124267578e+01 3.777628660202026367e+00 -1.355075716972351074e+00
6.640000000000000000e+02 1.965910911560058594e+01 3.791655004024505615e-01 -1.063917428255081177e-01 1.006685352325439453e+01 2.988138437271118164e+00 -6.896894574165344238e-01
6.650000000000000000e+02 2.025046348571777344e+01 -4.246166229248046875e+00 -9.230565428733825684e-01 1.279997348785400391e+01 3.563075065612792969e+00 -2.237571001052856445e+00
6.660000000000000000e+02 2.002727127075195312e+01 -4.220967769622802734e+00 -8.236308097839355469e-01 1.147980499267578125e+01 3.196852445602416992e+00 -2.687276124954223633e+00
6.670000000000000000e+02 1.982131767272949219e+01 -4.260307788848876953e+00 -3.825145065784454346e-01 1.015283584594726562e+01 2.931096315383911133e+00 -3.105927467346191406e+00
6.680000000000000000e+02 1.928867149353027344e+01 -4.099612712860107422e+00 4.432509467005729675e-02 6.463941097259521484e+00 1.952479839324951172e+00 -2.447416782379150391e+00
6.690000000000000000e+02 1.791396903991699219e+01 -7.196903228759765625e+00 8.084031343460083008e-01 5.635336637496948242e-01 4.115810394287109375e-01 1.004368305206298828e+00
6.700000000000000000e+02 1.818130493164062500e+01 -7.144933223724365234e+00 1.446515202522277832e+00 8.615195751190185547e-01 6.924104094505310059e-01 1.672180414199829102e+00
6.710000000000000000e+02 1.832369422912597656e+01 -7.199463367462158203e+00 1.303305983543395996e+00 1.496342897415161133e+00 8.398946523666381836e-01 1.915755271911621094e+00
6.720000000000000000e+02 1.895955467224121094e+01 -7.505570411682128906e+00 3.150149822235107422e+00 4.866283416748046875e+00 2.404929876327514648e+00 4.622278213500976562e+00
6.730000000000000000e+02 1.951160812377929688e+01 -7.568457603454589844e+00 2.847126722335815430e+00 8.575492858886718750e+00 3.426785707473754883e+00 5.504405498504638672e+00
6.740000000000000000e+02 1.846986198425292969e+01 -3.599086761474609375e+00 2.110446244478225708e-01 3.542055606842041016e+00 1.125930070877075195e+00 -5.393360853195190430e-01
6.750000000000000000e+02 1.924935340881347656e+01 -3.671442747116088867e+00 -2.251160591840744019e-01 6.963511943817138672e+00 2.021518707275390625e+00 -2.217073202133178711e+00
6.760000000000000000e+02 1.909641647338867188e+01 -4.022568225860595703e+00 1.684300750494003296e-01 5.512367725372314453e+00 1.704239368438720703e+00 -2.181715488433837891e+00
6.770000000000000000e+02 1.818132591247558594e+01 -7.244917869567871094e+00 1.287077665328979492e+00 1.217855930328369141e+00 7.514801025390625000e-01 1.659520983695983887e+00
6.780000000000000000e+02 1.868373298645019531e+01 -7.443696498870849609e+00 2.752972602844238281e+00 3.550882339477539062e+00 1.891156435012817383e+00 3.854921102523803711e+00
6.790000000000000000e+02 1.846435546875000000e+01 -7.317958831787109375e+00 2.044960260391235352e+00 2.750352859497070312e+00 1.438593983650207520e+00 3.084334373474121094e+00
6.800000000000000000e+02 1.993000984191894531e+01 -3.879619836807250977e+00 -5.495277643203735352e-01 1.053461265563964844e+01 2.995525598526000977e+00 -2.435674905776977539e+00
6.810000000000000000e+02 1.902004814147949219e+01 -3.517694711685180664e+00 -4.486621916294097900e-02 6.195029258728027344e+00 1.845049023628234863e+00 -1.690440535545349121e+00
6.820000000000000000e+02 1.889108848571777344e+01 -3.938254833221435547e+00 1.280711889266967773e-01 4.232471466064453125e+00 1.308162808418273926e+00 -1.475077986717224121e+00
6.830000000000000000e+02 1.934545707702636719e+01 -7.476865768432617188e+00 3.193642854690551758e+00 7.257440567016601562e+00 3.135324954986572266e+00 5.852074623107910156e+00
6.840000000000000000e+02 1.947319221496582031e+01 -4.172864913940429688e+00 -3.621527180075645447e-02 7.765341758728027344e+00 2.318737983703613281e+00 -2.922366142272949219e+00
6.850000000000000000e+02 1.454112815856933594e+01 1.762896656990051270e+00 -4.186292353551834822e-04 -6.714936171192675829e-05 -1.457335747545585036e-04 6.158859468996524811e-04
6.860000000000000000e+02 1.472995185852050781e+01 2.576851129531860352e+00 1.042458810843527317e-03 1.212620874866843224e-03 6.765238940715789795e-04 -1.997639046749100089e-04
6.870000000000000000e+02 1.187382316589355469e+01 1.846803426742553711e+00 1.707918563624843955e-04 9.147625678451731801e-05 7.868043030612170696e-05 9.568723035044968128e-04
6.880000000000000000e+02 1.446549129486083984e+01 -3.375974178314208984e+00 6.498227012343704700e-04 6.661677034571766853e-04 3.947971272282302380e-04 -3.641283256001770496e-04
6.890000000000000000e+02 1.384299850463867188e+01 -2.969383955001831055e+00 -1.124453847296535969e-03 -3.285042839706875384e-05 -3.471912641543895006e-04 2.162890450563281775e-04
6.900000000000000000e+02 1.345668125152587891e+01 -4.844369411468505859e+00 -2.716560149565339088e-03 -2.896753721870481968e-04 -9.018706623464822769e-04 6.296473438851535320e-04
6.910000000000000000e+02 1.286536693572998047e+01 -5.968397617340087891e+00 3.170476760715246201e-03 6.934740231372416019e-04 1.159185194410383701e-03 -1.070345868356525898e-03
6.920000000000000000e+02 1.332392978668212891e+01 -2.568307638168334961e+00 -1.655184605624526739e-04 3.671936865430325270e-04 6.050256706657819450e-05 -5.547350738197565079e-04
6.930000000000000000e+02 8.141029357910156250e+00 -2.508228302001953125e+00 6.402793223969638348e-04 1.133521087467670441e-03 5.321401404216885567e-04 6.394475349225103855e-05
6.940000000000000000e+02 1.112266159057617188e+01 1.859317541122436523e+00 3.807009197771549225e-04 -1.383816997986286879e-04 7.269576599355787039e-05 -6.417459808290004730e-04
6.950000000000000000e+02 1.236387252807617188e+01 3.663282871246337891e+00 -1.900592906167730689e-04 -2.794131287373602390e-04 -1.408417301718145609e-04 -1.129491371102631092e-03
6.960000000000000000e+02 1.384082126617431641e+01 4.842618942260742188e+00 4.447191895451396704e-04 5.083312280476093292e-04 2.859151281882077456e-04 1.218176563270390034e-03
6.970000000000000000e+02 1.176516914367675781e+01 2.710666894912719727e+00 1.379379536956548691e-04 -2.268085518153384328e-04 -2.666118052729871124e-05 -8.711056434549391270e-04
6.980000000000000000e+02 1.249811458587646484e+01 2.752909660339355469e+00 3.413366212043911219e-04 1.469269918743520975e-04 1.464790839236229658e-04 1.203559688292443752e-03
6.990000000000000000e+02 8.073981285095214844e+00 -1.832315683364868164e+00 -2.940183039754629135e-04 -1.157053746283054352e-03 -4.353216208983212709e-04 -1.688480842858552933e-04
7.000000000000000000e+02 1.251948547363281250e+01 -3.709731101989746094e+00 -2.277289051562547684e-03 -1.645104493945837021e-04 -7.325398619286715984e-04 8.763688383623957634e-04
7.010000000000000000e+02 7.411373615264892578e+00 -2.553037643432617188e+00 -4.134615301154553890e-04 -1.091463607735931873e-03 -4.514775355346500874e-04 -3.149285039398819208e-04
7.020000000000000000e+02 1.173112201690673828e+01 -5.639592170715332031e+00 -2.210559323430061340e-03 -1.113754464313387871e-03 -9.972940897569060326e-04 1.201230101287364960e-03
7.030000000000000000e+02 7.678322315216064453e+00 -4.748674392700195312e+00 1.303554046899080276e-03 7.843508501537144184e-04 6.263714749366044998e-04 5.455206264741718769e-04
7.040000000000000000e+02 6.560994148254394531e+00 -1.863122701644897461e+00 -1.763723557814955711e-04 -9.263430838473141193e-04 -3.308146260678768158e-04 -3.321645781397819519e-04
7.050000000000000000e+02 6.666253089904785156e+00 -2.593899488449096680e+00 6.341509288176894188e-04 8.650665986351668835e-04 4.497652407735586166e-04 2.676195581443607807e-04
7.060000000000000000e+02 5.171141147613525391e+00 -2.702518701553344727e+00 5.595561233349144459e-04 6.537947920151054859e-04 3.640052746050059795e-04 5.447345902211964130e-04
7.070000000000000000e+02 1.623750090599060059e+00 -7.961119174957275391e+00 2.191714942455291748e-03 8.602807647548615932e-04 9.155987063422799110e-04 6.199735216796398163e-04
7.080000000000000000e+02 3.946224927902221680e+00 -3.784950256347656250e+00 -1.020282739773392677e-03 -3.073445113841444254e-04 -3.982881607953459024e-04 -7.962676463648676872e-04
7.090000000000000000e+02 1.597706437110900879e+00 -6.630135536193847656e+00 -1.660134643316268921e-03 2.656060387380421162e-04 -4.183585988357663155e-04 8.570408099330961704e-04
7.100000000000000000e+02 1.195291638374328613e+00 -2.137447595596313477e+00 6.616094615310430527e-04 3.065548080485314131e-04 2.904492721427232027e-04 -5.191718810237944126e-05
7.110000000000000000e+02 5.542889237403869629e-01 -5.067540645599365234e+00 -1.229642541147768497e-03 5.021101678721606731e-04 -2.182597236242145300e-04 2.252666017739102244e-04
7.120000000000000000e+02 6.492306232452392578e+00 2.699572801589965820e+00 1.034943488775752485e-04 1.426620874553918839e-04 7.384693162748590112e-05 7.802805630490183830e-04
7.130000000000000000e+02 1.562930583953857422e+00 7.811635971069335938e+00 -1.707588206045329571e-03 1.478700665757060051e-03 -6.866626790724694729e-05 5.257551674731075764e-05
7.140000000000000000e+02 4.170219898223876953e+00 3.746000051498413086e+00 -4.366991925053298473e-05 -1.350609236396849155e-04 -5.361925286706537008e-05 4.198667884338647127e-04
7.150000000000000000e+02 1.940885424613952637e+00 2.952288389205932617e+00 -5.691974656656384468e-04 3.782331186812371016e-04 -5.728930045734159648e-05 -1.073615858331322670e-04
7.160000000000000000e+02 2.651883840560913086e+00 2.933672428131103516e+00 1.062282710336148739e-03 -1.528704306110739708e-04 2.728236722759902477e-04 -1.050218590535223484e-03
7.170000000000000000e+02 1.922541499137878418e+00 1.999318361282348633e+00 5.211068782955408096e-04 5.941274139331653714e-05 1.741558808134868741e-04 -4.916875041089951992e-04
7.180000000000000000e+02 7.306662559509277344e+00 1.892788648605346680e+00 2.080125414067879319e-04 1.853231951827183366e-04 1.180007238872349262e-04 7.303163292817771435e-04
7.190000000000000000e+02 7.262917995452880859e+00 2.683231353759765625e+00 9.240884683094918728e-04 -7.014917209744453430e-04 6.677902274532243609e-05 -7.792017422616481781e-04
7.200000000000000000e+02 5.718047142028808594e+00 2.730160713195800781e+00 8.651791722513735294e-04 -5.138294654898345470e-04 1.054049134836532176e-04 -9.507485665380954742e-04
7.210000000000000000e+02 1.102462387084960938e+01 2.678681612014770508e+00 -6.582931382581591606e-05 4.687809559982270002e-04 1.208854882861487567e-04 1.451529678888618946e-03
7.220000000000000000e+02 1.027702236175537109e+01 2.667223691940307617e+00 6.231411243788897991e-04 -4.770997038576751947e-04 4.381242251838557422e-05 -8.607659838162362576e-04
7.230000000000000000e+02 2.251161003112792969e+01 -8.166685104370117188e+00 2.327072858810424805e+00 1.202414894104003906e+01 4.305366516113281250e+00 -1.135833486914634705e-01
7.240000000000000000e+02 2.322444343566894531e+01 -4.730075359344482422e+00 3.185205459594726562e+00 1.164366245269775391e+01 4.448660373687744141e+00 1.748366475105285645e+00
7.250000000000000000e+02 2.015967178344726562e+01 -1.052522778511047363e+00 -4.232684373855590820e-01 1.021799087524414062e+01 2.938416719436645508e+00 -1.213413476943969727e+00
7.260000000000000000e+02 2.202159690856933594e+01 -5.063153266906738281e+00 4.018077373504638672e+00 1.395444583892822266e+01 5.391757011413574219e+00 2.721346855163574219e+00
7.270000000000000000e+02 2.013821792602539062e+01 -8.853431701660156250e+00 1.032269120216369629e+00 1.016605472564697266e+01 3.359497070312500000e+00 3.857492685317993164e+00
7.280000000000000000e+02 2.315291976928710938e+01 -9.084855079650878906e+00 1.733886241912841797e+00 1.095501327514648438e+01 3.806669950485229492e+00 -8.899725042283535004e-03
7.290000000000000000e+02 2.300988769531250000e+01 -3.888811111450195312e+00 1.851223349571228027e+00 1.232203102111816406e+01 4.251976490020751953e+00 1.761179089546203613e+00
7.300000000000000000e+02 2.095067596435546875e+01 -4.340116977691650391e+00 8.999382145702838898e-03 1.561652565002441406e+01 4.687657356262207031e+00 6.151831746101379395e-01
7.310000000000000000e+02 1.117386531829833984e+01 -1.883721542358398438e+01 6.087777614593505859e-01 1.902847886085510254e+00 7.534877061843872070e-01 1.232493281364440918e+00
7.320000000000000000e+02 4.211504936218261719e+00 -1.928691864013671875e+01 5.051049590110778809e-02 1.553014665842056274e-01 6.174358725547790527e-02 -3.421516343951225281e-02
7.330000000000000000e+02 1.297140216827392578e+01 1.962521934509277344e+01 7.712909579277038574e-01 2.895928621292114258e+00 1.100165843963623047e+00 -1.702122211456298828e+00
7.340000000000000000e+02 1.041302299499511719e+01 2.084314346313476562e+01 6.042395830154418945e-01 1.285301208496093750e+00 5.668622255325317383e-01 -1.129929661750793457e+00
7.350000000000000000e+02 1.995503044128417969e+01 8.120196342468261719e+00 1.088278651237487793e+00 1.061251449584960938e+01 3.510237932205200195e+00 -1.861732363700866699e+00
7.360000000000000000e+02 1.959883308410644531e+01 9.685788154602050781e+00 1.374788284301757812e+00 1.001903152465820312e+01 3.418146133422851562e+00 -2.012013196945190430e+00
7.370000000000000000e+02 1.408409881591796875e+01 1.838683128356933594e+01 1.118773579597473145e+00 3.734016418457031250e+00 1.455837011337280273e+00 -2.038805723190307617e+00
7.380000000000000000e+02 1.406538200378417969e+01 1.643319702148437500e+01 2.395579576492309570e+00 3.621468782424926758e+00 1.805114507675170898e+00 -2.793008804321289062e+00
7.390000000000000000e+02 1.714234733581542969e+01 1.177267932891845703e+01 1.694553852081298828e+00 9.153639793395996094e+00 3.254458189010620117e+00 -3.594464063644409180e+00
7.400000000000000000e+02 1.684491348266601562e+01 1.487870407104492188e+01 1.735872507095336914e+00 6.927327156066894531e+00 2.598959922790527344e+00 -2.621451139450073242e+00
7.410000000000000000e+02 2.010766410827636719e+01 1.948578119277954102e+00 2.631094455718994141e-01 1.087202453613281250e+01 3.340540409088134766e+00 -1.094918847084045410e+00
7.420000000000000000e+02 5.805794596672058105e-01 1.627692031860351562e+01 2.642660168930888176e-03 -3.139667958021163940e-02 -8.626204915344715118e-03 1.053733751177787781e-02
7.430000000000000000e+02 1.996802520751953125e+01 6.557915687561035156e+00 7.708572149276733398e-01 1.104206943511962891e+01 3.543877840042114258e+00 -1.524241924285888672e+00
7.440000000000000000e+02 1.828112030029296875e+01 1.240176486968994141e+01 1.367609858512878418e+00 8.993903160095214844e+00 3.108453750610351562e+00 -2.573283195495605469e+00
7.450000000000000000e+02 1.508736610412597656e+01 1.722870826721191406e+01 1.375977635383605957e+00 4.877055168151855469e+00 1.875909805297851562e+00 -2.354643344879150391e+00
7.460000000000000000e+02 1.985282135009765625e+01 2.732710123062133789e+00 3.689057826995849609e-01 1.090132617950439453e+01 3.381069421768188477e+00 -1.061086058616638184e+00
7.470000000000000000e+02 1.993107223510742188e+01 5.141780853271484375e+00 7.140013575553894043e-01 1.116341781616210938e+01 3.563225746154785156e+00 -1.320094347000122070e+00
7.480000000000000000e+02 1.902253532409667969e+01 1.173728466033935547e+00 -8.105958253145217896e-02 1.021586418151855469e+01 3.040441274642944336e+00 -3.873830139636993408e-01
7.490000000000000000e+02 1.759352493286132812e+01 1.365422153472900391e+01 1.627732872962951660e+00 7.977705955505371094e+00 2.881631612777709961e+00 -2.781126260757446289e+00
7.500000000000000000e+02 2.074496078491210938e+01 1.410226941108703613e+00 4.697620496153831482e-02 1.088397598266601562e+01 3.279285669326782227e+00 -1.046543359756469727e+00
7.510000000000000000e+02 1.929643058776855469e+01 -3.298448085784912109e+00 -6.583057343959808350e-02 7.426459789276123047e+00 2.208188772201538086e+00 -2.054084300994873047e+00
7.520000000000000000e+02 2.952663898468017578e+00 -1.694085121154785156e+01 -3.091154061257839203e-02 3.625729680061340332e-02 1.603726879693567753e-03 -6.238074600696563721e-02
7.530000000000000000e+02 6.069129109382629395e-01 -1.767156410217285156e+01 -4.390894435346126556e-03 -1.087357103824615479e-01 -3.393798321485519409e-02 -2.952561900019645691e-02
7.540000000000000000e+02 1.215203189849853516e+01 -1.781432151794433594e+01 9.519503116607666016e-01 2.282708406448364258e+00 9.703976511955261230e-01 1.424453616142272949e+00
7.550000000000000000e+02 1.023422431945800781e+01 -2.511681556701660156e+00 -2.099860867019742727e-04 -1.756982528604567051e-03 -5.900905816815793514e-04 8.005870622582733631e-04
7.560000000000000000e+02 1.649913024902343750e+01 -1.056469058990478516e+01 1.562820434570312500e+00 4.506793022155761719e+00 1.820884108543395996e+00 2.620313167572021484e+00
7.570000000000000000e+02 1.577364730834960938e+01 -1.168864345550537109e+01 1.631784796714782715e+00 4.421999454498291016e+00 1.816135287284851074e+00 2.637940645217895508e+00
7.580000000000000000e+02 1.905643081665039062e+01 -1.194486618041992188e+01 9.682829976081848145e-01 6.908274650573730469e+00 2.362967252731323242e+00 2.828443765640258789e+00
7.590000000000000000e+02 1.313133049011230469e+01 -1.684998703002929688e+01 1.141826748847961426e+00 2.784167766571044922e+00 1.177798390388488770e+00 1.719711661338806152e+00
7.600000000000000000e+02 1.663475608825683594e+01 -1.268203735351562500e+01 1.519279003143310547e+00 4.836776733398437500e+00 1.906816720962524414e+00 2.542628526687622070e+00
7.610000000000000000e+02 1.363270092010498047e+01 -3.808995246887207031e+00 2.296078018844127655e-03 -4.617366357706487179e-04 5.503023858182132244e-04 -1.700271095614880323e-04
7.620000000000000000e+02 1.401118564605712891e+01 -1.781332397460937500e+01 7.170351147651672363e-01 3.382718801498413086e+00 1.229926109313964844e+00 1.606577157974243164e+00
7.630000000000000000e+02 1.407532787322998047e+01 -1.585639095306396484e+01 1.220619082450866699e+00 3.354068994522094727e+00 1.372406482696533203e+00 1.945209860801696777e+00
7.640000000000000000e+02 1.738964271545410156e+01 -1.167151832580566406e+01 1.552214145660400391e+00 5.153173446655273438e+00 2.011616230010986328e+00 2.836691379547119141e+00
7.650000000000000000e+02 1.048231506347656250e+01 -9.206676483154296875e+00 -4.038210492581129074e-03 -5.843089893460273743e-04 -1.386755844578146935e-03 2.546019153669476509e-03
7.660000000000000000e+02 9.461862564086914062e+00 -8.677523612976074219e+00 2.233581151813268661e-03 1.691081561148166656e-03 1.177398837171494961e-03 -1.642024260945618153e-03
7.670000000000000000e+02 1.105829906463623047e+01 -6.642137050628662109e+00 2.095005242154002190e-03 1.641711685806512833e-03 1.121015055105090141e-03 -1.375473802909255028e-03
7.680000000000000000e+02 1.028145599365234375e+01 -7.647691249847412109e+00 -2.267009578645229340e-03 -7.064259261824190617e-04 -8.920306572690606117e-04 1.487639965489506721e-03
7.690000000000000000e+02 1.669727683067321777e+00 -1.068174266815185547e+01 1.939437119290232658e-03 4.661004641093313694e-04 7.216612575575709343e-04 3.362230490893125534e-04
7.700000000000000000e+02 8.169876098632812500e+00 -1.261695194244384766e+01 5.267369095236063004e-03 5.323921330273151398e-03 3.177387174218893051e-03 -6.292783655226230621e-04
7.710000000000000000e+02 1.031396293640136719e+01 -4.083421230316162109e+00 3.364376025274395943e-04 1.783685991540551186e-03 6.360370898619294167e-04 -1.105193281546235085e-03
7.720000000000000000e+02 7.750750732421875000e+01 3.283612060546875000e+01 -5.548079498112201691e-03 8.025445938110351562e+00 2.405969381332397461e+00 4.290004819631576538e-02
7.730000000000000000e+02 7.936046600341796875e+01 3.628843688964843750e+01 -8.977227844297885895e-04 8.123284339904785156e+00 2.436715841293334961e+00 5.946666933596134186e-03
7.740000000000000000e+02 7.932395935058593750e+01 -2.779276847839355469e+01 5.487822345457971096e-04 7.941115856170654297e+00 2.382499456405639648e+00 -2.040567807853221893e-02
7.750000000000000000e+02 7.704061889648437500e+01 -3.773113632202148438e+01 -9.659458883106708527e-03 8.071032524108886719e+00 2.418411970138549805e+00 -2.257099375128746033e-02
7.760000000000000000e+02 7.930147552490234375e+01 -3.469546890258789062e+01 -1.564476639032363892e-03 8.088773727416992188e+00 2.426162719726562500e+00 -9.571488015353679657e-03
7.770000000000000000e+02 7.934933471679687500e+01 -2.084425163269042969e+01 -1.542879181215539575e-04 7.728704929351806641e+00 2.318565130233764648e+00 -2.161954343318939209e-02
7.780000000000000000e+02 7.799870300292968750e+01 -2.624564361572265625e+01 -1.407371019013226032e-03 7.879345893859863281e+00 2.363381624221801758e+00 -5.853099375963211060e-02
7.790000000000000000e+02 7.930926513671875000e+01 -3.056164550781250000e+01 2.090528578264638782e-04 8.013782501220703125e+00 2.404197454452514648e+00 -1.762769743800163269e-02
7.800000000000000000e+02 7.786222076416015625e+01 -3.443423080444335938e+01 -4.849756136536598206e-03 8.051828384399414062e+00 2.414093732833862305e+00 -3.029045835137367249e-02
7.810000000000000000e+02 7.785628509521484375e+01 -3.310474014282226562e+01 -8.306096307933330536e-03 8.030319213867187500e+00 2.406604051589965820e+00 -3.736991062760353088e-02
7.820000000000000000e+02 7.461348724365234375e+01 -3.715848159790039062e+01 -2.782817371189594269e-02 8.010454177856445312e+00 2.394787788391113281e+00 -5.921198800206184387e-02
7.830000000000000000e+02 7.610077667236328125e+01 -3.883468627929687500e+01 -1.253920514136552811e-02 8.065719604492187500e+00 2.415954113006591797e+00 -3.094175830483436584e-02
7.840000000000000000e+02 7.794742584228515625e+01 1.402850437164306641e+01 2.539892448112368584e-03 7.568202495574951172e+00 2.271222591400146484e+00 5.612805485725402832e-02
7.850000000000000000e+02 7.931000518798828125e+01 1.536850929260253906e+01 4.676976823247969151e-04 7.583270072937011719e+00 2.275121450424194336e+00 2.138852328062057495e-02
7.860000000000000000e+02 7.789422607421875000e+01 2.106544876098632812e+01 -4.473987792152911425e-04 7.755775928497314453e+00 2.326598644256591797e+00 6.405301392078399658e-02
7.870000000000000000e+02 7.929299926757812500e+01 2.235516548156738281e+01 -2.726227103266865015e-04 7.797080039978027344e+00 2.339042186737060547e+00 2.300026081502437592e-02
7.880000000000000000e+02 7.733331298828125000e+01 3.133976173400878906e+01 -8.068732917308807373e-03 7.995676994323730469e+00 2.396282434463500977e+00 5.472570657730102539e-02
7.890000000000000000e+02 7.920462036132812500e+01 2.797840309143066406e+01 -2.660875361470971256e-05 7.959979534149169922e+00 2.387985944747924805e+00 2.278080582618713379e-02
7.900000000000000000e+02 7.782863616943359375e+01 2.525577735900878906e+01 -1.782113802619278431e-03 7.867639064788818359e+00 2.359756946563720703e+00 6.192272156476974487e-02
7.910000000000000000e+02 7.785704040527343750e+01 2.386240577697753906e+01 -1.480130827985703945e-03 7.831645965576171875e+00 2.349049806594848633e+00 6.291975080966949463e-02
7.920000000000000000e+02 7.789746856689453125e+01 1.825304603576660156e+01 8.615101687610149384e-04 7.678608894348144531e+00 2.303841114044189453e+00 6.326807290315628052e-02
7.930000000000000000e+02 7.792335510253906250e+01 1.543572807312011719e+01 2.057729987427592278e-03 7.603923797607421875e+00 2.281794309616088867e+00 5.925818905234336853e-02
7.940000000000000000e+02 7.790498352050781250e+01 1.684427261352539062e+01 1.506351865828037262e-03 7.640828132629394531e+00 2.292700290679931641e+00 6.186594069004058838e-02
7.950000000000000000e+02 7.796842956542968750e+01 1.262140941619873047e+01 3.059386508539319038e-03 7.534087657928466797e+00 2.261144161224365234e+00 5.232223868370056152e-02
7.960000000000000000e+02 7.663453674316406250e+01 1.122768688201904297e+01 8.639201521873474121e-03 7.529096603393554688e+00 2.261320829391479492e+00 7.541541010141372681e-02
7.970000000000000000e+02 7.801182556152343750e+01 8.438033103942871094e+00 4.148294683545827866e-03 7.447372436523437500e+00 2.235456228256225586e+00 3.836358711123466492e-02
7.980000000000000000e+02 7.933531188964843750e+01 9.783706665039062500e+00 8.376248297281563282e-04 7.437690258026123047e+00 2.231558322906494141e+00 1.562996208667755127e-02
7.990000000000000000e+02 7.935107421875000000e+01 -1.390175724029541016e+01 7.474880549125373363e-04 7.520074844360351562e+00 2.256246805191040039e+00 -1.865893043577671051e-02
8.000000000000000000e+02 7.934765625000000000e+01 -6.947058200836181641e+00 9.396063396707177162e-04 7.369389533996582031e+00 2.211098670959472656e+00 -1.032951567322015762e-02
8.010000000000000000e+02 7.934813690185546875e+01 -1.945832061767578125e+01 2.722724166233092546e-04 7.685126304626464844e+00 2.305619716644287109e+00 -2.155952528119087219e-02
8.020000000000000000e+02 7.801029205322265625e+01 6.939359009265899658e-02 5.268175154924392700e-03 7.367824554443359375e+00 2.211927652359008789e+00 2.260153181850910187e-03
8.030000000000000000e+02 7.933509063720703125e+01 1.421685457229614258e+00 1.075689797289669514e-03 7.323375225067138672e+00 2.197335243225097656e+00 3.146291477605700493e-03
8.040000000000000000e+02 7.668364715576171875e+01 7.069469928741455078e+00 1.111204735934734344e-02 7.459629058837890625e+00 2.241222381591796875e+00 5.200522020459175110e-02
8.050000000000000000e+02 7.744589996337890625e+01 2.971030807495117188e+01 -5.848840344697237015e-03 7.965461254119873047e+00 2.387883663177490234e+00 5.927898734807968140e-02
8.060000000000000000e+02 7.866720581054687500e+01 4.027603912353515625e+01 -2.465012948960065842e-03 8.127880096435546875e+00 2.437624454498291016e+00 -6.929854396730661392e-03
8.070000000000000000e+02 7.481793212890625000e+01 3.661429214477539062e+01 -2.891458198428153992e-02 8.014651298522949219e+00 2.395720958709716797e+00 5.208090692758560181e-02
8.080000000000000000e+02 7.800412750244140625e+01 9.829110145568847656e+00 3.884598845615983009e-03 7.473317623138427734e+00 2.243160724639892578e+00 4.324469342827796936e-02
8.090000000000000000e+02 7.668535614013671875e+01 8.330678939819335938e-02 1.329319737851619720e-02 7.408555507659912109e+00 2.226554632186889648e+00 3.477215068414807320e-03
8.100000000000000000e+02 7.800656890869140625e+01 2.865638971328735352e+00 5.141165107488632202e-03 7.378948688507080078e+00 2.215226888656616211e+00 1.521934568881988525e-02
8.110000000000000000e+02 7.801643371582031250e+01 -1.332902908325195312e+00 5.286256317049264908e-03 7.368350505828857422e+00 2.212090969085693359e+00 -4.337724763900041580e-03
8.120000000000000000e+02 7.934130859375000000e+01 -2.764998674392700195e+00 1.095644664019346237e-03 7.325922489166259766e+00 2.198105573654174805e+00 -3.838784061372280121e-03
8.130000000000000000e+02 7.804526519775390625e+01 -8.304827690124511719e+00 4.219362512230873108e-03 7.431188106536865234e+00 2.230622291564941406e+00 -3.422894328832626343e-02
8.140000000000000000e+02 7.803787231445312500e+01 -5.526033401489257812e+00 4.768561106175184250e-03 7.394330024719238281e+00 2.219729661941528320e+00 -2.298335172235965729e-02
8.150000000000000000e+02 7.934902954101562500e+01 -9.730686187744140625e+00 7.448483374901115894e-04 7.419348716735839844e+00 2.226027965545654297e+00 -1.414273120462894440e-02
8.160000000000000000e+02 7.805258178710937500e+01 -1.384234237670898438e+01 2.540785586461424828e-03 7.543664932250976562e+00 2.263861656188964844e+00 -5.169073492288589478e-02
8.170000000000000000e+02 7.805311584472656250e+01 -1.246170902252197266e+01 3.275850554928183556e-03 7.511448860168457031e+00 2.254417419433593750e+00 -4.825997352600097656e-02
8.180000000000000000e+02 7.934808349609375000e+01 -1.668148231506347656e+01 5.350979627110064030e-04 7.599851131439208984e+00 2.280115842819213867e+00 -2.062978968024253845e-02
8.190000000000000000e+02 7.804025268554687500e+01 -2.073096275329589844e+01 3.916718414984643459e-04 7.727584362030029297e+00 2.318392753601074219e+00 -6.060642004013061523e-02
8.200000000000000000e+02 7.803607940673828125e+01 -1.936128807067871094e+01 4.034413723275065422e-04 7.689326763153076172e+00 2.306919097900390625e+00 -6.009770184755325317e-02
8.210000000000000000e+02 6.604167938232421875e+00 1.933375167846679688e+01 -3.432596847414970398e-02 1.410648822784423828e-01 3.202167525887489319e-02 5.318283662199974060e-02
8.220000000000000000e+02 8.642555236816406250e+00 1.878980636596679688e+01 -8.415383845567703247e-02 -8.124892413616180420e-02 -4.962082952260971069e-02 -2.922697365283966064e-01
8.230000000000000000e+02 1.397748231887817383e+00 -3.997655105590820312e+01 3.082698211073875427e-02 8.229011893272399902e-01 2.561184465885162354e-01 9.489089995622634888e-02
8.240000000000000000e+02 7.738201618194580078e-01 3.738408660888671875e+01 1.871852204203605652e-02 4.518847763538360596e-01 1.411809921264648438e-01 -6.408321112394332886e-02
8.250000000000000000e+02 7.033634185791015625e-01 3.461967086791992188e+01 1.415533386170864105e-02 2.383983582258224487e-01 7.576610893011093140e-02 -5.058109015226364136e-02
8.260000000000000000e+02 7.205805182456970215e-01 3.322723388671875000e+01 -1.121112238615751266e-02 1.430557817220687866e-01 3.955340012907981873e-02 -4.399029165506362915e-02
8.270000000000000000e+02 7.634900212287902832e-01 2.753737640380859375e+01 -5.859182565473020077e-04 -2.109878212213516235e-01 -6.347212195396423340e-02 -4.214141890406608582e-02
8.280000000000000000e+02 7.180766463279724121e-01 2.611451339721679688e+01 1.219925563782453537e-02 -2.835326194763183594e-01 -8.140000700950622559e-02 -3.353599458932876587e-02
8.290000000000000000e+02 5.593329668045043945e-01 -3.597158813476562500e+01 1.125738956034183502e-02 5.082857608795166016e-01 1.558629423379898071e-01 3.610927611589431763e-02
8.300000000000000000e+02 1.989063978195190430e+00 -3.328408432006835938e+01 1.414057682268321514e-03 5.854451060295104980e-01 1.760577559471130371e-01 1.258717775344848633e-01
8.310000000000000000e+02 3.599603891372680664e+00 2.537075805664062500e+01 1.002068221569061279e-01 3.298955559730529785e-01 1.290307193994522095e-01 -1.535186022520065308e-01
8.320000000000000000e+02 2.195205211639404297e+00 3.309640502929687500e+01 9.139576926827430725e-03 4.559982120990753174e-01 1.395413279533386230e-01 -1.488643437623977661e-01
8.330000000000000000e+02 2.519861221313476562e+00 3.815908813476562500e+01 1.946130394935607910e-02 7.552103400230407715e-01 2.324014902114868164e-01 -1.423668712377548218e-01
8.340000000000000000e+02 3.413695573806762695e+00 3.919645309448242188e+01 -1.958714611828327179e-02 8.035126328468322754e-01 2.351776510477066040e-01 -1.024775430560112000e-01
8.350000000000000000e+02 2.219397068023681641e+00 -3.045821571350097656e+01 -1.234550867229700089e-02 4.559238851070404053e-01 1.330735087394714355e-01 1.508590430021286011e-01
8.360000000000000000e+02 2.077270507812500000e+00 -2.751204872131347656e+01 1.199243124574422836e-02 2.397321611642837524e-01 7.551737874746322632e-02 1.442164331674575806e-01
8.370000000000000000e+02 2.298747539520263672e+00 -3.636007690429687500e+01 -5.133542581461369991e-04 7.601310610771179199e-01 2.278853058815002441e-01 1.345071792602539062e-01
8.380000000000000000e+02 5.380096912384033203e+00 -1.743364715576171875e+01 -1.734075397253036499e-01 1.178283095359802246e-01 -1.667376607656478882e-02 -5.110159981995820999e-03
8.390000000000000000e+02 6.352011561393737793e-01 2.045683097839355469e+01 -1.684190938249230385e-03 -2.345107495784759521e-01 -7.085848599672317505e-02 3.543616831302642822e-02
8.400000000000000000e+02 6.091517806053161621e-01 1.904482841491699219e+01 1.944044139236211777e-03 -1.536723822355270386e-01 -4.551850259304046631e-02 3.509578853845596313e-02
8.410000000000000000e+02 6.151356697082519531e-01 1.487649059295654297e+01 -6.194174289703369141e-03 -1.057044602930545807e-02 -5.029386375099420547e-03 7.019058801233768463e-03
8.420000000000000000e+02 6.111598610877990723e-01 1.346461296081542969e+01 3.088789992034435272e-03 8.969383779913187027e-04 1.195718534290790558e-03 2.802483271807432175e-03
8.430000000000000000e+02 5.232530236244201660e-01 7.845744132995605469e+00 2.667042426764965057e-03 2.642390783876180649e-03 1.592829939909279346e-03 -9.436107357032597065e-04
8.440000000000000000e+02 6.371558904647827148e-01 -1.910359191894531250e+01 9.561005281284451485e-04 -1.780816316604614258e-01 -5.313765630125999451e-02 -3.252936154603958130e-02
8.450000000000000000e+02 1.658414840698242188e+00 -9.311038017272949219e+00 -2.384542021900415421e-03 4.466834652703255415e-04 -5.813575698994100094e-04 7.580245728604495525e-04
8.460000000000000000e+02 5.160092353820800781e+00 -3.998560714721679688e+01 -1.097174510359764099e-01 1.430591583251953125e+00 3.962622582912445068e-01 3.453604504466056824e-02
8.470000000000000000e+02 3.614886522293090820e+00 -3.880935668945312500e+01 -2.001464180648326874e-02 9.770355820655822754e-01 2.871062755584716797e-01 1.092667430639266968e-01
8.480000000000000000e+02 4.541250228881835938e+00 -3.543378448486328125e+01 -3.152038902044296265e-02 1.213125586509704590e+00 3.544815480709075928e-01 1.763552427291870117e-01
8.490000000000000000e+02 1.514124631881713867e+00 -3.527854537963867188e+01 -1.463603228330612183e-03 6.039729714393615723e-01 1.807527989149093628e-01 1.170010790228843689e-01
8.500000000000000000e+02 2.135372877120971680e+00 -3.191446304321289062e+01 -8.332342840731143951e-03 5.154127478599548340e-01 1.521241217851638794e-01 1.346624940633773804e-01
8.510000000000000000e+02 3.410996675491333008e+00 -2.736784934997558594e+01 3.570842742919921875e-02 5.403843522071838379e-01 1.728278398513793945e-01 2.258360683917999268e-01
8.520000000000000000e+02 1.947407007217407227e+00 -2.467473411560058594e+01 2.480534091591835022e-02 4.146153107285499573e-02 1.988006196916103363e-02 7.059282064437866211e-02
8.530000000000000000e+02 2.003969669342041016e+00 -2.608512306213378906e+01 3.227448463439941406e-02 1.223491504788398743e-01 4.638709127902984619e-02 1.080184057354927063e-01
8.540000000000000000e+02 6.273209452629089355e-01 -2.054025459289550781e+01 4.023013170808553696e-03 -2.446377873420715332e-01 -7.218443602323532104e-02 -2.700507454574108124e-02
8.550000000000000000e+02 3.048271656036376953e+00 -2.183674812316894531e+01 8.986610174179077148e-02 1.254499107599258423e-01 6.459480524063110352e-02 7.125859148800373077e-03
8.560000000000000000e+02 1.651440382003784180e+00 -1.606420707702636719e+01 -1.295347325503826141e-02 -2.156597934663295746e-02 -1.035583578050136566e-02 -3.875172883272171021e-02
8.570000000000000000e+02 1.646334290504455566e+00 -1.206510162353515625e+01 -5.290439818054437637e-03 -4.895572201348841190e-04 -1.733999117277562618e-03 -1.932082348503172398e-03
8.580000000000000000e+02 5.420759320259094238e-01 -1.208575153350830078e+01 1.502889557741582394e-03 2.803119830787181854e-03 1.291802851483225822e-03 -5.684015341103076935e-04
8.590000000000000000e+02 8.689305305480957031e+00 -9.770596504211425781e+00 -3.157607978209853172e-03 2.398763899691402912e-04 -8.753194706514477730e-04 1.025693607516586781e-03
8.600000000000000000e+02 5.337353229522705078e+00 -3.490489482879638672e+00 -2.629761002026498318e-04 -1.024257042445242405e-03 -3.861699369736015797e-04 -5.756706232205033302e-04
8.610000000000000000e+02 3.693425416946411133e+00 -2.915876388549804688e+00 1.035407185554504395e-03 1.303798344451934099e-04 3.497361030895262957e-04 6.088342051953077316e-04
8.620000000000000000e+02 2.922331571578979492e+00 -3.109186410903930664e+00 -1.128978561609983444e-03 1.374871935695409775e-04 -2.974474045913666487e-04 -1.871772692538797855e-04
8.630000000000000000e+02 1.366202712059020996e+00 -3.388357162475585938e+00 -4.647903260774910450e-04 1.180092949653044343e-04 -1.040343122440390289e-04 1.253455848200246692e-04
8.640000000000000000e+02 5.216243267059326172e-01 4.969895839691162109e+00 1.257474417798221111e-03 8.662976324558258057e-04 6.371316267177462578e-04 -6.753035122528672218e-04
8.650000000000000000e+02 4.215139865875244141e+00 4.677138328552246094e+00 1.318034948781132698e-03 -6.940021994523704052e-04 1.872098364401608706e-04 -1.304200966842472553e-03
8.660000000000000000e+02 1.704704165458679199e+00 1.057150554656982422e+01 -3.103926777839660645e-03 1.945258118212223053e-03 -3.476005804259330034e-04 1.368943194393068552e-04
8.670000000000000000e+02 5.652248859405517578e-01 1.065694332122802734e+01 4.000708460807800293e-03 5.252413917332887650e-03 2.775936620309948921e-03 -1.057145418599247932e-03
8.680000000000000000e+02 1.849597096443176270e+00 1.334225082397460938e+01 -9.503039531409740448e-03 3.847884654533118010e-04 -2.735475311055779457e-03 6.425103172659873962e-03
8.690000000000000000e+02 1.891074776649475098e+00 1.479705333709716797e+01 -7.312026806175708771e-03 -7.132721599191427231e-03 -4.333424381911754608e-03 1.842372305691242218e-02
8.700000000000000000e+02 2.651584386825561523e+00 1.669381523132324219e+01 -2.985698170959949493e-02 6.017281208187341690e-03 -7.151910103857517242e-03 5.057085305452346802e-02
8.710000000000000000e+02 1.739806056022644043e+00 1.619535636901855469e+01 -1.721078902482986450e-02 -2.286174520850181580e-02 -1.202176045626401901e-02 3.277890756726264954e-02
8.720000000000000000e+02 1.954690575599670410e+00 2.443028640747070312e+01 4.278649762272834778e-02 -4.760493710637092590e-02 -1.445532427169382572e-03 -3.541929274797439575e-02
8.730000000000000000e+02 1.028398799896240234e+01 9.722341537475585938e+00 -2.202854258939623833e-03 8.102040737867355347e-03 1.769755966961383820e-03 1.449987874366343021e-03
8.740000000000000000e+02 1.477890682220458984e+01 4.876042366027832031e+00 -1.025885285343974829e-04 3.214094031136482954e-04 6.564626528415828943e-05 -3.923480398952960968e-04
8.750000000000000000e+02 1.041121959686279297e+01 1.333905315399169922e+01 6.962283980101346970e-03 1.403214316815137863e-02 6.298328284174203873e-03 4.435086622834205627e-03
8.760000000000000000e+02 8.544952392578125000e+00 9.895166397094726562e+00 -3.299868665635585785e-03 5.624197889119386673e-03 6.972988485358655453e-04 -7.314620888791978359e-04
8.770000000000000000e+02 1.119382858276367188e+01 1.045398616790771484e+01 -1.092094345949590206e-03 -4.255152307450771332e-03 -1.604174030944705009e-03 -2.867476548999547958e-03
8.780000000000000000e+02 7.301071166992187500e+00 -1.209597873687744141e+01 -3.858127864077687263e-03 1.998031279072165489e-03 -5.580290453508496284e-04 1.088057644665241241e-03
8.790000000000000000e+02 7.980222225189208984e+00 -1.091968917846679688e+01 2.074880525469779968e-03 2.215838292613625526e-03 1.287215622141957283e-03 -1.715068472549319267e-03
8.800000000000000000e+02 1.958706855773925781e+01 -3.944260358810424805e+00 -2.927922904491424561e-01 8.787984848022460938e+00 2.548557519912719727e+00 -2.721841812133789062e+00
8.810000000000000000e+02 2.046659660339355469e+01 -3.875606298446655273e+00 -1.057371020317077637e+00 1.348792839050292969e+01 3.729167222976684570e+00 -1.614850521087646484e+00
8.820000000000000000e+02 2.096484947204589844e+01 -3.573726892471313477e+00 -6.851336359977722168e-01 1.341448974609375000e+01 3.818806886672973633e+00 -2.955566346645355225e-01
8.830000000000000000e+02 1.917675971984863281e+01 -7.490456581115722656e+00 3.356475591659545898e+00 6.437676429748535156e+00 2.938245534896850586e+00 5.056330680847167969e+00
8.840000000000000000e+02 1.809938240051269531e+01 -1.077354812622070312e+01 1.600432872772216797e+00 5.747147560119628906e+00 2.204274177551269531e+00 3.255828619003295898e+00
8.850000000000000000e+02 1.322113609313964844e+01 2.781615734100341797e+00 -4.318065475672483444e-04 4.686538304667919874e-04 1.105418141378322616e-05 -6.143288919702172279e-04
8.860000000000000000e+02 2.180002212524414062e+01 -3.313685655593872070e+00 -2.654161155223846436e-01 1.321371841430664062e+01 3.884490728378295898e+00 3.775759339332580566e-01
8.870000000000000000e+02 2.054045295715332031e+01 -2.998211860656738281e+00 -1.002550840377807617e+00 1.192964935302734375e+01 3.278129577636718750e+00 -1.325705528259277344e+00
8.880000000000000000e+02 9.550859451293945312e+00 -2.452389955520629883e+00 2.166967606171965599e-04 1.725799520500004292e-03 5.827489076182246208e-04 -4.236510430928319693e-04
8.890000000000000000e+02 1.153333473205566406e+01 -3.579427480697631836e+00 1.517776865512132645e-03 1.169107854366302490e-03 8.060653926804661751e-04 -1.463945605792105198e-03
8.900000000000000000e+02 1.093662548065185547e+01 -2.640964031219482422e+00 7.953222375363111496e-04 1.403092639520764351e-03 6.595244631171226501e-04 -1.297402661293745041e-03
8.910000000000000000e+02 1.120085048675537109e+01 -4.411114215850830078e+00 -1.475079450756311417e-03 -1.426859525963664055e-03 -8.705816580913960934e-04 1.169261639006435871e-03
8.920000000000000000e+02 1.256245326995849609e+01 -2.812619447708129883e+00 1.728956587612628937e-03 -3.614875313360244036e-04 4.102407256141304970e-04 -1.767477660905569792e-04
8.930000000000000000e+02 1.091351032257080078e+01 3.479407072067260742e+00 4.872232966590672731e-04 -6.604123627766966820e-04 -5.195672565605491400e-05 -1.123911701142787933e-03
8.940000000000000000e+02 9.528282165527343750e+00 2.669243574142456055e+00 -1.626036828383803368e-04 4.764993791468441486e-04 9.416871034773066640e-05 1.399080152623355389e-03
8.950000000000000000e+02 1.296826171875000000e+01 4.738658905029296875e+00 -4.441390337888151407e-04 -3.827921173069626093e-04 -2.480793336872011423e-04 -1.296587288379669189e-03
8.960000000000000000e+02 1.313235569000244141e+01 3.737972497940063477e+00 5.073811626061797142e-04 2.252082340419292450e-04 2.197768189944326878e-04 1.396144158206880093e-03
8.970000000000000000e+02 6.796187877655029297e+00 -3.328370332717895508e+00 -4.422607598826289177e-04 -1.113035832531750202e-03 -4.665889719035476446e-04 -4.324977053329348564e-04
8.980000000000000000e+02 2.671883106231689453e+00 -6.753749370574951172e+00 2.474189968779683113e-03 2.266416558995842934e-04 8.102494757622480392e-04 4.695796524174511433e-04
8.990000000000000000e+02 7.701962471008300781e+00 -4.035408020019531250e+00 -5.924254073761403561e-04 -1.715447055175900459e-03 -6.923617329448461533e-04 -4.440452612470835447e-04
9.000000000000000000e+02 8.854337692260742188e+00 -2.466612100601196289e+00 -2.688459353521466255e-04 -1.390285440720617771e-03 -4.977394128218293190e-04 -1.408260868629440665e-04
9.010000000000000000e+02 5.915925979614257812e+00 -2.640400886535644531e+00 -1.851931447163224220e-04 -9.572742274031043053e-04 -3.427402116358280182e-04 -4.120267694815993309e-04
9.020000000000000000e+02 5.530973911285400391e+00 -4.257344245910644531e+00 1.004114397801458836e-03 4.613373312167823315e-04 4.396355070639401674e-04 5.497568054124712944e-04
9.030000000000000000e+02 3.515375852584838867e+00 -4.770217418670654297e+00 -1.610683044418692589e-03 -3.400563728064298630e-04 -5.852218018844723701e-04 -7.620211108587682247e-04
9.040000000000000000e+02 2.128394603729248047e+00 -3.204004287719726562e+00 1.380268135108053684e-03 -6.779772775189485401e-06 4.120465309824794531e-04 -3.724465786945074797e-04
9.050000000000000000e+02 1.644044995307922363e+00 -5.294364929199218750e+00 1.686390372924506664e-03 4.933413583785295486e-04 6.539195310324430466e-04 -2.273140562465414405e-04
9.060000000000000000e+02 4.174435615539550781e+00 2.831021308898925781e+00 8.034579805098474026e-04 -2.290172851644456387e-04 1.723322202451527119e-04 -1.140974345616996288e-03
9.070000000000000000e+02 4.945867538452148438e+00 2.777219772338867188e+00 1.147509683505631983e-04 -7.621780241606757045e-06 3.213875606888905168e-05 5.205631605349481106e-04
9.080000000000000000e+02 5.710719108581542969e+00 3.561153173446655273e+00 7.770797674311324954e-05 -6.448312342399731278e-05 3.967455995734781027e-06 7.677013636566698551e-04
9.090000000000000000e+02 7.237265586853027344e+00 3.481557607650756836e+00 -1.132405741373077035e-04 3.305393911432474852e-04 6.518964801216498017e-05 1.138510764576494694e-03
9.100000000000000000e+02 1.773044824600219727e+00 3.843287944793701172e+00 1.723040826618671417e-03 -2.743048244155943394e-04 4.346207715570926666e-04 -5.983489099889993668e-04
9.110000000000000000e+02 4.585483670234680176e-01 3.527806520462036133e+00 -7.535978220403194427e-04 3.355485096108168364e-04 -1.254147937288507819e-04 2.904319553636014462e-04
9.120000000000000000e+02 7.990139484405517578e+00 3.481146574020385742e+00 1.023379387333989143e-03 -1.079819747246801853e-03 -1.693212470854632556e-05 -8.711814880371093750e-04
9.130000000000000000e+02 8.026026725769042969e+00 2.675899982452392578e+00 -3.846231629722751677e-05 3.774769720621407032e-04 1.017043978208675981e-04 1.111699035391211510e-03
9.140000000000000000e+02 8.731350898742675781e+00 3.487650394439697266e+00 -2.982093719765543938e-04 6.337109953165054321e-04 1.006504899123683572e-04 1.561112585477530956e-03
9.150000000000000000e+02 1.019167327880859375e+01 3.460889816284179688e+00 -3.093688283115625381e-04 5.833759205415844917e-04 8.220213203458115458e-05 1.881893607787787914e-03
9.160000000000000000e+02 1.268865966796875000e+01 5.763377189636230469e+00 5.515444354387000203e-05 2.084560459479689598e-03 6.419144920073449612e-04 2.011684002354741096e-03
9.170000000000000000e+02 9.452445983886718750e+00 4.361863136291503906e+00 -5.010233144275844097e-04 6.406569737009704113e-04 4.189008905086666346e-05 2.234948799014091492e-03
9.180000000000000000e+02 2.063754272460937500e+01 -9.821684658527374268e-02 -2.050635665655136108e-01 1.054395484924316406e+01 3.101667404174804688e+00 -1.029083371162414551e+00
9.190000000000000000e+02 2.067705917358398438e+01 2.790024518966674805e+00 3.585019707679748535e-01 1.092404460906982422e+01 3.384763956069946289e+00 -1.101584672927856445e+00
9.200000000000000000e+02 2.111871910095214844e+01 5.169465065002441406e+00 7.999651432037353516e-01 1.063897705078125000e+01 3.431682825088500977e+00 -1.228568911552429199e+00
9.210000000000000000e+02 2.280859375000000000e+01 -3.024122714996337891e+00 5.601730942726135254e-01 1.262266826629638672e+01 3.954852342605590820e+00 1.056560516357421875e+00
9.220000000000000000e+02 2.163699913024902344e+01 -9.978912353515625000e+00 6.079044938087463379e-01 1.074504566192626953e+01 3.405884981155395508e+00 1.416131258010864258e+00
9.230000000000000000e+02 2.189982795715332031e+01 -8.636135101318359375e+00 1.552176356315612793e+00 1.235141944885253906e+01 4.171078681945800781e+00 6.720788478851318359e-01
9.240000000000000000e+02 2.411185455322265625e+01 -3.493931293487548828e+00 1.784072399139404297e+00 1.127507591247558594e+01 3.917744398117065430e+00 1.240667223930358887e+00
9.250000000000000000e+02 1.840785598754882812e+01 -8.434920310974121094e+00 2.333337068557739258e+00 4.852035999298095703e+00 2.155611991882324219e+00 3.850240468978881836e+00
9.260000000000000000e+02 1.875791358947753906e+01 -1.002737998962402344e+01 1.409334778785705566e+00 6.600144863128662109e+00 2.402843952178955078e+00 3.693240880966186523e+00
9.270000000000000000e+02 1.357394218444824219e+01 6.002264022827148438e+00 -6.616181926801800728e-04 -3.020089061465114355e-04 -2.890881441999226809e-04 -1.304576988331973553e-03
9.280000000000000000e+02 1.261614608764648438e+01 8.288555145263671875e+00 -9.643175289966166019e-04 -1.655077910982072353e-03 -7.858186145313084126e-04 -1.974831102415919304e-03
9.290000000000000000e+02 6.032803535461425781e+00 -1.446142864227294922e+01 -2.545339427888393402e-02 -7.869953289628028870e-03 -9.997004643082618713e-03 3.341122344136238098e-02
9.300000000000000000e+02 6.654287338256835938e+00 -1.329553604125976562e+01 2.954497700557112694e-03 -1.072289701551198959e-02 -2.330519724637269974e-03 -2.666829277586657554e-05
9.310000000000000000e+02 1.893936538696289062e+01 1.109495067596435547e+01 1.402737975120544434e+00 9.607389450073242188e+00 3.303038120269775391e+00 -2.203882694244384766e+00
9.320000000000000000e+02 2.148279380798339844e+01 8.115551948547363281e+00 1.180872440338134766e+00 9.872260093688964844e+00 3.315939903259277344e+00 -1.360572814941406250e+00
9.330000000000000000e+02 1.072486019134521484e+01 -3.366670131683349609e+00 -4.891214775852859020e-04 -1.867803046479821205e-03 -7.070773863233625889e-04 1.289831241592764854e-03
9.340000000000000000e+02 8.436274528503417969e+00 -2.025971031188964844e+01 5.680564045906066895e-01 7.020052075386047363e-01 3.810184895992279053e-01 6.987687945365905762e-01
9.350000000000000000e+02 7.786446094512939453e+00 -1.881317710876464844e+01 1.672407835721969604e-01 9.638785570859909058e-02 7.908859103918075562e-02 3.002004325389862061e-01
9.360000000000000000e+02 1.006184101104736328e+01 -6.181666851043701172e+00 -1.160852727480232716e-03 -1.214070245623588562e-03 -7.124769035726785660e-04 7.992197643034160137e-04
9.370000000000000000e+02 1.493991661071777344e+01 -1.892434692382812500e+01 3.743121623992919922e-01 3.959495067596435547e+00 1.300142168998718262e+00 1.539504647254943848e+00
9.380000000000000000e+02 1.584344959259033203e+01 -1.579937648773193359e+01 9.540607929229736328e-01 4.380546569824218750e+00 1.600382208824157715e+00 1.944008231163024902e+00
9.390000000000000000e+02 9.425736427307128906e+00 -1.985398292541503906e+01 5.758399963378906250e-01 1.098473191261291504e+00 5.022939443588256836e-01 1.002741575241088867e+00
9.400000000000000000e+02 1.974143409729003906e+01 -1.115057563781738281e+01 8.453870415687561035e-01 8.038430213928222656e+00 2.665145158767700195e+00 2.926196336746215820e+00
9.410000000000000000e+02 1.395954608917236328e+01 3.736717939376831055e+00 -5.047475569881498814e-04 6.217334303073585033e-04 3.509577072691172361e-05 -7.015353767201304436e-04
9.420000000000000000e+02 3.041026830673217773e+00 2.175766372680664062e+01 6.289451569318771362e-02 5.003419518470764160e-02 3.387861326336860657e-02 5.625890940427780151e-02
9.430000000000000000e+02 7.791907501220703125e+01 -3.569084548950195312e+01 -7.261494174599647522e-03 8.067847251892089844e+00 2.418175935745239258e+00 -2.397641725838184357e-02
9.440000000000000000e+02 7.277033233642578125e+01 -3.752407073974609375e+01 -4.895059019327163696e-02 7.974975585937500000e+00 2.377807617187500000e+00 -6.376317888498306274e-02
9.450000000000000000e+02 7.666288757324218750e+01 -3.571004867553710938e+01 -1.326981279999017715e-02 8.038611412048339844e+00 2.407602548599243164e+00 -4.230970144271850586e-02
9.460000000000000000e+02 7.414256286621093750e+01 -2.312561035156250000e+01 -5.350697785615921021e-03 7.782840251922607422e+00 2.333246946334838867e+00 -1.514124870300292969e-01
9.470000000000000000e+02 7.792964935302734375e+01 -2.900300598144531250e+01 -2.093072980642318726e-03 7.946082115173339844e+00 2.383196830749511719e+00 -5.420989543199539185e-02
9.480000000000000000e+02 7.508483886718750000e+01 1.546759033203125000e+01 9.186380542814731598e-03 7.634680271148681641e+00 2.293159961700439453e+00 1.244991645216941833e-01
9.490000000000000000e+02 7.651692962646484375e+01 1.547040653228759766e+01 4.953804891556501389e-03 7.620935440063476562e+00 2.287766695022583008e+00 9.357707947492599487e-02
9.500000000000000000e+02 7.777330780029296875e+01 3.542563247680664062e+01 -7.319427095353603363e-03 8.064647674560546875e+00 2.417198419570922852e+00 2.958092652261257172e-02
9.510000000000000000e+02 7.585528564453125000e+01 3.361663055419921875e+01 -1.807953044772148132e-02 8.004859924316406250e+00 2.396034002304077148e+00 6.513846665620803833e-02
9.520000000000000000e+02 7.804383087158203125e+01 -2.209974479675292969e+01 -4.324692126829177141e-04 7.765772819519042969e+00 2.329602241516113281e+00 -6.025023385882377625e-02
9.530000000000000000e+02 7.673826599121093750e+01 -2.332736968994140625e+01 -1.767558860592544079e-03 7.794039249420166016e+00 2.337681531906127930e+00 -9.372763335704803467e-02
9.540000000000000000e+02 7.647516632080078125e+01 -3.016331481933593750e+01 -9.247427806258201599e-03 7.944277286529541016e+00 2.380508899688720703e+00 -8.062937110662460327e-02
9.550000000000000000e+02 7.796186828613281250e+01 -2.763253211975097656e+01 -2.750612795352935791e-03 7.914058208465576172e+00 2.373392343521118164e+00 -5.575352534651756287e-02
9.560000000000000000e+02 7.649748229980468750e+01 -2.881595611572265625e+01 -8.075890131294727325e-03 7.919637203216552734e+00 2.373468399047851562e+00 -8.464325219392776489e-02
9.570000000000000000e+02 7.658248901367187500e+01 -2.745219230651855469e+01 -5.896270740777254105e-03 7.891555786132812500e+00 2.365697860717773438e+00 -8.986750990152359009e-02
9.580000000000000000e+02 7.667247009277343750e+01 -2.606855964660644531e+01 -4.578460473567247391e-03 7.859629154205322266e+00 2.356515169143676758e+00 -9.118956327438354492e-02
9.590000000000000000e+02 7.643235778808593750e+01 -3.151759529113769531e+01 -1.526237279176712036e-02 7.971083641052246094e+00 2.386746406555175781e+00 -7.360758632421493530e-02
9.600000000000000000e+02 7.628137969970703125e+01 -3.430527114868164062e+01 -1.851931773126125336e-02 8.015649795532226562e+00 2.399139165878295898e+00 -5.548813194036483765e-02
9.610000000000000000e+02 7.253148651123046875e+01 -2.947935485839843750e+01 -3.332264348864555359e-02 7.887046337127685547e+00 2.356117248535156250e+00 -1.511927098035812378e-01
9.620000000000000000e+02 7.788013458251953125e+01 2.246768951416015625e+01 -7.918710471130907536e-04 7.794176578521728516e+00 2.338015556335449219e+00 6.389305740594863892e-02
9.630000000000000000e+02 7.648520660400390625e+01 1.975080299377441406e+01 5.107174511067569256e-04 7.722229480743408203e+00 2.316822052001953125e+00 1.004739925265312195e-01
9.640000000000000000e+02 7.506653594970703125e+01 2.262468719482421875e+01 -4.711114801466464996e-03 7.788774967193603516e+00 2.335219144821166992e+00 1.319742649793624878e-01
9.650000000000000000e+02 7.649501037597656250e+01 2.116040992736816406e+01 -9.546180372126400471e-04 7.756790161132812500e+00 2.326750755310058594e+00 1.005726680159568787e-01
9.660000000000000000e+02 7.660085296630859375e+01 1.263101005554199219e+01 7.574450690299272537e-03 7.557591438293457031e+00 2.269549608230590820e+00 8.232136070728302002e-02
9.670000000000000000e+02 7.532012176513671875e+01 8.428009986877441406e+00 1.940532028675079346e-02 7.506978988647460938e+00 2.257915258407592773e+00 8.004689216613769531e-02
9.680000000000000000e+02 7.656130981445312500e+01 1.404708766937255859e+01 6.329275667667388916e-03 7.588399887084960938e+00 2.278418779373168945e+00 8.829236775636672974e-02
9.690000000000000000e+02 7.642350769042968750e+01 2.395770263671875000e+01 -3.536222735419869423e-03 7.824098587036132812e+00 2.346168756484985352e+00 9.876618534326553345e-02
9.700000000000000000e+02 7.778092956542968750e+01 2.666620826721191406e+01 -2.099871868267655373e-03 7.902436733245849609e+00 2.370100975036621094e+00 6.057481095194816589e-02
9.710000000000000000e+02 7.672710418701171875e+01 -2.197274398803710938e+01 -2.498766407370567322e-04 7.760698795318603516e+00 2.328134536743164062e+00 -9.533923119306564331e-02
9.720000000000000000e+02 7.630245971679687500e+01 2.814116859436035156e+01 -9.020631201565265656e-03 7.916809082031250000e+00 2.372336387634277344e+00 8.883129805326461792e-02
9.730000000000000000e+02 7.539609527587890625e+01 -1.647282028198242188e+01 7.748592179268598557e-03 7.638288021087646484e+00 2.293811082839965820e+00 -1.200720593333244324e-01
9.740000000000000000e+02 7.670037841796875000e+01 -1.927118873596191406e+01 1.728235627524554729e-03 7.693745136260986328e+00 2.308642148971557617e+00 -9.514634311199188232e-02
9.750000000000000000e+02 7.541673278808593750e+01 -8.312280654907226562e+00 1.989855431020259857e-02 7.493210792541503906e+00 2.253932714462280273e+00 -7.174129784107208252e-02
9.760000000000000000e+02 7.804732513427734375e+01 -1.522286415100097656e+01 2.379817422479391098e-03 7.578023433685302734e+00 2.274121046066284180e+00 -5.495877563953399658e-02
9.770000000000000000e+02 7.536517333984375000e+01 -1.352013349533081055e+00 2.448673546314239502e-02 7.443212032318115234e+00 2.240309715270996094e+00 -9.411429055035114288e-03
9.780000000000000000e+02 7.673766326904296875e+01 -8.293927192687988281e+00 1.086262054741382599e-02 7.464553833007812500e+00 2.242624998092651367e+00 -5.402111634612083435e-02
9.790000000000000000e+02 7.801238250732421875e+01 5.656707763671875000e+00 4.718666896224021912e-03 7.405697822570800781e+00 2.223124980926513672e+00 2.740991674363613129e-02
9.800000000000000000e+02 7.667864227294921875e+01 2.890265941619873047e+00 1.302537787705659866e-02 7.418630599975585938e+00 2.229496717453002930e+00 2.386028505861759186e-02
9.810000000000000000e+02 7.652491760253906250e+01 3.503773880004882812e+01 -1.098789181560277939e-02 8.036891937255859375e+00 2.407771110534667969e+00 4.506445303559303284e-02
9.820000000000000000e+02 7.801409912109375000e+01 7.047636508941650391e+00 4.523553885519504547e-03 7.424782276153564453e+00 2.228791713714599609e+00 3.294889628887176514e-02
9.830000000000000000e+02 7.668370819091796875e+01 5.684321403503417969e+00 1.197770424187183380e-02 7.442736148834228516e+00 2.236414194107055664e+00 4.300298541784286499e-02
9.840000000000000000e+02 7.670497131347656250e+01 -2.730444192886352539e+00 1.299524400383234024e-02 7.412973403930664062e+00 2.227790594100952148e+00 -1.700409874320030212e-02
9.850000000000000000e+02 7.674260711669921875e+01 -9.676281929016113281e+00 9.787810966372489929e-03 7.485536098480224609e+00 2.248597145080566406e+00 -6.177999079227447510e-02
9.860000000000000000e+02 7.672416687011718750e+01 -1.653885459899902344e+01 4.434559028595685959e-03 7.626965999603271484e+00 2.289420127868652344e+00 -9.042471647262573242e-02
9.870000000000000000e+02 7.396076202392578125e+01 3.453625488281250000e+01 -3.684895113110542297e-02 7.973410606384277344e+00 2.380968570709228516e+00 8.091551810503005981e-02
9.880000000000000000e+02 7.552960968017578125e+01 3.198089981079101562e+01 -1.862406171858310699e-02 7.971312046051025391e+00 2.385806322097778320e+00 8.208291977643966675e-02
9.890000000000000000e+02 7.647227478027343750e+01 1.833146095275878906e+01 2.228535711765289307e-03 7.688023567199707031e+00 2.307075738906860352e+00 9.983847290277481079e-02
9.900000000000000000e+02 7.666176605224609375e+01 9.837879180908203125e+00 9.619299322366714478e-03 7.502983093261718750e+00 2.253780841827392578e+00 6.821545213460922241e-02
9.910000000000000000e+02 7.674186706542968750e+01 -1.516407299041748047e+01 5.335053894668817520e-03 7.594755172729492188e+00 2.280027151107788086e+00 -8.610680699348449707e-02
9.920000000000000000e+02 7.804235076904296875e+01 -6.917341232299804688e+00 4.659147001802921295e-03 7.410965919494628906e+00 2.224687576293945312e+00 -2.890316210687160492e-02
9.930000000000000000e+02 7.800686645507812500e+01 1.466903448104858398e+00 5.326182581484317780e-03 7.371388912200927734e+00 2.213014602661132812e+00 8.696169592440128326e-03
9.940000000000000000e+02 7.669466400146484375e+01 -1.324928998947143555e+00 1.306675001978874207e-02 7.408855438232421875e+00 2.226576566696166992e+00 -6.696469150483608246e-03
9.950000000000000000e+02 7.668049621582031250e+01 4.291359424591064453e+00 1.238152012228965759e-02 7.429013729095458984e+00 2.232418537139892578e+00 3.383623808622360229e-02
9.960000000000000000e+02 7.672377014160156250e+01 -5.523822784423828125e+00 1.218018960207700729e-02 7.431926250457763672e+00 2.233232021331787109e+00 -3.636990115046501160e-02
9.970000000000000000e+02 7.671479034423828125e+01 -4.129082202911376953e+00 1.242711115628480911e-02 7.420625209808349609e+00 2.229915618896484375e+00 -2.668304927647113800e-02
9.980000000000000000e+02 7.543849182128906250e+01 -1.105639171600341797e+01 1.645761914551258087e-02 7.533065319061279297e+00 2.264856815338134766e+00 -9.168260544538497925e-02
9.990000000000000000e+02 7.675247955322265625e+01 -1.379462814331054688e+01 6.897079758346080780e-03 7.564028263092041016e+00 2.271277666091918945e+00 -8.139742910861968994e-02
1.000000000000000000e+03 7.674846649169921875e+01 -1.105511188507080078e+01 9.028493426740169525e-03 7.509374618530273438e+00 2.255520820617675781e+00 -6.925920397043228149e-02
1.001000000000000000e+03 7.670944213867187500e+01 -2.062356758117675781e+01 2.625042689032852650e-04 7.726944446563720703e+00 2.318162202835083008e+00 -9.539273381233215332e-02
1.002000000000000000e+03 9.456680297851562500e+00 1.254669284820556641e+01 -3.548704844433814287e-04 -9.374052286148071289e-03 -2.918676706030964851e-03 -3.104946110397577286e-03
1.003000000000000000e+03 7.546463966369628906e+00 1.477049255371093750e+01 8.341278880834579468e-03 -3.423942252993583679e-02 -7.769442629069089890e-03 -4.387986380606889725e-03
1.004000000000000000e+03 1.107175827026367188e+01 8.760472297668457031e+00 3.472561365924775600e-04 -4.436560440808534622e-03 -1.226791297085583210e-03 -1.059340895153582096e-03
1.005000000000000000e+03 1.871404647827148438e+01 1.436190032958984375e+01 1.193737864494323730e+00 7.878095149993896484e+00 2.721549987792968750e+00 -1.903781294822692871e+00
1.006000000000000000e+03 2.098220825195312500e+00 3.442903518676757812e+01 -4.356452729552984238e-03 5.354276895523071289e-01 1.593213826417922974e-01 -1.411320865154266357e-01
1.007000000000000000e+03 5.152491092681884766e+00 3.659970474243164062e+01 -6.500253826379776001e-02 1.330790996551513672e+00 3.797365427017211914e-01 -1.667967140674591064e-01
1.008000000000000000e+03 2.295346975326538086e+00 2.727837753295898438e+01 2.368333563208580017e-02 1.394701302051544189e-01 4.894604161381721497e-02 -1.188095211982727051e-01
1.009000000000000000e+03 3.773352384567260742e+00 3.022353172302246094e+01 -7.149939890950918198e-03 6.938145160675048828e-01 2.059993743896484375e-01 -2.486093044281005859e-01
1.010000000000000000e+03 2.151436805725097656e+00 2.581250953674316406e+01 3.587106242775917053e-02 4.339594393968582153e-02 2.378010191023349762e-02 -7.972211390733718872e-02
1.011000000000000000e+03 3.868508815765380859e+00 2.697479248046875000e+01 6.090373173356056213e-02 5.011486411094665527e-01 1.686157137155532837e-01 -2.135978788137435913e-01
1.012000000000000000e+03 5.302038192749023438e+00 3.370744705200195312e+01 -6.550937145948410034e-02 1.299011945724487305e+00 3.700507581233978271e-01 -2.775390446186065674e-01
1.013000000000000000e+03 3.200774431228637695e+00 2.404279327392578125e+01 8.613617718219757080e-02 1.622726917266845703e-01 7.452265918254852295e-02 -6.092358753085136414e-02
1.014000000000000000e+03 3.834396123886108398e+00 2.867456245422363281e+01 3.395857289433479309e-02 6.028971076011657715e-01 1.910567134618759155e-01 -2.452931255102157593e-01
1.015000000000000000e+03 6.332459926605224609e+00 3.836685562133789062e+01 -1.207156553864479065e-01 1.699700117111206055e+00 4.736953377723693848e-01 -1.328995376825332642e-01
1.016000000000000000e+03 3.799361944198608398e+00 3.311281585693359375e+01 -2.015205286443233490e-02 8.922979235649108887e-01 2.616437673568725586e-01 -2.199616134166717529e-01
1.017000000000000000e+03 5.456603050231933594e+00 3.132300186157226562e+01 -2.261948026716709137e-02 1.170829415321350098e+00 3.444629907608032227e-01 -3.522332012653350830e-01
1.018000000000000000e+03 3.925046920776367188e+00 3.169391632080078125e+01 -2.627665409818291664e-03 8.469569683074951172e-01 2.532987892627716064e-01 -2.541929483413696289e-01
1.019000000000000000e+03 3.288001537322998047e+00 -3.523895263671875000e+01 -2.825718140229582787e-03 9.258282184600830078e-01 2.769007384777069092e-01 1.346492171287536621e-01
1.020000000000000000e+03 3.788811445236206055e+00 -3.048461532592773438e+01 -1.803521439433097839e-02 8.533389568328857422e-01 2.505911290645599365e-01 2.572204768657684326e-01
1.021000000000000000e+03 2.166467428207397461e+00 -2.896858596801757812e+01 5.543781444430351257e-03 3.624643683433532715e-01 1.104024425148963928e-01 1.510858088731765747e-01
1.022000000000000000e+03 4.947136878967285156e+00 -2.854496955871582031e+01 1.474096998572349548e-02 9.614068865776062012e-01 2.928443551063537598e-01 3.274877965450286865e-01
1.023000000000000000e+03 1.587946891784667969e+00 -1.342347812652587891e+01 -1.091208774596452713e-03 -3.938284702599048615e-03 -1.508848043158650398e-03 -6.915018893778324127e-03
1.024000000000000000e+03 1.855565786361694336e+00 1.875085258483886719e+01 -2.657522819936275482e-02 -4.953740909695625305e-02 -2.283379063010215759e-02 8.014956861734390259e-02
1.025000000000000000e+03 5.544111251831054688e+00 1.860433006286621094e+01 -1.308703273534774780e-01 1.478225588798522949e-01 5.085669923573732376e-03 3.230444714426994324e-02
1.026000000000000000e+03 1.926997661590576172e+00 -1.896307182312011719e+01 -1.847232808358967304e-03 -4.375774040818214417e-02 -1.368149276822805405e-02 -7.964756339788436890e-02
1.027000000000000000e+03 3.701957464218139648e+00 -1.776021003723144531e+01 -7.767431437969207764e-02 9.028577804565429688e-02 3.783438121899962425e-03 -7.755538821220397949e-02
1.028000000000000000e+03 5.798404216766357422e+00 1.312893867492675781e+01 -1.020928844809532166e-02 -3.719182917848229408e-03 -4.178541246801614761e-03 -2.645352156832814217e-03
1.029000000000000000e+03 1.847416400909423828e+00 -2.189682197570800781e+01 2.659597434103488922e-02 -6.528215855360031128e-02 -1.160585414618253708e-02 -1.839099451899528503e-02
1.030000000000000000e+03 6.679133892059326172e+00 -1.983855247497558594e+01 2.613062560558319092e-01 3.322178423404693604e-01 1.780572384595870972e-01 1.670787334442138672e-01
1.031000000000000000e+03 2.574715137481689453e+00 7.775914192199707031e+00 1.836603158153593540e-03 6.638656486757099628e-05 5.708968965336680412e-04 -2.403079997748136520e-03
1.032000000000000000e+03 1.548210978507995605e+00 6.412639141082763672e+00 1.818014425225555897e-03 8.953203796409070492e-04 8.140004356391727924e-04 -1.623814110644161701e-03
1.033000000000000000e+03 4.513616561889648438e+00 1.297096920013427734e+01 -1.435604970902204514e-02 3.179870778694748878e-03 -3.352853702381253242e-03 -3.904467157553881407e-04
1.034000000000000000e+03 1.721431255340576172e+00 1.743093872070312500e+01 -1.598048396408557892e-02 -3.865786269307136536e-02 -1.639150269329547882e-02 5.231606587767601013e-02
1.035000000000000000e+03 3.106571435928344727e+00 1.980543899536132812e+01 -1.239313837140798569e-02 3.899208083748817444e-02 7.979682646691799164e-03 1.105276569724082947e-01
1.036000000000000000e+03 2.793645858764648438e+00 -4.586885929107666016e+00 1.537289354018867016e-03 3.526878135744482279e-04 5.669931415468454361e-04 -3.390469064470380545e-04
1.037000000000000000e+03 1.958702087402343750e+00 -4.184099674224853516e+00 -1.363673247396945953e-03 7.851913892409356777e-07 -4.088664136361330748e-04 1.203929656185209751e-03
1.038000000000000000e+03 2.686975002288818359e+00 9.099475860595703125e+00 -1.198574202135205269e-03 -2.197791764046996832e-05 -3.661656228359788656e-04 8.462880214210599661e-05
1.039000000000000000e+03 2.741029977798461914e+00 -1.578890895843505859e+01 -4.059421271085739136e-02 1.031504198908805847e-02 -9.083751589059829712e-03 -3.725534677505493164e-02
1.040000000000000000e+03 7.579965591430664062e+00 -9.201327323913574219e+00 1.709608477540314198e-03 1.217311481013894081e-03 8.780760108493268490e-04 -1.787099405191838741e-03
1.041000000000000000e+03 3.574910163879394531e+00 -2.883570098876953125e+01 4.329411312937736511e-03 6.774961352348327637e-01 2.045476734638214111e-01 2.541987001895904541e-01
1.042000000000000000e+03 4.658066272735595703e+00 -2.436136245727539062e+01 1.183769926428794861e-01 5.749632120132446289e-01 2.080020457506179810e-01 2.435359060764312744e-01
1.043000000000000000e+03 4.503799438476562500e+00 -3.712176132202148438e+01 -2.240308932960033417e-02 1.144846081733703613e+00 3.367328941822052002e-01 9.951964020729064941e-02
1.044000000000000000e+03 2.744229316711425781e+00 -8.006595611572265625e+00 -2.119504148140549660e-03 -9.347933228127658367e-04 -9.162892238236963749e-04 5.917312810197472572e-04
1.045000000000000000e+03 2.372571945190429688e+00 -3.438543701171875000e+01 -1.487610978074371815e-03 7.102237343788146973e-01 2.126208245754241943e-01 1.365994513034820557e-01
1.046000000000000000e+03 5.088531970977783203e+00 -3.305131912231445312e+01 -5.271996185183525085e-02 1.279742836952209473e+00 3.681068718433380127e-01 2.875395715236663818e-01
1.047000000000000000e+03 3.096823930740356445e+00 -3.346234130859375000e+01 -1.534127164632081985e-03 8.793223500251770020e-01 2.633364498615264893e-01 1.736855059862136841e-01
1.048000000000000000e+03 3.042462348937988281e+00 -2.046974945068359375e+01 3.175869956612586975e-02 6.965734809637069702e-02 3.042481653392314911e-02 -3.378560394048690796e-02
1.049000000000000000e+03 1.886829733848571777e+00 -2.328751182556152344e+01 4.333876073360443115e-02 -2.658378146588802338e-02 5.026493221521377563e-03 3.354306891560554504e-02
1.050000000000000000e+03 3.306593894958496094e+00 -2.595816040039062500e+01 5.995398387312889099e-02 4.176374375820159912e-01 1.432774215936660767e-01 1.970621645450592041e-01
1.051000000000000000e+03 2.643100738525390625e+00 -1.459650993347167969e+01 -1.614497229456901550e-02 5.382142961025238037e-03 -3.228848800063133240e-03 -2.073987200856208801e-02
1.052000000000000000e+03 2.644837141036987305e+00 -1.342771339416503906e+01 -1.660788990557193756e-02 1.335999579168856144e-03 -4.581567365676164627e-03 -6.881455890834331512e-03
1.053000000000000000e+03 5.884194850921630859e+00 -9.885250091552734375e+00 1.856987830251455307e-03 -3.157764906063675880e-03 -3.902331518474966288e-04 -2.769916784018278122e-03
1.054000000000000000e+03 2.863306999206542969e+00 1.043187999725341797e+01 5.309471162036061287e-04 -1.488549285568296909e-03 -2.872806799132376909e-04 -2.185693243518471718e-03
1.055000000000000000e+03 3.137153625488281250e+00 1.316117286682128906e+01 -9.064648300409317017e-03 -7.104923715814948082e-04 -2.932542236521840096e-03 4.559458233416080475e-03
1.056000000000000000e+03 6.762247085571289062e+00 1.607164192199707031e+01 -6.611788272857666016e-02 -8.720903657376766205e-03 -2.245163545012474060e-02 -7.072082906961441040e-02
1.057000000000000000e+03 5.147100448608398438e+00 1.687729835510253906e+01 -9.352368861436843872e-02 6.485231965780258179e-02 -8.601412177085876465e-03 3.843484912067651749e-03
1.058000000000000000e+03 4.189256668090820312e+00 1.644935798645019531e+01 -5.641706287860870361e-02 4.835439845919609070e-02 -2.418799558654427528e-03 2.663877420127391815e-02
1.059000000000000000e+03 5.683075904846191406e+00 1.435521888732910156e+01 -2.892518229782581329e-02 1.096593774855136871e-02 -5.387773271650075912e-03 -1.535292621701955795e-02
1.060000000000000000e+03 4.055817127227783203e+00 -9.298879623413085938e+00 -3.343551885336637497e-03 -2.732388908043503761e-03 -1.822782214730978012e-03 -7.828114321455359459e-04
1.061000000000000000e+03 9.278736114501953125e+00 -7.105806350708007812e+00 7.029577973298728466e-04 1.483898260630667210e-03 6.560567999258637428e-04 -1.316424226388335228e-03
1.062000000000000000e+03 8.360499382019042969e+00 -8.071515083312988281e+00 -1.258510630577802658e-03 -1.045187673298642039e-04 -4.089088179171085358e-04 7.867308449931442738e-04
1.063000000000000000e+03 1.174078941345214844e+01 7.782509326934814453e+00 -7.625147118233144283e-04 4.847572185099124908e-03 1.225517247803509235e-03 2.110403263941407204e-03
1.064000000000000000e+03 1.316300201416015625e+01 7.157207012176513672e+00 5.378621863201260567e-04 2.373913768678903580e-03 8.735327864997088909e-04 1.776795135810971260e-03
1.065000000000000000e+03 2.092293357849121094e+01 3.891913652420043945e+00 6.675525903701782227e-01 1.071982097625732422e+01 3.416212081909179688e+00 -1.213878631591796875e+00
1.066000000000000000e+03 1.621771049499511719e+01 1.798867797851562500e+01 7.402174472808837891e-01 5.578073024749755859e+00 1.895487070083618164e+00 -1.856464266777038574e+00
1.067000000000000000e+03 2.197188568115234375e+01 3.742808103561401367e+00 6.540206074714660645e-01 1.054164505004882812e+01 3.358699560165405273e+00 -1.083923101425170898e+00
1.068000000000000000e+03 1.943375587463378906e+01 1.312880229949951172e+01 1.246562242507934570e+00 8.501842498779296875e+00 2.924521446228027344e+00 -1.811189174652099609e+00
1.069000000000000000e+03 1.583320808410644531e+01 -1.374241352081298828e+01 1.467899203300476074e+00 4.381384849548339844e+00 1.754785180091857910e+00 2.305866479873657227e+00
1.070000000000000000e+03 1.752605247497558594e+01 -1.375294589996337891e+01 1.109613418579101562e+00 5.414657115936279297e+00 1.957281112670898438e+00 2.353526592254638672e+00
1.071000000000000000e+03 1.669938087463378906e+01 -1.475226402282714844e+01 1.038167357444763184e+00 4.932419776916503906e+00 1.791176080703735352e+00 2.107832431793212891e+00
1.072000000000000000e+03 1.495361995697021484e+01 -1.684226989746093750e+01 8.284837603569030762e-01 3.901032924652099609e+00 1.418855071067810059e+00 1.779636979103088379e+00
1.073000000000000000e+03 2.090932655334472656e+01 1.056911659240722656e+01 1.265994548797607422e+00 9.347651481628417969e+00 3.184093713760375977e+00 -1.452286720275878906e+00
1.074000000000000000e+03 1.304561424255371094e+01 -1.869275665283203125e+01 5.781110525131225586e-01 2.916994094848632812e+00 1.048531532287597656e+00 1.469364881515502930e+00
1.075000000000000000e+03 1.710591888427734375e+01 1.679033470153808594e+01 9.817295670509338379e-01 6.359141349792480469e+00 2.202261209487915039e+00 -1.911081671714782715e+00
1.076000000000000000e+03 1.373237705230712891e+01 2.183100128173828125e+01 2.274283319711685181e-01 3.642355442047119141e+00 1.160935163497924805e+00 -1.535349369049072266e+00
1.077000000000000000e+03 5.234053611755371094e+00 -9.033883094787597656e+00 1.431708340533077717e-03 6.749274907633662224e-04 6.319907261058688164e-04 1.342002185992896557e-03
1.078000000000000000e+03 5.263656139373779297e+00 -1.098321819305419922e+01 -4.820635076612234116e-03 -2.628130139783024788e-03 -2.234629588201642036e-03 8.899946114979684353e-04
1.079000000000000000e+03 5.000178337097167969e+00 4.041621017456054688e+01 -1.188321337103843689e-01 1.297982096672058105e+00 3.537450134754180908e-01 -1.573040895164012909e-02
1.080000000000000000e+03 1.974160957336425781e+01 -3.321362257003784180e+00 -6.560168266296386719e-01 9.148688316345214844e+00 2.547801494598388672e+00 -1.988331913948059082e+00
1.081000000000000000e+03 2.086215591430664062e+01 -2.237566232681274414e+00 -7.731784582138061523e-01 1.169102573394775391e+01 3.275354385375976562e+00 -9.548097252845764160e-01
1.082000000000000000e+03 9.547742843627929688e+00 -3.056069850921630859e+00 -1.583910925546661019e-04 -1.520886318758130074e-03 -5.037832306697964668e-04 -1.000005649984814227e-04
1.083000000000000000e+03 8.928672790527343750e+00 -3.127187013626098633e+00 6.688337307423353195e-04 1.210727612487971783e-03 5.638683796860277653e-04 -2.507389581296592951e-04
1.084000000000000000e+03 7.538617134094238281e+00 -3.278887271881103516e+00 8.027651929296553135e-04 1.097330241464078426e-03 5.700286710634827614e-04 1.561265526106581092e-04
1.085000000000000000e+03 1.070552444458007812e+01 -5.276893615722656250e+00 1.204398809932172298e-03 1.847308129072189331e-03 9.155120933428406715e-04 -1.098449924029409885e-03
1.086000000000000000e+03 1.163138484954833984e+01 3.562712430953979492e+00 -3.310312968096695840e-05 8.463789708912372589e-04 2.439827658236026764e-04 1.790934125892817974e-03
1.087000000000000000e+03 9.779635429382324219e+00 -4.849817752838134766e+00 -6.464528269134461880e-04 -1.410399097949266434e-03 -6.170555716380476952e-04 3.965284849982708693e-04
1.088000000000000000e+03 4.636680126190185547e+00 -3.620882034301757812e+00 8.894116035662591457e-04 5.326386308297514915e-04 4.266150936018675566e-04 9.200719650834798813e-04
1.089000000000000000e+03 7.025295734405517578e+00 -4.694268226623535156e+00 -3.273475158493965864e-04 -1.882991404272615910e-03 -6.631016731262207031e-04 -1.877395086921751499e-03
1.090000000000000000e+03 4.212323188781738281e+00 -4.644631385803222656e+00 1.722462475299835205e-03 2.627617213875055313e-04 5.955672822892665863e-04 1.548597705550491810e-03
1.091000000000000000e+03 8.250078201293945312e+00 -3.205302000045776367e+00 -4.207077145110815763e-04 -1.393104088492691517e-03 -5.441435496322810650e-04 -2.004535635933279991e-04
1.092000000000000000e+03 3.883017778396606445e+00 -7.985839366912841797e+00 3.060161834582686424e-03 -2.234873245470225811e-04 8.510023471899330616e-04 1.133391866460442543e-03
1.093000000000000000e+03 3.253928661346435547e+00 -4.002932548522949219e+00 1.470551127567887306e-03 -4.105494590476155281e-04 3.180005005560815334e-04 1.542167738080024719e-03
1.094000000000000000e+03 3.611940383911132812e+00 -5.695573329925537109e+00 2.401939593255519867e-03 6.112168921390548348e-05 7.389183738268911839e-04 7.567305001430213451e-04
1.095000000000000000e+03 2.660695791244506836e+00 -5.593750000000000000e+00 -1.551808789372444153e-03 -4.337574646342545748e-04 -5.956699023954570293e-04 6.280709640122950077e-04
1.096000000000000000e+03 3.942401409149169922e+00 5.540319442749023438e+00 -1.462065614759922028e-03 9.637849288992583752e-04 -1.494841999374330044e-04 -6.077810539864003658e-04
1.097000000000000000e+03 6.476448535919189453e+00 3.503806829452514648e+00 1.016580616123974323e-03 -8.903255220502614975e-04 3.787653258768841624e-05 -9.804003639146685600e-04
1.098000000000000000e+03 9.464738845825195312e+00 3.482648611068725586e+00 8.663266198709607124e-04 -8.141702855937182903e-04 1.564688500366173685e-05 -1.023831777274608612e-03
1.099000000000000000e+03 6.487813949584960938e+00 4.300562858581542969e+00 -1.576806971570476890e-04 1.109778895624913275e-04 -1.401084409735631198e-05 1.143975416198372841e-03
1.100000000000000000e+03 7.898348331451416016e+00 5.127606868743896484e+00 1.519013778306543827e-03 -2.320049330592155457e-03 -2.403106336714699864e-04 -7.111546583473682404e-04
1.101000000000000000e+03 7.959494113922119141e+00 4.303766250610351562e+00 -4.373048723209649324e-04 7.505458197556436062e-04 9.397227404406294227e-05 1.540126278996467590e-03
1.102000000000000000e+03 4.942141532897949219e+00 3.653603315353393555e+00 9.126006043516099453e-04 -5.082621355541050434e-04 1.213015493704006076e-04 -1.254548667930066586e-03
1.103000000000000000e+03 3.454613685607910156e+00 4.860701084136962891e+00 5.442839465104043484e-04 -7.325902115553617477e-04 -5.649187733069993556e-05 3.305923892185091972e-04
1.104000000000000000e+03 3.386117935180664062e+00 3.850846529006958008e+00 7.942364900372922421e-04 9.990763646783307195e-05 2.682432241272181273e-04 -1.530236215330660343e-03
1.105000000000000000e+03 2.580192804336547852e+00 6.412299633026123047e+00 -9.445297764614224434e-04 3.839890414383262396e-04 -1.681622234173119068e-04 2.070328919216990471e-04
1.106000000000000000e+03 2.588807821273803711e+00 3.929143905639648438e+00 -9.184331283904612064e-04 4.010251432191580534e-04 -1.552223984617739916e-04 5.435603670775890350e-04
1.107000000000000000e+03 8.694145202636718750e+00 4.347321033477783203e+00 1.136219943873584270e-03 -1.479444326832890511e-03 -1.029673076118342578e-04 -1.024136203341186047e-03
1.108000000000000000e+03 1.188457298278808594e+01 5.489453792572021484e+00 3.149367985315620899e-04 -1.959667773917317390e-03 -4.934192402288317680e-04 -1.268020365387201309e-03
1.109000000000000000e+03 1.217236042022705078e+01 4.580351352691650391e+00 -6.521575414808467031e-05 1.516178017482161522e-03 4.352886753622442484e-04 1.950818346813321114e-03
1.110000000000000000e+03 1.016410923004150391e+01 4.247840404510498047e+00 2.367352426517754793e-04 2.174003166146576405e-04 1.362406619591638446e-04 -1.593900262378156185e-03
1.111000000000000000e+03 2.173614883422851562e+01 -2.422067880630493164e+00 -4.901402890682220459e-01 1.238961410522460938e+01 3.569842338562011719e+00 -2.497545182704925537e-01
1.112000000000000000e+03 1.994019317626953125e+01 -1.970762491226196289e+00 -5.623872280120849609e-01 1.001331138610839844e+01 2.835277080535888672e+00 -1.516634941101074219e+00
1.113000000000000000e+03 2.406752395629882812e+01 -7.373745918273925781e+00 3.711134195327758789e+00 1.040115928649902344e+01 4.233687877655029297e+00 -2.074891626834869385e-01
1.114000000000000000e+03 2.321037673950195312e+01 -7.711420059204101562e+00 3.229644298553466797e+00 1.124479866027832031e+01 4.342332839965820312e+00 -4.211067259311676025e-01
1.115000000000000000e+03 2.079127120971679688e+01 -9.588659286499023438e+00 5.121311545372009277e-01 1.073964786529541016e+01 3.375533580780029297e+00 2.611413478851318359e+00
1.116000000000000000e+03 2.248471450805664062e+01 -9.705273628234863281e+00 9.429389834403991699e-01 1.094545650482177734e+01 3.566518545150756836e+00 6.277456283569335938e-01
1.117000000000000000e+03 1.893281555175781250e+01 -8.016522407531738281e+00 2.779818058013916016e+00 5.354556560516357422e+00 2.440312385559082031e+00 4.802186489105224609e+00
1.118000000000000000e+03 1.791541099548339844e+01 -8.837494850158691406e+00 1.758809089660644531e+00 4.020388126373291016e+00 1.733759164810180664e+00 3.166327953338623047e+00
1.119000000000000000e+03 9.417326927185058594e+00 1.071137809753417969e+01 1.015263842418789864e-03 -7.397333625704050064e-03 -1.914620865136384964e-03 1.150443567894399166e-03
1.120000000000000000e+03 9.477647781372070312e+00 8.946315765380859375e+00 1.157579710707068443e-03 -5.372052546590566635e-03 -1.264341874048113823e-03 2.748829312622547150e-03
1.121000000000000000e+03 3.039927959442138672e+00 1.178101444244384766e+01 -6.365621462464332581e-03 5.148942582309246063e-04 -1.755218137986958027e-03 1.785652711987495422e-03
1.122000000000000000e+03 7.592402458190917969e+00 1.280969905853271484e+01 1.804373692721128464e-03 -1.270549185574054718e-02 -3.270335262641310692e-03 5.768388509750366211e-03
1.123000000000000000e+03 6.195376873016357422e+00 1.740090370178222656e+01 -1.134135201573371887e-01 9.937717765569686890e-02 -4.210901912301778793e-03 -3.747856244444847107e-02
1.124000000000000000e+03 2.033135414123535156e+01 -1.036113548278808594e+01 6.431031227111816406e-01 9.188446998596191406e+00 2.949465036392211914e+00 2.967739582061767578e+00
1.125000000000000000e+03 8.633581161499023438e+00 5.280059337615966797e+00 -1.013226341456174850e-03 1.613041502423584461e-03 1.799445599317550659e-04 1.851059379987418652e-03
1.126000000000000000e+03 4.024101257324218750e+00 1.019571018218994141e+01 -1.719189924187958241e-03 -1.605802797712385654e-03 -9.974978165701031685e-04 8.751509594731032848e-04
1.127000000000000000e+03 6.858104705810546875e+00 -2.704650688171386719e+01 3.785726055502891541e-02 1.383125066757202148e+00 4.262947142124176025e-01 4.736513495445251465e-01
1.128000000000000000e+03 8.080294609069824219e+00 -2.373134040832519531e+01 2.458370029926300049e-01 1.309675455093383789e+00 4.666537642478942871e-01 6.692847013473510742e-01
1.129000000000000000e+03 3.152381420135498047e+00 -1.904768371582031250e+01 4.929729551076889038e-02 5.025103315711021423e-02 2.986449748277664185e-02 -8.127006888389587402e-02
1.130000000000000000e+03 6.078892230987548828e+00 -1.842609405517578125e+01 2.581850439310073853e-02 1.863524764776229858e-01 6.365129351615905762e-02 -2.349857799708843231e-02
1.131000000000000000e+03 8.926263809204101562e+00 -4.446268081665039062e+00 9.255245095118880272e-04 7.986776763573288918e-04 5.172606906853616238e-04 -3.953017294406890869e-04
1.132000000000000000e+03 7.527326107025146484e+00 -2.126890373229980469e+01 3.687266707420349121e-01 6.598577499389648438e-01 3.085753321647644043e-01 4.926887452602386475e-01
1.133000000000000000e+03 2.129366683959960938e+01 6.570392131805419922e+00 1.004199743270874023e+00 1.038721084594726562e+01 3.417423248291015625e+00 -1.385805606842041016e+00
1.134000000000000000e+03 8.397778511047363281e+00 -5.140851974487304688e+00 -5.651726969517767429e-04 -5.931764608249068260e-04 -3.475047415122389793e-04 -5.512960487976670265e-04
1.135000000000000000e+03 5.692137241363525391e+00 1.096665763854980469e+01 -3.160921856760978699e-03 -2.438025549054145813e-03 -1.679684268310666084e-03 1.925343181937932968e-03
1.136000000000000000e+03 1.443966484069824219e+01 2.046571540832519531e+01 3.532856106758117676e-01 4.066348075866699219e+00 1.325890183448791504e+00 -1.676184773445129395e+00
1.137000000000000000e+03 7.514817810058593750e+01 1.401919651031494141e+01 1.191604789346456528e-02 7.604815483093261719e+00 2.285019397735595703e+00 1.176556050777435303e-01
1.138000000000000000e+03 7.535522460937500000e+01 6.260806322097778320e-02 2.448512800037860870e-02 7.442792415618896484e+00 2.240183353424072266e+00 4.510907456278800964e-03
1.139000000000000000e+03 7.407490539550781250e+01 -8.360026359558105469e+00 3.204859420657157898e-02 7.517874240875244141e+00 2.264976978302001953e+00 -8.884643018245697021e-02
1.140000000000000000e+03 7.543412780761718750e+01 -1.511212444305419922e+01 1.060047186911106110e-02 7.608788013458251953e+00 2.285816431045532227e+00 -1.145378202199935913e-01
1.141000000000000000e+03 7.673173522949218750e+01 -6.911293506622314453e+00 1.136247254908084869e-02 7.446572303771972656e+00 2.237380504608154297e+00 -4.525805264711380005e-02
1.142000000000000000e+03 7.540715026855468750e+01 -6.934195041656494141e+00 2.150048129260540009e-02 7.477220058441162109e+00 2.249616146087646484e+00 -6.065284833312034607e-02
1.143000000000000000e+03 7.405036926269531250e+01 -5.606564044952392578e+00 3.594469651579856873e-02 7.491381645202636719e+00 2.258198022842407227e+00 -6.025483459234237671e-02
1.144000000000000000e+03 7.413362884521484375e+01 -1.242017269134521484e+01 2.296973392367362976e-02 7.574144363403320312e+00 2.279134273529052734e+00 -1.225096210837364197e-01
1.145000000000000000e+03 7.675366973876953125e+01 -1.242742347717285156e+01 7.753892801702022552e-03 7.535542011260986328e+00 2.262988805770874023e+00 -7.540161907672882080e-02
1.146000000000000000e+03 7.542648315429687500e+01 -9.688081741333007812e+00 1.852012798190116882e-02 7.512017250061035156e+00 2.259161233901977539e+00 -8.248905092477798462e-02
1.147000000000000000e+03 7.537692260742187500e+01 -2.758020877838134766e+00 2.381127700209617615e-02 7.446797370910644531e+00 2.241182565689086914e+00 -2.260352671146392822e-02
1.148000000000000000e+03 7.404171752929687500e+01 -4.215393543243408203e+00 3.701281920075416565e-02 7.481932163238525391e+00 2.255683660507202148e+00 -4.444934800267219543e-02
1.149000000000000000e+03 7.667987823486328125e+01 1.487237572669982910e+00 1.310933101922273636e-02 7.411815643310546875e+00 2.227477550506591797e+00 1.384304370731115341e-02
1.150000000000000000e+03 7.534822845458984375e+01 1.476619482040405273e+00 2.448470517992973328e-02 7.445764541625976562e+00 2.241074800491333008e+00 1.806130446493625641e-02
1.151000000000000000e+03 7.532868957519531250e+01 7.052355766296386719e+00 2.100567147135734558e-02 7.489019870758056641e+00 2.253007650375366211e+00 6.874772161245346069e-02
1.152000000000000000e+03 7.164993286132812500e+01 3.280839920043945312e+01 -5.653867125511169434e-02 7.925428390502929688e+00 2.360666990280151367e+00 1.256920993328094482e-01
1.153000000000000000e+03 7.360105133056640625e+01 3.093994140625000000e+01 -3.019833378493785858e-02 7.926155567169189453e+00 2.368787288665771484e+00 1.178838238120079041e-01
1.154000000000000000e+03 7.406216430664062500e+01 -1.639165306091308594e+01 1.346982177346944809e-02 7.646641731262207031e+00 2.298033475875854492e+00 -1.474134176969528198e-01
1.155000000000000000e+03 7.538769531250000000e+01 -2.186719322204589844e+01 -1.277757924981415272e-03 7.756896972656250000e+00 2.326685905456542969e+00 -1.262363195419311523e-01
1.156000000000000000e+03 7.534046173095703125e+01 4.286749362945556641e+00 2.330466359853744507e-02 7.461296558380126953e+00 2.245380401611328125e+00 4.463928937911987305e-02
1.157000000000000000e+03 7.533602142333984375e+01 5.676533222198486328e+00 2.207245677709579468e-02 7.473731517791748047e+00 2.248741149902343750e+00 5.735535547137260437e-02
1.158000000000000000e+03 7.398959350585937500e+01 2.842483997344970703e+00 3.844357654452323914e-02 7.479754447937011719e+00 2.255459308624267578e+00 3.809311240911483765e-02
1.159000000000000000e+03 7.667759704589843750e+01 8.453278541564941406e+00 1.045378576964139938e-02 7.479777336120605469e+00 2.247069358825683594e+00 6.012361496686935425e-02
1.160000000000000000e+03 7.529707336425781250e+01 9.802109718322753906e+00 1.800669543445110321e-02 7.527660369873046875e+00 2.263700246810913086e+00 9.014192968606948853e-02
1.161000000000000000e+03 7.534855651855468750e+01 -1.783498382568359375e+01 5.700503941625356674e-03 7.668119430541992188e+00 2.302145957946777344e+00 -1.246707439422607422e-01
1.162000000000000000e+03 7.670690917968750000e+01 -1.790945625305175781e+01 2.662656595930457115e-03 7.660209655761718750e+00 2.298861742019653320e+00 -9.332492202520370483e-02
1.163000000000000000e+03 7.531968688964843750e+01 -1.919122886657714844e+01 2.918449230492115021e-03 7.697866439819335938e+00 2.310235500335693359e+00 -1.273059546947479248e-01
1.164000000000000000e+03 7.525708007812500000e+01 1.118570518493652344e+01 1.626482978463172913e-02 7.550792217254638672e+00 2.270117044448852539e+00 1.002716943621635437e-01
1.165000000000000000e+03 7.389103698730468750e+01 9.719532012939453125e+00 2.907228283584117889e-02 7.547843933105468750e+00 2.273074865341186523e+00 1.104641482234001160e-01
1.166000000000000000e+03 7.495132446289062500e+01 -2.864278411865234375e+01 -1.424928568303585052e-02 7.895772933959960938e+00 2.364457130432128906e+00 -1.176931634545326233e-01
1.167000000000000000e+03 7.544987487792968750e+01 -2.452621841430664062e+01 -5.064981523901224136e-03 7.815719127655029297e+00 2.343196392059326172e+00 -1.216117814183235168e-01
1.168000000000000000e+03 7.648260498046875000e+01 1.690099334716796875e+01 3.614017041400074959e-03 7.654335498809814453e+00 2.297384977340698242e+00 9.717762470245361328e-02
1.169000000000000000e+03 7.501225280761718750e+01 1.841084289550781250e+01 3.894503926858305931e-03 7.696490764617919922e+00 2.310115575790405273e+00 1.320984661579132080e-01
1.170000000000000000e+03 7.510991668701171875e+01 2.124974441528320312e+01 -1.908419770188629627e-03 7.756816864013671875e+00 2.326472520828247070e+00 1.327124834060668945e-01
1.171000000000000000e+03 7.505326843261718750e+01 1.985543251037597656e+01 1.543313730508089066e-03 7.726186752319335938e+00 2.318319082260131836e+00 1.333526521921157837e-01
1.172000000000000000e+03 7.354301452636718750e+01 1.694630241394042969e+01 1.008415874093770981e-02 7.674614906311035156e+00 2.305409669876098633e+00 1.596727371215820312e-01
1.173000000000000000e+03 7.543820953369140625e+01 -2.319738960266113281e+01 -2.469434170052409172e-03 7.786849021911621094e+00 2.335313796997070312e+00 -1.248167455196380615e-01
1.174000000000000000e+03 7.391773986816406250e+01 -2.688342285156250000e+01 -1.480221562087535858e-02 7.854026794433593750e+00 2.351767301559448242e+00 -1.442378610372543335e-01
1.175000000000000000e+03 7.672520446777343750e+01 -2.469097709655761719e+01 -2.204235643148422241e-03 7.827527523040771484e+00 2.347596883773803711e+00 -9.312400966882705688e-02
1.176000000000000000e+03 7.332467651367187500e+01 2.405295562744140625e+01 -1.123102568089962006e-02 7.810008525848388672e+00 2.339633226394653320e+00 1.608290672302246094e-01
1.177000000000000000e+03 7.636962127685546875e+01 2.673685264587402344e+01 -6.633305922150611877e-03 7.885736465454101562e+00 2.363730907440185547e+00 9.241963922977447510e-02
1.178000000000000000e+03 7.496521759033203125e+01 2.682753181457519531e+01 -1.209174282848834991e-02 7.872699260711669922e+00 2.358182191848754883e+00 1.214954853057861328e-01
1.179000000000000000e+03 7.607346343994140625e+01 2.958319854736328125e+01 -1.298135612159967422e-02 7.942692279815673828e+00 2.378913164138793945e+00 8.628631383180618286e-02
1.180000000000000000e+03 7.493867492675781250e+01 2.943410110473632812e+01 -2.021849155426025391e-02 7.916181087493896484e+00 2.368788719177246094e+00 1.098808050155639648e-01
1.181000000000000000e+03 7.498085784912109375e+01 2.816615867614746094e+01 -1.448609307408332825e-02 7.896466732025146484e+00 2.364594221115112305e+00 1.156455799937248230e-01
1.182000000000000000e+03 7.470032501220703125e+01 -3.253309631347656250e+01 -2.924022264778614044e-02 7.960255146026611328e+00 2.379304409027099609e+00 -9.269496053457260132e-02
1.183000000000000000e+03 7.425199890136718750e+01 -3.556737518310546875e+01 -3.335614129900932312e-02 7.985232830047607422e+00 2.385562896728515625e+00 -7.307504862546920776e-02
1.184000000000000000e+03 7.569051361083984375e+01 -3.641619873046875000e+01 -2.054550871253013611e-02 8.035289764404296875e+00 2.404423475265502930e+00 -4.861332848668098450e-02
1.185000000000000000e+03 7.632228088378906250e+01 -3.288439941406250000e+01 -1.572060585021972656e-02 7.993931770324707031e+00 2.393463373184204102e+00 -6.588181108236312866e-02
1.186000000000000000e+03 7.499761199951171875e+01 -3.001652717590332031e+01 -1.956452615559101105e-02 7.920238018035888672e+00 2.370202064514160156e+00 -1.091894507408142090e-01
1.187000000000000000e+03 7.514958953857421875e+01 3.059889793395996094e+01 -1.838070154190063477e-02 7.944122791290283203e+00 2.377722501754760742e+00 9.530616551637649536e-02
1.188000000000000000e+03 8.509393692016601562e+00 1.174853324890136719e+01 -5.410107318311929703e-03 9.142116643488407135e-03 1.119602937251329422e-03 -1.789256930351257324e-04
1.189000000000000000e+03 3.809231758117675781e+00 2.239624786376953125e+01 1.260198056697845459e-01 1.715712547302246094e-01 8.927731961011886597e-02 -6.754057016223669052e-03
1.190000000000000000e+03 2.912854671478271484e+00 2.287892913818359375e+01 7.361555844545364380e-02 6.264770776033401489e-02 4.087897762656211853e-02 -1.056888978928327560e-02
1.191000000000000000e+03 3.495126247406005859e+00 1.576841640472412109e+01 -4.074863344430923462e-02 1.774862036108970642e-02 -6.900004111230373383e-03 3.002387098968029022e-02
1.192000000000000000e+03 3.706078052520751953e+00 -1.597305870056152344e+01 -6.211680173873901367e-02 4.730974882841110229e-02 -4.442116245627403259e-03 -2.630650810897350311e-02
1.193000000000000000e+03 3.523282051086425781e+00 -1.396399784088134766e+01 -2.562044374644756317e-02 6.561791989952325821e-03 -5.717595573514699936e-03 -1.069529075175523758e-02
1.194000000000000000e+03 4.762371063232421875e+00 1.970683670043945312e+01 -9.746012277901172638e-03 1.521068066358566284e-01 4.270824044942855835e-02 1.144358590245246887e-01
1.195000000000000000e+03 3.016766548156738281e+00 1.864569664001464844e+01 -3.280229866504669189e-02 2.062964625656604767e-02 -3.651795675978064537e-03 8.642190694808959961e-02
1.196000000000000000e+03 4.550493240356445312e+00 -1.666787338256835938e+01 -7.038614898920059204e-02 6.815408170223236084e-02 -6.696199416182935238e-04 -8.111128117889165878e-04
1.197000000000000000e+03 3.807185649871826172e+00 2.070994377136230469e+01 8.153791725635528564e-02 7.822600752115249634e-02 4.792917892336845398e-02 7.503975182771682739e-02
1.198000000000000000e+03 4.701721668243408203e+00 2.152203369140625000e+01 1.415363699197769165e-01 2.373382002115249634e-01 1.136623695492744446e-01 -1.961168646812438965e-02
1.199000000000000000e+03 4.467670917510986328e+00 1.434597778320312500e+01 -3.047525510191917419e-02 1.170826144516468048e-02 -5.630098283290863037e-03 1.407432369887828827e-03
1.200000000000000000e+03 4.542806625366210938e+00 1.799202919006347656e+01 -7.496057450771331787e-02 1.044149622321128845e-01 8.836315944790840149e-03 5.084114521741867065e-02
1.201000000000000000e+03 6.189578533172607422e+00 2.348298263549804688e+01 2.708668112754821777e-01 6.378750205039978027e-01 2.726225554943084717e-01 -3.014617562294006348e-01
1.202000000000000000e+03 5.751867771148681641e+00 2.547394371032714844e+01 1.605107039213180542e-01 7.627900838851928711e-01 2.769902348518371582e-01 -3.241947293281555176e-01
1.203000000000000000e+03 3.198778629302978516e+00 1.457859325408935547e+01 -2.538459002971649170e-02 8.792781271040439606e-03 -4.977542441338300705e-03 1.662892661988735199e-02
1.204000000000000000e+03 6.062940120697021484e+00 -2.458466911315917969e+01 1.608457714319229126e-01 9.159988760948181152e-01 3.230533897876739502e-01 3.729814887046813965e-01
1.205000000000000000e+03 4.273503303527832031e+00 -1.306235790252685547e+01 -1.329627446830272675e-02 5.365727003663778305e-03 -2.379164332523941994e-03 3.824766725301742554e-03
1.206000000000000000e+03 2.818088054656982422e+00 -9.322216033935546875e+00 2.624363871291279793e-03 -2.737817412707954645e-04 7.051746360957622528e-04 1.102749491110444069e-03
1.207000000000000000e+03 2.829391002655029297e+00 -1.068189334869384766e+01 -5.193679127842187881e-03 -1.052066218107938766e-03 -1.873723696917295456e-03 -6.493060500361025333e-04
1.208000000000000000e+03 5.139079570770263672e+00 -1.912938880920410156e+01 1.116857305169105530e-01 1.678950190544128418e-01 8.387422561645507812e-02 -1.517266780138015747e-02
1.209000000000000000e+03 3.147546529769897461e+00 -2.317151451110839844e+01 8.313395082950592041e-02 1.957289278507232666e-01 8.365886658430099487e-02 7.692647725343704224e-02
1.210000000000000000e+03 5.473731517791748047e+00 -2.043635940551757812e+01 1.677991151809692383e-01 3.301176726818084717e-01 1.493750363588333130e-01 1.110687628388404846e-01
1.211000000000000000e+03 4.370188713073730469e+00 2.338577270507812500e+01 1.478410661220550537e-01 3.206806480884552002e-01 1.405565142631530762e-01 -1.089794039726257324e-01
1.212000000000000000e+03 5.301574707031250000e+00 2.673462677001953125e+01 1.203193590044975281e-01 7.808232903480529785e-01 2.703427970409393311e-01 -3.207013905048370361e-01
1.213000000000000000e+03 3.261524200439453125e+00 -2.453713607788085938e+01 7.764100283384323120e-02 2.896853387355804443e-01 1.101979017257690430e-01 1.415329128503799438e-01
1.214000000000000000e+03 5.365995883941650391e+00 -2.201563453674316406e+01 2.052029371261596680e-01 4.743922352790832520e-01 2.038785517215728760e-01 1.870224922895431519e-01
1.215000000000000000e+03 4.216377735137939453e+00 -2.177122497558593750e+01 1.024075746536254883e-01 2.378538101911544800e-01 1.020784154534339905e-01 5.385913699865341187e-02
1.216000000000000000e+03 4.530609130859375000e+00 -2.586741638183593750e+01 1.023022085428237915e-01 6.644199490547180176e-01 2.300166487693786621e-01 2.809179425239562988e-01
1.217000000000000000e+03 4.724225997924804688e+00 8.646718978881835938e+00 -4.492076113820075989e-04 -1.784849329851567745e-03 -6.702170940116047859e-04 8.037474472075700760e-04
1.218000000000000000e+03 3.643783330917358398e+00 -3.213460540771484375e+01 -3.184541687369346619e-02 9.214502573013305664e-01 2.668814361095428467e-01 2.367945760488510132e-01
1.219000000000000000e+03 5.265750408172607422e+00 -3.006270027160644531e+01 -3.393701091408729553e-02 1.171651005744934082e+00 3.413142263889312744e-01 3.372363746166229248e-01
1.220000000000000000e+03 6.298707962036132812e+00 3.029488182067871094e+01 -1.433555874973535538e-02 1.342797756195068359e+00 3.985386788845062256e-01 -4.017919600009918213e-01
1.221000000000000000e+03 6.690355777740478516e+00 3.654698562622070312e+01 -1.417446434497833252e-01 1.707043886184692383e+00 4.695897698402404785e-01 -2.220636755228042603e-01
1.222000000000000000e+03 6.343007087707519531e+00 -1.154710769653320312e+01 1.550012733787298203e-03 -3.404779359698295593e-03 -5.564300226978957653e-04 -1.819782308302819729e-03
1.223000000000000000e+03 2.803156852722167969e+00 -1.209816265106201172e+01 -9.299058583565056324e-04 -1.577530172653496265e-03 -7.522308151237666607e-04 -2.197574824094772339e-03
1.224000000000000000e+03 4.052307128906250000e+00 -1.068976020812988281e+01 1.857629744336009026e-03 -1.946313655935227871e-03 -2.660515929164830595e-05 1.406297902576625347e-03
1.225000000000000000e+03 6.107736110687255859e+00 9.227328300476074219e+00 -7.295136456377804279e-04 -2.920951694250106812e-03 -1.095139537937939167e-03 2.128372201696038246e-03
1.226000000000000000e+03 3.743165969848632812e+00 -6.785954475402832031e+00 -1.763142063282430172e-03 -1.340763294138014317e-03 -9.311715839430689812e-04 -1.602015690878033638e-04
1.227000000000000000e+03 5.157068252563476562e+00 2.884884262084960938e+01 4.074807092547416687e-02 8.969581127166748047e-01 2.813118696212768555e-01 -3.233718872070312500e-01
1.228000000000000000e+03 3.394428253173828125e+00 3.434373855590820312e+01 -7.199347484856843948e-03 8.298736214637756348e-01 2.468022853136062622e-01 -1.812531948089599609e-01
1.229000000000000000e+03 6.315207004547119141e+00 3.496219253540039062e+01 -9.009650349617004395e-02 1.609035372734069824e+00 4.556816518306732178e-01 -2.639870345592498779e-01
1.230000000000000000e+03 3.531131744384765625e+00 7.741578578948974609e+00 -6.840310525149106979e-04 -4.903671215288341045e-04 -3.523194463923573494e-04 1.436089369235560298e-04
1.231000000000000000e+03 2.579160690307617188e+00 5.074363231658935547e+00 1.240635174326598644e-03 2.868508163373917341e-04 4.582457768265157938e-04 -1.865906640887260437e-03
1.232000000000000000e+03 5.752338886260986328e+00 4.381845474243164062e+00 1.054796506650745869e-03 -9.345880826003849506e-04 3.606251266319304705e-05 -1.200192724354565144e-03
1.233000000000000000e+03 6.286958694458007812e+00 -3.471902084350585938e+01 -9.870921075344085693e-02 1.660035133361816406e+00 4.683977663516998291e-01 2.690522670745849609e-01
1.234000000000000000e+03 7.471476078033447266e+00 -7.249159812927246094e+00 -8.267030352726578712e-04 -9.082496399059891701e-04 -5.204858025535941124e-04 -1.233587041497230530e-03
1.235000000000000000e+03 1.773951339721679688e+01 -1.771113777160644531e+01 2.659130692481994629e-01 5.404150485992431641e+00 1.701019048690795898e+00 1.601334095001220703e+00
1.236000000000000000e+03 2.002542877197265625e+01 -1.305699062347412109e+01 5.360571146011352539e-01 7.468042373657226562e+00 2.401229858398437500e+00 2.196831941604614258e+00
1.237000000000000000e+03 1.831183624267578125e+01 -1.281497955322265625e+01 1.092773675918579102e+00 6.097821712493896484e+00 2.157178640365600586e+00 2.630230188369750977e+00
1.238000000000000000e+03 1.593665695190429688e+01 -2.025037956237792969e+01 8.871967345476150513e-02 4.440159797668457031e+00 1.358663916587829590e+00 1.385578274726867676e+00
1.239000000000000000e+03 1.064532279968261719e+01 -2.009434318542480469e+01 4.049627482891082764e-01 1.747071385383605957e+00 6.456102132797241211e-01 1.198182344436645508e+00
1.240000000000000000e+03 6.964244365692138672e+00 -1.039713954925537109e+01 -3.496841760352253914e-03 1.565117563586682081e-04 -1.002099015749990940e-03 1.968728320207446814e-04
1.241000000000000000e+03 1.180585670471191406e+01 2.253309440612792969e+01 3.419461548328399658e-01 2.358857154846191406e+00 8.102410435676574707e-01 -1.267316699028015137e+00
1.242000000000000000e+03 8.755035400390625000e+00 2.147756767272949219e+01 5.564993023872375488e-01 6.943307518959045410e-01 3.752489984035491943e-01 -6.810372471809387207e-01
1.243000000000000000e+03 2.355895996093750000e+01 4.787059783935546875e+00 8.863780498504638672e-01 9.989120483398437500e+00 3.262649536132812500e+00 -8.868587613105773926e-01
1.244000000000000000e+03 2.232739830017089844e+01 5.040028572082519531e+00 8.747139573097229004e-01 1.024680519104003906e+01 3.336455821990966797e+00 -1.133200645446777344e+00
1.245000000000000000e+03 2.264626502990722656e+01 6.404702186584472656e+00 1.054707646369934082e+00 9.890033721923828125e+00 3.283422231674194336e+00 -1.077619433403015137e+00
1.246000000000000000e+03 1.924216461181640625e+01 -1.395093059539794922e+01 6.126309037208557129e-01 6.643141746520996094e+00 2.176731824874877930e+00 2.179342269897460938e+00
1.247000000000000000e+03 3.908077716827392578e+00 -1.203331947326660156e+01 -1.265770476311445236e-02 -4.235898086335510015e-04 -3.924388438463211060e-03 -3.517695236951112747e-03
1.248000000000000000e+03 1.675989913940429688e+01 -1.681429862976074219e+01 5.655052661895751953e-01 4.912467002868652344e+00 1.643391728401184082e+00 1.740593552589416504e+00
1.249000000000000000e+03 1.757913017272949219e+01 -1.578586578369140625e+01 6.540622115135192871e-01 5.438055515289306641e+00 1.827635288238525391e+00 1.922827482223510742e+00
1.250000000000000000e+03 5.615354537963867188e+00 1.563119983673095703e+01 -5.245522037148475647e-02 2.531326934695243835e-02 -8.142585866153240204e-03 -1.627954654395580292e-02
1.251000000000000000e+03 2.201663589477539062e+01 1.165329742431640625e+01 1.123915672302246094e+00 8.785556793212890625e+00 2.972841978073120117e+00 -1.022787451744079590e+00
1.252000000000000000e+03 2.149065589904785156e+01 -1.117063522338867188e+01 3.842054903507232666e-01 9.690765380859375000e+00 3.022491216659545898e+00 1.663942337036132812e+00
1.253000000000000000e+03 1.657625007629394531e+01 1.992996788024902344e+01 1.855841130018234253e-01 5.445692539215087891e+00 1.689383029937744141e+00 -1.516785144805908203e+00
1.254000000000000000e+03 1.911099052429199219e+01 1.633765983581542969e+01 7.089582681655883789e-01 7.263108253479003906e+00 2.391619920730590820e+00 -1.393100380897521973e+00
1.255000000000000000e+03 1.827445411682128906e+01 1.753742980957031250e+01 5.289984941482543945e-01 6.671767711639404297e+00 2.160229921340942383e+00 -1.445951461791992188e+00
1.256000000000000000e+03 2.151467514038085938e+01 2.502859354019165039e+00 4.298076331615447998e-01 1.068608283996582031e+01 3.334767103195190430e+00 -1.087057352066040039e+00
1.257000000000000000e+03 2.305668449401855469e+01 3.495617866516113281e+00 6.777883172035217285e-01 1.032449340820312500e+01 3.300684452056884766e+00 -9.450091719627380371e-01
1.258000000000000000e+03 1.530734539031982422e+01 1.919666290283203125e+01 5.206103324890136719e-01 4.764421939849853516e+00 1.585509777069091797e+00 -1.799967288970947266e+00
1.259000000000000000e+03 1.385399723052978516e+01 -1.972578048706054688e+01 3.442067503929138184e-01 3.421943664550781250e+00 1.129845142364501953e+00 1.434264302253723145e+00
1.260000000000000000e+03 2.199977493286132812e+01 9.602838516235351562e+00 1.229109048843383789e+00 9.389193534851074219e+00 3.185490846633911133e+00 -1.188630938529968262e+00
1.261000000000000000e+03 2.316263389587402344e+01 1.252810287475585938e+01 9.542381167411804199e-01 8.472172737121582031e+00 2.827923059463500977e+00 -6.954116225242614746e-01
1.262000000000000000e+03 7.798651218414306641e+00 2.022926521301269531e+01 3.769819736480712891e-01 2.535725235939025879e-01 1.891663521528244019e-01 -2.358790785074234009e-01
1.263000000000000000e+03 1.907086181640625000e+01 -2.803667068481445312e+00 -3.094064593315124512e-01 6.713067054748535156e+00 1.921098113059997559e+00 -1.310129404067993164e+00
1.264000000000000000e+03 1.856733131408691406e+01 -7.927711009979248047e+00 2.631450414657592773e+00 4.384264469146728516e+00 2.104714393615722656e+00 4.244928836822509766e+00
1.265000000000000000e+03 1.898446273803710938e+01 -8.595296859741210938e+00 1.910922646522521973e+00 6.457149505615234375e+00 2.510421514511108398e+00 4.371492862701416016e+00
1.266000000000000000e+03 8.416639328002929688e+00 -3.916951656341552734e+00 9.357467934023588896e-05 1.763147418387234211e-03 5.570166395045816898e-04 -6.295384955592453480e-04
1.267000000000000000e+03 5.921931743621826172e+00 -6.566714286804199219e+00 -2.175445435568690300e-03 -1.217431621626019478e-03 -1.017863163724541664e-03 -1.429808209650218487e-03
1.268000000000000000e+03 7.267651081085205078e+00 -5.252964019775390625e+00 -7.436981104547157884e-05 1.018997398205101490e-03 2.833882754202932119e-04 9.996198350563645363e-04
1.269000000000000000e+03 4.874215126037597656e+00 -4.445064544677734375e+00 -1.890361891128122807e-04 -1.261188997887074947e-03 -4.350675444584339857e-04 -8.405534899793565273e-04
1.270000000000000000e+03 5.839859962463378906e+00 5.140679836273193359e+00 -3.679594083223491907e-04 -4.410440396895864978e-06 -1.117109568440355361e-04 9.831044590100646019e-04
1.271000000000000000e+03 4.986871719360351562e+00 4.567587375640869141e+00 1.891995780169963837e-04 -4.906628164462745190e-04 -9.043898171512410045e-05 7.612382760271430016e-04
1.272000000000000000e+03 6.927312374114990234e+00 -4.042766571044921875e+00 7.534990436397492886e-04 1.242639380507171154e-03 5.988415214233100414e-04 5.892738699913024902e-04
1.273000000000000000e+03 6.213535785675048828e+00 -4.125924587249755859e+00 -6.633380544371902943e-04 -1.071737497113645077e-03 -5.205226480029523373e-04 -9.199199848808348179e-04
1.274000000000000000e+03 5.756600856781005859e+00 -4.973632812500000000e+00 -1.455009449273347855e-03 -2.018432132899761200e-04 -4.970557638444006443e-04 -7.981942035257816315e-04
1.275000000000000000e+03 9.087845802307128906e+00 -3.798904895782470703e+00 -1.331972191110253334e-03 -9.357679518871009350e-04 -6.803220603615045547e-04 9.055520640686154366e-04
1.276000000000000000e+03 7.223179340362548828e+00 4.278252124786376953e+00 1.193783129565417767e-03 -1.398227061145007610e-03 -6.133319402579218149e-05 -9.548086673021316528e-04
1.277000000000000000e+03 5.676667690277099609e+00 5.777725696563720703e+00 2.233870327472686768e-03 -2.612113952636718750e-03 -1.134730628109537065e-04 8.834053005557507277e-06
1.278000000000000000e+03 7.157909870147705078e+00 5.715479373931884766e+00 1.792160328477621078e-03 -2.723223995417356491e-03 -2.793190651573240757e-04 -3.957196022383868694e-04
1.279000000000000000e+03 1.026532554626464844e+01 6.693905353546142578e+00 -1.626473851501941681e-03 4.289610777050256729e-03 7.989410660229623318e-04 2.563699090387672186e-04
1.280000000000000000e+03 2.485797882080078125e+01 -6.240771293640136719e+00 3.471538543701171875e+00 9.993247032165527344e+00 4.039435386657714844e+00 4.814392924308776855e-01
1.281000000000000000e+03 8.954878807067871094e+00 8.115894317626953125e+00 -5.792513256892561913e-04 1.616606255993247032e-03 3.112064732704311609e-04 -2.250260440632700920e-03
1.282000000000000000e+03 1.144623851776123047e+01 4.396951198577880859e+00 4.213174688629806042e-04 -1.314774272032082081e-03 -2.680370525922626257e-04 -1.119685242883861065e-03
1.283000000000000000e+03 2.345308876037597656e+01 -5.567560672760009766e+00 4.070629119873046875e+00 1.103278255462646484e+01 4.531023502349853516e+00 1.258426666259765625e+00
1.284000000000000000e+03 2.613881874084472656e+01 -6.132819652557373047e+00 2.873958349227905273e+00 9.443688392639160156e+00 3.695294141769409180e+00 3.188030719757080078e-01
1.285000000000000000e+03 2.536051940917968750e+01 -7.973340988159179688e+00 2.767672538757324219e+00 9.679943084716796875e+00 3.734284639358520508e+00 -3.522614240646362305e-01
1.286000000000000000e+03 2.437572288513183594e+01 -4.391322135925292969e+00 2.615634441375732422e+00 1.080714988708496094e+01 4.026835441589355469e+00 1.278998732566833496e+00
1.287000000000000000e+03 2.237382316589355469e+01 -8.399624228477478027e-01 -1.884396523237228394e-01 1.150548458099365234e+01 3.395113706588745117e+00 -4.600436687469482422e-01
1.288000000000000000e+03 1.148545837402343750e+01 6.380983829498291016e+00 -1.059632515534758568e-03 3.941520117223262787e-03 8.645662455819547176e-04 1.848391606472432613e-03
1.289000000000000000e+03 2.084332847595214844e+01 -1.222076225280761719e+01 4.091047346591949463e-01 8.489424705505371094e+00 2.669559001922607422e+00 1.986096858978271484e+00
1.290000000000000000e+03 2.151222419738769531e+01 -4.984467327594757080e-01 -3.485186100006103516e-01 1.113635730743408203e+01 3.236351728439331055e+00 -9.072194695472717285e-01
1.291000000000000000e+03 7.596374034881591797e+00 1.093731117248535156e+01 1.037904410623013973e-03 -7.324892561882734299e-03 -1.886096433736383915e-03 5.296817980706691742e-03
1.292000000000000000e+03 6.567163944244384766e+00 1.197699546813964844e+01 -5.082992836833000183e-03 -3.501632716506719589e-03 -2.575387712568044662e-03 -5.067314021289348602e-03
1.293000000000000000e+03 8.517085075378417969e+00 7.455430507659912109e+00 4.267965850885957479e-04 -2.999731339514255524e-03 -7.718804408796131611e-04 1.646795426495373249e-03
1.294000000000000000e+03 7.455291748046875000e+00 7.776003360748291016e+00 1.785762608051300049e-03 -5.028408486396074295e-03 -9.727937867864966393e-04 2.126670442521572113e-03
1.295000000000000000e+03 1.031117725372314453e+01 8.106884956359863281e+00 -2.249038778245449066e-03 6.202143616974353790e-03 1.185931381769478321e-03 5.546890897676348686e-04
1.296000000000000000e+03 1.944934272766113281e+01 -9.408699989318847656e+00 1.166042685508728027e+00 8.016153335571289062e+00 2.754658937454223633e+00 3.882992267608642578e+00
1.297000000000000000e+03 4.861425399780273438e+00 -1.217086887359619141e+01 -7.443473208695650101e-03 5.131792859174311161e-04 -2.079088240861892700e-03 2.473839092999696732e-03
1.298000000000000000e+03 9.634719848632812500e+00 6.087841033935546875e+00 8.712114649824798107e-04 -2.882107393816113472e-03 -6.032687961123883724e-04 2.160483039915561676e-03
1.299000000000000000e+03 5.757671833038330078e+00 -1.270409202575683594e+01 -6.956294178962707520e-03 -5.584497004747390747e-03 -3.762237261980772018e-03 9.286477230489253998e-03
1.300000000000000000e+03 9.369261741638183594e+00 2.292947769165039062e+01 4.337242543697357178e-01 1.414255619049072266e+00 5.543939471244812012e-01 -9.211232066154479980e-01
1.301000000000000000e+03 1.228200626373291016e+01 6.782525539398193359e+00 -9.081731695914641023e-05 -2.107586013153195381e-03 -6.595209706574678421e-04 -1.555731869302690029e-03
1.302000000000000000e+03 2.138009452819824219e+01 8.171080946922302246e-01 -1.903817243874073029e-02 1.082475090026855469e+01 3.241713762283325195e+00 -9.798098206520080566e-01
1.303000000000000000e+03 2.113132667541503906e+01 -1.352543711662292480e+00 -4.999004602432250977e-01 1.129362773895263672e+01 3.238118171691894531e+00 -9.298590421676635742e-01
1.304000000000000000e+03 7.671935558319091797e+00 9.173779487609863281e+00 1.223800121806561947e-03 -5.663102492690086365e-03 -1.331790699623525143e-03 3.260525176301598549e-03
1.305000000000000000e+03 5.209804534912109375e+00 5.341261386871337891e+00 -1.681707653915509582e-04 9.373499779030680656e-05 -2.233073246316052973e-05 -1.455719233490526676e-03
1.306000000000000000e+03 9.183197021484375000e+00 -5.675171852111816406e+00 4.126173153053969145e-04 1.324855606071650982e-03 5.212419200688600540e-04 -5.574406241066753864e-04
1.307000000000000000e+03 6.708190917968750000e+00 1.387420177459716797e+01 -1.164942886680364609e-02 -1.361671648919582367e-02 -7.579843513667583466e-03 -2.007465064525604248e-02
1.308000000000000000e+03 5.129113674163818359e+00 9.792095184326171875e+00 -3.420963475946336985e-04 -3.003325313329696655e-03 -1.003626501187682152e-03 -1.576258102431893349e-03
1.309000000000000000e+03 7.366152954101562500e+01 3.261377716064453125e+01 -3.558894246816635132e-02 7.948194503784179688e+00 2.373781681060791016e+00 1.024352908134460449e-01
1.310000000000000000e+03 7.361611938476562500e+01 2.831399917602539062e+01 -2.360159531235694885e-02 7.882126331329345703e+00 2.357557535171508789e+00 1.372222006320953369e-01
1.311000000000000000e+03 2.254122734069824219e+01 2.263483285903930664e+00 4.384315311908721924e-01 1.065427684783935547e+01 3.327812671661376953e+00 -9.386931061744689941e-01
1.312000000000000000e+03 7.306506347656250000e+01 -3.186278152465820312e+01 -3.898270428180694580e-02 7.924863338470458984e+00 2.365764141082763672e+00 -1.265333294868469238e-01
1.313000000000000000e+03 7.520752716064453125e+01 -2.722943305969238281e+01 -1.088215317577123642e-02 7.869750976562500000e+00 2.357660770416259766e+00 -1.188106611371040344e-01
1.314000000000000000e+03 7.341076660156250000e+01 -2.817049026489257812e+01 -2.143287844955921173e-02 7.873001575469970703e+00 2.355470657348632812e+00 -1.450346708297729492e-01
1.315000000000000000e+03 7.370218658447265625e+01 2.257590866088867188e+01 -7.949690334498882294e-03 7.784413814544677734e+00 2.332939147949218750e+00 1.603135913610458374e-01
1.316000000000000000e+03 7.494778442382812500e+01 2.402943229675292969e+01 -6.696628406643867493e-03 7.817595005035400391e+00 2.343269586563110352e+00 1.303060650825500488e-01
1.317000000000000000e+03 7.533551025390625000e+01 -2.053445625305175781e+01 8.972905343398451805e-04 7.727818012237548828e+00 2.318614721298217773e+00 -1.280785351991653442e-01
1.318000000000000000e+03 7.401023101806640625e+01 -2.182053947448730469e+01 -1.722399145364761353e-03 7.755906581878662109e+00 2.326255321502685547e+00 -1.568458974361419678e-01
1.319000000000000000e+03 7.520632171630859375e+01 1.259170913696289062e+01 1.427168212831020355e-02 7.576820850372314453e+00 2.277327775955200195e+00 1.092485859990119934e-01
1.320000000000000000e+03 7.362861633300781250e+01 1.542646598815917969e+01 1.494633685797452927e-02 7.645379543304443359e+00 2.298097848892211914e+00 1.528221368789672852e-01
1.321000000000000000e+03 7.502809143066406250e+01 1.693558502197265625e+01 6.335684563964605331e-03 7.665900230407714844e+00 2.301670789718627930e+00 1.298479884862899780e-01
1.322000000000000000e+03 7.391669464111328125e+01 8.359401702880859375e+00 3.152253478765487671e-02 7.529589176177978516e+00 2.268333435058593750e+00 9.740793704986572266e-02
1.323000000000000000e+03 7.339634704589843750e+01 2.559154510498046875e+01 -1.601498574018478394e-02 7.834388732910156250e+00 2.345512151718139648e+00 1.562378406524658203e-01
1.324000000000000000e+03 7.352346801757812500e+01 2.699977493286132812e+01 -1.878761500120162964e-02 7.863729000091552734e+00 2.353482484817504883e+00 1.450175642967224121e-01
1.325000000000000000e+03 7.493154907226562500e+01 2.544025993347167969e+01 -9.498437866568565369e-03 7.843777179718017578e+00 2.350283622741699219e+00 1.270422339439392090e-01
1.326000000000000000e+03 7.545056915283203125e+01 -1.376035785675048828e+01 1.240911707282066345e-02 7.581608295440673828e+00 2.278205156326293945e+00 -1.074085682630538940e-01
1.327000000000000000e+03 7.413140869140625000e+01 -1.505983161926269531e+01 1.644225046038627625e-02 7.620882511138916016e+00 2.291197538375854492e+00 -1.391445249319076538e-01
1.328000000000000000e+03 7.401173400878906250e+01 8.098572492599487305e-03 3.922903910279273987e-02 7.471459865570068359e+00 2.253206729888916016e+00 4.620881285518407822e-03
1.329000000000000000e+03 7.400164794921875000e+01 1.428014636039733887e+00 3.867406398057937622e-02 7.474077224731445312e+00 2.253825426101684570e+00 2.171949110925197601e-02
1.330000000000000000e+03 7.534314727783203125e+01 2.883860349655151367e+00 2.398869767785072327e-02 7.451953411102294922e+00 2.242782592773437500e+00 3.171183913946151733e-02
1.331000000000000000e+03 7.539635467529296875e+01 -5.551380157470703125e+00 2.235811576247215271e-02 7.464045047760009766e+00 2.245920896530151367e+00 -4.840487241744995117e-02
1.332000000000000000e+03 7.406168365478515625e+01 -6.986069202423095703e+00 3.402566537261009216e-02 7.503228187561035156e+00 2.261176109313964844e+00 -7.468664646148681641e-02
1.333000000000000000e+03 7.408973693847656250e+01 -9.730442047119140625e+00 2.926083281636238098e-02 7.534739971160888672e+00 2.269200325012207031e+00 -1.013611406087875366e-01
1.334000000000000000e+03 7.384420776367187500e+01 1.109496212005615234e+01 2.642947435379028320e-02 7.568954467773437500e+00 2.278615236282348633e+00 1.221980303525924683e-01
1.335000000000000000e+03 7.538697814941406250e+01 -4.157842159271240234e+00 2.343612350523471832e-02 7.453930377960205078e+00 2.243209838867187500e+00 -3.598733991384506226e-02
1.336000000000000000e+03 7.403100585937500000e+01 -2.818545579910278320e+00 3.824526816606521606e-02 7.475635051727294922e+00 2.254164218902587891e+00 -2.873361483216285706e-02
1.337000000000000000e+03 7.414788818359375000e+01 -1.373882961273193359e+01 2.009041234850883484e-02 7.596517086029052734e+00 2.284982204437255859e+00 -1.317596882581710815e-01
1.338000000000000000e+03 7.544927215576171875e+01 -1.241240119934082031e+01 1.470380276441574097e-02 7.556422233581542969e+00 2.271337747573852539e+00 -1.004069149494171143e-01
1.339000000000000000e+03 7.397180938720703125e+01 4.244020938873291016e+00 3.721272572875022888e-02 7.488483905792236328e+00 2.257709026336669922e+00 5.457965657114982605e-02
1.340000000000000000e+03 7.395404052734375000e+01 -1.774126243591308594e+01 8.766131475567817688e-03 7.675119400024414062e+00 2.305165529251098633e+00 -1.538936793804168701e-01
1.341000000000000000e+03 7.386354064941406250e+01 -1.911774826049804688e+01 4.953967873007059097e-03 7.702930927276611328e+00 2.312365531921386719e+00 -1.575893759727478027e-01
1.342000000000000000e+03 7.349897766113281250e+01 1.850644493103027344e+01 5.046589765697717667e-03 7.705512046813964844e+00 2.313167572021484375e+00 1.633909642696380615e-01
1.343000000000000000e+03 7.421768188476562500e+01 -2.439745712280273438e+01 -7.291039917618036270e-03 7.808439254760742188e+00 2.340344429016113281e+00 -1.476212441921234131e-01
1.344000000000000000e+03 7.538367462158203125e+01 -2.586642265319824219e+01 -6.748315412551164627e-03 7.844221591949462891e+00 2.351242065429687500e+00 -1.205555498600006104e-01
1.345000000000000000e+03 7.371544647216796875e+01 2.953470230102539062e+01 -2.558719366788864136e-02 7.906466960906982422e+00 2.364263772964477539e+00 1.258692443370819092e-01
1.346000000000000000e+03 7.393226623535156250e+01 6.998477458953857422e+00 3.367315977811813354e-02 7.513678073883056641e+00 2.264205455780029297e+00 8.445616066455841064e-02
1.347000000000000000e+03 7.388305664062500000e+01 -2.048689460754394531e+01 1.506611471995711327e-03 7.728177547454833984e+00 2.318905115127563477e+00 -1.582041233777999878e-01
1.348000000000000000e+03 7.154587554931640625e+01 3.511823654174804688e+01 -6.529588252305984497e-02 7.949431896209716797e+00 2.365240812301635742e+00 9.645684063434600830e-02
1.349000000000000000e+03 7.381891632080078125e+01 -3.056023216247558594e+01 -2.631187438964843750e-02 7.913199901580810547e+00 2.366066455841064453e+00 -1.237016841769218445e-01
1.350000000000000000e+03 7.501983642578125000e+01 -3.124949455261230469e+01 -2.150939218699932098e-02 7.945368766784667969e+00 2.377157926559448242e+00 -9.957319498062133789e-02
1.351000000000000000e+03 7.371408081054687500e+01 1.394997692108154297e+01 1.933745294809341431e-02 7.617950916290283203e+00 2.291186571121215820e+00 1.438736468553543091e-01
1.352000000000000000e+03 7.377726745605468750e+01 2.137492179870605469e+01 -1.487125526182353497e-03 7.755733489990234375e+00 2.326273918151855469e+00 1.599627584218978882e-01
1.353000000000000000e+03 7.357035064697265625e+01 2.004017829895019531e+01 1.420192304067313671e-03 7.732886314392089844e+00 2.320291996002197266e+00 1.616206616163253784e-01
1.354000000000000000e+03 6.259876251220703125e+00 -2.880618095397949219e+01 -7.089109160006046295e-03 1.342287540435791016e+00 4.005595147609710693e-01 4.068445563316345215e-01
1.355000000000000000e+03 1.096309661865234375e+01 7.253156185150146484e+00 1.047297846525907516e-03 -4.166068043559789658e-03 -9.356311056762933731e-04 -1.518686476629227400e-04
1.356000000000000000e+03 1.076130676269531250e+01 5.949371814727783203e+00 1.164540648460388184e-03 -3.202709369361400604e-03 -6.114505813457071781e-04 -1.390634861309081316e-04
1.357000000000000000e+03 6.340848922729492188e+00 2.900697135925292969e+01 3.510596603155136108e-02 1.297866940498352051e+00 3.998918831348419189e-01 -4.212210774421691895e-01
1.358000000000000000e+03 4.713668346405029297e+00 -2.714883804321289062e+01 4.195809736847877502e-02 8.423132896423339844e-01 2.652814090251922607e-01 3.246097862720489502e-01
1.359000000000000000e+03 6.379828453063964844e+00 -8.850217819213867188e+00 -2.701017074286937714e-03 -2.134958049282431602e-03 -1.450792537070810795e-03 -8.097875397652387619e-04
1.360000000000000000e+03 6.906427383422851562e+00 2.452365303039550781e+01 2.515113949775695801e-01 9.189253449440002441e-01 3.511310219764709473e-01 -4.264814555644989014e-01
1.361000000000000000e+03 4.963432788848876953e+00 2.454514503479003906e+01 1.661938577890396118e-01 5.184334516525268555e-01 2.053882032632827759e-01 -2.097625285387039185e-01
1.362000000000000000e+03 3.928380966186523438e+00 1.902634620666503906e+01 -4.832074418663978577e-02 9.915544092655181885e-02 1.525040809065103531e-02 8.602682501077651978e-02
1.363000000000000000e+03 4.390213012695312500e+00 1.153692626953125000e+01 -3.694768762215971947e-03 -4.217679146677255630e-03 -2.373734489083290100e-03 -1.707356539554893970e-03
1.364000000000000000e+03 4.229442119598388672e+00 -2.049503898620605469e+01 1.068530753254890442e-01 2.029808759689331055e-01 9.295018017292022705e-02 -6.147862295620143414e-04
1.365000000000000000e+03 7.585417270660400391e+00 2.564127540588378906e+01 2.199539691209793091e-01 1.236729741096496582e+00 4.370051026344299316e-01 -5.739469528198242188e-01
1.366000000000000000e+03 6.454144001007080078e+00 2.631612396240234375e+01 1.668825894594192505e-01 1.070616126060485840e+00 3.712495863437652588e-01 -4.412136375904083252e-01
1.367000000000000000e+03 5.618689060211181641e+00 -2.625256347656250000e+01 9.243471175432205200e-02 9.696840047836303711e-01 3.186356127262115479e-01 3.715163767337799072e-01
1.368000000000000000e+03 8.429300308227539062e+00 -6.483071327209472656e+00 -1.203154752147383988e-04 -2.304275840288028121e-04 -1.052229199558496475e-04 -9.914182010106742382e-05
1.369000000000000000e+03 5.683383464813232422e+00 2.049494934082031250e+01 1.879078596830368042e-01 2.046914696693420410e-01 1.177798062562942505e-01 2.040227875113487244e-03
1.370000000000000000e+03 5.476333618164062500e+00 2.246488380432128906e+01 2.260128855705261230e-01 4.004770219326019287e-01 1.879469752311706543e-01 -1.276305913925170898e-01
1.371000000000000000e+03 4.058185100555419922e+00 -3.420466995239257812e+01 -3.300008550286293030e-02 1.109209775924682617e+00 3.228629231452941895e-01 1.995082497596740723e-01
1.372000000000000000e+03 6.600572586059570312e+00 2.141417312622070312e+01 2.853361368179321289e-01 4.315054714679718018e-01 2.150524705648422241e-01 -2.140184342861175537e-01
1.373000000000000000e+03 6.944841861724853516e+00 2.739177131652832031e+01 1.020253151655197144e-01 1.244402170181274414e+00 4.039282500743865967e-01 -4.806572794914245605e-01
1.374000000000000000e+03 5.802899360656738281e+00 2.792870903015136719e+01 4.806779325008392334e-02 1.010517239570617676e+00 3.175755143165588379e-01 -3.725750744342803955e-01
1.375000000000000000e+03 3.724893569946289062e+00 8.938096046447753906e+00 1.039860537275671959e-03 -1.598814851604402065e-03 -1.676862739259377122e-04 -2.082202816382050514e-03
1.376000000000000000e+03 4.396481037139892578e+00 7.637421607971191406e+00 1.142346882261335850e-03 -1.202785875648260117e-03 -1.813169183151330799e-05 -1.901080948300659657e-03
1.377000000000000000e+03 6.299482822418212891e+00 7.875419616699218750e+00 1.065752469003200531e-03 -3.764016553759574890e-03 -8.094792719930410385e-04 1.711410819552838802e-03
1.378000000000000000e+03 5.032258987426757812e+00 -7.856272697448730469e+00 -1.867720973677933216e-03 -2.832555212080478668e-03 -1.410082913935184479e-03 -1.260370947420597076e-03
1.379000000000000000e+03 4.376545429229736328e+00 3.471686172485351562e+01 -3.219586610794067383e-02 1.100741267204284668e+00 3.205636143684387207e-01 -1.747904270887374878e-01
1.380000000000000000e+03 4.820726871490478516e+00 -6.686231613159179688e+00 2.640992403030395508e-03 8.752186840865761042e-05 8.185542537830770016e-04 1.016521127894520760e-03
1.381000000000000000e+03 4.522981643676757812e+00 -5.594352722167968750e+00 -1.208215719088912010e-03 -1.084683579392731190e-03 -6.878697895444929600e-04 -1.255262410268187523e-03
1.382000000000000000e+03 1.989577865600585938e+01 1.514600658416748047e+01 8.581197261810302734e-01 7.775850296020507812e+00 2.590191125869750977e+00 -1.337050676345825195e+00
1.383000000000000000e+03 2.062596511840820312e+01 1.395794486999511719e+01 9.739935994148254395e-01 8.209083557128906250e+00 2.754923105239868164e+00 -1.243255615234375000e+00
1.384000000000000000e+03 1.219334030151367188e+01 -1.950315284729003906e+01 4.826560914516448975e-01 2.558050394058227539e+00 9.122119545936584473e-01 1.372210741043090820e+00
1.385000000000000000e+03 1.521156311035156250e+01 2.253517532348632812e+01 -2.999839186668395996e-02 4.377743721008300781e+00 1.304323673248291016e+00 -1.389554142951965332e+00
1.386000000000000000e+03 1.311447334289550781e+01 2.325752067565917969e+01 1.216737031936645508e-01 3.222668409347534180e+00 1.003302574157714844e+00 -1.368744730949401855e+00
1.387000000000000000e+03 6.274212837219238281e+00 -7.689705371856689453e+00 2.833633683621883392e-03 4.623522108886390924e-04 9.887957712635397911e-04 -1.588529557920992374e-04
1.388000000000000000e+03 1.840600967407226562e+01 -1.679102897644042969e+01 3.153941333293914795e-01 5.874781608581542969e+00 1.857052683830261230e+00 1.706620693206787109e+00
1.389000000000000000e+03 1.592183876037597656e+01 -1.792557907104492188e+01 4.657423496246337891e-01 4.379176139831542969e+00 1.453475475311279297e+00 1.633680105209350586e+00
1.390000000000000000e+03 2.297338104248046875e+01 7.798959255218505859e+00 1.121685147285461426e+00 9.540791511535644531e+00 3.198743104934692383e+00 -9.877637028694152832e-01
1.391000000000000000e+03 2.336312866210937500e+01 9.151487350463867188e+00 1.141626834869384766e+00 9.206687927246093750e+00 3.104494571685791016e+00 -8.690937757492065430e-01
1.392000000000000000e+03 1.742218399047851562e+01 1.874302291870117188e+01 3.459101319313049316e-01 6.033187389373779297e+00 1.913729190826416016e+00 -1.500125288963317871e+00
1.393000000000000000e+03 2.360798645019531250e+01 2.053745746612548828e+00 4.706648886203765869e-01 1.052396011352539062e+01 3.298387289047241211e+00 -7.198275923728942871e-01
1.394000000000000000e+03 2.444248008728027344e+01 7.530179023742675781e+00 1.082766771316528320e+00 9.309567451477050781e+00 3.117700338363647461e+00 -7.093613147735595703e-01
1.395000000000000000e+03 1.930977249145507812e+01 -1.602116012573242188e+01 2.987208664417266846e-01 6.383168220520019531e+00 2.004566669464111328e+00 1.747084021568298340e+00
1.396000000000000000e+03 2.091635322570800781e+01 -1.412453937530517578e+01 2.396731674671173096e-01 7.642878055572509766e+00 2.364765405654907227e+00 1.697952747344970703e+00
1.397000000000000000e+03 1.504491710662841797e+01 -2.229287147521972656e+01 -3.959508612751960754e-02 3.944137334823608398e+00 1.171362638473510742e+00 1.271079063415527344e+00
1.398000000000000000e+03 1.709454536437988281e+01 -1.909520149230957031e+01 1.107577681541442871e-01 5.006304264068603516e+00 1.535118699073791504e+00 1.460593104362487793e+00
1.399000000000000000e+03 7.231394958496093750e+01 4.084117126464843750e+01 -4.806056618690490723e-02 7.986923694610595703e+00 2.381659030914306641e+00 2.125525660812854767e-02
1.400000000000000000e+03 1.946835708618164062e+01 1.830294990539550781e+01 2.431565374135971069e-01 6.887422084808349609e+00 2.139173507690429688e+00 -1.088696241378784180e+00
1.401000000000000000e+03 1.931691741943359375e+01 -8.141136169433593750e+00 2.129761695861816406e+00 7.512959957122802734e+00 2.892816543579101562e+00 4.677861213684082031e+00
1.402000000000000000e+03 2.201056671142578125e+01 3.318883180618286133e-01 -6.588306277990341187e-02 1.100287628173828125e+01 3.281097888946533203e+00 -8.089161515235900879e-01
1.403000000000000000e+03 4.971066951751708984e+00 7.150535106658935547e+00 1.641107257455587387e-03 -2.746156416833400726e-03 -3.315147769171744585e-04 -1.388188829878345132e-04
1.404000000000000000e+03 5.825549125671386719e+00 -5.668069839477539062e+00 3.880622563883662224e-03 -6.170871201902627945e-04 9.790606563910841942e-04 1.087765907868742943e-03
1.405000000000000000e+03 7.766340732574462891e+00 -5.829034805297851562e+00 2.424916019663214684e-04 -7.478629122488200665e-04 -1.516113843536004424e-04 -7.895302842371165752e-04
1.406000000000000000e+03 7.728305816650390625e+00 5.907886505126953125e+00 -1.253196271136403084e-03 1.874669105745851994e-03 1.864418591139838099e-04 8.721594349481165409e-04
1.407000000000000000e+03 1.009898090362548828e+01 5.476408481597900391e+00 -1.472736359573900700e-03 2.950356109067797661e-03 4.432858841028064489e-04 1.149157527834177017e-03
1.408000000000000000e+03 6.390394210815429688e+00 -4.837223052978515625e+00 1.619485788978636265e-03 4.782145260833203793e-04 6.293100886978209019e-04 1.532008056528866291e-03
1.409000000000000000e+03 6.606261253356933594e+00 -5.549024581909179688e+00 -1.145354704931378365e-03 -1.514613046310842037e-03 -7.979903020896017551e-04 -2.323848661035299301e-03
1.410000000000000000e+03 5.301275253295898438e+00 6.405620098114013672e+00 -8.458286174573004246e-04 2.588377392385154963e-04 -1.760972663760185242e-04 -2.067712484858930111e-04
1.411000000000000000e+03 6.512425422668457031e+00 5.086134433746337891e+00 1.285620848648250103e-03 -1.453809090889990330e-03 -5.045646685175597668e-05 -1.296960981562733650e-03
1.412000000000000000e+03 1.049349975585937500e+01 4.833258152008056641e+00 1.312761334702372551e-03 -2.729782136157155037e-03 -4.251062346156686544e-04 4.483309458009898663e-04
1.413000000000000000e+03 9.053352355957031250e+00 6.721086502075195312e+00 -1.080452697351574898e-03 2.606360940262675285e-03 4.577724903356283903e-04 -4.293904057703912258e-04
1.414000000000000000e+03 2.257051849365234375e+01 -2.182539701461791992e+00 -8.698927611112594604e-02 1.223727703094482422e+01 3.645086288452148438e+00 2.146622687578201294e-01
1.415000000000000000e+03 1.115734958648681641e+01 5.186296463012695312e+00 -1.026666141115128994e-03 2.970600733533501625e-03 5.831804010085761547e-04 1.665447372943162918e-03
1.416000000000000000e+03 2.463543128967285156e+01 -5.306929111480712891e+00 3.235778570175170898e+00 1.028812503814697266e+01 4.057171344757080078e+00 9.375579357147216797e-01
1.417000000000000000e+03 2.383799362182617188e+01 -2.614351987838745117e+00 9.954214096069335938e-01 1.158834934234619141e+01 3.775131225585937500e+00 9.814018011093139648e-01
1.418000000000000000e+03 2.500546073913574219e+01 -7.141483783721923828e+00 3.303913116455078125e+00 9.858852386474609375e+00 3.948829650878906250e+00 2.835578285157680511e-02
1.419000000000000000e+03 2.445070648193359375e+01 -9.077734947204589844e+00 1.986222624778747559e+00 1.013454055786132812e+01 3.636229038238525391e+00 -3.442665636539459229e-01
1.420000000000000000e+03 2.447675895690917969e+01 -8.262080192565917969e+00 2.509057283401489258e+00 1.020447349548339844e+01 3.814059257507324219e+00 -4.040581881999969482e-01
1.421000000000000000e+03 7.383350849151611328e+00 6.611345291137695312e+00 1.730185700580477715e-03 -3.713458543643355370e-03 -5.949818296357989311e-04 1.424766611307859421e-03
1.422000000000000000e+03 8.383038520812988281e+00 6.199852943420410156e+00 1.586864469572901726e-03 -3.509948262944817543e-03 -5.769251729361712933e-04 6.185786915011703968e-04
1.423000000000000000e+03 9.668540000915527344e+00 7.423940181732177734e+00 1.236961339600384235e-03 -4.208975937217473984e-03 -8.916042861528694630e-04 2.511025173589587212e-03
1.424000000000000000e+03 6.778310298919677734e+00 1.010299301147460938e+01 -1.114179380238056183e-03 -1.739879022352397442e-03 -8.562175207771360874e-04 -2.426759339869022369e-03
1.425000000000000000e+03 8.164416313171386719e+00 8.233914375305175781e+00 -2.010975033044815063e-03 3.450200427323579788e-03 4.317676648497581482e-04 2.353204879909753799e-03
1.426000000000000000e+03 2.328610420227050781e+01 -1.063725280761718750e+01 7.858091592788696289e-01 1.016285324096679688e+01 3.284598827362060547e+00 4.588354229927062988e-01
1.427000000000000000e+03 3.549848556518554688e+00 6.546025276184082031e+00 2.016205340623855591e-03 -9.920196607708930969e-04 3.072557155974209309e-04 -1.703224261291325092e-03
1.428000000000000000e+03 7.121260070800781250e+01 -2.612422370910644531e+01 -2.605311758816242218e-02 7.825566291809082031e+00 2.339854001998901367e+00 -1.939516812562942505e-01
1.429000000000000000e+03 6.987940216064453125e+01 -2.941802597045898438e+01 -5.503772944211959839e-02 7.868003845214843750e+00 2.343889951705932617e+00 -1.859029531478881836e-01
1.430000000000000000e+03 7.041043853759765625e+01 -3.243101119995117188e+01 -6.798586249351501465e-02 7.905955791473388672e+00 2.351391077041625977e+00 -1.516966223716735840e-01
1.431000000000000000e+03 9.935132026672363281e+00 2.791549301147460938e+01 1.542051904834806919e-03 2.197813272476196289e+00 6.598066091537475586e-01 -7.739838957786560059e-01
1.432000000000000000e+03 1.031756305694580078e+01 3.302759170532226562e+01 -2.458449453115463257e-01 2.605021476745605469e+00 7.077529430389404297e-01 -5.294289588928222656e-01
1.433000000000000000e+03 7.286566925048828125e+01 -2.317010879516601562e+01 -8.648975752294063568e-03 7.783534526824951172e+00 2.332465648651123047e+00 -1.770208179950714111e-01
1.434000000000000000e+03 7.311026000976562500e+01 -2.545184135437011719e+01 -1.394330058246850967e-02 7.823637962341308594e+00 2.342908382415771484e+00 -1.639029681682586670e-01
1.435000000000000000e+03 7.162895965576171875e+01 2.352064323425292969e+01 -1.455430034548044205e-02 7.794559478759765625e+00 2.334001541137695312e+00 1.921242326498031616e-01
1.436000000000000000e+03 7.047574615478515625e+01 1.681941795349121094e+01 2.182132937014102936e-02 7.685133457183837891e+00 2.312086343765258789e+00 2.111809700727462769e-01
1.437000000000000000e+03 7.215386962890625000e+01 1.534571647644042969e+01 2.205213531851768494e-02 7.653785705566406250e+00 2.302751302719116211e+00 1.778444647789001465e-01
1.438000000000000000e+03 7.417726898193359375e+01 -2.564439964294433594e+01 -1.070135459303855896e-02 7.831301212310791016e+00 2.346179962158203125e+00 -1.436676830053329468e-01
1.439000000000000000e+03 7.091534423828125000e+01 1.085884666442871094e+01 5.550030618906021118e-02 7.595090389251708984e+00 2.295177221298217773e+00 1.612523347139358521e-01
1.440000000000000000e+03 7.274457550048828125e+01 -1.626713943481445312e+01 1.880457997322082520e-02 7.654775142669677734e+00 2.302073955535888672e+00 -1.707425117492675781e-01
1.441000000000000000e+03 7.268986511230468750e+01 -7.067181587219238281e+00 4.974127188324928284e-02 7.525344848632812500e+00 2.272525787353515625e+00 -8.881860226392745972e-02
1.442000000000000000e+03 7.272571563720703125e+01 -9.802823066711425781e+00 4.264016449451446533e-02 7.554408550262451172e+00 2.279114723205566406e+00 -1.200517639517784119e-01
1.443000000000000000e+03 7.117502593994140625e+01 2.619094610214233398e+00 7.714726775884628296e-02 7.521539211273193359e+00 2.279605865478515625e+00 4.732388630509376526e-02
1.444000000000000000e+03 7.411029052734375000e+01 -1.108516502380371094e+01 2.641735039651393890e-02 7.553801059722900391e+00 2.274065494537353516e+00 -1.130698397755622864e-01
1.445000000000000000e+03 7.275469970703125000e+01 -1.114839458465576172e+01 3.797259554266929626e-02 7.571515083312988281e+00 2.282846212387084961e+00 -1.327450722455978394e-01
1.446000000000000000e+03 7.266027069091796875e+01 -2.910844802856445312e+00 5.500069260597229004e-02 7.499571800231933594e+00 2.266371726989746094e+00 -3.465290367603302002e-02
1.447000000000000000e+03 7.266907501220703125e+01 -4.304519176483154297e+00 5.411116778850555420e-02 7.505662441253662109e+00 2.267931938171386719e+00 -5.344755947589874268e-02
1.448000000000000000e+03 7.402145385742187500e+01 -1.409719347953796387e+00 3.861760720610618591e-02 7.472004890441894531e+00 2.253186702728271484e+00 -1.201769057661294937e-02
1.449000000000000000e+03 7.265399932861328125e+01 -1.501151204109191895e+00 5.640355125069618225e-02 7.496060371398925781e+00 2.265739202499389648e+00 -1.555428747087717056e-02
1.450000000000000000e+03 7.264131164550781250e+01 -8.648957312107086182e-02 5.644330009818077087e-02 7.495399475097656250e+00 2.265552759170532227e+00 4.227620083838701248e-03
1.451000000000000000e+03 7.395233917236328125e+01 5.630666732788085938e+00 3.572254255414009094e-02 7.499876499176025391e+00 2.260679721832275391e+00 6.965629011392593384e-02
1.452000000000000000e+03 7.435040950775146484e+00 2.856464004516601562e+01 1.513349544256925583e-02 1.551585793495178223e+00 4.700157940387725830e-01 -5.314217805862426758e-01
1.453000000000000000e+03 1.059059333801269531e+01 2.239950561523437500e+01 4.368631243705749512e-01 1.828470349311828613e+00 6.796000599861145020e-01 -1.111104011535644531e+00
1.454000000000000000e+03 7.378613281250000000e+01 1.250625991821289062e+01 2.315872162580490112e-02 7.592137336730957031e+00 2.284588813781738281e+00 1.338759958744049072e-01
1.455000000000000000e+03 7.242064666748046875e+01 9.599233627319335938e+00 4.320467263460159302e-02 7.564857006072998047e+00 2.282418489456176758e+00 1.281226277351379395e-01
1.456000000000000000e+03 7.081869506835937500e+01 2.558733940124511719e+01 -2.888304181396961212e-02 7.824388027191162109e+00 2.338651657104492188e+00 1.964985132217407227e-01
1.457000000000000000e+03 7.410527229309082031e+00 2.248384857177734375e+01 3.620443046092987061e-01 6.772914528846740723e-01 3.118007183074951172e-01 -3.806180655956268311e-01
1.458000000000000000e+03 7.212694549560546875e+01 -2.726709175109863281e+01 -2.725804783403873444e-02 7.849447727203369141e+00 2.346657037734985352e+00 -1.727102100849151611e-01
1.459000000000000000e+03 8.095365524291992188e+00 3.406949615478515625e+01 -1.809976845979690552e-01 2.065094947814941406e+00 5.652291178703308105e-01 -3.912349343299865723e-01
1.460000000000000000e+03 2.228882980346679688e+01 1.194927811622619629e+00 1.249732002615928650e-01 1.086808395385742188e+01 3.297917127609252930e+00 -8.751209378242492676e-01
1.461000000000000000e+03 2.416681289672851562e+01 3.159768581390380859e+00 7.065421342849731445e-01 1.020560836791992188e+01 3.273644924163818359e+00 -6.905626654624938965e-01
1.462000000000000000e+03 7.422556400299072266e+00 -2.528162002563476562e+01 1.683639585971832275e-01 1.363302350044250488e+00 4.594998955726623535e-01 5.803812146186828613e-01
1.463000000000000000e+03 2.278774642944335938e+01 -1.177376651763916016e+01 4.128855466842651367e-01 9.530572891235351562e+00 2.983037471771240234e+00 8.655146956443786621e-01
1.464000000000000000e+03 6.938195705413818359e+00 -6.332508563995361328e+00 9.392390493303537369e-04 9.709967998787760735e-04 5.730707780458033085e-04 9.761562687344849110e-04
1.465000000000000000e+03 9.479869842529296875e+00 2.635830307006835938e+01 1.223518699407577515e-01 1.953722715377807617e+00 6.228224039077758789e-01 -7.962229847908020020e-01
1.466000000000000000e+03 2.172567367553710938e+01 -1.345082378387451172e+01 1.992223113775253296e-01 8.425930023193359375e+00 2.587545871734619141e+00 1.395134806632995605e+00
1.467000000000000000e+03 4.347077846527099609e+00 6.778190135955810547e+00 -8.294240105897188187e-04 -9.698870417196303606e-05 -2.779237984213978052e-04 4.854884900851175189e-05
1.468000000000000000e+03 5.626522541046142578e+00 8.337231636047363281e+00 8.942225831560790539e-04 -2.267119474709033966e-03 -4.118690267205238342e-04 -1.438763341866433620e-03
1.469000000000000000e+03 2.201019477844238281e+01 -1.638769149780273438e+00 -4.195847213268280029e-01 1.181923770904541016e+01 3.419895887374877930e+00 -4.368024170398712158e-01
1.470000000000000000e+03 1.180962944030761719e+01 -2.045547676086425781e+01 3.673544526100158691e-01 2.454763650894165039e+00 8.466354012489318848e-01 1.288176655769348145e+00
1.471000000000000000e+03 1.030515289306640625e+01 -2.320115470886230469e+01 1.870335191488265991e-01 2.060372352600097656e+00 6.742217540740966797e-01 9.628720283508300781e-01
1.472000000000000000e+03 1.363686752319335938e+01 -2.298581314086914062e+01 -5.484787281602621078e-03 3.418288469314575195e+00 1.023841023445129395e+00 1.215097188949584961e+00
1.473000000000000000e+03 2.476986312866210938e+01 8.945137977600097656e+00 1.081287622451782227e+00 9.017425537109375000e+00 3.029613971710205078e+00 -6.157230138778686523e-01
1.474000000000000000e+03 2.635090446472167969e+01 1.056939029693603516e+01 9.491562843322753906e-01 8.562224388122558594e+00 2.853414058685302734e+00 -2.796914279460906982e-01
1.475000000000000000e+03 2.276613998413085938e+01 1.076400661468505859e+01 1.149636745452880859e+00 8.899898529052734375e+00 3.014860630035400391e+00 -9.204347729682922363e-01
1.476000000000000000e+03 6.747839355468750000e+01 2.873836135864257812e+01 -7.309749722480773926e-02 7.854757785797119141e+00 2.334498167037963867e+00 2.138783037662506104e-01
1.477000000000000000e+03 1.865312004089355469e+01 -1.981329345703125000e+01 -1.218733340501785278e-01 5.665822982788085938e+00 1.663185000419616699e+00 1.313134789466857910e+00
1.478000000000000000e+03 1.582005882263183594e+01 2.117012023925781250e+01 6.946469843387603760e-02 4.870503425598144531e+00 1.481990337371826172e+00 -1.487216353416442871e+00
1.479000000000000000e+03 2.257461929321289062e+01 1.370475006103515625e+01 8.487857580184936523e-01 8.244434356689453125e+00 2.727966070175170898e+00 -7.320296168327331543e-01
1.480000000000000000e+03 2.328037834167480469e+01 1.586255073547363281e+01 4.828251600265502930e-01 7.861962318420410156e+00 2.503436088562011719e+00 -4.567040801048278809e-01
1.481000000000000000e+03 2.522479248046875000e+01 2.677558183670043945e+00 7.468682527542114258e-01 1.006801128387451172e+01 3.244463682174682617e+00 -4.371838271617889404e-01
1.482000000000000000e+03 2.479468154907226562e+01 4.416345119476318359e+00 8.759466409683227539e-01 9.808971405029296875e+00 3.205475568771362305e+00 -6.416624188423156738e-01
1.483000000000000000e+03 2.096955490112304688e+01 -1.851304435729980469e+01 -1.935133486986160278e-01 6.626457691192626953e+00 1.929883360862731934e+00 1.138928532600402832e+00
1.484000000000000000e+03 7.259548950195312500e+01 -2.191021537780761719e+01 -4.298485349863767624e-03 7.757859230041503906e+00 2.326068162918090820e+00 -1.844176799058914185e-01
1.485000000000000000e+03 8.588882446289062500e+00 -2.916100692749023438e+01 -8.240927755832672119e-02 2.001076936721801758e+00 5.756003260612487793e-01 5.703999400138854980e-01
1.486000000000000000e+03 7.401828289031982422e+00 -2.997832107543945312e+01 -5.104596540331840515e-02 1.701640367507934570e+00 4.951783120632171631e-01 4.495577812194824219e-01
1.487000000000000000e+03 1.677302360534667969e+01 2.308162879943847656e+01 -2.271007150411605835e-01 5.095498085021972656e+00 1.460519194602966309e+00 -1.208415031433105469e+00
1.488000000000000000e+03 1.116390228271484375e+01 2.356539726257324219e+01 2.699249386787414551e-01 2.238171339035034180e+00 7.524288296699523926e-01 -1.109195113182067871e+00
1.489000000000000000e+03 7.285549163818359375e+01 -1.500691986083984375e+01 2.466231957077980042e-02 7.629936695098876953e+00 2.296379804611206055e+00 -1.624207943677902222e-01
1.490000000000000000e+03 5.119412422180175781e+00 -1.378584098815917969e+01 -2.408742159605026245e-02 6.206366233527660370e-03 -5.364316515624523163e-03 5.819859914481639862e-03
1.491000000000000000e+03 2.596710205078125000e+01 7.258035659790039062e+00 1.041128277778625488e+00 9.119661331176757812e+00 3.048236846923828125e+00 -4.698811471462249756e-01
1.492000000000000000e+03 2.403048706054687500e+01 6.143918514251708984e+00 1.010810613632202148e+00 9.633913040161132812e+00 3.193417072296142578e+00 -8.110376596450805664e-01
1.493000000000000000e+03 7.246683502197265625e+01 6.906393051147460938e+00 5.007562041282653809e-02 7.534331321716308594e+00 2.275321960449218750e+00 9.796857833862304688e-02
1.494000000000000000e+03 7.226654052734375000e+01 1.384716796875000000e+01 2.817962691187858582e-02 7.628353595733642578e+00 2.296960115432739258e+00 1.679140329360961914e-01
1.495000000000000000e+03 1.842657661437988281e+01 -1.485668659210205078e+01 6.555816531181335449e-01 6.044305801391601562e+00 2.009966373443603516e+00 2.078478574752807617e+00
1.496000000000000000e+03 1.201455783843994141e+01 -2.344959259033203125e+01 9.221644699573516846e-02 2.722602605819702148e+00 8.444457650184631348e-01 1.095477461814880371e+00
1.497000000000000000e+03 7.132655334472656250e+01 2.836858558654785156e+01 -3.750564530491828918e-02 7.865221977233886719e+00 2.348315000534057617e+00 1.714420616626739502e-01
1.498000000000000000e+03 7.257276153564453125e+01 2.916144752502441406e+01 -3.053443878889083862e-02 7.885706424713134766e+00 2.356551647186279297e+00 1.466879993677139282e-01
1.499000000000000000e+03 2.055749893188476562e+01 1.904372978210449219e+01 5.833110585808753967e-02 6.944345951080322266e+00 2.100803136825561523e+00 -8.545703887939453125e-01
1.500000000000000000e+03 2.119348335266113281e+01 1.997799873352050781e+01 -1.122001558542251587e-01 6.918950080871582031e+00 2.042024850845336914e+00 -7.033770680427551270e-01
1.501000000000000000e+03 2.440853118896484375e+01 1.317882156372070312e+01 7.968651652336120605e-01 8.314002990722656250e+00 2.733260393142700195e+00 -4.243077337741851807e-01
1.502000000000000000e+03 7.934576034545898438e+00 7.014073848724365234e+00 -1.129683456383645535e-03 2.297398168593645096e-03 3.503143670968711376e-04 3.222942759748548269e-04
1.503000000000000000e+03 5.899744510650634766e+00 6.734323024749755859e+00 2.073246287181973457e-03 -2.983144484460353851e-03 -2.729694242589175701e-04 -6.777635426260530949e-04
1.504000000000000000e+03 2.350369262695312500e+01 -1.748175740242004395e+00 3.123858273029327393e-01 1.173132419586181641e+01 3.613112926483154297e+00 4.261968135833740234e-01
1.505000000000000000e+03 6.887556552886962891e+00 8.535407066345214844e+00 -6.792552885599434376e-04 1.866237653302960098e-05 -1.981778768822550774e-04 -1.431057346053421497e-03
1.506000000000000000e+03 6.468655109405517578e+00 6.653942584991455078e+00 6.858834531158208847e-04 -2.315558260306715965e-03 -4.889024421572685242e-04 2.115924842655658722e-03
1.507000000000000000e+03 2.523716926574707031e+01 -3.053685665130615234e+00 1.700931072235107422e+00 1.058720493316650391e+01 3.686440706253051758e+00 9.394126534461975098e-01
1.508000000000000000e+03 2.602958869934082031e+01 -7.225288391113281250e+00 2.798482179641723633e+00 9.374916076660156250e+00 3.652019739151000977e+00 -2.516910806298255920e-02
1.509000000000000000e+03 2.391343688964843750e+01 -9.834627151489257812e+00 1.316870808601379395e+00 1.027840423583984375e+01 3.478582620620727539e+00 -6.383174657821655273e-02
1.510000000000000000e+03 2.374365615844726562e+01 -8.541675567626953125e+00 2.262622594833374023e+00 1.077854061126708984e+01 3.912348985671997070e+00 -2.801088988780975342e-01
1.511000000000000000e+03 2.585336303710937500e+01 -5.018964767456054688e+00 2.719835519790649414e+00 9.779742240905761719e+00 3.749873399734497070e+00 7.245639562606811523e-01
1.512000000000000000e+03 2.552425956726074219e+01 -4.019277095794677734e+00 2.300289630889892578e+00 1.015869235992431641e+01 3.737694501876831055e+00 9.100723266601562500e-01
1.513000000000000000e+03 1.007748222351074219e+01 2.430570220947265625e+01 2.670027315616607666e-01 1.936447262763977051e+00 6.610350012779235840e-01 -9.622100591659545898e-01
1.514000000000000000e+03 7.270594024658203125e+01 -8.437821388244628906e+00 4.639146849513053894e-02 7.538588047027587891e+00 2.275493860244750977e+00 -1.047451198101043701e-01
1.515000000000000000e+03 2.494343757629394531e+01 1.039934921264648438e+01 1.037950277328491211e+00 8.749399185180664062e+00 2.936204910278320312e+00 -5.188412666320800781e-01
1.516000000000000000e+03 7.260293579101562500e+01 2.755901098251342773e+00 5.554969608783721924e-02 7.502871990203857422e+00 2.267526388168334961e+00 4.385794326663017273e-02
1.517000000000000000e+03 7.124520874023437500e+01 -1.634429454803466797e+00 7.642057538032531738e-02 7.516009807586669922e+00 2.277729034423828125e+00 -1.964226551353931427e-02
1.518000000000000000e+03 7.125192260742187500e+01 -3.035924434661865234e+00 7.556343078613281250e-02 7.519570350646972656e+00 2.278540134429931641e+00 -4.146914929151535034e-02
1.519000000000000000e+03 7.228345489501953125e+01 -2.053367996215820312e+01 2.474461449310183525e-03 7.732022285461425781e+00 2.320348978042602539e+00 -1.902674883604049683e-01
1.520000000000000000e+03 7.251091766357421875e+01 5.540028572082519531e+00 5.271383747458457947e-02 7.521687507629394531e+00 2.272320270538330078e+00 8.128337562084197998e-02
1.521000000000000000e+03 6.971575927734375000e+01 2.441778898239135742e+00 1.007526516914367676e-01 7.536416530609130859e+00 2.291150808334350586e+00 5.033172294497489929e-02
1.522000000000000000e+03 7.127673339843750000e+01 -5.799134254455566406e+00 7.122746109962463379e-02 7.533159732818603516e+00 2.281316280364990234e+00 -8.268126100301742554e-02
1.523000000000000000e+03 8.128204345703125000e+00 2.368739891052246094e+01 3.913828134536743164e-01 1.053154110908508301e+00 4.333610534667968750e-01 -6.404291391372680664e-01
1.524000000000000000e+03 7.067890930175781250e+01 -2.478746032714843750e+01 -2.316089905798435211e-02 7.803519248962402344e+00 2.334107637405395508e+00 -2.093587666749954224e-01
1.525000000000000000e+03 7.284121704101562500e+01 -2.637689781188964844e+01 -1.846142858266830444e-02 7.838744163513183594e+00 2.346084833145141602e+00 -1.647074371576309204e-01
1.526000000000000000e+03 7.113211822509765625e+01 -1.723974800109863281e+01 1.999416947364807129e-02 7.680449962615966797e+00 2.310133218765258789e+00 -2.020204067230224609e-01
1.527000000000000000e+03 6.998494720458984375e+01 -1.956385803222656250e+01 1.029157824814319611e-02 7.719079017639160156e+00 2.318811178207397461e+00 -2.282724082469940186e-01
1.528000000000000000e+03 7.234780120849609375e+01 1.239066028594970703e+01 3.445399552583694458e-02 7.604659557342529297e+00 2.291733980178833008e+00 1.557409167289733887e-01
1.529000000000000000e+03 7.136763763427734375e+01 -1.125045299530029297e+01 5.171928927302360535e-02 7.587275028228759766e+00 2.291698217391967773e+00 -1.530462801456451416e-01
1.530000000000000000e+03 6.978882598876953125e+01 -3.193557500839233398e+00 9.842409938573837280e-02 7.535720825195312500e+00 2.290243387222290039e+00 -4.866484552621841431e-02
1.531000000000000000e+03 2.019078063964843750e+01 -1.508722019195556641e+01 2.664537131786346436e-01 7.053055286407470703e+00 2.195852756500244141e+00 1.749885320663452148e+00
1.532000000000000000e+03 7.091000366210937500e+01 1.227014541625976562e+01 4.668970778584480286e-02 7.614896297454833984e+00 2.298475742340087891e+00 1.761798709630966187e-01
1.533000000000000000e+03 7.284538269042968750e+01 -1.374347972869873047e+01 2.826176956295967102e-02 7.608951091766357422e+00 2.291163921356201172e+00 -1.526346951723098755e-01
1.534000000000000000e+03 6.641803741455078125e+00 -2.277645111083984375e+01 2.742448747158050537e-01 7.810940742492675781e-01 3.166016936302185059e-01 4.034031033515930176e-01
1.535000000000000000e+03 7.198152923583984375e+01 2.043692016601562500e+01 -1.070557162165641785e-03 7.744021415710449219e+00 2.322885274887084961e+00 1.928515434265136719e-01
1.536000000000000000e+03 7.031084442138671875e+01 1.857989883422851562e+01 1.118982024490833282e-02 7.712375164031982422e+00 2.317069530487060547e+00 2.191209346055984497e-01
1.537000000000000000e+03 7.787146568298339844e+00 3.092605400085449219e+01 -6.588671356439590454e-02 1.849189639091491699e+00 5.349909067153930664e-01 -5.145655870437622070e-01
1.538000000000000000e+03 1.238487339019775391e+01 2.886075210571289062e+01 -2.151460051536560059e-01 3.109172821044921875e+00 8.682080507278442383e-01 -8.092449903488159180e-01
1.539000000000000000e+03 7.112322998046875000e+01 -2.827113151550292969e+01 -3.655089065432548523e-02 7.856801986694335938e+00 2.346075296401977539e+00 -1.805773526430130005e-01
1.540000000000000000e+03 6.988266754150390625e+01 2.756860160827636719e+01 -4.419234022498130798e-02 7.848723411560058594e+00 2.341359376907348633e+00 1.956010907888412476e-01
1.541000000000000000e+03 2.322909164428710938e+01 1.119390845298767090e+00 3.054481744766235352e-01 1.079350662231445312e+01 3.329686403274536133e+00 -6.746239662170410156e-01
1.542000000000000000e+03 2.594791984558105469e+01 3.903338670730590820e+00 9.018530249595642090e-01 9.707243919372558594e+00 3.182729244232177734e+00 -3.928526341915130615e-01
1.543000000000000000e+03 7.129282379150390625e+01 -7.171936035156250000e+00 6.768441200256347656e-02 7.543308734893798828e+00 2.283297777175903320e+00 -1.021117120981216431e-01
1.544000000000000000e+03 7.101012420654296875e+01 5.398814678192138672e+00 7.391318678855895996e-02 7.539269447326660156e+00 2.283954858779907227e+00 9.009937942028045654e-02
1.545000000000000000e+03 6.767877197265625000e+01 6.248102664947509766e+00 1.206823512911796570e-01 7.572673797607421875e+00 2.308006763458251953e+00 1.269351243972778320e-01
1.546000000000000000e+03 1.781307220458984375e+01 2.067828178405761719e+01 -3.675589337944984436e-02 5.866115093231201172e+00 1.748807787895202637e+00 -1.230991363525390625e+00
1.547000000000000000e+03 1.846151542663574219e+01 2.180268859863281250e+01 -2.299942374229431152e-01 5.951014041900634766e+00 1.716305851936340332e+00 -1.059636473655700684e+00
1.548000000000000000e+03 2.399184608459472656e+01 1.463627052307128906e+01 6.137680411338806152e-01 8.081800460815429688e+00 2.608670711517333984e+00 -4.137405157089233398e-01
1.549000000000000000e+03 1.564841079711914062e+01 -2.631350135803222656e+01 -3.475377857685089111e-01 4.179874420166015625e+00 1.149700999259948730e+00 9.291769862174987793e-01
1.550000000000000000e+03 1.318717479705810547e+01 -2.152519798278808594e+01 1.464709192514419556e-01 3.148763895034790039e+00 9.885704517364501953e-01 1.280857324600219727e+00
1.551000000000000000e+03 7.165297698974609375e+01 -1.497440910339355469e+01 3.135803714394569397e-02 7.637167930603027344e+00 2.300557851791381836e+00 -1.794665008783340454e-01
1.552000000000000000e+03 9.647258758544921875e+00 -2.718210029602050781e+01 -1.906455494463443756e-02 2.209072351455688477e+00 6.570023298263549805e-01 7.275821566581726074e-01
1.553000000000000000e+03 8.309871673583984375e+00 -2.747491836547851562e+01 9.823523461818695068e-03 1.809837460517883301e+00 5.458982586860656738e-01 5.894236564636230469e-01
1.554000000000000000e+03 8.336011886596679688e+00 2.935651779174804688e+01 -1.441754493862390518e-02 1.852483868598937988e+00 5.514199137687683105e-01 -6.154466867446899414e-01
1.555000000000000000e+03 7.081060028076171875e+01 1.371810531616210938e+01 3.906407579779624939e-02 7.636379718780517578e+00 2.302633047103881836e+00 1.886682659387588501e-01
1.556000000000000000e+03 6.861836910247802734e+00 7.238529205322265625e+00 -4.946289700455963612e-04 5.909582250751554966e-04 2.889876486733555794e-05 -1.071695704013109207e-03
1.557000000000000000e+03 7.057441711425781250e+01 -2.099490547180175781e+01 -1.067205448634922504e-03 7.742887496948242188e+00 2.322546005249023438e+00 -2.194244712591171265e-01
1.558000000000000000e+03 1.648008537292480469e+01 -2.188945198059082031e+01 -1.325885355472564697e-01 4.605575084686279297e+00 1.341895937919616699e+00 1.263914942741394043e+00
1.559000000000000000e+03 1.452051734924316406e+01 -2.095512008666992188e+01 9.924900531768798828e-02 3.735534667968750000e+00 1.150435090065002441e+00 1.352003455162048340e+00
1.560000000000000000e+03 1.185353660583496094e+01 -2.175667572021484375e+01 2.178689539432525635e-01 2.503015279769897461e+00 8.162652850151062012e-01 1.225180864334106445e+00
1.561000000000000000e+03 9.652059555053710938e+00 -2.476119422912597656e+01 1.393183171749114990e-01 2.007658481597900391e+00 6.440929770469665527e-01 8.325049281120300293e-01
1.562000000000000000e+03 8.871827125549316406e+00 3.613868713378906250e+01 -2.260824739933013916e-01 2.363993167877197266e+00 6.413732171058654785e-01 -3.084362447261810303e-01
1.563000000000000000e+03 1.998740005493164062e+01 2.157901954650878906e+01 -2.735525071620941162e-01 6.398171424865722656e+00 1.837385654449462891e+00 -8.490298390388488770e-01
1.564000000000000000e+03 1.867612075805664062e+01 1.956143569946289062e+01 4.868109896779060364e-02 6.360361099243164062e+00 1.922712683677673340e+00 -1.164877533912658691e+00
1.565000000000000000e+03 2.602744865417480469e+01 1.693947792053222656e+01 2.338938713073730469e-01 7.789346694946289062e+00 2.406972169876098633e+00 -8.525671809911727905e-02
1.566000000000000000e+03 1.886543655395507812e+01 -1.800720787048339844e+01 6.572320312261581421e-02 5.944410324096679688e+00 1.803040146827697754e+00 1.471323132514953613e+00
1.567000000000000000e+03 2.291496467590332031e+01 -1.890429878234863281e+01 -3.723303675651550293e-01 7.230312347412109375e+00 2.057394742965698242e+00 7.245103120803833008e-01
1.568000000000000000e+03 8.523769378662109375e+00 2.809963607788085938e+01 2.983714826405048370e-02 1.814743757247924805e+00 5.533742904663085938e-01 -6.528034210205078125e-01
1.569000000000000000e+03 2.192951774597167969e+01 -1.486867332458496094e+01 3.722925111651420593e-02 7.938376426696777344e+00 2.392681598663330078e+00 1.176532268524169922e+00
1.570000000000000000e+03 2.965206909179687500e+01 6.542595386505126953e+00 1.020902514457702637e+00 8.689742088317871094e+00 2.913193464279174805e+00 -8.455079514533281326e-04
1.571000000000000000e+03 2.687534523010253906e+01 5.262286663055419922e+00 9.970820546150207520e-01 9.257303237915039062e+00 3.076315641403198242e+00 -2.967541813850402832e-01
1.572000000000000000e+03 8.143123626708984375e+00 2.685655021667480469e+01 1.175614967942237854e-01 1.604830503463745117e+00 5.167176127433776855e-01 -6.411267518997192383e-01
1.573000000000000000e+03 1.097311878204345703e+01 2.573404693603515625e+01 8.366800099611282349e-02 2.426070690155029297e+00 7.529216408729553223e-01 -9.625136852264404297e-01
1.574000000000000000e+03 2.624214363098144531e+01 8.837274551391601562e+00 1.032540798187255859e+00 8.857389450073242188e+00 2.966979265213012695e+00 -3.801759183406829834e-01
1.575000000000000000e+03 1.004153823852539062e+01 -3.382987213134765625e+01 -2.453598529100418091e-01 2.590596914291381836e+00 7.035711407661437988e-01 4.300418496131896973e-01
1.576000000000000000e+03 1.288753509521484375e+01 -3.351096725463867188e+01 -3.928333520889282227e-01 3.328426837921142578e+00 8.806780576705932617e-01 5.238404273986816406e-01
1.577000000000000000e+03 1.015904140472412109e+01 -2.894212722778320312e+01 -1.115451157093048096e-01 2.431725978851318359e+00 6.960542798042297363e-01 7.006217837333679199e-01
1.578000000000000000e+03 6.773175048828125000e+01 3.170961570739746094e+01 -9.131353348493576050e-02 7.886872291564941406e+00 2.338667631149291992e+00 1.773059964179992676e-01
1.579000000000000000e+03 2.713767623901367188e+01 -4.561746120452880859e+00 2.350930452346801758e+00 9.431736946105957031e+00 3.534800052642822266e+00 5.451049804687500000e-01
1.580000000000000000e+03 2.643500518798828125e+01 -2.595218896865844727e+00 1.637687683105468750e+00 1.001797676086425781e+01 3.496699333190917969e+00 6.573519706726074219e-01
1.581000000000000000e+03 2.493072509765625000e+01 -2.129519701004028320e+00 1.141404986381530762e+00 1.087961864471435547e+01 3.606307029724121094e+00 7.314658761024475098e-01
1.582000000000000000e+03 2.536104202270507812e+01 -9.612385749816894531e+00 1.746866703033447266e+00 9.651205062866210938e+00 3.419421672821044922e+00 -3.799528479576110840e-01
1.583000000000000000e+03 6.628278255462646484e+00 5.762042522430419922e+00 4.609816824086010456e-04 -1.147074624896049500e-03 -2.058278769254684448e-04 1.867999089881777763e-03
1.584000000000000000e+03 6.156248092651367188e+00 6.131158828735351562e+00 -4.570862802211195230e-04 2.310638083145022392e-04 -6.780673720641061664e-05 -9.370615589432418346e-04
1.585000000000000000e+03 6.983987426757812500e+01 -5.936016559600830078e+00 9.294982254505157471e-02 7.548288822174072266e+00 2.292371511459350586e+00 -9.394913911819458008e-02
1.586000000000000000e+03 7.126057434082031250e+01 -4.423813343048095703e+00 7.339572161436080933e-02 7.525203704833984375e+00 2.279579877853393555e+00 -6.223366037011146545e-02
1.587000000000000000e+03 7.110224151611328125e+01 4.016961574554443359e+00 7.508456707000732422e-02 7.529337882995605469e+00 2.281326770782470703e+00 6.975255161523818970e-02
1.588000000000000000e+03 2.389865493774414062e+01 -1.216834640502929688e+01 5.081868767738342285e-01 9.358667373657226562e+00 2.960056066513061523e+00 3.843821883201599121e-01
1.589000000000000000e+03 6.993111419677734375e+01 -1.002129459381103516e+01 7.535720616579055786e-02 7.584042549133300781e+00 2.297819852828979492e+00 -1.555434018373489380e-01
1.590000000000000000e+03 6.996067047119140625e+01 -1.138598537445068359e+01 6.710968911647796631e-02 7.599652290344238281e+00 2.300028562545776367e+00 -1.720892041921615601e-01
1.591000000000000000e+03 6.934763336181640625e+01 -2.516245460510253906e+01 -3.344186395406723022e-02 7.809161663055419922e+00 2.332715988159179688e+00 -2.278806865215301514e-01
1.592000000000000000e+03 6.863553619384765625e+01 -2.765480804443359375e+01 -5.569256097078323364e-02 7.842065811157226562e+00 2.335911989212036133e+00 -2.187827825546264648e-01
1.593000000000000000e+03 6.966642761230468750e+01 -1.833691215515136719e+01 2.050785534083843231e-02 7.698315620422363281e+00 2.315647125244140625e+00 -2.306556999683380127e-01
1.594000000000000000e+03 6.845840454101562500e+01 -1.988585662841796875e+01 9.120772592723369598e-03 7.727488040924072266e+00 2.320982694625854492e+00 -2.526731789112091064e-01
1.595000000000000000e+03 6.952222442626953125e+01 1.217548656463623047e+01 6.024626269936561584e-02 7.622681140899658203e+00 2.304878234863281250e+00 1.927568912506103516e-01
1.596000000000000000e+03 6.856440734863281250e+01 1.836411285400390625e+01 1.644603349268436432e-02 7.714172840118408203e+00 2.319185733795166016e+00 2.447025775909423828e-01
1.597000000000000000e+03 6.827957153320312500e+01 -4.762883663177490234e+00 1.223336979746818542e-01 7.553836345672607422e+00 2.302850961685180664e+00 -8.227456361055374146e-02
1.598000000000000000e+03 7.131297302246093750e+01 -8.539922714233398438e+00 6.351082772016525269e-02 7.556051731109619141e+00 2.285868883132934570e+00 -1.209477707743644714e-01
1.599000000000000000e+03 6.946965789794921875e+01 5.201114654541015625e+00 9.684763848781585693e-02 7.552981853485107422e+00 2.294948816299438477e+00 9.839643537998199463e-02
1.600000000000000000e+03 7.086121368408203125e+01 9.481554985046386719e+00 6.130039691925048828e-02 7.578228473663330078e+00 2.291858673095703125e+00 1.454144716262817383e-01
1.601000000000000000e+03 7.057712554931640625e+01 -1.528269481658935547e+01 3.768184781074523926e-02 7.649803161621093750e+00 2.306245565414428711e+00 -2.010679841041564941e-01
1.602000000000000000e+03 7.142832946777343750e+01 -1.256705951690673828e+01 4.460539296269416809e-02 7.604240417480468750e+00 2.294653654098510742e+00 -1.646124422550201416e-01
1.603000000000000000e+03 2.319148254394531250e+01 4.026191532611846924e-01 1.049409136176109314e-01 1.100945568084716797e+01 3.334318876266479492e+00 -5.812721848487854004e-01
1.604000000000000000e+03 2.328175926208496094e+01 -9.061160087585449219e-01 6.770070642232894897e-02 1.146311092376708984e+01 3.459243535995483398e+00 -1.031744629144668579e-01
1.605000000000000000e+03 2.455280303955078125e+01 1.619238018989562988e+00 5.665240883827209473e-01 1.045215606689453125e+01 3.305603981018066406e+00 -4.187061786651611328e-01
1.606000000000000000e+03 7.065238189697265625e+01 1.521924304962158203e+01 3.071058727800846100e-02 7.659527778625488281e+00 2.307071685791015625e+00 2.012519538402557373e-01
1.607000000000000000e+03 6.936676025390625000e+01 1.355197525024414062e+01 5.089597776532173157e-02 7.641804218292236328e+00 2.307810068130493164e+00 2.078606337308883667e-01
1.608000000000000000e+03 2.365137672424316406e+01 1.144653511047363281e+01 1.024179577827453613e+00 8.667794227600097656e+00 2.907592058181762695e+00 -6.683803200721740723e-01
1.609000000000000000e+03 2.545701789855957031e+01 1.504570388793945312e+01 5.207504630088806152e-01 7.986128807067871094e+00 2.552063703536987305e+00 -2.119936496019363403e-01
1.610000000000000000e+03 7.121441650390625000e+01 1.199032664299011230e+00 7.734012603759765625e-02 7.516902446746826172e+00 2.278272867202758789e+00 2.519552968442440033e-02
1.611000000000000000e+03 1.227701282501220703e+01 2.467002868652343750e+01 9.051053225994110107e-02 2.845020055770874023e+00 8.806591629981994629e-01 -1.119015932083129883e+00
1.612000000000000000e+03 1.323422527313232422e+01 2.735853195190429688e+01 -1.754855662584304810e-01 3.368546247482299805e+00 9.579182267189025879e-01 -9.591244459152221680e-01
1.613000000000000000e+03 2.128189277648925781e+01 -1.618147277832031250e+01 -2.595933526754379272e-02 7.312325477600097656e+00 2.185909986495971680e+00 1.260105252265930176e+00
1.614000000000000000e+03 2.429309082031250000e+01 -1.128195667266845703e+01 7.366296648979187012e-01 9.553385734558105469e+00 3.087004423141479492e+00 1.207873672246932983e-01
1.615000000000000000e+03 8.734118461608886719e+00 -2.602839660644531250e+01 5.485288798809051514e-02 1.805817365646362305e+00 5.582010746002197266e-01 6.749195456504821777e-01
1.616000000000000000e+03 6.702131652832031250e+01 -2.181813621520996094e+01 -1.104955282062292099e-02 7.757722377777099609e+00 2.324001789093017578e+00 -2.754735052585601807e-01
1.617000000000000000e+03 2.453733253479003906e+01 -1.286404252052307129e+00 7.294569611549377441e-01 1.100210094451904297e+01 3.519467353820800781e+00 4.227276742458343506e-01
1.618000000000000000e+03 2.544227218627929688e+01 5.788540363311767578e+00 9.949693679809570312e-01 9.425440788269042969e+00 3.126123189926147461e+00 -5.488309264183044434e-01
1.619000000000000000e+03 2.768028831481933594e+01 6.921542644500732422e+00 1.030685663223266602e+00 8.902477264404296875e+00 2.979948759078979492e+00 -2.084216326475143433e-01
1.620000000000000000e+03 7.091514587402343750e+01 6.771915912628173828e+00 7.076374441385269165e-02 7.551639556884765625e+00 2.286720991134643555e+00 1.114286631345748901e-01
1.621000000000000000e+03 7.084968566894531250e+01 8.127828598022460938e+00 6.569514423608779907e-02 7.564760208129882812e+00 2.289136648178100586e+00 1.288436204195022583e-01
1.622000000000000000e+03 1.113824462890625000e+01 3.022136688232421875e+01 -2.059157788753509521e-01 2.781801223754882812e+00 7.727656364440917969e-01 -6.917457580566406250e-01
1.623000000000000000e+03 9.796051025390625000e+00 2.952672004699707031e+01 -7.665857672691345215e-02 2.296262979507446289e+00 6.658813357353210449e-01 -7.111835479736328125e-01
1.624000000000000000e+03 2.422802543640136719e+01 4.088033139705657959e-01 3.901014626026153564e-01 1.081268024444580078e+01 3.360834360122680664e+00 -2.656195461750030518e-01
1.625000000000000000e+03 2.799646759033203125e+01 3.120030164718627930e+00 1.038605213165283203e+00 9.322368621826171875e+00 3.108292102813720703e+00 -2.424743212759494781e-02
1.626000000000000000e+03 7.019583892822265625e+01 2.058247756958007812e+01 -2.405840903520584106e-03 7.747143268585205078e+00 2.323421239852905273e+00 2.215798646211624146e-01
1.627000000000000000e+03 6.784958648681640625e+01 2.225802230834960938e+01 -1.945773139595985413e-02 7.770646572113037109e+00 2.325356721878051758e+00 2.554349303245544434e-01
1.628000000000000000e+03 6.905619049072265625e+01 -2.335781669616699219e+01 -2.101127244532108307e-02 7.780232906341552734e+00 2.327766418457031250e+00 -2.398913502693176270e-01
1.629000000000000000e+03 6.982234191894531250e+01 2.274045944213867188e+01 -1.758710667490959167e-02 7.779066562652587891e+00 2.328444004058837891e+00 2.242139130830764771e-01
1.630000000000000000e+03 6.913665771484375000e+01 2.483183288574218750e+01 -3.378805890679359436e-02 7.809649944305419922e+00 2.332758665084838867e+00 2.238211333751678467e-01
1.631000000000000000e+03 8.763413429260253906e+00 -2.233578300476074219e+01 3.333424925804138184e-01 1.341764330863952637e+00 5.025320649147033691e-01 7.837487459182739258e-01
1.632000000000000000e+03 1.185581588745117188e+01 -2.840905380249023438e+01 -1.781799644231796265e-01 2.963551759719848633e+00 8.356115221977233887e-01 8.030419945716857910e-01
1.633000000000000000e+03 6.838124084472656250e+01 2.681557846069335938e+01 -5.231933668255805969e-02 7.833636760711669922e+00 2.334395170211791992e+00 2.196605205535888672e-01
1.634000000000000000e+03 7.003845977783203125e+01 -2.682028007507324219e+01 -3.936748579144477844e-02 7.833479404449462891e+00 2.338233470916748047e+00 -2.059704512357711792e-01
1.635000000000000000e+03 6.845374298095703125e+01 -3.078191757202148438e+01 -7.582753896713256836e-02 7.878145217895507812e+00 2.340695381164550781e+00 -1.875305324792861938e-01
1.636000000000000000e+03 2.242143249511718750e+01 1.933161163330078125e+01 -3.093868307769298553e-02 7.275417327880859375e+00 2.173343658447265625e+00 -5.379203557968139648e-01
1.637000000000000000e+03 2.162548065185546875e+01 1.812210273742675781e+01 1.678958386182785034e-01 7.298397064208984375e+00 2.239887714385986328e+00 -6.701683998107910156e-01
1.638000000000000000e+03 6.848017120361328125e+01 -1.681148147583007812e+01 4.031652212142944336e-02 7.679173469543457031e+00 2.315846920013427734e+00 -2.429509162902832031e-01
1.639000000000000000e+03 7.152979278564453125e+01 -1.382312583923339844e+01 3.768054023385047913e-02 7.621930122375488281e+00 2.297883272171020508e+00 -1.743880212306976318e-01
1.640000000000000000e+03 7.003102874755859375e+01 -1.274808979034423828e+01 5.743112787604331970e-02 7.617652893066406250e+00 2.302525281906127930e+00 -1.870324164628982544e-01
1.641000000000000000e+03 6.911401367187500000e+01 1.501766204833984375e+01 4.227667674422264099e-02 7.663048267364501953e+00 2.311597585678100586e+00 2.215926945209503174e-01
1.642000000000000000e+03 1.845411491394042969e+01 2.333364295959472656e+01 -3.740189075469970703e-01 5.702616214752197266e+00 1.598579168319702148e+00 -9.696600437164306641e-01
1.643000000000000000e+03 1.711869812011718750e+01 2.901016807556152344e+01 -5.670702457427978516e-01 4.780231952667236328e+00 1.263948440551757812e+00 -7.264677882194519043e-01
1.644000000000000000e+03 8.654924392700195312e+00 -3.091463088989257812e+01 -1.317982673645019531e-01 2.159288406372070312e+00 6.082470417022705078e-01 4.975693821907043457e-01
1.645000000000000000e+03 2.158066368103027344e+01 2.126066970825195312e+01 -2.981122434139251709e-01 6.863078594207763672e+00 1.969489812850952148e+00 -6.131852269172668457e-01
1.646000000000000000e+03 6.948193359375000000e+01 -3.450925445556640625e+01 -9.152210503816604614e-02 7.920575618743896484e+00 2.348716020584106445e+00 -1.292876452207565308e-01
1.647000000000000000e+03 1.745685386657714844e+01 -2.456676864624023438e+01 -3.963737785816192627e-01 4.866672039031982422e+00 1.341089487075805664e+00 1.001150727272033691e+00
1.648000000000000000e+03 1.833061218261718750e+01 -2.221698951721191406e+01 -3.022584915161132812e-01 5.316307544708251953e+00 1.504214644432067871e+00 1.107544779777526855e+00
1.649000000000000000e+03 6.674381256103515625e+01 2.619066047668457031e+01 -6.236966326832771301e-02 7.824160099029541016e+00 2.328537225723266602e+00 2.453516423702239990e-01
1.650000000000000000e+03 9.018735885620117188e+00 3.842932510375976562e+01 -2.649340033531188965e-01 2.346656799316406250e+00 6.245168447494506836e-01 -1.855987161397933960e-01
1.651000000000000000e+03 2.705849266052246094e+01 -7.950666427612304688e+00 2.409485340118408203e+00 9.103296279907226562e+00 3.453834295272827148e+00 -2.540841102600097656e-01
1.652000000000000000e+03 6.852906036376953125e+01 -1.014517784118652344e+01 9.400194883346557617e-02 7.593831539154052734e+00 2.306349992752075195e+00 -1.718562990427017212e-01
1.653000000000000000e+03 6.854708862304687500e+01 -1.152601623535156250e+01 8.400280773639678955e-02 7.609555721282958984e+00 2.308067560195922852e+00 -1.911769360303878784e-01
1.654000000000000000e+03 6.795185852050781250e+01 1.327999019622802734e+01 6.663927435874938965e-02 7.643589019775390625e+00 2.313068389892578125e+00 2.227718532085418701e-01
1.655000000000000000e+03 6.946008300781250000e+01 1.084019279479980469e+01 7.076755166053771973e-02 7.606156349182128906e+00 2.303077220916748047e+00 1.799276769161224365e-01
1.656000000000000000e+03 2.284143447875976562e+01 -1.327097129821777344e+01 1.804593354463577271e-01 8.858785629272460938e+00 2.711773395538330078e+00 9.856977462768554688e-01
1.657000000000000000e+03 6.880709075927734375e+01 -2.155314636230468750e+01 -5.665410775691270828e-03 7.753302097320556641e+00 2.324290990829467773e+00 -2.489887475967407227e-01
1.658000000000000000e+03 2.665961647033691406e+01 -3.577151536941528320e+00 2.100024223327636719e+00 9.753656387329101562e+00 3.556104183197021484e+00 7.143399119377136230e-01
1.659000000000000000e+03 2.547872924804687500e+01 -6.336592435836791992e-01 8.595995306968688965e-01 1.051706314086914062e+01 3.412998676300048828e+00 2.723530232906341553e-01
1.660000000000000000e+03 6.780680084228515625e+01 -2.570140838623046875e+01 -4.920673370361328125e-02 7.814271450042724609e+00 2.329519271850585938e+00 -2.455046027898788452e-01
1.661000000000000000e+03 6.554843902587890625e+01 -2.411179542541503906e+01 -4.561569914221763611e-02 7.790282249450683594e+00 2.323400020599365234e+00 -2.885038554668426514e-01
1.662000000000000000e+03 6.628875732421875000e+01 1.985271263122558594e+01 5.008390173316001892e-03 7.737200260162353516e+00 2.322662591934204102e+00 2.805475592613220215e-01
1.663000000000000000e+03 6.883905792236328125e+01 1.661113548278808594e+01 3.066670335829257965e-02 7.686537742614746094e+00 2.315161228179931641e+00 2.352107614278793335e-01
1.664000000000000000e+03 6.987506866455078125e+01 -7.296364784240722656e+00 8.855395019054412842e-02 7.557990074157714844e+00 2.293963193893432617e+00 -1.158693507313728333e-01
1.665000000000000000e+03 1.155992031097412109e+01 2.739655494689941406e+01 -5.878901854157447815e-02 2.755647182464599609e+00 8.090574145317077637e-01 -8.909834623336791992e-01
1.666000000000000000e+03 2.480894851684570312e+01 8.581846952438354492e-02 5.921628475189208984e-01 1.069676494598388672e+01 3.386678457260131836e+00 -2.932927804067730904e-03
1.667000000000000000e+03 2.414417457580566406e+01 -5.661084651947021484e-01 3.803745508193969727e-01 1.114472866058349609e+01 3.457530975341796875e+00 1.068129763007164001e-01
1.668000000000000000e+03 2.835598754882812500e+01 1.192957305908203125e+01 7.602934241294860840e-01 8.270753860473632812e+00 2.709314107894897461e+00 -3.280000819358974695e-04
1.669000000000000000e+03 2.694253921508789062e+01 3.275989294052124023e+00 9.529458284378051758e-01 9.558808326721191406e+00 3.153526306152343750e+00 -2.100613415241241455e-01
1.670000000000000000e+03 2.412432479858398438e+01 1.740819931030273438e+01 1.986071467399597168e-01 7.648581027984619141e+00 2.354156494140625000e+00 -2.929388284683227539e-01
1.671000000000000000e+03 2.785046768188476562e+01 4.346120357513427734e+00 1.021136522293090820e+00 9.190203666687011719e+00 3.063401937484741211e+00 -1.515711396932601929e-01
1.672000000000000000e+03 2.848297882080078125e+01 -3.815721988677978516e+00 2.009496212005615234e+00 9.125597000122070312e+00 3.340528011322021484e+00 3.921337127685546875e-01
1.673000000000000000e+03 2.387708282470703125e+01 -1.676805496215820312e+01 -1.985691040754318237e-01 7.866532325744628906e+00 2.300389051437377930e+00 5.815665721893310547e-01
1.674000000000000000e+03 1.832482719421386719e+01 -3.048704910278320312e+01 -6.513493061065673828e-01 4.851657390594482422e+00 1.260092377662658691e+00 5.732870101928710938e-01
1.675000000000000000e+03 6.699989318847656250e+01 -2.860174942016601562e+01 -8.325359225273132324e-02 7.851229190826416016e+00 2.330392599105834961e+00 -2.285318076610565186e-01
1.676000000000000000e+03 7.123184204101562500e+01 -2.246289551258087158e-01 7.786020636558532715e-02 7.515099525451660156e+00 2.277888059616088867e+00 2.140449360013008118e-03
1.677000000000000000e+03 6.584992980957031250e+01 2.179652023315429688e+01 -2.003753185272216797e-02 7.763676643371582031e+00 2.323091745376586914e+00 2.852281630039215088e-01
1.678000000000000000e+03 2.663681793212890625e+01 1.444251632690429688e+01 5.495359301567077637e-01 8.028682708740234375e+00 2.573465585708618164e+00 -7.082395255565643311e-02
1.679000000000000000e+03 1.241606330871582031e+01 3.173737907409667969e+01 -3.218574225902557373e-01 3.221004009246826172e+00 8.697440028190612793e-01 -6.581572294235229492e-01
1.680000000000000000e+03 9.601471900939941406e+00 3.115044784545898438e+01 -1.616017371416091919e-01 2.330291986465454102e+00 6.506071090698242188e-01 -5.896062254905700684e-01
1.681000000000000000e+03 1.386695384979248047e+01 2.564377784729003906e+01 -1.381435245275497437e-01 3.617462158203125000e+00 1.043795585632324219e+00 -1.115739464759826660e+00
1.682000000000000000e+03 6.679909515380859375e+01 -3.245367813110351562e+01 -1.155863776803016663e-01 7.890280723571777344e+00 2.332408189773559570e+00 -1.795395463705062866e-01
1.683000000000000000e+03 1.036502647399902344e+01 -3.112027931213378906e+01 -2.227594405412673950e-01 2.605183601379394531e+00 7.147272229194641113e-01 6.047014594078063965e-01
1.684000000000000000e+03 2.796725273132324219e+01 -9.063560485839843750e+00 1.833766698837280273e+00 8.838273048400878906e+00 3.201611757278442383e+00 -4.448018670082092285e-01
1.685000000000000000e+03 2.613422775268554688e+01 -8.813974380493164062e+00 2.157183408737182617e+00 9.415990829467773438e+00 3.471952199935913086e+00 -4.361533522605895996e-01
1.686000000000000000e+03 9.306940078735351562e+00 -2.110526847839355469e+01 3.503420352935791016e-01 1.394986152648925781e+00 5.235984325408935547e-01 8.850986957550048828e-01
1.687000000000000000e+03 2.719702720642089844e+01 -6.490014195442199707e-01 1.269376039505004883e+00 9.816497802734375000e+00 3.325762033462524414e+00 3.698648214340209961e-01
1.688000000000000000e+03 2.479261970520019531e+01 -1.045482349395751953e+01 1.180418729782104492e+00 9.719874382019042969e+00 3.270087957382202148e+00 -1.457811444997787476e-01
1.689000000000000000e+03 2.323720932006835938e+01 -1.494598770141601562e+01 -9.737147949635982513e-03 8.195116043090820312e+00 2.455613613128662109e+00 8.051201701164245605e-01
1.690000000000000000e+03 2.529608535766601562e+01 -1.192154026031494141e+01 7.312901020050048828e-01 9.250432968139648438e+00 2.994517087936401367e+00 -6.696245074272155762e-02
1.691000000000000000e+03 2.612776374816894531e+01 -1.542061567306518555e+00 1.277776241302490234e+00 1.023902320861816406e+01 3.455039739608764648e+00 5.490757822990417480e-01
1.692000000000000000e+03 2.821256828308105469e+01 -7.109876632690429688e+00 2.289649963378906250e+00 8.825995445251464844e+00 3.334693670272827148e+00 -1.004811525344848633e-01
1.693000000000000000e+03 2.899476242065429688e+01 -5.150375843048095703e+00 2.136131525039672852e+00 8.799555778503417969e+00 3.280706167221069336e+00 1.692433506250381470e-01
1.694000000000000000e+03 2.910034942626953125e+01 -8.378877639770507812e+00 1.928597927093505859e+00 8.616286277770996094e+00 3.163465261459350586e+00 -3.616092801094055176e-01
1.695000000000000000e+03 2.545879554748535156e+01 9.904100894927978516e-01 7.076425552368164062e-01 1.033436870574951172e+01 3.312603235244750977e+00 -1.184873729944229126e-01
1.696000000000000000e+03 6.859864807128906250e+01 -1.296392917633056641e+01 7.258415967226028442e-02 7.626585960388183594e+00 2.309751033782958984e+00 -2.079784721136093140e-01
1.697000000000000000e+03 6.844258117675781250e+01 -7.449908733367919922e+00 1.115617826581001282e-01 7.569076538085937500e+00 2.304191589355468750e+00 -1.293680816888809204e-01
1.698000000000000000e+03 6.713124084472656250e+01 -1.025226783752441406e+01 1.132177636027336121e-01 7.602110385894775391e+00 2.314598560333251953e+00 -1.879384368658065796e-01
1.699000000000000000e+03 6.990714263916015625e+01 -8.658086776733398438e+00 8.248595893383026123e-02 7.569628238677978516e+00 2.295634269714355469e+00 -1.361560076475143433e-01
1.700000000000000000e+03 2.371945953369140625e+01 1.037400817871093750e+01 1.118219494819641113e+00 8.911101341247558594e+00 3.008796215057373047e+00 -7.350077033042907715e-01
1.701000000000000000e+03 6.977062988281250000e+01 1.028667926788330078e+00 1.025573015213012695e-01 7.531943321228027344e+00 2.290350198745727539e+00 2.452731877565383911e-02
1.702000000000000000e+03 6.754730987548828125e+01 1.467759513854980469e+01 5.660631880164146423e-02 7.663538932800292969e+00 2.316043615341186523e+00 2.413165718317031860e-01
1.703000000000000000e+03 2.938282775878906250e+01 4.725112438201904297e+00 1.079677104949951172e+00 8.911931991577148438e+00 2.997482538223266602e+00 3.096000000368803740e-04
1.704000000000000000e+03 2.893708038330078125e+01 1.072240161895751953e+01 8.262400031089782715e-01 8.360476493835449219e+00 2.756015062332153320e+00 1.565246284008026123e-02
1.705000000000000000e+03 2.782283401489257812e+01 8.783228874206542969e+00 9.909797310829162598e-01 8.642054557800292969e+00 2.889910221099853516e+00 -1.684367209672927856e-01
1.706000000000000000e+03 6.681657409667968750e+01 -1.999291419982910156e+01 1.119668781757354736e-02 7.730618000030517578e+00 2.322544574737548828e+00 -2.785007953643798828e-01
1.707000000000000000e+03 1.099534702301025391e+01 -2.631826782226562500e+01 -3.933267295360565186e-02 2.559440851211547852e+00 7.560324072837829590e-01 8.714553713798522949e-01
1.708000000000000000e+03 6.731791687011718750e+01 2.425403022766113281e+01 -4.130201041698455811e-02 7.798410892486572266e+00 2.327132701873779297e+00 2.530877888202667236e-01
1.709000000000000000e+03 1.370851993560791016e+01 -2.754289245605468750e+01 -2.669586539268493652e-01 3.491896152496337891e+00 9.674812555313110352e-01 8.737791180610656738e-01
1.710000000000000000e+03 1.265706539154052734e+01 -2.544224929809570312e+01 -6.949698925018310547e-02 3.088086843490600586e+00 9.055769443511962891e-01 1.003260016441345215e+00
1.711000000000000000e+03 7.199737548828125000e+01 3.082345199584960938e+01 -4.160363227128982544e-02 7.902098655700683594e+00 2.358148574829101562e+00 1.418664157390594482e-01
1.712000000000000000e+03 6.960075378417968750e+01 3.249048233032226562e+01 -7.439688593149185181e-02 7.903311729431152344e+00 2.348674535751342773e+00 1.514057815074920654e-01
1.713000000000000000e+03 6.490136718750000000e+01 2.582745170593261719e+01 -7.753956317901611328e-02 7.815602302551269531e+00 2.321418762207031250e+00 2.734443247318267822e-01
1.714000000000000000e+03 6.535841369628906250e+01 2.381152153015136719e+01 -4.806813597679138184e-02 7.791035652160644531e+00 2.322890281677246094e+00 2.830941677093505859e-01
1.715000000000000000e+03 2.959508514404296875e+01 -6.450624465942382812e+00 2.089351415634155273e+00 8.622334480285644531e+00 3.213505744934082031e+00 -6.872516870498657227e-02
1.716000000000000000e+03 2.669261741638183594e+01 -1.137638473510742188e+01 1.035443902015686035e+00 9.044667243957519531e+00 3.024033308029174805e+00 -3.853818178176879883e-01
1.717000000000000000e+03 6.824892425537109375e+01 -1.973062157630920410e+00 1.277848780155181885e-01 7.545124530792236328e+00 2.301872730255126953e+00 -3.114957362413406372e-02
1.718000000000000000e+03 6.978100585937500000e+01 -3.912487626075744629e-01 1.012336090207099915e-01 7.531124591827392578e+00 2.289707422256469727e+00 -5.707569071091711521e-04
1.719000000000000000e+03 2.941214561462402344e+01 9.293963313102722168e-01 1.283489823341369629e+00 9.159205436706542969e+00 3.132808685302734375e+00 2.099370062351226807e-01
1.720000000000000000e+03 3.043362808227539062e+01 -4.569138526916503906e+00 1.931222319602966309e+00 8.619668960571289062e+00 3.165267467498779297e+00 1.253727078437805176e-01
1.721000000000000000e+03 3.027479362487792969e+01 1.129534244537353516e+01 7.635980844497680664e-01 8.214344024658203125e+00 2.693382740020751953e+00 1.548154652118682861e-01
1.722000000000000000e+03 6.663113403320312500e+01 3.352772474288940430e+00 1.597100645303726196e-01 7.560565471649169922e+00 2.316082715988159180e+00 8.059306442737579346e-02
1.723000000000000000e+03 6.830080413818359375e+01 8.531151413917541504e-01 1.285025775432586670e-01 7.544232845306396484e+00 2.301820516586303711e+00 2.329806797206401825e-02
1.724000000000000000e+03 2.797496604919433594e+01 4.390164911746978760e-01 1.217861413955688477e+00 9.516137123107910156e+00 3.220199584960937500e+00 2.473884522914886475e-01
1.725000000000000000e+03 2.632277870178222656e+01 2.374491989612579346e-01 9.546238780021667480e-01 1.013804626464843750e+01 3.327801227569580078e+00 1.705257594585418701e-01
1.726000000000000000e+03 6.978050231933593750e+01 -1.800548195838928223e+00 1.008600592613220215e-01 7.532480716705322266e+00 2.290002346038818359e+00 -2.511307969689369202e-02
1.727000000000000000e+03 6.824185943603515625e+01 -3.378386259078979492e+00 1.262028217315673828e-01 7.548888683319091797e+00 2.302527427673339844e+00 -5.705524235963821411e-02
1.728000000000000000e+03 6.545716094970703125e+01 -1.458740901947021484e+01 8.737705647945404053e-02 7.659061908721923828e+00 2.323931694030761719e+00 -2.667717337608337402e-01
1.729000000000000000e+03 2.714565849304199219e+01 1.265500068664550781e+00 1.009948492050170898e+00 9.740221023559570312e+00 3.225050926208496094e+00 6.063086912035942078e-02
1.730000000000000000e+03 3.111416625976562500e+01 4.429137229919433594e+00 1.122706770896911621e+00 8.613982200622558594e+00 2.921006679534912109e+00 1.374530941247940063e-01
1.731000000000000000e+03 2.877183723449707031e+01 -1.019417858123779297e+01 1.466256618499755859e+00 8.684335708618164062e+00 3.045177698135375977e+00 -5.245854854583740234e-01
1.732000000000000000e+03 3.128205108642578125e+01 -1.191778087615966797e+01 9.976590871810913086e-01 8.310760498046875000e+00 2.792525768280029297e+00 -5.896671414375305176e-01
1.733000000000000000e+03 6.660217285156250000e+01 1.277154445648193359e+01 8.617441356182098389e-02 7.642413139343261719e+00 2.318576097488403320e+00 2.353680878877639771e-01
1.734000000000000000e+03 6.712437438964843750e+01 -1.309009361267089844e+01 8.962742984294891357e-02 7.632619380950927734e+00 2.316673994064331055e+00 -2.278756797313690186e-01
1.735000000000000000e+03 2.480739212036132812e+01 1.181619548797607422e+01 9.324684143066406250e-01 8.532572746276855469e+00 2.839512348175048828e+00 -4.559341371059417725e-01
1.736000000000000000e+03 2.925138854980468750e+01 9.208671569824218750e+00 9.232537746429443359e-01 8.472056388854980469e+00 2.818593025207519531e+00 1.001254562288522720e-02
1.737000000000000000e+03 2.545142745971679688e+01 -1.602288627624511719e+01 -1.097325012087821960e-01 8.266530990600585938e+00 2.447039365768432617e+00 2.282643914222717285e-01
1.738000000000000000e+03 2.028557968139648438e+01 -2.002149009704589844e+01 -2.684945166110992432e-01 6.206234455108642578e+00 1.781322002410888672e+00 1.124549388885498047e+00
1.739000000000000000e+03 2.227753067016601562e+01 -2.125506019592285156e+01 -4.963897466659545898e-01 6.722590923309326172e+00 1.867860317230224609e+00 7.278662919998168945e-01
1.740000000000000000e+03 6.881250762939453125e+01 3.497320175170898438e+01 -1.014148965477943420e-01 7.924022674560546875e+00 2.346782445907592773e+00 1.252186298370361328e-01
1.741000000000000000e+03 1.786056900024414062e+01 2.690052604675292969e+01 -5.392737984657287598e-01 5.135690212249755859e+00 1.378924965858459473e+00 -8.263924121856689453e-01
1.742000000000000000e+03 1.826676368713378906e+01 2.502203941345214844e+01 -4.795650243759155273e-01 5.453601837158203125e+00 1.492211103439331055e+00 -9.033905863761901855e-01
1.743000000000000000e+03 2.925791549682617188e+01 3.242463588714599609e+00 1.104451298713684082e+00 9.051449775695800781e+00 3.046770334243774414e+00 6.255465000867843628e-02
1.744000000000000000e+03 2.763788795471191406e+01 -2.755230665206909180e+00 1.794487833976745605e+00 9.487407684326171875e+00 3.384568691253662109e+00 5.351638197898864746e-01
1.745000000000000000e+03 3.096206665039062500e+01 -5.847265243530273438e+00 1.891333460807800293e+00 8.441764831542968750e+00 3.099929332733154297e+00 -5.685232207179069519e-02
1.746000000000000000e+03 2.840188598632812500e+01 -1.446041584014892578e+00 1.546560168266296387e+00 9.390622138977050781e+00 3.281154632568359375e+00 4.087884724140167236e-01
1.747000000000000000e+03 2.901886177062988281e+01 2.145411729812622070e+00 1.156820297241210938e+00 9.136776924133300781e+00 3.088079214096069336e+00 1.012681797146797180e-01
1.748000000000000000e+03 2.454844474792480469e+01 -1.448628711700439453e+01 6.443085521459579468e-02 8.585768699645996094e+00 2.595059871673583984e+00 3.705051839351654053e-01
1.749000000000000000e+03 3.038254928588867188e+01 -7.750912189483642578e+00 1.875313997268676758e+00 8.443860054016113281e+00 3.095752239227294922e+00 -2.976374626159667969e-01
1.750000000000000000e+03 3.167136383056640625e+01 -7.085913181304931641e+00 1.770118832588195801e+00 8.305327415466308594e+00 3.022634029388427734e+00 -2.439818680286407471e-01
1.751000000000000000e+03 2.990325546264648438e+01 -9.706311225891113281e+00 1.501099228858947754e+00 8.483223915100097656e+00 2.995296955108642578e+00 -5.001281499862670898e-01
1.752000000000000000e+03 3.172784614562988281e+01 6.183194160461425781e+00 1.042387127876281738e+00 8.453318595886230469e+00 2.848711729049682617e+00 1.785833537578582764e-01
1.753000000000000000e+03 3.193676948547363281e+01 9.890941619873046875e+00 8.189995884895324707e-01 8.200727462768554688e+00 2.705918073654174805e+00 2.231647819280624390e-01
1.754000000000000000e+03 2.806193542480468750e+01 2.025582313537597656e+00 1.080006599426269531e+00 9.394331932067871094e+00 3.142301559448242188e+00 5.179402232170104980e-02
1.755000000000000000e+03 6.960900878906250000e+01 3.831742763519287109e+00 1.001931279897689819e-01 7.543330192565917969e+00 2.293056964874267578e+00 7.439298927783966064e-02
1.756000000000000000e+03 6.810722351074218750e+01 3.608176231384277344e+00 1.264372617006301880e-01 7.554020881652832031e+00 2.304137468338012695e+00 7.905270159244537354e-02
1.757000000000000000e+03 6.850257873535156250e+01 -8.791571617126464844e+00 1.031918227672576904e-01 7.580795764923095703e+00 2.305196285247802734e+00 -1.519840508699417114e-01
1.758000000000000000e+03 6.711897277832031250e+01 -8.941372871398925781e+00 1.246358081698417664e-01 7.588935852050781250e+00 2.314071416854858398e+00 -1.669898182153701782e-01
1.759000000000000000e+03 6.698445129394531250e+01 -1.644189262390136719e+01 5.172971263527870178e-02 7.679182052612304688e+00 2.319273471832275391e+00 -2.604550123214721680e-01
1.760000000000000000e+03 6.876580047607421875e+01 -1.448111152648925781e+01 5.775738507509231567e-02 7.646586418151855469e+00 2.311303138732910156e+00 -2.216577678918838501e-01
1.761000000000000000e+03 6.327573013305664062e+01 2.346817970275878906e+01 -5.533555522561073303e-02 7.784890174865722656e+00 2.318866252899169922e+00 3.130449950695037842e-01
1.762000000000000000e+03 6.537360382080078125e+01 1.572121906280517578e+01 6.106023862957954407e-02 7.682733058929443359e+00 2.323137998580932617e+00 2.778065204620361328e-01
1.763000000000000000e+03 2.568281936645507812e+01 -1.106143474578857422e+01 1.027125000953674316e+00 9.307712554931640625e+00 3.100451231002807617e+00 -2.723136246204376221e-01
1.764000000000000000e+03 6.657149505615234375e+01 -3.582306385040283203e+00 1.583082973957061768e-01 7.558418750762939453e+00 2.315018177032470703e+00 -6.709910184144973755e-02
1.765000000000000000e+03 6.680981445312500000e+01 -6.383828163146972656e+00 1.459808349609375000e-01 7.569944381713867188e+00 2.314777612686157227e+00 -1.205302923917770386e-01
1.766000000000000000e+03 2.861326026916503906e+01 1.327494859695434570e+00 1.169615983963012695e+00 9.322581291198730469e+00 3.147659301757812500e+00 1.602822691202163696e-01
1.767000000000000000e+03 2.993753051757812500e+01 1.785786628723144531e+00 1.206472992897033691e+00 8.985898017883300781e+00 3.057711362838745117e+00 1.730688065290451050e-01
1.768000000000000000e+03 2.166407966613769531e+01 -1.971217346191406250e+01 -3.599928617477416992e-01 6.733767032623291016e+00 1.912132263183593750e+00 9.136586189270019531e-01
1.769000000000000000e+03 2.362416839599609375e+01 -2.005887603759765625e+01 -4.666487574577331543e-01 7.207702636718750000e+00 2.022316217422485352e+00 5.589626431465148926e-01
1.770000000000000000e+03 3.052377510070800781e+01 9.715720176696777344e+00 8.427801132202148438e-01 8.299632072448730469e+00 2.742723703384399414e+00 1.421360373497009277e-01
1.771000000000000000e+03 6.929888916015625000e+01 6.574366569519042969e+00 9.590716660022735596e-02 7.563723564147949219e+00 2.297889232635498047e+00 1.204258203506469727e-01
1.772000000000000000e+03 6.827535247802734375e+01 1.207793521881103516e+01 7.328676432371139526e-02 7.627454757690429688e+00 2.310222387313842773e+00 2.075232416391372681e-01
1.773000000000000000e+03 2.025834274291992188e+01 2.326133728027343750e+01 -4.492391049861907959e-01 6.249157428741455078e+00 1.739975452423095703e+00 -7.377122640609741211e-01
1.774000000000000000e+03 2.022224235534667969e+01 2.723811912536621094e+01 -6.650555133819580078e-01 5.783269405364990234e+00 1.535464167594909668e+00 -6.094431877136230469e-01
1.775000000000000000e+03 3.024126815795898438e+01 -3.090567588806152344e-01 1.441812038421630859e+00 8.959474563598632812e+00 3.120385885238647461e+00 2.838359475135803223e-01
1.776000000000000000e+03 2.750156593322753906e+01 1.315685462951660156e+01 6.734591722488403320e-01 8.171510696411132812e+00 2.653491020202636719e+00 -3.796991705894470215e-02
1.777000000000000000e+03 6.681584930419921875e+01 2.064542770385742188e+00 1.574560403823852539e-01 7.555600643157958984e+00 2.313916921615600586e+00 5.104159191250801086e-02
1.778000000000000000e+03 6.828352355957031250e+01 -5.564319491386413574e-01 1.295829117298126221e-01 7.543369770050048828e+00 2.301885843276977539e+00 -3.702611895278096199e-03
1.779000000000000000e+03 6.677603912353515625e+01 -1.821273422241210938e+01 3.222982585430145264e-02 7.705081939697265625e+00 2.321193456649780273e+00 -2.732823193073272705e-01
1.780000000000000000e+03 6.831373596191406250e+01 -1.831779670715332031e+01 2.630859985947608948e-02 7.701531887054443359e+00 2.318352222442626953e+00 -2.517345845699310303e-01
1.781000000000000000e+03 6.712642669677734375e+01 1.624941062927246094e+01 4.329412803053855896e-02 7.686754226684570312e+00 2.319014549255371094e+00 2.566516697406768799e-01
1.782000000000000000e+03 3.360968780517578125e+01 -4.908331394195556641e+00 1.631522536277770996e+00 8.162111282348632812e+00 2.938090324401855469e+00 -7.650580257177352905e-02
1.783000000000000000e+03 3.191533088684082031e+01 -4.120748043060302734e+00 1.762898564338684082e+00 8.403397560119628906e+00 3.049888610839843750e+00 6.922768056392669678e-02
1.784000000000000000e+03 6.660881805419921875e+01 -2.114874362945556641e+00 1.617691367864608765e-01 7.554502964019775391e+00 2.314881563186645508e+00 -3.643067553639411926e-02
1.785000000000000000e+03 2.899728202819824219e+01 -1.237270385026931763e-01 1.330631494522094727e+00 9.247266769409179688e+00 3.173369407653808594e+00 2.768832743167877197e-01
1.786000000000000000e+03 3.037470436096191406e+01 9.341756105422973633e-01 1.309786319732666016e+00 8.919306755065917969e+00 3.068727970123291016e+00 2.123163640499114990e-01
1.787000000000000000e+03 2.994191932678222656e+01 -1.951292800903320312e+01 -2.798627316951751709e-01 7.924088478088378906e+00 2.293267726898193359e+00 -2.653568685054779053e-01
1.788000000000000000e+03 3.129821205139160156e+01 -9.177217483520507812e+00 1.532520413398742676e+00 8.321483612060546875e+00 2.956201076507568359e+00 -4.642214477062225342e-01
1.789000000000000000e+03 6.714014434814453125e+01 -1.470412158966064453e+01 6.957285851240158081e-02 7.655331134796142578e+00 2.317471265792846680e+00 -2.445594370365142822e-01
1.790000000000000000e+03 6.379014587402343750e+01 -1.424357223510742188e+01 1.102130264043807983e-01 7.656779766082763672e+00 2.330097675323486328e+00 -2.842521071434020996e-01
1.791000000000000000e+03 2.883428001403808594e+01 -1.219613838195800781e+01 8.859877586364746094e-01 8.610602378845214844e+00 2.848976850509643555e+00 -5.103739500045776367e-01
1.792000000000000000e+03 3.002152061462402344e+01 -3.192398071289062500e+00 1.820977568626403809e+00 8.807682037353515625e+00 3.188597917556762695e+00 2.661704421043395996e-01
1.793000000000000000e+03 2.677483940124511719e+01 -1.745073318481445312e+01 -2.152458876371383667e-01 8.065396308898925781e+00 2.355045080184936523e+00 4.976898431777954102e-02
1.794000000000000000e+03 6.835437774658203125e+01 -6.115825653076171875e+00 1.178595945239067078e-01 7.560628890991210938e+00 2.303546428680419922e+00 -1.062949672341346741e-01
1.795000000000000000e+03 6.701148223876953125e+01 -7.660786628723144531e+00 1.360006928443908691e-01 7.578219413757324219e+00 2.314265966415405273e+00 -1.446085870265960693e-01
1.796000000000000000e+03 6.630995941162109375e+01 4.622774600982666016e+00 1.537032574415206909e-01 7.570061206817626953e+00 2.317129373550415039e+00 1.088679954409599304e-01
1.797000000000000000e+03 2.701176834106445312e+01 -9.782526969909667969e+00 1.681744575500488281e+00 9.138908386230468750e+00 3.246196031570434570e+00 -4.811331033706665039e-01
1.798000000000000000e+03 2.646029281616210938e+01 -1.257340908050537109e+01 6.628127098083496094e-01 8.910860061645507812e+00 2.872101783752441406e+00 -2.759875357151031494e-01
1.799000000000000000e+03 6.824958038330078125e+01 2.245619297027587891e+00 1.300005763769149780e-01 7.546896934509277344e+00 2.303069114685058594e+00 5.092776939272880554e-02
1.800000000000000000e+03 3.056972885131835938e+01 2.898506164550781250e+00 1.195398926734924316e+00 8.819867134094238281e+00 3.004579782485961914e+00 1.313117742538452148e-01
1.801000000000000000e+03 2.482190895080566406e+01 -2.106321334838867188e+01 -5.368601083755493164e-01 7.263341426849365234e+00 2.017944335937500000e+00 3.976659774780273438e-01
1.802000000000000000e+03 6.532782745361328125e+01 1.201396942138671875e+01 1.106739863753318787e-01 7.637602329254150391e+00 2.324482917785644531e+00 2.407783865928649902e-01
1.803000000000000000e+03 6.086054229736328125e+01 1.603166007995605469e+01 9.355032444000244141e-02 7.691754817962646484e+00 2.335591554641723633e+00 3.357474505901336670e-01
1.804000000000000000e+03 2.976606369018554688e+01 1.291159057617187500e+01 6.167106032371520996e-01 8.107307434082031250e+00 2.617205619812011719e+00 1.543891727924346924e-01
1.805000000000000000e+03 6.339852142333984375e+01 -1.598051357269287109e+01 8.635403960943222046e-02 7.678942203521728516e+00 2.329588890075683594e+00 -3.038211464881896973e-01
1.806000000000000000e+03 6.936030578613281250e+01 -1.583826160430908203e+01 4.140140116214752197e-02 7.664283275604248047e+00 2.311705350875854492e+00 -2.237131893634796143e-01
1.807000000000000000e+03 2.043578910827636719e+01 -2.220043945312500000e+01 -4.577582776546478271e-01 6.022836208343505859e+00 1.669523358345031738e+00 9.518537521362304688e-01
1.808000000000000000e+03 2.387061309814453125e+01 2.187534141540527344e+01 -3.730667829513549805e-01 7.019749164581298828e+00 1.994004607200622559e+00 -3.149455189704895020e-01
1.809000000000000000e+03 1.951881980895996094e+01 2.971305656433105469e+01 -7.105223536491394043e-01 5.431707859039306641e+00 1.416355729103088379e+00 -5.698817372322082520e-01
1.810000000000000000e+03 1.505279159545898438e+01 2.817356491088867188e+01 -3.772553503513336182e-01 4.082022666931152344e+00 1.111430287361145020e+00 -8.806319236755371094e-01
1.811000000000000000e+03 2.671175956726074219e+01 -1.479232788085937500e+01 1.719053834676742554e-01 8.527688980102539062e+00 2.609878540039062500e+00 -1.209739074110984802e-01
1.812000000000000000e+03 2.983718299865722656e+01 -1.101551151275634766e+01 1.213269352912902832e+00 8.497649192810058594e+00 2.913275480270385742e+00 -5.625850558280944824e-01
1.813000000000000000e+03 2.998069381713867188e+01 -1.711260914802551270e+00 1.639898777008056641e+00 8.930731773376464844e+00 3.171189069747924805e+00 3.247126042842864990e-01
1.814000000000000000e+03 3.156573677062988281e+01 1.121609568595886230e+00 1.345214605331420898e+00 8.699146270751953125e+00 3.013308286666870117e+00 2.201827168464660645e-01
1.815000000000000000e+03 3.162286567687988281e+01 -1.521264195442199707e+00 1.583304166793823242e+00 8.587037086486816406e+00 3.051102399826049805e+00 2.110145688056945801e-01
1.816000000000000000e+03 3.261954498291015625e+01 -8.301495552062988281e+00 1.544462680816650391e+00 8.170735359191894531e+00 2.914559364318847656e+00 -3.846666216850280762e-01
1.817000000000000000e+03 6.475460052490234375e+01 -3.785312414169311523e+00 1.993208825588226318e-01 7.565034866333007812e+00 2.329306602478027344e+00 -7.676218450069427490e-02
1.818000000000000000e+03 3.324904251098632812e+01 1.908477991819381714e-01 1.406315088272094727e+00 8.374917984008789062e+00 2.934369802474975586e+00 1.967800259590148926e-01
1.819000000000000000e+03 2.833568954467773438e+01 -1.858579635620117188e+01 -2.690396904945373535e-01 7.963496208190917969e+00 2.308336973190307617e+00 -1.290913820266723633e-01
1.820000000000000000e+03 6.909043884277343750e+01 8.000785827636718750e+00 9.205333143472671509e-02 7.578279018402099609e+00 2.301099777221679688e+00 1.455969214439392090e-01
1.821000000000000000e+03 3.289929199218750000e+01 1.553592205047607422e+00 1.328061580657958984e+00 8.437567710876464844e+00 2.929688692092895508e+00 2.294887453317642212e-01
1.822000000000000000e+03 6.664367675781250000e+01 -5.028155326843261719e+00 1.527234464883804321e-01 7.564249515533447266e+00 2.315091848373413086e+00 -9.508851915597915649e-02
1.823000000000000000e+03 2.777186965942382812e+01 -1.345041847229003906e+01 5.551683306694030762e-01 8.642519950866699219e+00 2.759306430816650391e+00 -3.659717440605163574e-01
1.824000000000000000e+03 1.579052734375000000e+01 2.634065628051757812e+01 -3.615790605545043945e-01 4.448611259460449219e+00 1.226109743118286133e+00 -9.930822849273681641e-01
1.825000000000000000e+03 6.548828125000000000e+01 1.964918255805969238e+00 1.849599033594131470e-01 7.560843467712402344e+00 2.323740959167480469e+00 5.225307494401931763e-02
1.826000000000000000e+03 3.180413055419921875e+01 1.175185775756835938e+01 6.903337240219116211e-01 8.098329544067382812e+00 2.636599063873291016e+00 2.597667872905731201e-01
1.827000000000000000e+03 3.143711853027343750e+01 1.374026393890380859e+01 5.003505349159240723e-01 8.007921218872070312e+00 2.552481412887573242e+00 2.817499339580535889e-01
1.828000000000000000e+03 3.165527153015136719e+01 -1.679935008287429810e-01 1.467851042747497559e+00 8.657930374145507812e+00 3.037734508514404297e+00 2.514086961746215820e-01
1.829000000000000000e+03 6.349839019775390625e+01 -7.736822605133056641e+00 1.989497095346450806e-01 7.590080738067626953e+00 2.336709022521972656e+00 -1.727740168571472168e-01
1.830000000000000000e+03 6.563504028320312500e+01 -8.002254486083984375e+00 1.619436293840408325e-01 7.584485054016113281e+00 2.323928594589233398e+00 -1.598013639450073242e-01
1.831000000000000000e+03 6.527144622802734375e+01 9.907605171203613281e+00 1.341216266155242920e-01 7.615715026855468750e+00 2.324950933456420898e+00 2.123180031776428223e-01
1.832000000000000000e+03 6.735193634033203125e+01 7.598472118377685547e+00 1.208896860480308533e-01 7.584514617919921875e+00 2.311621189117431641e+00 1.527593433856964111e-01
1.833000000000000000e+03 6.597727966308593750e+01 1.414328575134277344e+01 7.706101238727569580e-02 7.661362648010253906e+00 2.321527004241943359e+00 2.561749517917633057e-01
1.834000000000000000e+03 6.443891143798828125e+01 1.341414070129394531e+01 1.017125695943832397e-01 7.655762672424316406e+00 2.327242612838745117e+00 2.675675749778747559e-01
1.835000000000000000e+03 6.671858215332031250e+01 -6.705633997917175293e-01 1.598772704601287842e-01 7.552653312683105469e+00 2.313759088516235352e+00 -6.415720097720623016e-03
1.836000000000000000e+03 6.374998474121093750e+01 1.131491661071777344e+00 2.252154052257537842e-01 7.563977241516113281e+00 2.336757898330688477e+00 3.958331048488616943e-02
1.837000000000000000e+03 3.231311035156250000e+01 -5.317945957183837891e+00 1.746987700462341309e+00 8.296124458312988281e+00 3.012933492660522461e+00 -6.341001391410827637e-02
1.838000000000000000e+03 3.340961837768554688e+01 -3.805423021316528320e+00 1.622717976570129395e+00 8.233821868896484375e+00 2.956962108612060547e+00 1.608654670417308807e-02
1.839000000000000000e+03 3.291398620605468750e+01 -6.433663845062255859e+00 1.643723607063293457e+00 8.178027153015136719e+00 2.946525335311889648e+00 -2.052082717418670654e-01
1.840000000000000000e+03 3.367848205566406250e+01 -7.455012798309326172e+00 1.534914731979370117e+00 8.103193283081054688e+00 2.891432523727416992e+00 -3.228771686553955078e-01
1.841000000000000000e+03 3.412738800048828125e+01 2.760899305343627930e+00 1.243838906288146973e+00 8.275448799133300781e+00 2.855786323547363281e+00 2.327727377414703369e-01
1.842000000000000000e+03 6.481450653076171875e+01 -2.169641733169555664e+00 2.009394466876983643e-01 7.560750484466552734e+00 2.328506946563720703e+00 -4.098149016499519348e-02
1.843000000000000000e+03 6.304549407958984375e+01 -5.930212974548339844e+00 2.277713119983673096e-01 7.578686714172363281e+00 2.341937541961669922e+00 -1.402811557054519653e-01
1.844000000000000000e+03 3.167834281921386719e+01 -1.996574211120605469e+01 -2.590376138687133789e-01 7.906982421875000000e+00 2.294383525848388672e+00 -3.731291890144348145e-01
1.845000000000000000e+03 3.019177246093750000e+01 -1.329297161102294922e+01 6.863883733749389648e-01 8.378247261047363281e+00 2.719390630722045898e+00 -5.498800873756408691e-01
1.846000000000000000e+03 3.321109008789062500e+01 -1.271556019783020020e+00 1.516089439392089844e+00 8.332870483398437500e+00 2.954688072204589844e+00 1.605069190263748169e-01
1.847000000000000000e+03 3.167912483215332031e+01 -2.861723423004150391e+00 1.688431501388549805e+00 8.510955810546875000e+00 3.059816360473632812e+00 1.595465987920761108e-01
1.848000000000000000e+03 6.519433593750000000e+01 -6.856836795806884766e+00 1.725775897502899170e-01 7.579609394073486328e+00 2.325656175613403320e+00 -1.406544893980026245e-01
1.849000000000000000e+03 6.916949462890625000e+01 9.456471443176269531e+00 8.364954590797424316e-02 7.591601371765136719e+00 2.302575349807739258e+00 1.638619750738143921e-01
1.850000000000000000e+03 2.906596565246582031e+01 -1.457432842254638672e+01 3.798045217990875244e-01 8.398288726806640625e+00 2.633428096771240234e+00 -4.277470707893371582e-01
1.851000000000000000e+03 6.295475006103515625e+01 1.249901962280273438e+01 1.341260224580764771e-01 7.647686958312988281e+00 2.334543943405151367e+00 2.733286619186401367e-01
1.852000000000000000e+03 6.407483673095703125e+01 1.109093379974365234e+01 1.376843899488449097e-01 7.630207061767578125e+00 2.330367326736450195e+00 2.414809763431549072e-01
1.853000000000000000e+03 2.743940734863281250e+01 -2.035942268371582031e+01 -4.614870846271514893e-01 7.720870018005371094e+00 2.177814960479736328e+00 4.467675834894180298e-02
1.854000000000000000e+03 2.579962348937988281e+01 -1.920032691955566406e+01 -4.090658128261566162e-01 7.733095169067382812e+00 2.197208881378173828e+00 2.497834563255310059e-01
1.855000000000000000e+03 6.361068725585937500e+01 1.502810287475585938e+01 8.722787350416183472e-02 7.676644802093505859e+00 2.329161643981933594e+00 2.936981916427612305e-01
1.856000000000000000e+03 6.428578186035156250e+01 5.694929599761962891e+00 1.936196833848953247e-01 7.581609725952148438e+00 2.332568883895874023e+00 1.410163193941116333e-01
1.857000000000000000e+03 6.605957031250000000e+01 5.881741046905517578e+00 1.512927412986755371e-01 7.578520774841308594e+00 2.318943977355957031e+00 1.308591961860656738e-01
1.858000000000000000e+03 6.529676055908203125e+01 7.564653754234313965e-01 1.904137283563613892e-01 7.559314250946044922e+00 2.324918508529663086e+00 2.704468928277492523e-02
1.859000000000000000e+03 3.186399650573730469e+01 2.379101037979125977e+00 1.239784359931945801e+00 8.608255386352539062e+00 2.954411745071411133e+00 1.987661421298980713e-01
1.860000000000000000e+03 6.712931060791015625e+01 -1.162049388885498047e+01 1.025343313813209534e-01 7.615264892578125000e+00 2.315339803695678711e+00 -2.069066762924194336e-01
1.861000000000000000e+03 3.064210891723632812e+01 1.580661582946777344e+01 3.001452386379241943e-01 7.912007808685302734e+00 2.463645935058593750e+00 2.561887800693511963e-01
1.862000000000000000e+03 6.634368133544921875e+01 1.084523010253906250e+01 1.105031520128250122e-01 7.621750831604003906e+00 2.319676160812377930e+00 2.145796418190002441e-01
1.863000000000000000e+03 3.201969909667968750e+01 8.055618286132812500e+00 9.392327070236206055e-01 8.328819274902343750e+00 2.780415534973144531e+00 1.997897773981094360e-01
1.864000000000000000e+03 3.367509078979492188e+01 8.519992828369140625e+00 8.962590694427490234e-01 8.177424430847167969e+00 2.722105026245117188e+00 2.907478213310241699e-01
1.865000000000000000e+03 3.666053771972656250e+01 5.937610149383544922e+00 9.877068996429443359e-01 8.014897346496582031e+00 2.700781345367431641e+00 3.137372732162475586e-01
1.866000000000000000e+03 3.364409255981445312e+01 5.470916748046875000e+00 1.059864282608032227e+00 8.286370277404785156e+00 2.803870439529418945e+00 2.505895793437957764e-01
1.867000000000000000e+03 3.277441787719726562e+01 -1.322450447082519531e+01 7.222081422805786133e-01 8.149255752563476562e+00 2.661439418792724609e+00 -6.143881082534790039e-01
1.868000000000000000e+03 3.565532302856445312e+01 1.732167363166809082e+00 1.267795562744140625e+00 8.116837501525878906e+00 2.815390110015869141e+00 2.091623842716217041e-01
1.869000000000000000e+03 3.747416687011718750e+01 1.612410902976989746e+00 1.220237135887145996e+00 7.954300403594970703e+00 2.752361297607421875e+00 1.941952258348464966e-01
1.870000000000000000e+03 3.253505325317382812e+01 -1.059842872619628906e+01 1.191194295883178711e+00 8.188904762268066406e+00 2.814029693603515625e+00 -5.593631863594055176e-01
1.871000000000000000e+03 6.818150329589843750e+01 1.102549266815185547e+01 8.285795897245407104e-02 7.614662170410156250e+00 2.309256076812744141e+00 1.945913732051849365e-01
1.872000000000000000e+03 6.153136825561523438e+01 1.140841770172119141e+01 1.708523184061050415e-01 7.637239933013916016e+00 2.342427730560302734e+00 2.727389931678771973e-01
1.873000000000000000e+03 6.412833404541015625e+01 8.881074905395507812e+00 1.618708223104476929e-01 7.608194828033447266e+00 2.331019639968872070e+00 2.044223845005035400e-01
1.874000000000000000e+03 6.504289245605468750e+01 -6.411224007606506348e-01 1.988937258720397949e-01 7.558276176452636719e+00 2.327151060104370117e+00 -5.212801042944192886e-03
1.875000000000000000e+03 6.280749130249023438e+01 -3.959946632385253906e+00 2.498349249362945557e-01 7.566904067993164062e+00 2.345021724700927734e+00 -8.650563657283782959e-02
1.876000000000000000e+03 6.587738037109375000e+01 7.038277626037597656e+00 1.531791388988494873e-01 7.585873603820800781e+00 2.321715831756591797e+00 1.553748399019241333e-01
1.877000000000000000e+03 2.926552200317382812e+01 -2.159575271606445312e+01 -5.058158636093139648e-01 7.695418357849121094e+00 2.156880617141723633e+00 -1.153037101030349731e-01
1.878000000000000000e+03 2.923800659179687500e+01 -1.701068687438964844e+01 -2.204483933746814728e-02 8.151432037353515625e+00 2.438816308975219727e+00 -3.136149048805236816e-01
1.879000000000000000e+03 6.432003021240234375e+01 2.329998731613159180e+00 2.088801115751266479e-01 7.565889835357666016e+00 2.332431077957153320e+00 6.476918607950210571e-02
1.880000000000000000e+03 6.311970520019531250e+01 3.353549480438232422e+00 2.307000756263732910e-01 7.572340965270996094e+00 2.340912342071533203e+00 9.514996409416198730e-02
1.881000000000000000e+03 3.490183639526367188e+01 -4.933737754821777344e+00 1.505556344985961914e+00 8.038574218750000000e+00 2.863239049911499023e+00 -1.235474050045013428e-01
1.882000000000000000e+03 3.641061782836914062e+01 -2.162071466445922852e+00 1.379878401756286621e+00 7.969886779785156250e+00 2.804929494857788086e+00 2.299168705940246582e-02
1.883000000000000000e+03 6.452035522460937500e+01 -8.842679977416992188e+00 1.731128096580505371e-01 7.596312522888183594e+00 2.330827713012695312e+00 -1.881236881017684937e-01
1.884000000000000000e+03 6.670565795898437500e+01 1.799246406555175781e+01 2.611526846885681152e-02 7.710877418518066406e+00 2.321097850799560547e+00 2.713810205459594727e-01
1.885000000000000000e+03 3.490420913696289062e+01 7.194594860076904297e+00 9.583103060722351074e-01 8.123346328735351562e+00 2.724496841430664062e+00 3.046789169311523438e-01
1.886000000000000000e+03 3.907833480834960938e+01 9.973427772521972656e+00 6.834809780120849609e-01 7.842349529266357422e+00 2.557749271392822266e+00 4.284681081771850586e-01
1.887000000000000000e+03 2.729821968078613281e+01 1.908771896362304688e+01 -3.895006328821182251e-02 7.659820556640625000e+00 2.286261081695556641e+00 3.927007317543029785e-02
1.888000000000000000e+03 3.337078857421875000e+01 1.010429573059082031e+01 7.833486795425415039e-01 8.133109092712402344e+00 2.674937248229980469e+00 2.986769974231719971e-01
1.889000000000000000e+03 3.483647537231445312e+01 -2.401980876922607422e+00 1.482570171356201172e+00 8.124108314514160156e+00 2.882003545761108398e+00 5.870245024561882019e-02
1.890000000000000000e+03 3.327308273315429688e+01 -2.594214200973510742e+00 1.589890837669372559e+00 8.287135124206542969e+00 2.963107585906982422e+00 1.008617579936981201e-01
1.891000000000000000e+03 6.759000396728515625e+01 9.899410247802734375e+00 1.012219637632369995e-01 7.604708671569824219e+00 2.311779260635375977e+00 1.861539930105209351e-01
1.892000000000000000e+03 6.458995819091796875e+01 4.245731830596923828e+00 1.959007233381271362e-01 7.573503971099853516e+00 2.330821275711059570e+00 1.092867106199264526e-01
1.893000000000000000e+03 6.136571502685546875e+01 -6.087240219116210938e+00 2.632677853107452393e-01 7.578527927398681641e+00 2.352538824081420898e+00 -1.510906964540481567e-01
1.894000000000000000e+03 3.155119705200195312e+01 -1.453841018676757812e+01 4.892386198043823242e-01 8.219220161437988281e+00 2.612537622451782227e+00 -5.685765147209167480e-01
1.895000000000000000e+03 3.174213218688964844e+01 -1.817616271972656250e+01 -6.279782950878143311e-02 8.013391494750976562e+00 2.385178089141845703e+00 -4.496427774429321289e-01
1.896000000000000000e+03 3.048141670227050781e+01 -1.788833427429199219e+01 -8.440133929252624512e-02 8.064857482910156250e+00 2.394136667251586914e+00 -3.686134815216064453e-01
1.897000000000000000e+03 6.061993026733398438e+01 -7.632557868957519531e+00 2.619340121746063232e-01 7.589715957641601562e+00 2.355494976043701172e+00 -1.892964988946914673e-01
1.898000000000000000e+03 3.663550567626953125e+01 -8.220992088317871094e+00 1.239787340164184570e+00 7.883858203887939453e+00 2.737093687057495117e+00 -3.972662985324859619e-01
1.899000000000000000e+03 3.395416641235351562e+01 -9.427394866943359375e+00 1.301043510437011719e+00 8.058871269226074219e+00 2.807974338531494141e+00 -4.789146482944488525e-01
1.900000000000000000e+03 6.144947814941406250e+01 3.190593719482421875e-01 2.848404645919799805e-01 7.564839839935302734e+00 2.354904174804687500e+00 2.333772927522659302e-02
1.901000000000000000e+03 6.282807922363281250e+01 -2.062213420867919922e+00 2.522180974483489990e-01 7.563822269439697266e+00 2.344812154769897461e+00 -4.035813733935356140e-02
1.902000000000000000e+03 3.497554016113281250e+01 1.994110494852066040e-01 1.367229580879211426e+00 8.154021263122558594e+00 2.856375217437744141e+00 1.778342723846435547e-01
1.903000000000000000e+03 3.674545288085937500e+01 3.115470409393310547e+00 1.151886940002441406e+00 8.024018287658691406e+00 2.752771377563476562e+00 2.451233714818954468e-01
1.904000000000000000e+03 6.426584625244140625e+01 -1.285622787475585938e+01 1.305813938379287720e-01 7.637288093566894531e+00 2.330360889434814453e+00 -2.616571485996246338e-01
1.905000000000000000e+03 6.564792633056640625e+01 -1.305758666992187500e+01 1.070164591073989868e-01 7.637657165527343750e+00 2.323402166366577148e+00 -2.465935498476028442e-01
1.906000000000000000e+03 6.578401184082031250e+01 -9.078075408935546875e+00 1.432640552520751953e-01 7.596621513366699219e+00 2.321965694427490234e+00 -1.837592869997024536e-01
1.907000000000000000e+03 3.699305343627929688e+01 -9.779008865356445312e+00 1.087146639823913574e+00 7.874216079711914062e+00 2.688408851623535156e+00 -4.839693605899810791e-01
1.908000000000000000e+03 3.843781661987304688e+01 4.378360748291015625e+00 1.034390807151794434e+00 7.903668880462646484e+00 2.681417942047119141e+00 2.834474444389343262e-01
1.909000000000000000e+03 6.026057052612304688e+01 1.305998802185058594e+01 1.595066785812377930e-01 7.657632350921630859e+00 2.345141649246215820e+00 3.108769059181213379e-01
1.910000000000000000e+03 6.283213806152343750e+01 1.001370143890380859e+01 1.714968681335449219e-01 7.621369361877441406e+00 2.337859869003295898e+00 2.371614724397659302e-01
1.911000000000000000e+03 3.617581176757812500e+01 8.985642433166503906e+00 8.059861063957214355e-01 7.983877658843994141e+00 2.636959075927734375e+00 3.701988756656646729e-01
1.912000000000000000e+03 3.779044723510742188e+01 -1.738743036985397339e-01 1.252865195274353027e+00 7.908177375793457031e+00 2.748312711715698242e+00 1.096487790346145630e-01
1.913000000000000000e+03 6.283313369750976562e+01 1.683608055114746094e+01 6.025505438446998596e-02 7.700707912445068359e+00 2.328289031982421875e+00 3.176624774932861328e-01
1.914000000000000000e+03 6.171543121337890625e+01 -8.994434356689453125e+00 2.266265749931335449e-01 7.599094390869140625e+00 2.347716331481933594e+00 -2.121023088693618774e-01
1.915000000000000000e+03 3.954716491699218750e+01 2.300988197326660156e+00 1.089502334594726562e+00 7.822875022888183594e+00 2.673713207244873047e+00 2.030354142189025879e-01
1.916000000000000000e+03 6.078345489501953125e+01 -1.449542403221130371e+00 3.049483895301818848e-01 7.563859939575195312e+00 2.360642671585083008e+00 -2.567377313971519470e-02
1.917000000000000000e+03 6.110234832763671875e+01 -4.441049098968505859e+00 2.838881015777587891e-01 7.570993900299072266e+00 2.356464624404907227e+00 -1.039613485336303711e-01
1.918000000000000000e+03 6.320140838623046875e+01 -1.217210388183593750e+01 1.571214050054550171e-01 7.629700660705566406e+00 2.336046695709228516e+00 -2.600887417793273926e-01
1.919000000000000000e+03 6.002884292602539062e+01 -5.528888702392578125e+00 3.148569464683532715e-01 7.574250221252441406e+00 2.366732120513916016e+00 -1.418005675077438354e-01
1.920000000000000000e+03 5.915272140502929688e+01 -8.498724937438964844e+00 2.952774167060852051e-01 7.595456600189208984e+00 2.367220163345336914e+00 -2.248523682355880737e-01
1.921000000000000000e+03 6.216374969482421875e+01 1.916396498680114746e+00 2.643974721431732178e-01 7.567991733551025391e+00 2.349716663360595703e+00 6.352771818637847900e-02
1.922000000000000000e+03 5.872071075439453125e+01 1.178806114196777344e+01 2.075533419847488403e-01 7.644674777984619141e+00 2.355668544769287109e+00 3.091460764408111572e-01
1.923000000000000000e+03 3.471020126342773438e+01 -1.135920286178588867e+00 1.461082935333251953e+00 8.173803329467773438e+00 2.890465736389160156e+00 1.251861453056335449e-01
1.924000000000000000e+03 3.797026824951171875e+01 7.789522171020507812e+00 8.561967611312866211e-01 7.922640323638916016e+00 2.633651018142700195e+00 3.727266490459442139e-01
1.925000000000000000e+03 3.999808120727539062e+01 6.266565322875976562e+00 8.920847177505493164e-01 7.819127559661865234e+00 2.613363742828369141e+00 3.352666199207305908e-01
1.926000000000000000e+03 5.881200790405273438e+01 -4.418663382530212402e-01 3.638393282890319824e-01 7.562627315521240234e+00 2.377939939498901367e+00 4.855288192629814148e-03
1.927000000000000000e+03 5.991651916503906250e+01 -1.016588687896728516e+01 2.537126243114471436e-01 7.609762668609619141e+00 2.359042644500732422e+00 -2.609474360942840576e-01
1.928000000000000000e+03 6.212414932250976562e+01 -1.350483703613281250e+01 1.491732001304626465e-01 7.647362709045410156e+00 2.338960886001586914e+00 -2.941843867301940918e-01
1.929000000000000000e+03 6.042493057250976562e+01 2.949520111083984375e+00 3.022657036781311035e-01 7.570992469787597656e+00 2.361977577209472656e+00 9.354987740516662598e-02
1.930000000000000000e+03 3.987287521362304688e+01 9.790541231632232666e-02 1.143712639808654785e+00 7.786708354949951172e+00 2.679126262664794922e+00 9.537609666585922241e-02
1.931000000000000000e+03 5.849797439575195312e+01 4.120655536651611328e+00 3.474493920803070068e-01 7.576181411743164062e+00 2.377089262008666992e+00 1.372673809528350830e-01
1.932000000000000000e+03 3.649603652954101562e+01 -5.098461151123046875e+00 1.388864040374755859e+00 7.921868324279785156e+00 2.793219804763793945e+00 -1.698415130376815796e-01
1.933000000000000000e+03 3.820991134643554688e+01 -3.468056440353393555e+00 1.290407657623291016e+00 7.834186077117919922e+00 2.737378120422363281e+00 -7.241916656494140625e-02
1.934000000000000000e+03 5.956991958618164062e+01 1.272392034530639648e+00 3.342673778533935547e-01 7.566751003265380859e+00 2.370305538177490234e+00 5.218414589762687683e-02
1.935000000000000000e+03 5.802061462402343750e+01 -2.136196136474609375e+00 3.858071565628051758e-01 7.562293529510498047e+00 2.384430170059204102e+00 -4.325998574495315552e-02
1.936000000000000000e+03 6.314602279663085938e+01 7.662937164306640625e+00 1.951589584350585938e-01 7.598825931549072266e+00 2.338195562362670898e+00 1.899197995662689209e-01
1.937000000000000000e+03 3.485602188110351562e+01 -8.163262367248535156e+00 1.353663563728332520e+00 7.994488716125488281e+00 2.804445743560791016e+00 -3.934975266456604004e-01
1.938000000000000000e+03 5.648977279663085938e+01 -7.220027446746826172e+00 3.911799192428588867e-01 7.581185340881347656e+00 2.391709566116333008e+00 -2.124108076095581055e-01
1.939000000000000000e+03 5.550045776367187500e+01 -1.466799926757812500e+01 2.163932323455810547e-01 7.668346881866455078e+00 2.365422010421752930e+00 -3.972552120685577393e-01
1.940000000000000000e+03 4.005598831176757812e+01 -4.731473445892333984e+00 1.154701948165893555e+00 7.733587265014648438e+00 2.666486740112304688e+00 -1.737273782491683960e-01
1.941000000000000000e+03 4.229598617553710938e+01 4.998875617980957031e+00 8.783419728279113770e-01 7.732966899871826172e+00 2.583392620086669922e+00 2.885536551475524902e-01
1.942000000000000000e+03 3.529735946655273438e+01 -1.308358383178710938e+01 7.361449599266052246e-01 7.980698108673095703e+00 2.615052938461303711e+00 -6.286432743072509766e-01
1.943000000000000000e+03 3.653031158447265625e+01 -1.206391811370849609e+01 8.252875208854675293e-01 7.910207748413085938e+00 2.620648622512817383e+00 -5.996370911598205566e-01
1.944000000000000000e+03 6.147786712646484375e+01 4.566769123077392578e+00 2.645648419857025146e-01 7.578112602233886719e+00 2.352803230285644531e+00 1.322267204523086548e-01
1.945000000000000000e+03 3.810746765136718750e+01 -1.889115452766418457e+00 1.288496851921081543e+00 7.857899665832519531e+00 2.743918895721435547e+00 2.097414806485176086e-02
1.946000000000000000e+03 6.144387817382812500e+01 -1.551077461242675781e+01 1.197657510638237000e-01 7.672486782073974609e+00 2.337675809860229492e+00 -3.270657956600189209e-01
1.947000000000000000e+03 5.936205673217773438e+01 -1.535470676422119141e+01 1.430267989635467529e-01 7.674080848693847656e+00 2.345132350921630859e+00 -3.538644313812255859e-01
1.948000000000000000e+03 6.522736358642578125e+01 -1.626723670959472656e+01 6.756981462240219116e-02 7.679736137390136719e+00 2.324191808700561523e+00 -2.826555073261260986e-01
1.949000000000000000e+03 6.239340209960937500e+01 6.175665378570556641e+00 2.265148013830184937e-01 7.588314056396484375e+00 2.344448566436767578e+00 1.631095409393310547e-01
1.950000000000000000e+03 3.863418197631835938e+01 -7.999873161315917969e+00 1.133597373962402344e+00 7.788516998291015625e+00 2.676634311676025391e+00 -3.774244785308837891e-01
1.951000000000000000e+03 5.618254852294921875e+01 -1.288205862045288086e+00 4.474968910217285156e-01 7.560041904449462891e+00 2.402261734008789062e+00 -1.870688796043395996e-02
1.952000000000000000e+03 5.551607131958007812e+01 -3.057287454605102539e+00 4.652762413024902344e-01 7.561830997467041016e+00 2.408132314682006836e+00 -7.712748646736145020e-02
1.953000000000000000e+03 3.534027099609375000e+01 -1.067440128326416016e+01 1.059837818145751953e+00 7.969838619232177734e+00 2.708902835845947266e+00 -5.473327040672302246e-01
1.954000000000000000e+03 3.423134613037109375e+01 -1.424229335784912109e+01 5.616766214370727539e-01 8.041130065917968750e+00 2.580841779708862305e+00 -6.265088915824890137e-01
1.955000000000000000e+03 6.059147644042968750e+01 7.327845573425292969e+00 2.545917928218841553e-01 7.598884105682373047e+00 2.356042623519897461e+00 2.032656818628311157e-01
1.956000000000000000e+03 3.996839904785156250e+01 -1.803236603736877441e+00 1.194072723388671875e+00 7.768033027648925781e+00 2.688631772994995117e+00 -7.968712598085403442e-04
1.957000000000000000e+03 5.535635757446289062e+01 3.551219463348388672e+00 4.478409290313720703e-01 7.573472499847412109e+00 2.406394004821777344e+00 1.387969106435775757e-01
1.958000000000000000e+03 5.680696487426757812e+01 5.375194549560546875e-01 4.183123707771301270e-01 7.563257694244384766e+00 2.394470930099487305e+00 3.864395618438720703e-02
1.959000000000000000e+03 3.656333160400390625e+01 -1.439266777038574219e+01 5.199651122093200684e-01 7.916884899139404297e+00 2.531054973602294922e+00 -6.354661583900451660e-01
1.960000000000000000e+03 3.869488143920898438e+01 -9.353785514831542969e+00 1.018589377403259277e+00 7.791929721832275391e+00 2.643155574798583984e+00 -4.467225670814514160e-01
1.961000000000000000e+03 3.853450393676757812e+01 -6.501112461090087891e+00 1.210429787635803223e+00 7.785995006561279297e+00 2.698927402496337891e+00 -2.886818349361419678e-01
1.962000000000000000e+03 3.654793930053710938e+01 -6.641116619110107422e+00 1.355995059013366699e+00 7.907675266265869141e+00 2.779101133346557617e+00 -2.808976471424102783e-01
1.963000000000000000e+03 5.430954742431640625e+01 -6.627442836761474609e-01 5.107550024986267090e-01 7.559453010559082031e+00 2.421062469482421875e+00 -1.043416908942162991e-03
1.964000000000000000e+03 5.635807037353515625e+01 -5.507763385772705078e+00 4.281938672065734863e-01 7.566790103912353516e+00 2.398495197296142578e+00 -1.648825407028198242e-01
1.965000000000000000e+03 5.783979415893554688e+01 -6.216138839721679688e+00 3.604119122028350830e-01 7.575841426849365234e+00 2.380875825881958008e+00 -1.739044040441513062e-01
1.966000000000000000e+03 6.323273086547851562e+01 -1.796213912963867188e+01 5.704306811094284058e-02 7.704162597656250000e+00 2.328361749649047852e+00 -3.210319578647613525e-01
1.967000000000000000e+03 5.897482299804687500e+01 -1.306194686889648438e+01 2.099552452564239502e-01 7.641453266143798828e+00 2.355422496795654297e+00 -3.240579664707183838e-01
1.968000000000000000e+03 5.417919158935546875e+01 -1.628143692016601562e+01 1.823169738054275513e-01 7.689917564392089844e+00 2.361670494079589844e+00 -4.353958964347839355e-01
1.969000000000000000e+03 5.954533386230468750e+01 5.782924175262451172e+00 2.979567348957061768e-01 7.587730407714843750e+00 2.365706205368041992e+00 1.769305765628814697e-01
1.970000000000000000e+03 3.923495101928710938e+01 -1.049893951416015625e+01 9.036073684692382812e-01 7.779691696166992188e+00 2.604989767074584961e+00 -5.097964406013488770e-01
1.971000000000000000e+03 5.318907165527343750e+01 -3.664072036743164062e+00 5.480133891105651855e-01 7.561205863952636719e+00 2.432765722274780273e+00 -1.073002889752388000e-01
1.972000000000000000e+03 5.465473556518554688e+01 -4.787754535675048828e+00 4.877063333988189697e-01 7.563741207122802734e+00 2.415434360504150391e+00 -1.447530835866928101e-01
1.973000000000000000e+03 5.462210464477539062e+01 1.420060992240905762e+00 4.907685220241546631e-01 7.564183235168457031e+00 2.416485548019409180e+00 7.364156842231750488e-02
1.974000000000000000e+03 5.651641464233398438e+01 5.440967559814453125e+00 3.820146918296813965e-01 7.586102962493896484e+00 2.390435218811035156e+00 1.903055161237716675e-01
1.975000000000000000e+03 3.776862335205078125e+01 -1.340108394622802734e+01 6.421265006065368652e-01 7.860041141510009766e+00 2.550650119781494141e+00 -6.220260858535766602e-01
1.976000000000000000e+03 3.787657546997070312e+01 -1.117391204833984375e+01 8.659396171569824219e-01 7.843703746795654297e+00 2.612893104553222656e+00 -5.594184398651123047e-01
1.977000000000000000e+03 5.469708633422851562e+01 -7.909475803375244141e+00 4.264652729034423828e-01 7.587075710296630859e+00 2.404062271118164062e+00 -2.502861618995666504e-01
1.978000000000000000e+03 5.248165512084960938e+01 -2.281820297241210938e+00 5.736492872238159180e-01 7.560630798339843750e+00 2.440284013748168945e+00 -5.798150226473808289e-02
1.979000000000000000e+03 5.335955429077148438e+01 -6.242490768432617188e+00 5.105685591697692871e-01 7.571336746215820312e+00 2.424571514129638672e+00 -2.056463360786437988e-01
1.980000000000000000e+03 4.018885421752929688e+01 -9.603617668151855469e+00 9.219605922698974609e-01 7.743813514709472656e+00 2.599732160568237305e+00 -4.570297598838806152e-01
1.981000000000000000e+03 3.539419937133789062e+01 -1.528896427154541016e+01 4.212874174118041992e-01 7.955100059509277344e+00 2.512916326522827148e+00 -6.290008425712585449e-01
1.982000000000000000e+03 5.316426849365234375e+01 -8.768157005310058594e+00 4.540768265724182129e-01 7.594792842864990234e+00 2.414660930633544922e+00 -2.872066199779510498e-01
1.983000000000000000e+03 3.889410781860351562e+01 -1.241364097595214844e+01 7.171312570571899414e-01 7.818727016448974609e+00 2.560757398605346680e+00 -5.963267683982849121e-01
1.984000000000000000e+03 6.136682891845703125e+01 -2.006182861328125000e+01 2.129564248025417328e-02 7.735790252685546875e+00 2.327125787734985352e+00 -3.529087603092193604e-01
1.985000000000000000e+03 6.507686614990234375e+01 -2.003051185607910156e+01 1.429552026093006134e-02 7.732110977172851562e+00 2.323921918869018555e+00 -3.036971688270568848e-01
1.986000000000000000e+03 2.923217201232910156e+01 1.765753746032714844e+01 1.381646096706390381e-01 7.818827152252197266e+00 2.387097597122192383e+00 1.863556057214736938e-01
1.987000000000000000e+03 2.545766067504882812e+01 2.047440147399902344e+01 -2.109038680791854858e-01 7.409127235412597656e+00 2.159466981887817383e+00 -1.182549446821212769e-01
1.988000000000000000e+03 4.421649169921875000e+01 2.011384487152099609e+00 8.934638500213623047e-01 7.652203559875488281e+00 2.563700199127197266e+00 1.538945585489273071e-01
1.989000000000000000e+03 2.327916908264160156e+01 -2.656298637390136719e+01 -7.785259485244750977e-01 6.327980995178222656e+00 1.664836525917053223e+00 4.682099521160125732e-01
1.990000000000000000e+03 6.281129837036132812e+01 2.570736694335937500e+01 -9.559433907270431519e-02 7.812810420989990234e+00 2.315164804458618164e+00 3.002106845378875732e-01
1.991000000000000000e+03 6.112434387207031250e+01 2.313040542602539062e+01 -6.145887449383735657e-02 7.781496047973632812e+00 2.316011190414428711e+00 3.440461754798889160e-01
1.992000000000000000e+03 3.130234527587890625e+01 -1.683150100708007812e+01 1.132099628448486328e-01 8.124996185302734375e+00 2.471461772918701172e+00 -4.812074303627014160e-01
1.993000000000000000e+03 3.779024124145507812e+01 -1.589867115020751953e+01 3.413787782192230225e-01 7.870011329650878906e+00 2.463417053222656250e+00 -6.342678666114807129e-01
1.994000000000000000e+03 3.029258155822753906e+01 -1.569490242004394531e+01 2.356921583414077759e-01 8.232039451599121094e+00 2.540319442749023438e+00 -4.604311287403106689e-01
1.995000000000000000e+03 1.700604629516601562e+01 -2.828598213195800781e+01 -5.006958842277526855e-01 4.508424282073974609e+00 1.202318549156188965e+00 7.541760802268981934e-01
1.996000000000000000e+03 5.708326339721679688e+01 -1.364195442199707031e+01 2.298916727304458618e-01 7.650597095489501953e+00 2.364146709442138672e+00 -3.564617633819580078e-01
1.997000000000000000e+03 5.744861221313476562e+01 -2.037957000732421875e+01 1.207452639937400818e-02 7.746095657348632812e+00 2.327451229095458984e+00 -4.123972058296203613e-01
1.998000000000000000e+03 6.131370544433593750e+01 -1.781697463989257812e+01 6.684751808643341064e-02 7.707337856292724609e+00 2.332255601882934570e+00 -3.494496047496795654e-01
1.999000000000000000e+03 2.631683731079101562e+01 -2.221962356567382812e+01 -5.953082442283630371e-01 7.388928890228271484e+00 2.038086175918579102e+00 2.191459685564041138e-01
2.000000000000000000e+03 4.399673843383789062e+01 -7.158344745635986328e+00 8.598753213882446289e-01 7.642488479614257812e+00 2.550709009170532227e+00 -3.090387284755706787e-01
2.001000000000000000e+03 4.137298202514648438e+01 -3.864321470260620117e+00 1.101227283477783203e+00 7.697625637054443359e+00 2.639655828475952148e+00 -1.283834427595138550e-01
2.002000000000000000e+03 5.736964416503906250e+01 -9.074390411376953125e+00 3.279909491539001465e-01 7.598827362060546875e+00 2.378045558929443359e+00 -2.586646080017089844e-01
2.003000000000000000e+03 5.631082534790039062e+01 -1.179684638977050781e+01 2.837898731231689453e-01 7.628742694854736328e+00 2.373759746551513672e+00 -3.296617567539215088e-01
2.004000000000000000e+03 3.520248794555664062e+01 1.181926536560058594e+01 6.188476085662841797e-01 7.973627090454101562e+00 2.577742338180541992e+00 4.012421071529388428e-01
2.005000000000000000e+03 1.154098892211914062e+01 3.517873764038085938e+01 -3.674671351909637451e-01 3.026083707809448242e+00 7.975849509239196777e-01 -4.486152827739715576e-01
2.006000000000000000e+03 6.608394622802734375e+01 -2.630978393554687500e+01 -6.961568444967269897e-02 7.820245265960693359e+00 2.325188875198364258e+00 -2.668052613735198975e-01
2.007000000000000000e+03 6.567262268066406250e+01 -3.735837173461914062e+01 -1.596702337265014648e-01 7.920080184936523438e+00 2.328122854232788086e+00 -1.046268194913864136e-01
2.008000000000000000e+03 1.471423244476318359e+01 -2.978923606872558594e+01 -4.102394580841064453e-01 3.812577009201049805e+00 1.020701289176940918e+00 7.257402539253234863e-01
2.009000000000000000e+03 3.121298027038574219e+01 1.967404556274414062e+01 -8.283045142889022827e-02 7.720601081848144531e+00 2.291331291198730469e+00 3.004708886146545410e-01
2.010000000000000000e+03 2.561947631835937500e+01 1.363920402526855469e+01 7.002622485160827637e-01 8.209589004516601562e+00 2.672955513000488281e+00 -2.610333263874053955e-01
2.011000000000000000e+03 4.071404647827148438e+01 -8.081776618957519531e+00 9.916456937789916992e-01 7.715561389923095703e+00 2.612162113189697266e+00 -3.711952567100524902e-01
2.012000000000000000e+03 1.244709014892578125e+01 -3.076305580139160156e+01 -3.179582357406616211e-01 3.146568536758422852e+00 8.485831022262573242e-01 6.650101542472839355e-01
2.013000000000000000e+03 6.463433837890625000e+01 2.772302436828613281e+01 -1.012178733944892883e-01 7.838574409484863281e+00 2.321207046508789062e+00 2.556495666503906250e-01
2.014000000000000000e+03 7.221834564208984375e+01 -3.525599670410156250e+01 -5.538157746195793152e-02 7.957161903381347656e+00 2.370534181594848633e+00 -9.251233935356140137e-02
2.015000000000000000e+03 6.189292907714843750e+01 1.414069271087646484e+01 1.183068156242370605e-01 7.667988777160644531e+00 2.335888624191284180e+00 3.050491213798522949e-01
2.016000000000000000e+03 6.732433319091796875e+01 -2.372433090209960938e+01 -3.136513754725456238e-02 7.784838199615478516e+00 2.326041936874389648e+00 -2.667630612850189209e-01
2.017000000000000000e+03 6.523927307128906250e+01 -2.202680587768554688e+01 -1.666124910116195679e-02 7.761312961578369141e+00 2.323395490646362305e+00 -3.023444712162017822e-01
2.018000000000000000e+03 4.328649139404296875e+01 7.376304149627685547e+00 7.251220941543579102e-01 7.717511653900146484e+00 2.532790184020996094e+00 3.645415306091308594e-01
2.019000000000000000e+03 5.898109054565429688e+01 1.497394752502441406e+01 1.312947720289230347e-01 7.681331157684326172e+00 2.343787670135498047e+00 3.471915721893310547e-01
2.020000000000000000e+03 5.727402877807617188e+01 1.032530784606933594e+01 2.666468024253845215e-01 7.630529880523681641e+00 2.369153022766113281e+00 2.987017929553985596e-01
2.021000000000000000e+03 3.336147689819335938e+01 1.429506301879882812e+01 4.365574121475219727e-01 7.945868492126464844e+00 2.514727830886840820e+00 3.721824586391448975e-01
2.022000000000000000e+03 3.286916351318359375e+01 1.711428642272949219e+01 1.578661203384399414e-01 7.838446617126464844e+00 2.398893833160400391e+00 3.789180815219879150e-01
2.023000000000000000e+03 3.345104217529296875e+01 1.199475955963134766e+01 6.344808340072631836e-01 8.043902397155761719e+00 2.603515148162841797e+00 3.441610932350158691e-01
2.024000000000000000e+03 2.394001197814941406e+01 1.926382064819335938e+01 -4.683022573590278625e-02 7.406856060028076172e+00 2.208007812500000000e+00 -2.973912358283996582e-01
2.025000000000000000e+03 8.357992172241210938e+00 -4.068281173706054688e+01 -2.244860082864761353e-01 2.184220075607299805e+00 5.879202485084533691e-01 7.142163068056106567e-02
2.026000000000000000e+03 2.492486572265625000e+01 -2.423248291015625000e+01 -7.058371901512145996e-01 6.902052879333496094e+00 1.858864665031433105e+00 3.664124608039855957e-01
2.027000000000000000e+03 5.890515136718750000e+01 8.727957725524902344e+00 2.659575045108795166e-01 7.612853527069091797e+00 2.363643407821655273e+00 2.497237771749496460e-01
2.028000000000000000e+03 5.769411468505859375e+01 7.157893657684326172e+00 3.230919241905212402e-01 7.599113464355468750e+00 2.376661777496337891e+00 2.241497188806533813e-01
2.029000000000000000e+03 5.328151702880859375e+01 5.155094623565673828e+00 4.846806526184082031e-01 7.586120605468750000e+00 2.421240329742431641e+00 2.009883970022201538e-01
2.030000000000000000e+03 2.283963584899902344e+01 2.477093124389648438e+01 -6.078194975852966309e-01 6.609776020050048828e+00 1.800586938858032227e+00 -4.073207080364227295e-01
2.031000000000000000e+03 1.589621925354003906e+01 3.129012298583984375e+01 -5.310389995574951172e-01 4.284854412078857422e+00 1.126144528388977051e+00 -6.197998523712158203e-01
2.032000000000000000e+03 6.619038391113281250e+01 3.060205078125000000e+01 -1.050364971160888672e-01 7.869422435760498047e+00 2.329315662384033203e+00 2.055038660764694214e-01
2.033000000000000000e+03 6.624566650390625000e+01 3.407083511352539062e+01 -1.277828961610794067e-01 7.897530078887939453e+00 2.330924034118652344e+00 1.598336994647979736e-01
2.034000000000000000e+03 1.404390811920166016e+01 3.349363708496093750e+01 -4.623351097106933594e-01 3.642976284027099609e+00 9.541923403739929199e-01 -5.322057604789733887e-01
2.035000000000000000e+03 1.701996803283691406e+01 -3.503582382202148438e+01 -6.411262154579162598e-01 4.412145137786865234e+00 1.131305694580078125e+00 3.767358660697937012e-01
2.036000000000000000e+03 1.338124084472656250e+01 -3.676391601562500000e+01 -4.687369167804718018e-01 3.493531703948974609e+00 9.074384570121765137e-01 3.228694200515747070e-01
2.037000000000000000e+03 2.375123214721679688e+01 -3.763069534301757812e+01 -9.493753910064697266e-01 5.867189884185791016e+00 1.475344300270080566e+00 1.143699586391448975e-01
2.038000000000000000e+03 1.942784881591796875e+01 3.689621353149414062e+01 -7.953544855117797852e-01 5.030554771423339844e+00 1.270560145378112793e+00 -2.497244179248809814e-01
2.039000000000000000e+03 2.381702423095703125e+01 3.732534790039062500e+01 -9.625511765480041504e-01 5.982809543609619141e+00 1.506077408790588379e+00 -1.079589948058128357e-01
2.040000000000000000e+03 4.198995971679687500e+01 -3.668729019165039062e+01 -8.006089925765991211e-01 7.742443084716796875e+00 2.082550287246704102e+00 -1.761206090450286865e-01
2.041000000000000000e+03 3.715080261230468750e+01 -3.733589553833007812e+01 -9.476263523101806641e-01 7.510589122772216797e+00 1.968888878822326660e+00 -1.137844771146774292e-01
2.042000000000000000e+03 3.267148971557617188e+01 3.728083419799804688e+01 -9.887853264808654785e-01 7.177406787872314453e+00 1.856586575508117676e+00 6.917798519134521484e-02
2.043000000000000000e+03 3.706468200683593750e+01 3.674971389770507812e+01 -8.940382599830627441e-01 7.499615669250488281e+00 1.981673240661621094e+00 1.314584314823150635e-01
2.044000000000000000e+03 4.705917739868164062e+01 -3.659776687622070312e+01 -6.509400010108947754e-01 7.850468158721923828e+00 2.159858465194702148e+00 -1.899611204862594604e-01
2.045000000000000000e+03 4.143488311767578125e+01 3.550764465332031250e+01 -7.422176003456115723e-01 7.709401607513427734e+00 2.090155124664306641e+00 2.016983032226562500e-01
2.046000000000000000e+03 6.127997207641601562e+01 -3.751873779296875000e+01 -2.601293325424194336e-01 7.914743900299072266e+00 2.296384334564208984e+00 -1.208846718072891235e-01
2.047000000000000000e+03 5.672210693359375000e+01 -3.743051910400390625e+01 -3.738600611686706543e-01 7.909592151641845703e+00 2.260719537734985352e+00 -1.397398263216018677e-01
2.048000000000000000e+03 5.330622482299804688e+01 3.595576095581054688e+01 -4.333949685096740723e-01 7.874473571777343750e+00 2.232323646545410156e+00 1.757659912109375000e-01
2.049000000000000000e+03 5.779139328002929688e+01 3.594242477416992188e+01 -3.133877217769622803e-01 7.888360977172851562e+00 2.272491931915283203e+00 1.572611778974533081e-01
2.050000000000000000e+03 6.163619995117187500e+01 3.460380554199218750e+01 -2.216075211763381958e-01 7.888179302215576172e+00 2.299971580505371094e+00 1.671490222215652466e-01
2.051000000000000000e+03 6.429689025878906250e+01 3.690745925903320312e+01 -1.850569993257522583e-01 7.905274868011474609e+00 2.316065311431884766e+00 1.127850115299224854e-01
2.052000000000000000e+03 7.145087432861328125e+01 -4.083661270141601562e+01 -6.701567769050598145e-02 7.977591514587402344e+00 2.373172760009765625e+00 -2.377965673804283142e-02
2.053000000000000000e+03 6.972739410400390625e+01 -3.743635177612304688e+01 -9.276916086673736572e-02 7.944878101348876953e+00 2.355632781982421875e+00 -8.652282506227493286e-02
2.054000000000000000e+03 3.316936111450195312e+01 -1.791639709472656250e+01 1.707755029201507568e-02 7.985937595367431641e+00 2.400904417037963867e+00 -5.183309316635131836e-01
2.055000000000000000e+03 3.258791732788085938e+01 -1.610317039489746094e+01 2.632750570774078369e-01 8.085440635681152344e+00 2.504614830017089844e+00 -5.672566294670104980e-01
2.056000000000000000e+03 5.441612243652343750e+01 -1.266827011108398438e+01 2.997142672538757324e-01 7.643541336059570312e+00 2.382976770401000977e+00 -3.807893991470336914e-01
2.057000000000000000e+03 5.555712890625000000e+01 -9.852295875549316406e+00 3.550118207931518555e-01 7.606728553771972656e+00 2.388522148132324219e+00 -2.959081232547760010e-01
2.058000000000000000e+03 5.591542434692382812e+01 8.711287498474121094e+00 3.325433135032653809e-01 7.614983558654785156e+00 2.384258031845092773e+00 2.784816324710845947e-01
2.059000000000000000e+03 3.780657196044921875e+01 1.354047489166259766e+01 4.456140995025634766e-01 7.840117931365966797e+00 2.485719680786132812e+00 4.776328802108764648e-01
2.060000000000000000e+03 4.438929748535156250e+01 9.609297752380371094e+00 5.798683762550354004e-01 7.707964420318603516e+00 2.486349821090698242e+00 4.179617166519165039e-01
2.061000000000000000e+03 4.228020477294921875e+01 1.096927452087402344e+01 5.462943315505981445e-01 7.755110740661621094e+00 2.490421533584594727e+00 4.560860991477966309e-01
2.062000000000000000e+03 6.164390945434570312e+01 -2.464847564697265625e+01 -8.408284932374954224e-02 7.800891399383544922e+00 2.315042495727539062e+00 -3.393359780311584473e-01
2.063000000000000000e+03 4.744724655151367188e+01 -9.650229454040527344e+00 6.174650788307189941e-01 7.625424861907958984e+00 2.472867012023925781e+00 -3.842262029647827148e-01
2.064000000000000000e+03 4.258189773559570312e+01 -5.392193317413330078e+00 9.984562397003173828e-01 7.657678127288818359e+00 2.596840381622314453e+00 -2.157108485698699951e-01
2.065000000000000000e+03 6.216479873657226562e+01 1.881480407714843750e+01 2.810289524495601654e-02 7.726259708404541016e+00 2.326308727264404297e+00 3.308588266372680664e-01
2.066000000000000000e+03 6.340373992919921875e+01 -2.220086860656738281e+01 -2.319412492215633392e-02 7.764018058776855469e+00 2.322247266769409180e+00 -3.273873627185821533e-01
2.067000000000000000e+03 3.541767120361328125e+01 -1.947602462768554688e+01 -1.003251001238822937e-01 7.888250827789306641e+00 2.336377859115600586e+00 -5.542371273040771484e-01
2.068000000000000000e+03 5.169339752197265625e+01 -4.707913398742675781e+00 5.943909287452697754e-01 7.566394329071044922e+00 2.448235511779785156e+00 -1.497665941715240479e-01
2.069000000000000000e+03 5.196786880493164062e+01 -7.511857032775878906e+00 5.255107283592224121e-01 7.584395408630371094e+00 2.432971954345703125e+00 -2.616677582263946533e-01
2.070000000000000000e+03 2.873145484924316406e+01 2.128819274902343750e+01 -2.825023531913757324e-01 7.524971961975097656e+00 2.172740936279296875e+00 1.228474900126457214e-01
2.071000000000000000e+03 6.166503524780273438e+01 2.090686225891113281e+01 -6.660069804638624191e-03 7.749690055847167969e+00 2.322909116744995117e+00 3.422636687755584717e-01
2.072000000000000000e+03 5.947917938232421875e+01 2.053190040588378906e+01 -1.051545026712119579e-03 7.748378276824951172e+00 2.324198007583618164e+00 3.692038655281066895e-01
2.073000000000000000e+03 4.194045639038085938e+01 -2.106077432632446289e+00 1.075252890586853027e+00 7.685288429260253906e+00 2.628162384033203125e+00 -3.624294325709342957e-02
2.074000000000000000e+03 4.410903549194335938e+01 -1.843490898609161377e-01 9.562498927116394043e-01 7.640982151031494141e+00 2.579169511795043945e+00 5.482230708003044128e-02
2.075000000000000000e+03 6.051730728149414062e+01 2.558314514160156250e+01 -1.176492795348167419e-01 7.809439659118652344e+00 2.307537078857421875e+00 3.265658318996429443e-01
2.076000000000000000e+03 5.728239822387695312e+01 -1.551643466949462891e+01 1.664790660142898560e-01 7.676561832427978516e+00 2.352912425994873047e+00 -3.898763060569763184e-01
2.077000000000000000e+03 3.731585311889648438e+01 -1.872284889221191406e+01 2.836939319968223572e-02 7.873259544372558594e+00 2.370488643646240234e+00 -6.120088100433349609e-01
2.078000000000000000e+03 3.907409286499023438e+01 -1.759232711791992188e+01 1.662044227123260498e-01 7.843566894531250000e+00 2.402931451797485352e+00 -6.346828937530517578e-01
2.079000000000000000e+03 5.523625564575195312e+01 -1.815732002258300781e+01 1.014085263013839722e-01 7.715813636779785156e+00 2.345166683197021484e+00 -4.325607120990753174e-01
2.080000000000000000e+03 2.883396720886230469e+01 -2.825842666625976562e+01 -8.552244901657104492e-01 7.107448101043701172e+00 1.875666975975036621e+00 2.864724025130271912e-02
2.081000000000000000e+03 6.268670272827148438e+01 -3.028895187377929688e+01 -1.582734584808349609e-01 7.861394882202148438e+00 2.310936450958251953e+00 -2.586071193218231201e-01
2.082000000000000000e+03 6.415758514404296875e+01 -2.688200950622558594e+01 -9.492887556552886963e-02 7.825609683990478516e+00 2.319204330444335938e+00 -2.840276360511779785e-01
2.083000000000000000e+03 5.390382003784179688e+01 1.776020050048828125e+01 8.568874746561050415e-02 7.724364280700683594e+00 2.343015909194946289e+00 4.302121698856353760e-01
2.084000000000000000e+03 4.899040603637695312e+01 4.302199840545654297e+00 6.446121335029602051e-01 7.602445602416992188e+00 2.474117279052734375e+00 2.085647135972976685e-01
2.085000000000000000e+03 5.460955810546875000e+01 6.972775936126708984e+00 4.049851000308990479e-01 7.599860191345214844e+00 2.401453495025634766e+00 2.453978508710861206e-01
2.086000000000000000e+03 5.923157119750976562e+01 -6.960965156555175781e+00 3.191587924957275391e-01 7.581183910369873047e+00 2.370102882385253906e+00 -1.816092133522033691e-01
2.087000000000000000e+03 2.096475410461425781e+01 -2.866987991333007812e+01 -7.507324814796447754e-01 5.715088844299316406e+00 1.489306807518005371e+00 5.549575090408325195e-01
2.088000000000000000e+03 1.924152755737304688e+01 -2.635570144653320312e+01 -5.890386104583740234e-01 5.356093406677246094e+00 1.430116415023803711e+00 7.784463167190551758e-01
2.089000000000000000e+03 4.008723449707031250e+01 1.234479045867919922e+01 4.953598380088806152e-01 7.797898292541503906e+00 2.487977504730224609e+00 4.838287830352783203e-01
2.090000000000000000e+03 2.238409996032714844e+01 3.017659568786621094e+01 -8.103936314582824707e-01 6.046355247497558594e+00 1.570788502693176270e+00 -3.576703667640686035e-01
2.091000000000000000e+03 6.414145660400390625e+01 -3.368089294433593750e+01 -1.696404963731765747e-01 7.897263050079345703e+00 2.318286895751953125e+00 -1.842054128646850586e-01
2.092000000000000000e+03 2.486942481994628906e+01 2.359465026855468750e+01 -5.222237110137939453e-01 7.011630058288574219e+00 1.946821928024291992e+00 -2.015842348337173462e-01
2.093000000000000000e+03 4.064142990112304688e+01 -6.283795356750488281e+00 1.077169775962829590e+00 7.715656757354736328e+00 2.637847900390625000e+00 -2.748097777366638184e-01
2.094000000000000000e+03 4.842540740966796875e+01 2.939959764480590820e+00 7.048917412757873535e-01 7.594078063964843750e+00 2.489690780639648438e+00 1.616452634334564209e-01
2.095000000000000000e+03 4.461014938354492188e+01 4.195242404937744141e+00 8.174998760223388672e-01 7.659506797790527344e+00 2.543102025985717773e+00 2.383223772048950195e-01
2.096000000000000000e+03 5.942398452758789062e+01 -2.013364791870117188e+01 1.735429279506206512e-02 7.741722106933593750e+00 2.327723026275634766e+00 -3.816970586776733398e-01
2.097000000000000000e+03 1.958825874328613281e+01 -3.262139511108398438e+01 -7.586420774459838867e-01 5.170408725738525391e+00 1.323529958724975586e+00 4.583846032619476318e-01
2.098000000000000000e+03 2.628720283508300781e+01 2.715323257446289062e+01 -7.293731570243835449e-01 6.897529602050781250e+00 1.850446939468383789e+00 -1.020892858505249023e-01
2.099000000000000000e+03 2.304281234741210938e+01 2.724879837036132812e+01 -7.287509441375732422e-01 6.416241168975830078e+00 1.706247091293334961e+00 -3.620277941226959229e-01
2.100000000000000000e+03 1.610115051269531250e+01 3.549930953979492188e+01 -6.344550251960754395e-01 4.264680862426757812e+00 1.089067697525024414e+00 -3.668151497840881348e-01
2.101000000000000000e+03 5.236046218872070312e+01 1.218947601318359375e+01 3.027102351188659668e-01 7.662795066833496094e+00 2.389651536941528320e+00 3.902191817760467529e-01
2.102000000000000000e+03 3.144690704345703125e+01 -2.227550697326660156e+01 -4.886861741542816162e-01 7.718080043792724609e+00 2.168818235397338867e+00 -2.760647237300872803e-01
2.103000000000000000e+03 6.324938583374023438e+01 -2.004938888549804688e+01 1.744330674409866333e-02 7.733992099761962891e+00 2.325430631637573242e+00 -3.306974768638610840e-01
2.104000000000000000e+03 4.329518127441406250e+01 -1.221435832977294922e+01 6.101444363594055176e-01 7.708536148071289062e+00 2.495604276657104492e+00 -5.273377299308776855e-01
2.105000000000000000e+03 4.456031417846679688e+01 -1.028870391845703125e+01 6.885016560554504395e-01 7.658017635345458984e+00 2.503955841064453125e+00 -4.388771355152130127e-01
2.106000000000000000e+03 4.850778579711914062e+01 -2.863079547882080078e+00 7.352061867713928223e-01 7.575865745544433594e+00 2.493321657180786133e+00 -8.521281182765960693e-02
2.107000000000000000e+03 5.166752243041992188e+01 3.765907049179077148e+00 5.633910298347473145e-01 7.580510616302490234e+00 2.443170547485351562e+00 1.664088666439056396e-01
2.108000000000000000e+03 4.538403320312500000e+01 6.300129890441894531e+00 7.152155041694641113e-01 7.664497852325439453e+00 2.513914108276367188e+00 3.145464658737182617e-01
2.109000000000000000e+03 5.163718032836914062e+01 -9.084425926208496094e+00 5.036258697509765625e-01 7.597459316253662109e+00 2.430325508117675781e+00 -3.117451667785644531e-01
2.110000000000000000e+03 5.144544601440429688e+01 7.018814563751220703e+00 5.002582073211669922e-01 7.609010696411132812e+00 2.432780742645263672e+00 2.792989909648895264e-01
2.111000000000000000e+03 5.234552383422851562e+01 -1.311127471923828125e+01 3.249451816082000732e-01 7.651159286499023438e+00 2.392831325531005859e+00 -4.135467112064361572e-01
2.112000000000000000e+03 5.543452453613281250e+01 -2.068016624450683594e+01 6.946507841348648071e-03 7.754600524902343750e+00 2.328464031219482422e+00 -4.393724203109741211e-01
2.113000000000000000e+03 3.857876205444335938e+01 1.624312019348144531e+01 2.101604342460632324e-01 7.796469211578369141e+00 2.401988983154296875e+00 5.103977322578430176e-01
2.114000000000000000e+03 3.567813491821289062e+01 1.734469223022460938e+01 1.276297420263290405e-01 7.809220314025878906e+00 2.381054878234863281e+00 4.610467255115509033e-01
2.115000000000000000e+03 4.397432327270507812e+01 -1.940715980529785156e+01 4.982509464025497437e-02 7.795794486999511719e+00 2.353685855865478516e+00 -5.955742597579956055e-01
2.116000000000000000e+03 4.063396072387695312e+01 -1.609454536437988281e+01 3.071513772010803223e-01 7.800513744354248047e+00 2.432299613952636719e+00 -6.242274641990661621e-01
2.117000000000000000e+03 5.986058807373046875e+01 1.825693702697753906e+01 4.646485298871994019e-02 7.721573829650878906e+00 2.330411434173583984e+00 3.602988123893737793e-01
2.118000000000000000e+03 5.584265518188476562e+01 1.957610893249511719e+01 1.775409840047359467e-02 7.743060588836669922e+00 2.328244447708129883e+00 4.101995527744293213e-01
2.119000000000000000e+03 3.631895828247070312e+01 -1.684930610656738281e+01 2.339926660060882568e-01 7.918918132781982422e+00 2.445873260498046875e+00 -6.340342164039611816e-01
2.120000000000000000e+03 3.474101638793945312e+01 -1.750061988830566406e+01 1.116121411323547363e-01 7.955720424652099609e+00 2.420199871063232422e+00 -5.936518311500549316e-01
2.121000000000000000e+03 5.240985870361328125e+01 -4.891098737716674805e-01 5.792763233184814453e-01 7.560238361358642578e+00 2.441854476928710938e+00 4.831614904105663300e-03
2.122000000000000000e+03 4.841067886352539062e+01 -6.989372968673706055e-01 7.424972057342529297e-01 7.578333854675292969e+00 2.496249437332153320e+00 1.376109477132558823e-02
2.123000000000000000e+03 2.582335472106933594e+01 -2.791471481323242188e+01 -8.458927273750305176e-01 6.687356472015380859e+00 1.752439141273498535e+00 2.636176645755767822e-01
2.124000000000000000e+03 6.152379226684570312e+01 -2.231447792053222656e+01 -2.675465121865272522e-02 7.765647411346435547e+00 2.321667909622192383e+00 -3.553130328655242920e-01
2.125000000000000000e+03 5.908827209472656250e+01 2.266171646118164062e+01 -5.937700346112251282e-02 7.775286674499511719e+00 2.314772844314575195e+00 3.682171702384948730e-01
2.126000000000000000e+03 5.381127166748046875e+01 -1.056210613250732422e+01 3.890807628631591797e-01 7.612130165100097656e+00 2.400363206863403320e+00 -3.322333395481109619e-01
2.127000000000000000e+03 3.833483505249023438e+01 -4.987997055053710938e+00 1.255088448524475098e+00 7.812808513641357422e+00 2.720369100570678711e+00 -1.812136322259902954e-01
2.128000000000000000e+03 5.014523315429687500e+01 5.560489654541015625e+00 5.726948380470275879e-01 7.603938102722167969e+00 2.452989816665649414e+00 2.470851540565490723e-01
2.129000000000000000e+03 4.665511703491210938e+01 3.483099222183227539e+00 7.569260597229003906e-01 7.619931697845458984e+00 2.513057231903076172e+00 1.934363991022109985e-01
2.130000000000000000e+03 2.516630935668945312e+01 -3.106782150268554688e+01 -9.025597572326660156e-01 6.376513481140136719e+00 1.642186045646667480e+00 2.661481797695159912e-01
2.131000000000000000e+03 4.530171585083007812e+01 -1.360142517089843750e+01 4.507846236228942871e-01 7.698583126068115234e+00 2.444810390472412109e+00 -5.317721366882324219e-01
2.132000000000000000e+03 2.205100822448730469e+01 -3.120982360839843750e+01 -8.317946195602416992e-01 5.801185607910156250e+00 1.490817308425903320e+00 4.092122018337249756e-01
2.133000000000000000e+03 4.346478652954101562e+01 1.326803016662597656e+01 3.861675262451171875e-01 7.740990161895751953e+00 2.438147306442260742e+00 4.904707372188568115e-01
2.134000000000000000e+03 4.811333084106445312e+01 -4.988647460937500000e+00 7.349113225936889648e-01 7.581408500671386719e+00 2.494895935058593750e+00 -1.754498779773712158e-01
2.135000000000000000e+03 5.091305160522460938e+01 1.041893291473388672e+01 3.969343900680541992e-01 7.648905277252197266e+00 2.413751840591430664e+00 3.723354637622833252e-01
2.136000000000000000e+03 5.276882171630859375e+01 8.676536560058593750e+00 4.119749367237091064e-01 7.621134757995605469e+00 2.409932851791381836e+00 3.098207116127014160e-01
2.137000000000000000e+03 6.311714553833007812e+01 3.039378547668457031e+01 -1.504080742597579956e-01 7.860960960388183594e+00 2.313165903091430664e+00 2.332249432802200317e-01
2.138000000000000000e+03 6.023155593872070312e+01 2.836480712890625000e+01 -1.661581844091415405e-01 7.836756229400634766e+00 2.301179409027099609e+00 2.954592406749725342e-01
2.139000000000000000e+03 2.960191345214843750e+01 2.386204719543457031e+01 -5.032076835632324219e-01 7.399549961090087891e+00 2.068902730941772461e+00 1.585855185985565186e-01
2.140000000000000000e+03 2.573245239257812500e+01 3.037681198120117188e+01 -8.570897579193115234e-01 6.597783088684082031e+00 1.722208023071289062e+00 -1.477815359830856323e-01
2.141000000000000000e+03 6.190706253051757812e+01 -2.726711273193359375e+01 -1.256467252969741821e-01 7.831837654113769531e+00 2.311857223510742188e+00 -3.056375980377197266e-01
2.142000000000000000e+03 3.253479385375976562e+01 -4.091915512084960938e+01 -1.043458580970764160e+00 7.103985309600830078e+00 1.818158030509948730e+00 -9.708494879305362701e-03
2.143000000000000000e+03 4.642801666259765625e+01 8.314436912536621094e+00 5.895426869392395020e-01 7.667283535003662109e+00 2.477047920227050781e+00 3.685615658760070801e-01
2.144000000000000000e+03 5.803837203979492188e+01 2.517561912536621094e+01 -1.287389546632766724e-01 7.804054260253906250e+00 2.302594423294067383e+00 3.590865433216094971e-01
2.145000000000000000e+03 4.891936492919921875e+01 -1.065764522552490234e+01 5.283750295639038086e-01 7.629695892333984375e+00 2.447421312332153320e+00 -3.961284458637237549e-01
2.146000000000000000e+03 4.578254318237304688e+01 -8.488739013671875000e+00 7.209861874580383301e-01 7.628995418548583984e+00 2.504994392395019531e+00 -3.570856153964996338e-01
2.147000000000000000e+03 4.405066680908203125e+01 -2.362177133560180664e+00 9.655874967575073242e-01 7.633502006530761719e+00 2.579726934432983398e+00 -6.407194584608078003e-02
2.148000000000000000e+03 5.568231201171875000e+01 1.564895343780517578e+01 1.420483887195587158e-01 7.695299625396728516e+00 2.351204395294189453e+00 3.952439129352569580e-01
2.149000000000000000e+03 4.731782913208007812e+01 -1.675057029724121094e+01 2.309709042310714722e-01 7.729290485382080078e+00 2.388078451156616211e+00 -5.464528203010559082e-01
2.150000000000000000e+03 4.754078292846679688e+01 -1.452963542938232422e+01 3.528068363666534424e-01 7.696866512298583984e+00 2.414901971817016602e+00 -5.125601887702941895e-01
2.151000000000000000e+03 5.017427444458007812e+01 -6.229451179504394531e+00 6.250755190849304199e-01 7.578404426574707031e+00 2.461044073104858398e+00 -2.197245210409164429e-01
2.152000000000000000e+03 5.069993209838867188e+01 -2.767739057540893555e+00 6.469371914863586426e-01 7.564402103424072266e+00 2.463401794433593750e+00 -8.089863508939743042e-02
2.153000000000000000e+03 4.878857040405273438e+01 -7.988358020782470703e+00 6.297082901000976562e-01 7.598848342895507812e+00 2.468566894531250000e+00 -3.054966330528259277e-01
2.154000000000000000e+03 3.882264709472656250e+01 -2.956061744689941406e+01 -6.925881505012512207e-01 7.710538387298583984e+00 2.105385065078735352e+00 -3.497679829597473145e-01
2.155000000000000000e+03 5.748843765258789062e+01 2.142950820922851562e+01 -2.652579732239246368e-02 7.760294437408447266e+00 2.320130586624145508e+00 3.869799375534057617e-01
2.156000000000000000e+03 5.155230712890625000e+01 -1.775297546386718750e+01 1.356405764818191528e-01 7.722395420074462891e+00 2.357410907745361328e+00 -4.902058243751525879e-01
2.157000000000000000e+03 4.626965713500976562e+01 -4.784820079803466797e-01 8.441734313964843750e-01 7.598511219024658203e+00 2.532805442810058594e+00 2.602700144052505493e-02
2.158000000000000000e+03 4.051848983764648438e+01 -1.958355331420898438e+01 -1.309926807880401611e-02 7.820611476898193359e+00 2.342253684997558594e+00 -6.097705364227294922e-01
2.159000000000000000e+03 4.225060272216796875e+01 -1.771524620056152344e+01 1.687401980161666870e-01 7.793169498443603516e+00 2.388572931289672852e+00 -6.165255904197692871e-01
2.160000000000000000e+03 5.039516067504882812e+01 -1.107943058013916016e+01 4.524249434471130371e-01 7.627686977386474609e+00 2.424033641815185547e+00 -3.916398584842681885e-01
2.161000000000000000e+03 5.021276092529296875e+01 -1.292397212982177734e+01 3.828011155128479004e-01 7.655416488647460938e+00 2.411465406417846680e+00 -4.433004558086395264e-01
2.162000000000000000e+03 3.844416427612304688e+01 2.366308212280273438e+01 -3.312828242778778076e-01 7.713522911071777344e+00 2.214672088623046875e+00 4.549484848976135254e-01
2.163000000000000000e+03 4.114693069458007812e+01 1.479663276672363281e+01 3.116593062877655029e-01 7.781445026397705078e+00 2.427931308746337891e+00 5.114753246307373047e-01
2.164000000000000000e+03 5.046524810791015625e+01 -6.587189435958862305e-01 6.599072217941284180e-01 7.566724300384521484e+00 2.467989444732666016e+00 1.080186758190393448e-02
2.165000000000000000e+03 3.603293609619140625e+01 -2.166655540466308594e+01 -2.967876493930816650e-01 7.824230670928955078e+00 2.258232831954956055e+00 -5.115285515785217285e-01
2.166000000000000000e+03 4.624039077758789062e+01 -2.502607822418212891e+00 8.447839617729187012e-01 7.596350669860839844e+00 2.532340526580810547e+00 -7.172440737485885620e-02
2.167000000000000000e+03 5.942969131469726562e+01 -2.445889663696289062e+01 -9.399618208408355713e-02 7.800038337707519531e+00 2.311812639236450195e+00 -3.722803592681884766e-01
2.168000000000000000e+03 4.733561706542968750e+01 5.293667316436767578e+00 6.762936711311340332e-01 7.625571727752685547e+00 2.490559577941894531e+00 2.588982880115509033e-01
2.169000000000000000e+03 3.837530136108398438e+01 -2.091286849975585938e+01 -1.635900735855102539e-01 7.837096691131591797e+00 2.302052021026611328e+00 -5.770283341407775879e-01
2.170000000000000000e+03 5.635132980346679688e+01 -3.397130203247070312e+01 -3.415788710117340088e-01 7.895320415496826172e+00 2.266122579574584961e+00 -2.302301377058029175e-01
2.171000000000000000e+03 5.613803100585937500e+01 -3.048524475097656250e+01 -2.837463319301605225e-01 7.869603633880615234e+00 2.275757074356079102e+00 -3.111718595027923584e-01
2.172000000000000000e+03 3.646458816528320312e+01 2.084252929687500000e+01 -1.493557542562484741e-01 7.747256278991699219e+00 2.279370069503784180e+00 4.548424184322357178e-01
2.173000000000000000e+03 5.398156738281250000e+01 3.203572845458984375e+01 -3.487845063209533691e-01 7.856413841247558594e+00 2.252288818359375000e+00 2.761305868625640869e-01
2.174000000000000000e+03 5.453993606567382812e+01 2.854456329345703125e+01 -2.535986006259918213e-01 7.833989620208740234e+00 2.274117231369018555e+00 3.465250730514526367e-01
2.175000000000000000e+03 2.679257774353027344e+01 -2.533310317993164062e+01 -7.751778960227966309e-01 7.064268589019775391e+00 1.886727213859558105e+00 1.968939900398254395e-01
2.176000000000000000e+03 3.148748588562011719e+01 -2.507500076293945312e+01 -6.716685891151428223e-01 7.545301914215087891e+00 2.062089920043945312e+00 -1.970107555389404297e-01
2.177000000000000000e+03 5.606361007690429688e+01 -2.694285964965820312e+01 -1.939007490873336792e-01 7.833397388458251953e+00 2.291848897933959961e+00 -3.813478648662567139e-01
2.178000000000000000e+03 3.239606475830078125e+01 -3.442482376098632812e+01 -9.863183498382568359e-01 7.199262142181396484e+00 1.863883137702941895e+00 -7.368819415569305420e-02
2.179000000000000000e+03 3.213132476806640625e+01 -3.118470573425292969e+01 -9.088566303253173828e-01 7.279317378997802734e+00 1.911138296127319336e+00 -1.092734485864639282e-01
2.180000000000000000e+03 2.972205734252929688e+01 2.692341423034667969e+01 -6.746757626533508301e-01 7.272269725799560547e+00 1.979278206825256348e+00 1.191628873348236084e-01
2.181000000000000000e+03 2.934189224243164062e+01 3.033643913269042969e+01 -8.421031236648559570e-01 7.060072422027587891e+00 1.865390896797180176e+00 5.839554965496063232e-02
2.182000000000000000e+03 4.821966552734375000e+01 -1.241781139373779297e+01 4.626753926277160645e-01 7.656877517700195312e+00 2.435865879058837891e+00 -4.603078663349151611e-01
2.183000000000000000e+03 4.430778121948242188e+01 -4.346149444580078125e+00 9.288514256477355957e-01 7.628278732299804688e+00 2.567139148712158203e+00 -1.568466275930404663e-01
2.184000000000000000e+03 4.836579132080078125e+01 7.007930755615234375e+00 5.903458595275878906e-01 7.629938125610351562e+00 2.466085195541381836e+00 3.107133805751800537e-01
2.185000000000000000e+03 4.242342758178710938e+01 -2.153477478027343750e+01 -1.349616050720214844e-01 7.813225269317626953e+00 2.303478956222534180e+00 -5.771197080612182617e-01
2.186000000000000000e+03 5.380022430419921875e+01 2.182427787780761719e+01 -5.974310636520385742e-02 7.772078990936279297e+00 2.313700675964355469e+00 4.304710030555725098e-01
2.187000000000000000e+03 4.899285507202148438e+01 1.213872051239013672e+01 3.617052137851715088e-01 7.680048942565917969e+00 2.412526369094848633e+00 4.286265075206756592e-01
2.188000000000000000e+03 5.394276428222656250e+01 1.395582866668701172e+01 2.168692201375961304e-01 7.678980350494384766e+00 2.368754863739013672e+00 3.975121080875396729e-01
2.189000000000000000e+03 5.291237640380859375e+01 -2.666988182067871094e+01 -2.298039942979812622e-01 7.833375453948974609e+00 2.281071424484252930e+00 -4.187914729118347168e-01
2.190000000000000000e+03 4.546406936645507812e+01 -1.745960044860839844e+01 1.927438527345657349e-01 7.753736495971679688e+00 2.383944034576416016e+00 -5.732070803642272949e-01
2.191000000000000000e+03 4.985913848876953125e+01 -1.499709796905517578e+01 2.896947562694549561e-01 7.686440467834472656e+00 2.392840623855590820e+00 -4.810454249382019043e-01
2.192000000000000000e+03 3.182618904113769531e+01 -2.808125305175781250e+01 -8.099550008773803711e-01 7.385494232177734375e+00 1.972661852836608887e+00 -1.490481346845626831e-01
2.193000000000000000e+03 3.655550765991210938e+01 3.023570251464843750e+01 -7.130624651908874512e-01 7.560171604156494141e+00 2.054132699966430664e+00 2.904345095157623291e-01
2.194000000000000000e+03 4.068748092651367188e+01 -3.286025238037109375e+01 -7.555270195007324219e-01 7.729888439178466797e+00 2.092308521270751953e+00 -2.728509604930877686e-01
2.195000000000000000e+03 5.330356979370117188e+01 -2.067552757263183594e+01 8.864694274961948395e-03 7.758959770202636719e+00 2.330347299575805664e+00 -4.687032103538513184e-01
2.196000000000000000e+03 4.143547439575195312e+01 -2.786898231506347656e+01 -5.518406033515930176e-01 7.786627769470214844e+00 2.170436143875122070e+00 -4.277705848217010498e-01
2.197000000000000000e+03 2.879625320434570312e+01 3.389289474487304688e+01 -9.597465991973876953e-01 6.852481842041015625e+00 1.767820477485656738e+00 4.157999996095895767e-03
2.198000000000000000e+03 5.316518783569335938e+01 -2.350950241088867188e+01 -1.125198900699615479e-01 7.799962520599365234e+00 2.306232929229736328e+00 -4.540335536003112793e-01
2.199000000000000000e+03 4.627729415893554688e+01 1.775527763366699219e+01 1.054978147149085999e-01 7.748611927032470703e+00 2.356232881546020508e+00 5.089753866195678711e-01
2.200000000000000000e+03 4.388045501708984375e+01 1.967509078979492188e+01 -5.019361153244972229e-03 7.762142658233642578e+00 2.327136993408203125e+00 5.194426774978637695e-01
2.201000000000000000e+03 3.476265335083007812e+01 -2.755134582519531250e+01 -7.172350883483886719e-01 7.608299255371093750e+00 2.067319393157958984e+00 -2.970149219036102295e-01
2.202000000000000000e+03 3.560517501831054688e+01 -3.062030601501464844e+01 -8.173002004623413086e-01 7.547819137573242188e+00 2.019155502319335938e+00 -2.408583164215087891e-01
2.203000000000000000e+03 3.336589050292968750e+01 2.641750717163085938e+01 -5.894120335578918457e-01 7.505742073059082031e+00 2.074898958206176758e+00 2.900502085685729980e-01
2.204000000000000000e+03 4.635482025146484375e+01 -1.150624656677246094e+01 5.639683008193969727e-01 7.657423496246337891e+00 2.466417551040649414e+00 -4.584219753742218018e-01
2.205000000000000000e+03 4.696286010742187500e+01 1.382763576507568359e+01 3.100611567497253418e-01 7.711116313934326172e+00 2.406353235244750977e+00 4.733899235725402832e-01
2.206000000000000000e+03 4.958256149291992188e+01 8.695792198181152344e+00 4.910715818405151367e-01 7.638558864593505859e+00 2.438889265060424805e+00 3.468560278415679932e-01
2.207000000000000000e+03 5.012184906005859375e+01 1.791814231872558594e+01 9.070587903261184692e-02 7.736896514892578125e+00 2.348280668258666992e+00 4.741512238979339600e-01
2.208000000000000000e+03 4.561564254760742188e+01 2.209094238281250000e+01 -1.318569183349609375e-01 7.776482582092285156e+00 2.293387651443481445e+00 5.005866885185241699e-01
2.209000000000000000e+03 5.564044189453125000e+01 1.208208656311035156e+01 2.499908655881881714e-01 7.652376651763916016e+00 2.370710372924804688e+00 3.494937419891357422e-01
2.210000000000000000e+03 5.060293960571289062e+01 -2.298660087585449219e+01 -1.137893646955490112e-01 7.800691604614257812e+00 2.306070566177368164e+00 -4.897532463073730469e-01
2.211000000000000000e+03 4.766041564941406250e+01 -3.265761184692382812e+01 -5.514777898788452148e-01 7.854858875274658203e+00 2.191014289855957031e+00 -3.043194115161895752e-01
2.212000000000000000e+03 4.893193435668945312e+01 -2.912669563293457031e+01 -3.956117928028106689e-01 7.851685047149658203e+00 2.236822128295898438e+00 -4.002752006053924561e-01
2.213000000000000000e+03 4.947323989868164062e+01 -1.722817611694335938e+01 1.861058026552200317e-01 7.723773956298828125e+00 2.372963905334472656e+00 -5.150801539421081543e-01
2.214000000000000000e+03 4.503799057006835938e+01 3.282532119750976562e+01 -5.904464125633239746e-01 7.787559986114501953e+00 2.159133911132812500e+00 2.765745222568511963e-01
2.215000000000000000e+03 4.758154296875000000e+01 2.942917633056640625e+01 -4.112388789653778076e-01 7.815552234649658203e+00 2.221293926239013672e+00 3.652061522006988525e-01
2.216000000000000000e+03 5.192281723022460938e+01 1.989030456542968750e+01 5.453805904835462570e-03 7.754525661468505859e+00 2.327993869781494141e+00 4.545664191246032715e-01
2.217000000000000000e+03 4.716592788696289062e+01 -2.475311088562011719e+01 -2.446379512548446655e-01 7.824032783508300781e+00 2.273818492889404297e+00 -4.976154565811157227e-01
2.218000000000000000e+03 4.114726257324218750e+01 -2.379327583312988281e+01 -3.104803562164306641e-01 7.814872264862060547e+00 2.251317501068115234e+00 -5.348362922668457031e-01
2.219000000000000000e+03 6.426813507080078125e+01 1.936288452148437500e+01 1.537690591067075729e-02 7.730576038360595703e+00 2.323786020278930664e+00 3.073880076408386230e-01
2.220000000000000000e+03 4.594750213623046875e+01 -2.090678405761718750e+01 -4.803092777729034424e-02 7.793632030487060547e+00 2.323680400848388672e+00 -5.617660284042358398e-01
2.221000000000000000e+03 4.305902862548828125e+01 2.426881790161132812e+01 -3.063854575157165527e-01 7.765569686889648438e+00 2.237755298614501953e+00 4.736386537551879883e-01
2.222000000000000000e+03 4.028986358642578125e+01 2.629546737670898438e+01 -4.554183781147003174e-01 7.712478160858154297e+00 2.177118062973022461e+00 4.165670275688171387e-01
2.223000000000000000e+03 4.698089981079101562e+01 -1.880163002014160156e+01 8.584446460008621216e-02 7.763338565826416016e+00 2.354754924774169922e+00 -5.578335523605346680e-01
2.224000000000000000e+03 3.297880935668945312e+01 3.017250823974609375e+01 -7.795273661613464355e-01 7.369205951690673828e+00 1.976903557777404785e+00 1.998029798269271851e-01
2.225000000000000000e+03 5.574731445312500000e+01 2.382769012451171875e+01 -1.113442480564117432e-01 7.791677951812744141e+00 2.304100036621093750e+00 3.956246674060821533e-01
2.226000000000000000e+03 4.981536483764648438e+01 2.206959533691406250e+01 -9.097576886415481567e-02 7.777847766876220703e+00 2.306061506271362305e+00 4.676377773284912109e-01
2.227000000000000000e+03 4.796400451660156250e+01 1.996135520935058594e+01 -7.981561124324798584e-03 7.761280059814453125e+00 2.325989484786987305e+00 4.926068782806396484e-01
2.228000000000000000e+03 4.818941116333007812e+01 -2.210148429870605469e+01 -9.674882143735885620e-02 7.797539710998535156e+00 2.310237169265747070e+00 -5.241202712059020996e-01
2.229000000000000000e+03 5.211400222778320312e+01 1.591175746917724609e+01 1.640855669975280762e-01 7.707717418670654297e+00 2.361540794372558594e+00 4.399231672286987305e-01
2.230000000000000000e+03 4.510469818115234375e+01 2.697270202636718750e+01 -3.790590167045593262e-01 7.787735939025878906e+00 2.222603082656860352e+00 4.140030443668365479e-01
2.231000000000000000e+03 4.756351089477539062e+01 2.442800331115722656e+01 -2.293052375316619873e-01 7.797128200531005859e+00 2.270346879959106445e+00 4.571892023086547852e-01
2.232000000000000000e+03 4.330414199829101562e+01 -2.563898086547851562e+01 -3.723131716251373291e-01 7.818494796752929688e+00 2.233854532241821289e+00 -4.972853362560272217e-01
2.233000000000000000e+03 3.414103317260742188e+01 -2.472622299194335938e+01 -5.692949891090393066e-01 7.690843105316162109e+00 2.136464357376098633e+00 -3.540706038475036621e-01
2.234000000000000000e+03 1.803920173645019531e+01 -7.140047073364257812e+00 1.365394473075866699e+00 6.630048751831054688e-01 6.085197925567626953e-01 1.331484794616699219e+00
2.235000000000000000e+03 1.869724464416503906e+01 -3.259356260299682617e+00 -9.672256419435143471e-05 4.740519046783447266e+00 1.422126650810241699e+00 -8.146135210990905762e-01
2.236000000000000000e+03 1.867905044555664062e+01 -3.856993436813354492e+00 4.265719652175903320e-01 3.231220722198486328e+00 1.097337722778320312e+00 -1.349891424179077148e+00
2.237000000000000000e+03 4.022084474563598633e-01 -2.192898035049438477e+00 -1.012186869047582150e-03 -7.780560554238036275e-05 -3.269977460149675608e-04 -7.972141247591935098e-06
2.238000000000000000e+03 1.943574333190917969e+01 -3.806030035018920898e+00 -1.520469486713409424e-01 7.859663963317871094e+00 2.312285184860229492e+00 -2.529877901077270508e+00
2.239000000000000000e+03 1.964895439147949219e+01 -4.238246440887451172e+00 -1.478311717510223389e-01 8.883985519409179688e+00 2.620846271514892578e+00 -3.231860637664794922e+00
2.240000000000000000e+03 1.967259597778320312e+01 -3.709589004516601562e+00 -2.633049786090850830e-01 9.104288101196289062e+00 2.652294874191284180e+00 -2.544761180877685547e+00
2.241000000000000000e+03 2.048607254028320312e+01 -4.286943435668945312e+00 -1.112657070159912109e+00 1.446421623229980469e+01 4.005467891693115234e+00 -1.675664424896240234e+00
2.242000000000000000e+03 1.976884841918945312e+01 -8.159967422485351562e+00 1.666712999343872070e+00 1.047565746307373047e+01 3.642710924148559570e+00 4.548772335052490234e+00
2.243000000000000000e+03 1.817074203491210938e+01 -7.849216461181640625e+00 2.214272499084472656e+00 3.297519445419311523e+00 1.653537511825561523e+00 2.954900026321411133e+00
2.244000000000000000e+03 1.769585990905761719e+01 -7.741042613983154297e+00 1.259829282760620117e+00 1.944897055625915527e+00 9.614179134368896484e-01 1.567513465881347656e+00
2.245000000000000000e+03 1.818810272216796875e+01 -7.418316841125488281e+00 1.411854743957519531e+00 2.188777923583984375e+00 1.080189824104309082e+00 2.398667097091674805e+00
2.246000000000000000e+03 1.983310508728027344e+01 -2.742090463638305664e+00 -7.434846758842468262e-01 9.763255119323730469e+00 2.705931186676025391e+00 -1.606137275695800781e+00
2.247000000000000000e+03 1.258204221725463867e+00 3.194631099700927734e+00 6.610927812289446592e-05 6.965300999581813812e-04 2.287918032379820943e-04 -6.713126203976571560e-04
2.248000000000000000e+03 2.017744827270507812e+01 -3.535536766052246094e+00 -9.159176349639892578e-01 1.159980392456054688e+01 3.205165863037109375e+00 -1.790351748466491699e+00
2.249000000000000000e+03 1.975045585632324219e+01 -4.059239864349365234e+00 -5.273889303207397461e-01 9.556765556335449219e+00 2.708812952041625977e+00 -2.937155485153198242e+00
2.250000000000000000e+03 2.230900287628173828e+00 3.704476165771484375e+01 -1.792184449732303619e-02 6.615263223648071289e-01 1.930813491344451904e-01 -1.118290498852729797e-01
2.251000000000000000e+03 1.079351806640625000e+01 4.221921920776367188e+00 -4.078296478837728500e-04 1.251719077117741108e-03 2.531668287701904774e-04 1.969591481611132622e-03
2.252000000000000000e+03 6.503456115722656250e+01 2.930640411376953125e+01 -1.091318577527999878e-01 7.855630874633789062e+00 2.323949813842773438e+00 2.315289676189422607e-01
2.253000000000000000e+03 2.266799545288085938e+01 -2.179494313895702362e-02 -4.653247445821762085e-02 1.115424442291259766e+01 3.332313537597656250e+00 -5.816837549209594727e-01
2.254000000000000000e+03 2.326181030273437500e+01 -1.936635076999664307e-01 7.477989047765731812e-02 1.120447921752929688e+01 3.383777618408203125e+00 -3.491009473800659180e-01
2.255000000000000000e+03 6.057207107543945312e+00 -3.394523382186889648e+00 7.076533511281013489e-04 8.018196676857769489e-04 4.528418940026313066e-04 4.298248095437884331e-04
2.256000000000000000e+03 3.441642522811889648e+00 3.538177490234375000e+01 -2.000034600496292114e-02 8.261297941207885742e-01 2.418388277292251587e-01 -1.593174785375595093e-01
2.257000000000000000e+03 4.084429740905761719e+00 3.621970748901367188e+01 -8.674167096614837646e-03 9.894874691963195801e-01 2.942439913749694824e-01 -1.073816418647766113e-01
2.258000000000000000e+03 2.400602722167968750e+01 9.096783995628356934e-01 3.797419369220733643e-01 1.075863265991210938e+01 3.341512441635131836e+00 -4.147291183471679688e-01
2.259000000000000000e+03 2.385252380371093750e+01 -3.024733625352382660e-02 2.526787817478179932e-01 1.102646827697753906e+01 3.383744239807128906e+00 -2.733157277107238770e-01
2.260000000000000000e+03 2.376530456542968750e+01 4.347474277019500732e-01 2.418984174728393555e-01 1.094663333892822266e+01 3.356559514999389648e+00 -4.623695015907287598e-01
2.261000000000000000e+03 9.729588508605957031e+00 -3.621878623962402344e+00 9.820912964642047882e-04 -4.801748727913945913e-04 1.505749387433752418e-04 -3.306313592474907637e-04
2.262000000000000000e+03 4.438718795776367188e+00 -2.295968818664550781e+01 2.001423537731170654e-01 4.173668622970581055e-01 1.852527707815170288e-01 1.732321977615356445e-01
2.263000000000000000e+03 5.024184703826904297e+00 3.554990386962890625e+01 -7.844893634319305420e-02 1.242174863815307617e+00 3.491177558898925781e-01 -2.213183641433715820e-01
2.264000000000000000e+03 7.204747676849365234e+00 5.044369220733642578e+00 -5.240914761088788509e-04 5.681206821464002132e-04 1.320875526289455593e-05 1.413201563991606236e-03
2.265000000000000000e+03 9.401588439941406250e+00 5.298100948333740234e+00 1.286439830437302589e-03 -1.485560787841677666e-03 -5.973627776256762445e-05 -1.445377944037318230e-03
2.266000000000000000e+03 1.634860229492187500e+01 2.463543319702148438e+01 -3.149638473987579346e-01 4.747613906860351562e+00 1.329795002937316895e+00 -1.108374476432800293e+00
2.267000000000000000e+03 3.970235824584960938e+01 -2.556835365295410156e+01 -4.768114387989044189e-01 7.783139705657958984e+00 2.191898584365844727e+00 -4.682286083698272705e-01
2.268000000000000000e+03 7.249481201171875000e+01 -3.341495132446289062e+01 -5.434527993202209473e-02 7.938037872314453125e+00 2.365107774734497070e+00 -1.151245310902595520e-01
2.269000000000000000e+03 5.205123901367187500e+00 -5.265391826629638672e+00 -7.448229007422924042e-05 3.678238135762512684e-04 8.800245996098965406e-05 6.227256963029503822e-04
2.270000000000000000e+03 2.034171867370605469e+01 1.715970802307128906e+01 3.934361040592193604e-01 7.326760768890380859e+00 2.316059112548828125e+00 -1.003171563148498535e+00
2.271000000000000000e+03 2.395908355712890625e+01 -1.320746135711669922e+01 2.607961893081665039e-01 8.991405487060546875e+00 2.775660276412963867e+00 4.756305515766143799e-01
2.272000000000000000e+03 2.563526725769042969e+01 -1.367081928253173828e+01 3.120039701461791992e-01 8.791690826416015625e+00 2.731108427047729492e+00 1.129731442779302597e-02
2.273000000000000000e+03 2.475996017456054688e+01 -1.274088001251220703e+01 4.636341333389282227e-01 9.064595222473144531e+00 2.858469009399414062e+00 1.382156163454055786e-01
2.274000000000000000e+03 5.084374904632568359e+00 3.013851547241210938e+01 1.422810018993914127e-03 9.475932121276855469e-01 2.847048044204711914e-01 -3.302709162235260010e-01
2.275000000000000000e+03 1.996629905700683594e+01 2.012798500061035156e+01 -9.002336859703063965e-02 6.620904922485351562e+00 1.959264516830444336e+00 -9.183146953582763672e-01
2.276000000000000000e+03 3.377037048339843750e+01 -2.215582275390625000e+01 -4.009295701980590820e-01 7.790007114410400391e+00 2.216723203659057617e+00 -4.178135395050048828e-01
2.277000000000000000e+03 3.895724487304687500e+01 -2.331172752380371094e+01 -3.305251896381378174e-01 7.804697990417480469e+00 2.242251873016357422e+00 -5.260426402091979980e-01
2.278000000000000000e+03 2.771423149108886719e+01 1.054963016510009766e+01 8.992884159088134766e-01 8.429635047912597656e+00 2.798676967620849609e+00 -1.260443627834320068e-01
2.279000000000000000e+03 6.826210021972656250e+01 2.026908683776855469e+01 -6.431664223782718182e-04 7.742510795593261719e+00 2.322560310363769531e+00 2.529223859310150146e-01
2.280000000000000000e+03 5.646203517913818359e+00 7.489134311676025391e+00 -9.942854521796107292e-04 2.665200372575782239e-05 -2.902900159824639559e-04 1.491433340561343357e-05
2.281000000000000000e+03 6.927623271942138672e+00 6.231566905975341797e+00 -6.211207364685833454e-04 8.342560031451284885e-04 6.394058436853811145e-05 -8.703232742846012115e-04
2.282000000000000000e+03 2.298648834228515625e+01 2.054354476928710938e+01 -2.442443668842315674e-01 7.099692344665527344e+00 2.056634426116943359e+00 -4.123383164405822754e-01
2.283000000000000000e+03 2.249477195739746094e+01 1.697780799865722656e+01 2.889947295188903809e-01 7.549164295196533203e+00 2.351447582244873047e+00 -5.672103762626647949e-01
2.284000000000000000e+03 5.966614532470703125e+01 -2.236463356018066406e+01 -2.977948449552059174e-02 7.767822265625000000e+00 2.321412801742553711e+00 -3.733238577842712402e-01
2.285000000000000000e+03 5.111570358276367188e+01 -2.027115821838378906e+01 1.896313764154911041e-02 7.762823581695556641e+00 2.334536075592041016e+00 -5.020962357521057129e-01
2.286000000000000000e+03 7.186705017089843750e+01 -2.451923942565917969e+01 -1.569519937038421631e-02 7.802554130554199219e+00 2.336057662963867188e+00 -1.894381791353225708e-01
2.287000000000000000e+03 7.167184448242187500e+01 -2.337063026428222656e+01 -1.339757349342107773e-02 7.785859107971191406e+00 2.331738471984863281e+00 -1.946626305580139160e-01
2.288000000000000000e+03 3.912643814086914062e+01 -1.470499038696289062e+01 4.575116336345672607e-01 7.831677436828613281e+00 2.486756801605224609e+00 -6.245650053024291992e-01
2.289000000000000000e+03 5.792142868041992188e+01 -2.293545913696289062e+01 -6.396336108446121216e-02 7.782376766204833984e+00 2.315524101257324219e+00 -3.960159122943878174e-01
2.290000000000000000e+03 4.897033691406250000e+01 -1.960193061828613281e+01 4.433288425207138062e-02 7.764802932739257812e+00 2.342740774154663086e+00 -5.351670980453491211e-01
2.291000000000000000e+03 3.418258285522460938e+01 -5.842588901519775391e+00 1.552874207496643066e+00 8.073930740356445312e+00 2.888041496276855469e+00 -1.862944215536117554e-01
2.292000000000000000e+03 7.120356750488281250e+01 -2.231175994873046875e+01 -8.487622253596782684e-03 7.765989303588867188e+00 2.327250480651855469e+00 -2.089838534593582153e-01
2.293000000000000000e+03 7.051313781738281250e+01 -2.335319137573242188e+01 -1.475782319903373718e-02 7.779957771301269531e+00 2.329560041427612305e+00 -2.175075560808181763e-01
2.294000000000000000e+03 7.146405029296875000e+01 -1.602609062194824219e+01 2.802425995469093323e-02 7.657332420349121094e+00 2.305607080459594727e+00 -1.931500434875488281e-01
2.295000000000000000e+03 4.635181045532226562e+01 1.549258232116699219e+00 8.168237805366516113e-01 7.609348297119140625e+00 2.527851581573486328e+00 1.218871250748634338e-01
2.296000000000000000e+03 3.652769470214843750e+01 -3.601047992706298828e+00 1.392330169677734375e+00 7.942883014678955078e+00 2.800564050674438477e+00 -6.045047193765640259e-02
2.297000000000000000e+03 4.836887741088867188e+01 1.245988845825195312e+00 7.352862358093261719e-01 7.583230018615722656e+00 2.495554924011230469e+00 9.464070945978164673e-02
2.298000000000000000e+03 4.022870635986328125e+01 -1.325918102264404297e+01 5.999923944473266602e-01 7.783673286437988281e+00 2.515099763870239258e+00 -5.945782065391540527e-01
2.299000000000000000e+03 4.161381912231445312e+01 -1.074100112915039062e+01 7.812949419021606445e-01 7.720410346984863281e+00 2.550511598587036133e+00 -5.023053288459777832e-01
2.300000000000000000e+03 5.033102416992187500e+01 1.283716320991516113e+00 6.510962247848510742e-01 7.573445320129394531e+00 2.467362403869628906e+00 8.774220943450927734e-02
2.301000000000000000e+03 7.020102691650390625e+01 -1.406469440460205078e+01 4.696774110198020935e-02 7.634649276733398438e+00 2.304485082626342773e+00 -1.960414797067642212e-01
2.302000000000000000e+03 7.088230133056640625e+01 -1.863467788696289062e+01 1.149497833102941513e-02 7.706465244293212891e+00 2.315387964248657227e+00 -2.111523747444152832e-01
2.303000000000000000e+03 6.976590728759765625e+01 -1.706315231323242188e+01 2.696541510522365570e-02 7.682302951812744141e+00 2.312780380249023438e+00 -2.237409055233001709e-01
2.304000000000000000e+03 4.998582839965820312e+01 3.012164831161499023e+00 6.410449743270874023e-01 7.581856727600097656e+00 2.466870546340942383e+00 1.504534631967544556e-01
2.305000000000000000e+03 4.537379455566406250e+01 -5.759555339813232422e+00 8.444997072219848633e-01 7.613969326019287109e+00 2.537540674209594727e+00 -2.284540534019470215e-01
2.306000000000000000e+03 4.610003662109375000e+01 -4.317897319793701172e+00 8.399665951728820801e-01 7.600619316101074219e+00 2.532175779342651367e+00 -1.484272032976150513e-01
2.307000000000000000e+03 6.651851654052734375e+01 8.827423095703125000e+00 1.250766664743423462e-01 7.599377632141113281e+00 2.317336320877075195e+00 1.814133673906326294e-01
2.308000000000000000e+03 6.527042388916015625e+01 7.973289489746093750e+00 1.550066471099853516e-01 7.596195697784423828e+00 2.325360774993896484e+00 1.785419732332229614e-01
2.309000000000000000e+03 6.681237792968750000e+01 7.264956831932067871e-01 1.594387739896774292e-01 7.552540302276611328e+00 2.313593626022338867e+00 2.293490432202816010e-02
2.310000000000000000e+03 5.717095184326171875e+01 -3.815180063247680664e+00 4.121329486370086670e-01 7.562634468078613281e+00 2.392430305480957031e+00 -1.009743660688400269e-01
2.311000000000000000e+03 6.454664611816406250e+01 7.012270927429199219e+00 1.779539734125137329e-01 7.590537548065185547e+00 2.330547571182250977e+00 1.668315678834915161e-01
2.312000000000000000e+03 6.326699447631835938e+01 -3.439727723598480225e-01 2.419308125972747803e-01 7.562633991241455078e+00 2.341369390487670898e+00 4.826659336686134338e-03
2.313000000000000000e+03 6.415283966064453125e+01 -1.025902652740478516e+01 1.647765934467315674e-01 7.608800411224365234e+00 2.332073211669921875e+00 -2.153571248054504395e-01
2.314000000000000000e+03 6.249034500122070312e+01 -1.075698375701904297e+01 1.845792979001998901e-01 7.615867137908935547e+00 2.340133905410766602e+00 -2.396294921636581421e-01
2.315000000000000000e+03 6.436080169677734375e+01 -1.165191745758056641e+01 1.459529399871826172e-01 7.622208118438720703e+00 2.330448389053344727e+00 -2.376988083124160767e-01
2.316000000000000000e+03 1.488040065765380859e+01 1.046121835708618164e+00 -7.837946759536862373e-04 -8.605996845290064812e-04 -4.933183081448078156e-04 1.561632234370335937e-04
2.317000000000000000e+03 1.433596038818359375e+01 8.109902739524841309e-01 -7.177486550062894821e-04 3.262013196945190430e-04 -1.174642020487226546e-04 -5.075251683592796326e-04
2.318000000000000000e+03 1.339948463439941406e+01 9.943951964378356934e-01 -1.198281024699099362e-04 3.883358440361917019e-04 8.055232319748029113e-05 2.291399505338631570e-05
2.319000000000000000e+03 1.399857616424560547e+01 1.078236818313598633e+00 1.095239349524490535e-04 2.717947427299804986e-05 4.101102240383625031e-05 1.716446568025276065e-04
2.320000000000000000e+03 1.342517852783203125e+01 2.516243755817413330e-01 3.961721085943281651e-05 -3.555272123776376247e-04 -9.477300045546144247e-05 -2.306616806890815496e-05
2.321000000000000000e+03 1.503903388977050781e+01 3.840551078319549561e-01 2.131517067027743906e-05 2.494228465366177261e-05 1.387723659718176350e-05 6.336161459330469370e-05
2.322000000000000000e+03 1.424006271362304688e+01 2.423980534076690674e-01 1.402214402332901955e-04 1.605316938366740942e-04 9.022594167618080974e-05 -2.210657839896157384e-05
2.323000000000000000e+03 1.447602939605712891e+01 1.142013788223266602e+00 6.383662366715725511e-06 2.697326126508414745e-04 8.283487841254100204e-05 -9.396966197527945042e-05
2.324000000000000000e+03 1.113503360748291016e+01 3.384475409984588623e-01 2.901466214098036289e-04 5.119378911331295967e-04 2.406253479421138763e-04 -1.446974201826378703e-04
2.325000000000000000e+03 1.115649890899658203e+01 1.078244447708129883e+00 2.253018901683390141e-04 -2.091129135806113482e-04 4.856694431509822607e-06 7.401315961033105850e-04
2.326000000000000000e+03 1.038435840606689453e+01 3.729175329208374023e-01 3.790195623878389597e-04 -3.562482306733727455e-04 6.831405698903836310e-06 2.579426800366491079e-04
2.327000000000000000e+03 1.188578510284423828e+01 3.038018345832824707e-01 1.702390582067891955e-04 -6.165182567201554775e-04 -1.338837610092014074e-04 1.858421019278466702e-04
2.328000000000000000e+03 1.263660717010498047e+01 2.689834535121917725e-01 5.815294207422994077e-05 6.074481061659753323e-04 1.996803039219230413e-04 -2.875515565392561257e-05
2.329000000000000000e+03 1.266393947601318359e+01 1.008509635925292969e+00 2.646962529979646206e-04 -3.668840508908033371e-04 -3.065633791266009212e-05 4.084806132595986128e-04
2.330000000000000000e+03 1.040289020538330078e+01 1.112849831581115723e+00 4.150348540861159563e-04 1.043956726789474487e-04 1.558291551191359758e-04 -4.649475449696183205e-04
2.331000000000000000e+03 1.191018390655517578e+01 1.043463349342346191e+00 1.358717127004638314e-04 3.305826685391366482e-04 1.399363100063055754e-04 -3.832800430245697498e-04
2.332000000000000000e+03 9.624112129211425781e+00 3.901334404945373535e-01 5.643279291689395905e-04 1.836807205108925700e-04 2.244025818072259426e-04 -1.524105464341118932e-04
2.333000000000000000e+03 8.869701385498046875e+00 1.130295276641845703e+00 6.515382556244730949e-04 -1.131324897869490087e-04 1.615217188373208046e-04 -4.294274549465626478e-04
2.334000000000000000e+03 9.640521049499511719e+00 1.130133390426635742e+00 2.879877865780144930e-04 -7.432783490912697744e-07 8.617334970040246844e-05 7.309801294468343258e-04
2.335000000000000000e+03 6.555309772491455078e+00 1.130333185195922852e+00 4.631650517694652081e-04 1.701665896689519286e-04 1.899994967970997095e-04 4.356891149654984474e-04
2.336000000000000000e+03 7.314301967620849609e+00 3.903205394744873047e-01 6.899811560288071632e-04 8.506400627084076405e-05 2.325135574210435152e-04 1.750789087964221835e-04
2.337000000000000000e+03 5.011874198913574219e+00 1.130439519882202148e+00 3.701219975482672453e-04 2.165567857446148992e-04 1.760036393534392118e-04 3.378872352186590433e-04
2.338000000000000000e+03 5.003341674804687500e+00 3.904395103454589844e-01 6.571417325176298618e-04 -2.673398412298411131e-04 1.169405659311451018e-04 -2.216764987679198384e-04
2.339000000000000000e+03 2.698155403137207031e+00 1.130406737327575684e+00 5.160737200640141964e-04 -2.585688198450952768e-04 7.725146861048415303e-05 -5.308157415129244328e-04
2.340000000000000000e+03 3.462841272354125977e+00 3.904723227024078369e-01 4.197220550850033760e-04 -3.730240860022604465e-04 1.400939163431758061e-05 -2.217026922153308988e-04
2.341000000000000000e+03 1.923750996589660645e+00 3.903100788593292236e-01 1.643271389184519649e-04 -3.442042216192930937e-04 -5.396312553784810007e-05 -1.541902893222868443e-04
2.342000000000000000e+03 2.693560838699340820e+00 3.904067575931549072e-01 1.235545205418020487e-04 3.911220701411366463e-04 1.544029801152646542e-04 6.108644447522237897e-05
2.343000000000000000e+03 1.155955553054809570e+00 1.130243778228759766e+00 3.465348272584378719e-04 -2.221640534116886556e-05 9.729553130455315113e-05 -3.106031217612326145e-04
2.344000000000000000e+03 1.153986573219299316e+00 3.902437984943389893e-01 -8.803096716292202473e-05 2.908360620494931936e-04 6.084152482799254358e-05 4.971291127731092274e-05
2.345000000000000000e+03 3.854793012142181396e-01 1.130119919776916504e+00 -3.770945768337696791e-04 5.147125193616375327e-05 -9.768699237611144781e-05 1.083883180399425328e-04
2.346000000000000000e+03 3.848229348659515381e-01 3.901198804378509521e-01 9.415487147634848952e-05 -1.069683712557889521e-04 -3.844049842882668599e-06 -1.774413794919382781e-05
2.347000000000000000e+03 3.468748569488525391e+00 1.130472302436828613e+00 8.635858102934435010e-05 3.000445722136646509e-04 1.159209423349238932e-04 2.509295009076595306e-04
2.348000000000000000e+03 5.773429393768310547e+00 3.904067873954772949e-01 6.444142782129347324e-04 1.886397221824154258e-04 2.499161928426474333e-04 1.294388348469510674e-04
2.349000000000000000e+03 6.544151782989501953e+00 3.903332352638244629e-01 7.851101690903306007e-04 -1.590690953889861703e-04 1.878123148344457150e-04 -1.723872846923768520e-04
2.350000000000000000e+03 5.783274650573730469e+00 1.130406856536865234e+00 7.205941365100443363e-04 -2.868513111025094986e-04 1.301228476222604513e-04 -5.508454632945358753e-04
2.351000000000000000e+03 8.084676742553710938e+00 3.903390169143676758e-01 7.398974848911166191e-04 -3.609310806496068835e-05 2.111413195962086320e-04 -1.449531700927764177e-04
2.352000000000000000e+03 8.854605674743652344e+00 3.902952671051025391e-01 5.758716142736375332e-04 -6.772051710868254304e-05 1.524453255115076900e-04 2.286405506310984492e-04
2.353000000000000000e+03 8.098460197448730469e+00 1.130339026451110840e+00 4.153895133640617132e-04 1.162505795946344733e-04 1.594920177012681961e-04 5.932949716225266457e-04
2.354000000000000000e+03 1.927032828330993652e+00 1.130310058593750000e+00 -1.154567580670118332e-04 2.342610532650724053e-04 3.564128928701393306e-05 1.306344929616898298e-04
2.355000000000000000e+03 4.233315467834472656e+00 3.904743492603302002e-01 4.203910648357123137e-04 3.186148824170231819e-04 2.217017899965867400e-04 1.015508460113778710e-04
2.356000000000000000e+03 4.240535736083984375e+00 1.130474328994750977e+00 6.225696415640413761e-04 -2.993085363414138556e-04 9.697832865640521049e-05 -6.551753031089901924e-04
2.357000000000000000e+03 7.326772689819335938e+00 1.130320549011230469e+00 7.551781018264591694e-04 -2.436182840028777719e-04 1.534679468022659421e-04 -4.455964663065969944e-04
2.358000000000000000e+03 7.947246074676513672e+00 -3.790149092674255371e-01 5.170978329260833561e-05 -1.195317250676453114e-03 -3.430822398513555527e-04 7.361714961007237434e-05
2.359000000000000000e+03 8.798082351684570312e+00 -1.121163964271545410e+00 -1.436635793652385473e-04 -9.983262280002236366e-04 -3.425969334784895182e-04 9.754925849847495556e-05
2.360000000000000000e+03 9.582462310791015625e+00 -3.862577378749847412e-01 -1.633751526242122054e-05 -1.045677112415432930e-03 -3.186044050380587578e-04 1.071753358701243997e-04
2.361000000000000000e+03 7.128131389617919922e+00 -3.778152763843536377e-01 3.263723629061132669e-04 1.102042268030345440e-03 4.285243921913206577e-04 -8.733290451345965266e-05
2.362000000000000000e+03 6.302709579467773438e+00 -3.771458566188812256e-01 1.441290514776483178e-04 -9.258943027816712856e-04 -2.345295797567814589e-04 1.825668550736736506e-05
2.363000000000000000e+03 5.439445972442626953e+00 -3.834656774997711182e-01 2.344180247746407986e-04 6.240773946046829224e-04 2.575486141722649336e-04 1.213362775160931051e-04
2.364000000000000000e+03 4.549984931945800781e+00 -3.402172923088073730e-01 -3.808195469900965691e-05 -4.315366095397621393e-04 -1.408855605404824018e-04 -1.091946032829582691e-04
2.365000000000000000e+03 4.365737915039062500e+00 -8.721476197242736816e-01 1.208252622745931149e-03 8.464121492579579353e-05 3.878681454807519913e-04 3.662840463221073151e-04
2.366000000000000000e+03 2.784216165542602539e+00 -7.810403704643249512e-01 7.114303880371153355e-04 -3.623225202318280935e-04 1.047323676175437868e-04 6.146714440546929836e-04
2.367000000000000000e+03 1.180924773216247559e+00 -3.613742887973785400e-01 -4.609792085830122232e-04 2.386264532105997205e-04 -6.670582661172375083e-05 3.649076825240626931e-05
2.368000000000000000e+03 4.100910127162933350e-01 -5.529776215553283691e-01 -6.547869361384073272e-06 -1.623809075681492686e-04 -5.067863094154745340e-05 -9.311666508438065648e-05
2.369000000000000000e+03 7.475960254669189453e-01 -1.101374268531799316e+00 1.435352140106260777e-03 2.441755787003785372e-04 5.038583185523748398e-04 2.049754693871363997e-04
2.370000000000000000e+03 9.582078933715820312e+00 -1.126257777214050293e+00 3.342439595144242048e-04 9.978760499507188797e-04 3.996359882876276970e-04 -3.316179499961435795e-04
2.371000000000000000e+03 8.013586997985839844e+00 -1.119014978408813477e+00 4.193800559733062983e-04 9.407280595041811466e-04 4.080324433743953705e-04 -8.290692494483664632e-05
2.372000000000000000e+03 7.227835178375244141e+00 -1.117815256118774414e+00 -1.016472961055114865e-04 -8.520011906512081623e-04 -2.860945533029735088e-04 -9.669901191955432296e-05
2.373000000000000000e+03 6.435775756835937500e+00 -1.117145895957946777e+00 3.607741091400384903e-04 6.613840814679861069e-04 3.066474455408751965e-04 1.343709882348775864e-04
2.374000000000000000e+03 5.605874538421630859e+00 -1.123465657234191895e+00 1.643424475332722068e-04 -4.919238854199647903e-04 -9.827443136600777507e-05 -2.009051240747794509e-04
2.375000000000000000e+03 4.870606899261474609e+00 -1.221678614616394043e+00 -1.632587955100461841e-04 1.960816298378631473e-04 9.846854482020717114e-06 6.762683915439993143e-05
2.376000000000000000e+03 4.215381145477294922e+00 -1.291930317878723145e+00 -7.437709136866033077e-04 1.221075654029846191e-04 -1.864990044850856066e-04 -2.319001359865069389e-04
2.377000000000000000e+03 3.483533143997192383e+00 -1.264367222785949707e+00 1.297782757319509983e-03 -1.501230872236192226e-04 3.442979068495333195e-04 7.375015411525964737e-04
2.378000000000000000e+03 2.720056772232055664e+00 -1.259521603584289551e+00 -9.072119137272238731e-04 -3.270828165113925934e-05 -2.819760702550411224e-04 -5.953660001978278160e-04
2.379000000000000000e+03 1.356012225151062012e+00 -1.203287243843078613e+00 -1.414408790878951550e-03 -6.570725818164646626e-04 -6.214444292709231377e-04 9.341417171526700258e-05
2.380000000000000000e+03 1.973117947578430176e+00 -8.476541042327880859e-01 3.132296842522919178e-04 4.977464559487998486e-04 2.432928449707105756e-04 -8.161685545928776264e-04
2.381000000000000000e+03 8.765102386474609375e+00 -3.811639845371246338e-01 2.412401518085971475e-04 1.180082908831536770e-03 4.263969021849334240e-04 -1.242558355443179607e-04
2.382000000000000000e+03 3.694828748703002930e+00 -2.827752828598022461e-01 3.243803803343325853e-04 3.447620547376573086e-04 2.007427247008308768e-04 1.786413049558177590e-04
2.383000000000000000e+03 2.863922595977783203e+00 -2.815187871456146240e-01 -2.304551599081605673e-04 -2.110410860041156411e-04 -1.324488694081082940e-04 -1.401682820869609714e-04
2.384000000000000000e+03 1.994147539138793945e+00 -3.323310017585754395e-01 1.601042895345017314e-04 -1.935016825882485136e-06 4.745077967527322471e-05 2.195744455093517900e-04
2.385000000000000000e+03 1.978801369667053223e+00 -1.275323033332824707e+00 8.653850527480244637e-04 5.524404114112257957e-04 4.253476508893072605e-04 4.045325331389904022e-04
2.386000000000000000e+03 3.578665971755981445e+00 -7.871425151824951172e-01 -6.142096244730055332e-04 2.328336086065974087e-05 -1.772778923623263836e-04 -3.793112700805068016e-04
2.387000000000000000e+03 1.511178874969482422e+01 -1.151870131492614746e+00 3.635839966591447592e-04 2.090849302476271987e-04 1.718006824376061559e-04 -5.737394531024619937e-05
2.388000000000000000e+03 1.328532791137695312e+01 -1.267471551895141602e+00 -2.092887298204004765e-04 -4.639616236090660095e-04 -2.019750972976908088e-04 -3.764223220059648156e-05
2.389000000000000000e+03 1.480503654479980469e+01 -5.744030475616455078e-01 -7.025493687251582742e-05 1.086015763576142490e-04 1.150399202742846683e-05 -1.650876802159473300e-04
2.390000000000000000e+03 1.453040313720703125e+01 -1.313965797424316406e+00 -1.707039482425898314e-04 -6.054552504792809486e-04 -2.328477567061781883e-04 4.428669344633817673e-04
2.391000000000000000e+03 1.393833351135253906e+01 -1.278923630714416504e+00 1.158483428298495710e-04 5.405955598689615726e-04 1.969331642612814903e-04 -2.045107248704880476e-04
2.392000000000000000e+03 1.336329460144042969e+01 -5.279909372329711914e-01 9.795994992600753903e-05 5.286256200633943081e-04 1.879756746347993612e-04 3.216017648810520768e-05
2.393000000000000000e+03 1.411463356018066406e+01 -5.394020080566406250e-01 -6.362472049659118056e-05 -4.179529205430299044e-04 -1.444732915842905641e-04 2.862286237359512597e-05
2.394000000000000000e+03 1.111242771148681641e+01 -4.403275847434997559e-01 -9.855350799625739455e-05 -6.499340524896979332e-04 -2.245462674181908369e-04 9.427183249499648809e-05
2.395000000000000000e+03 1.260764503479003906e+01 -5.095726251602172852e-01 -1.200602418975904584e-04 -5.083883879706263542e-04 -1.885345845948904753e-04 -3.633827509474940598e-05
2.396000000000000000e+03 1.185993289947509766e+01 -4.741277396678924561e-01 1.874243753263726830e-04 5.148464697413146496e-04 2.106812607962638140e-04 -4.062026710016652942e-05
2.397000000000000000e+03 1.109096240997314453e+01 -1.180124521255493164e+00 4.995914641767740250e-04 7.189756142906844616e-04 3.655701002571731806e-04 -3.926955978386104107e-04
2.398000000000000000e+03 1.036482620239257812e+01 -4.067706167697906494e-01 1.798901066649705172e-04 9.018116979859769344e-04 3.245105326641350985e-04 -1.515497715445235372e-04
2.399000000000000000e+03 1.034629440307617188e+01 -1.146702885627746582e+00 -2.685620565898716450e-04 -9.236111654900014400e-04 -3.576519666239619255e-04 3.741680993698537350e-04
2.400000000000000000e+03 1.258031177520751953e+01 -1.249099493026733398e+00 4.718019918072968721e-04 3.933924890588968992e-04 2.595583500806242228e-04 -9.234128810930997133e-06
2.401000000000000000e+03 1.183553314208984375e+01 -1.213789224624633789e+00 -5.181244923733174801e-04 -4.893332370556890965e-04 -3.022373130079358816e-04 1.651936181588098407e-04
2.402000000000000000e+03 2.007137107849121094e+01 -5.994586467742919922e+00 2.197261047363281250e+01 1.504576086997985840e+00 7.043156147003173828e+00 4.211011409759521484e+00
2.403000000000000000e+03 2.007105255126953125e+01 -6.014031410217285156e+00 2.402225494384765625e+01 6.381443500518798828e+00 9.121109008789062500e+00 1.352453994750976562e+01
2.404000000000000000e+03 2.007452011108398438e+01 -6.033167362213134766e+00 2.424164962768554688e+01 1.330601310729980469e+01 1.126429843902587891e+01 1.788585662841796875e+01
2.405000000000000000e+03 2.008164405822753906e+01 -6.051262855529785156e+00 2.263354873657226562e+01 2.124122238159179688e+01 1.316243076324462891e+01 2.089693641662597656e+01
2.406000000000000000e+03 2.009215164184570312e+01 -6.067627906799316406e+00 2.063169288635253906e+01 2.942761039733886719e+01 1.501779079437255859e+01 2.171118354797363281e+01
2.407000000000000000e+03 2.010564231872558594e+01 -6.081636905670166016e+00 1.765176773071289062e+01 3.733726501464843750e+01 1.649670982360839844e+01 2.079361915588378906e+01
2.408000000000000000e+03 2.012159919738769531e+01 -6.092754840850830078e+00 1.541642189025878906e+01 4.399022293090820312e+01 1.782199287414550781e+01 1.809392547607421875e+01
2.409000000000000000e+03 2.013941192626953125e+01 -6.100557327270507812e+00 1.345212459564208984e+01 4.902342224121093750e+01 1.874266433715820312e+01 1.390114593505859375e+01
2.410000000000000000e+03 2.015840339660644531e+01 -6.104746818542480469e+00 1.319219017028808594e+01 5.186240768432617188e+01 1.951637840270996094e+01 9.171298027038574219e+00
2.411000000000000000e+03 2.017784690856933594e+01 -6.105162620544433594e+00 1.395764636993408203e+01 5.242604446411132812e+01 1.991510772705078125e+01 4.089536190032958984e+00
2.412000000000000000e+03 2.019700050354003906e+01 -6.101788997650146484e+00 1.606675910949707031e+01 5.117977523803710938e+01 2.017395973205566406e+01 7.158593833446502686e-02
2.413000000000000000e+03 2.021512985229492188e+01 -6.094755172729492188e+00 1.951230621337890625e+01 4.835394287109375000e+01 2.035987472534179688e+01 -3.146604537963867188e+00
2.414000000000000000e+03 2.023154830932617188e+01 -6.084329605102539062e+00 2.248714256286621094e+01 4.482606887817382812e+01 2.019396400451660156e+01 -4.784991264343261719e+00
2.415000000000000000e+03 2.024562263488769531e+01 -6.070910453796386719e+00 2.636540985107421875e+01 4.124559783935546875e+01 2.028330230712890625e+01 -4.897713661193847656e+00
2.416000000000000000e+03 2.025682067871093750e+01 -6.055010318756103516e+00 2.918518257141113281e+01 3.813759994506835938e+01 2.019683456420898438e+01 -3.895066738128662109e+00
2.417000000000000000e+03 2.026471328735351562e+01 -6.037235260009765625e+00 3.149983978271484375e+01 3.542472076416015625e+01 2.007736968994140625e+01 -1.726027488708496094e+00
2.418000000000000000e+03 2.026899719238281250e+01 -6.018265247344970703e+00 3.279225921630859375e+01 3.447078704833984375e+01 2.017891311645507812e+01 7.969567179679870605e-01
2.419000000000000000e+03 2.026951026916503906e+01 -5.998824596405029297e+00 3.297824096679687500e+01 3.433749771118164062e+01 2.019472122192382812e+01 4.083806991577148438e+00
2.420000000000000000e+03 2.026623153686523438e+01 -5.979654788970947266e+00 3.206306838989257812e+01 3.563109207153320312e+01 2.030824851989746094e+01 6.981437683105468750e+00
2.421000000000000000e+03 2.025929069519042969e+01 -5.961488723754882812e+00 2.979438018798828125e+01 3.796588134765625000e+01 2.032807922363281250e+01 9.529319763183593750e+00
2.422000000000000000e+03 2.024894714355468750e+01 -5.945019721984863281e+00 2.667426872253417969e+01 4.166586303710937500e+01 2.050203895568847656e+01 1.104523372650146484e+01
2.423000000000000000e+03 2.023559761047363281e+01 -5.930876731872558594e+00 2.251618003845214844e+01 4.573110961914062500e+01 2.047418594360351562e+01 1.130848121643066406e+01
2.424000000000000000e+03 2.021975326538085938e+01 -5.919599533081054688e+00 1.792273712158203125e+01 4.958184051513671875e+01 2.025137329101562500e+01 1.001989936828613281e+01
2.425000000000000000e+03 2.020201873779296875e+01 -5.911619186401367188e+00 1.402705955505371094e+01 5.299311447143554688e+01 2.010605239868164062e+01 6.953860759735107422e+00
2.426000000000000000e+03 2.018306922912597656e+01 -5.907240390777587891e+00 1.032137298583984375e+01 5.459360885620117188e+01 1.947449493408203125e+01 2.594886064529418945e+00
2.427000000000000000e+03 2.016363143920898438e+01 -5.906630039215087891e+00 8.256133079528808594e+00 5.429067611694335938e+01 1.876404380798339844e+01 -2.710408926010131836e+00
2.428000000000000000e+03 2.014444732666015625e+01 -5.909811973571777344e+00 7.414611339569091797e+00 5.155516433715820312e+01 1.769093322753906250e+01 -7.991947174072265625e+00
2.429000000000000000e+03 2.012624549865722656e+01 -5.916663646697998047e+00 8.333727836608886719e+00 4.642219924926757812e+01 1.642677688598632812e+01 -1.290430831909179688e+01
2.430000000000000000e+03 2.010972595214843750e+01 -5.926924705505371094e+00 9.894172668457031250e+00 3.941416549682617188e+01 1.479250144958496094e+01 -1.638942337036132812e+01
2.431000000000000000e+03 2.009551620483398438e+01 -5.940202713012695312e+00 1.290266799926757812e+01 3.062577247619628906e+01 1.305853271484375000e+01 -1.812003707885742188e+01
2.432000000000000000e+03 2.008415985107421875e+01 -5.955990314483642578e+00 1.559631061553955078e+01 2.121941947937011719e+01 1.104471874237060547e+01 -1.770099067687988281e+01
2.433000000000000000e+03 2.007608985900878906e+01 -5.973685264587402344e+00 2.076731109619140625e+01 9.178236007690429688e+00 8.983664512634277344e+00 -1.249000358581542969e+01
