# el_label, x, y, sXX, sYY, sZZ, sXY
1.000000000000000000e+00 1.857444190979003906e+01 -1.487917304039001465e+00 -4.561446666717529297e+00 -1.486809492111206055e+00 -1.814476847648620605e+00 -2.242572069168090820e+00
2.000000000000000000e+00 1.837553977966308594e+01 -1.480506777763366699e+00 1.133182525634765625e+00 6.786417961120605469e-01 5.435472726821899414e-01 3.895421028137207031e-01
3.000000000000000000e+00 1.817663574218750000e+01 -1.473096251487731934e+00 5.534374713897705078e-01 -3.189492523670196533e-01 7.034647464752197266e-02 -2.639318406581878662e-01
4.000000000000000000e+00 1.797773361206054688e+01 -1.465685844421386719e+00 7.489383816719055176e-01 2.024782150983810425e-01 2.854249775409698486e-01 -5.455776676535606384e-02
5.000000000000000000e+00 1.857798576354980469e+01 -1.546214222908020020e+00 9.000890731811523438e+00 -2.094767332077026367e+00 2.071836948394775391e+00 -8.497146368026733398e-01
6.000000000000000000e+00 1.838144683837890625e+01 -1.577668309211730957e+00 4.149650573730468750e+00 -8.596569299697875977e-02 1.219105362892150879e+00 -8.403477817773818970e-02
7.000000000000000000e+00 1.818490791320800781e+01 -1.609122514724731445e+00 4.690866470336914062e+00 3.611665666103363037e-01 1.515609860420227051e+00 6.663133502006530762e-01
8.000000000000000000e+00 1.798836708068847656e+01 -1.640576601028442383e+00 3.640152931213378906e+00 -1.456979960203170776e-01 1.048336505889892578e+00 2.422644346952438354e-01
9.000000000000000000e+00 1.859281349182128906e+01 -1.602705717086791992e+00 1.492149925231933594e+01 4.033544287085533142e-02 4.488550662994384766e+00 4.286820411682128906e+00
1.000000000000000000e+01 1.840615653991699219e+01 -1.671820878982543945e+00 9.724819183349609375e+00 1.791194379329681396e-01 2.971181631088256836e+00 2.140708684921264648e+00
1.100000000000000000e+01 1.821950149536132812e+01 -1.740935921669006348e+00 7.171091556549072266e+00 6.247842907905578613e-01 2.338762760162353516e+00 1.789374709129333496e+00
1.200000000000000000e+01 1.803284454345703125e+01 -1.810050964355468750e+00 6.664239406585693359e+00 6.702129840850830078e-01 2.200335741043090820e+00 1.875705242156982422e+00
1.300000000000000000e+01 1.861835289001464844e+01 -1.655229926109313965e+00 1.782627677917480469e+01 4.413346290588378906e+00 6.671886920928955078e+00 8.927225112915039062e+00
1.400000000000000000e+01 1.844872474670410156e+01 -1.759361147880554199e+00 1.195433998107910156e+01 2.418959140777587891e+00 4.311989784240722656e+00 5.502726554870605469e+00
1.500000000000000000e+01 1.827909469604492188e+01 -1.863492369651794434e+00 9.823081970214843750e+00 2.186769008636474609e+00 3.602955341339111328e+00 4.156835079193115234e+00
1.600000000000000000e+01 1.810946464538574219e+01 -1.967623591423034668e+00 8.127915382385253906e+00 1.715865969657897949e+00 2.953134298324584961e+00 3.502631664276123047e+00
1.700000000000000000e+01 1.865363121032714844e+01 -1.701776862144470215e+00 1.728101730346679688e+01 1.018089294433593750e+01 8.238573074340820312e+00 1.271236801147460938e+01
1.800000000000000000e+01 1.850751876831054688e+01 -1.836939454078674316e+00 1.279510021209716797e+01 6.560874462127685547e+00 5.806792259216308594e+00 8.362786293029785156e+00
1.900000000000000000e+01 1.836140823364257812e+01 -1.972102046012878418e+00 1.026728630065917969e+01 4.862313747406005859e+00 4.538879871368408203e+00 6.471253395080566406e+00
2.000000000000000000e+01 1.821529769897460938e+01 -2.107264518737792969e+00 8.933574676513671875e+00 4.262757778167724609e+00 3.958899736404418945e+00 5.510949134826660156e+00
2.100000000000000000e+01 1.869729423522949219e+01 -1.740565419197082520e+00 1.547375202178955078e+01 1.732996940612792969e+01 9.841115951538085938e+00 1.449240875244140625e+01
2.200000000000000000e+01 1.858029174804687500e+01 -1.901587009429931641e+00 1.162372970581054688e+01 1.131834888458251953e+01 6.882623672485351562e+00 1.022237968444824219e+01
2.300000000000000000e+01 1.846329116821289062e+01 -2.062608718872070312e+00 9.819920539855957031e+00 9.055280685424804688e+00 5.662560462951660156e+00 8.040393829345703125e+00
2.400000000000000000e+01 1.834628868103027344e+01 -2.223630189895629883e+00 8.439996719360351562e+00 7.262947082519531250e+00 4.710883140563964844e+00 6.868884563446044922e+00
2.500000000000000000e+01 1.874767494201660156e+01 -1.770111203193664551e+00 1.241346073150634766e+01 2.419100952148437500e+01 1.098134136199951172e+01 1.427632904052734375e+01
2.600000000000000000e+01 1.866425895690917969e+01 -1.950829982757568359e+00 1.017835044860839844e+01 1.674374198913574219e+01 8.076627731323242188e+00 1.044605350494384766e+01
2.700000000000000000e+01 1.858084487915039062e+01 -2.131548881530761719e+00 8.214626312255859375e+00 1.327618789672851562e+01 6.447244167327880859e+00 8.657665252685546875e+00
2.800000000000000000e+01 1.849742889404296875e+01 -2.312267541885375977e+00 7.385480403900146484e+00 1.144538021087646484e+01 5.649258136749267578e+00 7.103758811950683594e+00
2.900000000000000000e+01 1.880284309387207031e+01 -1.789283633232116699e+00 1.021735000610351562e+01 3.039131355285644531e+01 1.218259906768798828e+01 1.195227718353271484e+01
3.000000000000000000e+01 1.875620651245117188e+01 -1.982784032821655273e+00 8.182536125183105469e+00 2.157822418212890625e+01 8.928228378295898438e+00 9.327191352844238281e+00
3.100000000000000000e+01 1.870956993103027344e+01 -2.176284313201904297e+00 6.963017940521240234e+00 1.750148582458496094e+01 7.339351177215576172e+00 7.802352905273437500e+00
3.200000000000000000e+01 1.866293334960937500e+01 -2.369784593582153320e+00 5.658209323883056641e+00 1.517883872985839844e+01 6.251114368438720703e+00 6.715367794036865234e+00
3.300000000000000000e+01 1.886068725585937500e+01 -1.797348856925964355e+00 8.784252166748046875e+00 3.482015228271484375e+01 1.308132171630859375e+01 8.196119308471679688e+00
3.400000000000000000e+01 1.885261344909667969e+01 -1.996226191520690918e+00 7.135730266571044922e+00 2.552910995483398438e+01 9.799451828002929688e+00 6.963982582092285156e+00
3.500000000000000000e+01 1.884454154968261719e+01 -2.195103406906127930e+00 5.758852005004882812e+00 2.093777084350585938e+01 8.008987426757812500e+00 5.901078224182128906e+00
3.600000000000000000e+01 1.883646965026855469e+01 -2.393980503082275391e+00 4.795197963714599609e+00 1.806316184997558594e+01 6.857507705688476562e+00 5.227202415466308594e+00
3.700000000000000000e+01 1.891899490356445312e+01 -1.793998479843139648e+00 9.057806015014648438e+00 3.726540374755859375e+01 1.389696311950683594e+01 3.937924385070800781e+00
3.800000000000000000e+01 1.894979476928710938e+01 -1.990642189979553223e+00 6.918189525604248047e+00 2.811496543884277344e+01 1.050994586944580078e+01 3.790682554244995117e+00
3.900000000000000000e+01 1.898059463500976562e+01 -2.187285661697387695e+00 5.537660121917724609e+00 2.320170021057128906e+01 8.621808052062988281e+00 3.294626951217651367e+00
4.000000000000000000e+01 1.901139450073242188e+01 -2.383929491043090820e+00 4.610684394836425781e+00 2.004385185241699219e+01 7.396360874176025391e+00 2.935704708099365234e+00
4.100000000000000000e+01 1.897553634643554688e+01 -1.779360651969909668e+00 1.094324874877929688e+01 3.772994232177734375e+01 1.460195732116699219e+01 -1.579155921936035156e-01
4.200000000000000000e+01 1.904402923583984375e+01 -1.966245651245117188e+00 7.767156124114990234e+00 2.919301033020019531e+01 1.108804988861083984e+01 5.656293630599975586e-01
4.300000000000000000e+01 1.911252212524414062e+01 -2.153130531311035156e+00 6.335741519927978516e+00 2.431466484069824219e+01 9.195121765136718750e+00 3.633119761943817139e-01
4.400000000000000000e+01 1.918101501464843750e+01 -2.340015649795532227e+00 5.332111358642578125e+00 2.076472473144531250e+01 7.829051017761230469e+00 2.780212461948394775e-01
4.500000000000000000e+01 1.902814674377441406e+01 -1.753995299339294434e+00 1.379067420959472656e+01 3.666764068603515625e+01 1.513749408721923828e+01 -3.228508472442626953e+00
4.600000000000000000e+01 1.913171195983886719e+01 -1.923970222473144531e+00 9.825835227966308594e+00 2.891108322143554688e+01 1.162107563018798828e+01 -2.321123600006103516e+00
4.700000000000000000e+01 1.923527717590332031e+01 -2.093945026397705078e+00 7.863203525543212891e+00 2.414167976379394531e+01 9.601465225219726562e+00 -2.135404348373413086e+00
4.800000000000000000e+01 1.933884239196777344e+01 -2.263920068740844727e+00 6.837872028350830078e+00 2.100525474548339844e+01 8.352937698364257812e+00 -2.327710628509521484e+00
4.900000000000000000e+01 1.907481002807617188e+01 -1.718873381614685059e+00 1.750751686096191406e+01 3.455513763427734375e+01 1.561879634857177734e+01 -5.099233627319335938e+00
5.000000000000000000e+01 1.920948410034179688e+01 -1.865433692932128906e+00 1.234103775024414062e+01 2.762012481689453125e+01 1.198834896087646484e+01 -4.122293472290039062e+00
5.100000000000000000e+01 1.934416007995605469e+01 -2.011993885040283203e+00 1.015445423126220703e+01 2.313296890258789062e+01 9.986227035522460938e+00 -4.069312572479248047e+00
5.200000000000000000e+01 1.947883415222167969e+01 -2.158554077148437500e+00 8.662479400634765625e+00 2.027845191955566406e+01 8.682279586791992188e+00 -3.804152488708496094e+00
5.300000000000000000e+01 1.911374282836914062e+01 -1.675338864326477051e+00 2.060241317749023438e+01 3.231316757202148438e+01 1.587467384338378906e+01 -5.602055072784423828e+00
5.400000000000000000e+01 1.927437400817871094e+01 -1.792876005172729492e+00 1.569023418426513672e+01 2.558669853210449219e+01 1.238307952880859375e+01 -4.853668212890625000e+00
5.500000000000000000e+01 1.943500518798828125e+01 -1.910413146018981934e+00 1.218125724792480469e+01 2.179402351379394531e+01 1.019258403778076172e+01 -4.607660293579101562e+00
5.600000000000000000e+01 1.959563636779785156e+01 -2.027950286865234375e+00 1.084799957275390625e+01 1.862694358825683594e+01 8.842482566833496094e+00 -4.685641765594482422e+00
5.700000000000000000e+01 1.914345741271972656e+01 -1.625057458877563477e+00 2.387000083923339844e+01 3.024041938781738281e+01 1.623312568664550781e+01 -4.626459121704101562e+00
5.800000000000000000e+01 1.932389640808105469e+01 -1.709073781967163086e+00 1.794135093688964844e+01 2.366627311706542969e+01 1.248228740692138672e+01 -4.657967567443847656e+00
5.900000000000000000e+01 1.950433731079101562e+01 -1.793089985847473145e+00 1.513287448883056641e+01 2.001176643371582031e+01 1.054339218139648438e+01 -3.896890401840209961e+00
6.000000000000000000e+01 1.968477630615234375e+01 -1.877106308937072754e+00 1.185713577270507812e+01 1.737509346008300781e+01 8.769668579101562500e+00 -4.242713451385498047e+00
6.100000000000000000e+01 1.916281318664550781e+01 -1.569953560829162598e+00 2.565708923339843750e+01 2.868051338195800781e+01 1.630128097534179688e+01 -3.162847757339477539e+00
6.200000000000000000e+01 1.935615539550781250e+01 -1.617233872413635254e+00 2.001946067810058594e+01 2.227653884887695312e+01 1.268879985809326172e+01 -2.968554019927978516e+00
6.300000000000000000e+01 1.954950141906738281e+01 -1.664514183998107910e+00 1.658408355712890625e+01 1.855556297302246094e+01 1.054189395904541016e+01 -2.978112936019897461e+00
6.400000000000000000e+01 1.974284553527832031e+01 -1.711794495582580566e+00 1.451641654968261719e+01 1.643335533142089844e+01 9.284931182861328125e+00 -2.502999305725097656e+00
6.500000000000000000e+01 1.917107009887695312e+01 -1.512135744094848633e+00 2.647832870483398438e+01 2.779748153686523438e+01 1.628274345397949219e+01 -8.052830696105957031e-01
6.600000000000000000e+01 1.936991882324218750e+01 -1.520870804786682129e+00 2.074092483520507812e+01 2.188843345642089844e+01 1.278880691528320312e+01 -1.107231259346008301e+00
6.700000000000000000e+01 1.956876945495605469e+01 -1.529605865478515625e+00 1.734291458129882812e+01 1.773709869384765625e+01 1.052400398254394531e+01 -1.058737874031066895e+00
6.800000000000000000e+01 1.976761817932128906e+01 -1.538341045379638672e+00 1.522478675842285156e+01 1.617399597167968750e+01 9.419634819030761719e+00 -1.300948023796081543e+00
6.900000000000000000e+01 1.916791343688964844e+01 -1.453816413879394531e+00 2.618657493591308594e+01 2.857283973693847656e+01 1.642782402038574219e+01 1.237100362777709961e+00
7.000000000000000000e+01 1.936465835571289062e+01 -1.423672080039978027e+00 2.018017768859863281e+01 2.170410156250000000e+01 1.256528377532958984e+01 1.370128035545349121e+00
7.100000000000000000e+01 1.956140327453613281e+01 -1.393527746200561523e+00 1.682136535644531250e+01 1.878616142272949219e+01 1.068225860595703125e+01 4.352952241897583008e-01
7.200000000000000000e+01 1.975815010070800781e+01 -1.363383293151855469e+00 1.415329742431640625e+01 1.553362464904785156e+01 8.906076431274414062e+00 8.042804598808288574e-01
7.300000000000000000e+01 1.915346527099609375e+01 -1.397227525711059570e+00 2.416691207885742188e+01 2.960710525512695312e+01 1.613220405578613281e+01 3.737212657928466797e+00
7.400000000000000000e+01 1.934057617187500000e+01 -1.329357266426086426e+00 1.868363952636718750e+01 2.325596809387207031e+01 1.258188247680664062e+01 2.607622385025024414e+00
7.500000000000000000e+01 1.952768898010253906e+01 -1.261486887931823730e+00 1.486546993255615234e+01 1.964898300170898438e+01 1.035433578491210938e+01 2.604198932647705078e+00
7.600000000000000000e+01 1.971480178833007812e+01 -1.193616628646850586e+00 1.304425907135009766e+01 1.699805259704589844e+01 9.012693405151367188e+00 1.599879860877990723e+00
7.700000000000000000e+01 1.912827491760253906e+01 -1.344534516334533691e+00 2.174899864196777344e+01 3.139522552490234375e+01 1.594326686859130859e+01 4.806317329406738281e+00
7.800000000000000000e+01 1.929859352111816406e+01 -1.241535425186157227e+00 1.548072052001953125e+01 2.558065032958984375e+01 1.231841087341308594e+01 3.825541496276855469e+00
7.900000000000000000e+01 1.946891212463378906e+01 -1.138536453247070312e+00 1.290674400329589844e+01 2.089182853698730469e+01 1.013957214355468750e+01 2.986389160156250000e+00
8.000000000000000000e+01 1.963923072814941406e+01 -1.035537362098693848e+00 1.041411876678466797e+01 1.905691528320312500e+01 8.841310501098632812e+00 2.773115634918212891e+00
8.100000000000000000e+01 1.909330940246582031e+01 -1.297753572463989258e+00 1.785330581665039062e+01 3.434141159057617188e+01 1.565841579437255859e+01 5.021767139434814453e+00
8.200000000000000000e+01 1.924031639099121094e+01 -1.163567304611206055e+00 1.254171657562255859e+01 2.731720733642578125e+01 1.195767688751220703e+01 3.744072198867797852e+00
8.300000000000000000e+01 1.938732528686523438e+01 -1.029381036758422852e+00 9.569543838500976562e+00 2.353587341308593750e+01 9.931625366210937500e+00 2.542692184448242188e+00
8.400000000000000000e+01 1.953433227539062500e+01 -8.951947093009948730e-01 8.060669898986816406e+00 1.957000732421875000e+01 8.289203643798828125e+00 2.380180597305297852e+00
8.500000000000000000e+01 1.904990386962890625e+01 -1.258675098419189453e+00 1.407718086242675781e+01 3.674264526367187500e+01 1.524594688415527344e+01 3.898560762405395508e+00
8.600000000000000000e+01 1.916797637939453125e+01 -1.098436474800109863e+00 9.066156387329101562e+00 2.928800010681152344e+01 1.150624656677246094e+01 2.210889101028442383e+00
8.700000000000000000e+01 1.928604698181152344e+01 -9.381977915763854980e-01 6.863619327545166016e+00 2.503675270080566406e+01 9.570111274719238281e+00 1.523198962211608887e+00
8.800000000000000000e+01 1.940411949157714844e+01 -7.779591679573059082e-01 5.156840324401855469e+00 2.184069061279296875e+01 8.099259376525878906e+00 6.539221405982971191e-01
8.900000000000000000e+01 1.899972152709960938e+01 -1.228794336318969727e+00 1.003196811676025391e+01 3.839966964721679688e+01 1.452949047088623047e+01 1.332998275756835938e+00
9.000000000000000000e+01 1.908433914184570312e+01 -1.048635244369506836e+00 6.746642589569091797e+00 3.040351867675781250e+01 1.114504814147949219e+01 -2.977663278579711914e-01
9.100000000000000000e+01 1.916895484924316406e+01 -8.684762120246887207e-01 4.112855434417724609e+00 2.557669639587402344e+01 8.906866073608398438e+00 -6.240816712379455566e-01
9.200000000000000000e+01 1.925357246398925781e+01 -6.883171200752258301e-01 3.705218315124511719e+00 2.319517135620117188e+01 8.070116996765136719e+00 -9.183634519577026367e-01
9.300000000000000000e+01 1.894468307495117188e+01 -1.209254980087280273e+00 7.939893722534179688e+00 3.896302032470703125e+01 1.407087326049804688e+01 -2.524906396865844727e+00
9.400000000000000000e+01 1.899260711669921875e+01 -1.016069531440734863e+00 4.386184215545654297e+00 2.988624572753906250e+01 1.028172874450683594e+01 -3.396223068237304688e+00
9.500000000000000000e+01 1.904053115844726562e+01 -8.228841423988342285e-01 3.379849672317504883e+00 2.532029724121093750e+01 8.610044479370117188e+00 -3.308681011199951172e+00
9.600000000000000000e+01 1.908845520019531250e+01 -6.296987533569335938e-01 1.742172956466674805e+00 2.189778709411621094e+01 7.091987609863281250e+00 -3.438266515731811523e+00
9.700000000000000000e+01 1.888689422607421875e+01 -1.200804471969604492e+00 6.345939636230468750e+00 3.730613327026367188e+01 1.309562206268310547e+01 -7.047712802886962891e+00
9.800000000000000000e+01 1.889629173278808594e+01 -1.001985430717468262e+00 4.226634025573730469e+00 2.800123786926269531e+01 9.668361663818359375e+00 -6.575845718383789062e+00
9.900000000000000000e+01 1.890568923950195312e+01 -8.031663894653320312e-01 2.703760623931884766e+00 2.318439865112304688e+01 7.766448020935058594e+00 -6.150576114654541016e+00
1.000000000000000000e+02 1.891508674621582031e+01 -6.043473482131958008e-01 1.492462754249572754e+00 2.064451599121093750e+01 6.641093730926513672e+00 -5.717059612274169922e+00
1.010000000000000000e+02 1.882856369018554688e+01 -1.203766345977783203e+00 6.766343593597412109e+00 3.357731628417968750e+01 1.210309791564941406e+01 -1.114133930206298828e+01
1.020000000000000000e+02 1.879907608032226562e+01 -1.006921887397766113e+00 4.965580463409423828e+00 2.431672477722167969e+01 8.784691810607910156e+00 -9.410646438598632812e+00
1.030000000000000000e+02 1.876958656311035156e+01 -8.100774288177490234e-01 3.117674350738525391e+00 2.005874252319335938e+01 6.952924728393554688e+00 -8.354225158691406250e+00
1.040000000000000000e+02 1.874009704589843750e+01 -6.132329106330871582e-01 2.457478761672973633e+00 1.758545112609863281e+01 6.012878894805908203e+00 -7.220197200775146484e+00
1.050000000000000000e+02 1.877192687988281250e+01 -1.218027234077453613e+00 9.047292709350585938e+00 2.787920379638671875e+01 1.107794952392578125e+01 -1.417748165130615234e+01
1.060000000000000000e+02 1.870468139648437500e+01 -1.030689954757690430e+00 6.104928493499755859e+00 1.932356262207031250e+01 7.628547191619873047e+00 -1.117197036743164062e+01
1.070000000000000000e+02 1.863743400573730469e+01 -8.433527946472167969e-01 4.728552818298339844e+00 1.591197586059570312e+01 6.192158699035644531e+00 -9.297387123107910156e+00
1.080000000000000000e+02 1.857018661499023438e+01 -6.560155153274536133e-01 3.329550027847290039e+00 1.337373161315917969e+01 5.010984420776367188e+00 -8.471135139465332031e+00
1.090000000000000000e+02 1.871915054321289062e+01 -1.243041396141052246e+00 1.131529712677001953e+01 2.037771797180175781e+01 9.507905006408691406e+00 -1.544064140319824219e+01
1.100000000000000000e+02 1.861672019958496094e+01 -1.072380185127258301e+00 8.246882438659667969e+00 1.391176700592041016e+01 6.647594928741455078e+00 -1.116641139984130859e+01
1.110000000000000000e+02 1.851428794860839844e+01 -9.017190933227539062e-01 5.819658756256103516e+00 1.087727451324462891e+01 5.009079933166503906e+00 -9.259335517883300781e+00
1.120000000000000000e+02 1.841185569763183594e+01 -7.310580015182495117e-01 4.519787788391113281e+00 9.801883697509765625e+00 4.296501636505126953e+00 -8.115283012390136719e+00
1.130000000000000000e+02 1.867225265502929688e+01 -1.277851581573486328e+00 1.419409847259521484e+01 1.281836605072021484e+01 8.103739738464355469e+00 -1.411991405487060547e+01
1.140000000000000000e+02 1.853855705261230469e+01 -1.130397200584411621e+00 9.042407035827636719e+00 7.986479282379150391e+00 5.108665943145751953e+00 -9.647374153137207031e+00
1.150000000000000000e+02 1.840486145019531250e+01 -9.829429388046264648e-01 6.923715114593505859e+00 6.866343021392822266e+00 4.137017250061035156e+00 -7.711212158203125000e+00
1.160000000000000000e+02 1.827116584777832031e+01 -8.354886174201965332e-01 4.875541210174560547e+00 5.695541858673095703e+00 3.171324968338012695e+00 -6.715110301971435547e+00
1.170000000000000000e+02 1.863302993774414062e+01 -1.321125745773315430e+00 1.457519435882568359e+01 5.197192192077636719e+00 5.931715965270996094e+00 -1.061657619476318359e+01
1.180000000000000000e+02 1.847318649291992188e+01 -1.202520847320556641e+00 9.246080398559570312e+00 3.613167524337768555e+00 3.857774496078491211e+00 -6.512846946716308594e+00
1.190000000000000000e+02 1.831334114074707031e+01 -1.083916068077087402e+00 5.999883174896240234e+00 3.271647930145263672e+00 2.781459331512451172e+00 -5.199379920959472656e+00
1.200000000000000000e+02 1.815349769592285156e+01 -9.653112292289733887e-01 4.823078155517578125e+00 3.344432353973388672e+00 2.450253248214721680e+00 -4.859529495239257812e+00
1.210000000000000000e+02 1.860298347473144531e+01 -1.371207952499389648e+00 1.286511611938476562e+01 -6.875270605087280273e-01 3.653276681900024414e+00 -4.801311492919921875e+00
1.220000000000000000e+02 1.842310523986816406e+01 -1.285991191864013672e+00 5.864405155181884766e+00 1.082077145576477051e+00 2.083944559097290039e+00 -2.755287170410156250e+00
1.230000000000000000e+02 1.824322891235351562e+01 -1.200774550437927246e+00 4.723442554473876953e+00 1.762114405632019043e+00 1.945667147636413574e+00 -3.136409044265747070e+00
1.240000000000000000e+02 1.806335258483886719e+01 -1.115557789802551270e+00 3.104985713958740234e+00 8.452141284942626953e-01 1.185059905052185059e+00 -2.382576227188110352e+00
1.250000000000000000e+02 1.858325958251953125e+01 -1.426181674003601074e+00 2.383256435394287109e+00 -2.668643712997436523e+00 -8.561615645885467529e-02 1.127403020858764648e+00
1.260000000000000000e+02 1.839023590087890625e+01 -1.377614021301269531e+00 3.422913074493408203e+00 1.303679704666137695e+00 1.417977929115295410e+00 -1.414270758628845215e+00
1.270000000000000000e+02 1.819721031188964844e+01 -1.329046487808227539e+00 1.586938500404357910e+00 -2.568114399909973145e-01 3.990381062030792236e-01 -5.991079807281494141e-01
1.280000000000000000e+02 1.800418472290039062e+01 -1.280478835105895996e+00 6.205956935882568359e-01 3.712945282459259033e-01 2.975670695304870605e-01 -5.152526497840881348e-01
1.290000000000000000e+02 1.741258621215820312e+01 -2.649863243103027344e+00 5.416733741760253906e+00 1.734686851501464844e+00 2.145426273345947266e+00 3.135676383972167969e+00
1.300000000000000000e+02 1.859150505065917969e+01 -2.848007917404174805e+00 4.590189456939697266e+00 1.014893531799316406e+01 4.421737670898437500e+00 4.926202297210693359e+00
1.310000000000000000e+02 2.000198173522949219e+01 -1.797252416610717773e+00 1.148519229888916016e+01 1.342451667785644531e+01 7.472912788391113281e+00 -3.235648632049560547e+00
1.320000000000000000e+02 1.996021652221679688e+01 -1.321163654327392578e+00 1.370465564727783203e+01 1.416199111938476562e+01 8.359993934631347656e+00 5.805212855339050293e-01
1.330000000000000000e+02 1.850435066223144531e+01 -4.638652801513671875e-01 2.431792974472045898e+00 1.244670486450195312e+01 4.463549613952636719e+00 -7.616251945495605469e+00
1.340000000000000000e+02 1.758811950683593750e+01 6.271305680274963379e-02 9.688186049461364746e-01 4.817271709442138672e+00 1.735827088356018066e+00 -4.734260082244873047e+00
1.350000000000000000e+02 1.915390396118164062e+01 -4.243759512901306152e-01 7.152193784713745117e-01 2.067085266113281250e+01 6.415821552276611328e+00 -3.138426303863525391e+00
1.360000000000000000e+02 1.907391548156738281e+01 -2.557481527328491211e+00 4.029454231262207031e+00 1.742814064025878906e+01 6.437278270721435547e+00 2.903992414474487305e+00
1.370000000000000000e+02 1.594892597198486328e+01 -2.466370344161987305e+00 2.446447134017944336e+00 4.067378491163253784e-02 7.461363077163696289e-01 1.034761548042297363e+00
1.380000000000000000e+02 1.638407135009765625e+01 -2.484832286834716797e+00 3.191818475723266602e+00 1.777384877204895020e-01 1.010867118835449219e+00 1.245809793472290039e+00
1.390000000000000000e+02 1.582439613342285156e+01 -2.288401842117309570e+00 2.024183511734008789e+00 6.704314798116683960e-02 6.273680329322814941e-01 8.091374039649963379e-01
1.400000000000000000e+02 1.720046234130859375e+01 -2.609839677810668945e+00 4.971914291381835938e+00 1.289295673370361328e+00 1.878362894058227539e+00 2.582369327545166016e+00
1.410000000000000000e+02 1.784239578247070312e+01 -1.886394500732421875e+00 5.826601028442382812e+00 3.595618605613708496e-01 1.855848789215087891e+00 1.517987608909606934e+00
1.420000000000000000e+02 1.760794448852539062e+01 -2.712572097778320312e+00 5.670890331268310547e+00 2.864213705062866211e+00 2.560531377792358398e+00 3.827654123306274414e+00
1.430000000000000000e+02 1.715460777282714844e+01 -1.405675530433654785e+00 3.654351830482482910e-01 8.580071851611137390e-03 1.122045740485191345e-01 -5.476093851029872894e-03
1.440000000000000000e+02 1.622542762756347656e+01 2.830875813961029053e-01 -8.176084756851196289e-01 1.760065197944641113e+00 2.827370166778564453e-01 -1.782231450080871582e+00
1.450000000000000000e+02 1.642181777954101562e+01 2.445519417524337769e-01 -5.971441268920898438e-01 1.693335056304931641e+00 3.288573026657104492e-01 -1.997339844703674316e+00
1.460000000000000000e+02 1.663355064392089844e+01 -7.410106658935546875e-01 -2.001597166061401367e+00 2.959133088588714600e-01 -5.117051601409912109e-01 -3.869965374469757080e-01
1.470000000000000000e+02 1.646663475036621094e+01 -3.438904285430908203e-01 -1.264874219894409180e+00 8.328693509101867676e-01 -1.296014338731765747e-01 -1.059554934501647949e+00
1.480000000000000000e+02 1.611281394958496094e+01 -5.302087068557739258e-01 -2.272233009338378906e+00 3.393916189670562744e-01 -5.798524022102355957e-01 -2.584963440895080566e-01
1.490000000000000000e+02 1.698154640197753906e+01 -1.266638487577438354e-01 2.223248928785324097e-01 2.025754213333129883e+00 6.744236946105957031e-01 -2.649358987808227539e+00
1.500000000000000000e+02 1.602324676513671875e+01 -9.638561010360717773e-01 -3.877108812332153320e+00 -4.235765710473060608e-02 -1.175839900970458984e+00 5.820013284683227539e-01
1.510000000000000000e+02 1.661394119262695312e+01 -1.024788022041320801e+00 -3.199190855026245117e+00 3.892169892787933350e-02 -9.480807185173034668e-01 2.857592403888702393e-01
1.520000000000000000e+02 1.606175231933593750e+01 -7.500804662704467773e-01 -3.315952301025390625e+00 1.694093495607376099e-01 -9.439628720283508301e-01 2.027901262044906616e-01
1.530000000000000000e+02 1.725755310058593750e+01 -8.220321536064147949e-01 -2.319914549589157104e-01 6.074111461639404297e-01 1.126259118318557739e-01 -1.244269847869873047e+00
1.540000000000000000e+02 1.752713584899902344e+01 -2.121419459581375122e-01 1.357312202453613281e+00 3.504771709442138672e+00 1.458625197410583496e+00 -4.193653583526611328e+00
1.550000000000000000e+02 1.681186294555664062e+01 -1.050863862037658691e+00 -2.848503828048706055e+00 4.252919554710388184e-02 -8.417923450469970703e-01 1.749194264411926270e-01
1.560000000000000000e+02 1.780970573425292969e+01 -1.228381991386413574e+00 -2.233387380838394165e-01 -5.142626818269491196e-03 -6.854441016912460327e-02 -3.883190751075744629e-01
1.570000000000000000e+02 1.971869087219238281e+01 -7.915615439414978027e-01 7.936591148376464844e+00 1.858985137939453125e+01 7.957932949066162109e+00 2.843209028244018555e+00
1.580000000000000000e+02 1.961965370178222656e+01 -5.883561372756958008e-01 4.496170997619628906e+00 1.790719985961914062e+01 6.721011638641357422e+00 3.767537772655487061e-01
1.590000000000000000e+02 1.896272277832031250e+01 -1.252211779356002808e-01 4.045731723308563232e-01 1.554876613616943359e+01 4.786001682281494141e+00 -5.277709484100341797e+00
1.600000000000000000e+02 1.870893287658691406e+01 -4.006273746490478516e-01 1.420719027519226074e+00 1.513786792755126953e+01 4.967576026916503906e+00 -7.024289131164550781e+00
1.610000000000000000e+02 1.776997184753417969e+01 -1.463367223739624023e+00 7.185062766075134277e-01 -1.441810280084609985e-01 1.722975820302963257e-01 -1.018348410725593567e-01
1.620000000000000000e+02 1.735188102722167969e+01 -1.423522233963012695e+00 4.711768627166748047e-01 2.585870027542114258e-02 1.491106748580932617e-01 2.749319933354854584e-02
1.630000000000000000e+02 1.792853355407714844e+01 -2.074283123016357422e+00 7.286174297332763672e+00 1.712185740470886230e+00 2.699507951736450195e+00 3.195161581039428711e+00
1.640000000000000000e+02 1.817922782897949219e+01 -2.364100694656372070e+00 7.587592601776123047e+00 5.989035129547119141e+00 4.072988510131835938e+00 6.013826847076416016e+00
1.650000000000000000e+02 1.863091850280761719e+01 -2.596428871154785156e+00 5.331102848052978516e+00 1.322705364227294922e+01 5.567446708679199219e+00 5.111881732940673828e+00
1.660000000000000000e+02 1.942400550842285156e+01 -2.425869941711425781e+00 5.718425750732421875e+00 1.913418579101562500e+01 7.455783843994140625e+00 -1.611037850379943848e+00
1.670000000000000000e+02 1.614076614379882812e+01 -1.453233718872070312e+00 5.057771801948547363e-01 -5.820656940340995789e-02 1.342711895704269409e-01 9.537234157323837280e-02
1.680000000000000000e+02 1.637412834167480469e+01 -1.273163437843322754e+00 4.277938976883888245e-02 -2.824992500245571136e-02 4.358838777989149094e-03 4.308486729860305786e-02
1.690000000000000000e+02 1.598179435729980469e+01 -1.213008046150207520e+00 -1.185671687126159668e-01 -1.081789433956146240e-01 -6.802383065223693848e-02 7.368934154510498047e-02
1.700000000000000000e+02 1.892921066284179688e+01 -3.776425421237945557e-01 1.073765993118286133e+00 1.815913200378417969e+01 5.769869327545166016e+00 -4.743786811828613281e+00
1.710000000000000000e+02 1.840285110473632812e+01 -3.610283136367797852e-02 7.416974902153015137e-01 1.111964797973632812e+01 3.558403730392456055e+00 -6.489053249359130859e+00
1.720000000000000000e+02 1.942872810363769531e+01 -4.716614782810211182e-01 1.899191617965698242e+00 1.911524391174316406e+01 6.304330348968505859e+00 -1.090210199356079102e+00
1.730000000000000000e+02 1.798668479919433594e+01 -1.525926217436790466e-02 1.311194062232971191e+00 7.107973098754882812e+00 2.525750160217285156e+00 -5.935602188110351562e+00
1.740000000000000000e+02 1.993071365356445312e+01 -6.923429965972900391e-01 6.589465618133544922e+00 1.584969234466552734e+01 6.731747627258300781e+00 1.734666705131530762e+00
1.750000000000000000e+02 1.989021301269531250e+01 -1.126143455505371094e+00 1.165310955047607422e+01 1.493100166320800781e+01 7.975233078002929688e+00 6.661805510520935059e-01
1.760000000000000000e+02 2.002867317199707031e+01 -9.992094635963439941e-01 8.636142730712890625e+00 1.415641117095947266e+01 6.837766170501708984e+00 7.182868719100952148e-01
1.770000000000000000e+02 1.859150314331054688e+01 -3.519038483500480652e-02 4.608767032623291016e-01 1.235883998870849609e+01 3.845914840698242188e+00 -6.469371318817138672e+00
1.780000000000000000e+02 1.864049720764160156e+01 -2.063794136047363281e-01 8.892572522163391113e-01 1.422212982177734375e+01 4.533416271209716797e+00 -6.601524829864501953e+00
1.790000000000000000e+02 1.778260803222656250e+01 2.985348924994468689e-02 1.141728281974792480e+00 5.806793212890625000e+00 2.084556579589843750e+00 -5.366090297698974609e+00
1.800000000000000000e+02 1.818898010253906250e+01 -2.799659490585327148e+00 5.680976390838623047e+00 7.460580348968505859e+00 3.942466974258422852e+00 5.541575431823730469e+00
1.810000000000000000e+02 1.974489784240722656e+01 -2.543885469436645508e+00 5.575217723846435547e+00 1.603498840332031250e+01 6.483061790466308594e+00 -3.177638769149780273e+00
1.820000000000000000e+02 1.838727188110351562e+01 -2.818369388580322266e+00 4.943069458007812500e+00 9.652229309082031250e+00 4.378589630126953125e+00 5.686676502227783203e+00
1.830000000000000000e+02 1.949309158325195312e+01 -2.606947898864746094e+00 5.026717185974121094e+00 1.624509811401367188e+01 6.381544589996337891e+00 -1.860000610351562500e+00
1.840000000000000000e+02 1.843465614318847656e+01 -2.549107551574707031e+00 6.296806335449218750e+00 9.585831642150878906e+00 4.764791488647460938e+00 6.523950576782226562e+00
1.850000000000000000e+02 2.004472160339355469e+01 -1.556051135063171387e+00 1.163442134857177734e+01 1.309777450561523438e+01 7.419658660888671875e+00 -1.258579850196838379e+00
1.860000000000000000e+02 2.006272125244140625e+01 -2.117888927459716797e+00 9.994688987731933594e+00 1.293940258026123047e+01 6.880227565765380859e+00 -3.972456216812133789e+00
1.870000000000000000e+02 1.819774818420410156e+01 -4.002733528614044189e-02 1.254619956016540527e+00 8.507526397705078125e+00 2.928643941879272461e+00 -6.455137729644775391e+00
1.880000000000000000e+02 1.681095695495605469e+01 1.714134961366653442e-01 -2.737085893750190735e-02 2.443311214447021484e+00 7.247821092605590820e-01 -2.794239521026611328e+00
1.890000000000000000e+02 1.661620712280273438e+01 2.056183964014053345e-01 -2.641171216964721680e-01 2.102194547653198242e+00 5.514232516288757324e-01 -2.406265735626220703e+00
1.900000000000000000e+02 1.618961524963378906e+01 6.802123785018920898e-02 -1.179159998893737793e+00 1.207201004028320312e+00 8.412295021116733551e-03 -1.225354433059692383e+00
1.910000000000000000e+02 1.614272689819335938e+01 -1.321314424276351929e-01 -1.426041245460510254e+00 7.475813627243041992e-01 -2.035379558801651001e-01 -9.742064476013183594e-01
1.920000000000000000e+02 1.676987838745117188e+01 -1.205191239714622498e-01 -2.312660664319992065e-01 1.621293425559997559e+00 4.170081913471221924e-01 -2.149158716201782227e+00
1.930000000000000000e+02 1.637766456604003906e+01 7.752863690257072449e-03 -8.282774090766906738e-01 1.300935149192810059e+00 1.417973488569259644e-01 -1.635095953941345215e+00
1.940000000000000000e+02 1.721488571166992188e+01 -1.106021761894226074e+00 -1.953134179115295410e+00 1.578262150287628174e-01 -5.385923981666564941e-01 -7.404392957687377930e-02
1.950000000000000000e+02 1.741469192504882812e+01 -1.135540843009948730e+00 -1.416458606719970703e+00 3.475858597084879875e-03 -4.238948225975036621e-01 -1.856841146945953369e-01
1.960000000000000000e+02 1.823445320129394531e+01 -3.171607553958892822e-01 2.321138143539428711e+00 8.770549774169921875e+00 3.327506542205810547e+00 -6.879645824432373047e+00
1.970000000000000000e+02 1.787926292419433594e+01 -1.018356204032897949e+00 2.228638648986816406e+00 1.201165318489074707e+00 1.028941154479980469e+00 -2.259016990661621094e+00
1.980000000000000000e+02 1.798971939086914062e+01 -8.217557668685913086e-01 3.387287378311157227e+00 2.708615064620971680e+00 1.828770756721496582e+00 -4.319025993347167969e+00
1.990000000000000000e+02 1.695867156982421875e+01 -1.377472758293151855e+00 3.089638948440551758e-01 -2.348163723945617676e-02 8.564466983079910278e-02 -6.778680835850536823e-04
2.000000000000000000e+02 1.656702232360839844e+01 -1.306559324264526367e+00 1.400215327739715576e-01 8.273721672594547272e-03 4.448857903480529785e-02 4.374372214078903198e-02
2.010000000000000000e+02 1.678970909118652344e+01 -2.573054313659667969e+00 4.110754013061523438e+00 5.662108063697814941e-01 1.403089404106140137e+00 1.823168158531188965e+00
2.020000000000000000e+02 1.683780479431152344e+01 -2.304710149765014648e+00 3.800581932067871094e+00 2.522158324718475342e-01 1.215839266777038574e+00 1.323093414306640625e+00
2.030000000000000000e+02 1.779670143127441406e+01 -2.759688138961791992e+00 5.805786609649658203e+00 3.645072221755981445e+00 2.835257768630981445e+00 4.476988315582275391e+00
2.040000000000000000e+02 1.798956108093261719e+01 -2.787117958068847656e+00 5.898563385009765625e+00 5.593093872070312500e+00 3.447497129440307617e+00 5.212034702301025391e+00
2.050000000000000000e+02 1.802735519409179688e+01 -2.605801105499267578e+00 6.493662834167480469e+00 4.925262451171875000e+00 3.425677776336669922e+00 5.159152507781982422e+00
2.060000000000000000e+02 1.587990856170654297e+01 -2.076889991760253906e+00 1.784700155258178711e+00 -2.576918341219425201e-02 5.276793241500854492e-01 5.235849022865295410e-01
2.070000000000000000e+02 1.659085464477539062e+01 -2.541480302810668945e+00 3.706767797470092773e+00 3.400413990020751953e-01 1.214042782783508301e+00 1.529208779335021973e+00
2.080000000000000000e+02 1.709241485595703125e+01 -1.702313661575317383e+00 2.131200313568115234e+00 -2.263194136321544647e-02 6.325705051422119141e-01 2.106473147869110107e-01
2.090000000000000000e+02 1.625375556945800781e+01 -7.762373685836791992e-01 -2.954608201980590820e+00 9.285250306129455566e-02 -8.585266470909118652e-01 1.024569943547248840e-01
2.100000000000000000e+02 1.641801261901855469e+01 -1.007877349853515625e+00 -3.500648975372314453e+00 -1.947142556309700012e-02 -1.056036114692687988e+00 3.716607689857482910e-01
2.110000000000000000e+02 1.629204750061035156e+01 -2.146488279104232788e-01 -1.507547736167907715e+00 8.018679022789001465e-01 -2.117039263248443604e-01 -9.778033494949340820e-01
2.120000000000000000e+02 1.632454490661621094e+01 -1.494994163513183594e+00 6.883002519607543945e-01 1.465987786650657654e-02 2.108880281448364258e-01 6.523280590772628784e-02
2.130000000000000000e+02 1.609780120849609375e+01 -1.653046011924743652e+00 9.641396999359130859e-01 -7.975593209266662598e-02 2.653151452541351318e-01 1.814221143722534180e-01
2.140000000000000000e+02 1.591413784027099609e+01 -1.630927443504333496e+00 8.636931180953979492e-01 -7.876917719841003418e-02 2.354771792888641357e-01 1.282161474227905273e-01
2.150000000000000000e+02 1.778654670715332031e+01 -1.678860902786254883e+00 3.426211595535278320e+00 1.103823184967041016e-01 1.060978174209594727e+00 3.947766423225402832e-01
2.160000000000000000e+02 1.755665969848632812e+01 -1.447742104530334473e+00 6.513493657112121582e-01 -5.456706043332815170e-03 1.937678009271621704e-01 4.203941673040390015e-02
2.170000000000000000e+02 1.831814193725585938e+01 -5.440156459808349609e-01 3.346584320068359375e+00 8.673794746398925781e+00 3.606113672256469727e+00 -7.462423801422119141e+00
2.180000000000000000e+02 1.814222908020019531e+01 -6.592320203781127930e-01 3.791716814041137695e+00 5.940525531768798828e+00 2.919672727584838867e+00 -6.317989349365234375e+00
2.190000000000000000e+02 1.676190376281738281e+01 -1.341756105422973633e+00 2.382796406745910645e-01 -2.329934760928153992e-02 6.449408829212188721e-02 3.118970617651939392e-02
2.200000000000000000e+02 1.722763824462890625e+01 -2.310616254806518555e+00 4.790937423706054688e+00 6.431826949119567871e-01 1.630236148834228516e+00 1.913912057876586914e+00
2.210000000000000000e+02 1.722919654846191406e+01 -2.045874118804931641e+00 4.011800765991210938e+00 1.653192639350891113e-01 1.253136038780212402e+00 9.840756058692932129e-01
2.220000000000000000e+02 1.615729522705078125e+01 -2.444670200347900391e+00 2.787094831466674805e+00 1.000268757343292236e-01 8.661364912986755371e-01 1.100616455078125000e+00
2.230000000000000000e+02 1.665139007568359375e+01 -2.284397840499877930e+00 3.268871784210205078e+00 1.953912526369094849e-01 1.039278864860534668e+00 1.093491077423095703e+00
2.240000000000000000e+02 1.686165237426757812e+01 -2.051231861114501953e+00 3.083830833435058594e+00 8.800025284290313721e-02 9.515493512153625488e-01 7.279039025306701660e-01
2.250000000000000000e+02 1.787891197204589844e+01 -2.350363492965698242e+00 7.014501094818115234e+00 3.052982091903686523e+00 3.020245075225830078e+00 4.163352012634277344e+00
2.260000000000000000e+02 1.614430046081542969e+01 -2.099288702011108398e+00 2.103385925292968750e+00 -1.012452691793441772e-02 6.279783844947814941e-01 6.095737218856811523e-01
2.270000000000000000e+02 1.749730110168457031e+01 -5.194404125213623047e-01 1.299414396286010742e+00 2.200925350189208984e+00 1.050101876258850098e+00 -3.192835330963134766e+00
2.280000000000000000e+02 1.730043601989746094e+01 -1.680937170982360840e+00 2.328749895095825195e+00 -2.325067110359668732e-02 6.916497945785522461e-01 1.449152827262878418e-01
2.290000000000000000e+02 1.752386474609375000e+01 -1.970688462257385254e+00 4.482494831085205078e+00 2.645588815212249756e-01 1.424116134643554688e+00 1.164769411087036133e+00
2.300000000000000000e+02 1.805287361145019531e+01 -2.229446649551391602e+00 7.753126144409179688e+00 3.378897905349731445e+00 3.339607238769531250e+00 4.753090381622314453e+00
2.310000000000000000e+02 1.739712333679199219e+01 9.872275590896606445e-02 8.502891063690185547e-01 3.915081739425659180e+00 1.429611206054687500e+00 -4.266013145446777344e+00
2.320000000000000000e+02 1.747138214111328125e+01 -8.395957946777343750e-01 5.974587202072143555e-01 9.746321439743041992e-01 4.716272652149200439e-01 -1.761073946952819824e+00
2.330000000000000000e+02 1.656637573242187500e+01 -6.221438571810722351e-02 -6.288318634033203125e-01 1.398626327514648438e+00 2.309383153915405273e-01 -1.783101081848144531e+00
2.340000000000000000e+02 1.641822624206542969e+01 -1.783329010009765625e+00 1.608747720718383789e+00 1.115408027544617653e-03 4.829589426517486572e-01 2.556647360324859619e-01
2.350000000000000000e+02 1.684217834472656250e+01 -7.772533297538757324e-01 -1.592697024345397949e+00 4.146895110607147217e-01 -3.534022569656372070e-01 -5.799857378005981445e-01
2.360000000000000000e+02 1.669118118286132812e+01 -1.590148925781250000e+00 1.150584578514099121e+00 -4.150845052208751440e-04 3.450508713722229004e-01 1.036803871393203735e-01
2.370000000000000000e+02 1.772429847717285156e+01 -2.507420301437377930e+00 6.205470561981201172e+00 2.454026937484741211e+00 2.597849130630493164e+00 3.835180997848510742e+00
2.380000000000000000e+02 1.660734939575195312e+01 -1.819038510322570801e+00 2.008665084838867188e+00 -3.187806531786918640e-02 5.930361151695251465e-01 3.030027747154235840e-01
2.390000000000000000e+02 1.643357467651367188e+01 -7.601687908172607422e-01 -2.433643817901611328e+00 2.841898500919342041e-01 -6.448361873626708984e-01 -1.468549817800521851e-01
2.400000000000000000e+02 1.791774940490722656e+01 -2.741914689540863037e-01 2.069226980209350586e+00 5.838321685791015625e+00 2.372264623641967773e+00 -5.795514583587646484e+00
2.410000000000000000e+02 1.705133819580078125e+01 -2.016935110092163086e+00 3.450700998306274414e+00 1.330511122941970825e-01 1.075125575065612793e+00 8.020275831222534180e-01
2.420000000000000000e+02 1.766761589050292969e+01 -1.930584788322448730e+00 5.157489299774169922e+00 5.032077431678771973e-01 1.698209166526794434e+00 1.466475605964660645e+00
2.430000000000000000e+02 1.610614776611328125e+01 -1.842438817024230957e+00 1.538667082786560059e+00 -7.174850255250930786e-02 4.400755763053894043e-01 2.416933178901672363e-01
2.440000000000000000e+02 1.707141494750976562e+01 -5.611827969551086426e-01 -2.042921930551528931e-01 9.664089679718017578e-01 2.286350280046463013e-01 -1.629547595977783203e+00
2.450000000000000000e+02 1.780769729614257812e+01 -6.839205622673034668e-01 2.484407663345336914e+00 2.872025251388549805e+00 1.606929898262023926e+00 -4.027513980865478516e+00
2.460000000000000000e+02 1.756060028076171875e+01 -2.401669025421142578e+00 5.837529659271240234e+00 1.677146434783935547e+00 2.254402875900268555e+00 3.014513015747070312e+00
2.470000000000000000e+02 1.577020072937011719e+01 -2.471022367477416992e+00 2.269843816757202148e+00 1.667293757200241089e-01 7.309719920158386230e-01 1.053447127342224121e+00
2.480000000000000000e+02 1.589335155487060547e+01 -1.842228055000305176e+00 1.385735154151916504e+00 -9.266028553247451782e-02 3.879224658012390137e-01 2.841536700725555420e-01
2.490000000000000000e+02 1.612994575500488281e+01 -3.221460282802581787e-01 -1.881442546844482422e+00 5.519429445266723633e-01 -3.988499045372009277e-01 -7.319645881652832031e-01
2.500000000000000000e+02 1.700678634643554688e+01 1.479403227567672729e-01 1.406392902135848999e-01 2.884921312332153320e+00 9.076681733131408691e-01 -3.193607568740844727e+00
2.510000000000000000e+02 1.720368766784667969e+01 1.289792358875274658e-01 5.934059619903564453e-01 3.303666591644287109e+00 1.169121742248535156e+00 -3.670951366424560547e+00
2.520000000000000000e+02 1.721934509277343750e+01 -3.003833889961242676e-01 8.118074536323547363e-01 2.165026903152465820e+00 8.930503129959106445e-01 -2.987996578216552734e+00
2.530000000000000000e+02 1.734550285339355469e+01 -1.484259516000747681e-01 9.151763319969177246e-01 2.983834505081176758e+00 1.169703245162963867e+00 -3.675967693328857422e+00
2.540000000000000000e+02 1.633333587646484375e+01 -5.804299712181091309e-01 -2.170408725738525391e+00 3.347078561782836914e-01 -5.507102608680725098e-01 -3.664299249649047852e-01
2.550000000000000000e+02 1.622173690795898438e+01 -9.896612167358398438e-01 -3.752320051193237305e+00 -6.712371250614523888e-04 -1.125897407531738281e+00 4.753691256046295166e-01
2.560000000000000000e+02 1.701307487487792969e+01 -1.079140901565551758e+00 -2.429417610168457031e+00 6.847067177295684814e-02 -7.082840800285339355e-01 7.055424153804779053e-02
2.570000000000000000e+02 1.704798698425292969e+01 -8.077991008758544922e-01 -1.012202501296997070e+00 5.441978573799133301e-01 -1.404013931751251221e-01 -9.255779385566711426e-01
2.580000000000000000e+02 1.761282157897949219e+01 -1.176166296005249023e+00 -8.609977960586547852e-01 2.159514725208282471e-01 -1.935139000415802002e-01 -2.490770518779754639e-01
2.590000000000000000e+02 1.768258857727050781e+01 -9.079860448837280273e-01 1.408596396446228027e+00 9.148366451263427734e-01 6.970299482345581055e-01 -2.124474525451660156e+00
2.600000000000000000e+02 1.749258995056152344e+01 -1.661302328109741211e+00 2.543911695480346680e+00 -5.488417297601699829e-02 7.467082738876342773e-01 1.003602892160415649e-02
2.610000000000000000e+02 1.650407981872558594e+01 -1.541989684104919434e+00 8.671693801879882812e-01 -2.423529326915740967e-02 2.528802156448364258e-01 7.686035335063934326e-02
2.620000000000000000e+02 1.617926788330078125e+01 -1.241931796073913574e+00 -3.434440866112709045e-02 3.284992650151252747e-02 -4.483451775740832090e-04 4.002976045012474060e-02
2.630000000000000000e+02 1.594733333587646484e+01 -1.422129154205322266e+00 3.683448135852813721e-01 -1.131132692098617554e-01 7.656946033239364624e-02 1.090291365981101990e-01
2.640000000000000000e+02 1.646835708618164062e+01 -2.224051475524902344e+00 2.798008918762207031e+00 1.065708175301551819e-01 8.713739514350891113e-01 9.322482347488403320e-01
2.650000000000000000e+02 1.698915481567382812e+01 -2.595516443252563477e+00 4.459440231323242188e+00 7.635901570320129395e-01 1.566909193992614746e+00 2.099818468093872070e+00
2.660000000000000000e+02 1.702755737304687500e+01 -2.310204029083251953e+00 4.290068626403808594e+00 4.910366237163543701e-01 1.434331536293029785e+00 1.582834839820861816e+00
2.670000000000000000e+02 1.799040794372558594e+01 -2.467481374740600586e+00 6.815032958984375000e+00 4.195692062377929688e+00 3.303217649459838867e+00 4.869718551635742188e+00
2.680000000000000000e+02 1.897408676147460938e+01 -2.826293945312500000e+00 3.251640558242797852e+00 1.558732223510742188e+01 5.651688575744628906e+00 2.634470462799072266e+00
2.690000000000000000e+02 1.925945281982421875e+01 -2.683311939239501953e+00 4.081458091735839844e+00 1.658828353881835938e+01 6.200922489166259766e+00 4.877677857875823975e-01
2.700000000000000000e+02 1.886722946166992188e+01 -2.604246377944946289e+00 3.787977695465087891e+00 1.729632759094238281e+01 6.325291633605957031e+00 4.188549995422363281e+00
2.710000000000000000e+02 1.876523780822753906e+01 -7.380501925945281982e-02 1.417480260133743286e-01 1.508870410919189453e+01 4.569135665893554688e+00 -5.650087356567382812e+00
2.720000000000000000e+02 1.931864929199218750e+01 -2.411206811666488647e-01 6.761329770088195801e-01 1.863289833068847656e+01 5.792709827423095703e+00 -1.854909658432006836e+00
2.730000000000000000e+02 1.774510765075683594e+01 -2.215465068817138672e+00 6.468474388122558594e+00 1.378459334373474121e+00 2.354080200195312500e+00 2.911895513534545898e+00
2.740000000000000000e+02 1.981447410583496094e+01 -9.660772085189819336e-01 8.177731513977050781e+00 1.768030166625976562e+01 7.757409572601318359e+00 2.064950704574584961e+00
2.750000000000000000e+02 2.018759346008300781e+01 -1.309848070144653320e+00 1.150142288208007812e+01 1.224191951751708984e+01 7.123002529144287109e+00 -1.532529741525650024e-01
2.760000000000000000e+02 1.822889518737792969e+01 -2.556769371032714844e+00 6.464967250823974609e+00 7.474391460418701172e+00 4.181807518005371094e+00 5.963333606719970703e+00
2.770000000000000000e+02 1.924230194091796875e+01 -2.505769491195678711e+00 4.791674613952636719e+00 1.903003501892089844e+01 7.146512985229492188e+00 -4.331192672252655029e-01
2.780000000000000000e+02 1.959213829040527344e+01 -2.286530256271362305e+00 8.265810966491699219e+00 1.775428009033203125e+01 7.806027412414550781e+00 -3.915800809860229492e+00
2.790000000000000000e+02 1.972252464294433594e+01 -2.125685214996337891e+00 9.753845214843750000e+00 1.769950675964355469e+01 8.236005783081054688e+00 -4.742714405059814453e+00
2.800000000000000000e+02 1.983344078063964844e+01 -1.980251431465148926e+00 1.106605243682861328e+01 1.528775215148925781e+01 7.906141281127929688e+00 -4.006853103637695312e+00
2.810000000000000000e+02 1.969286727905273438e+01 -2.385439872741699219e+00 7.265725135803222656e+00 1.763854980468750000e+01 7.471282482147216797e+00 -3.925862073898315430e+00
2.820000000000000000e+02 1.984465217590332031e+01 -2.166141986846923828e+00 9.828102111816406250e+00 1.615265083312988281e+01 7.794225692749023438e+00 -3.951829195022583008e+00
2.830000000000000000e+02 1.843972969055175781e+01 -2.607689201831817627e-01 1.718259692192077637e+00 1.111403179168701172e+01 3.849687337875366211e+00 -7.115439414978027344e+00
2.840000000000000000e+02 1.669230270385742188e+01 -4.334719181060791016e-01 -9.960335493087768555e-01 8.074158430099487305e-01 -5.658531934022903442e-02 -1.218081116676330566e+00
2.850000000000000000e+02 1.787846183776855469e+01 -4.877142608165740967e-01 2.743261098861694336e+00 4.226650714874267578e+00 2.090973615646362305e+00 -5.128286838531494141e+00
2.860000000000000000e+02 1.727399253845214844e+01 -5.331064462661743164e-01 4.210394322872161865e-01 1.475324869155883789e+00 5.689092874526977539e-01 -2.352564573287963867e+00
2.870000000000000000e+02 1.717675971984863281e+01 -1.040634810924530029e-01 4.489367306232452393e-01 2.662848711013793945e+00 9.335356354713439941e-01 -3.254197835922241211e+00
2.880000000000000000e+02 1.702701950073242188e+01 -3.581623435020446777e-01 -3.802557289600372314e-02 1.412030696868896484e+00 4.122015237808227539e-01 -2.136333703994750977e+00
2.890000000000000000e+02 1.772637939453125000e+01 -2.356492131948471069e-01 1.739327430725097656e+00 4.429367542266845703e+00 1.850608468055725098e+00 -4.918459415435791016e+00
2.900000000000000000e+02 1.770351028442382812e+01 -4.966758787631988525e-01 2.032808303833007812e+00 2.966453790664672852e+00 1.499778628349304199e+00 -4.117044925689697266e+00
2.910000000000000000e+02 1.804584884643554688e+01 -4.300847649574279785e-01 2.731674432754516602e+00 5.849912643432617188e+00 2.574476003646850586e+00 -6.077471256256103516e+00
2.920000000000000000e+02 1.761603164672851562e+01 -1.752787947654724121e+00 3.564539909362792969e+00 -1.904287375509738922e-02 1.063649177551269531e+00 4.664193987846374512e-01
2.930000000000000000e+02 1.732575988769531250e+01 -1.880415916442871094e+00 3.475769519805908203e+00 6.366579979658126831e-02 1.061830520629882812e+00 7.286518216133117676e-01
2.940000000000000000e+02 1.761102485656738281e+01 -2.095663785934448242e+00 5.828705310821533203e+00 7.833728194236755371e-01 1.983623385429382324e+00 2.049729108810424805e+00
2.950000000000000000e+02 1.787105560302734375e+01 -2.587376832962036133e+00 6.355080604553222656e+00 3.967370986938476562e+00 3.096735477447509766e+00 4.550145626068115234e+00
2.960000000000000000e+02 1.743439674377441406e+01 -2.238031864166259766e+00 5.316120147705078125e+00 7.459353208541870117e-01 1.818616628646850586e+00 2.056303739547729492e+00
2.970000000000000000e+02 1.625158119201660156e+01 -1.715648651123046875e+00 1.274455666542053223e+00 -6.094472855329513550e-02 3.640532791614532471e-01 2.138240188360214233e-01
2.980000000000000000e+02 1.688697052001953125e+01 -1.657136082649230957e+00 1.684420704841613770e+00 -2.679020725190639496e-02 4.972891509532928467e-01 1.854307651519775391e-01
2.990000000000000000e+02 1.689324378967285156e+01 -5.134517550468444824e-01 -6.114256381988525391e-01 9.380012750625610352e-01 9.797268360853195190e-02 -1.431994795799255371e+00
3.000000000000000000e+02 1.670032119750976562e+01 -2.068119287490844727e+00 2.824601411819458008e+00 7.873259484767913818e-02 8.710002303123474121e-01 7.450454235076904297e-01
3.010000000000000000e+02 1.637302398681640625e+01 -2.044291257858276367e+00 2.353248834609985352e+00 -6.514862179756164551e-03 7.040201425552368164e-01 5.794067382812500000e-01
3.020000000000000000e+02 1.654778861999511719e+01 -2.029764890670776367e+00 2.616219520568847656e+00 -4.216475412249565125e-03 7.836009263992309570e-01 5.791411399841308594e-01
3.030000000000000000e+02 1.747923851013183594e+01 -1.822346925735473633e+00 3.655187368392944336e+00 1.994486153125762939e-01 1.156390786170959473e+00 7.228240966796875000e-01
3.040000000000000000e+02 1.738105583190917969e+01 -2.041098594665527344e+00 4.509874820709228516e+00 3.336745500564575195e-01 1.453064799308776855e+00 1.226951122283935547e+00
3.050000000000000000e+02 1.678184509277343750e+01 -1.884176611900329590e+00 2.513586044311523438e+00 -2.119095588568598032e-04 7.540122270584106445e-01 3.677095472812652588e-01
3.060000000000000000e+02 1.424199199676513672e+01 3.862963616847991943e-01 -2.730984926223754883e+00 2.193561345338821411e-01 -7.534886598587036133e-01 1.132987886667251587e-01
3.070000000000000000e+02 1.508468627929687500e+01 -1.827127784490585327e-01 -3.152230262756347656e+00 2.324694991111755371e-01 -8.759282231330871582e-01 9.867227077484130859e-02
3.080000000000000000e+02 1.400409317016601562e+01 -3.226566016674041748e-01 -4.442772388458251953e+00 -1.514943689107894897e-01 -1.378280043601989746e+00 7.694252133369445801e-01
3.090000000000000000e+02 1.460557365417480469e+01 -5.243246555328369141e-01 -4.348366737365722656e+00 -1.751387715339660645e-01 -1.357051610946655273e+00 7.847349047660827637e-01
3.100000000000000000e+02 1.552486324310302734e+01 2.322760671377182007e-01 -1.714871644973754883e+00 9.415101408958435059e-01 -2.320084422826766968e-01 -8.307722210884094238e-01
3.110000000000000000e+02 1.589845848083496094e+01 1.223051622509956360e-01 -1.391626834869384766e+00 8.686585426330566406e-01 -1.568905115127563477e-01 -1.047380566596984863e+00
3.120000000000000000e+02 1.350986289978027344e+01 5.138493180274963379e-01 -3.063205957412719727e+00 6.539941579103469849e-02 -8.993419408798217773e-01 4.422299563884735107e-01
3.130000000000000000e+02 1.334218597412109375e+01 -2.078212499618530273e-01 -4.514983654022216797e+00 -1.142519190907478333e-01 -1.388770580291748047e+00 8.060844540596008301e-01
3.140000000000000000e+02 1.498123741149902344e+01 3.146572113037109375e-01 -2.278500556945800781e+00 5.528726577758789062e-01 -5.176883935928344727e-01 -3.430509567260742188e-01
3.150000000000000000e+02 1.538554954528808594e+01 -5.131002664566040039e-01 -3.578848838806152344e+00 5.824755132198333740e-02 -1.056180357933044434e+00 4.122959673404693604e-01
3.160000000000000000e+02 1.576815605163574219e+01 -4.778063297271728516e-01 -2.966463565826416016e+00 3.555562794208526611e-01 -7.832721471786499023e-01 -1.034993864595890045e-02
3.170000000000000000e+02 1.573722743988037109e+01 -6.890436410903930664e-01 -3.526633977890014648e+00 5.273019522428512573e-02 -1.042171120643615723e+00 4.403727054595947266e-01
3.180000000000000000e+02 1.581426620483398438e+01 -2.721278965473175049e-01 -2.258363723754882812e+00 5.636491179466247559e-01 -5.084144473075866699e-01 -4.110437929630279541e-01
3.190000000000000000e+02 1.584665489196777344e+01 3.473197221755981445e-01 -1.271426081657409668e+00 1.148455381393432617e+00 -3.689123317599296570e-02 -1.246905922889709473e+00
3.200000000000000000e+02 1.587800121307373047e+01 -7.962048053741455078e-02 -1.591677546501159668e+00 8.504390120506286621e-01 -2.223715633153915405e-01 -8.705193400382995605e-01
3.210000000000000000e+02 1.554317092895507812e+01 -7.405108213424682617e-02 -2.218759059906005859e+00 6.137863993644714355e-01 -4.814918041229248047e-01 -4.613152146339416504e-01
3.220000000000000000e+02 1.565129470825195312e+01 -8.934441208839416504e-01 -4.146043300628662109e+00 -1.043137088418006897e-01 -1.275107026100158691e+00 6.950812935829162598e-01
3.230000000000000000e+02 1.512303352355957031e+01 -7.492905855178833008e-01 -4.284080028533935547e+00 -1.287240833044052124e-01 -1.323841333389282227e+00 8.236028552055358887e-01
3.240000000000000000e+02 1.115447902679443359e+01 1.927391290664672852e-01 -4.382390022277832031e+00 -1.637158542871475220e-01 -1.363831758499145508e+00 8.753024339675903320e-01
3.250000000000000000e+02 1.124617767333984375e+01 9.282501339912414551e-01 -3.179614782333374023e+00 -1.765912473201751709e-01 -1.006861805915832520e+00 7.005991935729980469e-01
3.260000000000000000e+02 1.040858840942382812e+01 3.243718445301055908e-01 -4.418629169464111328e+00 -2.548961341381072998e-01 -1.402057528495788574e+00 7.540330886840820312e-01
3.270000000000000000e+02 1.190096187591552734e+01 5.598175525665283203e-02 -4.470227718353271484e+00 -1.759651154279708862e-01 -1.393857836723327637e+00 8.827744722366333008e-01
3.280000000000000000e+02 1.277217197418212891e+01 6.438671946525573730e-01 -3.184980630874633789e+00 7.904985919594764709e-03 -9.531226754188537598e-01 5.696424841880798340e-01
3.290000000000000000e+02 1.264777946472167969e+01 -8.565847575664520264e-02 -4.525299549102783203e+00 -1.300567537546157837e-01 -1.396606922149658203e+00 8.663502335548400879e-01
3.300000000000000000e+02 1.048394012451171875e+01 1.062875509262084961e+00 -2.892926216125488281e+00 -2.919073700904846191e-01 -9.554500579833984375e-01 7.084183692932128906e-01
3.310000000000000000e+02 1.200900745391845703e+01 7.885000705718994141e-01 -3.189048528671264648e+00 -6.970135867595672607e-02 -9.776249527931213379e-01 6.820070147514343262e-01
3.320000000000000000e+02 8.878479003906250000e+00 3.908094167709350586e-01 -3.291372299194335938e+00 -1.789664663374423981e-02 -9.927806854248046875e-01 2.948915362358093262e-01
3.330000000000000000e+02 9.649624824523925781e+00 3.904530405998229980e-01 -4.044394969940185547e+00 -1.705866158008575439e-01 -1.264494538307189941e+00 4.733605086803436279e-01
3.340000000000000000e+02 7.383328437805175781e+00 1.131017208099365234e+00 -1.888539671897888184e+00 -5.294010788202285767e-02 -5.824438929557800293e-01 6.032044887542724609e-01
3.350000000000000000e+02 7.334236621856689453e+00 3.910171389579772949e-01 -2.267691135406494141e+00 -7.748002186417579651e-03 -6.826317906379699707e-01 2.262317836284637451e-01
3.360000000000000000e+02 5.016752243041992188e+00 3.915317654609680176e-01 -1.072036743164062500e+00 -1.265893224626779556e-02 -3.254086971282958984e-01 1.705771833658218384e-01
3.370000000000000000e+02 2.718189001083374023e+00 1.131889939308166504e+00 -3.185375034809112549e-01 -7.748606055974960327e-02 -1.188070699572563171e-01 2.648619413375854492e-01
3.380000000000000000e+02 3.472350120544433594e+00 3.917863070964813232e-01 -4.687604904174804688e-01 -1.528683770447969437e-02 -1.452142000198364258e-01 1.243378371000289917e-01
3.390000000000000000e+02 2.700102567672729492e+00 3.918899297714233398e-01 -2.475396990776062012e-01 -1.685880310833454132e-02 -7.931955158710479736e-02 9.205823391675949097e-02
3.400000000000000000e+02 1.941753506660461426e+00 1.131839513778686523e+00 -1.699259281158447266e-01 -8.606545627117156982e-02 -7.679741084575653076e-02 1.701265126466751099e-01
3.410000000000000000e+02 1.928834557533264160e+00 3.918395042419433594e-01 -9.803681075572967529e-02 -1.929803378880023956e-02 -3.520045429468154907e-02 5.470030382275581360e-02
3.420000000000000000e+02 1.157405972480773926e+00 3.914729654788970947e-01 -2.208651416003704071e-02 -1.565650105476379395e-02 -1.132290437817573547e-02 1.915396377444267273e-02
3.430000000000000000e+02 3.884848952293395996e-01 1.130593895912170410e+00 -1.444036047905683517e-02 -1.867436431348323822e-02 -9.934416972100734711e-03 1.702745072543621063e-02
3.440000000000000000e+02 3.859011232852935791e-01 3.905938863754272461e-01 -1.543221063911914825e-03 -1.425464637577533722e-03 -8.906057337298989296e-04 1.286160899326205254e-03
3.450000000000000000e+02 4.244657516479492188e+00 3.916697502136230469e-01 -7.469296455383300781e-01 -9.195859543979167938e-03 -2.268376648426055908e-01 1.494289189577102661e-01
3.460000000000000000e+02 3.495604276657104492e+00 1.131786346435546875e+00 -5.028752088546752930e-01 -6.033008918166160583e-02 -1.689615994691848755e-01 3.434790074825286865e-01
3.470000000000000000e+02 4.273078918457031250e+00 1.131669759750366211e+00 -7.254635095596313477e-01 -5.461733043193817139e-02 -2.340242564678192139e-01 4.114377498626708984e-01
3.480000000000000000e+02 5.789580821990966797e+00 3.914089500904083252e-01 -1.435608506202697754e+00 -5.935152526944875717e-03 -4.324631094932556152e-01 1.894656717777252197e-01
3.490000000000000000e+02 5.828337669372558594e+00 1.131408929824829102e+00 -1.260384082794189453e+00 -4.356038942933082581e-02 -3.911833465099334717e-01 5.114969611167907715e-01
3.500000000000000000e+02 6.606027126312255859e+00 1.131122112274169922e+00 -1.562695264816284180e+00 -3.484774753451347351e-02 -4.792628884315490723e-01 5.563070774078369141e-01
3.510000000000000000e+02 6.562102794647216797e+00 3.911220729351043701e-01 -1.834411501884460449e+00 -1.216028165072202682e-02 -5.539715290069580078e-01 2.062370330095291138e-01
3.520000000000000000e+02 8.106598854064941406e+00 3.909416198730468750e-01 -2.746857881546020508e+00 -2.226278372108936310e-02 -8.307362198829650879e-01 2.542768120765686035e-01
3.530000000000000000e+02 8.937906265258789062e+00 1.130809426307678223e+00 -2.583087921142578125e+00 -1.458827257156372070e-01 -8.186911940574645996e-01 7.714093923568725586e-01
3.540000000000000000e+02 9.714219093322753906e+00 1.130452990531921387e+00 -2.682628154754638672e+00 -2.936788201332092285e-01 -8.928921222686767578e-01 8.254767656326293945e-01
3.550000000000000000e+02 8.160858154296875000e+00 1.130941629409790039e+00 -2.219142913818359375e+00 -5.559745803475379944e-02 -6.824221014976501465e-01 6.542389988899230957e-01
3.560000000000000000e+02 5.050341606140136719e+00 1.131531715393066406e+00 -9.790846705436706543e-01 -3.948972001671791077e-02 -3.055723309516906738e-01 4.654364883899688721e-01
3.570000000000000000e+02 1.165157318115234375e+00 1.131472945213317871e+00 -6.947049498558044434e-02 -7.296729832887649536e-02 -4.273133724927902222e-02 7.570734620094299316e-02
3.580000000000000000e+02 1.326620960235595703e+01 -9.929420948028564453e-01 -6.926520466804504395e-01 -5.002100020647048950e-02 -2.228019088506698608e-01 1.991513520479202271e-01
3.590000000000000000e+02 1.559300899505615234e+01 -2.187959432601928711e+00 1.630826354026794434e+00 -1.302259117364883423e-01 4.501801133155822754e-01 5.572849512100219727e-01
3.600000000000000000e+02 1.309816646575927734e+01 -1.714546322822570801e+00 -5.480055883526802063e-02 -3.688694164156913757e-02 -2.750625088810920715e-02 3.184312283992767334e-01
3.610000000000000000e+02 1.419134521484375000e+01 -2.072432994842529297e+00 7.253186106681823730e-01 -3.946831449866294861e-02 2.057550847530364990e-01 4.697809219360351562e-01
3.620000000000000000e+02 1.473376941680908203e+01 -1.140661954879760742e+00 -3.756226301193237305e-01 -3.459699079394340515e-02 -1.230658888816833496e-01 1.214813217520713806e-01
3.630000000000000000e+02 1.565824604034423828e+01 -1.625915050506591797e+00 7.096658945083618164e-01 6.408453453332185745e-03 2.148223072290420532e-01 1.952857375144958496e-01
3.640000000000000000e+02 1.545510482788085938e+01 -2.385320186614990234e+00 1.832389354705810547e+00 -4.532860592007637024e-02 5.361182093620300293e-01 8.028107881546020508e-01
3.650000000000000000e+02 1.564757823944091797e+01 -2.010621070861816406e+00 1.396944880485534668e+00 -9.283351153135299683e-02 3.912334144115447998e-01 4.196052551269531250e-01
3.660000000000000000e+02 1.515741920471191406e+01 -1.685252547264099121e+00 5.339710116386413574e-01 -6.641232967376708984e-02 1.402675956487655640e-01 2.678720355033874512e-01
3.670000000000000000e+02 1.546258831024169922e+01 -1.762504339218139648e+00 8.745284080505371094e-01 -6.902704387903213501e-02 2.416504174470901489e-01 3.125200271606445312e-01
3.680000000000000000e+02 1.564496803283691406e+01 -1.412124037742614746e+00 3.429119586944580078e-01 3.084456920623779297e-02 1.121269613504409790e-01 1.078597009181976318e-01
3.690000000000000000e+02 1.468351554870605469e+01 -1.630074262619018555e+00 2.787308990955352783e-01 -7.328569889068603516e-02 6.163356080651283264e-02 2.673809528350830078e-01
3.700000000000000000e+02 1.525271606445312500e+01 -1.304213523864746094e+00 -5.408667400479316711e-02 -5.710731446743011475e-02 -3.335819393396377563e-02 1.145637407898902893e-01
3.710000000000000000e+02 1.567245292663574219e+01 -1.818496823310852051e+00 1.245361208915710449e+00 -5.114538967609405518e-02 3.582647442817687988e-01 2.890392839908599854e-01
3.720000000000000000e+02 1.559737873077392578e+01 -1.161528825759887695e+00 -2.853745222091674805e-01 1.555574499070644379e-02 -8.094563335180282593e-02 8.227507025003433228e-02
3.730000000000000000e+02 1.473048591613769531e+01 -2.133398532867431641e+00 1.029706954956054688e+00 -8.914781361818313599e-02 2.821677625179290771e-01 5.193628072738647461e-01
3.740000000000000000e+02 1.517574024200439453e+01 -2.102675676345825195e+00 1.234917640686035156e+00 -4.462811350822448730e-02 3.570868670940399170e-01 5.196605920791625977e-01
3.750000000000000000e+02 1.544804859161376953e+01 -2.011424779891967773e+00 1.311138272285461426e+00 -1.196821033954620361e-01 3.574368655681610107e-01 4.755148291587829590e-01
3.760000000000000000e+02 1.402716541290283203e+01 -1.075693488121032715e+00 -5.481028556823730469e-01 -4.779927805066108704e-02 -1.787706464529037476e-01 1.659836918115615845e-01
3.770000000000000000e+02 1.410490608215332031e+01 -1.624963164329528809e+00 1.199456378817558289e-01 -6.539781391620635986e-02 1.636434718966484070e-02 2.905068695545196533e-01
3.780000000000000000e+02 1.368620872497558594e+01 -1.912493228912353516e+00 2.559705972671508789e-01 -9.077718108892440796e-02 4.955802485346794128e-02 3.650177717208862305e-01
3.790000000000000000e+02 8.732743263244628906e+00 -1.866589546203613281e+00 -5.224477052688598633e-01 1.311733573675155640e-01 -1.173823103308677673e-01 -1.118027139455080032e-03
3.800000000000000000e+02 4.977776527404785156e+00 -1.860502362251281738e+00 -3.655267655849456787e-01 1.297180075198411942e-02 -1.057664901018142700e-01 -2.578537762165069580e-01
3.810000000000000000e+02 5.747711062431335449e-01 -1.077070331573486328e+01 7.764026522636413574e-03 -1.919147729873657227e+00 -5.734151005744934082e-01 -1.301698237657546997e-01
3.820000000000000000e+02 1.115332984924316406e+01 -1.415220832824707031e+01 1.396226882934570312e+00 5.772561550140380859e+00 2.150636672973632812e+00 9.604882597923278809e-01
3.830000000000000000e+02 1.570930194854736328e+01 -1.224042892456054688e+01 -1.736114859580993652e+00 9.061754941940307617e-01 -2.489818036556243896e-01 1.648655533790588379e+00
3.840000000000000000e+02 1.817170333862304688e+01 -3.136086702346801758e+00 4.340559959411621094e+00 7.379346370697021484e+00 3.515971899032592773e+00 4.817237377166748047e+00
3.850000000000000000e+02 1.532842731475830078e+01 -2.765508413314819336e+00 2.139995336532592773e+00 6.197071447968482971e-02 6.605898141860961914e-01 1.103506922721862793e+00
3.860000000000000000e+02 1.089377689361572266e+01 -2.024743556976318359e+00 -3.041305840015411377e-01 1.141139045357704163e-01 -5.700500309467315674e-02 2.212707102298736572e-01
3.870000000000000000e+02 1.019472789764404297e+01 -1.927135348320007324e+00 -4.249295294284820557e-01 1.296355724334716797e-01 -8.858819305896759033e-02 1.356856524944305420e-01
3.880000000000000000e+02 1.274933910369873047e+01 -1.248278713226318359e+01 7.820594310760498047e-02 4.860896587371826172e+00 1.481730699539184570e+00 2.261332988739013672e+00
3.890000000000000000e+02 1.387463188171386719e+01 -1.315005874633789062e+01 2.084990739822387695e+00 3.459465026855468750e+00 1.663336634635925293e+00 2.662233591079711914e+00
3.900000000000000000e+02 1.741454601287841797e+00 -1.092173004150390625e+01 2.287360280752182007e-02 -1.239511489868164062e+00 -3.649913370609283447e-01 -3.435184061527252197e-01
3.910000000000000000e+02 6.009998321533203125e-01 -1.777605819702148438e+01 3.892916813492774963e-02 -2.501006603240966797e+00 -7.386232018470764160e-01 1.010965481400489807e-01
3.920000000000000000e+02 1.203534507751464844e+01 -2.107006454467773438e+01 6.494194269180297852e-01 7.089159488677978516e+00 2.321573734283447266e+00 -1.452579140663146973e+00
3.930000000000000000e+02 1.144909477233886719e+01 -1.709893989562988281e+01 1.142337322235107422e+00 1.002547740936279297e+01 3.350344419479370117e+00 1.577756047248840332e+00
3.940000000000000000e+02 1.153127288818359375e+01 -1.838158798217773438e+01 3.200196623802185059e-01 9.416793823242187500e+00 2.921044111251831055e+00 7.354007661342620850e-02
3.950000000000000000e+02 9.099188804626464844e+00 -1.960866165161132812e+01 1.062074542045593262e+00 4.442795276641845703e+00 1.651460886001586914e+00 9.040708541870117188e-01
3.960000000000000000e+02 1.788942575454711914e+00 -1.778978538513183594e+01 1.088325008749961853e-01 -1.417154431343078613e+00 -3.924965858459472656e-01 2.473609298467636108e-01
3.970000000000000000e+02 6.528024077415466309e-01 -2.341508865356445312e+01 2.978297136723995209e-02 -7.581241726875305176e-01 -2.185023576021194458e-01 2.510358095169067383e-01
3.980000000000000000e+02 1.241837215423583984e+01 -2.432950401306152344e+01 -1.466206759214401245e-01 3.377681255340576172e+00 9.693182110786437988e-01 -5.494541525840759277e-01
3.990000000000000000e+02 1.729146957397460938e+01 -2.749372291564941406e+01 -5.132761597633361816e-01 3.902815282344818115e-02 -1.422743946313858032e-01 1.447973400354385376e-01
4.000000000000000000e+02 1.430318355560302734e+01 -2.459346199035644531e+01 4.279526770114898682e-01 1.382140278816223145e+00 5.430278778076171875e-01 -7.504487037658691406e-01
4.010000000000000000e+02 6.562394499778747559e-01 -2.482869148254394531e+01 -2.793244086205959320e-02 -2.148888856172561646e-01 -7.284639775753021240e-02 2.529252469539642334e-01
4.020000000000000000e+02 6.534580588340759277e-01 -3.048671913146972656e+01 -1.412833668291568756e-02 1.555962800979614258e+00 4.625503122806549072e-01 1.499986052513122559e-01
4.030000000000000000e+02 9.802292823791503906e+00 -3.574288177490234375e+01 -4.278682470321655273e-01 1.652909159660339355e+00 3.675122559070587158e-01 1.237482801079750061e-01
4.040000000000000000e+02 1.854788970947265625e+01 -3.834431457519531250e+01 -1.485571861267089844e-01 5.098529458045959473e-01 1.083887293934822083e-01 -1.548965126276016235e-01
4.050000000000000000e+02 1.581393623352050781e+01 -3.374251937866210938e+01 -5.920965671539306641e-01 9.610459804534912109e-01 1.106848195195198059e-01 -1.978991776704788208e-01
4.060000000000000000e+02 2.247632026672363281e+01 -4.127410125732421875e+01 6.516746431589126587e-02 3.715558350086212158e-01 1.310169845819473267e-01 -5.392998922616243362e-03
4.070000000000000000e+02 2.259075355529785156e+01 -3.640651702880859375e+01 -2.243829220533370972e-01 2.331652194261550903e-01 2.634691074490547180e-03 -3.337770700454711914e-02
4.080000000000000000e+02 2.518828582763671875e+01 -3.078240585327148438e+01 -2.142930746078491211e+00 -1.029795035719871521e-01 -6.737730503082275391e-01 1.648171544075012207e-01
4.090000000000000000e+02 2.327363014221191406e+01 -3.235858535766601562e+01 -1.157651543617248535e+00 -1.490328758955001831e-01 -3.920053243637084961e-01 5.929522216320037842e-02
4.100000000000000000e+02 2.089546966552734375e+01 -2.970889854431152344e+01 -1.642366170883178711e+00 -1.631139963865280151e-01 -5.416440367698669434e-01 4.527555406093597412e-01
4.110000000000000000e+02 1.961993217468261719e+01 -2.908283996582031250e+01 -1.353600978851318359e+00 -2.084781676530838013e-01 -4.686237275600433350e-01 4.410047233104705811e-01
4.120000000000000000e+02 1.794515800476074219e+01 -3.120568275451660156e+01 -8.858795166015625000e-01 3.974710106849670410e-01 -1.465225517749786377e-01 -1.772362589836120605e-01
4.130000000000000000e+02 1.316040992736816406e+01 -3.258707046508789062e+01 -7.155400514602661133e-01 1.559238553047180176e+00 2.531095445156097412e-01 -8.400937914848327637e-02
4.140000000000000000e+02 1.498716831207275391e+01 -3.198013114929199219e+01 -7.558938860893249512e-01 1.196407198905944824e+00 1.321539878845214844e-01 -2.224878221750259399e-01
4.150000000000000000e+02 6.829426288604736328e-01 -3.191457557678222656e+01 -1.202856842428445816e-02 1.844385981559753418e+00 5.497072339057922363e-01 1.213632971048355103e-01
4.160000000000000000e+02 6.411544084548950195e-01 -3.730907058715820312e+01 -1.791668124496936798e-02 2.374629259109497070e+00 7.070137262344360352e-01 9.683658368885517120e-03
4.170000000000000000e+02 6.936948299407958984e+00 -3.755823516845703125e+01 -2.471743375062942505e-01 1.812331080436706543e+00 4.695470333099365234e-01 1.762246191501617432e-01
4.180000000000000000e+02 2.623361587524414062e+00 -3.729124832153320312e+01 -6.364564597606658936e-02 2.173094034194946289e+00 6.328344941139221191e-01 1.041705459356307983e-01
4.190000000000000000e+02 2.714947319030761719e+01 -4.116985702514648438e+01 -1.689609736204147339e-01 1.207360386848449707e+00 3.115198314189910889e-01 1.108617857098579407e-01
4.200000000000000000e+02 2.958922004699707031e+01 -3.510310363769531250e+01 -4.570757746696472168e-01 1.474787831306457520e+00 3.053136169910430908e-01 9.783325791358947754e-01
4.210000000000000000e+02 3.217723083496093750e+01 -2.925492668151855469e+01 1.066699266433715820e+00 1.957363009452819824e+00 9.072186946868896484e-01 1.489314675331115723e+00
4.220000000000000000e+02 2.948177909851074219e+01 -3.031399917602539062e+01 -1.168169140815734863e+00 2.469566166400909424e-01 -2.763637602329254150e-01 2.383840531110763550e-01
4.230000000000000000e+02 3.516094970703125000e+01 -3.913896560668945312e+01 -1.300985693931579590e+00 4.288034439086914062e+00 8.961146473884582520e-01 4.587851464748382568e-01
4.240000000000000000e+02 4.469710159301757812e+01 -2.949440002441406250e+01 -2.468889951705932617e-01 7.152535915374755859e+00 2.071694135665893555e+00 -1.136446356773376465e+00
4.250000000000000000e+02 4.482912445068359375e+01 -2.378029632568359375e+01 2.082367420196533203e+00 9.751825332641601562e+00 3.550257682800292969e+00 -1.374880194664001465e+00
4.260000000000000000e+02 4.629207229614257812e+01 -1.869439125061035156e+01 1.568873226642608643e-01 1.258381843566894531e+01 3.822211742401123047e+00 4.119300246238708496e-01
4.270000000000000000e+02 4.122708511352539062e+01 -1.725069880485534668e+00 3.144356250762939453e+00 1.208161449432373047e+01 4.567790985107421875e+00 4.963897705078125000e+00
4.280000000000000000e+02 4.223320770263671875e+01 1.422480463981628418e+00 1.169110298156738281e+00 1.831032180786132812e+01 5.843830108642578125e+00 3.662906885147094727e+00
4.290000000000000000e+02 4.236351776123046875e+01 -1.011586904525756836e+00 2.305500984191894531e+00 1.357786750793457031e+01 4.765010356903076172e+00 3.474911689758300781e+00
4.300000000000000000e+02 4.303542709350585938e+01 -4.087377548217773438e+01 -1.614815354347229004e+00 5.417677879333496094e+00 1.140858769416809082e+00 -1.465699225664138794e-01
4.310000000000000000e+02 4.400687026977539062e+01 -3.759841156005859375e+01 -1.471661925315856934e+00 5.506743907928466797e+00 1.210524678230285645e+00 -5.336889624595642090e-01
4.320000000000000000e+02 4.767959594726562500e+01 -2.969660377502441406e+01 -5.891717970371246338e-02 5.675392150878906250e+00 1.684942483901977539e+00 -1.988819599151611328e+00
4.330000000000000000e+02 4.911965560913085938e+01 -2.658923721313476562e+01 2.417265176773071289e+00 4.223197937011718750e+00 1.992138862609863281e+00 -3.030322313308715820e+00
4.340000000000000000e+02 4.732503890991210938e+01 -2.466097831726074219e+01 3.105637788772583008e+00 9.290032386779785156e+00 3.718701124191284180e+00 -4.242905139923095703e+00
4.350000000000000000e+02 4.619079208374023438e+01 -2.402577400207519531e+01 2.615849733352661133e+00 1.052132701873779297e+01 3.941153049468994141e+00 -2.926584720611572266e+00
4.360000000000000000e+02 4.677930450439453125e+01 -1.456550216674804688e+01 1.077254772186279297e+00 1.260256099700927734e+01 4.103944778442382812e+00 2.794842004776000977e+00
4.370000000000000000e+02 4.716018676757812500e+01 -1.320345020294189453e+01 1.574014306068420410e+00 1.142465400695800781e+01 3.899600505828857422e+00 3.522316217422485352e+00
4.380000000000000000e+02 4.451919174194335938e+01 -1.280968952178955078e+01 9.694494009017944336e-01 9.515170097351074219e+00 3.145385980606079102e+00 1.293971180915832520e+00
4.390000000000000000e+02 4.776194763183593750e+01 -1.191012763977050781e+01 2.056071519851684570e+00 9.217610359191894531e+00 3.382104396820068359e+00 3.719961166381835938e+00
4.400000000000000000e+02 4.961607742309570312e+01 -9.751021385192871094e+00 8.864141702651977539e-01 2.723829507827758789e+00 1.083073139190673828e+00 1.677258253097534180e+00
4.410000000000000000e+02 5.073231506347656250e+01 -8.844751358032226562e+00 -3.380731940269470215e-01 1.023997187614440918e+00 2.057772129774093628e-01 4.557602703571319580e-01
4.420000000000000000e+02 5.203823471069335938e+01 -8.073961257934570312e+00 -1.626527428627014160e+00 1.303032189607620239e-01 -4.488672912120819092e-01 1.969959028065204620e-02
4.430000000000000000e+02 5.362998962402343750e+01 -7.864814281463623047e+00 -1.864367365837097168e+00 -3.107773959636688232e-01 -6.525434255599975586e-01 2.307588160037994385e-01
4.440000000000000000e+02 5.636438751220703125e+01 -9.161155700683593750e+00 -1.119842052459716797e+00 -3.483934104442596436e-01 -4.404706656932830811e-01 6.101893186569213867e-01
4.450000000000000000e+02 5.870142745971679688e+01 -1.038382434844970703e+01 -1.041316390037536621e+00 -1.367080062627792358e-01 -3.534073233604431152e-01 4.293816983699798584e-01
4.460000000000000000e+02 6.118855285644531250e+01 -1.116291809082031250e+01 -1.185801267623901367e+00 -2.912732213735580444e-02 -3.644785583019256592e-01 2.413880825042724609e-01
4.470000000000000000e+02 6.248275756835937500e+01 -1.141078376770019531e+01 -1.104152798652648926e+00 1.745331138372421265e-01 -2.788859009742736816e-01 5.956561118364334106e-02
4.480000000000000000e+02 7.185598754882812500e+01 -2.387740135192871094e+00 -5.521865487098693848e-01 6.817607879638671875e+00 1.879626512527465820e+00 -4.905069712549448013e-03
4.490000000000000000e+02 7.935351562500000000e+01 2.824802875518798828e+00 -2.805988863110542297e-02 8.009385108947753906e+00 2.394397497177124023e+00 -9.503030031919479370e-02
4.500000000000000000e+02 7.803063201904296875e+01 4.296806335449218750e+00 -5.953326448798179626e-02 7.660575389862060547e+00 2.280312776565551758e+00 -3.234186768531799316e-01
4.510000000000000000e+02 7.936083221435546875e+01 8.412180900573730469e+00 1.006134692579507828e-02 6.787508487701416016e+00 2.039270877838134766e+00 -1.580962985754013062e-01
4.520000000000000000e+02 7.808065795898437500e+01 1.133220577239990234e+01 9.844611585140228271e-02 6.735121250152587891e+00 2.050070285797119141e+00 -2.760030031204223633e-01
4.530000000000000000e+02 7.940129089355468750e+01 1.683641624450683594e+01 6.527089327573776245e-02 6.221946239471435547e+00 1.886165142059326172e+00 1.436766237020492554e-01
4.540000000000000000e+02 6.540376281738281250e+01 2.181499671936035156e+01 -2.604339122772216797e+00 9.117270112037658691e-01 -5.077835917472839355e-01 -1.609006673097610474e-01
4.550000000000000000e+02 6.835327911376953125e+01 1.842729377746582031e+01 1.606696009635925293e+00 1.443608379364013672e+01 4.812833786010742188e+00 -1.038117170333862305e+00
4.560000000000000000e+02 6.965842437744140625e+01 1.845704650878906250e+01 1.598742723464965820e+00 1.103691959381103516e+01 3.790698766708374023e+00 -1.385622918605804443e-01
4.570000000000000000e+02 6.963216400146484375e+01 1.298748111724853516e+01 1.408711552619934082e+00 1.087178611755371094e+01 3.684149265289306641e+00 1.026716828346252441e+00
4.580000000000000000e+02 6.842068481445312500e+01 1.140725803375244141e+01 1.713791728019714355e+00 1.068290710449218750e+01 3.719009637832641602e+00 2.315747261047363281e+00
4.590000000000000000e+02 6.806774139404296875e+01 1.277314090728759766e+01 1.516229510307312012e+00 1.269114494323730469e+01 4.262212276458740234e+00 3.021605730056762695e+00
4.600000000000000000e+02 6.812326049804687500e+01 9.361300468444824219e+00 4.822588264942169189e-01 8.410653114318847656e+00 2.667873382568359375e+00 1.316127061843872070e+00
4.610000000000000000e+02 6.629182434082031250e+01 9.689562797546386719e+00 2.173464775085449219e+00 5.922381877899169922e+00 2.428754091262817383e+00 3.360139131546020508e+00
4.620000000000000000e+02 6.430690002441406250e+01 7.717684268951416016e+00 1.417440772056579590e+00 2.291609525680541992e+00 1.112715125083923340e+00 1.803513169288635254e+00
4.630000000000000000e+02 6.192045974731445312e+01 3.945135116577148438e+00 6.498472690582275391e-01 1.347348451614379883e+00 5.991587042808532715e-01 8.666195869445800781e-01
4.640000000000000000e+02 5.676404190063476562e+01 1.294114828109741211e+00 1.358749151229858398e+00 3.855395317077636719e-01 5.232865810394287109e-01 6.234595775604248047e-01
4.650000000000000000e+02 5.514195632934570312e+01 -8.384222984313964844e+00 -1.491114139556884766e+00 -3.693699836730957031e-01 -5.581452250480651855e-01 5.206747055053710938e-01
4.660000000000000000e+02 4.778954315185546875e+01 -4.094860458374023438e+01 -9.594841003417968750e-01 4.375871181488037109e+00 1.024916052818298340e+00 -2.909903526306152344e-01
4.670000000000000000e+02 4.881606674194335938e+01 -3.477810668945312500e+01 -7.533019185066223145e-01 4.318551063537597656e+00 1.069574832916259766e+00 -1.529113411903381348e+00
4.680000000000000000e+02 5.388252639770507812e+01 -2.955633354187011719e+01 -1.127042889595031738e+00 3.191403150558471680e-01 -2.423707693815231323e-01 -3.781206607818603516e-01
4.690000000000000000e+02 4.982608032226562500e+01 -3.010156631469726562e+01 5.889657139778137207e-02 3.850601434707641602e+00 1.172849416732788086e+00 -2.109534263610839844e+00
4.700000000000000000e+02 5.836730957031250000e+01 -3.842066955566406250e+01 6.875824332237243652e-01 1.602956056594848633e+00 6.871615648269653320e-01 -1.515512317419052124e-01
4.710000000000000000e+02 5.536933517456054688e+01 -3.498391342163085938e+01 1.965063214302062988e-01 1.384433150291442871e+00 4.742818474769592285e-01 -9.170647859573364258e-01
4.720000000000000000e+02 5.658162689208984375e+01 -2.992355346679687500e+01 -2.522381305694580078e+00 2.792777679860591888e-02 -7.483360171318054199e-01 -2.226286232471466064e-01
4.730000000000000000e+02 5.471556472778320312e+01 -3.135153007507324219e+01 -6.374067664146423340e-01 5.438171625137329102e-01 -2.807688154280185699e-02 -1.089101791381835938e+00
4.740000000000000000e+02 6.240021514892578125e+01 -4.119633102416992188e+01 7.101213932037353516e-01 2.389455080032348633e+00 9.298729300498962402e-01 9.227561205625534058e-02
4.750000000000000000e+02 6.216944122314453125e+01 -3.855552673339843750e+01 6.208532452583312988e-01 2.310950517654418945e+00 8.795411586761474609e-01 2.472028583288192749e-01
4.760000000000000000e+02 6.744622039794921875e+01 -2.768107986450195312e+01 -9.047695398330688477e-01 5.698294639587402344e+00 1.438057541847229004e+00 9.933529496192932129e-01
4.770000000000000000e+02 6.722461700439453125e+01 -2.252497863769531250e+01 1.985475659370422363e+00 7.685942173004150391e+00 2.901425361633300781e+00 3.366236925125122070e+00
4.780000000000000000e+02 6.822728729248046875e+01 -2.518769073486328125e+01 -6.487275958061218262e-01 7.704747676849365234e+00 2.116806030273437500e+00 9.894964694976806641e-01
4.790000000000000000e+02 6.527211761474609375e+01 -2.461130905151367188e+01 9.049127101898193359e-01 2.640196323394775391e+00 1.063532710075378418e+00 1.613902568817138672e+00
4.800000000000000000e+02 6.232007980346679688e+01 -2.746071052551269531e+01 -7.071630358695983887e-01 3.335046768188476562e-01 -1.120975017547607422e-01 -1.051318645477294922e-01
4.810000000000000000e+02 5.938952255249023438e+01 -3.071261596679687500e+01 -1.666591167449951172e+00 -9.095498174428939819e-02 -5.272638201713562012e-01 -1.599960774183273315e-01
4.820000000000000000e+02 6.435588073730468750e+01 -3.032983398437500000e+01 -7.642631530761718750e-01 2.983428478240966797e+00 6.657496094703674316e-01 1.027717709541320801e+00
4.830000000000000000e+02 6.714597320556640625e+01 -4.092457199096679688e+01 2.900204658508300781e-01 4.331320762634277344e+00 1.386402368545532227e+00 1.287979483604431152e-01
4.840000000000000000e+02 6.885068511962890625e+01 -3.624432373046875000e+01 -1.486226618289947510e-01 5.208723068237304688e+00 1.518030166625976562e+00 3.464355170726776123e-01
4.850000000000000000e+02 7.927384948730468750e+01 -3.351887512207031250e+01 -5.277024954557418823e-02 8.899969100952148438e+00 2.654159784317016602e+00 -7.928704470396041870e-02
4.860000000000000000e+02 7.781693267822265625e+01 -3.074954223632812500e+01 -9.665882587432861328e-02 8.149087905883789062e+00 2.415728569030761719e+00 -3.783727884292602539e-01
4.870000000000000000e+02 7.930353546142578125e+01 -2.643782997131347656e+01 1.342685520648956299e-02 7.264338016510009766e+00 2.183329343795776367e+00 -2.742305994033813477e-01
4.880000000000000000e+02 7.804850006103515625e+01 -2.350998687744140625e+01 3.959700465202331543e-02 6.635170459747314453e+00 2.002430200576782227e+00 -6.766328811645507812e-01
4.890000000000000000e+02 7.936586761474609375e+01 -2.222783470153808594e+01 1.848736777901649475e-02 5.636172771453857422e+00 1.696398019790649414e+00 -2.223671227693557739e-01
4.900000000000000000e+02 6.749652099609375000e+01 -1.440796470642089844e+01 2.424503564834594727e+00 1.047396945953369141e+01 3.869541883468627930e+00 -4.081632137298583984e+00
4.910000000000000000e+02 6.953981781005859375e+01 -1.684814453125000000e+01 1.804007411003112793e+00 1.246590709686279297e+01 4.280974388122558594e+00 -9.494120478630065918e-01
4.920000000000000000e+02 6.837161254882812500e+01 -1.847060585021972656e+01 2.131892591714859009e-01 1.571228122711181641e+01 4.777641296386718750e+00 -8.809415996074676514e-02
4.930000000000000000e+02 6.833178710937500000e+01 -1.989270210266113281e+01 1.436111927032470703e+00 1.700152778625488281e+01 5.531291961669921875e+00 1.679770708084106445e+00
4.940000000000000000e+02 6.801061248779296875e+01 -2.128531265258789062e+01 2.487033843994140625e+00 1.355992603302001953e+01 4.814087867736816406e+00 3.585134744644165039e+00
4.950000000000000000e+02 6.954287719726562500e+01 -2.260501098632812500e+01 6.853573918342590332e-01 1.040476989746093750e+01 3.327038288116455078e+00 6.209453940391540527e-02
4.960000000000000000e+02 7.802575683593750000e+01 -4.158991241455078125e+01 1.391425579786300659e-01 8.617983818054199219e+00 2.627138137817382812e+00 3.907630965113639832e-02
4.970000000000000000e+02 7.821170806884765625e+01 -1.662764739990234375e+01 1.593302935361862183e-01 5.761967182159423828e+00 1.776389241218566895e+00 2.089763283729553223e-01
4.980000000000000000e+02 7.938623809814453125e+01 -1.252371501922607422e+01 -3.939711023122072220e-03 6.056359767913818359e+00 1.815726041793823242e+00 2.307530641555786133e-01
4.990000000000000000e+02 7.248609161376953125e+01 -5.213522434234619141e+00 -6.263369917869567871e-01 7.185091018676757812e+00 1.967626214027404785e+00 1.847988516092300415e-01
5.000000000000000000e+02 6.828119659423828125e+01 -1.279913425445556641e+01 5.994842946529388428e-02 9.091301918029785156e+00 2.745375156402587891e+00 -1.261676311492919922e+00
5.010000000000000000e+02 6.682119750976562500e+01 -1.326510143280029297e+01 1.796505570411682129e+00 6.321884155273437500e+00 2.435516834259033203e+00 -3.178678274154663086e+00
5.020000000000000000e+02 6.638501739501953125e+01 -1.032732295989990234e+01 -5.040982365608215332e-01 4.914706707000732422e+00 1.323182582855224609e+00 -1.540333867073059082e+00
5.030000000000000000e+02 7.806836700439453125e+01 -9.708065986633300781e+00 -5.520635843276977539e-02 7.160047054290771484e+00 2.131452322006225586e+00 5.512838959693908691e-01
5.040000000000000000e+02 7.936635589599609375e+01 -5.528626918792724609e+00 -3.336305171251296997e-02 8.064053535461425781e+00 2.409207105636596680e+00 1.077310889959335327e-01
5.050000000000000000e+02 7.809945678710937500e+01 -2.666442394256591797e+00 -5.777124688029289246e-02 8.012306213378906250e+00 2.386360645294189453e+00 6.901972740888595581e-02
5.060000000000000000e+02 7.817054748535156250e+01 1.977566528320312500e+01 2.743799984455108643e-02 7.510941505432128906e+00 2.261513710021972656e+00 6.735109090805053711e-01
5.070000000000000000e+02 7.934711456298828125e+01 2.374543380737304688e+01 -2.393330074846744537e-02 8.686718940734863281e+00 2.598835706710815430e+00 2.345213443040847778e-01
5.080000000000000000e+02 6.237631607055664062e+01 4.097954177856445312e+01 6.276026368141174316e-01 3.549252271652221680e+00 1.253056526184082031e+00 1.094317436218261719e-02
5.090000000000000000e+02 5.742340087890625000e+01 4.071590423583984375e+01 3.672052025794982910e-01 3.013020992279052734e+00 1.014067888259887695e+00 1.527863442897796631e-01
5.100000000000000000e+02 5.801987075805664062e+01 3.737715530395507812e+01 3.829562366008758545e-01 2.906314611434936523e+00 9.867812991142272949e-01 3.652970492839813232e-01
5.110000000000000000e+02 5.232968902587890625e+01 4.069567871093750000e+01 -3.254593908786773682e-02 2.988801479339599609e+00 8.868766427040100098e-01 1.699938476085662842e-01
5.120000000000000000e+02 5.130193710327148438e+01 3.729808807373046875e+01 -2.464725077152252197e-01 3.094149589538574219e+00 8.543031215667724609e-01 4.656909406185150146e-01
5.130000000000000000e+02 5.117404174804687500e+01 3.104995727539062500e+01 -8.331074118614196777e-01 3.597665786743164062e+00 8.293675184249877930e-01 1.059570789337158203e+00
5.140000000000000000e+02 5.338918304443359375e+01 2.102303886413574219e+01 1.270105004310607910e+00 3.013518095016479492e+00 1.285086870193481445e+00 2.304110288619995117e+00
5.150000000000000000e+02 4.949614334106445312e+01 1.355007743835449219e+01 1.212430834770202637e+00 1.199949455261230469e+01 3.963577508926391602e+00 3.352164030075073242e+00
5.160000000000000000e+02 5.243692398071289062e+01 2.006155014038085938e+01 2.791299581527709961e+00 5.759850502014160156e+00 2.565345048904418945e+00 3.512171745300292969e+00
5.170000000000000000e+02 5.191337966918945312e+01 2.186912918090820312e+01 -4.565879404544830322e-01 5.798756599426269531e+00 1.602650642395019531e+00 2.009881734848022461e+00
5.180000000000000000e+02 5.555994796752929688e+01 2.206838226318359375e+01 -7.489211559295654297e-01 8.771803975105285645e-01 3.847775980830192566e-02 9.060671925544738770e-01
5.190000000000000000e+02 5.825648498535156250e+01 2.242374801635742188e+01 -3.146850109100341797e+00 3.826814517378807068e-02 -9.325745701789855957e-01 -2.368753403425216675e-02
5.200000000000000000e+02 5.689577865600585938e+01 2.225971984863281250e+01 -2.085535526275634766e+00 3.366395235061645508e-01 -5.246688127517700195e-01 2.514909505844116211e-01
5.210000000000000000e+02 5.977008056640625000e+01 2.398129463195800781e+01 -2.345887184143066406e+00 -1.493890285491943359e-01 -7.485828399658203125e-01 6.838321089744567871e-01
5.220000000000000000e+02 6.389508819580078125e+01 2.367998313903808594e+01 -2.204513788223266602e+00 6.604923605918884277e-01 -4.632064104080200195e-01 -5.537530183792114258e-01
5.230000000000000000e+02 6.671952056884765625e+01 2.097931289672851562e+01 -3.180057704448699951e-01 2.800136566162109375e+00 7.446392774581909180e-01 -1.691357135772705078e+00
5.240000000000000000e+02 6.720758056640625000e+01 2.413680458068847656e+01 -1.836360812187194824e+00 5.179780960083007812e+00 1.003026127815246582e+00 -1.710209250450134277e+00
5.250000000000000000e+02 7.666309356689453125e+01 2.258314323425292969e+01 -1.638434529304504395e-01 8.341836929321289062e+00 2.453398227691650391e+00 9.335228204727172852e-01
5.260000000000000000e+02 7.928141784667968750e+01 2.933218002319335938e+01 -2.949627581983804703e-03 9.653447151184082031e+00 2.895149230957031250e+00 4.005797952413558960e-02
5.270000000000000000e+02 7.248746490478515625e+01 3.580333328247070312e+01 7.561738044023513794e-02 6.792075157165527344e+00 2.060307741165161133e+00 -3.473091125488281250e-01
5.280000000000000000e+02 7.924921417236328125e+01 3.216949844360351562e+01 8.559818379580974579e-03 9.654622077941894531e+00 2.898954629898071289e+00 -1.546656619757413864e-02
5.290000000000000000e+02 7.942697143554687500e+01 3.754748535156250000e+01 -3.786970302462577820e-02 9.274247169494628906e+00 2.770913362503051758e+00 -6.123616173863410950e-02
5.300000000000000000e+02 7.440267181396484375e+01 3.812670135498046875e+01 7.959964126348495483e-02 7.457840442657470703e+00 2.261232137680053711e+00 -7.872798293828964233e-02
5.310000000000000000e+02 7.800824737548828125e+01 3.830554580688476562e+01 -5.027522519230842590e-02 8.804576873779296875e+00 2.626290559768676758e+00 -2.150180637836456299e-01
5.320000000000000000e+02 4.246870803833007812e+01 4.087846374511718750e+01 -5.317800641059875488e-01 2.885164260864257812e+00 7.060152292251586914e-01 -1.881811022758483887e-02
5.330000000000000000e+02 4.294299697875976562e+01 3.494577789306640625e+01 -6.995072960853576660e-01 3.137223243713378906e+00 7.313148379325866699e-01 -7.569986581802368164e-02
5.340000000000000000e+02 4.349156188964843750e+01 2.317707824707031250e+01 -8.498988747596740723e-01 4.819192886352539062e+00 1.190788269042968750e+00 -6.379339694976806641e-01
5.350000000000000000e+02 4.034513473510742188e+01 1.476940155029296875e+01 3.672435283660888672e-01 4.020545482635498047e+00 1.316336631774902344e+00 -1.267549157142639160e+00
5.360000000000000000e+02 4.104034042358398438e+01 1.100510883331298828e+01 1.170121669769287109e+00 5.851671695709228516e+00 2.106538057327270508e+00 -2.462377309799194336e+00
5.370000000000000000e+02 4.515948104858398438e+01 1.202231216430664062e+01 5.362672805786132812e-01 9.903966903686523438e+00 3.132070302963256836e+00 1.048038005828857422e+00
5.380000000000000000e+02 4.208443450927734375e+01 8.413927078247070312e+00 1.171642184257507324e+00 1.345224952697753906e+01 4.387167453765869141e+00 -2.594941139221191406e+00
5.390000000000000000e+02 4.238430404663085938e+01 7.029870510101318359e+00 6.865703463554382324e-01 1.585826969146728516e+01 4.963451862335205078e+00 -1.024246215820312500e+00
5.400000000000000000e+02 4.330877685546875000e+01 1.390800237655639648e+00 1.990330934524536133e+00 1.496226501464843750e+01 5.085778713226318359e+00 2.452877759933471680e+00
5.410000000000000000e+02 4.692024612426757812e+01 5.468371868133544922e+00 9.811779260635375977e-01 1.213877201080322266e+01 3.935985088348388672e+00 8.369402289390563965e-01
5.420000000000000000e+02 4.255233001708984375e+01 5.602934837341308594e+00 3.314338028430938721e-01 1.641187286376953125e+01 5.022991657257080078e+00 1.028908714652061462e-01
5.430000000000000000e+02 4.805446624755859375e+01 3.884908199310302734e+00 7.862275242805480957e-01 1.143102741241455078e+01 3.665176630020141602e+00 -4.939824938774108887e-01
5.440000000000000000e+02 4.863590621948242188e+01 9.409480094909667969e+00 6.529424786567687988e-01 1.268717956542968750e+01 4.002036571502685547e+00 2.412022829055786133e+00
5.450000000000000000e+02 4.661801910400390625e+01 1.239507102966308594e+01 8.347420096397399902e-01 1.036068248748779297e+01 3.358627319335937500e+00 1.802961707115173340e+00
5.460000000000000000e+02 4.916683197021484375e+01 1.216535854339599609e+01 9.166217446327209473e-01 1.246437644958496094e+01 4.014299392700195312e+00 2.967298269271850586e+00
5.470000000000000000e+02 5.043275070190429688e+01 1.626707839965820312e+01 1.430750250816345215e+00 1.038892173767089844e+01 3.545901536941528320e+00 3.570378541946411133e+00
5.480000000000000000e+02 3.988121795654296875e+01 1.668288803100585938e+01 5.456657707691192627e-02 3.531379938125610352e+00 1.075783967971801758e+00 -1.158802032470703125e+00
5.490000000000000000e+02 3.736519622802734375e+01 4.052880096435546875e+01 -3.898103535175323486e-01 2.378652095794677734e+00 5.966525077819824219e-01 -7.789307087659835815e-02
5.500000000000000000e+02 4.259860229492187500e+01 3.775001144409179688e+01 -5.889789462089538574e-01 2.965537548065185547e+00 7.129675745964050293e-01 -2.639228664338588715e-02
5.510000000000000000e+02 3.677930068969726562e+01 3.225317382812500000e+01 -4.800237119197845459e-01 2.323348999023437500e+00 5.529975891113281250e-01 -4.878093898296356201e-01
5.520000000000000000e+02 3.327457427978515625e+01 2.220959854125976562e+01 -8.759911656379699707e-01 7.658207416534423828e-01 -3.305114060640335083e-02 -4.844697713851928711e-01
5.530000000000000000e+02 3.400474166870117188e+01 1.800861740112304688e+01 -6.245919466018676758e-01 1.031852513551712036e-02 -1.842820197343826294e-01 2.079793959856033325e-01
5.540000000000000000e+02 3.591999816894531250e+01 1.814333915710449219e+01 -3.089791536331176758e-01 9.066258668899536133e-01 1.792940199375152588e-01 -3.994102180004119873e-01
5.550000000000000000e+02 3.723058700561523438e+01 1.534978485107421875e+01 3.002388775348663330e-01 8.222201466560363770e-01 3.367377221584320068e-01 -5.455155968666076660e-01
5.560000000000000000e+02 3.617589950561523438e+01 1.624234962463378906e+01 2.765989862382411957e-02 4.510109424591064453e-01 1.436012536287307739e-01 -2.432056218385696411e-01
5.570000000000000000e+02 3.212368774414062500e+01 4.056733703613281250e+01 -2.343762367963790894e-01 1.945079565048217773e+00 5.132110118865966797e-01 -5.907997116446495056e-02
5.580000000000000000e+02 3.412310028076171875e+01 3.467519760131835938e+01 -3.152034878730773926e-01 1.977011322975158691e+00 4.985423386096954346e-01 -2.927820384502410889e-01
5.590000000000000000e+02 3.018651199340820312e+01 2.797671318054199219e+01 -2.939979434013366699e-01 8.593682050704956055e-01 1.696110814809799194e-01 -2.033765912055969238e-01
5.600000000000000000e+02 2.487776947021484375e+01 2.149523925781250000e+01 -2.584080219268798828e+00 -3.253862634301185608e-02 -7.849856615066528320e-01 4.825056791305541992e-01
5.610000000000000000e+02 2.892727470397949219e+01 2.065861129760742188e+01 -2.292813539505004883e+00 -1.590056270360946655e-01 -7.355457544326782227e-01 5.548618435859680176e-01
5.620000000000000000e+02 2.929869651794433594e+01 2.210347747802734375e+01 -1.564570307731628418e+00 -2.814862690865993500e-02 -4.778156876564025879e-01 2.150888592004776001e-01
5.630000000000000000e+02 3.285232162475585938e+01 1.884874725341796875e+01 -1.068121314048767090e+00 -1.369840651750564575e-01 -3.615316152572631836e-01 3.931671380996704102e-01
5.640000000000000000e+02 2.169850540161132812e+01 3.859892654418945312e+01 -3.378882706165313721e-01 1.873894095420837402e+00 4.608017504215240479e-01 1.374844908714294434e-01
5.650000000000000000e+02 2.226187896728515625e+01 4.122097396850585938e+01 -3.084634840488433838e-01 1.851006627082824707e+00 4.627629518508911133e-01 3.728048503398895264e-02
5.660000000000000000e+02 2.841894721984863281e+01 2.988085937500000000e+01 -2.135981917381286621e-01 1.016830682754516602e+00 2.409697473049163818e-01 3.105247393250465393e-02
5.670000000000000000e+02 1.498944950103759766e+01 2.240357971191406250e+01 -5.254831910133361816e-01 4.610084533691406250e+00 1.225380420684814453e+00 -7.292769551277160645e-01
5.680000000000000000e+02 2.355551147460937500e+01 2.167831802368164062e+01 -2.609078168869018555e+00 -1.970868259668350220e-01 -8.418495059013366699e-01 3.150174021720886230e-01
5.690000000000000000e+02 2.622226333618164062e+01 2.129856491088867188e+01 -2.661335945129394531e+00 -1.733279973268508911e-01 -8.503991961479187012e-01 4.900977313518524170e-01
5.700000000000000000e+02 1.746708297729492188e+01 4.127350234985351562e+01 -4.313617646694183350e-01 2.051367998123168945e+00 4.860018491744995117e-01 2.203662879765033722e-02
5.710000000000000000e+02 1.739465904235839844e+01 3.871004486083984375e+01 -4.768267571926116943e-01 2.107006311416625977e+00 4.890538752079010010e-01 6.179427728056907654e-02
5.720000000000000000e+02 1.744989967346191406e+01 3.336705398559570312e+01 -6.968656182289123535e-01 2.407570123672485352e+00 5.132113695144653320e-01 1.715390086174011230e-01
5.730000000000000000e+02 2.022301483154296875e+01 2.104021072387695312e+01 4.892810583114624023e-01 3.165570497512817383e+00 1.096455454826354980e+00 1.855654597282409668e+00
5.740000000000000000e+02 1.843686294555664062e+01 1.536550712585449219e+01 1.979213207960128784e-01 1.116460323333740234e+01 3.408757209777832031e+00 1.189124435186386108e-01
5.750000000000000000e+02 1.864611434936523438e+01 1.124491214752197266e+01 5.241122245788574219e-01 1.298863601684570312e+01 4.053824424743652344e+00 -1.818007707595825195e+00
5.760000000000000000e+02 1.957082557678222656e+01 7.276258945465087891e+00 1.815469503402709961e+00 1.308615398406982422e+01 4.470487117767333984e+00 -4.425341129302978516e+00
5.770000000000000000e+02 1.919184684753417969e+01 8.558623313903808594e+00 1.338327765464782715e+00 1.328871250152587891e+01 4.388112068176269531e+00 -3.742907285690307617e+00
5.780000000000000000e+02 1.273475837707519531e+01 4.122946166992187500e+01 -4.154286980628967285e-01 2.103689670562744141e+00 5.064783096313476562e-01 -2.821069769561290741e-02
5.790000000000000000e+02 8.316697120666503906e+00 3.048638916015625000e+01 -4.454776048660278320e-01 2.126780986785888672e+00 5.043910145759582520e-01 -7.057434320449829102e-01
5.800000000000000000e+02 8.389123916625976562e+00 2.341263389587402344e+01 -1.640650928020477295e-01 2.143531560897827148e+00 5.938399434089660645e-01 -1.251699566841125488e+00
5.810000000000000000e+02 1.361253452301025391e+01 1.704010772705078125e+01 1.043055176734924316e+00 4.971475601196289062e+00 1.804359316825866699e+00 -1.107206106185913086e+00
5.820000000000000000e+02 1.015634822845458984e+01 6.831925868988037109e+00 1.093419551849365234e+00 1.028367519378662109e+00 6.365361213684082031e-01 2.209447771310806274e-01
5.830000000000000000e+02 6.620472431182861328e+00 1.887332558631896973e+00 -1.231966018676757812e+00 -9.065334498882293701e-02 -3.967858254909515381e-01 8.118260502815246582e-01
5.840000000000000000e+02 1.054853916168212891e+01 1.751974463462829590e+00 -1.964035749435424805e+00 -1.937166452407836914e-01 -6.473256945610046387e-01 7.719825506210327148e-01
5.850000000000000000e+02 1.210375118255615234e+01 1.484835386276245117e+00 -2.157281160354614258e+00 7.749848067760467529e-02 -6.239348053932189941e-01 4.538178443908691406e-01
5.860000000000000000e+02 1.361651611328125000e+01 1.186499357223510742e+00 -1.911676168441772461e+00 3.921218216419219971e-01 -4.558663070201873779e-01 -1.906042359769344330e-02
5.870000000000000000e+02 1.644278717041015625e+01 5.864289402961730957e-01 -3.375232815742492676e-01 2.434355020523071289e+00 6.290494799613952637e-01 -2.479432821273803711e+00
5.880000000000000000e+02 2.020922660827636719e+01 -2.514156401157379150e-01 3.943783283233642578e+00 1.362802982330322266e+01 5.271543979644775391e+00 9.957358241081237793e-01
5.890000000000000000e+02 2.199337577819824219e+01 -6.751198768615722656e-01 4.609656333923339844e+00 4.877295494079589844e+00 2.846085548400878906e+00 -1.242257595062255859e+00
5.900000000000000000e+02 2.097875404357910156e+01 -5.587836503982543945e-01 5.519936561584472656e+00 9.601663589477539062e+00 4.536479949951171875e+00 1.587759703397750854e-01
5.910000000000000000e+02 2.573343849182128906e+01 -3.401728153228759766e+00 4.308266162872314453e+00 9.748459458351135254e-01 1.584933638572692871e+00 -2.804332256317138672e+00
5.920000000000000000e+02 2.596861648559570312e+01 -1.925026178359985352e+00 2.304306030273437500e+00 9.710032343864440918e-01 9.825928211212158203e-01 -1.623014211654663086e+00
5.930000000000000000e+02 2.825687789916992188e+01 -6.338855743408203125e+00 3.061897516250610352e+00 2.096054553985595703e+00 1.547385573387145996e+00 -2.506089448928833008e+00
5.940000000000000000e+02 3.606798553466796875e+01 -5.749602794647216797e+00 -5.159785151481628418e-01 6.612185239791870117e-01 4.357199743390083313e-02 -1.283025592565536499e-01
5.950000000000000000e+02 3.203858184814453125e+01 -5.300650119781494141e+00 5.115826129913330078e-01 -6.631613522768020630e-02 1.335799396038055420e-01 -9.539568424224853516e-01
5.960000000000000000e+02 2.040789604187011719e+00 4.162572097778320312e+01 -3.327920287847518921e-02 1.955502867698669434e+00 5.766670703887939453e-01 -9.474673308432102203e-03
5.970000000000000000e+02 4.738424777984619141e+00 3.748050689697265625e+01 -1.227242201566696167e-01 1.852949857711791992e+00 5.190676450729370117e-01 -2.131219804286956787e-01
5.980000000000000000e+02 2.197984218597412109e+00 3.574346542358398438e+01 -3.671488910913467407e-02 1.719459414482116699e+00 5.048233270645141602e-01 -1.614211201667785645e-01
5.990000000000000000e+02 2.070980310440063477e+00 2.877871513366699219e+01 -4.023945704102516174e-02 9.477151036262512207e-01 2.722426950931549072e-01 -3.865019977092742920e-01
6.000000000000000000e+02 1.906191229820251465e+00 2.320108413696289062e+01 -3.588560502976179123e-03 -1.708372235298156738e-01 -5.232773721218109131e-02 -4.969796538352966309e-01
6.010000000000000000e+02 1.808495163917541504e+00 1.763798713684082031e+01 5.611620470881462097e-02 -1.369276165962219238e+00 -3.939479887485504150e-01 -3.597846925258636475e-01
6.020000000000000000e+02 5.935078859329223633e-01 6.357349872589111328e+00 -1.421580207534134388e-03 -1.425926446914672852e+00 -4.282043874263763428e-01 1.848597526550292969e-01
6.030000000000000000e+02 1.817483186721801758e+00 9.290032386779785156e+00 1.031734347343444824e-01 -1.620516180992126465e+00 -4.552028179168701172e-01 3.326486349105834961e-01
6.040000000000000000e+02 2.814468860626220703e+00 4.630816936492919922e+00 -9.459182620048522949e-02 -6.349098682403564453e-01 -2.188505083322525024e-01 7.080498933792114258e-01
6.050000000000000000e+02 2.212211227416992188e+01 -1.415798282623291016e+01 -3.375928878784179688e+00 1.597859263420104980e-01 -9.648428559303283691e-01 5.634043216705322266e-01
6.060000000000000000e+02 2.367601966857910156e+01 -1.321252059936523438e+01 -2.328456163406372070e+00 4.592106640338897705e-01 -5.607736110687255859e-01 -2.022998780012130737e-01
6.070000000000000000e+02 2.246139144897460938e+01 -1.299818992614746094e+01 -2.750316381454467773e+00 4.592639207839965820e-01 -6.873157024383544922e-01 1.409846246242523193e-01
6.080000000000000000e+02 2.610688018798828125e+01 -1.461074829101562500e+01 -2.259879827499389648e+00 8.092317730188369751e-03 -6.755362153053283691e-01 -1.452795565128326416e-01
6.090000000000000000e+02 2.883341598510742188e+01 -1.483817577362060547e+01 -2.702855169773101807e-01 7.827640324831008911e-02 -5.760273709893226624e-02 -5.439212918281555176e-01
6.100000000000000000e+02 3.044743728637695312e+01 -1.122189044952392578e+01 1.254225611686706543e+00 1.385791778564453125e+00 7.920052409172058105e-01 -2.920713186264038086e+00
6.110000000000000000e+02 3.040057754516601562e+01 -1.365972042083740234e+01 1.350913166999816895e+00 6.888593435287475586e-01 6.119317412376403809e-01 -1.968946814537048340e+00
6.120000000000000000e+02 1.907755279541015625e+01 -3.132304668426513672e+00 3.042890071868896484e+00 1.321804904937744141e+01 4.878281593322753906e+00 1.745393395423889160e+00
6.130000000000000000e+02 6.112858200073242188e+01 4.933390140533447266e+00 5.303862690925598145e-01 6.356489062309265137e-01 3.498105704784393311e-01 5.611566901206970215e-01
6.140000000000000000e+02 5.794034957885742188e+01 2.129714965820312500e+00 8.751582503318786621e-01 4.029889106750488281e-01 3.834441304206848145e-01 5.357272028923034668e-01
6.150000000000000000e+02 5.553812026977539062e+01 -3.404273509979248047e+00 1.403139710426330566e+00 2.290649153292179108e-02 4.278138577938079834e-01 8.144546300172805786e-02
6.160000000000000000e+02 5.261626052856445312e+01 -1.191733032464981079e-02 2.118789672851562500e+00 6.112896278500556946e-02 6.539755463600158691e-01 2.733179330825805664e-01
6.170000000000000000e+02 4.991973876953125000e+01 -8.105677604675292969e+00 -6.209172010421752930e-01 3.082787513732910156e+00 7.385611534118652344e-01 1.281403303146362305e+00
6.180000000000000000e+02 5.062462234497070312e+01 -1.589981317520141602e+00 1.770997881889343262e+00 2.028096914291381836e+00 1.139728426933288574e+00 -3.905059099197387695e-01
6.190000000000000000e+02 4.950471496582031250e+01 9.039454460144042969e-01 1.455169200897216797e+00 2.993906497955322266e+00 1.334722757339477539e+00 -1.837233304977416992e+00
6.200000000000000000e+02 4.039331436157226562e+01 -2.690606832504272461e+00 2.131656408309936523e+00 6.850305080413818359e+00 2.694588422775268555e+00 3.977455139160156250e+00
6.210000000000000000e+02 4.204385375976562500e+01 -5.315926551818847656e+00 -1.560503840446472168e+00 9.297713279724121094e+00 2.321162700653076172e+00 1.634488463401794434e+00
6.220000000000000000e+02 3.976821899414062500e+01 -4.053816318511962891e+00 1.617478430271148682e-01 5.202989101409912109e+00 1.609421133995056152e+00 2.649811744689941406e+00
6.230000000000000000e+02 3.475946807861328125e+01 -4.770577430725097656e+00 -2.266593694686889648e+00 -2.275547236204147339e-01 -7.482445240020751953e-01 -8.604151606559753418e-01
6.240000000000000000e+02 3.722052001953125000e+01 -6.911799430847167969e+00 -1.149553805589675903e-01 2.915475606918334961e+00 8.401560783386230469e-01 7.496892809867858887e-01
6.250000000000000000e+02 2.939432525634765625e+01 -5.059694290161132812e+00 5.726278305053710938e+00 2.354252338409423828e+00 2.424159049987792969e+00 -3.072589159011840820e+00
6.260000000000000000e+02 1.844417953491210938e+01 1.400006675720214844e+01 2.207417786121368408e-01 1.168825531005859375e+01 3.572699069976806641e+00 -4.189469814300537109e-01
6.270000000000000000e+02 1.929223823547363281e+01 2.004014205932617188e+01 1.475180029869079590e+00 6.435254573822021484e+00 2.373130559921264648e+00 2.282855272293090820e+00
6.280000000000000000e+02 2.231152915954589844e+01 2.180222702026367188e+01 -1.244621515274047852e+00 5.573679804801940918e-01 -2.061760723590850830e-01 8.114311695098876953e-01
6.290000000000000000e+02 1.704295730590820312e+01 -1.219700717926025391e+01 -5.377426147460937500e+00 -8.544526696205139160e-01 -1.869563579559326172e+00 1.769341468811035156e+00
6.300000000000000000e+02 2.129148292541503906e+01 -1.268990325927734375e+01 -3.039778470993041992e+00 6.141665577888488770e-01 -7.276836037635803223e-01 4.786315858364105225e-01
6.310000000000000000e+02 2.085635757446289062e+01 -1.382380199432373047e+01 -3.511095523834228516e+00 -1.239083409309387207e-01 -1.090501189231872559e+00 9.851719737052917480e-01
6.320000000000000000e+02 3.302458572387695312e+01 -1.560437870025634766e+01 4.280459403991699219e+00 2.622401237487792969e+00 2.070858240127563477e+00 -2.735915184020996094e+00
6.330000000000000000e+02 3.416239929199218750e+01 -1.641476440429687500e+01 4.440991401672363281e+00 4.395279884338378906e+00 2.650881290435791016e+00 -4.097200393676757812e+00
6.340000000000000000e+02 3.598207473754882812e+01 -1.910629463195800781e+01 1.884187221527099609e+00 1.261272525787353516e+01 4.349073886871337891e+00 -2.492704153060913086e+00
6.350000000000000000e+02 3.600884628295898438e+01 -2.039574432373046875e+01 2.728825509548187256e-01 1.174934959411621094e+01 3.606669664382934570e+00 -5.229349732398986816e-01
6.360000000000000000e+02 3.670871734619140625e+01 -2.414877319335937500e+01 1.837865352630615234e+00 1.089323902130126953e+01 3.819331407546997070e+00 1.576213955879211426e+00
6.370000000000000000e+02 3.574628829956054688e+01 -2.503334426879882812e+01 1.755654096603393555e+00 1.093727207183837891e+01 3.807878017425537109e+00 2.924083471298217773e+00
6.380000000000000000e+02 3.333033752441406250e+01 -2.836219024658203125e+01 1.821636438369750977e+00 3.301001310348510742e+00 1.536791324615478516e+00 2.423065662384033203e+00
6.390000000000000000e+02 3.294498825073242188e+01 -3.056196022033691406e+01 -1.573489904403686523e-01 3.356684923171997070e+00 9.598007798194885254e-01 1.679647326469421387e+00
6.400000000000000000e+02 2.669503974914550781e+01 -3.078424072265625000e+01 -1.993278026580810547e+00 -3.001314960420131683e-02 -6.069873571395874023e-01 6.588819622993469238e-02
6.410000000000000000e+02 1.243354511260986328e+01 -2.657649421691894531e+01 -6.493568420410156250e-01 2.585244417190551758e+00 5.807662606239318848e-01 -1.553304642438888550e-01
6.420000000000000000e+02 6.795471954345703125e+01 -1.150107383728027344e+01 -3.563559651374816895e-01 7.683607578277587891e+00 2.198175668716430664e+00 -1.500705599784851074e+00
6.430000000000000000e+02 5.225209045410156250e+01 -2.387501478195190430e+00 1.737868428230285645e+00 9.098409414291381836e-01 7.943128347396850586e-01 1.525500565767288208e-01
6.440000000000000000e+02 6.490336608886718750e+01 -6.193738460540771484e+00 -5.163260921835899353e-02 3.420372247695922852e+00 1.010621905326843262e+00 -8.038908243179321289e-01
6.450000000000000000e+02 6.360707855224609375e+01 4.542118608951568604e-01 5.513551235198974609e-01 2.630951881408691406e+00 9.546921253204345703e-01 5.158528089523315430e-01
6.460000000000000000e+02 3.512662887573242188e+01 -1.727152824401855469e+01 3.770215511322021484e+00 8.359836578369140625e+00 3.639015674591064453e+00 -4.397513866424560547e+00
6.470000000000000000e+02 3.603665161132812500e+01 -7.002712726593017578e+00 5.095542669296264648e-01 1.591132044792175293e+00 6.302058696746826172e-01 -2.613400295376777649e-02
6.480000000000000000e+02 4.362100982666015625e+01 -3.189968490600585938e+01 -9.350686073303222656e-01 6.756347656250000000e+00 1.746383786201477051e+00 -8.382186889648437500e-01
6.490000000000000000e+02 7.079327392578125000e+01 -3.168661689758300781e+01 -7.469196915626525879e-01 6.683533668518066406e+00 1.780984163284301758e+00 1.160797476768493652e-01
6.500000000000000000e+02 6.756934356689453125e+01 5.595172882080078125e+00 -1.510395854711532593e-01 6.063119888305664062e+00 1.773624062538146973e+00 9.829077720642089844e-01
6.510000000000000000e+02 7.419584655761718750e+01 2.969020605087280273e+00 -3.280164301395416260e-01 7.466828346252441406e+00 2.141643524169921875e+00 -3.017685711383819580e-01
6.520000000000000000e+02 6.376694869995117188e+01 3.961479187011718750e+00 5.115756392478942871e-01 2.657935857772827148e+00 9.508534669876098633e-01 1.161589503288269043e+00
6.530000000000000000e+02 5.775303268432617188e+01 -7.129962444305419922e+00 -1.672745794057846069e-01 2.832968533039093018e-02 -4.168346896767616272e-02 -9.883110970258712769e-02
6.540000000000000000e+02 6.392145919799804688e+01 2.224482917785644531e+01 -3.740476131439208984e+00 -2.942374348640441895e-02 -1.130969882011413574e+00 2.795428931713104248e-01
6.550000000000000000e+02 6.323248672485351562e+01 2.832606887817382812e+01 -1.464956700801849365e-01 2.146451711654663086e+00 5.999868512153625488e-01 -3.966551423072814941e-01
6.560000000000000000e+02 5.458457565307617188e+01 3.158179283142089844e+01 -3.124028444290161133e-01 2.843431234359741211e+00 7.593085169792175293e-01 1.187911391258239746e+00
6.570000000000000000e+02 5.609368515014648438e+01 2.986323738098144531e+01 -2.512843608856201172e-01 2.408730268478393555e+00 6.472337245941162109e-01 1.366790533065795898e+00
6.580000000000000000e+02 5.115452575683593750e+01 2.068926811218261719e+01 5.187745690345764160e-01 6.414957523345947266e+00 2.080119609832763672e+00 1.791454911231994629e+00
6.590000000000000000e+02 4.583514404296875000e+01 2.421748161315917969e+01 -1.066682100296020508e+00 5.327606201171875000e+00 1.278277277946472168e+00 -9.982395917177200317e-02
6.600000000000000000e+02 3.562770462036132812e+01 2.239956092834472656e+01 -6.602475047111511230e-01 1.546417236328125000e+00 2.658509314060211182e-01 -8.193900585174560547e-01
6.610000000000000000e+02 2.114620971679687500e+01 2.239671134948730469e+01 -6.337947249412536621e-01 1.988113641738891602e+00 4.062956869602203369e-01 1.346526980400085449e+00
6.620000000000000000e+02 7.596368789672851562e+00 2.530751609802246094e+01 -2.711348533630371094e-01 1.927394747734069824e+00 4.968779683113098145e-01 -1.108394384384155273e+00
6.630000000000000000e+02 1.144381046295166016e+01 1.846295166015625000e+01 6.845433115959167480e-01 3.435856342315673828e+00 1.236119866371154785e+00 -1.324898838996887207e+00
6.640000000000000000e+02 7.332687377929687500e+01 3.275619888305664062e+01 -1.556776762008666992e-01 7.337179660797119141e+00 2.154450654983520508e+00 -3.403024971485137939e-01
6.650000000000000000e+02 6.477281951904296875e+01 3.043900871276855469e+01 4.205144941806793213e-02 3.278713703155517578e+00 9.962295293807983398e-01 -5.355828404426574707e-01
6.660000000000000000e+02 3.952251815795898438e+01 3.410292816162109375e+01 -6.048904061317443848e-01 2.755735158920288086e+00 6.452534198760986328e-01 -3.202668726444244385e-01
6.670000000000000000e+02 2.253007316589355469e+01 3.098983573913574219e+01 -4.598407745361328125e-01 1.757885813713073730e+00 3.894135057926177979e-01 5.734683275222778320e-01
6.680000000000000000e+02 7.048127174377441406e+00 3.250731658935546875e+01 -3.225699961185455322e-01 1.933376789093017578e+00 4.832420349121093750e-01 -5.510379672050476074e-01
6.690000000000000000e+02 2.186921596527099609e+00 3.160197639465332031e+01 -4.643863812088966370e-02 1.346275925636291504e+00 3.899511992931365967e-01 -2.986601293087005615e-01
6.700000000000000000e+02 1.003288936614990234e+01 7.841008663177490234e+00 1.298971295356750488e+00 1.228224754333496094e+00 7.581588029861450195e-01 8.426207304000854492e-02
6.710000000000000000e+02 1.789407372474670410e+00 1.626858711242675781e+01 6.213954091072082520e-02 -1.587637305259704590e+00 -4.576493501663208008e-01 -2.773875892162322998e-01
6.720000000000000000e+02 4.625067138671875000e+01 -2.006187248229980469e+01 6.161591410636901855e-01 1.346581649780273438e+01 4.224592685699462891e+00 -5.202891826629638672e-01
6.730000000000000000e+02 4.638169479370117188e+01 -1.732298851013183594e+01 3.930777311325073242e-01 1.272070789337158203e+01 3.934135675430297852e+00 9.826382994651794434e-01
6.740000000000000000e+02 4.646692276000976562e+01 -2.270514106750488281e+01 1.841089963912963867e+00 1.261084365844726562e+01 4.335580348968505859e+00 -3.233915328979492188e+00
6.750000000000000000e+02 7.982429981231689453e+00 -1.866469383239746094e+00 -5.102016329765319824e-01 1.037687510251998901e-01 -1.219298690557479858e-01 -7.184989750385284424e-02
6.760000000000000000e+02 7.230063915252685547e+00 -1.867279171943664551e+00 -5.028425455093383789e-01 8.563268929719924927e-02 -1.251629590988159180e-01 -1.434413790702819824e-01
6.770000000000000000e+02 6.477744579315185547e+00 -1.867676019668579102e+00 -4.665467441082000732e-01 5.899394676089286804e-02 -1.222658380866050720e-01 -1.979394853115081787e-01
6.780000000000000000e+02 3.491821050643920898e+00 -1.853633403778076172e+00 -2.327334880828857422e-01 -2.981425076723098755e-02 -7.876431941986083984e-02 -2.371837496757507324e-01
6.790000000000000000e+02 4.232136249542236328e+00 -1.854672431945800781e+00 -3.050342202186584473e-01 -9.470554068684577942e-03 -9.435143321752548218e-02 -2.516303360462188721e-01
6.800000000000000000e+02 3.005888223648071289e+00 -3.168973684310913086e+00 -1.221530586481094360e-01 -1.173333600163459778e-01 -7.184592634439468384e-02 -3.175678551197052002e-01
6.810000000000000000e+02 2.049498558044433594e+00 -1.972225427627563477e+00 -1.124798431992530823e-01 -8.494158089160919189e-02 -5.922642722725868225e-02 -1.888442188501358032e-01
6.820000000000000000e+02 1.322888374328613281e+00 -2.183552742004394531e+00 -5.469325929880142212e-02 -1.287814676761627197e-01 -5.504241585731506348e-02 -1.368549317121505737e-01
6.830000000000000000e+02 4.735546112060546875e-01 -2.262918233871459961e+00 -1.856943778693675995e-02 -1.325273215770721436e-01 -4.532902687788009644e-02 -5.875825136899948120e-02
6.840000000000000000e+02 2.095244169235229492e+00 -4.155789947509765625e+01 1.349458470940589905e-02 2.370134115219116211e+00 7.150886058807373047e-01 -3.735357429832220078e-03
6.850000000000000000e+02 9.876443743705749512e-01 -3.850702285766601562e+01 2.302115317434072495e-03 2.385893344879150391e+00 7.164586186408996582e-01 6.167066283524036407e-03
6.860000000000000000e+02 7.177695631980895996e-01 -3.478570556640625000e+01 -2.045466564595699310e-02 2.206713676452636719e+00 6.558776497840881348e-01 6.161357834935188293e-02
6.870000000000000000e+02 7.331288456916809082e-01 -3.335698699951171875e+01 -1.505565643310546875e-02 2.060608863830566406e+00 6.136659979820251465e-01 9.462916105985641479e-02
6.880000000000000000e+02 6.466140747070312500e-01 -2.907498168945312500e+01 -6.247019860893487930e-03 1.204747438430786133e+00 3.595501184463500977e-01 1.720198392868041992e-01
6.890000000000000000e+02 6.489021778106689453e-01 -2.766410827636718750e+01 -2.844629995524883270e-02 7.874597311019897461e-01 2.277040183544158936e-01 2.109013050794601440e-01
6.900000000000000000e+02 6.533920764923095703e-01 -2.624830245971679688e+01 8.812711574137210846e-03 3.065917789936065674e-01 9.462134540081024170e-02 2.315657883882522583e-01
6.910000000000000000e+02 6.422516107559204102e-01 -2.200741958618164062e+01 -1.826163940131664276e-02 -1.290662288665771484e+00 -3.926771879196166992e-01 2.389514446258544922e-01
6.920000000000000000e+02 6.276886463165283203e-01 -2.059785270690917969e+01 4.137536510825157166e-02 -1.791141271591186523e+00 -5.249297618865966797e-01 2.121703028678894043e-01
6.930000000000000000e+02 1.874856352806091309e+00 -2.059105873107910156e+01 6.102419644594192505e-02 -8.356271386146545410e-01 -2.323808819055557251e-01 5.494921803474426270e-01
6.940000000000000000e+02 5.943306684494018555e-01 -1.637256813049316406e+01 2.052517607808113098e-02 -2.645081520080566406e+00 -7.873669266700744629e-01 3.117600642144680023e-02
6.950000000000000000e+02 5.884283185005187988e-01 -1.497189521789550781e+01 2.846915088593959808e-02 -2.633951425552368164e+00 -7.816447019577026367e-01 -2.760320529341697693e-02
6.960000000000000000e+02 5.863409638404846191e-01 -1.357259464263916016e+01 1.766719296574592590e-02 -2.482521772384643555e+00 -7.394563555717468262e-01 -8.215758949518203735e-02
6.970000000000000000e+02 1.772163391113281250e+00 -1.367759132385253906e+01 9.581977874040603638e-02 -1.526941537857055664e+00 -4.293365180492401123e-01 -2.136725038290023804e-01
6.980000000000000000e+02 5.585610866546630859e-01 -9.367807388305664062e+00 -6.412461400032043457e-03 -1.583653926849365234e+00 -4.770199358463287354e-01 -1.283490359783172607e-01
6.990000000000000000e+02 5.387062430381774902e-01 -7.965925216674804688e+00 4.674965515732765198e-03 -1.242461323738098145e+00 -3.713358938694000244e-01 -1.270358562469482422e-01
7.000000000000000000e+02 5.215767025947570801e-01 -6.569775581359863281e+00 -1.061799749732017517e-02 -9.117156267166137695e-01 -2.767000794410705566e-01 -1.144738197326660156e-01
7.010000000000000000e+02 7.428889465332031250e+01 -3.740650177001953125e+01 -1.461561471223831177e-01 7.142806529998779297e+00 2.098995208740234375e+00 -9.135088324546813965e-02
7.020000000000000000e+02 4.836212539672851562e+01 -3.768143844604492188e+01 -8.521932959556579590e-01 4.369020938873291016e+00 1.055048346519470215e+00 -9.352331757545471191e-01
7.030000000000000000e+02 1.283154296875000000e+01 -4.100783920288085938e+01 -2.085933089256286621e-01 1.119705677032470703e+00 2.733337283134460449e-01 -3.171397000551223755e-02
7.040000000000000000e+02 7.531092834472656250e+01 4.034726715087890625e+01 1.380659788846969604e-01 7.999787807464599609e+00 2.441356182098388672e+00 2.843054942786693573e-02
7.050000000000000000e+02 7.884844207763671875e+01 4.013542938232421875e+01 -7.074481993913650513e-02 8.883862495422363281e+00 2.643935441970825195e+00 -1.536586135625839233e-01
7.060000000000000000e+02 7.925041961669921875e+01 3.883394241333007812e+01 1.020899601280689240e-02 9.093240737915039062e+00 2.731034755706787109e+00 -8.405740559101104736e-02
7.070000000000000000e+02 7.740784454345703125e+01 3.738019561767578125e+01 -5.540908128023147583e-02 8.756258964538574219e+00 2.610255002975463867e+00 -2.607035338878631592e-01
7.080000000000000000e+02 7.938240051269531250e+01 3.492527770996093750e+01 -2.331192418932914734e-02 9.544457435607910156e+00 2.856343507766723633e+00 -4.127725958824157715e-02
7.090000000000000000e+02 7.779194641113281250e+01 3.396109390258789062e+01 -2.749439701437950134e-02 8.949989318847656250e+00 2.676748514175415039e+00 -1.208353489637374878e-01
7.100000000000000000e+02 7.928330993652343750e+01 3.358070755004882812e+01 -8.276644162833690643e-03 9.609061241149902344e+00 2.880235433578491211e+00 -1.232085935771465302e-02
7.110000000000000000e+02 7.925997161865234375e+01 3.074486541748046875e+01 -3.073407895863056183e-02 9.677678108215332031e+00 2.894083261489868164e+00 1.027838140726089478e-02
7.120000000000000000e+02 7.790811157226562500e+01 2.802551841735839844e+01 -1.024426370859146118e-01 9.051096916198730469e+00 2.684596538543701172e+00 1.936898976564407349e-01
7.130000000000000000e+02 7.932077026367187500e+01 2.652900695800781250e+01 -1.940408907830715179e-02 9.381543159484863281e+00 2.808641672134399414e+00 1.320877522230148315e-01
7.140000000000000000e+02 7.667128753662109375e+01 2.529561805725097656e+01 -2.722942233085632324e-01 8.593632698059082031e+00 2.496401548385620117e+00 5.501337647438049316e-01
7.150000000000000000e+02 7.933661651611328125e+01 2.513610458374023438e+01 -2.594813890755176544e-02 9.090299606323242188e+00 2.719305276870727539e+00 1.800869405269622803e-01
7.160000000000000000e+02 7.936885070800781250e+01 2.098473548889160156e+01 -2.233215980231761932e-02 7.651143550872802734e+00 2.288643360137939453e+00 2.809022665023803711e-01
7.170000000000000000e+02 7.938903808593750000e+01 1.960631942749023438e+01 4.775577783584594727e-02 7.103944301605224609e+00 2.145509958267211914e+00 2.424918562173843384e-01
7.180000000000000000e+02 7.940389251708984375e+01 1.822438240051269531e+01 -1.566127315163612366e-02 6.607821464538574219e+00 1.977648019790649414e+00 2.177409380674362183e-01
7.190000000000000000e+02 7.935129547119140625e+01 1.403249835968017578e+01 6.032311543822288513e-02 5.928920269012451172e+00 1.796772956848144531e+00 5.888470914214849472e-03
7.200000000000000000e+02 7.934272003173828125e+01 1.262286663055419922e+01 -2.485811011865735054e-03 5.993252754211425781e+00 1.797230124473571777e+00 -4.676672071218490601e-02
7.210000000000000000e+02 7.935487365722656250e+01 1.121447753906250000e+01 4.725788161158561707e-02 6.163688182830810547e+00 1.863283872604370117e+00 -1.001902073621749878e-01
7.220000000000000000e+02 7.935057067871093750e+01 7.020813941955566406e+00 -3.594176378101110458e-03 7.141475677490234375e+00 2.141364336013793945e+00 -1.644584238529205322e-01
7.230000000000000000e+02 7.934317016601562500e+01 5.624293804168701172e+00 -1.283065415918827057e-02 7.472354412078857422e+00 2.237857103347778320e+00 -1.457833051681518555e-01
7.240000000000000000e+02 7.934482574462890625e+01 4.224288463592529297e+00 -2.921640640124678612e-03 7.766966819763183594e+00 2.329213619232177734e+00 -1.302370429039001465e-01
7.250000000000000000e+02 7.936504364013671875e+01 3.700554370880126953e-02 -3.095622360706329346e-02 8.306539535522460938e+00 2.482675075531005859e+00 -3.284773975610733032e-02
7.260000000000000000e+02 7.936589050292968750e+01 -1.354410171508789062e+00 2.866244409233331680e-03 8.356100082397460938e+00 2.507689714431762695e+00 -4.187488462775945663e-03
7.270000000000000000e+02 7.810836791992187500e+01 -4.048616409301757812e+00 -9.111964702606201172e-02 7.952133655548095703e+00 2.358304262161254883e+00 1.601911634206771851e-01
7.280000000000000000e+02 7.936779022216796875e+01 -4.134689331054687500e+00 -1.708729309029877186e-03 8.242634773254394531e+00 2.472277879714965820e+00 6.627561897039413452e-02
7.290000000000000000e+02 7.935503387451171875e+01 -8.331731796264648438e+00 -2.382574044167995453e-02 7.443014621734619141e+00 2.225756645202636719e+00 1.875992417335510254e-01
7.300000000000000000e+02 7.809835815429687500e+01 -1.111946392059326172e+01 -1.570323668420314789e-02 6.848400115966796875e+00 2.049808979034423828e+00 6.041650772094726562e-01
7.310000000000000000e+02 7.936788940429687500e+01 -1.113044738769531250e+01 4.515555629041045904e-04 6.551445960998535156e+00 1.965569257736206055e+00 2.261111289262771606e-01
7.320000000000000000e+02 7.941064453125000000e+01 -1.530027961730957031e+01 1.206901762634515762e-02 5.161214828491210938e+00 1.551985144615173340e+00 1.535417139530181885e-01
7.330000000000000000e+02 7.815949249267578125e+01 -1.799030685424804688e+01 1.795027554035186768e-01 5.723218917846679688e+00 1.770816445350646973e+00 -1.331940875388681889e-03
7.340000000000000000e+02 7.939259338378906250e+01 -1.807301521301269531e+01 2.183675020933151245e-02 4.826487541198730469e+00 1.454497218132019043e+00 -9.537788107991218567e-03
7.350000000000000000e+02 7.934837341308593750e+01 -2.362620735168457031e+01 2.844094485044479370e-02 6.164893627166748047e+00 1.858000397682189941e+00 -2.740522325038909912e-01
7.360000000000000000e+02 7.797665405273437500e+01 -2.493409156799316406e+01 -2.903080312535166740e-04 7.015326499938964844e+00 2.104510784149169922e+00 -7.255892157554626465e-01
7.370000000000000000e+02 7.932533264160156250e+01 -2.503053665161132812e+01 -1.916579902172088623e-02 6.725805282592773438e+00 2.011991739273071289e+00 -2.787723243236541748e-01
7.380000000000000000e+02 7.927423095703125000e+01 -2.925908279418945312e+01 -1.068171230144798756e-03 8.157797813415527344e+00 2.447019100189208984e+00 -2.022638767957687378e-01
7.390000000000000000e+02 7.783249664306640625e+01 -3.222493362426757812e+01 -8.559580892324447632e-02 8.283189773559570312e+00 2.459278345108032227e+00 -2.702098190784454346e-01
7.400000000000000000e+02 7.926452636718750000e+01 -3.209940719604492188e+01 4.129900131374597549e-03 8.725500106811523438e+00 2.618888854980468750e+00 -1.208913028240203857e-01
7.410000000000000000e+02 7.929690551757812500e+01 -3.630970764160156250e+01 2.040939219295978546e-02 8.988435745239257812e+00 2.702653408050537109e+00 -1.562157645821571350e-02
7.420000000000000000e+02 7.940266418457031250e+01 -3.761130523681640625e+01 -6.736747175455093384e-02 8.972700119018554688e+00 2.671599864959716797e+00 2.453167550265789032e-02
7.430000000000000000e+02 7.930335235595703125e+01 -3.878318786621093750e+01 3.896550834178924561e-02 8.860978126525878906e+00 2.669982910156250000e+00 4.392835497856140137e-02
7.440000000000000000e+02 7.884015655517578125e+01 -4.000852203369140625e+01 -8.274845033884048462e-02 8.678643226623535156e+00 2.578768253326416016e+00 1.314515918493270874e-01
7.450000000000000000e+02 5.096001625061035156e+00 4.030268859863281250e+01 -1.184463053941726685e-01 1.906711697578430176e+00 5.364795923233032227e-01 -9.555396437644958496e-02
7.460000000000000000e+02 2.709980773925781250e+01 4.101995468139648438e+01 -1.718276143074035645e-01 1.697027206420898438e+00 4.575598537921905518e-01 3.591422736644744873e-02
7.470000000000000000e+02 4.735449981689453125e+01 4.093159103393554688e+01 -4.318298101425170898e-01 3.070132732391357422e+00 7.914908528327941895e-01 7.761351019144058228e-02
7.480000000000000000e+02 6.719132995605468750e+01 4.089592361450195312e+01 5.152076482772827148e-01 4.921659469604492188e+00 1.631060123443603516e+00 -7.032178342342376709e-02
7.490000000000000000e+02 3.852474093437194824e-01 2.176375865936279297e+00 -1.347767841070890427e-02 -1.363130807876586914e-01 -4.493722692131996155e-02 5.518355965614318848e-02
7.500000000000000000e+02 2.732236862182617188e+00 2.914627313613891602e+00 -2.343931496143341064e-01 -3.374083638191223145e-01 -1.715404540300369263e-01 5.832816362380981445e-01
7.510000000000000000e+02 5.904802799224853516e+00 4.261763572692871094e+00 -1.877596676349639893e-01 -2.515909373760223389e-01 -1.318051815032958984e-01 1.041099071502685547e+00
7.520000000000000000e+02 6.163732409477233887e-01 9.262372970581054688e+00 2.762345597147941589e-02 -2.195451974868774414e+00 -6.503485441207885742e-01 1.351190060377120972e-01
7.530000000000000000e+02 5.921671390533447266e-01 1.210306930541992188e+01 1.900806464254856110e-02 -2.593715667724609375e+00 -7.724122405052185059e-01 2.655111066997051239e-02
7.540000000000000000e+02 1.761072278022766113e+00 1.212493324279785156e+01 9.984414279460906982e-02 -1.864070177078247070e+00 -5.292677879333496094e-01 6.112276017665863037e-02
7.550000000000000000e+02 5.981887578964233398e-01 1.631548500061035156e+01 1.786546967923641205e-02 -2.326061487197875977e+00 -6.924588084220886230e-01 -1.014329418540000916e-01
7.560000000000000000e+02 6.027135848999023438e-01 1.771605491638183594e+01 7.049384526908397675e-03 -2.057588338851928711e+00 -6.151617169380187988e-01 -1.302106529474258423e-01
7.570000000000000000e+02 6.275864839553833008e-01 2.192898178100585938e+01 5.933858919888734818e-03 -9.655190110206604004e-01 -2.878755331039428711e-01 -1.784405559301376343e-01
7.580000000000000000e+02 6.392762660980224609e-01 2.333937454223632812e+01 -3.728885669261217117e-03 -5.652965307235717773e-01 -1.707076281309127808e-01 -1.797875612974166870e-01
7.590000000000000000e+02 6.511060595512390137e-01 2.474885177612304688e+01 -1.412108773365616798e-03 -1.787365227937698364e-01 -5.404458940029144287e-02 -1.745975762605667114e-01
7.600000000000000000e+02 6.913909316062927246e-01 2.897296524047851562e+01 -6.324022077023983002e-03 8.157233595848083496e-01 2.428198009729385376e-01 -1.375598609447479248e-01
7.610000000000000000e+02 7.098745703697204590e-01 3.038567733764648438e+01 -9.448874741792678833e-03 1.074308991432189941e+00 3.194580376148223877e-01 -1.212574392557144165e-01
7.620000000000000000e+02 2.132503986358642578e+00 3.018924522399902344e+01 -4.448638483881950378e-02 1.162603139877319336e+00 3.354350328445434570e-01 -3.444280028343200684e-01
7.630000000000000000e+02 7.244418859481811523e-01 3.179758071899414062e+01 -8.077125996351242065e-03 1.293291807174682617e+00 3.855644166469573975e-01 -1.040799468755722046e-01
7.640000000000000000e+02 7.348704934120178223e-01 3.599386215209960938e+01 -6.364270113408565521e-03 1.737856507301330566e+00 5.194476842880249023e-01 -5.454451590776443481e-02
7.650000000000000000e+02 3.412056446075439453e+00 3.698424148559570312e+01 -7.352466136217117310e-02 1.809593439102172852e+00 5.208206176757812500e-01 -1.920973509550094604e-01
7.660000000000000000e+02 9.596670866012573242e-01 3.870069122314453125e+01 -3.199780825525522232e-03 1.898222446441650391e+00 5.685067772865295410e-01 -3.789713978767395020e-02
7.670000000000000000e+02 1.339655637741088867e+00 4.005508041381835938e+01 -4.642972256988286972e-03 1.941687703132629395e+00 5.811134576797485352e-01 -3.238168731331825256e-02
7.680000000000000000e+02 9.760908126831054688e+00 1.828333139419555664e+00 -1.863357186317443848e+00 -2.227714061737060547e-01 -6.258385777473449707e-01 8.545476198196411133e-01
7.690000000000000000e+02 8.973402976989746094e+00 1.851871728897094727e+00 -1.743919491767883301e+00 -2.089247107505798340e-01 -5.858532786369323730e-01 9.373506903648376465e-01
7.700000000000000000e+02 8.189683914184570312e+00 1.866757631301879883e+00 -1.655412435531616211e+00 -1.281149387359619141e-01 -5.350582599639892578e-01 9.199562072753906250e-01
7.710000000000000000e+02 7.405604839324951172e+00 1.877805471420288086e+00 -1.437386035919189453e+00 -8.987398445606231689e-02 -4.581780135631561279e-01 8.590980172157287598e-01
7.720000000000000000e+02 5.836008071899414062e+00 1.896519780158996582e+00 -1.016545295715332031e+00 -8.646886795759201050e-02 -3.309042453765869141e-01 7.574915289878845215e-01
7.730000000000000000e+02 5.054195880889892578e+00 1.905654788017272949e+00 -8.149868845939636230e-01 -1.082505732774734497e-01 -2.769712209701538086e-01 6.928182244300842285e-01
7.740000000000000000e+02 4.275317192077636719e+00 1.917419314384460449e+00 -6.294209361076354980e-01 -1.175708398222923279e-01 -2.240975350141525269e-01 6.176480054855346680e-01
7.750000000000000000e+02 3.496114730834960938e+00 1.938609123229980469e+00 -4.586176276206970215e-01 -1.535914242267608643e-01 -1.836627125740051270e-01 5.343540906906127930e-01
7.760000000000000000e+02 1.934107065200805664e+00 2.037601470947265625e+00 -1.763861775398254395e-01 -2.178790271282196045e-01 -1.182795614004135132e-01 3.111299574375152588e-01
7.770000000000000000e+02 1.158224105834960938e+00 2.109372615814208984e+00 -7.023282349109649658e-02 -2.208042442798614502e-01 -8.731111884117126465e-02 1.827271580696105957e-01
7.780000000000000000e+02 1.132939815521240234e+01 1.623149752616882324e+00 -2.068501234054565430e+00 -8.591533452272415161e-02 -6.463249325752258301e-01 5.961549878120422363e-01
7.790000000000000000e+02 1.287123203277587891e+01 1.338609337806701660e+00 -2.080121755599975586e+00 2.388756126165390015e-01 -5.523738265037536621e-01 2.857697904109954834e-01
7.800000000000000000e+02 1.504703521728515625e+01 8.780586123466491699e-01 -1.463338136672973633e+00 1.112429738044738770e+00 -1.052725166082382202e-01 -9.198980331420898438e-01
7.810000000000000000e+02 1.572705554962158203e+01 7.383332848548889160e-01 -1.065383791923522949e+00 1.673041462898254395e+00 1.822973042726516724e-01 -1.575613975524902344e+00
7.820000000000000000e+02 1.665469741821289062e+01 5.117459297180175781e-01 -2.263116240501403809e-01 2.789618253707885742e+00 7.689920067787170410e-01 -2.773042201995849609e+00
7.830000000000000000e+02 1.871353149414062500e+01 6.107098579406738281e+00 1.425277113914489746e+00 9.853502273559570312e+00 3.383633852005004883e+00 -2.928425312042236328e+00
7.840000000000000000e+02 1.744606018066406250e+01 4.115948677062988281e-01 5.078894495964050293e-01 4.951564311981201172e+00 1.637836098670959473e+00 -4.497910499572753906e+00
7.850000000000000000e+02 1.802788352966308594e+01 3.357130587100982666e-01 4.731710851192474365e-01 7.899158000946044922e+00 2.511698722839355469e+00 -5.731648445129394531e+00
7.860000000000000000e+02 1.835854911804199219e+01 5.465708971023559570e-01 -3.381049036979675293e-01 1.031054019927978516e+01 2.991730690002441406e+00 -5.588422298431396484e+00
7.870000000000000000e+02 1.907453346252441406e+01 2.480070292949676514e-01 -9.930005669593811035e-01 1.504483985900878906e+01 4.215551853179931641e+00 -4.272358417510986328e+00
7.880000000000000000e+02 1.958409309387207031e+01 1.269811987876892090e-01 1.704371571540832520e-01 1.574751663208007812e+01 4.775386333465576172e+00 -1.695473432540893555e+00
7.890000000000000000e+02 1.689193534851074219e+01 -2.949547529220581055e+00 4.282739162445068359e+00 1.252933144569396973e+00 1.660701751708984375e+00 2.632972240447998047e+00
7.900000000000000000e+02 1.631797599792480469e+01 -2.743826150894165039e+00 3.326434135437011719e+00 3.597595393657684326e-01 1.105858087539672852e+00 1.635612726211547852e+00
7.910000000000000000e+02 1.577620410919189453e+01 -3.039942741394042969e+00 2.911071300506591797e+00 2.497341632843017578e-01 9.482415914535522461e-01 1.623781085014343262e+00
7.920000000000000000e+02 1.573271846771240234e+01 -2.734114408493041992e+00 2.636128425598144531e+00 1.264089643955230713e-01 8.287612199783325195e-01 1.243529081344604492e+00
7.930000000000000000e+02 1.598035430908203125e+01 -2.935657978057861328e+00 3.103276968002319336e+00 2.545223236083984375e-01 1.007339835166931152e+00 1.578243851661682129e+00
7.940000000000000000e+02 1.292756175994873047e+01 -2.352877616882324219e+00 3.549452722072601318e-01 9.273640811443328857e-03 1.092656701803207397e-01 5.113168358802795410e-01
7.950000000000000000e+02 1.353027820587158203e+01 -2.461869478225708008e+00 6.385946273803710938e-01 -2.465911768376827240e-02 1.841806620359420776e-01 6.189959645271301270e-01
7.960000000000000000e+02 9.471027374267578125e+00 -2.601485252380371094e+00 -2.892086207866668701e-01 2.213713526725769043e-01 -2.035118639469146729e-02 1.178664416074752808e-01
7.970000000000000000e+02 6.249049377441406250e+01 2.372083473205566406e+01 -2.744904279708862305e+00 2.194086275994777679e-02 -8.168890476226806641e-01 6.406992673873901367e-03
7.980000000000000000e+02 6.783371734619140625e+01 1.986557769775390625e+01 1.649082303047180176e+00 1.038836288452148438e+01 3.611233711242675781e+00 -2.642661571502685547e+00
7.990000000000000000e+02 6.832993316650390625e+01 1.546350955963134766e+01 9.278750419616699219e-01 1.501492786407470703e+01 4.782840728759765625e+00 9.486142396926879883e-01
8.000000000000000000e+02 6.823020172119140625e+01 1.408252048492431641e+01 7.196840643882751465e-01 1.455368137359619141e+01 4.582009792327880859e+00 2.259180307388305664e+00
8.010000000000000000e+02 6.717375946044921875e+01 1.070156192779541016e+01 2.209259748458862305e+00 9.256999969482421875e+00 3.439877986907958984e+00 3.598523139953613281e+00
8.020000000000000000e+02 6.533168029785156250e+01 8.680345535278320312e+00 1.953801274299621582e+00 3.943877696990966797e+00 1.769303679466247559e+00 2.564082622528076172e+00
8.030000000000000000e+02 6.326577758789062500e+01 6.770462036132812500e+00 1.006250739097595215e+00 1.541327834129333496e+00 7.642735838890075684e-01 1.210591435432434082e+00
8.040000000000000000e+02 6.220897293090820312e+01 5.839786052703857422e+00 7.346715331077575684e-01 9.954172372817993164e-01 5.190266370773315430e-01 8.377911448478698730e-01
8.050000000000000000e+02 5.901660919189453125e+01 3.063879013061523438e+00 5.677744746208190918e-01 4.018532633781433105e-01 2.908883094787597656e-01 4.355852305889129639e-01
8.060000000000000000e+02 5.545133972167968750e+01 5.582173466682434082e-01 1.922365069389343262e+00 3.077457547187805176e-01 6.690332293510437012e-01 6.330006122589111328e-01
8.070000000000000000e+02 4.821354675292968750e+01 6.619224071502685547e+00 3.747469782829284668e-01 1.211128044128417969e+01 3.745808124542236328e+00 1.169089794158935547e+00
8.080000000000000000e+02 4.839510726928710938e+01 8.023256301879882812e+00 4.961922168731689453e-01 1.273325252532958984e+01 3.968833446502685547e+00 1.859755158424377441e+00
8.090000000000000000e+02 4.890008926391601562e+01 1.078421401977539062e+01 6.217521429061889648e-01 1.245446968078613281e+01 3.922866582870483398e+00 2.700159788131713867e+00
8.100000000000000000e+02 5.097691726684570312e+01 1.759581375122070312e+01 2.007049798965454102e+00 9.655054092407226562e+00 3.498631238937377930e+00 3.867316961288452148e+00
8.110000000000000000e+02 5.163653564453125000e+01 1.887478446960449219e+01 2.462008237838745117e+00 8.029892921447753906e+00 3.147570133209228516e+00 3.992097616195678711e+00
8.120000000000000000e+02 5.963237762451171875e+01 2.255165672302246094e+01 -4.337315082550048828e+00 -2.915341965854167938e-02 -1.309940576553344727e+00 -4.653860256075859070e-02
8.130000000000000000e+02 3.030242538452148438e+01 2.022908782958984375e+01 -2.099392414093017578e+00 -2.471658438444137573e-01 -7.039674520492553711e-01 5.802793502807617188e-01
8.140000000000000000e+02 3.162425994873046875e+01 1.961830711364746094e+01 -1.608367919921875000e+00 -2.166844308376312256e-01 -5.475156903266906738e-01 5.462375879287719727e-01
8.150000000000000000e+02 3.510700607299804688e+01 1.713392639160156250e+01 -2.768553793430328369e-01 1.878071576356887817e-01 -2.671446651220321655e-02 -1.499085780233144760e-02
8.160000000000000000e+02 3.828670883178710938e+01 1.443625259399414062e+01 5.854175090789794922e-01 1.487486958503723145e+00 6.218713521957397461e-01 -8.949811458587646484e-01
8.170000000000000000e+02 3.940456771850585938e+01 1.347213840484619141e+01 8.112235069274902344e-01 2.687188625335693359e+00 1.049523591995239258e+00 -1.320118784904479980e+00
8.180000000000000000e+02 4.162644195556640625e+01 9.733821868896484375e+00 1.412172794342041016e+00 9.141229629516601562e+00 3.166020631790161133e+00 -3.017516374588012695e+00
8.190000000000000000e+02 4.258069610595703125e+01 4.159171104431152344e+00 3.673061728477478027e-01 1.733604621887207031e+01 5.311005592346191406e+00 8.446239829063415527e-01
8.200000000000000000e+02 4.246132278442382812e+01 2.750891685485839844e+00 1.063318729400634766e+00 1.878487777709960938e+01 5.954458713531494141e+00 2.216463327407836914e+00
8.210000000000000000e+02 4.147138595581054688e+01 -3.622662305831909180e+00 -9.751986861228942871e-01 1.024581241607666016e+01 2.781183958053588867e+00 2.437968969345092773e+00
8.220000000000000000e+02 3.860060882568359375e+01 -3.865916728973388672e+00 -9.583830088376998901e-02 2.220913648605346680e+00 6.375225782394409180e-01 1.517418503761291504e+00
8.230000000000000000e+02 3.341904449462890625e+01 -5.097349643707275391e+00 -1.472700595855712891e+00 -2.294997721910476685e-01 -5.106601119041442871e-01 -9.226231575012207031e-01
8.240000000000000000e+02 2.805323982238769531e+01 -5.085536003112792969e+00 4.682458877563476562e+00 2.434979915618896484e+00 2.135231494903564453e+00 -2.890578746795654297e+00
8.250000000000000000e+02 2.074040603637695312e+01 -2.805816411972045898e+00 6.228084087371826172e+00 9.780699729919433594e+00 4.802635192871093750e+00 -4.060102462768554688e+00
8.260000000000000000e+02 2.295916175842285156e+01 -1.021404385566711426e+00 4.166767597198486328e+00 2.462704181671142578e+00 1.988841533660888672e+00 -1.765462875366210938e+00
8.270000000000000000e+02 2.082301139831542969e+01 -1.380935907363891602e+00 8.779675483703613281e+00 9.062558174133300781e+00 5.352670192718505859e+00 -1.393792510032653809e+00
8.280000000000000000e+02 2.195998573303222656e+01 2.696312069892883301e-01 2.204159975051879883e+00 5.723123550415039062e+00 2.378185033798217773e+00 -3.062323927879333496e-01
8.290000000000000000e+02 2.102611541748046875e+01 4.355154514312744141e+00 1.576947093009948730e+00 8.126338958740234375e+00 2.910985708236694336e+00 -3.571339130401611328e+00
8.300000000000000000e+02 1.507198715209960938e+01 1.441387176513671875e+00 -9.139770865440368652e-01 1.789140582084655762e+00 2.625490427017211914e-01 -1.304992556571960449e+00
8.310000000000000000e+02 1.850975418090820312e+01 1.262322521209716797e+01 3.363333046436309814e-01 1.226040363311767578e+01 3.779021024703979492e+00 -1.040247678756713867e+00
8.320000000000000000e+02 1.850010299682617188e+01 1.798810005187988281e+01 1.073805093765258789e+00 1.013178443908691406e+01 3.361676692962646484e+00 1.826441764831542969e+00
8.330000000000000000e+02 2.475771713256835938e+01 -1.448897266387939453e+01 -2.987263202667236328e+00 1.376532912254333496e-01 -8.548829555511474609e-01 3.501041233539581299e-02
8.340000000000000000e+02 2.746549034118652344e+01 -1.471932506561279297e+01 -1.350134134292602539e+00 2.111839801073074341e-01 -3.416850566864013672e-01 -3.143745362758636475e-01
8.350000000000000000e+02 3.165464782714843750e+01 -1.515658378601074219e+01 2.586027145385742188e+00 7.268923521041870117e-01 9.938758611679077148e-01 -1.501743555068969727e+00
8.360000000000000000e+02 3.021775054931640625e+01 -1.499395275115966797e+01 9.241241812705993652e-01 3.727785348892211914e-01 3.890708088874816895e-01 -7.600856423377990723e-01
8.370000000000000000e+02 3.611824035644531250e+01 -2.297315788269042969e+01 7.438823580741882324e-01 1.210602188110351562e+01 3.854971170425415039e+00 1.060436725616455078e+00
8.380000000000000000e+02 2.367917251586914062e+01 -3.057393455505371094e+01 -2.040690898895263672e+00 -1.241664290428161621e-01 -6.494572162628173828e-01 2.802320718765258789e-01
8.390000000000000000e+02 1.840065193176269531e+01 -2.835896682739257812e+01 -9.678726196289062500e-01 -1.064133867621421814e-01 -3.222858011722564697e-01 3.820250630378723145e-01
8.400000000000000000e+02 1.627594184875488281e+01 -2.653351211547851562e+01 -1.317955702543258667e-01 3.605715334415435791e-01 6.863278895616531372e-02 -6.565254926681518555e-02
8.410000000000000000e+02 1.336513423919677734e+01 -2.354785346984863281e+01 7.444611191749572754e-01 2.527340173721313477e+00 9.815403819084167480e-01 -1.375579953193664551e+00
8.420000000000000000e+02 1.257026100158691406e+01 -2.237214851379394531e+01 1.036169409751892090e+00 4.958453655242919922e+00 1.798387050628662109e+00 -1.732591032981872559e+00
8.430000000000000000e+02 1.172276306152343750e+01 -1.972099113464355469e+01 4.248183071613311768e-01 8.360461235046386719e+00 2.635583877563476562e+00 -6.866886615753173828e-01
8.440000000000000000e+02 1.098789501190185547e+01 -1.594583988189697266e+01 2.108942985534667969e+00 7.937627792358398438e+00 3.013971328735351562e+00 1.855484962463378906e+00
8.450000000000000000e+02 1.444896030426025391e+01 -1.213170909881591797e+01 -2.640701457858085632e-02 2.843914031982421875e+00 8.452520966529846191e-01 2.368747234344482422e+00
8.460000000000000000e+02 5.751590347290039062e+01 -9.843987464904785156e+00 -9.837360978126525879e-01 -1.900603473186492920e-01 -3.521389365196228027e-01 5.242072343826293945e-01
8.470000000000000000e+02 6.036763000488281250e+01 -9.545406341552734375e+00 -5.091782212257385254e-01 1.329762041568756104e-01 -1.128606051206588745e-01 1.245671659708023071e-01
8.480000000000000000e+02 6.266520690917968750e+01 -1.019223690032958984e+01 -1.888744384050369263e-01 5.176216959953308105e-01 9.862418472766876221e-02 -3.999370336532592773e-01
8.490000000000000000e+02 6.379946136474609375e+01 -1.160991096496582031e+01 -5.090292096138000488e-01 3.229095637798309326e-01 -5.583590269088745117e-02 -3.956511616706848145e-01
8.500000000000000000e+02 6.803057861328125000e+01 -1.568490219116210938e+01 1.932966232299804688e+00 1.491711902618408203e+01 5.055025577545166016e+00 -3.453245162963867188e+00
8.510000000000000000e+02 6.430192565917968750e+01 -2.558705329895019531e+01 3.896111249923706055e-01 1.575249195098876953e+00 5.894581079483032227e-01 8.816139101982116699e-01
8.520000000000000000e+02 6.132566070556640625e+01 -2.840199470520019531e+01 -1.270876288414001465e+00 1.132009364664554596e-02 -3.778668642044067383e-01 -4.332188665866851807e-01
8.530000000000000000e+02 5.790150451660156250e+01 -2.999655151367187500e+01 -2.634400129318237305e+00 -2.880478501319885254e-01 -8.767343759536743164e-01 -4.235933125019073486e-01
8.540000000000000000e+02 5.110786056518554688e+01 -2.870874595642089844e+01 1.064325332641601562e+00 2.452021837234497070e+00 1.054904103279113770e+00 -1.790464997291564941e+00
8.550000000000000000e+02 5.006512832641601562e+01 -2.763057136535644531e+01 1.788720965385437012e+00 3.162845134735107422e+00 1.485469818115234375e+00 -2.534458160400390625e+00
8.560000000000000000e+02 4.819313049316406250e+01 -2.560410881042480469e+01 2.846476793289184570e+00 5.740330219268798828e+00 2.576042175292968750e+00 -3.945690155029296875e+00
8.570000000000000000e+02 4.860660171508789062e+01 -1.075043773651123047e+01 1.892797589302062988e+00 5.829261779785156250e+00 2.316617965698242188e+00 3.071962833404541016e+00
8.580000000000000000e+02 1.994750213623046875e+01 4.940508365631103516e+00 1.364208221435546875e+00 1.019904708862304688e+01 3.468976497650146484e+00 -3.685797214508056641e+00
8.590000000000000000e+02 1.724260902404785156e+01 4.338078796863555908e-01 3.869747817516326904e-01 4.204891681671142578e+00 1.377559900283813477e+00 -4.138474941253662109e+00
8.600000000000000000e+02 1.782068061828613281e+01 3.426069319248199463e-01 6.146298050880432129e-01 6.857808589935302734e+00 2.241731405258178711e+00 -5.479315280914306641e+00
8.610000000000000000e+02 1.774076843261718750e+01 5.747280716896057129e-01 3.127118051052093506e-01 6.974811077117919922e+00 2.186256885528564453e+00 -5.355586528778076172e+00
8.620000000000000000e+02 1.880067443847656250e+01 2.034302204847335815e-01 -5.222479701042175293e-01 1.342983055114746094e+01 3.872274637222290039e+00 -5.266663551330566406e+00
8.630000000000000000e+02 1.619044494628906250e+01 6.472660303115844727e-01 -5.570442676544189453e-01 2.085322856903076172e+00 4.584836065769195557e-01 -2.182247400283813477e+00
8.640000000000000000e+02 1.704624748229980469e+01 4.578720033168792725e-01 2.557651400566101074e-01 3.633128643035888672e+00 1.166668176651000977e+00 -3.679609775543212891e+00
8.650000000000000000e+02 1.734852790832519531e+01 9.597684741020202637e-01 -1.980441212654113770e-01 5.827508449554443359e+00 1.688839197158813477e+00 -4.380278587341308594e+00
8.660000000000000000e+02 1.842351722717285156e+01 1.974252462387084961e-01 1.540553271770477295e-01 1.066412448883056641e+01 3.245453834533691406e+00 -6.142765045166015625e+00
8.670000000000000000e+02 1.823859786987304688e+01 2.652713060379028320e-01 1.926108300685882568e-01 9.579098701477050781e+00 2.931512832641601562e+00 -5.889463901519775391e+00
8.680000000000000000e+02 1.957084655761718750e+01 -3.303209543228149414e+00 2.757727146148681641e+00 1.348667907714843750e+01 4.873322010040283203e+00 -4.887523651123046875e-01
8.690000000000000000e+02 1.667066192626953125e+01 -2.909946203231811523e+00 3.930473327636718750e+00 8.579756021499633789e-01 1.436534643173217773e+00 2.241981267929077148e+00
8.700000000000000000e+02 1.755518531799316406e+01 -3.043730497360229492e+00 5.047846317291259766e+00 3.312535285949707031e+00 2.508114576339721680e+00 4.017952442169189453e+00
8.710000000000000000e+02 1.648138809204101562e+01 -2.817231893539428711e+00 3.564756631851196289e+00 5.663932561874389648e-01 1.239344954490661621e+00 1.897470116615295410e+00
8.720000000000000000e+02 1.796817779541015625e+01 -3.069664001464843750e+00 4.948538780212402344e+00 5.573544979095458984e+00 3.156625032424926758e+00 4.901193618774414062e+00
8.730000000000000000e+02 1.733700942993164062e+01 -3.485699653625488281e+00 4.191997528076171875e+00 3.239010572433471680e+00 2.229302406311035156e+00 3.837718009948730469e+00
8.740000000000000000e+02 1.710714721679687500e+01 -2.990295410156250000e+00 4.606499671936035156e+00 1.825379729270935059e+00 1.929563879966735840e+00 3.112428188323974609e+00
8.750000000000000000e+02 1.412901210784912109e+01 -2.580098867416381836e+00 1.032842040061950684e+00 -3.116020001471042633e-02 3.005045652389526367e-01 7.301227450370788574e-01
8.760000000000000000e+02 1.228160285949707031e+01 -2.241801500320434570e+00 1.041465625166893005e-01 3.286899626255035400e-02 4.110466688871383667e-02 4.089856147766113281e-01
8.770000000000000000e+02 1.219881153106689453e+01 -2.824631214141845703e+00 3.371998369693756104e-01 1.230971962213516235e-01 1.380891054868698120e-01 5.669696331024169922e-01
8.780000000000000000e+02 1.343233871459960938e+01 -3.022568941116333008e+00 9.504495263099670410e-01 5.898529291152954102e-02 3.028304278850555420e-01 8.508732318878173828e-01
8.790000000000000000e+02 1.401839447021484375e+01 -3.155582427978515625e+00 1.373661518096923828e+00 6.867473572492599487e-02 4.327008724212646484e-01 1.069345235824584961e+00
8.800000000000000000e+02 1.473476314544677734e+01 -2.713237285614013672e+00 1.624678254127502441e+00 1.308493688702583313e-02 4.913289546966552734e-01 9.234676361083984375e-01
8.810000000000000000e+02 9.475975036621093750e+00 -1.873724818229675293e+00 -4.876240789890289307e-01 1.372886300086975098e-01 -1.051006317138671875e-01 7.122237980365753174e-02
8.820000000000000000e+02 1.085559463500976562e+01 -2.680052518844604492e+00 -7.107289880514144897e-02 1.886762082576751709e-01 3.528099134564399719e-02 3.175472021102905273e-01
8.830000000000000000e+02 1.016985893249511719e+01 -2.631392002105712891e+00 -1.905991286039352417e-01 2.132051885128021240e-01 6.781820207834243774e-03 2.262229919433593750e-01
8.840000000000000000e+02 1.159074020385742188e+01 -2.129637479782104492e+00 -1.424851566553115845e-01 7.248238474130630493e-02 -2.100083231925964355e-02 2.894724309444427490e-01
8.850000000000000000e+02 1.274892616271972656e+01 -3.474604845046997070e+00 8.021873235702514648e-01 1.978094130754470825e-01 2.999990284442901611e-01 9.244235157966613770e-01
8.860000000000000000e+02 1.433765506744384766e+01 1.031267881393432617e+00 -1.735816478729248047e+00 7.826688885688781738e-01 -2.859442830085754395e-01 -4.047161936759948730e-01
8.870000000000000000e+02 1.440133762359619141e+01 1.630593895912170410e+00 -1.047645807266235352e+00 1.258471608161926270e+00 6.324775516986846924e-02 -7.634605169296264648e-01
8.880000000000000000e+02 1.568499660491943359e+01 1.285524964332580566e+00 -7.013636231422424316e-01 2.340250968933105469e+00 4.916662275791168213e-01 -1.957710266113281250e+00
8.890000000000000000e+02 1.369876098632812500e+01 1.831382036209106445e+00 -1.153921365737915039e+00 8.742920756340026855e-01 -8.388877660036087036e-02 -3.689398467540740967e-01
8.900000000000000000e+02 5.726616382598876953e+00 -1.865662455558776855e+00 -4.198921322822570801e-01 3.942172974348068237e-02 -1.141411215066909790e-01 -2.338333427906036377e-01
8.910000000000000000e+02 8.752395629882812500e+00 -2.593168497085571289e+00 -3.329657614231109619e-01 2.080512493848800659e-01 -3.747435286641120911e-02 2.843664586544036865e-02
8.920000000000000000e+02 5.798369407653808594e+00 -2.611442327499389648e+00 -3.267251551151275635e-01 7.479389756917953491e-02 -7.557938247919082642e-02 -2.768557369709014893e-01
8.930000000000000000e+02 8.018494606018066406e+00 -2.597748756408691406e+00 -3.708504438400268555e-01 1.922833919525146484e-01 -5.357012152671813965e-02 -6.858290731906890869e-02
8.940000000000000000e+02 7.278210163116455078e+00 -2.605920791625976562e+00 -3.622449636459350586e-01 1.527937203645706177e-01 -6.283537298440933228e-02 -1.505645513534545898e-01
8.950000000000000000e+02 6.536982536315917969e+00 -2.611938238143920898e+00 -3.561557531356811523e-01 1.213674321770668030e-01 -7.043649256229400635e-02 -2.224305570125579834e-01
8.960000000000000000e+02 5.065267086029052734e+00 -2.602360248565673828e+00 -2.910364270210266113e-01 3.473405539989471436e-02 -7.689070701599121094e-02 -3.019527792930603027e-01
8.970000000000000000e+02 2.761854171752929688e+00 -1.875793814659118652e+00 -1.671323627233505249e-01 -5.397024750709533691e-02 -6.633078306913375854e-02 -2.175628691911697388e-01
8.980000000000000000e+02 1.627846717834472656e+00 -8.160436630249023438e+00 -1.096766442060470581e-02 -8.752944469451904297e-01 -2.658786177635192871e-01 -3.454965651035308838e-01
8.990000000000000000e+02 1.578347682952880859e+00 -6.809483528137207031e+00 -1.078385394066572189e-02 -6.896745562553405762e-01 -2.101375162601470947e-01 -3.194679617881774902e-01
9.000000000000000000e+02 5.412271022796630859e-01 -3.751690149307250977e+00 -9.182869456708431244e-03 -3.195932805538177490e-01 -9.863284230232238770e-02 -9.571168571710586548e-02
9.010000000000000000e+02 5.145878791809082031e-01 -5.175375461578369141e+00 3.916979767382144928e-03 -6.004565358161926270e-01 -1.789618581533432007e-01 -1.079633235931396484e-01
9.020000000000000000e+02 2.198122406005859375e+01 1.707621097564697266e+00 -8.256312012672424316e-01 5.672708988189697266e+00 1.454123258590698242e+00 -5.882971882820129395e-01
9.030000000000000000e+02 2.072356605529785156e+01 -2.109702825546264648e+00 8.696064949035644531e+00 9.399195671081542969e+00 5.428578376770019531e+00 -3.679942369461059570e+00
9.040000000000000000e+02 2.258194351196289062e+01 -2.472924232482910156e+00 5.690438270568847656e+00 3.369443893432617188e+00 2.717964649200439453e+00 -3.449256420135498047e+00
9.050000000000000000e+02 1.997942543029785156e+01 -2.974150419235229492e+00 4.760515689849853516e+00 1.303700351715087891e+01 5.339255809783935547e+00 -2.967271804809570312e+00
9.060000000000000000e+02 2.467328071594238281e+01 -3.790966749191284180e+00 4.506947040557861328e+00 9.856621623039245605e-01 1.647782683372497559e+00 -3.066224098205566406e+00
9.070000000000000000e+02 2.510205650329589844e+01 -9.003934860229492188e-01 1.104494094848632812e+00 -3.625479936599731445e-01 2.225838452577590942e-01 -5.053519010543823242e-01
9.080000000000000000e+02 1.924290466308593750e+01 -3.522919654846191406e+00 2.634455919265747070e+00 1.103310298919677734e+01 4.100267887115478516e+00 1.075526595115661621e+00
9.090000000000000000e+02 2.185314941406250000e+01 3.388766527175903320e+00 2.103881537914276123e-01 4.285840511322021484e+00 1.348868489265441895e+00 -1.798261523246765137e+00
9.100000000000000000e+02 9.053380966186523438e+00 3.274661540985107422e+00 -6.100407838821411133e-01 -8.458238095045089722e-02 -2.083869427442550659e-01 9.560813903808593750e-01
9.110000000000000000e+02 9.798367500305175781e+00 2.496395826339721680e+00 -1.193042278289794922e+00 -1.384799182415008545e-01 -3.994566500186920166e-01 8.808128833770751953e-01
9.120000000000000000e+02 8.208987236022949219e+00 2.600391626358032227e+00 -1.062923669815063477e+00 -1.564270406961441040e-01 -3.658052086830139160e-01 1.012389898300170898e+00
9.130000000000000000e+02 7.416051864624023438e+00 2.630996227264404297e+00 -9.963012337684631348e-01 -1.341468393802642822e-01 -3.391344249248504639e-01 1.004573583602905273e+00
9.140000000000000000e+02 6.620445251464843750e+00 2.658934831619262695e+00 -8.612130284309387207e-01 -1.319455206394195557e-01 -2.979475557804107666e-01 9.726502299308776855e-01
9.150000000000000000e+02 5.826166629791259766e+00 2.690428733825683594e+00 -7.329007387161254883e-01 -1.577970832586288452e-01 -2.672093510627746582e-01 9.207152724266052246e-01
9.160000000000000000e+02 1.911436080932617188e+00 7.755944252014160156e+00 7.834212481975555420e-02 -1.336053848266601562e+00 -3.773135244846343994e-01 4.816908538341522217e-01
9.170000000000000000e+02 4.286020278930664062e+00 3.599010467529296875e+00 -3.059206604957580566e-01 -3.162639439105987549e-01 -1.866553723812103271e-01 8.830789923667907715e-01
9.180000000000000000e+02 1.204567074775695801e+00 3.342438220977783203e+00 -5.805445089936256409e-02 -4.661912024021148682e-01 -1.572736948728561401e-01 3.064076304435729980e-01
9.190000000000000000e+02 2.714024543762207031e+00 1.977451443672180176e+00 -3.035194873809814453e-01 -1.854375898838043213e-01 -1.466871201992034912e-01 4.267714917659759521e-01
9.200000000000000000e+02 1.973044633865356445e+00 3.107321262359619141e+00 -1.206341087818145752e-01 -4.194228947162628174e-01 -1.620170921087265015e-01 4.490755200386047363e-01
9.210000000000000000e+02 1.139992904663085938e+01 2.297272920608520508e+00 -1.270266056060791016e+00 1.125653460621833801e-01 -3.473102152347564697e-01 5.204200148582458496e-01
9.220000000000000000e+02 1.295714378356933594e+01 2.013486862182617188e+00 -1.224729061126708984e+00 5.550453662872314453e-01 -2.009051144123077393e-01 -3.281592205166816711e-02
9.230000000000000000e+02 1.218658828735351562e+01 2.166878223419189453e+00 -1.267328619956970215e+00 3.261479139328002930e-01 -2.823542058467864990e-01 2.557265460491180420e-01
9.240000000000000000e+02 9.000816345214843750e+00 2.558128356933593750e+00 -1.156164765357971191e+00 -1.547029912471771240e-01 -3.932603597640991211e-01 9.601363539695739746e-01
9.250000000000000000e+02 1.963125801086425781e+01 -1.331892967224121094e+01 -3.913511753082275391e+00 -3.599163293838500977e-01 -1.282028436660766602e+00 1.600297927856445312e+00
9.260000000000000000e+02 1.578042316436767578e+01 -1.111602973937988281e+01 -1.694735884666442871e+00 1.148217916488647461e+00 -1.639553904533386230e-01 3.493222713470458984e+00
9.270000000000000000e+02 3.711418914794921875e+01 -2.031926345825195312e+01 1.428982496261596680e+00 1.101158237457275391e+01 3.732169389724731445e+00 -1.359346032142639160e+00
9.280000000000000000e+02 5.402884674072265625e+01 1.412493735551834106e-01 2.180049896240234375e+00 2.320326119661331177e-01 7.236247658729553223e-01 4.897514283657073975e-01
9.290000000000000000e+02 5.275737380981445312e+01 -3.231843566894531250e+01 -2.573862969875335693e-01 1.974937558174133301e+00 5.152654051780700684e-01 -1.739032149314880371e+00
9.300000000000000000e+02 6.505500793457031250e+01 -1.190875816345214844e+01 8.216611742973327637e-01 2.292523622512817383e+00 9.342554211616516113e-01 -1.603066205978393555e+00
9.310000000000000000e+02 6.028906250000000000e+01 -2.928626632690429688e+01 -2.128758192062377930e+00 -2.080288976430892944e-01 -7.010360956192016602e-01 -4.672347605228424072e-01
9.320000000000000000e+02 6.185597610473632812e+01 -8.834975242614746094e+00 3.867067769169807434e-02 6.348567605018615723e-01 2.020582258701324463e-01 -3.568106889724731445e-01
9.330000000000000000e+02 4.635688400268554688e+01 -2.593216705322265625e+01 1.196249246597290039e+00 8.215137481689453125e+00 2.823415994644165039e+00 -1.915409803390502930e+00
9.340000000000000000e+02 7.067153930664062500e+01 -1.217693042755126953e+01 -1.088831350207328796e-01 8.897715568542480469e+00 2.636649847030639648e+00 3.910762369632720947e-01
9.350000000000000000e+02 4.631481933593750000e+01 -2.141505050659179688e+01 8.089517354965209961e-01 1.353435039520263672e+01 4.302990913391113281e+00 -1.834290742874145508e+00
9.360000000000000000e+02 4.549938583374023438e+01 -2.527919960021972656e+01 1.817083835601806641e+00 8.493782997131347656e+00 3.093260049819946289e+00 -1.619542479515075684e+00
9.370000000000000000e+02 6.830277252197265625e+01 -1.705975914001464844e+01 1.137603878974914551e+00 1.634784317016601562e+01 5.245634078979492188e+00 -1.432348966598510742e+00
9.380000000000000000e+02 6.874781799316406250e+01 -1.403916740417480469e+01 9.254872202873229980e-01 1.037275314331054688e+01 3.389472007751464844e+00 -1.015349388122558594e+00
9.390000000000000000e+02 6.330793380737304688e+01 -2.652353668212890625e+01 -1.897997558116912842e-01 7.737547159194946289e-01 1.751864999532699585e-01 3.442299365997314453e-01
9.400000000000000000e+02 4.594632720947265625e+01 -1.284998989105224609e+01 1.255846858024597168e+00 1.006809234619140625e+01 3.397181749343872070e+00 1.989035129547119141e+00
9.410000000000000000e+02 5.705733871459960938e+01 -8.075368881225585938e+00 -7.837767004966735840e-01 -4.862082749605178833e-02 -2.497192472219467163e-01 2.064291387796401978e-01
9.420000000000000000e+02 4.505359268188476562e+01 -2.132665824890136719e+01 1.881606936454772949e+00 1.139145374298095703e+01 3.981918334960937500e+00 -1.361132621765136719e+00
9.430000000000000000e+02 9.921948432922363281e+00 -2.228902435302734375e+01 2.474112361669540405e-01 4.408726215362548828e+00 1.396841287612915039e+00 6.555844545364379883e-01
9.440000000000000000e+02 1.215784740447998047e+01 -1.505794906616210938e+01 2.614229440689086914e+00 8.599755287170410156e+00 3.364195346832275391e+00 3.353043317794799805e+00
9.450000000000000000e+02 7.152236175537109375e+01 -1.878469085693359375e+01 2.031259059906005859e+00 9.862452507019042969e+00 3.568113565444946289e+00 -2.419065088033676147e-01
9.460000000000000000e+02 5.737963867187500000e+01 3.058883845806121826e-01 1.530451178550720215e+00 2.761961221694946289e-01 5.419942140579223633e-01 4.014509618282318115e-01
9.470000000000000000e+02 3.509015274047851562e+01 -2.617162132263183594e+01 2.152455568313598633e+00 8.285334587097167969e+00 3.131336927413940430e+00 3.755929470062255859e+00
9.480000000000000000e+02 4.073009109497070312e+01 -2.467399215698242188e+01 1.881256341934204102e+00 8.696242332458496094e+00 3.173249483108520508e+00 6.041938904672861099e-03
9.490000000000000000e+02 6.090690231323242188e+01 -8.313552856445312500e+00 -2.552650868892669678e-02 5.717263817787170410e-01 1.638599634170532227e-01 -2.405683696269989014e-01
9.500000000000000000e+02 4.653006744384765625e+01 -1.594394493103027344e+01 6.422570943832397461e-01 1.304720020294189453e+01 4.106837272644042969e+00 1.877530932426452637e+00
9.510000000000000000e+02 4.878697586059570312e+01 -9.093632698059082031e+00 -2.189006209373474121e-01 5.161643028259277344e+00 1.482822656631469727e+00 1.788588643074035645e+00
9.520000000000000000e+02 6.965603637695312500e+01 -1.986794471740722656e+01 2.226516723632812500e+00 1.204319858551025391e+01 4.280914306640625000e+00 7.171153426170349121e-01
9.530000000000000000e+02 4.770223617553710938e+01 -1.015459632873535156e+01 1.247323974967002869e-01 7.455502033233642578e+00 2.274070262908935547e+00 1.970148921012878418e+00
9.540000000000000000e+02 4.184247970581054688e+01 -1.334630680084228516e+01 1.084773659706115723e+00 8.509469985961914062e+00 2.878273010253906250e+00 7.500774860382080078e-01
9.550000000000000000e+02 5.523448562622070312e+01 -2.978143310546875000e+01 -2.053655147552490234e+00 2.146329358220100403e-02 -6.096575260162353516e-01 -2.549583315849304199e-01
9.560000000000000000e+02 5.243558502197265625e+01 -2.933523750305175781e+01 1.210948005318641663e-01 1.266694903373718262e+00 4.163368940353393555e-01 -1.101787805557250977e+00
9.570000000000000000e+02 5.603305435180664062e+01 -3.164537239074707031e+01 -8.124335408210754395e-01 2.319730073213577271e-01 -1.741381585597991943e-01 -8.843691945075988770e-01
9.580000000000000000e+02 5.862284851074218750e+01 -3.249070358276367188e+01 -3.311215043067932129e-01 3.017310798168182373e-01 -8.817130699753761292e-03 2.431721193715929985e-03
9.590000000000000000e+02 6.196133041381835938e+01 -3.068285942077636719e+01 -8.576779961585998535e-01 1.406341314315795898e+00 1.645990014076232910e-01 7.730056643486022949e-01
9.600000000000000000e+02 5.348390960693359375e+01 -3.100863265991210938e+01 -3.463442623615264893e-01 8.960299491882324219e-01 1.649057120084762573e-01 -1.431621313095092773e+00
9.610000000000000000e+02 1.298359966278076172e+01 -1.405395030975341797e+01 2.935586452484130859e+00 5.582443714141845703e+00 2.555409193038940430e+00 3.779415369033813477e+00
9.620000000000000000e+02 6.644888305664062500e+01 -1.189668464660644531e+01 7.083920240402221680e-01 5.008469581604003906e+00 1.715058445930480957e+00 -2.078187942504882812e+00
9.630000000000000000e+02 4.512948226928710938e+01 -1.860629653930664062e+01 9.168276190757751465e-01 1.199260997772216797e+01 3.872831344604492188e+00 1.381674408912658691e-01
9.640000000000000000e+02 4.505633544921875000e+01 -1.998159027099609375e+01 1.260569810867309570e+00 1.167526245117187500e+01 3.880749702453613281e+00 -6.367880105972290039e-01
9.650000000000000000e+02 5.992957687377929688e+01 -1.081664562225341797e+01 -1.134738564491271973e+00 -1.583101786673069000e-02 -3.451708853244781494e-01 3.612071573734283447e-01
9.660000000000000000e+02 5.925152969360351562e+01 -9.097403526306152344e+00 -5.836207866668701172e-01 1.178630739450454712e-01 -1.397273242473602295e-01 2.159945666790008545e-01
9.670000000000000000e+02 3.479124450683593750e+01 -1.543499374389648438e+01 2.971544265747070312e+00 5.815606117248535156e+00 2.636145114898681641e+00 -2.886502265930175781e+00
9.680000000000000000e+02 3.575622177124023438e+01 -1.608675384521484375e+01 2.476565361022949219e+00 7.220756053924560547e+00 2.909196615219116211e+00 -2.059913635253906250e+00
9.690000000000000000e+02 6.622840118408203125e+01 -2.360148429870605469e+01 1.483034014701843262e+00 4.259325981140136719e+00 1.722707986831665039e+00 2.366323232650756836e+00
9.700000000000000000e+02 6.727831268310546875e+01 -2.436640167236328125e+01 2.226396501064300537e-01 6.530934810638427734e+00 2.026072502136230469e+00 2.059012174606323242e+00
9.710000000000000000e+02 5.814210891723632812e+01 -8.641464233398437500e+00 -6.501392722129821777e-01 2.386167459189891815e-02 -1.878832727670669556e-01 2.893046140670776367e-01
9.720000000000000000e+02 3.600526809692382812e+01 -2.701768493652343750e+01 1.190817594528198242e+00 8.170818328857421875e+00 2.808490753173828125e+00 1.858569622039794922e+00
9.730000000000000000e+02 6.149408721923828125e+01 -9.940030097961425781e+00 -4.366392195224761963e-01 3.526031076908111572e-01 -2.521083317697048187e-02 -4.869080707430839539e-02
9.740000000000000000e+02 6.279836273193359375e+01 -2.950034523010253906e+01 -1.177255988121032715e+00 1.693720340728759766e+00 1.549393087625503540e-01 5.378457903861999512e-01
9.750000000000000000e+02 6.363000869750976562e+01 -2.840226554870605469e+01 -7.802742719650268555e-01 1.975560545921325684e+00 3.585858643054962158e-01 6.305399537086486816e-01
9.760000000000000000e+02 6.630276489257812500e+01 -2.534980773925781250e+01 9.714411199092864990e-02 4.609741210937500000e+00 1.412065505981445312e+00 1.591551065444946289e+00
9.770000000000000000e+02 5.731473922729492188e+01 -3.198234367370605469e+01 -4.534541964530944824e-01 1.175884231925010681e-01 -1.007597297430038452e-01 -4.435302615165710449e-01
9.780000000000000000e+02 4.565745162963867188e+01 -1.437213420867919922e+01 1.372568368911743164e+00 1.102536773681640625e+01 3.719380617141723633e+00 2.006294250488281250e+00
9.790000000000000000e+02 4.544609069824218750e+01 -1.581292057037353516e+01 1.214799165725708008e+00 1.146512508392333984e+01 3.803977251052856445e+00 1.605530023574829102e+00
9.800000000000000000e+02 4.527670669555664062e+01 -1.722079467773437500e+01 8.997137546539306641e-01 1.171922779083251953e+01 3.785682439804077148e+00 1.104351639747619629e+00
9.810000000000000000e+02 4.722385025024414062e+01 -2.671679687500000000e+01 1.247422456741333008e+00 7.454883575439453125e+00 2.610691785812377930e+00 -2.698005676269531250e+00
9.820000000000000000e+02 1.201503944396972656e+01 -1.332898616790771484e+01 8.744844794273376465e-01 5.946129322052001953e+00 2.046184062957763672e+00 1.716699838638305664e+00
9.830000000000000000e+02 4.809942245483398438e+01 -2.765685462951660156e+01 1.085208654403686523e+00 5.595759391784667969e+00 2.004290342330932617e+00 -2.745077133178710938e+00
9.840000000000000000e+02 6.966903686523437500e+01 -1.836113929748535156e+01 1.486172437667846680e+00 1.344361686706542969e+01 4.478936672210693359e+00 -2.635752782225608826e-02
9.850000000000000000e+02 1.885062026977539062e+01 -3.021524810791015625e+01 -1.050893425941467285e+00 1.563232690095901489e-01 -2.683710455894470215e-01 5.788873136043548584e-02
9.860000000000000000e+02 2.224064636230468750e+01 -3.020915222167968750e+01 -1.852425575256347656e+00 -1.723585575819015503e-01 -6.074352264404296875e-01 3.804298639297485352e-01
9.870000000000000000e+02 2.513290405273437500e+01 -3.259345626831054688e+01 -1.024433732032775879e+00 -6.611961871385574341e-02 -3.271659910678863525e-01 1.546083092689514160e-01
9.880000000000000000e+02 2.342687606811523438e+01 -1.435334682464599609e+01 -3.351349592208862305e+00 6.792706903070211411e-03 -1.003367066383361816e+00 2.073114067316055298e-01
9.890000000000000000e+02 1.327632236480712891e+01 -1.161391830444335938e+01 -2.936927378177642822e-01 4.202232360839843750e+00 1.172561883926391602e+00 2.583642244338989258e+00
9.900000000000000000e+02 3.085978317260742188e+01 -2.989681434631347656e+01 -9.854320436716079712e-02 6.974469423294067383e-01 1.796711087226867676e-01 7.118685245513916016e-01
9.910000000000000000e+02 3.343365478515625000e+01 -3.208498001098632812e+01 -6.414422988891601562e-01 3.986997842788696289e+00 1.003666639328002930e+00 1.619813799858093262e+00
9.920000000000000000e+02 2.010606765747070312e+01 -3.111229515075683594e+01 -1.139278292655944824e+00 4.651702474802732468e-03 -3.403879702091217041e-01 2.106877788901329041e-02
9.930000000000000000e+02 2.986546134948730469e+01 -3.164164543151855469e+01 -5.906465649604797363e-01 7.900462746620178223e-01 5.981991067528724670e-02 9.991115927696228027e-01
9.940000000000000000e+02 1.104220676422119141e+01 -2.161173439025878906e+01 6.203268766403198242e-01 5.560804367065429688e+00 1.854339361190795898e+00 -1.193033382296562195e-01
9.950000000000000000e+02 3.721747207641601562e+01 -1.915686988830566406e+01 2.680661916732788086e+00 9.499908447265625000e+00 3.654171228408813477e+00 -1.403121709823608398e+00
9.960000000000000000e+02 3.622925567626953125e+01 -1.779674148559570312e+01 3.259078025817871094e+00 1.016413974761962891e+01 4.026965141296386719e+00 -2.586651325225830078e+00
9.970000000000000000e+02 2.761639785766601562e+01 -3.927641153335571289e+00 4.258480548858642578e+00 2.536550045013427734e+00 2.038509130477905273e+00 -3.148902177810668945e+00
9.980000000000000000e+02 2.898005867004394531e+01 -1.357004737854003906e+01 3.086848258972167969e-01 5.981809496879577637e-01 2.720597386360168457e-01 -1.521944046020507812e+00
9.990000000000000000e+02 1.030457878112792969e+01 -1.895057868957519531e+01 9.663789272308349609e-01 6.714667797088623047e+00 2.304313898086547852e+00 8.897318840026855469e-01
1.000000000000000000e+03 1.839325714111328125e+01 -1.266452312469482422e+01 -4.890061855316162109e+00 -9.336392879486083984e-01 -1.747110366821289062e+00 1.972194671630859375e+00
1.001000000000000000e+03 3.430653762817382812e+01 -2.949081039428710938e+01 2.448463141918182373e-01 5.119214534759521484e+00 1.609218239784240723e+00 1.861967921257019043e+00
1.002000000000000000e+03 3.429570770263671875e+01 -2.730401992797851562e+01 2.360535860061645508e+00 5.750074863433837891e+00 2.433183193206787109e+00 3.221949815750122070e+00
1.003000000000000000e+03 3.603131484985351562e+01 -2.170529174804687500e+01 1.398989856243133545e-01 1.114598274230957031e+01 3.385764360427856445e+00 -2.874253876507282257e-02
1.004000000000000000e+03 3.524795532226562500e+01 -2.819165992736816406e+01 7.973392605781555176e-01 6.463913917541503906e+00 2.178375959396362305e+00 2.019484043121337891e+00
1.005000000000000000e+03 2.704472160339355469e+01 -3.265486526489257812e+01 -8.835440278053283691e-01 2.040090262889862061e-01 -2.038605064153671265e-01 4.416767358779907227e-01
1.006000000000000000e+03 1.543921470642089844e+01 -2.742597007751464844e+01 -4.671531915664672852e-01 8.878839612007141113e-01 1.262192130088806152e-01 -2.018730044364929199e-01
1.007000000000000000e+03 1.647207260131835938e+01 -2.843593978881835938e+01 -7.064692974090576172e-01 6.143610477447509766e-01 -2.763246931135654449e-02 -5.356593802571296692e-02
1.008000000000000000e+03 1.762694931030273438e+01 -2.934879302978515625e+01 -8.902441263198852539e-01 3.238454163074493408e-01 -1.699196100234985352e-01 -1.875756680965423584e-02
1.009000000000000000e+03 1.902843666076660156e+01 -1.162522411346435547e+01 -3.132352828979492188e+00 1.869473755359649658e-01 -8.836216330528259277e-01 8.175016641616821289e-01
1.010000000000000000e+03 2.493930053710937500e+01 -1.336231040954589844e+01 -1.897197484970092773e+00 2.461365908384323120e-01 -4.953182935714721680e-01 -5.625146627426147461e-01
1.011000000000000000e+03 3.187991142272949219e+01 -1.374169063568115234e+01 1.986379027366638184e+00 1.969463109970092773e+00 1.186752676963806152e+00 -2.550035953521728516e+00
1.012000000000000000e+03 1.062973403930664062e+01 -2.025500679016113281e+01 6.456155180931091309e-01 6.321534633636474609e+00 2.090145111083984375e+00 1.147039085626602173e-01
1.013000000000000000e+03 2.810836982727050781e+01 -3.060350227355957031e+01 -1.742618560791015625e+00 4.014443978667259216e-02 -5.107422471046447754e-01 5.576122552156448364e-02
1.014000000000000000e+03 2.858220481872558594e+01 -3.221264266967773438e+01 -7.845519781112670898e-01 5.056648254394531250e-01 -8.366614580154418945e-02 6.451953649520874023e-01
1.015000000000000000e+03 1.528585529327392578e+01 -2.556812858581542969e+01 9.322178363800048828e-02 7.057510018348693848e-01 2.396918386220932007e-01 -3.981178700923919678e-01
1.016000000000000000e+03 3.716675186157226562e+01 -2.149587631225585938e+01 8.506555557250976562e-01 1.122622108459472656e+01 3.623063087463378906e+00 2.380893379449844360e-01
1.017000000000000000e+03 3.732581710815429688e+01 -2.257154846191406250e+01 1.483205914497375488e+00 1.024739265441894531e+01 3.519179582595825195e+00 8.684939146041870117e-01
1.018000000000000000e+03 1.442478942871093750e+01 -2.646861648559570312e+01 -2.718225121498107910e-01 1.479990363121032715e+00 3.624503612518310547e-01 -3.616500794887542725e-01
1.019000000000000000e+03 1.338103961944580078e+01 -2.549516677856445312e+01 -2.423336803913116455e-01 2.206744670867919922e+00 5.893232822418212891e-01 -5.934883356094360352e-01
1.020000000000000000e+03 2.517407417297363281e+01 2.426434326171875000e+01 -7.438113093376159668e-01 2.329345792531967163e-01 -1.532630324363708496e-01 6.182690262794494629e-01
1.021000000000000000e+03 1.809390830993652344e+01 1.921496582031250000e+01 1.235939502716064453e+00 7.851634979248046875e+00 2.726272344589233398e+00 1.265211224555969238e+00
1.022000000000000000e+03 1.705115318298339844e+01 1.754881286621093750e+01 1.263988018035888672e+00 7.626361370086669922e+00 2.667104721069335938e+00 9.955058991909027100e-02
1.023000000000000000e+03 4.218542098999023438e+01 -2.774572134017944336e+00 -2.391108274459838867e-01 1.068605518341064453e+01 3.134083271026611328e+00 1.429255008697509766e+00
1.024000000000000000e+03 4.201733398437500000e+01 1.936435103416442871e-01 2.066655397415161133e+00 1.628352737426757812e+01 5.505054950714111328e+00 4.557134151458740234e+00
1.025000000000000000e+03 1.996505546569824219e+01 6.070248126983642578e+00 2.195842981338500977e+00 1.180134391784667969e+01 4.199155807495117188e+00 -4.656994342803955078e+00
1.026000000000000000e+03 3.191895675659179688e+01 -6.453882217407226562e+00 1.649126052856445312e+00 3.888893425464630127e-01 6.114046573638916016e-01 -2.456017971038818359e+00
1.027000000000000000e+03 3.066827011108398438e+01 -5.297477722167968750e+00 3.723656177520751953e+00 5.067415833473205566e-01 1.269119381904602051e+00 -1.546318650245666504e+00
1.028000000000000000e+03 2.756794166564941406e+01 2.101374244689941406e+01 -2.472764015197753906e+00 -1.453500688076019287e-01 -7.854341864585876465e-01 5.580819249153137207e-01
1.029000000000000000e+03 2.650447654724121094e+01 2.272845649719238281e+01 -1.574510097503662109e+00 -7.361729443073272705e-02 -4.944382309913635254e-01 3.513857126235961914e-01
1.030000000000000000e+03 2.514976310729980469e+01 2.281825065612792969e+01 -1.623185992240905762e+00 -1.021380424499511719e-01 -5.175971984863281250e-01 3.873622417449951172e-01
1.031000000000000000e+03 4.734470367431640625e+01 8.306721687316894531e+00 9.263021945953369141e-01 1.202219963073730469e+01 3.884550333023071289e+00 1.928387522697448730e+00
1.032000000000000000e+03 3.731035995483398438e+01 -5.592577457427978516e+00 -1.589986234903335571e-01 1.849327564239501953e+00 5.070986747741699219e-01 1.064055800437927246e+00
1.033000000000000000e+03 3.227866744995117188e+01 2.328843116760253906e+01 -8.537837862968444824e-01 6.644944548606872559e-01 -5.678680911660194397e-02 -4.422334730625152588e-01
1.034000000000000000e+03 1.813567161560058594e+01 2.122731399536132812e+01 -6.358416676521301270e-01 5.742253780364990234e+00 1.531923651695251465e+00 1.684921085834503174e-01
1.035000000000000000e+03 1.711567687988281250e+01 2.037122344970703125e+01 2.927766442298889160e-01 5.879575252532958984e+00 1.851705551147460938e+00 -2.092360109090805054e-01
1.036000000000000000e+03 3.738092422485351562e+01 -4.150013446807861328e+00 -1.769821047782897949e+00 3.534426987171173096e-01 -4.249134957790374756e-01 7.456675171852111816e-03
1.037000000000000000e+03 3.948908615112304688e+01 -5.673134326934814453e+00 -1.153739929199218750e+00 5.368107795715332031e+00 1.264310359954833984e+00 2.128625154495239258e+00
1.038000000000000000e+03 2.387180900573730469e+01 2.392334365844726562e+01 -1.009069204330444336e+00 5.016532540321350098e-01 -1.522247642278671265e-01 9.516273140907287598e-01
1.039000000000000000e+03 2.206972885131835938e+01 2.392696380615234375e+01 -9.884763956069946289e-01 1.325786113739013672e+00 1.011929139494895935e-01 1.414034605026245117e+00
1.040000000000000000e+03 1.760387229919433594e+01 1.107616806030273438e+01 1.216800212860107422e+00 1.070003318786621094e+01 3.575050115585327148e+00 -1.992416858673095703e+00
1.041000000000000000e+03 1.886670684814453125e+01 9.883356094360351562e+00 1.044566988945007324e+00 1.360529327392578125e+01 4.394958019256591797e+00 -2.843903303146362305e+00
1.042000000000000000e+03 1.847042083740234375e+01 7.204608440399169922e+00 1.847617268562316895e+00 1.035933399200439453e+01 3.662085533142089844e+00 -3.279267787933349609e+00
1.043000000000000000e+03 4.187149810791015625e+01 1.286787509918212891e+01 3.689838051795959473e-01 6.425577163696289062e+00 2.038368225097656250e+00 -1.213264584541320801e+00
1.044000000000000000e+03 1.812825393676757812e+01 8.416710853576660156e+00 1.692571759223937988e+00 1.093472385406494141e+01 3.788188695907592773e+00 -2.950941801071166992e+00
1.045000000000000000e+03 4.517568588256835938e+01 3.756564378738403320e+00 1.544885277748107910e+00 1.272568607330322266e+01 4.281171321868896484e+00 1.132175087928771973e+00
1.046000000000000000e+03 4.769252777099609375e+01 2.657771348953247070e+00 1.507972240447998047e+00 9.999094009399414062e+00 3.452119827270507812e+00 -7.834121584892272949e-01
1.047000000000000000e+03 4.336914443969726562e+01 7.324551582336425781e+00 1.232143044471740723e+00 1.364207744598388672e+01 4.462265968322753906e+00 -1.489646285772323608e-01
1.048000000000000000e+03 3.363925933837890625e+01 2.002072715759277344e+01 -9.464346766471862793e-01 4.886050224304199219e-01 -1.373488903045654297e-01 -1.528297066688537598e-01
1.049000000000000000e+03 1.574154186248779297e+01 1.853326678276062012e+00 -4.522354304790496826e-01 3.110901355743408203e+00 7.975997924804687500e-01 -2.206321001052856445e+00
1.050000000000000000e+03 3.607655334472656250e+01 -4.433616161346435547e+00 -2.303467988967895508e+00 8.618917316198348999e-02 -6.651836037635803223e-01 -5.620293021202087402e-01
1.051000000000000000e+03 3.843920898437500000e+01 -5.547729492187500000e+00 -7.022719979286193848e-01 3.775042295455932617e+00 9.218310713768005371e-01 2.014395713806152344e+00
1.052000000000000000e+03 1.744653511047363281e+01 1.246136951446533203e+01 8.383751511573791504e-01 1.042336845397949219e+01 3.378523111343383789e+00 -1.342781066894531250e+00
1.053000000000000000e+03 3.476770019531250000e+01 -5.982839584350585938e+00 -2.635824978351593018e-01 2.044466435909271240e-01 -1.774075441062450409e-02 -7.735138535499572754e-01
1.054000000000000000e+03 3.478099822998046875e+01 -7.172250747680664062e+00 7.687425613403320312e-01 8.222261667251586914e-01 4.772906303405761719e-01 -1.042932987213134766e+00
1.055000000000000000e+03 3.805997467041015625e+01 1.639443397521972656e+01 1.646073758602142334e-01 1.826865911483764648e+00 5.974419713020324707e-01 -8.787971735000610352e-01
1.056000000000000000e+03 2.426738739013671875e+01 1.689357310533523560e-01 5.923780426383018494e-02 -1.155441284179687500e+00 -3.288610577583312988e-01 6.122333407402038574e-01
1.057000000000000000e+03 2.268843841552734375e+01 2.359668970108032227e+00 -5.231769084930419922e-01 1.718542814254760742e+00 3.586097657680511475e-01 3.379177302122116089e-02
1.058000000000000000e+03 2.274871826171875000e+01 6.801369786262512207e-01 1.025674104690551758e+00 2.962675094604492188e+00 1.196504712104797363e+00 -1.650608777999877930e-01
1.059000000000000000e+03 3.674247741699218750e+01 1.915586090087890625e+01 -3.804286122322082520e-01 1.586121678352355957e+00 3.617078959941864014e-01 -7.200555801391601562e-01
1.060000000000000000e+03 2.682543182373046875e+01 -2.928003072738647461e+00 2.916323900222778320e+00 1.821012496948242188e+00 1.421200871467590332e+00 -2.450929403305053711e+00
1.061000000000000000e+03 2.668108177185058594e+01 -5.465224742889404297e+00 3.713762760162353516e+00 1.489990592002868652e+00 1.561125993728637695e+00 -2.511399507522583008e+00
1.062000000000000000e+03 1.844016838073730469e+01 1.671418190002441406e+01 3.810176253318786621e-01 1.125995063781738281e+01 3.492290496826171875e+00 8.108484745025634766e-01
1.063000000000000000e+03 1.735088157653808594e+01 1.383398532867431641e+01 7.080597281455993652e-01 1.008038711547851562e+01 3.236534118652343750e+00 -7.661787867546081543e-01
1.064000000000000000e+03 3.340103530883789062e+01 -6.239916324615478516e+00 4.711432754993438721e-01 -4.890794306993484497e-02 1.266705989837646484e-01 -1.511091470718383789e+00
1.065000000000000000e+03 2.788846588134765625e+01 2.248945999145507812e+01 -1.639428615570068359e+00 -7.858666032552719116e-02 -5.154045820236206055e-01 2.350045889616012573e-01
1.066000000000000000e+03 4.372290039062500000e+01 -5.482081174850463867e-01 1.414786219596862793e+00 1.238790512084960938e+01 4.140807628631591797e+00 1.481787443161010742e+00
1.067000000000000000e+03 1.725146102905273438e+01 1.641489601135253906e+01 9.793533682823181152e-01 8.848836898803710938e+00 2.948457002639770508e+00 3.574900627136230469e-01
1.068000000000000000e+03 1.732736396789550781e+01 1.515890884399414062e+01 6.080603599548339844e-01 9.838054656982421875e+00 3.133834600448608398e+00 -2.414107471704483032e-01
1.069000000000000000e+03 1.799612998962402344e+01 2.036195516586303711e+00 -1.271774768829345703e+00 8.591887474060058594e+00 2.196033954620361328e+00 -3.964895248413085938e+00
1.070000000000000000e+03 6.750376892089843750e+01 2.198808288574218750e+01 -1.987231612205505371e+00 6.562936305999755859e+00 1.372711420059204102e+00 -1.852933287620544434e+00
1.071000000000000000e+03 2.515942955017089844e+01 -4.761719226837158203e+00 4.053899765014648438e+00 1.392764329910278320e+00 1.633999228477478027e+00 -2.975606203079223633e+00
1.072000000000000000e+03 2.628450012207031250e+01 -4.411158561706542969e+00 4.346137046813964844e+00 1.022561430931091309e+00 1.610609531402587891e+00 -2.692413568496704102e+00
1.073000000000000000e+03 3.081366157531738281e+01 2.164662742614746094e+01 -1.357554674148559570e+00 1.020413041114807129e-01 -3.766540288925170898e-01 1.476537808775901794e-02
1.074000000000000000e+03 3.231866836547851562e+01 2.094917488098144531e+01 -1.202115058898925781e+00 2.957426905632019043e-01 -2.719117105007171631e-01 -1.133020445704460144e-01
1.075000000000000000e+03 4.228794860839843750e+01 1.142405319213867188e+01 3.816952109336853027e-01 8.121681213378906250e+00 2.551012992858886719e+00 -1.224666714668273926e+00
1.076000000000000000e+03 4.600332641601562500e+01 1.833189964294433594e+00 1.557316660881042480e+00 1.079078674316406250e+01 3.704431056976318359e+00 5.141442418098449707e-01
1.077000000000000000e+03 4.379322433471679688e+01 5.786490440368652344e+00 9.928659796714782715e-01 1.438231658935546875e+01 4.612554550170898438e+00 6.286450624465942383e-01
1.078000000000000000e+03 3.481496810913085938e+01 1.908139228820800781e+01 -6.261112093925476074e-01 6.505742669105529785e-01 7.338915020227432251e-03 -2.608946561813354492e-01
1.079000000000000000e+03 3.699668121337890625e+01 1.724708175659179688e+01 -5.061105266213417053e-02 1.283830404281616211e+00 3.699658215045928955e-01 -6.293692588806152344e-01
1.080000000000000000e+03 5.132864379882812500e+01 -4.752841591835021973e-02 1.996819019317626953e+00 6.014222502708435059e-01 7.794723510742187500e-01 -4.961813688278198242e-01
1.081000000000000000e+03 5.015492248535156250e+01 -2.872588038444519043e-01 1.804893136024475098e+00 2.169742822647094727e+00 1.192390799522399902e+00 -9.937492012977600098e-01
1.082000000000000000e+03 7.927223205566406250e+01 -3.492789840698242188e+01 -1.169587578624486923e-02 8.979218482971191406e+00 2.690256834030151367e+00 -1.110973116010427475e-02
1.083000000000000000e+03 7.928775787353515625e+01 -2.784609222412109375e+01 -4.139504954218864441e-02 7.750036716461181641e+00 2.312592506408691406e+00 -2.435311079025268555e-01
1.084000000000000000e+03 7.774275970458984375e+01 3.239969253540039062e+01 -4.007465019822120667e-02 8.979800224304199219e+00 2.681917667388916016e+00 -6.443294137716293335e-02
1.085000000000000000e+03 7.945635986328125000e+01 3.623424911499023438e+01 2.575636282563209534e-02 9.421225547790527344e+00 2.834094524383544922e+00 -4.230650141835212708e-02
1.086000000000000000e+03 7.937497711181640625e+01 -2.084046745300292969e+01 3.320336714386940002e-02 5.211924076080322266e+00 1.573538184165954590e+00 -1.671084314584732056e-01
1.087000000000000000e+03 7.791177368164062500e+01 -2.637134361267089844e+01 -7.242036610841751099e-02 7.373949527740478516e+00 2.190458774566650391e+00 -6.839289665222167969e-01
1.088000000000000000e+03 7.926300811767578125e+01 -3.067991447448730469e+01 -4.288554936647415161e-02 8.479921340942382812e+00 2.531110763549804688e+00 -1.606116741895675659e-01
1.089000000000000000e+03 7.787764739990234375e+01 -3.368317031860351562e+01 -9.878396242856979370e-02 8.386427879333496094e+00 2.486293315887451172e+00 -1.728032976388931274e-01
1.090000000000000000e+03 7.217488861083984375e+01 -3.519474792480468750e+01 -3.476918041706085205e-01 6.557003974914550781e+00 1.862793684005737305e+00 1.291473209857940674e-01
1.091000000000000000e+03 7.829637908935546875e+01 -3.792095947265625000e+01 -4.219464212656021118e-02 8.593649864196777344e+00 2.565436601638793945e+00 5.767783150076866150e-02
1.092000000000000000e+03 7.708119964599609375e+01 -3.874146652221679688e+01 -8.611392974853515625e-02 8.462050437927246094e+00 2.512780904769897461e+00 6.374827772378921509e-02
1.093000000000000000e+03 7.805754089355468750e+01 1.424158000946044922e+01 1.163652092218399048e-01 6.646621704101562500e+00 2.028896093368530273e+00 5.609528347849845886e-02
1.094000000000000000e+03 7.937889862060546875e+01 1.543828392028808594e+01 -3.369874611962586641e-04 5.997679710388183594e+00 1.799202799797058105e+00 8.185576647520065308e-02
1.095000000000000000e+03 7.808635711669921875e+01 2.113033676147460938e+01 9.864733554422855377e-03 7.888488292694091797e+00 2.369505882263183594e+00 6.842890381813049316e-01
1.096000000000000000e+03 7.935523223876953125e+01 2.236138153076171875e+01 3.086410695686936378e-03 8.197659492492675781e+00 2.460223913192749023e+00 2.550730705261230469e-01
1.097000000000000000e+03 7.778017425537109375e+01 3.089668655395507812e+01 -5.136700347065925598e-02 9.038419723510742188e+00 2.696115732192993164e+00 -1.439091097563505173e-02
1.098000000000000000e+03 7.930204772949218750e+01 2.792736625671386719e+01 -3.347805142402648926e-02 9.563489913940429688e+00 2.859003543853759766e+00 7.860995084047317505e-02
1.099000000000000000e+03 7.800547790527343750e+01 2.523139762878417969e+01 -1.250945478677749634e-01 8.800287246704101562e+00 2.602557897567749023e+00 4.473553597927093506e-01
1.100000000000000000e+03 7.803423309326171875e+01 2.385039901733398438e+01 -1.007587760686874390e-01 8.559082984924316406e+00 2.537497282028198242e+00 5.681275725364685059e-01
1.101000000000000000e+03 7.822987365722656250e+01 1.842592048645019531e+01 1.250239610671997070e-01 7.139049053192138672e+00 2.179221868515014648e+00 5.371285080909729004e-01
1.102000000000000000e+03 7.815793609619140625e+01 1.567478561401367188e+01 1.828262805938720703e-01 6.693582057952880859e+00 2.062922477722167969e+00 2.385104000568389893e-01
1.103000000000000000e+03 7.822837829589843750e+01 1.706737136840820312e+01 8.516499400138854980e-02 6.874255180358886719e+00 2.087826013565063477e+00 4.142235517501831055e-01
1.104000000000000000e+03 7.802788543701171875e+01 1.278019142150878906e+01 1.499505043029785156e-01 6.643301486968994141e+00 2.037975549697875977e+00 -1.080262959003448486e-01
1.105000000000000000e+03 7.685620880126953125e+01 1.139388561248779297e+01 2.304196953773498535e-01 7.179459095001220703e+00 2.222963571548461914e+00 -3.249687254428863525e-01
1.106000000000000000e+03 7.807855987548828125e+01 8.520241737365722656e+00 9.433159604668617249e-03 7.075355052947998047e+00 2.125436544418334961e+00 -4.235817790031433105e-01
1.107000000000000000e+03 7.936476135253906250e+01 9.809240341186523438e+00 -6.936828140169382095e-04 6.447488307952880859e+00 1.934038400650024414e+00 -1.471885591745376587e-01
1.108000000000000000e+03 7.809227752685546875e+01 1.031429469585418701e-01 -5.282562971115112305e-02 7.996969699859619141e+00 2.383243322372436523e+00 -1.012617647647857666e-01
1.109000000000000000e+03 7.936127471923828125e+01 1.428883671760559082e+00 1.164960209280252457e-03 8.190877914428710938e+00 2.457612752914428711e+00 -6.772476434707641602e-02
1.110000000000000000e+03 7.668687438964843750e+01 7.258028507232666016e+00 -3.490871563553810120e-02 7.460113525390625000e+00 2.227561473846435547e+00 -5.756136178970336914e-01
1.111000000000000000e+03 7.938182067871093750e+01 -1.945687866210937500e+01 4.204298928380012512e-02 4.931963920593261719e+00 1.492202162742614746e+00 -8.349167555570602417e-02
1.112000000000000000e+03 7.940326690673828125e+01 -1.391229629516601562e+01 2.901284582912921906e-02 5.569091320037841797e+00 1.679431200027465820e+00 2.011408656835556030e-01
1.113000000000000000e+03 7.936078643798828125e+01 -6.928226470947265625e+00 -7.962697185575962067e-03 7.794999122619628906e+00 2.336110830307006836e+00 1.517639756202697754e-01
1.114000000000000000e+03 7.784664916992187500e+01 2.944883346557617188e+01 -9.662777930498123169e-02 9.084167480468750000e+00 2.696261882781982422e+00 6.708139926195144653e-02
1.115000000000000000e+03 7.610701751708984375e+01 3.602118682861328125e+01 -3.354819491505622864e-02 8.202338218688964844e+00 2.450637102127075195e+00 -1.411535143852233887e-01
1.116000000000000000e+03 7.811281585693359375e+01 9.913291931152343750e+00 6.962330639362335205e-02 6.875020980834960938e+00 2.083393335342407227e+00 -3.547841608524322510e-01
1.117000000000000000e+03 7.681122589111328125e+01 1.560368090867996216e-01 -1.629962176084518433e-01 7.764548301696777344e+00 2.280465602874755859e+00 -1.323996484279632568e-01
1.118000000000000000e+03 7.806416320800781250e+01 2.884496450424194336e+00 -5.668324977159500122e-02 7.808404445648193359e+00 2.325516462326049805e+00 -2.605248689651489258e-01
1.119000000000000000e+03 7.809413909912109375e+01 -1.282310485839843750e+00 -8.011848479509353638e-02 8.027894973754882812e+00 2.384332895278930664e+00 -1.529036927968263626e-02
1.120000000000000000e+03 7.936685943603515625e+01 -2.744742393493652344e+00 -3.235514461994171143e-02 8.336764335632324219e+00 2.491322755813598633e+00 3.080958314239978790e-02
1.121000000000000000e+03 7.807514190673828125e+01 -8.282222747802734375e+00 -6.462241709232330322e-02 7.434825897216796875e+00 2.211061000823974609e+00 4.862603843212127686e-01
1.122000000000000000e+03 7.811188507080078125e+01 -5.442982196807861328e+00 -7.401376962661743164e-02 7.838682651519775391e+00 2.329400777816772461e+00 2.660668492317199707e-01
1.123000000000000000e+03 7.935644531250000000e+01 -9.733716011047363281e+00 -5.995506886392831802e-03 7.021325588226318359e+00 2.104598999023437500e+00 2.197563946247100830e-01
1.124000000000000000e+03 7.823849487304687500e+01 -1.526147556304931641e+01 1.303924024105072021e-01 5.915952682495117188e+00 1.813903450965881348e+00 3.980115354061126709e-01
1.125000000000000000e+03 7.815699005126953125e+01 -1.251564884185791016e+01 1.692638732492923737e-02 6.512957096099853516e+00 1.958965063095092773e+00 5.747980475425720215e-01
1.126000000000000000e+03 7.940518951416015625e+01 -1.668861198425292969e+01 5.250636488199234009e-02 4.896940231323242188e+00 1.484833955764770508e+00 7.511419802904129028e-02
1.127000000000000000e+03 7.811162567138671875e+01 -2.072773933410644531e+01 1.539682298898696899e-01 5.990291118621826172e+00 1.843277812004089355e+00 -4.020396471023559570e-01
1.128000000000000000e+03 7.812391662597656250e+01 -1.936001968383789062e+01 1.578268557786941528e-01 5.820769309997558594e+00 1.793578743934631348e+00 -2.274135649204254150e-01
1.129000000000000000e+03 4.974672698974609375e+01 2.127713584899902344e+01 -2.393106520175933838e-01 6.707336902618408203e+00 1.940407872200012207e+00 1.214009642601013184e+00
1.130000000000000000e+03 4.848554229736328125e+01 1.834927797317504883e-01 1.031762719154357910e+00 6.407341957092285156e+00 2.231731414794921875e+00 -1.271267533302307129e+00
1.131000000000000000e+03 4.871862411499023438e+01 1.906086683273315430e+00 1.433577775955200195e+00 7.152827262878417969e+00 2.575921535491943359e+00 -2.180615663528442383e+00
1.132000000000000000e+03 6.102650833129882812e+01 2.255883407592773438e+01 -5.070122718811035156e+00 -3.484961092472076416e-01 -1.625585675239562988e+00 3.262246251106262207e-01
1.133000000000000000e+03 6.243929672241210938e+01 2.241391754150390625e+01 -4.639474868774414062e+00 8.989887684583663940e-02 -1.364872813224792480e+00 5.193406939506530762e-01
1.134000000000000000e+03 4.811365127563476562e+01 5.226491928100585938e+00 1.591022312641143799e-01 1.163595771789550781e+01 3.538517951965332031e+00 7.177845239639282227e-01
1.135000000000000000e+03 4.388931274414062500e+01 4.134414196014404297e+00 1.245895147323608398e+00 1.483021736145019531e+01 4.822833538055419922e+00 1.574884772300720215e+00
1.136000000000000000e+03 6.875743865966796875e+01 2.085652542114257812e+01 -7.535633444786071777e-01 9.692898750305175781e+00 2.681800603866577148e+00 2.674916991963982582e-03
1.137000000000000000e+03 6.835340118408203125e+01 1.689393806457519531e+01 -3.265631496906280518e-01 1.390482330322265625e+01 4.073478221893310547e+00 1.882698982954025269e-01
1.138000000000000000e+03 7.069982910156250000e+01 1.551944351196289062e+01 1.369503140449523926e+00 1.101232147216796875e+01 3.714547157287597656e+00 5.621986389160156250e-01
1.139000000000000000e+03 4.925465011596679688e+01 1.667951774597167969e+01 1.306087374687194824e+00 9.281497001647949219e+00 3.176275253295898438e+00 2.654363870620727539e+00
1.140000000000000000e+03 5.863399505615234375e+01 1.120658636093139648e+00 1.212793588638305664e+00 3.945389688014984131e-01 4.821997880935668945e-01 4.697230160236358643e-01
1.141000000000000000e+03 6.711501312255859375e+01 8.552742004394531250e+00 6.978053450584411621e-01 7.207397460937500000e+00 2.371560811996459961e+00 2.159362792968750000e+00
1.142000000000000000e+03 6.952148437500000000e+01 1.419441795349121094e+01 1.701674222946166992e+00 1.180805206298828125e+01 4.052917957305908203e+00 1.118525981903076172e+00
1.143000000000000000e+03 6.385765075683593750e+01 2.504261207580566406e+01 -1.360268235206604004e+00 1.349595665931701660e+00 -3.201754298061132431e-03 -8.064954280853271484e-01
1.144000000000000000e+03 6.006326293945312500e+01 4.011527061462402344e+00 4.684178829193115234e-01 4.580785334110260010e-01 2.779489159584045410e-01 4.370830059051513672e-01
1.145000000000000000e+03 5.496272277832031250e+01 -1.507641434669494629e+00 1.801918745040893555e+00 2.110363990068435669e-01 6.038865447044372559e-01 3.057492375373840332e-01
1.146000000000000000e+03 5.605689239501953125e+01 -4.662421643733978271e-01 1.718706250190734863e+00 2.106092423200607300e-01 5.787946581840515137e-01 3.332380652427673340e-01
1.147000000000000000e+03 4.987916946411132812e+01 -6.368345737457275391e+00 -2.183701395988464355e-01 3.518409013748168945e+00 9.900116920471191406e-01 1.067469954490661621e+00
1.148000000000000000e+03 5.377478408813476562e+01 -6.269734382629394531e+00 1.187463775277137756e-01 -1.697582453489303589e-01 -1.530355960130691528e-02 9.887745976448059082e-02
1.149000000000000000e+03 5.707873153686523438e+01 2.410084915161132812e+01 -1.299715399742126465e+00 8.312404751777648926e-01 -1.405424773693084717e-01 1.404731512069702148e+00
1.150000000000000000e+03 5.574221801757812500e+01 2.407999610900878906e+01 -1.143262386322021484e+00 1.878991723060607910e+00 2.207188159227371216e-01 1.878958344459533691e+00
1.151000000000000000e+03 4.701731872558593750e+01 6.874045372009277344e+00 8.363342881202697754e-01 1.208932781219482422e+01 3.877698659896850586e+00 1.596049785614013672e+00
1.152000000000000000e+03 4.782077789306640625e+01 1.098248291015625000e+01 8.034428358078002930e-01 1.174642658233642578e+01 3.764961004257202148e+00 2.417636632919311523e+00
1.153000000000000000e+03 5.439167785644531250e+01 2.416833686828613281e+01 -1.147922277450561523e+00 2.791756868362426758e+00 4.931503832340240479e-01 1.943075180053710938e+00
1.154000000000000000e+03 5.409950637817382812e+01 2.237135505676269531e+01 -1.933065950870513916e-01 2.438428401947021484e+00 6.735365986824035645e-01 1.830602526664733887e+00
1.155000000000000000e+03 6.401950073242187500e+01 5.817625999450683594e+00 7.220190763473510742e-01 2.593273878097534180e+00 9.945878982543945312e-01 1.453562855720520020e+00
1.156000000000000000e+03 6.923410034179687500e+01 1.003968429565429688e+01 8.623212575912475586e-01 8.719627380371093750e+00 2.874584436416625977e+00 8.584946990013122559e-01
1.157000000000000000e+03 5.842191314697265625e+01 2.406269645690917969e+01 -1.934983849525451660e+00 4.391687214374542236e-01 -4.487445354461669922e-01 9.777767658233642578e-01
1.158000000000000000e+03 5.042723846435546875e+01 1.939364051818847656e+01 1.432642102241516113e+00 7.501758098602294922e+00 2.680320024490356445e+00 2.232331514358520508e+00
1.159000000000000000e+03 4.979595184326171875e+01 1.804598236083984375e+01 1.461287379264831543e+00 8.441869735717773438e+00 2.970947027206420898e+00 2.472776889801025391e+00
1.160000000000000000e+03 6.505693054199218750e+01 6.745516300201416016e+00 7.608906626701354980e-01 3.794631242752075195e+00 1.366656541824340820e+00 1.826244235038757324e+00
1.161000000000000000e+03 4.993825912475585938e+01 1.491728878021240234e+01 1.206204414367675781e+00 1.095321273803710938e+01 3.647825002670288086e+00 3.468504428863525391e+00
1.162000000000000000e+03 4.822163009643554688e+01 1.383534812927246094e+01 1.060110926628112793e+00 1.058758735656738281e+01 3.494309663772583008e+00 2.352088689804077148e+00
1.163000000000000000e+03 6.890341186523437500e+01 8.155073165893554688e+00 2.678636610507965088e-01 7.770674705505371094e+00 2.411561489105224609e+00 8.941404223442077637e-01
1.164000000000000000e+03 4.869449615478515625e+01 1.529684257507324219e+01 9.861044883728027344e-01 1.013064002990722656e+01 3.335023164749145508e+00 2.509332418441772461e+00
1.165000000000000000e+03 6.086539077758789062e+01 2.996006965637207031e+00 7.406762838363647461e-01 9.556343555450439453e-01 5.088931918144226074e-01 6.842379570007324219e-01
1.166000000000000000e+03 6.609050750732421875e+01 7.661450862884521484e+00 7.796047329902648926e-01 5.098158836364746094e+00 1.763329148292541504e+00 2.089677572250366211e+00
1.167000000000000000e+03 4.760611343383789062e+01 9.650915145874023438e+00 7.712544798851013184e-01 1.199211692810058594e+01 3.829011440277099609e+00 2.171376943588256836e+00
1.168000000000000000e+03 4.797678375244140625e+01 1.236384677886962891e+01 9.737784862518310547e-01 1.119225692749023438e+01 3.649810552597045898e+00 2.514901399612426758e+00
1.169000000000000000e+03 5.938166809082031250e+01 -1.734923198819160461e-02 1.290099263191223145e+00 5.923513174057006836e-01 5.647351741790771484e-01 3.367714285850524902e-01
1.170000000000000000e+03 6.951565551757812500e+01 1.551096820831298828e+01 9.737796187400817871e-01 1.217921638488769531e+01 3.945898771286010742e+00 1.179867386817932129e+00
1.171000000000000000e+03 1.438361763954162598e+00 -3.988380432128906250e+01 -1.674608513712882996e-02 2.374968051910400391e+00 7.074665427207946777e-01 -1.098559983074665070e-02
1.172000000000000000e+03 7.812526226043701172e-01 3.736285018920898438e+01 -4.715810064226388931e-03 1.829447269439697266e+00 5.474194288253784180e-01 -4.423204064369201660e-02
1.173000000000000000e+03 7.308740019798278809e-01 3.460781478881835938e+01 -8.483540266752243042e-03 1.621220111846923828e+00 4.838209748268127441e-01 -6.852409988641738892e-02
1.174000000000000000e+03 7.315437793731689453e-01 3.320686721801757812e+01 -1.005106512457132339e-02 1.474888086318969727e+00 4.394511282444000244e-01 -8.629497140645980835e-02
1.175000000000000000e+03 6.736436486244201660e-01 2.756491851806640625e+01 -6.205541081726551056e-03 5.188124775886535645e-01 1.537820845842361450e-01 -1.506855338811874390e-01
1.176000000000000000e+03 6.606080532073974609e-01 2.615853691101074219e+01 -7.095702923834323883e-03 1.857335716485977173e-01 5.359135940670967102e-02 -1.646384745836257935e-01
1.177000000000000000e+03 5.839453935623168945e-01 -3.612437438964843750e+01 2.503390714991837740e-04 2.312422275543212891e+00 6.938017606735229492e-01 3.881083056330680847e-02
1.178000000000000000e+03 2.223977565765380859e+00 -3.341234207153320312e+01 -8.084667474031448364e-02 1.955405592918395996e+00 5.623676776885986328e-01 2.563353776931762695e-01
1.179000000000000000e+03 3.291398048400878906e+00 2.584657287597656250e+01 -7.505927234888076782e-02 7.352415919303894043e-01 1.980547010898590088e-01 -6.940846443176269531e-01
1.180000000000000000e+03 3.222767591476440430e+00 2.447308731079101562e+01 -4.680104926228523254e-02 5.002613663673400879e-01 1.360380947589874268e-01 -7.239422798156738281e-01
1.181000000000000000e+03 2.219782114028930664e+00 3.440309143066406250e+01 -4.220103845000267029e-02 1.621099948883056641e+00 4.736696779727935791e-01 -2.039734721183776855e-01
1.182000000000000000e+03 2.219545125961303711e+00 3.301157760620117188e+01 -4.587662592530250549e-02 1.497057795524597168e+00 4.353543519973754883e-01 -2.495943754911422729e-01
1.183000000000000000e+03 2.568043947219848633e+00 3.801960372924804688e+01 -3.933786973357200623e-02 1.849032640457153320e+00 5.429084300994873047e-01 -1.212610155344009399e-01
1.184000000000000000e+03 3.509509801864624023e+00 3.901565170288085938e+01 -5.922049656510353088e-02 1.880470395088195801e+00 5.463749766349792480e-01 -1.241060271859169006e-01
1.185000000000000000e+03 1.943753242492675781e+00 -2.908448791503906250e+01 -7.692204415798187256e-02 1.325444221496582031e+00 3.745566308498382568e-01 4.828719198703765869e-01
1.186000000000000000e+03 1.964477181434631348e+00 -2.625641250610351562e+01 -5.794649571180343628e-02 6.937476992607116699e-01 1.907403618097305298e-01 6.465899944305419922e-01
1.187000000000000000e+03 1.688136696815490723e+00 -9.536149024963378906e+00 8.946180343627929688e-03 -1.066250443458557129e+00 -3.171912729740142822e-01 -3.638944029808044434e-01
1.188000000000000000e+03 1.777657032012939453e+00 -1.641088104248046875e+01 1.362476795911788940e-01 -1.548671245574951172e+00 -4.237270653247833252e-01 9.672448039054870605e-02
1.189000000000000000e+03 1.633297443389892578e+00 -3.643851852416992188e+01 -3.623652085661888123e-02 2.240289211273193359e+00 6.612157821655273438e-01 8.926363289356231689e-02
1.190000000000000000e+03 6.175177693367004395e-01 2.052129936218261719e+01 2.151733497157692909e-03 -1.358699917793273926e+00 -4.069644510746002197e-01 -1.685307919979095459e-01
1.191000000000000000e+03 6.087167263031005859e-01 1.911799812316894531e+01 1.190538983792066574e-02 -1.729329466819763184e+00 -5.152271986007690430e-01 -1.531843245029449463e-01
1.192000000000000000e+03 5.937050580978393555e-01 1.491463279724121094e+01 1.251881476491689682e-02 -2.515580177307128906e+00 -7.509183883666992188e-01 -6.476993858814239502e-02
1.193000000000000000e+03 5.909258723258972168e-01 1.351040554046630859e+01 2.245926670730113983e-02 -2.610654830932617188e+00 -7.764586210250854492e-01 -2.323343604803085327e-02
1.194000000000000000e+03 6.349663138389587402e-01 7.815851211547851562e+00 9.296312928199768066e-03 -1.833845496177673340e+00 -5.473647713661193848e-01 1.761109083890914917e-01
1.195000000000000000e+03 5.287549495697021484e+00 -4.001758956909179688e+01 -9.036731719970703125e-02 1.951243638992309570e+00 5.582628846168518066e-01 1.083223894238471985e-01
1.196000000000000000e+03 3.768280267715454102e+00 -3.848216247558593750e+01 -8.123929798603057861e-02 2.164456129074096680e+00 6.249650120735168457e-01 1.267601400613784790e-01
1.197000000000000000e+03 3.682215452194213867e+00 -3.564423751831054688e+01 -1.375329792499542236e-01 2.061966657638549805e+00 5.773301124572753906e-01 2.307383120059967041e-01
1.198000000000000000e+03 1.995478987693786621e+00 -3.190164375305175781e+01 -6.171264126896858215e-02 1.781018614768981934e+00 5.157917737960815430e-01 3.333201408386230469e-01
1.199000000000000000e+03 1.954543828964233398e+00 -2.767926788330078125e+01 -5.935416743159294128e-02 1.032931089401245117e+00 2.920730710029602051e-01 5.555841922760009766e-01
1.200000000000000000e+03 3.277379274368286133e+00 -2.625594520568847656e+01 -1.194161623716354370e-01 1.131017088890075684e+00 3.034802973270416260e-01 9.035581946372985840e-01
1.201000000000000000e+03 1.932587981224060059e+00 -2.199050521850585938e+01 5.840200930833816528e-02 -4.682908356189727783e-01 -1.229666471481323242e-01 6.471508741378784180e-01
1.202000000000000000e+03 1.975531220436096191e+00 -2.481829833984375000e+01 -3.618760732933878899e-03 3.094815909862518311e-01 9.175884723663330078e-02 6.752106547355651855e-01
1.203000000000000000e+03 2.989119291305541992e+00 -1.912862777709960938e+01 2.364646792411804199e-01 -2.964851558208465576e-01 -1.800614781677722931e-02 5.970484614372253418e-01
1.204000000000000000e+03 6.118632555007934570e-01 -1.918543434143066406e+01 7.769100368022918701e-03 -2.206429481506347656e+00 -6.595981717109680176e-01 1.565194129943847656e-01
1.205000000000000000e+03 1.820215106010437012e+00 -1.918654441833496094e+01 1.284901946783065796e-01 -1.176956772804260254e+00 -3.145399987697601318e-01 4.289219379425048828e-01
1.206000000000000000e+03 3.009208679199218750e+00 -1.243583869934082031e+01 1.241625025868415833e-01 -5.773437619209289551e-01 -1.359543800354003906e-01 -3.862563669681549072e-01
1.207000000000000000e+03 5.837612152099609375e-01 -1.217213249206542969e+01 8.270907215774059296e-03 -2.230682373046875000e+00 -6.667234301567077637e-01 -1.114822775125503540e-01
1.208000000000000000e+03 1.771138548851013184e+00 -1.230440807342529297e+01 4.676173627376556396e-02 -1.393007516860961914e+00 -4.038737416267395020e-01 -3.105534315109252930e-01
1.209000000000000000e+03 4.418047428131103516e+00 -3.367686748504638672e+00 -1.930227428674697876e-01 1.680934452451765537e-03 -5.740253999829292297e-02 -3.577353656291961670e-01
1.210000000000000000e+03 2.975459337234497070e+00 -2.566903352737426758e+00 -1.555742472410202026e-01 -7.651712000370025635e-02 -6.962741166353225708e-02 -2.726759016513824463e-01
1.211000000000000000e+03 2.439507246017456055e+00 -2.759262084960937500e+00 -1.061969846487045288e-01 -1.194694414734840393e-01 -6.769992411136627197e-02 -2.555300593376159668e-01
1.212000000000000000e+03 1.622395873069763184e+00 -4.188858032226562500e+00 -2.799185924232006073e-02 -3.269389271736145020e-01 -1.064792349934577942e-01 -2.574901878833770752e-01
1.213000000000000000e+03 4.876333177089691162e-01 4.925656795501708984e+00 -1.254992093890905380e-02 -9.556648135185241699e-01 -2.904644310474395752e-01 1.672399491071701050e-01
1.214000000000000000e+03 4.289846420288085938e+00 4.474008083343505859e+00 -1.245815828442573547e-01 -4.066299498081207275e-01 -1.593634635210037231e-01 9.233254194259643555e-01
1.215000000000000000e+03 1.772346615791320801e+00 1.072554111480712891e+01 9.540696442127227783e-02 -1.789625883102416992e+00 -5.082656741142272949e-01 2.003922313451766968e-01
1.216000000000000000e+03 5.990454554557800293e-01 1.068992328643798828e+01 2.321952208876609802e-02 -2.456871986389160156e+00 -7.300956845283508301e-01 7.621408998966217041e-02
1.217000000000000000e+03 1.764310956001281738e+00 1.351206398010253906e+01 8.423436433076858521e-02 -1.845084667205810547e+00 -5.282551050186157227e-01 -6.010484322905540466e-02
1.218000000000000000e+03 1.826349258422851562e+00 1.901483345031738281e+01 3.370703384280204773e-02 -1.105945110321044922e+00 -3.216714262962341309e-01 -4.216238260269165039e-01
1.219000000000000000e+03 1.943781971931457520e+00 2.460181617736816406e+01 -2.439441531896591187e-02 1.449514031410217285e-01 3.616709634661674500e-02 -4.866471588611602783e-01
1.220000000000000000e+03 4.036038589477539062e+01 1.230653572082519531e+01 9.397118687629699707e-01 3.955810070037841797e+00 1.468656539916992188e+00 -1.814350962638854980e+00
1.221000000000000000e+03 2.050080299377441406e+01 5.187023282051086426e-01 5.789330005645751953e-01 1.152034187316894531e+01 3.629782438278198242e+00 -5.350798368453979492e-01
1.222000000000000000e+03 1.757162857055664062e+01 7.592487335205078125e-01 -4.494711384177207947e-02 6.386125087738037109e+00 1.902353405952453613e+00 -4.776603221893310547e+00
1.223000000000000000e+03 1.780113029479980469e+01 -3.449698925018310547e+00 4.058453559875488281e+00 5.265278339385986328e+00 2.797119617462158203e+00 4.320100784301757812e+00
1.224000000000000000e+03 1.776891517639160156e+01 -3.059413909912109375e+00 5.136528491973876953e+00 4.634258747100830078e+00 2.931236267089843750e+00 4.539199829101562500e+00
1.225000000000000000e+03 1.509398937225341797e+01 -3.631442785263061523e+00 2.319516897201538086e+00 4.088170230388641357e-01 8.185001611709594727e-01 1.812152743339538574e+00
1.226000000000000000e+03 1.732474517822265625e+01 -3.041772365570068359e+00 4.817812919616699219e+00 2.497325420379638672e+00 2.194541454315185547e+00 3.530625820159912109e+00
1.227000000000000000e+03 1.690255355834960938e+01 -3.296279907226562500e+00 4.200446605682373047e+00 1.816545605659484863e+00 1.805097579956054688e+00 3.122550010681152344e+00
1.228000000000000000e+03 1.641787147521972656e+01 -3.236581087112426758e+00 3.730122327804565430e+00 9.506449699401855469e-01 1.404230117797851562e+00 2.419517993927001953e+00
1.229000000000000000e+03 1.840943145751953125e+01 -3.204482316970825195e+00 3.896253585815429688e+00 8.925372123718261719e+00 3.846487760543823242e+00 4.482701778411865234e+00
1.230000000000000000e+03 1.459263515472412109e+01 -3.330503940582275391e+00 1.863162040710449219e+00 1.568527370691299438e-01 6.060044169425964355e-01 1.374014973640441895e+00
1.231000000000000000e+03 1.678269004821777344e+01 8.073043823242187500e-01 -6.115020439028739929e-02 3.750083208084106445e+00 1.106679916381835938e+00 -3.341236352920532227e+00
1.232000000000000000e+03 1.616177177429199219e+01 1.161563634872436523e+00 -5.059031248092651367e-01 2.805643081665039062e+00 6.899220347404479980e-01 -2.504531860351562500e+00
1.233000000000000000e+03 1.283045959472656250e+01 -2.917114734649658203e+00 6.146708726882934570e-01 8.814781904220581055e-02 2.108456194400787354e-01 7.101262807846069336e-01
1.234000000000000000e+03 1.332854270935058594e+01 -3.569018840789794922e+00 1.128115653991699219e+00 1.954157203435897827e-01 3.970594108104705811e-01 1.137181282043457031e+00
1.235000000000000000e+03 1.387736320495605469e+01 -3.703068256378173828e+00 1.491020083427429199e+00 2.200410962104797363e-01 5.133183598518371582e-01 1.374139547348022461e+00
1.236000000000000000e+03 1.153406333923339844e+01 -2.743687868118286133e+00 1.215425655245780945e-01 1.556345820426940918e-01 8.315314352512359619e-02 4.494834244251251221e-01
1.237000000000000000e+03 1.213786220550537109e+01 -3.403556585311889648e+00 5.308584570884704590e-01 2.395441830158233643e-01 2.311207950115203857e-01 7.714728116989135742e-01
1.238000000000000000e+03 1.544757747650146484e+01 -3.243473529815673828e+00 2.555005311965942383e+00 2.942663431167602539e-01 8.547815084457397461e-01 1.648049950599670410e+00
1.239000000000000000e+03 9.490421295166015625e+00 -3.297559738159179688e+00 -1.211585476994514465e-01 3.281720578670501709e-01 6.210405007004737854e-02 2.089339643716812134e-01
1.240000000000000000e+03 1.149833774566650391e+01 -3.349925041198730469e+00 2.929952442646026611e-01 2.678602635860443115e-01 1.682566553354263306e-01 6.011261940002441406e-01
1.241000000000000000e+03 1.017457580566406250e+01 -3.301866769790649414e+00 -3.145883977413177490e-02 3.217146396636962891e-01 8.707673847675323486e-02 3.210075795650482178e-01
1.242000000000000000e+03 8.788339614868164062e+00 -3.305848598480224609e+00 -2.071853578090667725e-01 3.216889202594757080e-01 3.435107320547103882e-02 7.560197263956069946e-02
1.243000000000000000e+03 1.451352691650390625e+01 2.241644382476806641e+00 -5.256967544555664062e-01 1.878720164299011230e+00 4.059070050716400146e-01 -1.064039587974548340e+00
1.244000000000000000e+03 1.764478874206542969e+01 4.417475700378417969e+00 7.273674756288528442e-02 8.114730834960937500e+00 2.456240415573120117e+00 -2.650428295135498047e+00
1.245000000000000000e+03 1.698844337463378906e+01 8.224147796630859375e+00 1.864806652069091797e+00 8.420455932617187500e+00 3.085578680038452148e+00 -2.325436115264892578e+00
1.246000000000000000e+03 8.069531440734863281e+00 -3.326163053512573242e+00 -2.341913282871246338e-01 2.875236570835113525e-01 1.599969714879989624e-02 -3.229467943310737610e-02
1.247000000000000000e+03 4.340592384338378906e+00 -2.585576057434082031e+00 -2.453363537788391113e-01 -1.311185024678707123e-02 -7.753445953130722046e-02 -3.146374821662902832e-01
1.248000000000000000e+03 5.873810291290283203e+00 -3.390003681182861328e+00 -2.497979700565338135e-01 1.389714479446411133e-01 -3.324795886874198914e-02 -2.942926585674285889e-01
1.249000000000000000e+03 5.145000457763671875e+00 -3.389946222305297852e+00 -2.238003313541412354e-01 6.470914930105209351e-02 -4.772735387086868286e-02 -3.429254591464996338e-01
1.250000000000000000e+03 2.652897596359252930e+00 -7.026005268096923828e+00 -2.790539339184761047e-02 -4.006057977676391602e-01 -1.285533607006072998e-01 -4.461686611175537109e-01
1.251000000000000000e+03 6.605965137481689453e+00 -3.375986814498901367e+00 -2.565152943134307861e-01 1.926661431789398193e-01 -1.915474794805049896e-02 -2.293150126934051514e-01
1.252000000000000000e+03 1.948689818382263184e+00 -3.244781494140625000e+00 -6.318780034780502319e-02 -1.989456862211227417e-01 -7.864004373550415039e-02 -2.437966614961624146e-01
1.253000000000000000e+03 4.507572174072265625e+00 -5.113735675811767578e+00 -1.100634410977363586e-01 6.348948180675506592e-02 -1.397218927741050720e-02 -4.183082580566406250e-01
1.254000000000000000e+03 1.558239221572875977e+00 -5.486247062683105469e+00 -1.715594716370105743e-02 -5.025218129158020020e-01 -1.559033393859863281e-01 -2.923643290996551514e-01
1.255000000000000000e+03 1.991416358947753906e+01 -3.794711351394653320e+00 2.630474567413330078e+00 1.078153896331787109e+01 4.023603916168212891e+00 -1.698720097541809082e+00
1.256000000000000000e+03 8.253418922424316406e+00 3.339374303817749023e+00 -6.145826578140258789e-01 -1.186334043741226196e-01 -2.199648171663284302e-01 1.017245173454284668e+00
1.257000000000000000e+03 6.647874355316162109e+00 3.421964406967163086e+00 -5.249068140983581543e-01 -1.713435351848602295e-01 -2.088751196861267090e-01 1.046655654907226562e+00
1.258000000000000000e+03 5.050238132476806641e+00 3.555845260620117188e+00 -3.772734701633453369e-01 -2.651258409023284912e-01 -1.927198022603988647e-01 9.486246109008789062e-01
1.259000000000000000e+03 3.500575780868530273e+00 2.808146476745605469e+00 -3.541354537010192871e-01 -2.574135363101959229e-01 -1.834647059440612793e-01 6.778081655502319336e-01
1.260000000000000000e+03 4.267524242401123047e+00 2.754174709320068359e+00 -4.710525572299957275e-01 -2.263410985469818115e-01 -2.092180997133255005e-01 7.734363079071044922e-01
1.261000000000000000e+03 5.040252685546875000e+00 2.721538543701171875e+00 -6.002253890037536621e-01 -1.785175055265426636e-01 -2.336228638887405396e-01 8.574622869491577148e-01
1.262000000000000000e+03 5.844026088714599609e+00 3.483888387680053711e+00 -4.471290707588195801e-01 -2.105190753936767578e-01 -1.972944438457489014e-01 1.011723756790161133e+00
1.263000000000000000e+03 1.442953824996948242e+00 4.636875629425048828e+00 -3.241318464279174805e-02 -7.546697258949279785e-01 -2.361248731613159180e-01 4.483537375926971436e-01
1.264000000000000000e+03 4.053951799869537354e-01 3.538288593292236328e+00 -1.830084249377250671e-02 -4.686745107173919678e-01 -1.460926085710525513e-01 1.165525913238525391e-01
1.265000000000000000e+03 1.060136222839355469e+01 2.408736467361450195e+00 -1.242559909820556641e+00 -4.731415957212448120e-02 -3.869622051715850830e-01 6.989970207214355469e-01
1.266000000000000000e+03 9.849149703979492188e+00 3.183124303817749023e+00 -6.370613574981689453e-01 1.767026958987116814e-03 -1.905882954597473145e-01 8.139349222183227539e-01
1.267000000000000000e+03 1.226768589019775391e+01 2.868455171585083008e+00 -5.606719851493835449e-01 6.525636315345764160e-01 2.756750211119651794e-02 9.507717192173004150e-02
1.268000000000000000e+03 1.146016883850097656e+01 2.981867313385009766e+00 -6.009102463722229004e-01 3.558150231838226318e-01 -7.352857291698455811e-02 3.713856339454650879e-01
1.269000000000000000e+03 1.382746887207031250e+01 2.503704786300659180e+00 -5.065966844558715820e-01 1.366772294044494629e+00 2.580526769161224365e-01 -6.869412064552307129e-01
1.270000000000000000e+03 1.306497287750244141e+01 2.717880487442016602e+00 -5.441998839378356934e-01 1.020905613899230957e+00 1.430117338895797729e-01 -2.987073361873626709e-01
1.271000000000000000e+03 1.065070629119873047e+01 3.082159519195556641e+00 -6.299601793289184570e-01 1.386837363243103027e-01 -1.473829299211502075e-01 6.397997140884399414e-01
1.272000000000000000e+03 2.181141471862792969e+01 -1.524217009544372559e+00 6.550689220428466797e+00 5.177330017089843750e+00 3.518405675888061523e+00 -2.364718437194824219e+00
1.273000000000000000e+03 2.037739181518554688e+01 -3.602344989776611328e+00 3.597728967666625977e+00 9.385987281799316406e+00 3.895114898681640625e+00 -2.788573265075683594e+00
1.274000000000000000e+03 2.328330230712890625e+01 -9.875680923461914062e+00 -1.362840086221694946e-01 1.624172329902648926e+00 4.463664889335632324e-01 -1.507561802864074707e+00
1.275000000000000000e+03 2.162092971801757812e+01 -2.896338701248168945e+00 6.216649055480957031e+00 5.666382789611816406e+00 3.564909458160400391e+00 -4.109785556793212891e+00
1.276000000000000000e+03 5.981366348266601562e+01 -7.756438732147216797e+00 -4.647620767354965210e-02 3.765730857849121094e-01 9.902906417846679688e-02 -1.024202555418014526e-01
1.277000000000000000e+03 2.391272544860839844e+01 -1.211895561218261719e+01 -1.547004818916320801e+00 7.200671434402465820e-01 -2.480812966823577881e-01 -7.579750418663024902e-01
1.278000000000000000e+03 2.169007873535156250e+01 -1.164717388153076172e+01 -2.254686117172241211e+00 9.784243106842041016e-01 -3.828785419464111328e-01 -1.756904721260070801e-01
1.279000000000000000e+03 2.067109107971191406e+01 -1.128385639190673828e+01 -2.217100858688354492e+00 9.706341624259948730e-01 -3.739400207996368408e-01 -4.607244860380887985e-03
1.280000000000000000e+03 2.015520668029785156e+01 -1.225037479400634766e+01 -3.464704990386962891e+00 4.287337660789489746e-01 -9.107913374900817871e-01 6.559193134307861328e-01
1.281000000000000000e+03 2.117480278015136719e+01 2.632007598876953125e+00 -1.357980251312255859e+00 8.114324569702148438e+00 2.026903152465820312e+00 -1.798573851585388184e+00
1.282000000000000000e+03 2.203439331054687500e+01 -1.066178703308105469e+01 -1.215080142021179199e+00 1.425857067108154297e+00 6.323307007551193237e-02 -7.548441886901855469e-01
1.283000000000000000e+03 3.343684387207031250e+01 -1.231607055664062500e+01 1.631759285926818848e+00 3.116524696350097656e+00 1.424485206604003906e+00 -2.576880931854248047e+00
1.284000000000000000e+03 6.566469573974609375e+01 -2.806736564636230469e+01 -7.358971238136291504e-01 3.891833066940307617e+00 9.467808008193969727e-01 1.074880003929138184e+00
1.285000000000000000e+03 3.145261764526367188e+01 2.423576545715332031e+01 -7.572521567344665527e-01 6.748436093330383301e-01 -2.472256310284137726e-02 -4.018679559230804443e-01
1.286000000000000000e+03 6.278734207153320312e+01 -9.042413711547851562e+00 1.269976049661636353e-01 1.245305299758911133e+00 4.116908609867095947e-01 -7.835947871208190918e-01
1.287000000000000000e+03 1.975949859619140625e+01 -1.077353286743164062e+01 -1.752580523490905762e+00 9.407120347023010254e-01 -2.435605376958847046e-01 3.719405829906463623e-01
1.288000000000000000e+03 3.831106567382812500e+01 -6.929435253143310547e+00 -2.728419899940490723e-01 4.125942707061767578e+00 1.155930280685424805e+00 1.222220063209533691e+00
1.289000000000000000e+03 6.170142745971679688e+01 2.017296791076660156e+00 8.109596967697143555e-01 1.455458641052246094e+00 6.799255013465881348e-01 7.201417684555053711e-01
1.290000000000000000e+03 6.273822402954101562e+01 3.010385274887084961e+00 6.193032860755920410e-01 2.043336153030395508e+00 7.987918257713317871e-01 9.163868427276611328e-01
1.291000000000000000e+03 6.479007720947265625e+01 4.878365516662597656e+00 3.872810900211334229e-01 3.582388162612915039e+00 1.190900802612304688e+00 1.385060787200927734e+00
1.292000000000000000e+03 6.297501373291015625e+01 4.884007930755615234e+00 6.333385109901428223e-01 1.917384147644042969e+00 7.652167677879333496e-01 1.093411922454833984e+00
1.293000000000000000e+03 1.819841194152832031e+01 -1.072500991821289062e+01 -1.762790560722351074e+00 7.710526883602142334e-02 -5.057055950164794922e-01 1.242626786231994629e+00
1.294000000000000000e+03 1.703486824035644531e+01 -1.107945537567138672e+01 -1.653148651123046875e+00 -3.707400560379028320e-01 -6.071665883064270020e-01 2.335781812667846680e+00
1.295000000000000000e+03 6.683711242675781250e+01 6.619574546813964844e+00 1.528710573911666870e-01 5.947297573089599609e+00 1.830050587654113770e+00 1.581539511680603027e+00
1.296000000000000000e+03 4.361403656005859375e+01 2.614068984985351562e+00 1.699004769325256348e+00 1.487691688537597656e+01 4.972776412963867188e+00 1.918755531311035156e+00
1.297000000000000000e+03 1.462269210815429688e+01 -2.826243782043457031e+01 -6.522624492645263672e-01 1.374778509140014648e+00 2.167548090219497681e-01 -2.081375718116760254e-01
1.298000000000000000e+03 3.811926651000976562e+01 -2.027244758605957031e+01 2.199257373809814453e+00 9.718136787414550781e+00 3.575218200683593750e+00 -4.604366719722747803e-01
1.299000000000000000e+03 4.389250564575195312e+01 -1.848041534423828125e+01 1.630031585693359375e+00 1.064121150970458984e+01 3.681372880935668945e+00 1.940448433160781860e-01
1.300000000000000000e+03 4.377376174926757812e+01 -1.989776420593261719e+01 1.870303273200988770e+00 1.060236930847167969e+01 3.741801738739013672e+00 -4.408797919750213623e-01
1.301000000000000000e+03 1.366848564147949219e+01 -2.744146728515625000e+01 -6.054441332817077637e-01 1.788936853408813477e+00 3.550478219985961914e-01 -2.448274493217468262e-01
1.302000000000000000e+03 6.389258193969726562e+01 -1.030992603302001953e+01 2.066420018672943115e-01 1.499875068664550781e+00 5.119551420211791992e-01 -1.245661973953247070e+00
1.303000000000000000e+03 1.966870307922363281e+01 -3.582172775268554688e+01 -3.524714708328247070e-01 3.504356741905212402e-01 -6.107410881668329239e-04 -2.207684814929962158e-01
1.304000000000000000e+03 2.155975341796875000e+01 -3.186735534667968750e+01 -1.196245312690734863e+00 -2.771680429577827454e-02 -3.671886324882507324e-01 3.641643375158309937e-02
1.305000000000000000e+03 4.627494049072265625e+01 -2.782710647583007812e+01 4.270518720149993896e-01 7.057105541229248047e+00 2.245247125625610352e+00 -1.682294368743896484e+00
1.306000000000000000e+03 6.728726196289062500e+01 -2.608938598632812500e+01 -5.485609769821166992e-01 5.929236888885498047e+00 1.614202857017517090e+00 1.333414554595947266e+00
1.307000000000000000e+03 7.241085815429687500e+01 -2.380640602111816406e+01 1.413500458002090454e-01 8.547125816345214844e+00 2.606542825698852539e+00 -1.046319842338562012e+00
1.308000000000000000e+03 3.913177871704101562e+01 1.555002212524414062e+01 3.251511156558990479e-01 2.520365715026855469e+00 8.536550998687744141e-01 -1.117496252059936523e+00
1.309000000000000000e+03 3.779940414428710938e+01 1.829708290100097656e+01 -1.714913249015808105e-01 2.067729949951171875e+00 5.688715577125549316e-01 -8.695974349975585938e-01
1.310000000000000000e+03 2.483367729187011719e+01 2.577405929565429688e+01 -5.880898237228393555e-01 6.562820076942443848e-01 2.045765891671180725e-02 7.078181505203247070e-01
1.311000000000000000e+03 7.541637420654296875e+01 -1.924448394775390625e+01 8.073164224624633789e-01 7.289073467254638672e+00 2.428916931152343750e+00 -3.856788873672485352e-01
1.312000000000000000e+03 4.894418716430664062e+01 -2.878785705566406250e+01 7.403476238250732422e-01 4.599234104156494141e+00 1.601874589920043945e+00 -2.252995967864990234e+00
1.313000000000000000e+03 1.633556175231933594e+01 1.227019405364990234e+01 1.328467130661010742e+00 8.606760025024414062e+00 2.980568170547485352e+00 -1.458397984504699707e+00
1.314000000000000000e+03 1.782176399230957031e+01 9.714948654174804688e+00 1.531849026679992676e+00 1.078426456451416016e+01 3.694834232330322266e+00 -2.489938497543334961e+00
1.315000000000000000e+03 7.388369750976562500e+01 -3.362119293212890625e+01 -3.605865538120269775e-01 7.190497398376464844e+00 2.048973321914672852e+00 -1.293976455926895142e-01
1.316000000000000000e+03 7.789392852783203125e+01 -3.656293487548828125e+01 -5.236697942018508911e-02 8.565037727355957031e+00 2.553801298141479492e+00 6.575511395931243896e-02
1.317000000000000000e+03 7.563496398925781250e+01 -2.199989318847656250e+01 4.041790664196014404e-01 7.305702686309814453e+00 2.312964677810668945e+00 -9.550346732139587402e-01
1.318000000000000000e+03 7.784564208984375000e+01 -2.926978874206542969e+01 -1.239420101046562195e-01 7.943306922912597656e+00 2.345809459686279297e+00 -5.099567770957946777e-01
1.319000000000000000e+03 7.552577972412109375e+01 1.504793643951416016e+01 5.707088112831115723e-01 7.710797309875488281e+00 2.484451770782470703e+00 3.382917940616607666e-01
1.320000000000000000e+03 7.698754882812500000e+01 1.596342372894287109e+01 2.776339650154113770e-01 7.241735935211181641e+00 2.255810976028442383e+00 4.180997312068939209e-01
1.321000000000000000e+03 7.813451385498046875e+01 3.523797225952148438e+01 -4.949624836444854736e-02 9.005878448486328125e+00 2.686914682388305664e+00 -1.017140448093414307e-01
1.322000000000000000e+03 7.623654937744140625e+01 3.255911636352539062e+01 -9.968894720077514648e-02 8.396705627441406250e+00 2.489104986190795898e+00 -1.489790529012680054e-01
1.323000000000000000e+03 7.809598541259765625e+01 -2.210375595092773438e+01 1.186528131365776062e-01 6.273702621459960938e+00 1.917706608772277832e+00 -5.926934480667114258e-01
1.324000000000000000e+03 7.677487945556640625e+01 -2.341127395629882812e+01 1.252703219652175903e-01 7.070045471191406250e+00 2.158594608306884766e+00 -9.523563385009765625e-01
1.325000000000000000e+03 7.639830017089843750e+01 -3.086160278320312500e+01 -2.333436757326126099e-01 7.879841327667236328e+00 2.293949365615844727e+00 -4.915087819099426270e-01
1.326000000000000000e+03 7.784816741943359375e+01 -3.512271118164062500e+01 -1.016222164034843445e-01 8.511032104492187500e+00 2.522823095321655273e+00 -9.644350409507751465e-02
1.327000000000000000e+03 7.787353515625000000e+01 -2.781563186645507812e+01 -7.080700248479843140e-02 7.675466537475585938e+00 2.281397819519042969e+00 -6.115573048591613770e-01
1.328000000000000000e+03 7.646258544921875000e+01 -2.930982398986816406e+01 -2.436325252056121826e-01 7.820772171020507812e+00 2.273141860961914062e+00 -6.395993232727050781e-01
1.329000000000000000e+03 7.647077178955078125e+01 -2.782351112365722656e+01 -2.198337763547897339e-01 7.729187488555908203e+00 2.252806186676025391e+00 -8.164463043212890625e-01
1.330000000000000000e+03 7.662807464599609375e+01 -2.484844398498535156e+01 -3.810176253318786621e-02 7.333131313323974609e+00 2.188508987426757812e+00 -9.790430068969726562e-01
1.331000000000000000e+03 7.504695892333984375e+01 -2.629594230651855469e+01 -2.836929261684417725e-01 7.792726993560791016e+00 2.252710342407226562e+00 -1.036675572395324707e+00
1.332000000000000000e+03 7.642515563964843750e+01 -3.522142410278320312e+01 -1.820643097162246704e-01 7.915935993194580078e+00 2.320161581039428711e+00 -1.509195715188980103e-01
1.333000000000000000e+03 7.215164184570312500e+01 -3.045521545410156250e+01 -7.129229307174682617e-01 7.241708278656005859e+00 1.958635568618774414e+00 -2.563092112541198730e-01
1.334000000000000000e+03 7.643193054199218750e+01 -3.244049835205078125e+01 -2.236196249723434448e-01 7.962745189666748047e+00 2.321737527847290039e+00 -3.152786791324615479e-01
1.335000000000000000e+03 7.524399566650390625e+01 -4.001393890380859375e+01 1.776890642940998077e-02 7.692439079284667969e+00 2.313062429428100586e+00 -1.180628389120101929e-01
1.336000000000000000e+03 7.804292297363281250e+01 2.248346900939941406e+01 -6.701883673667907715e-02 8.228576660156250000e+00 2.448467254638671875e+00 6.900114417076110840e-01
1.337000000000000000e+03 7.698152923583984375e+01 1.985484313964843750e+01 1.367982923984527588e-01 7.783142566680908203e+00 2.375982284545898438e+00 9.149284958839416504e-01
1.338000000000000000e+03 7.534750366210937500e+01 2.292534255981445312e+01 -3.761706352233886719e-01 8.418427467346191406e+00 2.412677049636840820e+00 1.051491975784301758e+00
1.339000000000000000e+03 7.674526977539062500e+01 2.119878387451171875e+01 -4.153303429484367371e-02 8.108879089355468750e+00 2.420203685760498047e+00 1.030157566070556641e+00
1.340000000000000000e+03 7.668222808837890625e+01 1.291021919250488281e+01 3.295785486698150635e-01 7.235548019409179688e+00 2.269537925720214844e+00 -1.375527828931808472e-01
1.341000000000000000e+03 7.565100860595703125e+01 9.070222854614257812e+00 1.190378740429878235e-01 7.611127853393554688e+00 2.319049835205078125e+00 -5.850498676300048828e-01
1.342000000000000000e+03 7.674109649658203125e+01 1.449621105194091797e+01 3.953961730003356934e-01 7.203473091125488281e+00 2.279660701751708984e+00 1.554346680641174316e-01
1.343000000000000000e+03 7.673037719726562500e+01 2.394316101074218750e+01 -2.847137153148651123e-01 8.504200935363769531e+00 2.465846061706542969e+00 7.727398872375488281e-01
1.344000000000000000e+03 7.795843505859375000e+01 2.661993026733398438e+01 -1.152518242597579956e-01 8.956437110900878906e+00 2.652355670928955078e+00 2.997839748859405518e-01
1.345000000000000000e+03 7.683909606933593750e+01 -2.201379013061523438e+01 2.489507049322128296e-01 6.842925548553466797e+00 2.127562761306762695e+00 -7.824075222015380859e-01
1.346000000000000000e+03 7.651902008056640625e+01 2.809006500244140625e+01 -2.654881179332733154e-01 8.656478881835937500e+00 2.517297267913818359e+00 2.066893726587295532e-01
1.347000000000000000e+03 7.802025604248046875e+01 5.719368457794189453e+00 -4.148208349943161011e-02 7.485245227813720703e+00 2.233129024505615234e+00 -3.992936909198760986e-01
1.348000000000000000e+03 7.678839111328125000e+01 2.903486728668212891e+00 -1.401452571153640747e-01 7.678815841674804688e+00 2.261601209640502930e+00 -3.277319371700286865e-01
1.349000000000000000e+03 7.274833679199218750e+01 -1.645839691162109375e+01 1.386522889137268066e+00 8.776359558105468750e+00 3.048864841461181641e+00 3.577044010162353516e-01
1.350000000000000000e+03 7.682020568847656250e+01 -2.065152931213378906e+01 3.657643496990203857e-01 6.665704727172851562e+00 2.109440803527832031e+00 -6.072856187820434570e-01
1.351000000000000000e+03 7.561505889892578125e+01 -8.172660827636718750e+00 -2.884205281734466553e-01 7.568549633026123047e+00 2.184038877487182617e+00 7.117638587951660156e-01
1.352000000000000000e+03 7.703753662109375000e+01 -1.393194389343261719e+01 1.403303742408752441e-01 6.701589584350585938e+00 2.052576065063476562e+00 7.005184888839721680e-01
1.353000000000000000e+03 7.552393341064453125e+01 -1.187451124191284180e+00 -2.795386314392089844e-01 7.557637214660644531e+00 2.183429479598999023e+00 -2.731043659150600433e-02
1.354000000000000000e+03 7.688066101074218750e+01 -6.794971466064453125e+00 -1.856616884469985962e-01 7.608827590942382812e+00 2.226949691772460938e+00 5.017070174217224121e-01
1.355000000000000000e+03 7.740213775634765625e+01 3.613111877441406250e+01 -4.723206534981727600e-02 8.830194473266601562e+00 2.634888648986816406e+00 -1.442994624376296997e-01
1.356000000000000000e+03 7.840608215332031250e+01 3.627838134765625000e+01 1.671648025512695312e-02 9.112871170043945312e+00 2.738876104354858398e+00 -1.431206017732620239e-01
1.357000000000000000e+03 7.803706359863281250e+01 7.132324218750000000e+00 -9.723306633532047272e-03 7.276734828948974609e+00 2.180103540420532227e+00 -4.148392081260681152e-01
1.358000000000000000e+03 7.668383026123046875e+01 5.796615123748779297e+00 -8.874570578336715698e-02 7.537565231323242188e+00 2.234645843505859375e+00 -5.053000450134277344e-01
1.359000000000000000e+03 7.682891082763671875e+01 -2.608162403106689453e+00 -1.758840829133987427e-01 7.766751766204833984e+00 2.277260303497314453e+00 9.156699478626251221e-02
1.360000000000000000e+03 7.677449035644531250e+01 -9.707067489624023438e+00 -1.133046075701713562e-01 7.342682838439941406e+00 2.168813467025756836e+00 7.787070274353027344e-01
1.361000000000000000e+03 7.701737213134765625e+01 -1.655904006958007812e+01 4.068941175937652588e-01 6.437883853912353516e+00 2.053433418273925781e+00 3.122538924217224121e-01
1.362000000000000000e+03 7.621604156494140625e+01 3.425860595703125000e+01 -3.177241235971450806e-02 8.317703247070312500e+00 2.485779285430908203e+00 -1.688991189002990723e-01
1.363000000000000000e+03 7.464129638671875000e+01 3.430461883544921875e+01 -4.743447527289390564e-02 7.650634765625000000e+00 2.280960083007812500e+00 -2.582791447639465332e-01
1.364000000000000000e+03 7.628946685791015625e+01 3.098689270019531250e+01 -1.214389130473136902e-01 8.501594543457031250e+00 2.514046669006347656e+00 -5.960778892040252686e-02
1.365000000000000000e+03 7.710403442382812500e+01 1.857514953613281250e+01 1.800604462623596191e-01 7.546761512756347656e+00 2.318046569824218750e+00 8.093986511230468750e-01
1.366000000000000000e+03 7.246743774414062500e+01 1.269409751892089844e+01 1.157120227813720703e+00 8.790787696838378906e+00 2.984372377395629883e+00 -1.877699233591556549e-02
1.367000000000000000e+03 7.808486175537109375e+01 1.487948894500732422e+00 -7.261124253273010254e-02 7.923372268676757812e+00 2.355228424072265625e+00 -1.727163642644882202e-01
1.368000000000000000e+03 7.681281280517578125e+01 -1.224811911582946777e+00 -1.482972353696823120e-01 7.771248340606689453e+00 2.286885261535644531e+00 -2.558956481516361237e-02
1.369000000000000000e+03 7.821380615234375000e+01 -1.389273643493652344e+01 5.608068034052848816e-02 6.199624061584472656e+00 1.876711487770080566e+00 5.306336283683776855e-01
1.370000000000000000e+03 7.709368133544921875e+01 -1.525336837768554688e+01 2.625593841075897217e-01 6.549492835998535156e+00 2.043615579605102539e+00 5.719392299652099609e-01
1.371000000000000000e+03 7.809842681884765625e+01 -6.856070518493652344e+00 -9.657815098762512207e-02 7.668552875518798828e+00 2.271592378616333008e+00 3.722165524959564209e-01
1.372000000000000000e+03 7.682290649414062500e+01 -8.241466522216796875e+00 -1.835419982671737671e-01 7.499699592590332031e+00 2.194847106933593750e+00 6.399157643318176270e-01
1.373000000000000000e+03 7.669947052001953125e+01 4.327212333679199219e+00 -1.334567070007324219e-01 7.606575965881347656e+00 2.241935729980468750e+00 -4.491697847843170166e-01
1.374000000000000000e+03 7.689535522460937500e+01 -5.376802444458007812e+00 -2.047751247882843018e-01 7.696106910705566406e+00 2.247399568557739258e+00 3.433215618133544922e-01
1.375000000000000000e+03 7.686482238769531250e+01 -3.986333847045898438e+00 -1.665325015783309937e-01 7.740934371948242188e+00 2.272320508956909180e+00 2.129849940538406372e-01
1.376000000000000000e+03 7.681127166748046875e+01 -1.116149711608886719e+01 -5.041053891181945801e-02 7.155845165252685547e+00 2.131630420684814453e+00 8.178672790527343750e-01
1.377000000000000000e+03 7.692408752441406250e+01 -1.257491016387939453e+01 5.859346687793731689e-02 6.935807228088378906e+00 2.098320245742797852e+00 8.202030658721923828e-01
1.378000000000000000e+03 7.354040527343750000e+01 -1.477992725372314453e+01 7.575560212135314941e-01 8.230994224548339844e+00 2.696564912796020508e+00 8.016957640647888184e-01
1.379000000000000000e+03 5.115329742431640625e+01 -7.100017547607421875e+00 -4.360871911048889160e-01 1.396717667579650879e+00 2.881891727447509766e-01 9.129542112350463867e-01
1.380000000000000000e+03 5.539318847656250000e+01 -4.735196590423583984e+00 9.715968370437622070e-01 -1.673266440629959106e-01 2.412810623645782471e-01 -3.255677595734596252e-02
1.381000000000000000e+03 2.354459190368652344e+01 -3.691233694553375244e-01 2.247654914855957031e+00 9.215039014816284180e-01 9.507476091384887695e-01 -1.005197405815124512e+00
1.382000000000000000e+03 4.803742218017578125e+01 1.706171989440917969e+01 8.771030902862548828e-01 8.585329055786132812e+00 2.838729619979858398e+00 1.637545347213745117e+00
1.383000000000000000e+03 4.762523269653320312e+01 1.579539585113525391e+01 8.270928859710693359e-01 9.030302047729492188e+00 2.957218408584594727e+00 1.681205272674560547e+00
1.384000000000000000e+03 4.786122894287109375e+01 -8.382672309875488281e+00 -9.395256042480468750e-01 6.705686092376708984e+00 1.729848146438598633e+00 1.431539297103881836e+00
1.385000000000000000e+03 1.554915237426757812e+01 -2.945304489135742188e+01 -7.653294205665588379e-01 1.012416124343872070e+00 7.412602007389068604e-02 -2.125393599271774292e-01
1.386000000000000000e+03 2.040029907226562500e+01 3.425844669342041016e+00 -1.455291867256164551e+00 9.480818748474121094e+00 2.407658100128173828e+00 -2.166556596755981445e+00
1.387000000000000000e+03 3.768796539306640625e+01 -2.522306060791015625e+01 1.817031979560852051e+00 8.855038642883300781e+00 3.201621294021606445e+00 1.003667473793029785e+00
1.388000000000000000e+03 3.837005996704101562e+01 -2.244654273986816406e+01 1.722382664680480957e+00 9.867099761962890625e+00 3.476844787597656250e+00 2.646398544311523438e-01
1.389000000000000000e+03 6.536682891845703125e+01 -2.634416007995605469e+01 -1.850982904434204102e-01 3.312257051467895508e+00 9.381476044654846191e-01 1.237069487571716309e+00
1.390000000000000000e+03 4.338440322875976562e+01 1.306153488159179688e+01 2.411804199218750000e-01 8.115880966186523438e+00 2.507118463516235352e+00 -2.203990668058395386e-01
1.391000000000000000e+03 4.297718429565429688e+01 8.719271659851074219e+00 1.173470497131347656e+00 1.218679428100585938e+01 4.008079528808593750e+00 -5.699332952499389648e-01
1.392000000000000000e+03 5.732344436645507812e+01 2.602798652648925781e+01 -8.773861527442932129e-01 1.373973011970520020e+00 1.489760577678680420e-01 1.582484483718872070e+00
1.393000000000000000e+03 2.327141189575195312e+01 2.501946640014648438e+01 -6.319730281829833984e-01 9.450498819351196289e-01 9.392304718494415283e-02 1.035060286521911621e+00
1.394000000000000000e+03 1.898485946655273438e+01 -3.249293899536132812e+01 -7.961713671684265137e-01 3.011859357357025146e-01 -1.484956145286560059e-01 -1.769771426916122437e-01
1.395000000000000000e+03 2.017139673233032227e+00 2.738491439819335938e+01 -3.657194226980209351e-02 7.025062441825866699e-01 1.997803002595901489e-01 -4.266304969787597656e-01
1.396000000000000000e+03 3.555788278579711914e+00 2.998370361328125000e+01 -1.102210730314254761e-01 1.323951363563537598e+00 3.641190826892852783e-01 -5.264148712158203125e-01
1.397000000000000000e+03 1.977600693702697754e+00 2.599752044677734375e+01 -2.814944647252559662e-02 4.344516098499298096e-01 1.218906491994857788e-01 -4.569757580757141113e-01
1.398000000000000000e+03 3.353739261627197266e+00 2.720380020141601562e+01 -8.472348749637603760e-02 9.470155239105224609e-01 2.586876153945922852e-01 -6.417552232742309570e-01
1.399000000000000000e+03 6.391282558441162109e+00 2.943227958679199219e+01 -2.863021790981292725e-01 1.746193289756774902e+00 4.379673302173614502e-01 -7.613965868949890137e-01
1.400000000000000000e+03 3.675538778305053711e+00 3.140652847290039062e+01 -1.174741685390472412e-01 1.469918489456176758e+00 4.057332873344421387e-01 -4.563538432121276855e-01
1.401000000000000000e+03 3.438976049423217773e+00 2.857859230041503906e+01 -9.991586208343505859e-02 1.142062783241271973e+00 3.126440644264221191e-01 -5.898956060409545898e-01
1.402000000000000000e+03 3.774911165237426758e+00 3.428536987304687500e+01 -1.060085222125053406e-01 1.683522939682006836e+00 4.732543230056762695e-01 -3.193984031677246094e-01
1.403000000000000000e+03 3.760419368743896484e+00 3.284402465820312500e+01 -1.125430762767791748e-01 1.589113235473632812e+00 4.429710507392883301e-01 -3.885438442230224609e-01
1.404000000000000000e+03 1.939875483512878418e+00 -3.048081970214843750e+01 -5.482801422476768494e-02 1.572004795074462891e+00 4.551530480384826660e-01 3.869506120681762695e-01
1.405000000000000000e+03 3.259058475494384766e+00 -2.910606765747070312e+01 -1.531336456537246704e-01 1.508574604988098145e+00 4.066323041915893555e-01 6.745260357856750488e-01
1.406000000000000000e+03 1.873184680938720703e+00 2.179603767395019531e+01 4.116258583962917328e-03 -4.917318522930145264e-01 -1.462846845388412476e-01 -4.898921251296997070e-01
1.407000000000000000e+03 3.150189161300659180e+00 2.308074951171875000e+01 -2.211623638868331909e-02 2.508382797241210938e-01 6.861661374568939209e-02 -7.433902621269226074e-01
1.408000000000000000e+03 2.943112611770629883e+00 -1.105142688751220703e+01 6.865632534027099609e-02 -5.400730371475219727e-01 -1.414250135421752930e-01 -4.733188450336456299e-01
1.409000000000000000e+03 2.941179037094116211e+00 -1.776441955566406250e+01 3.133687674999237061e-01 -5.159775614738464355e-01 -6.078263372182846069e-02 3.936088979244232178e-01
1.410000000000000000e+03 1.769178271293640137e+00 -1.504265213012695312e+01 1.135866120457649231e-01 -1.591952562332153320e+00 -4.435097873210906982e-01 -8.040484786033630371e-02
1.411000000000000000e+03 1.847051620483398438e+00 2.039957237243652344e+01 2.650055475533008575e-02 -8.091452717781066895e-01 -2.347934097051620483e-01 -4.662933945655822754e-01
1.412000000000000000e+03 3.096715450286865234e+00 2.168054008483886719e+01 2.520050853490829468e-02 -2.180156856775283813e-02 1.019681571051478386e-03 -7.357441782951354980e-01
1.413000000000000000e+03 2.907376050949096680e+00 1.218721485137939453e+01 2.223501652479171753e-01 -1.252575874328613281e+00 -3.090677261352539062e-01 6.455928087234497070e-02
1.414000000000000000e+03 3.013493776321411133e+00 1.757313537597656250e+01 1.262815743684768677e-01 -7.399595379829406738e-01 -1.841033995151519775e-01 -5.435335636138916016e-01
1.415000000000000000e+03 3.165560722351074219e+00 8.018438339233398438e+00 2.005889117717742920e-01 -9.925966858863830566e-01 -2.376023381948471069e-01 6.158037781715393066e-01
1.416000000000000000e+03 1.798101782798767090e+00 6.128706932067871094e+00 1.841003447771072388e-02 -1.055288076400756836e+00 -3.110634088516235352e-01 5.323487520217895508e-01
1.417000000000000000e+03 1.773465394973754883e+00 1.489570140838623047e+01 8.293375372886657715e-02 -1.753174304962158203e+00 -5.010721683502197266e-01 -1.772641688585281372e-01
1.418000000000000000e+03 2.978035211563110352e+00 1.623601531982421875e+01 1.669144630432128906e-01 -9.346976876258850098e-01 -2.303349822759628296e-01 -4.230030477046966553e-01
1.419000000000000000e+03 4.462841510772705078e+00 -4.204057216644287109e+00 -1.500074714422225952e-01 1.772187463939189911e-02 -3.968568146228790283e-02 -3.956796526908874512e-01
1.420000000000000000e+03 2.659816026687622070e+00 -4.687652111053466797e+00 -6.347458064556121826e-02 -2.412791103124618530e-01 -9.142610430717468262e-02 -3.844312131404876709e-01
1.421000000000000000e+03 2.980427503585815430e+00 9.454833984375000000e+00 2.148512601852416992e-01 -1.168917179107666016e+00 -2.862197458744049072e-01 4.248801767826080322e-01
1.422000000000000000e+03 3.277147054672241211e+00 -2.769231796264648438e+01 -1.697212308645248413e-01 1.336816549301147461e+00 3.501285910606384277e-01 8.050337433815002441e-01
1.423000000000000000e+03 3.104642391204833984e+00 -2.050471305847167969e+01 2.062455862760543823e-01 -1.374741550534963608e-02 5.774945020675659180e-02 7.987268567085266113e-01
1.424000000000000000e+03 2.837754964828491211e+00 -9.670609474182128906e+00 1.165582705289125443e-02 -4.969456791877746582e-01 -1.455869525671005249e-01 -4.859625995159149170e-01
1.425000000000000000e+03 2.734524011611938477e+00 -8.322009086608886719e+00 -2.122796513140201569e-02 -4.678525924682617188e-01 -1.467241644859313965e-01 -4.706597924232482910e-01
1.426000000000000000e+03 2.960951566696166992e+00 -1.509926605224609375e+01 3.006617128849029541e-01 -6.411054134368896484e-01 -1.021331176161766052e-01 -6.104497238993644714e-02
1.427000000000000000e+03 1.970501422882080078e+00 -2.339323425292968750e+01 -7.988060824573040009e-03 -6.973479688167572021e-02 -2.331685647368431091e-02 6.869622468948364258e-01
1.428000000000000000e+03 3.250164508819580078e+00 -2.189733505249023438e+01 9.536364674568176270e-02 3.251806199550628662e-01 1.261632889509201050e-01 9.236807823181152344e-01
1.429000000000000000e+03 2.192082643508911133e+00 -3.500484085083007812e+01 -6.394454091787338257e-02 2.082117080688476562e+00 6.054517626762390137e-01 1.917722374200820923e-01
1.430000000000000000e+03 5.191754341125488281e+00 -3.661497497558593750e+01 -1.824715882539749146e-01 1.942198395729064941e+00 5.279180407524108887e-01 2.533111274242401123e-01
1.431000000000000000e+03 3.514155387878417969e+00 -3.300463485717773438e+01 -1.584256142377853394e-01 1.930799603462219238e+00 5.317121744155883789e-01 3.888879120349884033e-01
1.432000000000000000e+03 4.594595432281494141e+00 -3.399771118164062500e+01 -2.156077176332473755e-01 1.926221609115600586e+00 5.131841897964477539e-01 3.813956975936889648e-01
1.433000000000000000e+03 3.302784681320190430e+00 -2.479060173034667969e+01 -4.697206988930702209e-02 8.855613470077514648e-01 2.515767812728881836e-01 1.000809788703918457e+00
1.434000000000000000e+03 4.605887413024902344e+00 -2.478211212158203125e+01 -1.012267395853996277e-01 1.480081081390380859e+00 4.136562943458557129e-01 1.162069439888000488e+00
1.435000000000000000e+03 2.987853288650512695e+00 -1.378355598449707031e+01 2.218547612428665161e-01 -6.206249594688415527e-01 -1.196310669183731079e-01 -2.783615887165069580e-01
1.436000000000000000e+03 2.915573596954345703e+00 1.083038520812988281e+01 2.324490398168563843e-01 -1.246796131134033203e+00 -3.043041229248046875e-01 2.413574904203414917e-01
1.437000000000000000e+03 4.044713020324707031e+00 1.227727985382080078e+01 3.927412331104278564e-01 -7.136405706405639648e-01 -9.626980870962142944e-02 1.265630777925252914e-02
1.438000000000000000e+03 2.920692443847656250e+00 1.354259300231933594e+01 2.165870070457458496e-01 -1.202748537063598633e+00 -2.958484590053558350e-01 -1.204509958624839783e-01
1.439000000000000000e+03 4.173888683319091797e+00 1.620559310913085938e+01 2.810189723968505859e-01 -3.229785561561584473e-01 -1.258786860853433609e-02 -5.585426688194274902e-01
1.440000000000000000e+03 2.507568168640136719e+01 -2.379205942153930664e+00 3.548942804336547852e+00 3.728701174259185791e-01 1.176543831825256348e+00 -2.252745866775512695e+00
1.441000000000000000e+03 2.320285797119140625e+01 -3.798964977264404297e+00 4.598057270050048828e+00 2.565608024597167969e+00 2.149099588394165039e+00 -3.697777986526489258e+00
1.442000000000000000e+03 3.891045761108398438e+01 1.752694320678710938e+01 -5.056796967983245850e-02 2.696744203567504883e+00 7.938529253005981445e-01 -1.046939373016357422e+00
1.443000000000000000e+03 4.502279281616210938e+01 -2.257047462463378906e+01 2.302894115447998047e+00 1.033859348297119141e+01 3.792446136474609375e+00 -1.482613444328308105e+00
1.444000000000000000e+03 7.605940246582031250e+01 1.755810546875000000e+01 4.346170425415039062e-01 7.691738128662109375e+00 2.437906503677368164e+00 7.946773171424865723e-01
1.445000000000000000e+03 6.956439208984375000e+01 1.691442108154296875e+01 1.030327081680297852e+00 1.293202781677246094e+01 4.188706398010253906e+00 1.216997355222702026e-01
1.446000000000000000e+03 1.163104057312011719e+01 -2.299660301208496094e+01 1.805526167154312134e-01 4.462557315826416016e+00 1.392932891845703125e+00 -3.319559395313262939e-01
1.447000000000000000e+03 6.925955963134765625e+01 -1.537785243988037109e+01 1.913077354431152344e+00 1.157212543487548828e+01 4.045560836791992188e+00 -7.348220348358154297e-01
1.448000000000000000e+03 3.568674087524414062e+01 2.015352439880371094e+01 -6.020233035087585449e-01 1.251896142959594727e+00 1.949618607759475708e-01 -6.005071997642517090e-01
1.449000000000000000e+03 7.006130981445312500e+01 1.998437881469726562e+01 4.992070794105529785e-01 9.643843650817871094e+00 3.042915105819702148e+00 8.401083350181579590e-01
1.450000000000000000e+03 1.601180267333984375e+01 7.773864746093750000e+00 1.714700102806091309e+00 6.916977405548095703e+00 2.589503288269042969e+00 -1.898396253585815430e+00
1.451000000000000000e+03 2.360347175598144531e+01 -1.783737301826477051e+00 4.334123134613037109e+00 1.058775544166564941e+00 1.617869615554809570e+00 -2.634236812591552734e+00
1.452000000000000000e+03 2.275352287292480469e+01 -1.794201254844665527e+00 5.402644157409667969e+00 3.043189764022827148e+00 2.533750295639038086e+00 -2.743629932403564453e+00
1.453000000000000000e+03 3.603589248657226562e+01 -8.176131248474121094e+00 7.153727412223815918e-01 2.508844375610351562e+00 9.672651290893554688e-01 -4.292545020580291748e-01
1.454000000000000000e+03 3.610824584960937500e+01 -9.265095710754394531e+00 1.001123428344726562e+00 3.275018215179443359e+00 1.282842516899108887e+00 -6.589830517768859863e-01
1.455000000000000000e+03 3.742214965820312500e+01 -3.107996177673339844e+01 -7.768172621726989746e-01 6.677319049835205078e+00 1.770150542259216309e+00 7.204358577728271484e-01
1.456000000000000000e+03 3.691306304931640625e+01 -2.774076461791992188e+01 6.909523010253906250e-01 7.549758911132812500e+00 2.472213268280029297e+00 1.078913092613220215e+00
1.457000000000000000e+03 6.447640991210937500e+01 -2.735857772827148438e+01 -5.160371661186218262e-01 2.544412612915039062e+00 6.085125803947448730e-01 8.622843027114868164e-01
1.458000000000000000e+03 4.677761077880859375e+01 1.391923904418945312e+01 7.275417447090148926e-01 9.729257583618164062e+00 3.137039899826049805e+00 1.641529798507690430e+00
1.459000000000000000e+03 4.530306625366210938e+01 8.490744590759277344e+00 1.125156760215759277e+00 1.183563995361328125e+01 3.888238906860351562e+00 1.513358116149902344e+00
1.460000000000000000e+03 6.498759460449218750e+01 -2.914980506896972656e+01 -9.225443601608276367e-01 3.427773237228393555e+00 7.515686750411987305e-01 9.437435865402221680e-01
1.461000000000000000e+03 6.642887115478515625e+01 -2.704551124572753906e+01 -6.533142328262329102e-01 4.784920692443847656e+00 1.239481925964355469e+00 1.170328855514526367e+00
1.462000000000000000e+03 1.612465286254882812e+01 1.603535079956054688e+01 1.124614000320434570e+00 7.566010951995849609e+00 2.607187509536743164e+00 -5.102322697639465332e-01
1.463000000000000000e+03 1.617556571960449219e+01 1.496259212493896484e+01 1.147419810295104980e+00 7.973878383636474609e+00 2.736389398574829102e+00 -6.000095605850219727e-01
1.464000000000000000e+03 5.444289779663085938e+01 2.580642509460449219e+01 -9.743044972419738770e-01 2.881847858428955078e+00 5.722630023956298828e-01 1.979902148246765137e+00
1.465000000000000000e+03 5.542998504638671875e+01 -3.330732727050781250e+01 5.381621047854423523e-02 9.356148242950439453e-01 2.968293130397796631e-01 -1.047537446022033691e+00
1.466000000000000000e+03 5.668469619750976562e+01 -3.378709030151367188e+01 1.415684521198272705e-01 7.760999202728271484e-01 2.753005027770996094e-01 -5.453240275382995605e-01
1.467000000000000000e+03 1.650564575195312500e+01 1.090235137939453125e+01 1.572031974792480469e+00 8.663407325744628906e+00 3.070631742477416992e+00 -1.806648135185241699e+00
1.468000000000000000e+03 6.504689788818359375e+01 2.432122039794921875e+01 -1.610106706619262695e+00 2.054195642471313477e+00 1.332267075777053833e-01 -1.157223939895629883e+00
1.469000000000000000e+03 6.531348419189453125e+01 2.692077255249023438e+01 -7.424462437629699707e-01 2.956082582473754883e+00 6.640908718109130859e-01 -1.103918194770812988e+00
1.470000000000000000e+03 6.371904754638671875e+01 -3.167239570617675781e+01 -5.161911249160766602e-01 2.518667936325073242e+00 6.007430553436279297e-01 8.346066474914550781e-01
1.471000000000000000e+03 4.415809249877929688e+01 -1.710115623474121094e+01 1.401149153709411621e+00 1.079462051391601562e+01 3.658730983734130859e+00 7.998290657997131348e-01
1.472000000000000000e+03 4.263790512084960938e+01 1.006594467163085938e+01 7.209854125976562500e-01 9.988988876342773438e+00 3.212992429733276367e+00 -1.012104868888854980e+00
1.473000000000000000e+03 5.978738784790039062e+01 2.043630838394165039e+00 9.424447417259216309e-01 6.367986202239990234e-01 4.737730324268341064e-01 5.622827410697937012e-01
1.474000000000000000e+03 6.060309600830078125e+01 1.008863568305969238e+00 1.017889499664306641e+00 1.018589615821838379e+00 6.109437346458435059e-01 5.259259939193725586e-01
1.475000000000000000e+03 2.549215507507324219e+01 -3.620018386840820312e+01 -2.124065607786178589e-01 4.563968181610107422e-01 7.319707423448562622e-02 3.357253968715667725e-01
1.476000000000000000e+03 3.673669052124023438e+01 -1.654534721374511719e+01 2.436294555664062500e+00 7.861439704895019531e+00 3.089320182800292969e+00 -1.386022448539733887e+00
1.477000000000000000e+03 5.873597717285156250e+01 2.580591011047363281e+01 -8.499681949615478516e-01 6.962094902992248535e-01 -4.612760618329048157e-02 1.225113868713378906e+00
1.478000000000000000e+03 5.582440185546875000e+01 2.586582183837890625e+01 -9.199687838554382324e-01 2.057076930999755859e+00 3.411324322223663330e-01 1.777902364730834961e+00
1.479000000000000000e+03 1.614394569396972656e+01 1.365848445892333984e+01 1.121860623359680176e+00 8.300393104553222656e+00 2.826676130294799805e+00 -1.030168414115905762e+00
1.480000000000000000e+03 7.127988433837890625e+01 1.221347522735595703e+01 1.117366671562194824e+00 9.468261718750000000e+00 3.175688505172729492e+00 2.885273694992065430e-01
1.481000000000000000e+03 7.091533660888671875e+01 1.326281738281250000e+01 1.455453872680664062e+00 9.910666465759277344e+00 3.409836053848266602e+00 3.855976462364196777e-01
1.482000000000000000e+03 4.663265609741210938e+01 1.602430152893066406e+01 5.543003678321838379e-01 8.347730636596679688e+00 2.670609235763549805e+00 1.068071961402893066e+00
1.483000000000000000e+03 4.436110687255859375e+01 7.816265583038330078e+00 1.247398018836975098e+00 1.244201469421386719e+01 4.106823921203613281e+00 7.314360737800598145e-01
1.484000000000000000e+03 6.619572448730468750e+01 2.307583808898925781e+01 -1.812852621078491211e+00 2.957813739776611328e+00 3.434883356094360352e-01 -1.639668703079223633e+00
1.485000000000000000e+03 6.612749481201171875e+01 2.539580154418945312e+01 -1.272647261619567871e+00 3.428054571151733398e+00 6.466221809387207031e-01 -1.483224272727966309e+00
1.486000000000000000e+03 4.314236450195312500e+01 -1.440739631652832031e+01 1.413642644882202148e+00 9.305315017700195312e+00 3.215687274932861328e+00 9.802770614624023438e-01
1.487000000000000000e+03 4.821138381958007812e+01 -3.107067680358886719e+01 -4.098838269710540771e-01 4.990604877471923828e+00 1.374216318130493164e+00 -1.880712509155273438e+00
1.488000000000000000e+03 4.343981170654296875e+01 -2.690974426269531250e+01 9.481423497200012207e-01 8.120612144470214844e+00 2.720626354217529297e+00 -7.542384266853332520e-01
1.489000000000000000e+03 4.640869522094726562e+01 3.151023149490356445e+00 1.528060674667358398e+00 1.118961811065673828e+01 3.815303802490234375e+00 7.460641264915466309e-01
1.490000000000000000e+03 4.421268463134765625e+01 1.028048634529113770e+00 1.748879432678222656e+00 1.258520984649658203e+01 4.300226688385009766e+00 1.322107791900634766e+00
1.491000000000000000e+03 4.329829788208007812e+01 4.262058734893798828e-01 1.884407043457031250e+00 1.368366718292236328e+01 4.670422077178955078e+00 2.180418491363525391e+00
1.492000000000000000e+03 3.134758567810058594e+01 -3.123821830749511719e+01 -3.758057653903961182e-01 1.798254251480102539e+00 4.267345666885375977e-01 1.387669682502746582e+00
1.493000000000000000e+03 3.850085449218750000e+01 -2.634417724609375000e+01 1.251238942146301270e+00 8.446090698242187500e+00 2.909198999404907227e+00 5.732299685478210449e-01
1.494000000000000000e+03 3.676609802246093750e+01 -2.603742790222167969e+01 1.512773990631103516e+00 8.710353851318359375e+00 3.066938400268554688e+00 1.296059370040893555e+00
1.495000000000000000e+03 9.983891487121582031e+00 -1.775072097778320312e+01 1.608280420303344727e+00 5.653133869171142578e+00 2.178424358367919922e+00 1.098178029060363770e+00
1.496000000000000000e+03 1.665668869018554688e+01 9.526781082153320312e+00 1.782037377357482910e+00 8.543657302856445312e+00 3.097708463668823242e+00 -2.095907688140869141e+00
1.497000000000000000e+03 2.967259407043457031e+01 2.360267829895019531e+01 -1.000776290893554688e+00 2.044348865747451782e-01 -2.389024049043655396e-01 -8.776447921991348267e-02
1.498000000000000000e+03 6.253121948242187500e+01 2.502011680603027344e+01 -1.291638612747192383e+00 5.381304621696472168e-01 -2.260524630546569824e-01 -2.903653979301452637e-01
1.499000000000000000e+03 6.112614822387695312e+01 2.385743904113769531e+01 -2.595349311828613281e+00 -1.309245824813842773e-01 -8.178821802139282227e-01 2.638417184352874756e-01
1.500000000000000000e+03 5.393637847900390625e+01 -9.124891757965087891e-01 1.930695772171020508e+00 2.199207544326782227e-01 6.451849341392517090e-01 4.216816127300262451e-01
1.501000000000000000e+03 5.171619796752929688e+01 -1.259130954742431641e+00 2.106436491012573242e+00 1.035946965217590332e+00 9.427151083946228027e-01 -1.002564206719398499e-01
1.502000000000000000e+03 6.998396301269531250e+01 8.811265945434570312e+00 1.873579621315002441e-01 8.482961654663085938e+00 2.601095914840698242e+00 4.233156442642211914e-01
1.503000000000000000e+03 2.436791419982910156e+01 -1.361350774765014648e+00 3.210091352462768555e+00 1.122035235166549683e-01 9.966884255409240723e-01 -1.706695556640625000e+00
1.504000000000000000e+03 3.055677413940429688e+01 -6.326231479644775391e+00 2.388442516326904297e+00 1.559968590736389160e+00 1.184523344039916992e+00 -3.086131572723388672e+00
1.505000000000000000e+03 7.087178039550781250e+01 -2.126160621643066406e+01 1.394445538520812988e+00 9.914769172668457031e+00 3.392764329910278320e+00 -4.319129884243011475e-01
1.506000000000000000e+03 6.833092498779296875e+01 -2.335608291625976562e+01 2.079730927944183350e-01 9.394786834716796875e+00 2.880827903747558594e+00 1.436145901679992676e+00
1.507000000000000000e+03 1.625038528442382812e+01 1.692585706710815430e+00 -3.922327160835266113e-01 3.663172006607055664e+00 9.812817573547363281e-01 -2.804761171340942383e+00
1.508000000000000000e+03 4.664086532592773438e+01 -1.138908386230468750e+01 7.702569961547851562e-01 9.099825859069824219e+00 2.961024999618530273e+00 1.924723029136657715e+00
1.509000000000000000e+03 4.421530914306640625e+01 -1.138217639923095703e+01 2.575114071369171143e-01 9.033782958984375000e+00 2.787388086318969727e+00 1.101065516471862793e+00
1.510000000000000000e+03 4.597844696044921875e+01 -2.903402709960937500e+01 2.568111382424831390e-02 6.708313465118408203e+00 2.020198345184326172e+00 -1.534365415573120117e+00
1.511000000000000000e+03 4.535229492187500000e+01 -2.710741806030273438e+01 8.655735254287719727e-01 7.772571563720703125e+00 2.591443538665771484e+00 -1.522231221199035645e+00
1.512000000000000000e+03 2.285564804077148438e+01 -3.426515579223632812e+01 -5.919344425201416016e-01 6.384851038455963135e-02 -1.584257781505584717e-01 1.548711676150560379e-03
1.513000000000000000e+03 6.786719512939453125e+01 7.422375202178955078e+00 2.849596180021762848e-02 6.974131584167480469e+00 2.100788354873657227e+00 1.118338704109191895e+00
1.514000000000000000e+03 5.128112792968750000e+01 2.372132873535156250e+01 -1.108506917953491211e+00 5.350079536437988281e+00 1.272471785545349121e+00 1.538815975189208984e+00
1.515000000000000000e+03 3.899242782592773438e+01 -1.996209716796875000e+01 2.397013902664184570e+00 9.399086952209472656e+00 3.538830280303955078e+00 -4.757488369941711426e-01
1.516000000000000000e+03 4.106687164306640625e+01 -1.791348648071289062e+01 2.308150291442871094e+00 8.972643852233886719e+00 3.384238481521606445e+00 1.143377795815467834e-01
1.517000000000000000e+03 6.104666519165039062e+01 -3.213472747802734375e+01 -3.730842769145965576e-01 1.087621569633483887e+00 2.143611758947372437e-01 5.364741086959838867e-01
1.518000000000000000e+03 6.531800842285156250e+01 -3.407514953613281250e+01 -1.925013214349746704e-01 3.575319766998291016e+00 1.014845490455627441e+00 7.427077889442443848e-01
1.519000000000000000e+03 5.802540969848632812e+01 -3.405979633331298828e+00 1.102506279945373535e+00 2.750724852085113525e-01 4.132736027240753174e-01 -1.079905554652214050e-01
1.520000000000000000e+03 5.801651763916015625e+01 -8.058423399925231934e-01 1.466742277145385742e+00 3.052310347557067871e-01 5.315920114517211914e-01 2.112044543027877808e-01
1.521000000000000000e+03 4.380710220336914062e+01 -2.125238037109375000e+01 2.194213390350341797e+00 1.006377220153808594e+01 3.677395820617675781e+00 -7.742729783058166504e-01
1.522000000000000000e+03 5.216909885406494141e+00 -1.669058036804199219e+01 7.755030393600463867e-01 1.046266794204711914e+00 5.465309619903564453e-01 3.178578913211822510e-01
1.523000000000000000e+03 1.952966308593750000e+01 3.958262443542480469e+00 -6.976208686828613281e-01 9.607308387756347656e+00 2.672906160354614258e+00 -2.538237094879150391e+00
1.524000000000000000e+03 1.268337249755859375e+01 -1.029522037506103516e+01 -6.215423345565795898e-01 3.666659832000732422e+00 9.135352373123168945e-01 2.348864316940307617e+00
1.525000000000000000e+03 4.475585174560546875e+01 9.716606140136718750e+00 8.494848012924194336e-01 1.105921745300292969e+01 3.572610616683959961e+00 1.113144636154174805e+00
1.526000000000000000e+03 4.683031463623046875e+01 4.290391921997070312e+00 1.259106397628784180e+00 1.141358757019042969e+01 3.801808118820190430e+00 5.230754017829895020e-01
1.527000000000000000e+03 2.985570907592773438e+01 -3.305777740478515625e+01 -5.535990595817565918e-01 1.209223389625549316e+00 1.966872811317443848e-01 1.153120875358581543e+00
1.528000000000000000e+03 3.171099090576171875e+01 -3.277255249023437500e+01 -5.967075228691101074e-01 2.412926912307739258e+00 5.448658466339111328e-01 1.435335040092468262e+00
1.529000000000000000e+03 4.281741333007812500e+01 -1.186717128753662109e+01 5.032848119735717773e-01 8.726773262023925781e+00 2.769017457962036133e+00 8.912398815155029297e-01
1.530000000000000000e+03 1.907031822204589844e+01 -1.009034824371337891e+01 -1.317404985427856445e+00 1.132636785507202148e+00 -5.543047562241554260e-02 8.752827048301696777e-01
1.531000000000000000e+03 1.056534099578857422e+01 -2.370834922790527344e+01 -1.651394367218017578e-01 4.020491600036621094e+00 1.156605720520019531e+00 4.175679683685302734e-01
1.532000000000000000e+03 3.403106307983398438e+01 -3.353901290893554688e+01 -9.695960879325866699e-01 4.155716419219970703e+00 9.558360576629638672e-01 1.277598142623901367e+00
1.533000000000000000e+03 4.090718078613281250e+01 1.728322219848632812e+01 -9.251773357391357422e-02 4.324164867401123047e+00 1.269494056701660156e+00 -1.030365586280822754e+00
1.534000000000000000e+03 4.181246948242187500e+01 1.442395591735839844e+01 2.574494183063507080e-01 5.638425350189208984e+00 1.768762350082397461e+00 -1.056949973106384277e+00
1.535000000000000000e+03 1.092995452880859375e+01 -1.118049526214599609e+01 -2.535453140735626221e-01 3.856179237365722656e+00 1.080790162086486816e+00 1.022697687149047852e+00
1.536000000000000000e+03 1.011745166778564453e+01 -1.490661144256591797e+01 1.764034032821655273e+00 5.028522014617919922e+00 2.037766695022583008e+00 7.820206880569458008e-01
1.537000000000000000e+03 4.315498733520507812e+01 -2.144563913345336914e+00 7.456997632980346680e-01 1.087298107147216797e+01 3.485604286193847656e+00 1.283896684646606445e+00
1.538000000000000000e+03 4.485728836059570312e+01 8.026386797428131104e-02 1.419596076011657715e+00 1.136045455932617188e+01 3.834015369415283203e+00 9.196197390556335449e-01
1.539000000000000000e+03 6.956210327148437500e+01 -1.246277332305908203e+01 -1.114464774727821350e-01 9.070545196533203125e+00 2.687729597091674805e+00 -2.942444980144500732e-01
1.540000000000000000e+03 3.933877563476562500e+01 -7.038549423217773438e+00 -5.378721952438354492e-01 5.537767410278320312e+00 1.499968528747558594e+00 1.739378571510314941e+00
1.541000000000000000e+03 1.431696033477783203e+01 1.439381313323974609e+01 1.431203246116638184e+00 5.917011737823486328e+00 2.204464435577392578e+00 -1.058542609214782715e+00
1.542000000000000000e+03 2.625373458862304688e+01 -1.345899105072021484e+01 -1.299315452575683594e+00 4.323056936264038086e-01 -2.601029276847839355e-01 -8.879836797714233398e-01
1.543000000000000000e+03 2.277558708190917969e+01 -1.191595458984375000e+01 -1.877103567123413086e+00 9.574368000030517578e-01 -2.759000062942504883e-01 -4.593236446380615234e-01
1.544000000000000000e+03 1.229164409637451172e+01 -1.107980060577392578e+01 -4.909385144710540771e-01 4.060595035552978516e+00 1.070896983146667480e+00 1.997500419616699219e+00
1.545000000000000000e+03 1.873069000244140625e+01 2.434878921508789062e+01 -1.262068390846252441e+00 4.000076770782470703e+00 8.214025497436523438e-01 8.415762782096862793e-01
1.546000000000000000e+03 5.816842651367187500e+01 -3.418532180786132812e+01 2.559722363948822021e-01 8.009992241859436035e-01 3.170914351940155029e-01 -2.705894112586975098e-01
1.547000000000000000e+03 6.299618911743164062e+01 -3.324404144287109375e+01 -2.676414549350738525e-01 2.199378967285156250e+00 5.795212388038635254e-01 7.828925848007202148e-01
1.548000000000000000e+03 4.056052780151367188e+01 -5.972253322601318359e+00 -1.177915573120117188e+00 7.112061977386474609e+00 1.780243873596191406e+00 2.217414140701293945e+00
1.549000000000000000e+03 5.399069213867187500e+01 -2.443490266799926758e+00 1.739213109016418457e+00 2.563014328479766846e-01 5.986543893814086914e-01 2.345321178436279297e-01
1.550000000000000000e+03 5.599941253662109375e+01 -7.264910221099853516e+00 -5.751092433929443359e-01 -1.534645259380340576e-01 -2.185721397399902344e-01 -1.091021206229925156e-02
1.551000000000000000e+03 3.569308853149414062e+01 -3.044689750671386719e+01 -4.782890677452087402e-01 5.921968936920166016e+00 1.633104085922241211e+00 1.332704186439514160e+00
1.552000000000000000e+03 3.640916061401367188e+01 -2.894766616821289062e+01 9.869094192981719971e-02 7.082385540008544922e+00 2.154322862625122070e+00 1.213178277015686035e+00
1.553000000000000000e+03 2.760125160217285156e+01 -1.350836658477783203e+01 -5.165403485298156738e-01 3.184787034988403320e-01 -5.941848829388618469e-02 -1.200939774513244629e+00
1.554000000000000000e+03 2.509550666809082031e+01 -1.227718067169189453e+01 -1.097651362419128418e+00 7.163066267967224121e-01 -1.144034340977668762e-01 -1.105110645294189453e+00
1.555000000000000000e+03 7.082880401611328125e+01 -1.804700279235839844e+01 2.132859706878662109e+00 1.064556407928466797e+01 3.833527088165283203e+00 6.005480419844388962e-03
1.556000000000000000e+03 7.069745635986328125e+01 -1.681329917907714844e+01 1.859188199043273926e+00 1.087592697143554688e+01 3.820534706115722656e+00 6.739702075719833374e-02
1.557000000000000000e+03 7.072270202636718750e+01 1.433996295928955078e+01 1.387177228927612305e+00 1.025587463378906250e+01 3.492915630340576172e+00 7.869527935981750488e-01
1.558000000000000000e+03 7.347444152832031250e+01 1.051693725585937500e+01 5.332972407341003418e-01 8.166173934936523438e+00 2.609841346740722656e+00 -3.943532109260559082e-01
1.559000000000000000e+03 6.995197296142578125e+01 1.181079101562500000e+01 1.192718863487243652e+00 1.002033519744873047e+01 3.363916158676147461e+00 7.243661284446716309e-01
1.560000000000000000e+03 4.715032958984375000e+01 1.596162199974060059e+00 1.083967208862304688e+00 8.995867729187011719e+00 3.023950576782226562e+00 -8.034803718328475952e-02
1.561000000000000000e+03 4.899879837036132812e+01 -8.683947324752807617e-01 1.294390201568603516e+00 4.535063266754150391e+00 1.748836040496826172e+00 -1.120639562606811523e+00
1.562000000000000000e+03 7.528918266296386719e+00 -2.414045143127441406e+01 -1.415603011846542358e-01 2.760284900665283203e+00 7.856174111366271973e-01 1.215582728385925293e+00
1.563000000000000000e+03 4.375500488281250000e+01 -2.246106147766113281e+01 2.179383516311645508e+00 9.906911849975585938e+00 3.625888586044311523e+00 -8.459594249725341797e-01
1.564000000000000000e+03 4.446679687500000000e+01 -2.502473258972167969e+01 1.940168976783752441e+00 8.957464218139648438e+00 3.269289970397949219e+00 -1.125459074974060059e+00
1.565000000000000000e+03 2.943091392517089844e+01 -6.165355682373046875e+00 2.717013120651245117e+00 2.361000537872314453e+00 1.523404121398925781e+00 -2.761764287948608398e+00
1.566000000000000000e+03 3.788942337036132812e+01 -2.342183303833007812e+01 1.717641711235046387e+00 9.617388725280761719e+00 3.400509119033813477e+00 6.879189610481262207e-01
1.567000000000000000e+03 9.548613548278808594e+00 -1.665327644348144531e+01 1.670755863189697266e+00 5.056758880615234375e+00 2.018254518508911133e+00 7.327161431312561035e-01
1.568000000000000000e+03 4.438969802856445312e+01 -1.680843949317932129e+00 8.564226031303405762e-01 1.089993667602539062e+01 3.526907682418823242e+00 7.518922090530395508e-01
1.569000000000000000e+03 1.500314044952392578e+01 1.891583442687988281e+01 7.198320627212524414e-01 5.529733657836914062e+00 1.874869823455810547e+00 -8.554036021232604980e-01
1.570000000000000000e+03 1.668362808227539062e+01 1.859374618530273438e+01 8.694288730621337891e-01 7.112061023712158203e+00 2.394446849822998047e+00 -2.704525589942932129e-01
1.571000000000000000e+03 7.345777893066406250e+01 2.294679260253906250e+01 -7.039698362350463867e-01 8.519922256469726562e+00 2.344785928726196289e+00 9.721223115921020508e-01
1.572000000000000000e+03 6.739250183105468750e+01 2.623010635375976562e+01 -1.258771419525146484e+00 4.974674224853515625e+00 1.114770770072937012e+00 -1.346636295318603516e+00
1.573000000000000000e+03 6.387896347045898438e+01 -8.982003211975097656e+00 -6.511411070823669434e-02 2.177407026290893555e+00 6.336878538131713867e-01 -1.166565537452697754e+00
1.574000000000000000e+03 2.295746421813964844e+01 2.315732192993164062e+01 -7.895799279212951660e-01 5.569661855697631836e-01 -6.978411227464675903e-02 1.205972909927368164e+00
1.575000000000000000e+03 3.047399330139160156e+01 -1.238552188873291016e+01 1.310936212539672852e+00 1.370944261550903320e+00 8.045641183853149414e-01 -2.698258399963378906e+00
1.576000000000000000e+03 2.905142021179199219e+01 -1.230128860473632812e+01 7.479794025421142578e-01 7.719283699989318848e-01 4.559723436832427979e-01 -2.269410848617553711e+00
1.577000000000000000e+03 5.127902984619140625e+01 -3.383119583129882812e+01 -3.619917333126068115e-01 2.995256662368774414e+00 7.899795174598693848e-01 -1.641638398170471191e+00
1.578000000000000000e+03 5.216897964477539062e+01 -3.101518440246582031e+01 -2.328832000494003296e-01 2.185087680816650391e+00 5.856613516807556152e-01 -1.780300021171569824e+00
1.579000000000000000e+03 5.107783126831054688e+01 -2.822022438049316406e+00 1.527713537216186523e+00 1.892101645469665527e+00 1.025944590568542480e+00 6.002724170684814453e-03
1.580000000000000000e+03 4.868409347534179688e+01 -5.686441898345947266e+00 -4.087216854095458984e-01 5.231504440307617188e+00 1.446834921836853027e+00 8.230232596397399902e-01
1.581000000000000000e+03 2.764963912963867188e+01 -1.229732894897460938e+01 6.817521154880523682e-02 8.431951403617858887e-01 2.734111249446868896e-01 -1.924353957176208496e+00
1.582000000000000000e+03 2.891819000244140625e+01 -9.558727264404296875e+00 1.276717543601989746e+00 1.575702071189880371e+00 8.557258844375610352e-01 -3.021787405014038086e+00
1.583000000000000000e+03 5.112031555175781250e+01 -4.092863559722900391e+00 9.967015981674194336e-01 1.928630471229553223e+00 8.775995969772338867e-01 4.005973041057586670e-01
1.584000000000000000e+03 1.606571960449218750e+01 2.139425849914550781e+01 -4.459365606307983398e-01 5.395938396453857422e+00 1.485000491142272949e+00 -5.801433324813842773e-01
1.585000000000000000e+03 5.193509674072265625e+01 2.472400283813476562e+01 -1.160113811492919922e+00 4.664331912994384766e+00 1.051265358924865723e+00 1.809504032135009766e+00
1.586000000000000000e+03 4.829800796508789062e+01 2.183671569824218750e+01 -5.583942532539367676e-01 6.355159282684326172e+00 1.739029526710510254e+00 5.533074736595153809e-01
1.587000000000000000e+03 4.991210174560546875e+01 -2.963757514953613281e+00 1.027290821075439453e+00 3.333223819732666016e+00 1.308154463768005371e+00 -1.838094927370548248e-02
1.588000000000000000e+03 3.783747863769531250e+01 -1.681174659729003906e+01 2.706453323364257812e+00 8.539495468139648438e+00 3.373784780502319336e+00 -8.064648509025573730e-01
1.589000000000000000e+03 7.107257843017578125e+01 -1.994472885131835938e+01 1.757694125175476074e+00 1.026301097869873047e+01 3.606211423873901367e+00 -3.899407982826232910e-01
1.590000000000000000e+03 5.701589584350585938e+01 -6.512346267700195312e+00 5.793556571006774902e-02 -1.178771816194057465e-02 1.384435500949621201e-02 -8.703204244375228882e-02
1.591000000000000000e+03 1.985595130920410156e+01 2.705233812332153320e+00 -1.855953216552734375e+00 1.025534725189208984e+01 2.519818067550659180e+00 -2.505675792694091797e+00
1.592000000000000000e+03 1.888285064697265625e+01 -3.638636112213134766e+00 2.270882368087768555e+00 1.065682411193847656e+01 3.878312110900878906e+00 2.068285703659057617e+00
1.593000000000000000e+03 1.935164833068847656e+01 1.049179077148437500e+00 -1.645187020301818848e+00 1.309371376037597656e+01 3.434557914733886719e+00 -3.051088571548461914e+00
1.594000000000000000e+03 2.009156417846679688e+01 1.489963889122009277e+00 -1.655435681343078613e+00 1.149649429321289062e+01 2.952317476272583008e+00 -1.882109880447387695e+00
1.595000000000000000e+03 1.689949226379394531e+01 1.917886376380920410e+00 -4.982831776142120361e-01 5.551076889038085938e+00 1.515838146209716797e+00 -3.504194736480712891e+00
1.596000000000000000e+03 1.704649162292480469e+01 9.802349209785461426e-01 -2.016027271747589111e-01 4.845806598663330078e+00 1.393261194229125977e+00 -3.859045982360839844e+00
1.597000000000000000e+03 1.439210319519042969e+01 -3.891714811325073242e+00 1.854045271873474121e+00 3.749131262302398682e-01 6.686875224113464355e-01 1.726302266120910645e+00
1.598000000000000000e+03 1.600080871582031250e+01 -3.150919675827026367e+00 3.095788717269897461e+00 4.336932301521301270e-01 1.058844566345214844e+00 1.842827796936035156e+00
1.599000000000000000e+03 2.014928054809570312e+01 -4.354529380798339844e+00 2.137555599212646484e+00 8.488782882690429688e+00 3.187901496887207031e+00 -1.512992978096008301e+00
1.600000000000000000e+03 1.986923980712890625e+01 7.734555006027221680e-01 -9.360100626945495605e-01 1.330830097198486328e+01 3.711687326431274414e+00 -1.715364813804626465e+00
1.601000000000000000e+03 1.322450065612792969e+01 -4.099545001983642578e+00 1.183564186096191406e+00 3.540791273117065430e-01 4.612929821014404297e-01 1.379552721977233887e+00
1.602000000000000000e+03 9.535239219665527344e+00 -3.975438594818115234e+00 -2.552871406078338623e-02 4.676676690578460693e-01 1.326416879892349243e-01 2.952649891376495361e-01
1.603000000000000000e+03 1.084272289276123047e+01 -3.317528724670410156e+00 1.229446008801460266e-01 3.018272221088409424e-01 1.274315416812896729e-01 4.724442660808563232e-01
1.604000000000000000e+03 1.373661804199218750e+01 -4.216926097869873047e+00 1.473049640655517578e+00 4.226443469524383545e-01 5.687081813812255859e-01 1.659129619598388672e+00
1.605000000000000000e+03 1.209006118774414062e+01 -3.969559192657470703e+00 6.364221572875976562e-01 3.755861520767211914e-01 3.036025166511535645e-01 9.608044624328613281e-01
1.606000000000000000e+03 1.770602416992187500e+01 -3.721853256225585938e+00 3.576781034469604492e+00 5.033165454864501953e+00 2.582983970642089844e+00 4.122861862182617188e+00
1.607000000000000000e+03 2.118175506591796875e+01 2.825685739517211914e-01 1.875114679336547852e+00 9.352894783020019531e+00 3.368402957916259766e+00 8.235112577676773071e-02
1.608000000000000000e+03 7.339708805084228516e+00 -3.352453708648681641e+00 -2.671428024768829346e-01 2.554957270622253418e-01 -3.494122764095664024e-03 -1.413772404193878174e-01
1.609000000000000000e+03 8.848957061767578125e+00 -4.009070873260498047e+00 -8.752568811178207397e-02 4.522946774959564209e-01 1.094307005405426025e-01 1.653812676668167114e-01
1.610000000000000000e+03 1.020191574096679688e+01 -3.951923131942749023e+00 1.016097888350486755e-01 4.650962054729461670e-01 1.700118035078048706e-01 4.690899848937988281e-01
1.611000000000000000e+03 1.147850704193115234e+01 -3.941741704940795898e+00 4.226714968681335449e-01 4.195700585842132568e-01 2.526724636554718018e-01 7.983783483505249023e-01
1.612000000000000000e+03 1.514585685729980469e+01 2.016396284103393555e+00 -4.894345700740814209e-01 2.502116441726684570e+00 6.038045883178710938e-01 -1.617039918899536133e+00
1.613000000000000000e+03 1.513157558441162109e+01 3.736500740051269531e+00 2.990315258502960205e-01 3.679873943328857422e+00 1.193671703338623047e+00 -1.719093322753906250e+00
1.614000000000000000e+03 1.404471778869628906e+01 3.222208023071289062e+00 -7.225877139717340469e-03 2.070323228836059570e+00 6.189292073249816895e-01 -1.002139210700988770e+00
1.615000000000000000e+03 5.962076187133789062e+00 -4.206907749176025391e+00 -1.812264174222946167e-01 2.126328051090240479e-01 9.421915747225284576e-03 -3.051403462886810303e-01
1.616000000000000000e+03 7.423594951629638672e+00 -4.108848571777343750e+00 -1.709157079458236694e-01 3.654522895812988281e-01 5.836097523570060730e-02 -1.061162203550338745e-01
1.617000000000000000e+03 8.144094467163085938e+00 -4.054675579071044922e+00 -1.604543775320053101e-01 4.287478029727935791e-01 8.048803359270095825e-02 1.384791452437639236e-02
1.618000000000000000e+03 3.665161609649658203e+00 -4.090782165527343750e+00 -1.218446940183639526e-01 -8.021970838308334351e-02 -6.061932072043418884e-02 -3.935736119747161865e-01
1.619000000000000000e+03 3.718016862869262695e+00 -7.185283660888671875e+00 -5.559993162751197815e-02 -8.286568522453308105e-02 -4.153968393802642822e-02 -4.873372912406921387e-01
1.620000000000000000e+03 2.822036981582641602e+00 -3.813828468322753906e+00 -9.247701615095138550e-02 -1.803511232137680054e-01 -8.184844255447387695e-02 -3.501624763011932373e-01
1.621000000000000000e+03 3.636354684829711914e+00 -6.024414539337158203e+00 -6.039604172110557556e-02 -9.937991201877593994e-02 -4.793278500437736511e-02 -4.622071981430053711e-01
1.622000000000000000e+03 2.611692428588867188e+00 -5.798002719879150391e+00 -4.280907288193702698e-02 -3.256521224975585938e-01 -1.105383560061454773e-01 -4.104988276958465576e-01
1.623000000000000000e+03 1.645781326293945312e+01 2.264724254608154297e+00 -4.030998051166534424e-01 4.936776638031005859e+00 1.360103011131286621e+00 -3.006303310394287109e+00
1.624000000000000000e+03 9.134484291076660156e+00 4.019207954406738281e+00 -1.708708852529525757e-01 3.373127803206443787e-02 -4.114188253879547119e-02 8.687587380409240723e-01
1.625000000000000000e+03 6.737009525299072266e+00 4.878334999084472656e+00 3.885866701602935791e-02 -1.682381480932235718e-01 -3.881384432315826416e-02 1.024483680725097656e+00
1.626000000000000000e+03 3.715859651565551758e+00 6.818043231964111328e+00 1.519230455160140991e-01 -7.563881874084472656e-01 -1.813395470380783081e-01 7.678353786468505859e-01
1.627000000000000000e+03 7.450585365295410156e+00 3.381970405578613281e+00 -5.637818574905395508e-01 -1.417033225297927856e-01 -2.116455584764480591e-01 1.060142159461975098e+00
1.628000000000000000e+03 7.497381687164306641e+00 4.136873245239257812e+00 -2.133027762174606323e-01 -1.243867129087448120e-01 -1.013068482279777527e-01 1.041121721267700195e+00
1.629000000000000000e+03 8.317384719848632812e+00 4.096645355224609375e+00 -1.738712340593338013e-01 -3.882982954382896423e-02 -6.381031870841979980e-02 9.921100139617919922e-01
1.630000000000000000e+03 5.866505146026611328e+00 6.004538536071777344e+00 2.586591839790344238e-01 -2.934928536415100098e-01 -1.045009959489107132e-02 9.380457401275634766e-01
1.631000000000000000e+03 3.546636343002319336e+00 3.663054227828979492e+00 -2.204696983098983765e-01 -4.039417803287506104e-01 -1.873234361410140991e-01 7.762987017631530762e-01
1.632000000000000000e+03 2.952112913131713867e+00 5.755002021789550781e+00 4.395611956715583801e-02 -7.720717191696166992e-01 -2.184346765279769897e-01 7.474733591079711914e-01
1.633000000000000000e+03 2.208454370498657227e+00 4.149659633636474609e+00 -8.942840993404388428e-02 -6.025668978691101074e-01 -2.075985819101333618e-01 5.924025774002075195e-01
1.634000000000000000e+03 2.843299865722656250e+00 3.779374122619628906e+00 -1.628753542900085449e-01 -4.437593221664428711e-01 -1.819903999567031860e-01 6.743333339691162109e-01
1.635000000000000000e+03 1.318451976776123047e+01 3.470418691635131836e+00 4.987951368093490601e-02 1.551482796669006348e+00 4.804086983203887939e-01 -4.825803041458129883e-01
1.636000000000000000e+03 1.773957252502441406e+01 5.224222183227539062e+00 7.426682114601135254e-01 8.253584861755371094e+00 2.698875904083251953e+00 -2.612232208251953125e+00
1.637000000000000000e+03 2.420418167114257812e+01 -5.040943622589111328e+00 3.978401422500610352e+00 1.695485472679138184e+00 1.702166080474853516e+00 -3.326648712158203125e+00
1.638000000000000000e+03 2.094001388549804688e+01 -3.451699256896972656e+00 4.250643253326416016e+00 8.321810722351074219e+00 3.771736383438110352e+00 -3.553345203399658203e+00
1.639000000000000000e+03 7.522608757019042969e+00 4.914425373077392578e+00 1.116533055901527405e-01 -7.785117626190185547e-02 1.014063786715269089e-02 9.907404780387878418e-01
1.640000000000000000e+03 1.149814510345458984e+01 3.681175470352172852e+00 -5.879174172878265381e-02 6.038882732391357422e-01 1.635289639234542847e-01 2.703843414783477783e-01
1.641000000000000000e+03 2.168971252441406250e+01 -2.237202644348144531e+00 6.713274955749511719e+00 5.557047367095947266e+00 3.681096792221069336e+00 -3.284184217453002930e+00
1.642000000000000000e+03 2.317797470092773438e+01 -3.049299478530883789e+00 5.192069053649902344e+00 2.231182575225830078e+00 2.226975440979003906e+00 -3.621443510055541992e+00
1.643000000000000000e+03 5.769387435913085938e+01 -5.726774215698242188e+00 4.803595840930938721e-01 1.179954782128334045e-01 1.795065253973007202e-01 -1.643881052732467651e-01
1.644000000000000000e+03 2.413692665100097656e+01 -1.105833625793457031e+01 -6.939614415168762207e-01 1.149393081665039062e+00 1.366294622421264648e-01 -1.317303538322448730e+00
1.645000000000000000e+03 2.525183486938476562e+01 -1.123242473602294922e+01 -4.083332419395446777e-01 9.447609782218933105e-01 1.609283238649368286e-01 -1.558480858802795410e+00
1.646000000000000000e+03 4.210371398925781250e+01 1.594885158538818359e+01 8.890552073717117310e-02 5.440587997436523438e+00 1.658848047256469727e+00 -8.225276470184326172e-01
1.647000000000000000e+03 3.961822509765625000e+01 1.880797004699707031e+01 -2.437294125556945801e-01 3.368742465972900391e+00 9.375039339065551758e-01 -1.096663117408752441e+00
1.648000000000000000e+03 2.140710639953613281e+01 -9.540830612182617188e+00 -5.623051524162292480e-01 2.059019804000854492e+00 4.490144252777099609e-01 -7.744169831275939941e-01
1.649000000000000000e+03 1.835178756713867188e+01 3.467312335968017578e+00 -1.067716836929321289e+00 9.049104690551757812e+00 2.394416570663452148e+00 -2.938877344131469727e+00
1.650000000000000000e+03 6.358162689208984375e+01 2.153279066085815430e+00 5.245946645736694336e-01 2.628742933273315430e+00 9.460012316703796387e-01 8.644703626632690430e-01
1.651000000000000000e+03 1.874165534973144531e+01 5.131186962127685547e+00 5.698814392089843750e-01 9.870049476623535156e+00 3.131979227066040039e+00 -2.849045515060424805e+00
1.652000000000000000e+03 1.648785400390625000e+01 6.815488338470458984e+00 1.531800866127014160e+00 7.262940883636474609e+00 2.638422489166259766e+00 -2.115156650543212891e+00
1.653000000000000000e+03 3.821718215942382812e+01 -8.134792327880859375e+00 3.990113362669944763e-02 4.679596900939941406e+00 1.415849328041076660e+00 9.382878541946411133e-01
1.654000000000000000e+03 1.362278270721435547e+01 -1.070565891265869141e+01 -7.142404317855834961e-01 3.393955230712890625e+00 8.039144277572631836e-01 2.820943117141723633e+00
1.655000000000000000e+03 1.466152286529541016e+01 -1.100747013092041016e+01 -1.477141737937927246e+00 2.668384552001953125e+00 3.573728203773498535e-01 3.081880569458007812e+00
1.656000000000000000e+03 6.261606979370117188e+01 1.091107130050659180e+00 7.089570164680480957e-01 2.063275098800659180e+00 8.316696286201477051e-01 6.284278035163879395e-01
1.657000000000000000e+03 6.152605056762695312e+01 2.671072259545326233e-03 9.376858472824096680e-01 1.487355709075927734e+00 7.275124788284301758e-01 4.118011593818664551e-01
1.658000000000000000e+03 6.581258392333984375e+01 5.767796993255615234e+00 2.999705076217651367e-01 4.537322998046875000e+00 1.451188087463378906e+00 1.519611358642578125e+00
1.659000000000000000e+03 6.961663818359375000e+01 7.021214008331298828e+00 -2.360897362232208252e-01 7.651609897613525391e+00 2.224656105041503906e+00 4.162511825561523438e-01
1.660000000000000000e+03 2.633411216735839844e+01 -1.236827754974365234e+01 -6.107736825942993164e-01 5.790396928787231445e-01 -9.520205669105052948e-03 -1.412744998931884766e+00
1.661000000000000000e+03 2.142738342285156250e+01 -7.141963958740234375e+00 1.004558205604553223e+00 3.698775291442871094e+00 1.411000013351440430e+00 -1.576490998268127441e+00
1.662000000000000000e+03 3.483255004882812500e+01 -8.334794998168945312e+00 1.234437942504882812e+00 1.653457164764404297e+00 8.663685321807861328e-01 -1.270431995391845703e+00
1.663000000000000000e+03 1.085157680511474609e+01 -8.254853248596191406e+00 -2.042589187622070312e-01 2.380203485488891602e+00 6.527833938598632812e-01 1.359629750251770020e+00
1.664000000000000000e+03 3.546945190429687500e+01 -1.440262985229492188e+01 1.772318363189697266e+00 5.727714061737060547e+00 2.250009775161743164e+00 -1.723304152488708496e+00
1.665000000000000000e+03 2.346284675598144531e+01 -7.940351963043212891e+00 1.300529718399047852e+00 2.244678735733032227e+00 1.063562512397766113e+00 -2.275103092193603516e+00
1.666000000000000000e+03 5.425614547729492188e+01 -3.438566207885742188e+00 1.487939000129699707e+00 1.625810861587524414e-01 4.951560199260711670e-01 1.618410944938659668e-01
1.667000000000000000e+03 5.207863616943359375e+01 -5.873499870300292969e+00 2.994381189346313477e-01 7.731832265853881836e-01 3.217864036560058594e-01 5.664877891540527344e-01
1.668000000000000000e+03 6.594657897949218750e+01 -3.087431526184082031e+01 -7.686446309089660645e-01 4.105569362640380859e+00 1.001077413558959961e+00 9.011356234550476074e-01
1.669000000000000000e+03 6.635935974121093750e+01 -2.969428062438964844e+01 -8.636958003044128418e-01 4.472088813781738281e+00 1.082517981529235840e+00 1.020860195159912109e+00
1.670000000000000000e+03 7.466030120849609375e+01 1.406591892242431641e+01 7.837565541267395020e-01 7.962067604064941406e+00 2.623747348785400391e+00 9.092095494270324707e-02
1.671000000000000000e+03 7.551845550537109375e+01 2.006078958511352539e-01 -2.481846213340759277e-01 7.548953533172607422e+00 2.190230607986450195e+00 -1.533905863761901855e-01
1.672000000000000000e+03 7.573596954345703125e+01 -6.739000797271728516e+00 -3.355337083339691162e-01 7.589663505554199219e+00 2.176239013671875000e+00 5.245293974876403809e-01
1.673000000000000000e+03 7.564188385009765625e+01 -3.974369764328002930e+00 -3.044505417346954346e-01 7.572029590606689453e+00 2.180273771286010742e+00 2.283779233694076538e-01
1.674000000000000000e+03 7.574126434326171875e+01 -5.347816467285156250e+00 -3.002536296844482422e-01 7.575570106506347656e+00 2.182595014572143555e+00 3.730215132236480713e-01
1.675000000000000000e+03 7.555297851562500000e+01 -2.588195085525512695e+00 -2.693175673484802246e-01 7.558374404907226562e+00 2.186717033386230469e+00 9.902873635292053223e-02
1.676000000000000000e+03 7.680897521972656250e+01 1.527543187141418457e+00 -1.365583240985870361e-01 7.726000785827636719e+00 2.276832818984985352e+00 -2.506334483623504639e-01
1.677000000000000000e+03 7.551955413818359375e+01 1.562155604362487793e+00 -2.525117397308349609e-01 7.574970722198486328e+00 2.196737766265869141e+00 -2.481350153684616089e-01
1.678000000000000000e+03 7.545742797851562500e+01 6.022465705871582031e+00 -1.617843806743621826e-01 7.608047962188720703e+00 2.233879089355468750e+00 -5.611551403999328613e-01
1.679000000000000000e+03 7.471585083007812500e+01 -1.436544227600097656e+01 5.284516811370849609e-01 7.642120838165283203e+00 2.451171636581420898e+00 8.709673881530761719e-01
1.680000000000000000e+03 7.364039611816406250e+01 -1.060222339630126953e+01 -2.972563505172729492e-01 7.943881988525390625e+00 2.293987751007080078e+00 8.858833312988281250e-01
1.681000000000000000e+03 7.677818298339843750e+01 8.660651206970214844e+00 6.237920373678207397e-02 7.348911762237548828e+00 2.223387241363525391e+00 -5.452728867530822754e-01
1.682000000000000000e+03 7.479482269287109375e+01 8.293497085571289062e+00 3.964773565530776978e-02 7.706353664398193359e+00 2.323800325393676758e+00 -6.038751602172851562e-01
1.683000000000000000e+03 7.498249816894531250e+01 9.904452323913574219e+00 2.779758870601654053e-01 7.718597412109375000e+00 2.398972034454345703e+00 -5.444062352180480957e-01
1.684000000000000000e+03 7.548134613037109375e+01 4.164466857910156250e+00 -2.105757892131805420e-01 7.589857578277587891e+00 2.213784456253051758e+00 -4.358399808406829834e-01
1.685000000000000000e+03 7.027937316894531250e+01 5.928851127624511719e+00 -2.541100382804870605e-01 7.346130371093750000e+00 2.127605915069580078e+00 2.157693654298782349e-01
1.686000000000000000e+03 7.552854919433593750e+01 -1.772265052795410156e+01 7.818141579627990723e-01 7.163413524627685547e+00 2.383568286895751953e+00 8.937053382396697998e-02
1.687000000000000000e+03 7.544713592529296875e+01 -9.700536727905273438e+00 -2.335757315158843994e-01 7.563888072967529297e+00 2.199093580245971680e+00 8.438895344734191895e-01
1.688000000000000000e+03 7.505368804931640625e+01 -1.564548873901367188e+01 6.910603642463684082e-01 7.479468345642089844e+00 2.451158761978149414e+00 5.963833332061767578e-01
1.689000000000000000e+03 7.547855377197265625e+01 -1.127137279510498047e+01 -8.054045587778091431e-02 7.508358955383300781e+00 2.228345632553100586e+00 9.614033699035644531e-01
1.690000000000000000e+03 7.692617034912109375e+01 1.001274394989013672e+01 1.349594742059707642e-01 7.224938392639160156e+00 2.207969427108764648e+00 -4.786640703678131104e-01
1.691000000000000000e+03 7.570060729980468750e+01 1.131059360504150391e+01 3.488214910030364990e-01 7.517376899719238281e+00 2.359859466552734375e+00 -4.025345146656036377e-01
1.692000000000000000e+03 7.681024169921875000e+01 -1.928242492675781250e+01 4.298284947872161865e-01 6.525734424591064453e+00 2.086668968200683594e+00 -2.861375212669372559e-01
1.693000000000000000e+03 7.401123809814453125e+01 -1.912385749816894531e+01 1.186554431915283203e+00 7.901453495025634766e+00 2.726402282714843750e+00 -3.584854900836944580e-01
1.694000000000000000e+03 7.688034820556640625e+01 -1.789760398864746094e+01 4.104971885681152344e-01 6.486211299896240234e+00 2.069012641906738281e+00 1.169088203459978104e-02
1.695000000000000000e+03 7.583892822265625000e+01 -1.639685249328613281e+01 6.570441722869873047e-01 7.079316139221191406e+00 2.320908069610595703e+00 4.182699918746948242e-01
1.696000000000000000e+03 7.303134918212890625e+01 3.127789115905761719e+01 -2.960543036460876465e-01 7.378419399261474609e+00 2.124709606170654297e+00 -2.895500957965850830e-01
1.697000000000000000e+03 7.471434020996093750e+01 3.099050331115722656e+01 -2.532534301280975342e-01 7.950351715087890625e+00 2.309129476547241211e+00 -1.590891182422637939e-01
1.698000000000000000e+03 7.585500335693359375e+01 1.637829399108886719e+01 5.058779120445251465e-01 7.621497154235839844e+00 2.438212633132934570e+00 5.651790499687194824e-01
1.699000000000000000e+03 7.711403656005859375e+01 1.729886436462402344e+01 2.902963161468505859e-01 7.317760944366455078e+00 2.282417058944702148e+00 5.934596061706542969e-01
1.700000000000000000e+03 7.410874938964843750e+01 1.692065620422363281e+01 9.215854406356811523e-01 8.344038963317871094e+00 2.779687404632568359e+00 7.644197940826416016e-01
1.701000000000000000e+03 7.585682678222656250e+01 1.979644393920898438e+01 2.072313874959945679e-01 8.026329994201660156e+00 2.470068216323852539e+00 1.105716347694396973e+00
1.702000000000000000e+03 7.517991638183593750e+01 1.824028396606445312e+01 4.715967774391174316e-01 8.099271774291992188e+00 2.571260690689086914e+00 9.765945672988891602e-01
1.703000000000000000e+03 7.097171783447265625e+01 1.813034057617187500e+01 1.143273591995239258e+00 9.951764106750488281e+00 3.328511476516723633e+00 9.542270302772521973e-01
1.704000000000000000e+03 7.512153625488281250e+01 -3.079866218566894531e+01 -4.085464477539062500e-01 7.676582813262939453e+00 2.180410861968994141e+00 -4.508661329746246338e-01
1.705000000000000000e+03 7.311342620849609375e+01 -2.504174423217773438e+01 -2.517810165882110596e-01 8.209384918212890625e+00 2.387281179428100586e+00 -1.075835108757019043e+00
1.706000000000000000e+03 7.463375091552734375e+01 2.194093513488769531e+01 -2.649370431900024414e-01 8.499387741088867188e+00 2.470335245132446289e+00 1.187679648399353027e+00
1.707000000000000000e+03 7.504883575439453125e+01 -2.791094398498535156e+01 -3.868889808654785156e-01 7.746454715728759766e+00 2.207869768142700195e+00 -8.303014039993286133e-01
1.708000000000000000e+03 7.650702667236328125e+01 -2.632775688171386719e+01 -1.298926174640655518e-01 7.539146900177001953e+00 2.222776174545288086e+00 -9.433874487876892090e-01
1.709000000000000000e+03 7.527159881591796875e+01 -2.472220420837402344e+01 -3.283939138054847717e-02 7.676702022552490234e+00 2.293158769607543945e+00 -1.151134014129638672e+00
1.710000000000000000e+03 7.534207153320312500e+01 2.529317092895507812e+01 -4.820683300495147705e-01 8.458132743835449219e+00 2.392819166183471680e+00 6.541380286216735840e-01
1.711000000000000000e+03 7.439364624023437500e+01 2.380359840393066406e+01 -6.553980708122253418e-01 8.492026329040527344e+00 2.350988388061523438e+00 8.804848790168762207e-01
1.712000000000000000e+03 7.658216094970703125e+01 2.668079757690429688e+01 -2.601889967918395996e-01 8.644870758056640625e+00 2.515404462814331055e+00 4.082544147968292236e-01
1.713000000000000000e+03 7.516407012939453125e+01 2.672750282287597656e+01 -4.887546896934509277e-01 8.406448364257812500e+00 2.375308036804199219e+00 3.476024568080902100e-01
1.714000000000000000e+03 7.641305541992187500e+01 2.951509475708007812e+01 -2.073278874158859253e-01 8.574665069580078125e+00 2.510201215744018555e+00 4.714606702327728271e-02
1.715000000000000000e+03 7.496517944335937500e+01 2.948163795471191406e+01 -3.217745125293731689e-01 8.130552291870117188e+00 2.342633485794067383e+00 -3.337169066071510315e-02
1.716000000000000000e+03 7.515045166015625000e+01 2.814192962646484375e+01 -4.412129819393157959e-01 8.299651145935058594e+00 2.357531309127807617e+00 1.529136300086975098e-01
1.717000000000000000e+03 7.510146331787109375e+01 -3.299991226196289062e+01 -2.950967848300933838e-01 7.530368328094482422e+00 2.170581579208374023e+00 -2.781850695610046387e-01
1.718000000000000000e+03 7.403013610839843750e+01 -3.521407699584960938e+01 -2.347568422555923462e-01 7.155463218688964844e+00 2.076211929321289062e+00 -8.645329624414443970e-02
1.719000000000000000e+03 7.631609344482421875e+01 -3.689957046508789062e+01 -1.416365802288055420e-01 8.099190711975097656e+00 2.387266159057617188e+00 -1.149620488286018372e-01
1.720000000000000000e+03 7.509516906738281250e+01 -2.939536666870117188e+01 -3.761584162712097168e-01 7.749344825744628906e+00 2.211955785751342773e+00 -6.883512139320373535e-01
1.721000000000000000e+03 7.547355651855468750e+01 -3.448042297363281250e+01 -1.910732090473175049e-01 7.679766178131103516e+00 2.246608018875122070e+00 -1.781073063611984253e-01
1.722000000000000000e+03 7.661280822753906250e+01 -3.386547851562500000e+01 -1.294036805629730225e-01 8.016019821166992188e+00 2.365984916687011719e+00 -1.984250545501708984e-01
1.723000000000000000e+03 7.455351257324218750e+01 -3.186846733093261719e+01 -3.613984286785125732e-01 7.530758857727050781e+00 2.150808095932006836e+00 -3.369564414024353027e-01
1.724000000000000000e+03 1.177413940429687500e+01 -1.183760643005371094e+01 -1.523928046226501465e-01 4.781440734863281250e+00 1.388714432716369629e+00 1.565114021301269531e+00
1.725000000000000000e+03 3.926280975341796875e+01 -2.104852676391601562e+01 2.202350378036499023e+00 9.410724639892578125e+00 3.483922481536865234e+00 -1.548905372619628906e-01
1.726000000000000000e+03 3.824160766601562500e+01 -2.131643486022949219e+01 1.932029128074645996e+00 9.917811393737792969e+00 3.554952144622802734e+00 -3.681300878524780273e-01
1.727000000000000000e+03 6.557997131347656250e+01 -3.229052352905273438e+01 -5.954694151878356934e-01 3.875622272491455078e+00 9.840458631515502930e-01 8.952997922897338867e-01
1.728000000000000000e+03 2.954717159271240234e+00 -1.642108726501464844e+01 2.774960994720458984e-01 -6.206011176109313965e-01 -1.029315069317817688e-01 1.304578036069869995e-01
1.729000000000000000e+03 4.241401195526123047e+00 -1.394093322753906250e+01 4.241736531257629395e-01 2.511619031429290771e-01 2.026006728410720825e-01 -2.667752802371978760e-01
1.730000000000000000e+03 4.290707111358642578e+00 2.158424758911132812e+01 2.877715788781642914e-02 4.547827541828155518e-01 1.450679749250411987e-01 -9.273205399513244629e-01
1.731000000000000000e+03 6.192638397216796875e+00 -1.839335632324218750e+01 8.829363584518432617e-01 1.946725726127624512e+00 8.488986492156982422e-01 8.328698277473449707e-01
1.732000000000000000e+03 4.160740375518798828e+00 -1.642379951477050781e+01 5.301490426063537598e-01 2.735269665718078613e-01 2.411027997732162476e-01 2.055324763059616089e-01
1.733000000000000000e+03 4.292865753173828125e+00 -2.029644584655761719e+01 3.530050516128540039e-01 7.214168310165405273e-01 3.223265707492828369e-01 9.390699267387390137e-01
1.734000000000000000e+03 3.065549850463867188e+00 2.029327583312988281e+01 5.219655856490135193e-02 -2.809751331806182861e-01 -6.863357126712799072e-02 -6.971961855888366699e-01
1.735000000000000000e+03 4.369660377502441406e+00 2.296788215637207031e+01 -2.861020341515541077e-02 6.690506339073181152e-01 1.921321302652359009e-01 -9.277757406234741211e-01
1.736000000000000000e+03 6.499987125396728516e+00 -1.947314262390136719e+01 7.925796508789062500e-01 2.276934385299682617e+00 9.208542108535766602e-01 9.695729613304138184e-01
1.737000000000000000e+03 5.845283985137939453e+00 -1.741451835632324219e+01 9.212645292282104492e-01 1.588706970214843750e+00 7.529914379119873047e-01 5.489981174468994141e-01
1.738000000000000000e+03 4.621814727783203125e+00 -2.769768142700195312e+01 -2.587011158466339111e-01 1.643045067787170410e+00 4.153031706809997559e-01 9.248144626617431641e-01
1.739000000000000000e+03 3.325773000717163086e+00 -2.332453155517578125e+01 4.135941714048385620e-02 5.906268954277038574e-01 1.895958930253982544e-01 9.866238832473754883e-01
1.740000000000000000e+03 4.629531383514404297e+00 -2.169396018981933594e+01 2.261408269405364990e-01 1.100520968437194824e+00 3.979985415935516357e-01 1.139826416969299316e+00
1.741000000000000000e+03 4.224004745483398438e+00 1.751446342468261719e+01 2.413651347160339355e-01 -1.466836631298065186e-01 2.840444445610046387e-02 -6.968564391136169434e-01
1.742000000000000000e+03 4.267946720123291016e+00 1.884844779968261719e+01 1.673645079135894775e-01 3.668260201811790466e-02 6.121413409709930420e-02 -8.099787235260009766e-01
1.743000000000000000e+03 3.041586875915527344e+00 1.892553329467773438e+01 9.693964570760726929e-02 -5.189450979232788086e-01 -1.266016364097595215e-01 -6.370103359222412109e-01
1.744000000000000000e+03 4.281044483184814453e+00 2.020511627197265625e+01 1.112979203462600708e-01 2.353273481130599976e-01 1.039875820279121399e-01 -8.924067616462707520e-01
1.745000000000000000e+03 4.633292198181152344e+00 2.570558166503906250e+01 -1.205718815326690674e-01 1.069279432296752930e+00 2.846122682094573975e-01 -8.679289817810058594e-01
1.746000000000000000e+03 4.973521232604980469e+00 2.975083923339843750e+01 -2.011169493198394775e-01 1.525351643562316895e+00 3.972704112529754639e-01 -6.535305380821228027e-01
1.747000000000000000e+03 2.943419933319091797e+00 1.489703083038330078e+01 1.835473924875259399e-01 -1.086988091468811035e+00 -2.710321843624114990e-01 -2.812321484088897705e-01
1.748000000000000000e+03 4.068000316619873047e+00 1.358859157562255859e+01 3.734830021858215332e-01 -6.220721602439880371e-01 -7.457675784826278687e-02 -1.895087957382202148e-01
1.749000000000000000e+03 6.753518581390380859e+00 -2.186580657958984375e+01 3.126080632209777832e-01 2.457020044326782227e+00 8.308884501457214355e-01 1.285221457481384277e+00
1.750000000000000000e+03 4.761176109313964844e+00 -2.322981834411621094e+01 6.752215325832366943e-02 1.383652567863464355e+00 4.353524148464202881e-01 1.223116755485534668e+00
1.751000000000000000e+03 5.561480045318603516e+00 2.283525085449218750e+01 -5.177741125226020813e-02 1.071564316749572754e+00 3.059360682964324951e-01 -1.067633509635925293e+00
1.752000000000000000e+03 4.690274238586425781e+00 2.703424644470214844e+01 -1.517661958932876587e-01 1.230404257774353027e+00 3.235914111137390137e-01 -8.234829306602478027e-01
1.753000000000000000e+03 4.506925106048583984e+00 2.434492874145507812e+01 -9.010992944240570068e-02 8.905199170112609863e-01 2.401230037212371826e-01 -9.106110930442810059e-01
1.754000000000000000e+03 3.983291387557983398e+00 -9.759498596191406250e+00 3.067867364734411240e-03 4.419377073645591736e-02 1.417849119752645493e-02 -5.162063241004943848e-01
1.755000000000000000e+03 3.836187362670898438e+00 -8.436018943786621094e+00 -2.249531634151935577e-02 -2.459662966430187225e-02 -1.412758417427539825e-02 -5.066841840744018555e-01
1.756000000000000000e+03 4.347117900848388672e+00 -1.260282325744628906e+01 2.383061945438385010e-01 2.965914309024810791e-01 1.604692786931991577e-01 -4.006248712539672852e-01
1.757000000000000000e+03 5.186356067657470703e+00 1.116216468811035156e+01 5.836395621299743652e-01 -2.823593318462371826e-01 9.038405865430831909e-02 1.430817544460296631e-01
1.758000000000000000e+03 5.359939098358154297e+00 3.269082641601562500e+01 -2.087015062570571899e-01 1.738018393516540527e+00 4.587950706481933594e-01 -4.942906498908996582e-01
1.759000000000000000e+03 5.269462585449218750e+00 3.585584259033203125e+01 -1.711470335721969604e-01 1.839725255966186523e+00 5.005734562873840332e-01 -3.011729121208190918e-01
1.760000000000000000e+03 3.683960676193237305e+00 3.568510437011718750e+01 -9.248805046081542969e-02 1.757068276405334473e+00 4.993740618228912354e-01 -2.543149292469024658e-01
1.761000000000000000e+03 3.207408666610717773e+00 -3.048587608337402344e+01 -1.537349075078964233e-01 1.669707536697387695e+00 4.547917842864990234e-01 5.787888765335083008e-01
1.762000000000000000e+03 4.600600242614746094e+00 -2.916662406921386719e+01 -2.867768406867980957e-01 1.748118638992309570e+00 4.384025335311889648e-01 8.180277943611145020e-01
1.763000000000000000e+03 4.054636955261230469e+00 1.098857784271240234e+01 3.942029774188995361e-01 -7.560098171234130859e-01 -1.085420474410057068e-01 2.256935536861419678e-01
1.764000000000000000e+03 5.464700698852539062e+00 -6.116604804992675781e+00 -1.022726297378540039e-01 3.399263918399810791e-01 7.129612565040588379e-02 -3.648421466350555420e-01
1.765000000000000000e+03 4.162322044372558594e+00 -1.114288330078125000e+01 1.250834614038467407e-01 1.890095621347427368e-01 9.422791004180908203e-02 -4.865258038043975830e-01
1.766000000000000000e+03 4.781168460845947266e+00 2.837284278869628906e+01 -1.793448925018310547e-01 1.400408744812011719e+00 3.663191497325897217e-01 -7.403950691223144531e-01
1.767000000000000000e+03 5.413364887237548828e+00 3.425389862060546875e+01 -1.976698040962219238e-01 1.806854248046875000e+00 4.827553331851959229e-01 -3.984183371067047119e-01
1.768000000000000000e+03 5.189005374908447266e+00 3.118602371215820312e+01 -2.020417004823684692e-01 1.639179110527038574e+00 4.311412274837493896e-01 -5.782358646392822266e-01
1.769000000000000000e+03 7.152511596679687500e+00 -3.115397834777832031e+01 -5.200547575950622559e-01 2.041692733764648438e+00 4.564913511276245117e-01 5.728925466537475586e-01
1.770000000000000000e+03 4.478146076202392578e+00 -3.060786819458007812e+01 -2.628321945667266846e-01 1.808402061462402344e+00 4.636709690093994141e-01 6.466135382652282715e-01
1.771000000000000000e+03 3.166690111160278320e+00 -3.179253387451171875e+01 -1.343772560358047485e-01 1.801688790321350098e+00 5.001934170722961426e-01 4.440360963344573975e-01
1.772000000000000000e+03 4.336185932159423828e+00 8.522331237792968750e+00 3.845075964927673340e-01 -6.569899916648864746e-01 -8.174471557140350342e-02 6.228213310241699219e-01
1.773000000000000000e+03 3.621473312377929688e+00 -4.981810569763183594e+00 -9.336626529693603516e-02 -9.967652708292007446e-02 -5.791283771395683289e-02 -4.272460639476776123e-01
1.774000000000000000e+03 5.074516296386718750e+00 4.455108642578125000e+00 -1.409638077020645142e-01 -3.428843617439270020e-01 -1.451544463634490967e-01 9.840270876884460449e-01
1.775000000000000000e+03 4.369320678710937500e+01 1.163016319274902344e+01 3.615608513355255127e-01 9.266727447509765625e+00 2.888486385345458984e+00 1.014280691742897034e-01
1.776000000000000000e+03 4.553763580322265625e+01 1.418327808380126953e+01 4.623943567276000977e-01 8.907537460327148438e+00 2.810979604721069336e+00 8.487922549247741699e-01
1.777000000000000000e+03 2.669408607482910156e+01 2.438312721252441406e+01 -9.000322222709655762e-01 9.375651180744171143e-02 -2.418827116489410400e-01 2.676546871662139893e-01
1.778000000000000000e+03 4.075510787963867188e+01 -2.164628410339355469e+01 2.353869915008544922e+00 9.033608436584472656e+00 3.416243553161621094e+00 -1.316199451684951782e-01
1.779000000000000000e+03 1.914825057983398438e+01 3.191470384597778320e+00 -1.592573046684265137e+00 1.004351615905761719e+01 2.535282850265502930e+00 -2.935842514038085938e+00
1.780000000000000000e+03 6.908959960937500000e+01 -2.604785537719726562e+01 -8.034065365791320801e-01 7.560116767883300781e+00 2.027013063430786133e+00 3.063266575336456299e-01
1.781000000000000000e+03 4.085239410400390625e+01 1.609850692749023438e+01 1.041584983468055725e-01 4.470839500427246094e+00 1.372499465942382812e+00 -1.097975969314575195e+00
1.782000000000000000e+03 4.329278564453125000e+01 1.446330833435058594e+01 2.095433324575424194e-01 7.201253890991210938e+00 2.223239183425903320e+00 -3.738903999328613281e-01
1.783000000000000000e+03 3.853451156616210938e+01 1.942949867248535156e+01 -3.251727521419525146e-01 2.670395851135253906e+00 7.035669684410095215e-01 -1.011067509651184082e+00
1.784000000000000000e+03 3.050604438781738281e+01 -8.232678413391113281e+00 1.626221656799316406e+00 1.561553478240966797e+00 9.563325047492980957e-01 -3.226443767547607422e+00
1.785000000000000000e+03 2.730817985534667969e+01 -7.799695491790771484e+00 1.963158011436462402e+00 1.793898224830627441e+00 1.127116799354553223e+00 -2.639332771301269531e+00
1.786000000000000000e+03 3.344520187377929688e+01 -7.395140171051025391e+00 1.293044924736022949e+00 5.845186710357666016e-01 5.632690787315368652e-01 -1.934992432594299316e+00
1.787000000000000000e+03 4.369684219360351562e+01 1.742746925354003906e+01 6.665803492069244385e-03 6.200407505035400391e+00 1.862122058868408203e+00 -4.551651477813720703e-01
1.788000000000000000e+03 4.593044662475585938e+01 7.424432277679443359e+00 1.135063052177429199e+00 1.213317489624023438e+01 3.980471372604370117e+00 1.535655140876770020e+00
1.789000000000000000e+03 4.501461410522460938e+01 6.383826732635498047e+00 1.289029598236083984e+00 1.292938137054443359e+01 4.265523433685302734e+00 1.154247999191284180e+00
1.790000000000000000e+03 4.670922088623046875e+01 1.105126762390136719e+01 7.948069572448730469e-01 1.100051116943359375e+01 3.538595438003540039e+00 1.982352614402770996e+00
1.791000000000000000e+03 3.030484771728515625e+01 2.510251235961914062e+01 -6.184430122375488281e-01 5.447981357574462891e-01 -2.209345623850822449e-02 -2.531277537345886230e-01
1.792000000000000000e+03 7.077541351318359375e+01 1.679513359069824219e+01 1.602027654647827148e+00 1.029071426391601562e+01 3.567822694778442383e+00 4.978774785995483398e-01
1.793000000000000000e+03 7.463401794433593750e+01 1.572315692901611328e+01 8.193022608757019043e-01 8.026812553405761719e+00 2.653834342956542969e+00 4.594470560550689697e-01
1.794000000000000000e+03 2.822965049743652344e+01 2.414369010925292969e+01 -9.112704992294311523e-01 1.204980760812759399e-01 -2.372317165136337280e-01 1.182042285799980164e-01
1.795000000000000000e+03 7.415174102783203125e+01 -1.764883422851562500e+01 1.164948940277099609e+00 7.891408443450927734e+00 2.716907262802124023e+00 9.663470834493637085e-02
1.796000000000000000e+03 1.027018260955810547e+01 -1.326194286346435547e+01 8.180501461029052734e-01 4.519230365753173828e+00 1.601184129714965820e+00 6.095687150955200195e-01
1.797000000000000000e+03 8.927726745605468750e+00 -1.558584022521972656e+01 1.721968173980712891e+00 4.317092418670654297e+00 1.811718106269836426e+00 5.599969625473022461e-01
1.798000000000000000e+03 1.523029708862304688e+01 1.531701946258544922e+01 1.209392666816711426e+00 6.848016262054443359e+00 2.417222738265991211e+00 -8.795422315597534180e-01
1.799000000000000000e+03 1.571691513061523438e+01 1.701321029663085938e+01 1.035373330116271973e+00 6.912646293640136719e+00 2.384405851364135742e+00 -5.699000358581542969e-01
1.800000000000000000e+03 2.240340995788574219e+01 -3.064262151718139648e+00 5.531908512115478516e+00 4.277869224548339844e+00 2.942933320999145508e+00 -3.857708692550659180e+00
1.801000000000000000e+03 3.871283721923828125e+01 -1.823269462585449219e+01 2.692060470581054688e+00 8.885367393493652344e+00 3.473228216171264648e+00 -6.320245265960693359e-01
1.802000000000000000e+03 4.793000793457031250e+01 1.073248147964477539e+00 7.284181118011474609e-01 7.857889175415039062e+00 2.575892210006713867e+00 -6.302822828292846680e-01
1.803000000000000000e+03 4.708053970336914062e+01 6.454658508300781250e-01 1.139130711555480957e+00 8.734433174133300781e+00 2.962069034576416016e+00 -4.618976712226867676e-01
1.804000000000000000e+03 3.757101821899414062e+01 2.011553192138671875e+01 -4.564945399761199951e-01 2.156016826629638672e+00 5.098567008972167969e-01 -9.002565741539001465e-01
1.805000000000000000e+03 5.709119796752929688e+01 2.801075935363769531e+01 -4.360143542289733887e-01 1.768536210060119629e+00 3.997565805912017822e-01 1.494644165039062500e+00
1.806000000000000000e+03 5.560712814331054688e+01 2.747050285339355469e+01 -7.066732645034790039e-01 2.335532188415527344e+00 4.886576831340789795e-01 1.777516365051269531e+00
1.807000000000000000e+03 1.491413021087646484e+01 1.328820705413818359e+01 1.476026773452758789e+00 6.678344249725341797e+00 2.446311235427856445e+00 -1.148443937301635742e+00
1.808000000000000000e+03 1.382506370544433594e+01 1.274418544769287109e+01 1.664396405220031738e+00 5.269473552703857422e+00 2.080161094665527344e+00 -1.175689816474914551e+00
1.809000000000000000e+03 1.521459579467773438e+01 1.201947021484375000e+01 1.596658349037170410e+00 7.021046638488769531e+00 2.585311412811279297e+00 -1.388876318931579590e+00
1.810000000000000000e+03 6.456869506835937500e+01 3.081350564956665039e+00 3.290478587150573730e-01 3.375441074371337891e+00 1.111346721649169922e+00 1.042425513267517090e+00
1.811000000000000000e+03 5.665345764160156250e+01 -5.703718662261962891e+00 4.281670153141021729e-01 -7.115472573786973953e-03 1.263154596090316772e-01 -1.075891107320785522e-01
1.812000000000000000e+03 5.540312576293945312e+01 -6.095503330230712891e+00 9.616040438413619995e-02 -3.007848858833312988e-01 -6.138734519481658936e-02 -1.247687861323356628e-01
1.813000000000000000e+03 4.848546600341796875e+01 1.845669746398925781e+01 8.405705094337463379e-01 7.845792770385742188e+00 2.605909109115600586e+00 1.460267305374145508e+00
1.814000000000000000e+03 4.347686004638671875e+01 1.591597557067871094e+01 1.019729822874069214e-01 6.535829067230224609e+00 1.991340637207031250e+00 -4.372435808181762695e-01
1.815000000000000000e+03 1.462131404876708984e+01 5.894599437713623047e+00 1.245032668113708496e+00 4.313663959503173828e+00 1.667608976364135742e+00 -1.379027724266052246e+00
1.816000000000000000e+03 3.748612213134765625e+01 -1.799638366699218750e+01 2.656429290771484375e+00 9.111888885498046875e+00 3.530495405197143555e+00 -9.751204252243041992e-01
1.817000000000000000e+03 3.833155059814453125e+01 -1.931645774841308594e+01 2.245913028717041016e+00 9.534740447998046875e+00 3.534196138381958008e+00 -6.553128361701965332e-01
1.818000000000000000e+03 7.076445007324218750e+01 2.131497192382812500e+01 -7.822993397712707520e-01 9.251182556152343750e+00 2.540664911270141602e+00 8.795453310012817383e-01
1.819000000000000000e+03 1.537776660919189453e+01 1.076369667053222656e+01 1.787803888320922852e+00 7.029468059539794922e+00 2.645181417465209961e+00 -1.600628256797790527e+00
1.820000000000000000e+03 4.948530960083007812e+01 -1.959846138954162598e+00 1.276362061500549316e+00 3.749231100082397461e+00 1.507677912712097168e+00 -5.867952704429626465e-01
1.821000000000000000e+03 4.639502716064453125e+01 -3.028377532958984375e+01 -4.640337526798248291e-01 6.420942306518554688e+00 1.787072539329528809e+00 -1.621965765953063965e+00
1.822000000000000000e+03 5.054749298095703125e+01 -3.181042480468750000e+01 -4.173911511898040771e-01 3.552014589309692383e+00 9.403870701789855957e-01 -1.918287396430969238e+00
1.823000000000000000e+03 4.634490203857421875e+01 -6.073123216629028320e-01 9.743998646736145020e-01 9.086773872375488281e+00 3.018352031707763672e+00 -1.185976862907409668e-01
1.824000000000000000e+03 5.425385284423828125e+01 2.737153244018554688e+01 -9.085472226142883301e-01 2.972654342651367188e+00 6.192321181297302246e-01 1.775683045387268066e+00
1.825000000000000000e+03 3.792449569702148438e+01 2.210332870483398438e+01 -5.873065590858459473e-01 2.595298528671264648e+00 6.023975610733032227e-01 -1.011640191078186035e+00
1.826000000000000000e+03 3.454775238037109375e+01 2.118776512145996094e+01 -7.787877917289733887e-01 9.903271198272705078e-01 6.346178799867630005e-02 -5.563306212425231934e-01
1.827000000000000000e+03 4.585123443603515625e+01 5.058720588684082031e+00 1.300122380256652832e+00 1.243292999267578125e+01 4.119915962219238281e+00 1.263201713562011719e+00
1.828000000000000000e+03 4.477743148803710938e+01 2.226262331008911133e+00 1.767434120178222656e+00 1.262927532196044922e+01 4.319013118743896484e+00 1.441376686096191406e+00
1.829000000000000000e+03 2.249148750305175781e+01 -3.879768371582031250e+01 -1.599946245551109314e-02 3.436308205127716064e-01 9.828940778970718384e-02 -2.180890738964080811e-02
1.830000000000000000e+03 2.064016342163085938e+01 -3.366312408447265625e+01 -6.736824512481689453e-01 1.335543394088745117e-01 -1.620384305715560913e-01 -1.794157475233078003e-01
1.831000000000000000e+03 3.015306854248046875e+01 -3.778938674926757812e+01 -5.419829487800598145e-01 2.098128795623779297e+00 4.668437540531158447e-01 7.299127578735351562e-01
1.832000000000000000e+03 7.354924774169921875e+01 -2.334830474853515625e+01 2.954157590866088867e-01 8.272008895874023438e+00 2.570227384567260742e+00 -1.170164942741394043e+00
1.833000000000000000e+03 6.923519134521484375e+01 -2.432977676391601562e+01 -3.263564705848693848e-01 8.569257736206054688e+00 2.472870349884033203e+00 2.261964976787567139e-01
1.834000000000000000e+03 1.980584716796875000e+01 -9.503679275512695312e+00 -7.884612083435058594e-01 1.822868227958679199e+00 3.103221058845520020e-01 2.443832159042358398e-01
1.835000000000000000e+03 6.374231719970703125e+01 2.657478141784667969e+01 -6.883354187011718750e-01 1.756714463233947754e+00 3.205136954784393311e-01 -7.065666913986206055e-01
1.836000000000000000e+03 5.869080352783203125e+01 -7.451143741607666016e+00 -1.359982937574386597e-01 2.689450681209564209e-01 3.988403454422950745e-02 -5.274649336934089661e-02
1.837000000000000000e+03 5.696417236328125000e+01 -2.293670654296875000e+00 1.450683832168579102e+00 1.191547885537147522e-01 4.709515571594238281e-01 7.392270863056182861e-02
1.838000000000000000e+03 4.443269729614257812e+01 -1.431215572357177734e+01 1.435768723487854004e+00 1.000319576263427734e+01 3.431689262390136719e+00 1.393321037292480469e+00
1.839000000000000000e+03 4.276166534423828125e+01 -1.807432746887207031e+01 1.923144102096557617e+00 9.918069839477539062e+00 3.552364349365234375e+00 2.535774111747741699e-01
1.840000000000000000e+03 2.408840751647949219e+01 -2.771018028259277344e+00 4.729033470153808594e+00 1.149972796440124512e+00 1.763701915740966797e+00 -3.096323013305664062e+00
1.841000000000000000e+03 7.049143218994140625e+01 1.060325813293457031e+01 9.425559043884277344e-01 9.283290863037109375e+00 3.067754030227661133e+00 4.207856655120849609e-01
1.842000000000000000e+03 1.471978569030761719e+01 2.835451364517211914e+00 -9.449010342359542847e-02 2.610102415084838867e+00 7.546837329864501953e-01 -1.346128821372985840e+00
1.843000000000000000e+03 1.742104148864746094e+01 7.085483074188232422e+00 1.594476103782653809e+00 8.707242965698242188e+00 3.090515613555908203e+00 -2.432858467102050781e+00
1.844000000000000000e+03 7.705935668945312500e+01 3.920276260375976562e+01 -6.615838501602411270e-03 8.761669158935546875e+00 2.626515865325927734e+00 -1.551953405141830444e-01
1.845000000000000000e+03 7.621224212646484375e+01 3.772428894042968750e+01 -3.527994826436042786e-02 8.391072273254394531e+00 2.506737470626831055e+00 -6.866612285375595093e-02
1.846000000000000000e+03 1.542124366760253906e+01 9.505994796752929688e+00 1.880905508995056152e+00 6.654598712921142578e+00 2.560651302337646484e+00 -1.701253414154052734e+00
1.847000000000000000e+03 5.976633071899414062e+01 2.704580307006835938e+01 -4.759100973606109619e-01 9.480184316635131836e-01 1.416325122117996216e-01 8.352972269058227539e-01
1.848000000000000000e+03 4.310749435424804688e+01 -1.573342609405517578e+01 1.647956490516662598e+00 9.679912567138671875e+00 3.398360729217529297e+00 8.579947948455810547e-01
1.849000000000000000e+03 4.890272140502929688e+01 -7.381360054016113281e+00 -7.879806160926818848e-01 4.955686092376708984e+00 1.250311732292175293e+00 1.402006983757019043e+00
1.850000000000000000e+03 4.685296630859375000e+01 -7.606869697570800781e+00 -1.234203219413757324e+00 7.676203727722167969e+00 1.932600140571594238e+00 1.166192650794982910e+00
1.851000000000000000e+03 1.424552631378173828e+01 -3.023410034179687500e+01 -8.132066130638122559e-01 1.451500654220581055e+00 1.914882063865661621e-01 -1.732319593429565430e-01
1.852000000000000000e+03 1.678748703002929688e+01 -3.037582969665527344e+01 -8.402293920516967773e-01 7.196664214134216309e-01 -3.616888448596000671e-02 -1.587403863668441772e-01
1.853000000000000000e+03 5.083798217773437500e+01 2.628503799438476562e+01 -1.289456963539123535e+00 4.647574424743652344e+00 1.007435202598571777e+00 1.402670025825500488e+00
1.854000000000000000e+03 4.259972381591796875e+01 -2.125621604919433594e+01 2.235567569732666016e+00 9.681869506835937500e+00 3.575231075286865234e+00 -4.044382870197296143e-01
1.855000000000000000e+03 8.149187088012695312e+00 -2.162442970275878906e+01 4.216411113739013672e-01 3.312154531478881836e+00 1.120138645172119141e+00 1.137908458709716797e+00
1.856000000000000000e+03 9.452575683593750000e+00 -2.092474937438964844e+01 6.719304919242858887e-01 4.706552505493164062e+00 1.613544821739196777e+00 8.870408535003662109e-01
1.857000000000000000e+03 2.862694358825683594e+01 -7.471028804779052734e+00 2.006691455841064453e+00 2.020876169204711914e+00 1.208270311355590820e+00 -2.972973585128784180e+00
1.858000000000000000e+03 3.200286102294921875e+01 -7.714510917663574219e+00 1.670460224151611328e+00 1.037212133407592773e+00 8.123016953468322754e-01 -2.974185705184936523e+00
1.859000000000000000e+03 3.190783882141113281e+01 -1.233201980590820312e+01 1.567602038383483887e+00 1.953136324882507324e+00 1.056221485137939453e+00 -2.701428890228271484e+00
1.860000000000000000e+03 4.598728561401367188e+01 5.148929953575134277e-01 1.187191963195800781e+00 1.001016712188720703e+01 3.359207630157470703e+00 3.273108005523681641e-01
1.861000000000000000e+03 1.167311859130859375e+01 -2.769092559814453125e+01 -7.943717241287231445e-01 2.495434522628784180e+00 5.103188753128051758e-01 1.131408214569091797e-01
1.862000000000000000e+03 1.134391403198242188e+01 -2.521062850952148438e+01 -5.177919268608093262e-01 3.252400875091552734e+00 8.203827142715454102e-01 8.540665358304977417e-02
1.863000000000000000e+03 4.559684753417968750e+01 -1.054354667663574219e+01 -1.278139203786849976e-01 9.029097557067871094e+00 2.670385122299194336e+00 1.241015791893005371e+00
1.864000000000000000e+03 4.117366790771484375e+01 -1.142585563659667969e+01 3.574297428131103516e-01 7.800840377807617188e+00 2.447480916976928711e+00 7.672633528709411621e-01
1.865000000000000000e+03 4.759787750244140625e+01 2.031441116333007812e+01 -1.037796437740325928e-01 6.863992214202880859e+00 2.028063774108886719e+00 5.361372828483581543e-01
1.866000000000000000e+03 4.704077148437500000e+01 1.878048896789550781e+01 2.342258393764495850e-01 7.241364479064941406e+00 2.242677211761474609e+00 5.566456913948059082e-01
1.867000000000000000e+03 2.698622703552246094e+01 -6.607780933380126953e+00 3.073368310928344727e+00 1.904924154281616211e+00 1.493487715721130371e+00 -2.582632303237915039e+00
1.868000000000000000e+03 2.548667526245117188e+01 -5.762482643127441406e+00 3.621096134185791016e+00 1.457820057868957520e+00 1.523674845695495605e+00 -2.926028490066528320e+00
1.869000000000000000e+03 6.556427001953125000e+01 3.957367420196533203e+00 1.682822108268737793e-01 4.153094768524169922e+00 1.296413064002990723e+00 1.141882658004760742e+00
1.870000000000000000e+03 5.604579162597656250e+01 -3.706139755249023438e+01 4.782896935939788818e-01 1.606287360191345215e+00 6.253731250762939453e-01 -5.736452341079711914e-01
1.871000000000000000e+03 6.066270065307617188e+01 -3.533740997314453125e+01 3.625612854957580566e-01 1.537614583969116211e+00 5.700527429580688477e-01 2.636579573154449463e-01
1.872000000000000000e+03 7.185354614257812500e+01 1.542664623260498047e+01 1.542743802070617676e+00 9.331398963928222656e+00 3.262243032455444336e+00 5.221722126007080078e-01
1.873000000000000000e+03 5.305546569824218750e+01 -3.506056594848632812e+01 -4.234866425395011902e-02 2.302708864212036133e+00 6.781080961227416992e-01 -1.394160866737365723e+00
1.874000000000000000e+03 3.952843856811523438e+01 -2.225354766845703125e+01 2.135764360427856445e+00 9.370899200439453125e+00 3.451999187469482422e+00 2.232646755874156952e-02
1.875000000000000000e+03 3.669557189941406250e+01 2.120359039306640625e+01 -5.595586895942687988e-01 1.872861385345458984e+00 3.939908146858215332e-01 -8.579025864601135254e-01
1.876000000000000000e+03 3.533680725097656250e+01 2.495974540710449219e+01 -6.145027279853820801e-01 1.754981160163879395e+00 3.421435058116912842e-01 -8.473785519599914551e-01
1.877000000000000000e+03 3.862765502929687500e+01 -3.382075881958007812e+01 -1.351767897605895996e+00 6.242047786712646484e+00 1.467084050178527832e+00 4.001561701297760010e-01
1.878000000000000000e+03 3.107011032104492188e+01 2.306599235534667969e+01 -9.932726621627807617e-01 3.896212279796600342e-01 -1.810954362154006958e-01 -2.251241207122802734e-01
1.879000000000000000e+03 1.543370056152343750e+01 1.803099060058593750e+01 1.022182106971740723e+00 6.092915534973144531e+00 2.134529352188110352e+00 -6.681442260742187500e-01
1.880000000000000000e+03 6.005815505981445312e+01 2.553206062316894531e+01 -1.037432789802551270e+00 3.475069999694824219e-01 -2.069777250289916992e-01 6.318076252937316895e-01
1.881000000000000000e+03 8.743669509887695312e+00 -1.839879035949707031e+01 1.265066146850585938e+00 4.361625671386718750e+00 1.688007473945617676e+00 8.615540862083435059e-01
1.882000000000000000e+03 4.033628940582275391e+00 -1.772566032409667969e+01 4.989564716815948486e-01 2.861681580543518066e-01 2.355373948812484741e-01 4.648013412952423096e-01
1.883000000000000000e+03 4.543636703491210938e+01 -1.075635433197021484e+00 7.705139517784118652e-01 9.758090019226074219e+00 3.158581256866455078e+00 3.529783189296722412e-01
1.884000000000000000e+03 7.122109222412109375e+01 -1.584705162048339844e+01 1.515762925148010254e+00 1.003635787963867188e+01 3.465636014938354492e+00 2.943064868450164795e-01
1.885000000000000000e+03 4.377569198608398438e+01 1.025188732147216797e+01 6.814258098602294922e-01 1.047212982177734375e+01 3.346066474914550781e+00 3.308153748512268066e-01
1.886000000000000000e+03 7.179342651367187500e+01 1.442719650268554688e+01 1.281744956970214844e+00 9.756567001342773438e+00 3.311493396759033203e+00 3.756989836692810059e-01
1.887000000000000000e+03 3.217432403564453125e+01 -3.457349014282226562e+01 -7.513911724090576172e-01 3.083559274673461914e+00 6.996504068374633789e-01 1.303912878036499023e+00
1.888000000000000000e+03 5.590174865722656250e+01 -2.179743051528930664e+00 1.599061131477355957e+00 6.513331830501556396e-02 4.992583394050598145e-01 1.419341713190078735e-01
1.889000000000000000e+03 4.677621078491210938e+01 -9.428463935852050781e+00 -6.411890983581542969e-01 8.137702941894531250e+00 2.248954057693481445e+00 1.419426918029785156e+00
1.890000000000000000e+03 4.167910385131835938e+01 -9.509444236755371094e+00 -5.205195546150207520e-01 7.954593181610107422e+00 2.230221986770629883e+00 1.114055037498474121e+00
1.891000000000000000e+03 7.404228210449218750e+01 9.380704879760742188e+00 2.609921097755432129e-01 7.991046905517578125e+00 2.475611686706542969e+00 -5.081500411033630371e-01
1.892000000000000000e+03 3.781484222412109375e+01 -2.937771034240722656e+01 -1.916070580482482910e-01 7.135739326477050781e+00 2.083239793777465820e+00 6.272646784782409668e-01
1.893000000000000000e+03 5.309370803833007812e+01 -3.238926410675048828e+00 1.595114946365356445e+00 5.942373871803283691e-01 6.568056941032409668e-01 1.798602491617202759e-01
1.894000000000000000e+03 4.906333541870117188e+01 1.987893486022949219e+01 3.974860608577728271e-01 7.169319152832031250e+00 2.270041465759277344e+00 1.109938383102416992e+00
1.895000000000000000e+03 1.666801452636718750e+01 -3.165337371826171875e+01 -8.077154159545898438e-01 7.532391548156738281e-01 -1.634286902844905853e-02 -2.217601388692855835e-01
1.896000000000000000e+03 6.506649017333984375e+01 -8.952143669128417969e+00 -1.704019904136657715e-01 3.320829391479492188e+00 9.451282024383544922e-01 -1.293455481529235840e+00
1.897000000000000000e+03 6.502297973632812500e+01 -7.539106845855712891e+00 -1.428464204072952271e-01 3.461375236511230469e+00 9.955586194992065430e-01 -1.106993913650512695e+00
1.898000000000000000e+03 4.282979965209960938e+01 -6.943032741546630859e+00 -1.556342363357543945e+00 8.971152305603027344e+00 2.224442958831787109e+00 1.262879014015197754e+00
1.899000000000000000e+03 4.941430282592773438e+01 -4.765525817871093750e+00 1.997430622577667236e-01 4.169084548950195312e+00 1.310648202896118164e+00 5.204744338989257812e-01
1.900000000000000000e+03 5.668693923950195312e+01 -4.628897666931152344e+00 8.206274509429931641e-01 -5.923242866992950439e-02 2.284185141324996948e-01 -1.736421436071395874e-01
1.901000000000000000e+03 5.673873519897460938e+01 -1.346414208412170410e+00 1.641200542449951172e+00 1.486395597457885742e-01 5.369520187377929688e-01 1.958112567663192749e-01
1.902000000000000000e+03 7.113765716552734375e+01 9.409019470214843750e+00 3.703312277793884277e-01 8.475579261779785156e+00 2.653773307800292969e+00 -3.817885369062423706e-02
1.903000000000000000e+03 5.793908596038818359e+00 -2.488221549987792969e+01 -2.019981741905212402e-01 1.916899323463439941e+00 5.144703388214111328e-01 1.216729521751403809e+00
1.904000000000000000e+03 3.905928421020507812e+01 -2.769623947143554688e+01 6.478117108345031738e-01 7.823728561401367188e+00 2.541462182998657227e+00 2.534959018230438232e-01
1.905000000000000000e+03 3.755196380615234375e+01 -2.694209098815917969e+01 1.153113722801208496e+00 8.105615615844726562e+00 2.777618885040283203e+00 8.918284177780151367e-01
1.906000000000000000e+03 3.667779922485351562e+01 -3.298257827758789062e+01 -1.183227777481079102e+00 5.900588512420654297e+00 1.415208220481872559e+00 8.964024782180786133e-01
1.907000000000000000e+03 3.502750778198242188e+01 -3.211202239990234375e+01 -8.587532043457031250e-01 5.171630382537841797e+00 1.293863177299499512e+00 1.274346590042114258e+00
1.908000000000000000e+03 4.390743255615234375e+01 9.055463790893554688e+00 1.009355187416076660e+00 1.166366386413574219e+01 3.801905632019042969e+00 3.974611759185791016e-01
1.909000000000000000e+03 4.653509902954101562e+01 9.890854835510253906e+00 9.254962801933288574e-01 1.151265144348144531e+01 3.731444358825683594e+00 1.935962796211242676e+00
1.910000000000000000e+03 4.363771438598632812e+01 -2.361776924133300781e+01 2.281234741210937500e+00 9.288225173950195312e+00 3.470837831497192383e+00 -8.838708996772766113e-01
1.911000000000000000e+03 3.998442077636718750e+01 -2.349962425231933594e+01 2.024467706680297852e+00 8.901835441589355469e+00 3.277890920639038086e+00 1.354454010725021362e-01
1.912000000000000000e+03 2.410737228393554688e+01 2.724004364013671875e+01 -4.491865336894989014e-01 1.028359413146972656e+00 1.737518459558486938e-01 7.524592876434326172e-01
1.913000000000000000e+03 4.778987884521484375e+01 -6.632850646972656250e+00 -9.679493904113769531e-01 6.568443298339843750e+00 1.680148124694824219e+00 1.034795761108398438e+00
1.914000000000000000e+03 4.160561752319335938e+01 -2.655755233764648438e+01 1.071184992790222168e+00 8.112544059753417969e+00 2.755118608474731445e+00 -2.731452286243438721e-01
1.915000000000000000e+03 3.877661895751953125e+01 -2.436058235168457031e+01 1.996970176696777344e+00 9.198650360107421875e+00 3.358686208724975586e+00 5.752671957015991211e-01
1.916000000000000000e+03 7.170671081542968750e+01 -5.936230659484863281e+00 -6.934357881546020508e-01 7.098979473114013672e+00 1.921663165092468262e+00 1.068039238452911377e-01
1.917000000000000000e+03 7.054991912841796875e+01 -1.483695983886718750e+01 1.251736283302307129e+00 9.914811134338378906e+00 3.349964141845703125e+00 1.648119091987609863e-01
1.918000000000000000e+03 7.053028869628906250e+01 -1.104865741729736328e+01 -5.437580347061157227e-01 8.455725669860839844e+00 2.373590230941772461e+00 1.130362749099731445e-01
1.919000000000000000e+03 5.982419204711914062e+01 -3.356673049926757812e+01 -8.126075565814971924e-02 8.037200570106506348e-01 2.167377918958663940e-01 2.235219627618789673e-01
1.920000000000000000e+03 6.219715881347656250e+01 -3.642420578002929688e+01 3.951915800571441650e-01 2.269135236740112305e+00 7.992980480194091797e-01 3.535139858722686768e-01
1.921000000000000000e+03 2.305190849304199219e+01 -1.087686634063720703e+01 -1.060578942298889160e+00 1.237671613693237305e+00 5.312778055667877197e-02 -1.000255227088928223e+00
1.922000000000000000e+03 6.955609130859375000e+01 2.209596443176269531e+01 -1.536718010902404785e+00 8.544852256774902344e+00 2.102440118789672852e+00 3.755124285817146301e-02
1.923000000000000000e+03 4.167858505249023438e+01 -6.390644550323486328e+00 -1.499939918518066406e+00 8.524193763732910156e+00 2.107276201248168945e+00 1.804193258285522461e+00
1.924000000000000000e+03 4.295405960083007812e+01 -3.557098150253295898e+00 -7.130630612373352051e-01 1.044268226623535156e+01 2.918885707855224609e+00 1.577434062957763672e+00
1.925000000000000000e+03 7.771050930023193359e+00 -1.621047782897949219e+01 1.348048567771911621e+00 2.979097604751586914e+00 1.298143863677978516e+00 4.590540528297424316e-01
1.926000000000000000e+03 8.321012496948242188e+00 -1.729060935974121094e+01 1.451793193817138672e+00 3.776524543762207031e+00 1.568495273590087891e+00 8.634679913520812988e-01
1.927000000000000000e+03 1.043849277496337891e+01 -2.754512214660644531e+01 -7.911676764488220215e-01 2.659728527069091797e+00 5.605682134628295898e-01 3.276474475860595703e-01
1.928000000000000000e+03 7.238830566406250000e+01 -2.011241149902343750e+01 1.441074013710021973e+00 8.860906600952148438e+00 3.090594291687011719e+00 -5.858572721481323242e-01
1.929000000000000000e+03 4.467096710205078125e+01 -5.112206935882568359e+00 -1.335038423538208008e+00 9.094125747680664062e+00 2.327726125717163086e+00 7.730280756950378418e-01
1.930000000000000000e+03 4.525151824951171875e+01 -3.108301353454589844e+01 -7.208622694015502930e-01 6.404241561889648438e+00 1.705013871192932129e+00 -1.189446806907653809e+00
1.931000000000000000e+03 4.871349716186523438e+01 -3.270195770263671875e+01 -5.836664438247680664e-01 4.532950401306152344e+00 1.184785246849060059e+00 -1.969002008438110352e+00
1.932000000000000000e+03 1.431940460205078125e+01 1.808164596557617188e+01 9.329330325126647949e-01 5.397925853729248047e+00 1.899257540702819824e+00 -1.010820388793945312e+00
1.933000000000000000e+03 4.036381912231445312e+01 -7.201221466064453125e+00 -1.042794466018676758e+00 6.801571369171142578e+00 1.727632999420166016e+00 1.802770137786865234e+00
1.934000000000000000e+03 4.319952011108398438e+01 -5.830469608306884766e+00 -1.549233913421630859e+00 9.290365219116210938e+00 2.322339534759521484e+00 1.200816631317138672e+00
1.935000000000000000e+03 1.886437416076660156e+01 2.067144155502319336e+00 -1.787332892417907715e+00 1.062030410766601562e+01 2.649891376495361328e+00 -3.694252014160156250e+00
1.936000000000000000e+03 1.743069648742675781e+01 1.458084702491760254e+00 -5.425205826759338379e-01 6.580425739288330078e+00 1.811371564865112305e+00 -4.327039241790771484e+00
1.937000000000000000e+03 1.805153846740722656e+01 -3.426445484161376953e+00 3.947346687316894531e+00 6.701399326324462891e+00 3.194623947143554688e+00 4.494657993316650391e+00
1.938000000000000000e+03 1.812228584289550781e+01 7.322297096252441406e-01 -4.280006289482116699e-01 8.948815345764160156e+00 2.556244373321533203e+00 -5.276726722717285156e+00
1.939000000000000000e+03 1.607486915588378906e+01 -3.439074277877807617e+00 3.191846609115600586e+00 7.788814306259155273e-01 1.191218376159667969e+00 2.288046598434448242e+00
1.940000000000000000e+03 1.878130912780761719e+01 9.824743270874023438e-01 -1.425398588180541992e+00 1.164971637725830078e+01 3.067295312881469727e+00 -4.373821258544921875e+00
1.941000000000000000e+03 1.910399627685546875e+01 -4.063154697418212891e+00 2.071985244750976562e+00 9.307534217834472656e+00 3.413856029510498047e+00 1.425748944282531738e+00
1.942000000000000000e+03 1.903815269470214844e+01 6.770699620246887207e-01 -1.431124925613403320e+00 1.366387748718261719e+01 3.669825792312622070e+00 -3.973782062530517578e+00
1.943000000000000000e+03 1.025372123718261719e+01 -4.593200206756591797e+00 1.550864428281784058e-01 6.329791545867919922e-01 2.364196777343750000e-01 5.894382596015930176e-01
1.944000000000000000e+03 9.608556747436523438e+00 -4.647105693817138672e+00 6.246036663651466370e-02 6.423526406288146973e-01 2.114439010620117188e-01 4.367372989654541016e-01
1.945000000000000000e+03 1.267467880249023438e+01 -4.021083354949951172e+00 9.030194282531738281e-01 3.636785149574279785e-01 3.800093829631805420e-01 1.176885008811950684e+00
1.946000000000000000e+03 1.312705326080322266e+01 -4.615075588226318359e+00 1.150943040847778320e+00 5.666356086730957031e-01 5.152736306190490723e-01 1.627676844596862793e+00
1.947000000000000000e+03 1.084864521026611328e+01 -3.937967300415039062e+00 2.306901216506958008e-01 4.398538768291473389e-01 2.011632025241851807e-01 6.086995601654052734e-01
1.948000000000000000e+03 1.260624790191650391e+01 -4.557412624359130859e+00 9.083184599876403809e-01 5.337412953376770020e-01 4.326179325580596924e-01 1.380324840545654297e+00
1.949000000000000000e+03 1.767851448059082031e+01 6.098583698272705078e+00 1.191480755805969238e+00 8.709877014160156250e+00 2.970407247543334961e+00 -2.661046981811523438e+00
1.950000000000000000e+03 1.590933322906494141e+01 -4.030706882476806641e+00 2.878392934799194336e+00 1.157822489738464355e+00 1.210864663124084473e+00 2.654677391052246094e+00
1.951000000000000000e+03 8.940287590026855469e+00 -4.710723876953125000e+00 -4.062542319297790527e-02 6.243352293968200684e-01 1.751129329204559326e-01 2.432986348867416382e-01
1.952000000000000000e+03 1.087441635131835938e+01 -4.548600196838378906e+00 3.090324401855468750e-01 6.269612908363342285e-01 2.807981073856353760e-01 7.982451915740966797e-01
1.953000000000000000e+03 6.813682556152343750e+00 -4.980731487274169922e+00 -1.303797513246536255e-01 4.335929155349731445e-01 9.096394479274749756e-02 -1.891489773988723755e-01
1.954000000000000000e+03 5.222736835479736328e+00 -4.227584362030029297e+00 -1.700838357210159302e-01 1.273304522037506104e-01 -1.282601244747638702e-02 -3.596566915512084961e-01
1.955000000000000000e+03 1.147545528411865234e+01 -4.521944046020507812e+00 4.717747569084167480e-01 5.829804539680480957e-01 3.164265751838684082e-01 9.634357690811157227e-01
1.956000000000000000e+03 1.525381851196289062e+01 2.560372352600097656e+00 -2.263608425855636597e-01 3.064618349075317383e+00 8.514772653579711914e-01 -1.806227684020996094e+00
1.957000000000000000e+03 6.694268226623535156e+00 -4.163991451263427734e+00 -1.956843733787536621e-01 3.090680539608001709e-01 3.401510044932365417e-02 -2.166048139333724976e-01
1.958000000000000000e+03 6.077152252197265625e+00 -5.069708824157714844e+00 -1.436696350574493408e-01 3.421438336372375488e-01 5.954226106405258179e-02 -2.922587692737579346e-01
1.959000000000000000e+03 6.698171615600585938e+00 4.166617393493652344e+00 -2.141236215829849243e-01 -1.771887987852096558e-01 -1.173937246203422546e-01 1.062928199768066406e+00
1.960000000000000000e+03 5.320257186889648438e+00 5.319371223449707031e+00 5.202518031001091003e-02 -3.605382144451141357e-01 -9.255391359329223633e-02 9.851317405700683594e-01
1.961000000000000000e+03 6.088860511779785156e+00 7.219422817230224609e+00 4.901376068592071533e-01 -2.211420387029647827e-01 8.069866895675659180e-02 7.808158993721008301e-01
1.962000000000000000e+03 3.587119102478027344e+00 4.490691184997558594e+00 -1.117221638560295105e-01 -5.292765498161315918e-01 -1.922996044158935547e-01 8.336006402969360352e-01
1.963000000000000000e+03 2.125746536254882812e+01 -4.006855964660644531e+00 3.653738260269165039e+00 6.737416267395019531e+00 3.117346286773681641e+00 -3.293557643890380859e+00
1.964000000000000000e+03 2.158659934997558594e+01 -3.553270578384399414e+00 4.703901767730712891e+00 6.474059581756591797e+00 3.353388547897338867e+00 -4.070378780364990234e+00
1.965000000000000000e+03 1.232881259918212891e+01 3.600752592086791992e+00 6.824991665780544281e-03 1.017244219779968262e+00 3.072207570075988770e-01 -7.289109379053115845e-02
1.966000000000000000e+03 9.280542373657226562e+00 4.833570003509521484e+00 2.811926603317260742e-01 2.350189983844757080e-01 1.548634916543960571e-01 7.539335489273071289e-01
1.967000000000000000e+03 9.918148994445800781e+00 3.886390209197998047e+00 -1.509638875722885132e-01 1.721847057342529297e-01 6.366246379911899567e-03 7.503207325935363770e-01
1.968000000000000000e+03 6.054322242736816406e+00 4.957768440246582031e+00 -2.568419789895415306e-03 -2.599687874317169189e-01 -7.876116037368774414e-02 1.020568013191223145e+00
1.969000000000000000e+03 1.069445800781250000e+01 3.760543346405029297e+00 -1.275494992733001709e-01 3.669388890266418457e-01 7.181680947542190552e-02 5.097115039825439453e-01
1.970000000000000000e+03 1.426346683502197266e+01 4.035237789154052734e+00 4.726635217666625977e-01 2.890455961227416992e+00 1.008935809135437012e+00 -1.182770848274230957e+00
1.971000000000000000e+03 1.327984809875488281e+01 4.304102897644042969e+00 5.426815152168273926e-01 2.047828435897827148e+00 7.771530151367187500e-01 -6.456765532493591309e-01
1.972000000000000000e+03 2.072301483154296875e+01 1.317514538764953613e+00 -1.248601675033569336e+00 1.014472007751464844e+01 2.668835401535034180e+00 -1.048438191413879395e+00
1.973000000000000000e+03 1.584650325775146484e+01 2.442390441894531250e+00 -2.589121460914611816e-01 3.895976781845092773e+00 1.091119408607482910e+00 -2.298260688781738281e+00
1.974000000000000000e+03 1.463693046569824219e+01 4.771929264068603516e+00 8.053976297378540039e-01 3.731424570083618164e+00 1.361046671867370605e+00 -1.347902536392211914e+00
1.975000000000000000e+03 2.092096138000488281e+01 -4.862837314605712891e+00 2.269222259521484375e+00 6.559429168701171875e+00 2.648595333099365234e+00 -2.260760307312011719e+00
1.976000000000000000e+03 1.857643699645996094e+01 4.254300594329833984e+00 -6.182891130447387695e-02 9.366773605346679688e+00 2.791483402252197266e+00 -2.841463327407836914e+00
1.977000000000000000e+03 7.565083503723144531e+00 6.306847095489501953e+00 5.422228574752807617e-01 5.501228198409080505e-02 1.791705340147018433e-01 8.186947107315063477e-01
1.978000000000000000e+03 1.233718681335449219e+01 4.374251842498779297e+00 4.552992880344390869e-01 1.369368672370910645e+00 5.474004149436950684e-01 -1.851423829793930054e-01
1.979000000000000000e+03 1.148647594451904297e+01 4.411488533020019531e+00 3.365712463855743408e-01 8.702903985977172852e-01 3.620585203170776367e-01 1.611852943897247314e-01
1.980000000000000000e+03 1.681010627746582031e+01 5.981549263000488281e+00 1.153123259544372559e+00 7.289236545562744141e+00 2.532707929611206055e+00 -2.178877592086791992e+00
1.981000000000000000e+03 1.662636375427246094e+01 2.957571268081665039e+00 -2.849176228046417236e-01 5.784582138061523438e+00 1.649899363517761230e+00 -2.907657861709594727e+00
1.982000000000000000e+03 2.455529975891113281e+01 -6.945031642913818359e+00 2.447902917861938477e+00 1.916030168533325195e+00 1.309179902076721191e+00 -2.796173095703125000e+00
1.983000000000000000e+03 1.589706516265869141e+01 3.072871208190917969e+00 -4.676337540149688721e-02 4.558107376098632812e+00 1.353403210639953613e+00 -2.293463706970214844e+00
1.984000000000000000e+03 1.672992706298828125e+01 4.561491966247558594e+00 4.261045753955841064e-01 6.690494060516357422e+00 2.134979486465454102e+00 -2.408972263336181641e+00
1.985000000000000000e+03 1.144542312622070312e+01 -1.052304553985595703e+01 -4.425024390220642090e-01 3.861843585968017578e+00 1.025802373886108398e+00 1.533940434455871582e+00
1.986000000000000000e+03 2.068342590332031250e+01 -4.218335628509521484e+00 2.822389364242553711e+00 7.777103900909423828e+00 3.179847955703735352e+00 -2.597796201705932617e+00
1.987000000000000000e+03 2.180393218994140625e+01 -5.350882053375244141e+00 2.501191139221191406e+00 4.692973136901855469e+00 2.158249378204345703e+00 -2.822504520416259766e+00
1.988000000000000000e+03 8.772301673889160156e+00 -6.993300437927246094e+00 -1.128583699464797974e-01 1.325398802757263184e+00 3.637621104717254639e-01 3.323978781700134277e-01
1.989000000000000000e+03 8.389815330505371094e+00 4.879548072814941406e+00 1.870274245738983154e-01 6.802743673324584961e-02 7.651645690202713013e-02 8.959272503852844238e-01
1.990000000000000000e+03 9.296158790588378906e+00 -1.390826797485351562e+01 9.953309893608093262e-01 4.101648807525634766e+00 1.529093861579895020e+00 2.709772288799285889e-01
1.991000000000000000e+03 1.109648704528808594e+01 -1.256928634643554688e+01 2.166232168674468994e-01 4.720197200775146484e+00 1.481046199798583984e+00 9.004959464073181152e-01
1.992000000000000000e+03 6.055916595458984375e+01 -6.492103576660156250e+00 3.323991596698760986e-01 7.853314876556396484e-01 3.353191912174224854e-01 -3.354346752166748047e-01
1.993000000000000000e+03 2.110826110839843750e+01 -1.038884830474853516e+01 -1.259641647338867188e+00 1.417111992835998535e+00 4.724107310175895691e-02 -3.119274973869323730e-01
1.994000000000000000e+03 2.582977867126464844e+01 -9.151327133178710938e+00 1.071567535400390625e+00 1.520616531372070312e+00 7.776552438735961914e-01 -2.378073215484619141e+00
1.995000000000000000e+03 3.440402984619140625e+01 -1.382650566101074219e+01 2.007442951202392578e+00 4.616410255432128906e+00 1.987155914306640625e+00 -2.544221162796020508e+00
1.996000000000000000e+03 4.080694198608398438e+01 1.851618766784667969e+01 -2.142101824283599854e-01 4.163555145263671875e+00 1.184803485870361328e+00 -1.028784990310668945e+00
1.997000000000000000e+03 4.293325805664062500e+01 -8.937451362609863281e+00 -1.031737446784973145e+00 8.659726142883300781e+00 2.288396596908569336e+00 1.127994418144226074e+00
1.998000000000000000e+03 4.587849807739257812e+01 -8.592762947082519531e+00 -1.159310698509216309e+00 8.608044624328613281e+00 2.234620094299316406e+00 1.061633944511413574e+00
1.999000000000000000e+03 4.098050308227539062e+01 -1.991969108581542969e+01 2.432732343673706055e+00 9.080539703369140625e+00 3.453981637954711914e+00 -8.732353150844573975e-02
2.000000000000000000e+03 3.714070892333984375e+01 -1.548966693878173828e+01 2.243011951446533203e+00 7.549008369445800781e+00 2.937606096267700195e+00 -1.132431387901306152e+00
2.001000000000000000e+03 5.792941665649414062e+01 -4.645896434783935547e+00 8.161339759826660156e-01 2.104877382516860962e-01 3.079865276813507080e-01 -1.558134704828262329e-01
2.002000000000000000e+03 4.741732025146484375e+01 -3.344363570213317871e-01 9.627673625946044922e-01 7.805105686187744141e+00 2.630361795425415039e+00 -4.143101572990417480e-01
2.003000000000000000e+03 7.069013214111328125e+01 7.643794059753417969e+00 -9.675540030002593994e-03 7.903162479400634766e+00 2.368046045303344727e+00 8.049234002828598022e-02
2.004000000000000000e+03 6.858322143554687500e+01 6.338763236999511719e+00 -1.199925988912582397e-01 6.927019596099853516e+00 2.042108058929443359e+00 8.551806211471557617e-01
2.005000000000000000e+03 2.987341308593750000e+01 -7.116493225097656250e+00 2.082460403442382812e+00 1.764367699623107910e+00 1.154048442840576172e+00 -3.053914785385131836e+00
2.006000000000000000e+03 4.452375411987304688e+01 1.449380588531494141e+01 2.814267575740814209e-01 7.982629776000976562e+00 2.479217052459716797e+00 2.314542382955551147e-01
2.007000000000000000e+03 1.775658607482910156e+01 -9.714330673217773438e+00 -5.665961503982543945e-01 8.527997732162475586e-01 8.586108684539794922e-02 2.147962570190429688e+00
2.008000000000000000e+03 1.480118656158447266e+01 -1.001420879364013672e+01 -7.361200451850891113e-01 2.142603397369384766e+00 4.219450354576110840e-01 3.529121637344360352e+00
2.009000000000000000e+03 1.578458309173583984e+01 -1.007541370391845703e+01 -7.472195029258728027e-01 1.254220604896545410e+00 1.521003246307373047e-01 3.221079826354980469e+00
2.010000000000000000e+03 1.859518051147460938e+01 -9.321968078613281250e+00 -6.100916862487792969e-01 1.352150321006774902e+00 2.226175963878631592e-01 1.245677471160888672e+00
2.011000000000000000e+03 6.032782363891601562e+01 -1.063792467117309570e+00 1.140234827995300293e+00 9.254856109619140625e-01 6.197161078453063965e-01 1.678999662399291992e-01
2.012000000000000000e+03 6.668241119384765625e+01 -6.667779445648193359e+00 -4.524343609809875488e-01 4.737868785858154297e+00 1.285630345344543457e+00 -8.572621941566467285e-01
2.013000000000000000e+03 6.167923736572265625e+01 -7.189585685729980469e+00 2.260632067918777466e-01 1.147220253944396973e+00 4.119850397109985352e-01 -4.920569658279418945e-01
2.014000000000000000e+03 6.371446609497070312e+01 -3.072318315505981445e+00 4.120771884918212891e-01 2.703823566436767578e+00 9.347702264785766602e-01 -1.895949542522430420e-01
2.015000000000000000e+03 3.715665435791015625e+01 -9.076942443847656250e+00 5.854429602622985840e-01 4.035995483398437500e+00 1.386431455612182617e+00 7.594098895788192749e-02
2.016000000000000000e+03 3.716794204711914062e+01 -8.080734252929687500e+00 5.096493959426879883e-01 3.391141653060913086e+00 1.170237302780151367e+00 2.943771779537200928e-01
2.017000000000000000e+03 4.685578536987304688e+01 1.514148807525634766e+01 8.309761285781860352e-01 9.161967277526855469e+00 2.997882843017578125e+00 1.480083584785461426e+00
2.018000000000000000e+03 7.474724578857421875e+01 3.263267517089843750e+01 -1.114836931228637695e-01 7.832825183868408203e+00 2.316402435302734375e+00 -2.319713979959487915e-01
2.019000000000000000e+03 2.996426391601562500e+01 -1.022868251800537109e+01 1.273454308509826660e+00 1.497474670410156250e+00 8.312786817550659180e-01 -3.081774711608886719e+00
2.020000000000000000e+03 7.283174133300781250e+01 -3.165158462524414062e+01 -5.642719268798828125e-01 7.240224838256835938e+00 2.002785921096801758e+00 -2.085828036069869995e-01
2.021000000000000000e+03 2.056728935241699219e+01 -9.331043243408203125e+00 -5.527493357658386230e-01 2.020661592483520508e+00 4.403736889362335205e-01 -2.081469446420669556e-01
2.022000000000000000e+03 2.031735992431640625e+01 -1.004568958282470703e+01 -1.221093416213989258e+00 1.533538937568664551e+00 9.373368322849273682e-02 2.693678438663482666e-02
2.023000000000000000e+03 7.363983154296875000e+01 -2.966499519348144531e+01 -6.138809323310852051e-01 7.569226741790771484e+00 2.086603641510009766e+00 -4.813101887702941895e-01
2.024000000000000000e+03 7.550117492675781250e+01 2.403627777099609375e+01 -4.183198213577270508e-01 8.441082954406738281e+00 2.406828880310058594e+00 7.772030234336853027e-01
2.025000000000000000e+03 7.455996704101562500e+01 1.757573699951171875e+01 7.009690999984741211e-01 8.135246276855468750e+00 2.650864601135253906e+00 9.661779999732971191e-01
2.026000000000000000e+03 7.483052825927734375e+01 2.014024925231933594e+01 1.751571893692016602e-01 8.350237846374511719e+00 2.557618379592895508e+00 1.209987163543701172e+00
2.027000000000000000e+03 7.557906341552734375e+01 -2.331470489501953125e+01 2.127628475427627563e-01 7.471045017242431641e+00 2.305142402648925781e+00 -1.065521836280822754e+00
2.028000000000000000e+03 7.082212066650390625e+01 -2.250664329528808594e+01 9.403212070465087891e-01 9.489295959472656250e+00 3.128885269165039062e+00 -8.034694790840148926e-01
2.029000000000000000e+03 7.548885345458984375e+01 -2.067207908630371094e+01 6.131504774093627930e-01 7.290019512176513672e+00 2.370951175689697266e+00 -6.759548187255859375e-01
2.030000000000000000e+03 7.536147308349609375e+01 1.271818542480468750e+01 5.449247956275939941e-01 7.673527240753173828e+00 2.465535640716552734e+00 -9.829793125391006470e-02
2.031000000000000000e+03 7.297687530517578125e+01 1.517701339721679688e+01 1.083082914352416992e+00 8.904558181762695312e+00 2.996292352676391602e+00 4.778188169002532959e-01
2.032000000000000000e+03 7.587139892578125000e+01 -1.406782913208007812e+01 2.861040532588958740e-01 7.166118144989013672e+00 2.235666751861572266e+00 8.292520046234130859e-01
2.033000000000000000e+03 7.395796203613281250e+01 -1.615020561218261719e+01 1.047343611717224121e+00 7.945538043975830078e+00 2.697864532470703125e+00 5.357130765914916992e-01
2.034000000000000000e+03 7.587952423095703125e+01 1.010556221008300781e+01 2.147236615419387817e-01 7.512062549591064453e+00 2.318035840988159180e+00 -4.838431477546691895e-01
2.035000000000000000e+03 7.422087097167968750e+01 2.413045167922973633e-01 -3.597360849380493164e-01 7.358072757720947266e+00 2.099500894546508789e+00 -1.285236477851867676e-01
2.036000000000000000e+03 7.421290588378906250e+01 1.607790827751159668e+00 -3.370625674724578857e-01 7.373627185821533203e+00 2.110969305038452148e+00 -2.411681860685348511e-01
2.037000000000000000e+03 7.551937866210937500e+01 2.890130043029785156e+00 -2.202627062797546387e-01 7.571227550506591797e+00 2.205289363861083984e+00 -3.804985880851745605e-01
2.038000000000000000e+03 7.446555328369140625e+01 6.628266811370849609e+00 -1.139285042881965637e-01 7.676747798919677734e+00 2.268845796585083008e+00 -5.465052127838134766e-01
2.039000000000000000e+03 7.459111785888671875e+01 1.100052928924560547e+01 4.520683884620666504e-01 7.935317993164062500e+00 2.516215801239013672e+00 -3.717662990093231201e-01
2.040000000000000000e+03 7.425389099121093750e+01 -2.625242471694946289e+00 -4.080315828323364258e-01 7.348613262176513672e+00 2.082174539566040039e+00 9.595308452844619751e-02
2.041000000000000000e+03 7.442809295654296875e+01 -4.061096668243408203e+00 -4.016077518463134766e-01 7.397853851318359375e+00 2.098873853683471680e+00 2.176800072193145752e-01
2.042000000000000000e+03 7.468574523925781250e+01 -5.381580352783203125e+00 -4.330279827117919922e-01 7.490363121032714844e+00 2.117200613021850586e+00 3.570793569087982178e-01
2.043000000000000000e+03 7.492980194091796875e+01 5.080248355865478516e+00 -1.838617324829101562e-01 7.580893516540527344e+00 2.219109535217285156e+00 -5.027940869331359863e-01
2.044000000000000000e+03 7.286477661132812500e+01 2.961130380630493164e+00 -3.880074620246887207e-01 7.267954826354980469e+00 2.063984394073486328e+00 -2.386646121740341187e-01
2.045000000000000000e+03 7.302013397216796875e+01 -9.207199096679687500e+00 -5.430147051811218262e-01 7.848411560058593750e+00 2.191619157791137695e+00 6.323236823081970215e-01
2.046000000000000000e+03 7.569077301025390625e+01 -1.273541259765625000e+01 1.242108941078186035e-01 7.340186119079589844e+00 2.239319086074829102e+00 9.377855658531188965e-01
2.047000000000000000e+03 7.270945739746093750e+01 -1.896441459655761719e+01 1.649067282676696777e+00 8.822977066040039062e+00 3.141613245010375977e+00 -2.932093441486358643e-01
2.048000000000000000e+03 7.432545471191406250e+01 -2.099045944213867188e+01 8.362774252891540527e-01 7.779056072235107422e+00 2.584599971771240234e+00 -8.720946907997131348e-01
2.049000000000000000e+03 7.601438140869140625e+01 1.864793586730957031e+01 3.173697292804718018e-01 7.843439579010009766e+00 2.448242902755737305e+00 9.598929882049560547e-01
2.050000000000000000e+03 7.257179260253906250e+01 1.887475776672363281e+01 7.301656603813171387e-01 8.902517318725585938e+00 2.889804840087890625e+00 1.221367239952087402e+00
2.051000000000000000e+03 7.365232086181640625e+01 1.828604698181152344e+01 7.175778746604919434e-01 8.604948043823242188e+00 2.796757698059082031e+00 1.050058364868164062e+00
2.052000000000000000e+03 6.989059448242187500e+01 2.499305343627929688e+01 -1.613636851310729980e+00 7.361728191375732422e+00 1.724427461624145508e+00 -4.718283414840698242e-01
2.053000000000000000e+03 7.216864013671875000e+01 -2.127968025207519531e+01 1.220792412757873535e+00 9.021069526672363281e+00 3.072558403015136719e+00 -9.034100174903869629e-01
2.054000000000000000e+03 7.413904571533203125e+01 -2.424455451965332031e+01 1.426981482654809952e-02 7.988657474517822266e+00 2.400878190994262695e+00 -1.171590566635131836e+00
2.055000000000000000e+03 7.341862487792968750e+01 4.817064762115478516e+00 -2.946679592132568359e-01 7.508480072021484375e+00 2.164143562316894531e+00 -3.594088256359100342e-01
2.056000000000000000e+03 7.415418243408203125e+01 -9.430088043212890625e+00 -3.533675968647003174e-01 7.734076023101806641e+00 2.214212417602539062e+00 8.245449662208557129e-01
2.057000000000000000e+03 7.391905975341796875e+01 2.876960754394531250e+01 -5.008644461631774902e-01 7.908591270446777344e+00 2.222317934036254883e+00 -2.423726255074143410e-03
2.058000000000000000e+03 7.359252166748046875e+01 -2.647036933898925781e+01 -4.544537365436553955e-01 7.933364391326904297e+00 2.243673086166381836e+00 -9.403985738754272461e-01
2.059000000000000000e+03 7.277767944335937500e+01 -1.018152618408203125e+01 -3.971963822841644287e-01 7.933995723724365234e+00 2.261039733886718750e+00 7.316147089004516602e-01
2.060000000000000000e+03 7.297246551513671875e+01 1.164307498931884766e+01 7.908674478530883789e-01 8.580741882324218750e+00 2.811482667922973633e+00 -1.377151757478713989e-01
2.061000000000000000e+03 7.354111480712890625e+01 1.335833549499511719e+01 9.222400784492492676e-01 8.470139503479003906e+00 2.817713975906372070e+00 1.293552964925765991e-01
2.062000000000000000e+03 7.321861267089843750e+01 2.766067695617675781e+01 -6.815716028213500977e-01 7.795373916625976562e+00 2.134140729904174805e+00 1.429778616875410080e-02
2.063000000000000000e+03 7.221759796142578125e+01 2.381435775756835938e+01 -1.130215406417846680e+00 8.427728652954101562e+00 2.189254045486450195e+00 5.413747429847717285e-01
2.064000000000000000e+03 7.171633148193359375e+01 -3.278386306762695312e+01 -5.305690169334411621e-01 6.768146514892578125e+00 1.871273279190063477e+00 2.129975520074367523e-02
2.065000000000000000e+03 5.367469787597656250e+00 -3.244372940063476562e+01 -3.196932971477508545e-01 1.913341522216796875e+00 4.780944883823394775e-01 5.040496587753295898e-01
2.066000000000000000e+03 5.969751358032226562e+00 -2.926944732666015625e+01 -4.143473207950592041e-01 1.976454257965087891e+00 4.686320722103118896e-01 8.087143898010253906e-01
2.067000000000000000e+03 6.743083477020263672e+00 3.089769744873046875e+01 -3.187085390090942383e-01 1.866249680519104004e+00 4.642623662948608398e-01 -6.671298146247863770e-01
2.068000000000000000e+03 4.472664642333984375e+01 1.334899425506591797e+01 4.180600941181182861e-01 8.785345077514648438e+00 2.761021375656127930e+00 5.616085529327392578e-01
2.069000000000000000e+03 4.570074081420898438e+00 -2.624744033813476562e+01 -2.366492748260498047e-01 1.559050798416137695e+00 3.967204391956329346e-01 1.049426078796386719e+00
2.070000000000000000e+03 8.658958435058593750e+00 -9.477664947509765625e+00 -1.961050480604171753e-01 2.270220994949340820e+00 6.222347617149353027e-01 2.809301614761352539e-01
2.071000000000000000e+03 5.085425376892089844e+00 -9.788664817810058594e+00 3.044455684721469879e-02 5.972431898117065430e-01 1.883063167333602905e-01 -4.510906934738159180e-01
2.072000000000000000e+03 5.811899185180664062e+00 2.417703819274902344e+01 -1.105124875903129578e-01 1.289200186729431152e+00 3.536063134670257568e-01 -1.064056992530822754e+00
2.073000000000000000e+03 6.796177387237548828e+00 -2.060345840454101562e+01 6.649249196052551270e-01 2.511749982833862305e+00 9.530024528503417969e-01 1.205444693565368652e+00
2.074000000000000000e+03 5.221731662750244141e+00 -1.467858982086181641e+01 6.295349001884460449e-01 9.709648489952087402e-01 4.801499247550964355e-01 -8.963713049888610840e-02
2.075000000000000000e+03 4.165969371795654297e+00 -1.514241218566894531e+01 4.908454120159149170e-01 2.175948023796081543e-01 2.125320732593536377e-01 -3.458442166447639465e-02
2.076000000000000000e+03 4.099453926086425781e+00 -1.899817466735839844e+01 4.231299757957458496e-01 4.175083041191101074e-01 2.521914839744567871e-01 7.245206832885742188e-01
2.077000000000000000e+03 5.412017822265625000e+00 -1.992865943908691406e+01 5.472026467323303223e-01 1.388164639472961426e+00 5.806102156639099121e-01 1.015784502029418945e+00
2.078000000000000000e+03 5.547057628631591797e+00 1.877712059020996094e+01 2.719889581203460693e-01 6.442352533340454102e-01 2.748672664165496826e-01 -9.866240024566650391e-01
2.079000000000000000e+03 5.396908760070800781e+00 1.616669845581054688e+01 4.210447371006011963e-01 2.354163974523544312e-01 1.969383507966995239e-01 -6.823210120201110840e-01
2.080000000000000000e+03 4.114831447601318359e+00 1.490398406982421875e+01 3.364822864532470703e-01 -5.001217722892761230e-01 -4.909184202551841736e-02 -3.945746123790740967e-01
2.081000000000000000e+03 9.443306922912597656e+00 -2.442147445678710938e+01 -3.358416557312011719e-01 3.413180589675903320e+00 9.232016801834106445e-01 7.847033739089965820e-01
2.082000000000000000e+03 7.726057529449462891e+00 -2.620662879943847656e+01 -4.784812331199645996e-01 2.570055961608886719e+00 6.274724006652832031e-01 1.061242699623107910e+00
2.083000000000000000e+03 6.092191219329833984e+00 2.560933303833007812e+01 -2.076613157987594604e-01 1.499619245529174805e+00 3.875873982906341553e-01 -1.020014047622680664e+00
2.084000000000000000e+03 6.711482524871826172e+00 1.611861991882324219e+01 6.118701696395874023e-01 8.682637214660644531e-01 4.440401792526245117e-01 -8.158065080642700195e-01
2.085000000000000000e+03 5.207053184509277344e+00 1.362376022338867188e+01 5.631541609764099121e-01 -9.190707653760910034e-02 1.413741260766983032e-01 -2.945438921451568604e-01
2.086000000000000000e+03 9.485025405883789062e+00 -1.237295341491699219e+01 2.624559402465820312e-01 3.734448671340942383e+00 1.199071407318115234e+00 2.831891775131225586e-01
2.087000000000000000e+03 5.804891586303710938e+00 -2.114622879028320312e+01 3.817219138145446777e-01 1.783774852752685547e+00 6.496490240097045898e-01 1.146664261817932129e+00
2.088000000000000000e+03 5.435273170471191406e+00 2.151824569702148438e+01 4.978502914309501648e-02 8.915830254554748535e-01 2.824104130268096924e-01 -1.061829566955566406e+00
2.089000000000000000e+03 8.637244224548339844e+00 -3.148191070556640625e+01 -6.354382038116455078e-01 2.059015989303588867e+00 4.270733296871185303e-01 4.383254945278167725e-01
2.090000000000000000e+03 6.025631427764892578e+00 -2.764134407043457031e+01 -4.046421945095062256e-01 2.009892940521240234e+00 4.815752506256103516e-01 9.955981969833374023e-01
2.091000000000000000e+03 5.819849014282226562e+00 -2.617565727233886719e+01 -3.012226819992065430e-01 1.937861561775207520e+00 4.909916520118713379e-01 1.103144168853759766e+00
2.092000000000000000e+03 6.049125194549560547e+00 2.815309715270996094e+01 -2.685963809490203857e-01 1.632518529891967773e+00 4.091766476631164551e-01 -8.240477442741394043e-01
2.093000000000000000e+03 4.022600173950195312e+01 -2.063451957702636719e+01 2.400753736495971680e+00 9.307475090026855469e+00 3.512468814849853516e+00 -2.506539523601531982e-01
2.094000000000000000e+03 4.204920196533203125e+01 -1.717127609252929688e+01 2.065438032150268555e+00 9.337617874145507812e+00 3.420916795730590820e+00 3.369758427143096924e-01
2.095000000000000000e+03 4.131558895111083984e+00 9.726082801818847656e+00 3.869165480136871338e-01 -7.333611249923706055e-01 -1.039333716034889221e-01 4.226664304733276367e-01
2.096000000000000000e+03 5.257128238677978516e+00 1.000449848175048828e+01 5.933504104614257812e-01 -3.266719281673431396e-01 8.000353723764419556e-02 3.578853309154510498e-01
2.097000000000000000e+03 4.741911411285400391e+00 -7.262024402618408203e+00 -6.138357147574424744e-02 2.548603117465972900e-01 5.804301798343658447e-02 -4.523137509822845459e-01
2.098000000000000000e+03 3.634867095947265625e+01 -1.505434226989746094e+01 2.230435132980346680e+00 6.683757781982421875e+00 2.674257755279541016e+00 -1.494677186012268066e+00
2.099000000000000000e+03 3.804831314086914062e+01 -9.214293479919433594e+00 4.128789007663726807e-01 4.877095699310302734e+00 1.586992383003234863e+00 3.702516555786132812e-01
2.100000000000000000e+03 5.419180393218994141e+00 8.932265281677246094e+00 5.847267508506774902e-01 -3.255933821201324463e-01 7.774002104997634888e-02 5.351461768150329590e-01
2.101000000000000000e+03 7.207436370849609375e+01 3.339821243286132812e+01 -8.143562823534011841e-02 6.797782897949218750e+00 2.014904022216796875e+00 -3.964558243751525879e-01
2.102000000000000000e+03 7.136277770996093750e+01 3.205842971801757812e+01 -2.436148077249526978e-01 6.604951381683349609e+00 1.908401012420654297e+00 -4.834343194961547852e-01
2.103000000000000000e+03 6.288774490356445312e+00 -1.392598915100097656e+01 6.880668997764587402e-01 1.620544433593750000e+00 6.925833821296691895e-01 -2.065136879682540894e-01
2.104000000000000000e+03 5.335968971252441406e+00 -1.113141632080078125e+01 1.047986373305320740e-01 7.981895208358764648e-01 2.708964347839355469e-01 -4.607970118522644043e-01
2.105000000000000000e+03 7.301042175292968750e+01 1.629700851440429688e+01 1.231440305709838867e+00 8.692909240722656250e+00 2.977304935455322266e+00 6.573389768600463867e-01
2.106000000000000000e+03 7.312786865234375000e+01 1.993293190002441406e+01 3.163968324661254883e-01 8.795690536499023438e+00 2.733626365661621094e+00 1.253523826599121094e+00
2.107000000000000000e+03 4.595937728881835938e+00 -6.131062984466552734e+00 -9.132134914398193359e-02 1.330315023660659790e-01 1.251304242759943008e-02 -4.424436688423156738e-01
2.108000000000000000e+03 7.098376274108886719e+00 3.607407379150390625e+01 -2.773068547248840332e-01 1.971400022506713867e+00 5.082279443740844727e-01 -3.182849586009979248e-01
2.109000000000000000e+03 6.536213684082031250e+01 2.225593805313110352e+00 1.801694780588150024e-01 3.867295026779174805e+00 1.214239358901977539e+00 8.147246241569519043e-01
2.110000000000000000e+03 2.344429969787597656e+01 -8.914554595947265625e+00 5.630519390106201172e-01 1.805984258651733398e+00 7.107108831405639648e-01 -1.864422321319580078e+00
2.111000000000000000e+03 3.235280609130859375e+01 2.511238861083984375e+01 -6.015515327453613281e-01 8.669269680976867676e-01 7.961262017488479614e-02 -5.291362404823303223e-01
2.112000000000000000e+03 4.488865280151367188e+01 -2.934460639953613281e+00 -3.110192120075225830e-01 9.662010192871093750e+00 2.805297374725341797e+00 2.290708273649215698e-01
2.113000000000000000e+03 6.774578094482421875e+01 -1.009288883209228516e+01 -5.528809428215026855e-01 6.400986671447753906e+00 1.754431724548339844e+00 -1.240626692771911621e+00
2.114000000000000000e+03 6.626738739013671875e+01 -8.917701721191406250e+00 -3.782596886157989502e-01 4.575888633728027344e+00 1.259288668632507324e+00 -1.392416596412658691e+00
2.115000000000000000e+03 3.438208007812500000e+01 2.344961738586425781e+01 -6.759023070335388184e-01 1.280060172080993652e+00 1.812473386526107788e-01 -7.453035116195678711e-01
2.116000000000000000e+03 5.064382934570312500e+01 -5.294294357299804688e+00 3.574627637863159180e-01 2.525982856750488281e+00 8.650336861610412598e-01 7.696293592453002930e-01
2.117000000000000000e+03 5.400344848632812500e+01 -4.752430438995361328e+00 1.037356376647949219e+00 1.112086921930313110e-01 3.445695340633392334e-01 1.527277976274490356e-01
2.118000000000000000e+03 4.170014572143554688e+01 -1.227827167510986328e+01 6.647050976753234863e-01 8.212710380554199219e+00 2.663224697113037109e+00 7.682619690895080566e-01
2.119000000000000000e+03 3.924425125122070312e+01 -8.287657737731933594e+00 -3.030891716480255127e-01 5.732981204986572266e+00 1.628967523574829102e+00 1.152896165847778320e+00
2.120000000000000000e+03 3.860879516601562500e+01 2.069381332397460938e+01 -4.664834439754486084e-01 2.838044404983520508e+00 7.114682793617248535e-01 -1.067303895950317383e+00
2.121000000000000000e+03 4.308454895019531250e+01 -1.697291183471679688e+01 1.775640249252319336e+00 9.921323776245117188e+00 3.509089231491088867e+00 6.226620674133300781e-01
2.122000000000000000e+03 5.254930877685546875e+01 -4.448791980743408203e+00 1.123462915420532227e+00 7.276595830917358398e-01 5.553367733955383301e-01 2.761715054512023926e-01
2.123000000000000000e+03 3.339334106445312500e+01 2.711232948303222656e+01 -4.594015777111053467e-01 1.341373443603515625e+00 2.645915746688842773e-01 -6.461239457130432129e-01
2.124000000000000000e+03 6.896791076660156250e+01 -2.758176422119140625e+01 -9.687371253967285156e-01 6.912062168121337891e+00 1.782997608184814453e+00 3.223677873611450195e-01
2.125000000000000000e+03 6.819520568847656250e+01 -2.682650947570800781e+01 -9.675548076629638672e-01 6.758215904235839844e+00 1.737198352813720703e+00 7.775775194168090820e-01
2.126000000000000000e+03 6.632823944091796875e+01 3.044828414916992188e+00 -1.846286281943321228e-02 4.701813697814941406e+00 1.405005335807800293e+00 9.047864675521850586e-01
2.127000000000000000e+03 6.915328979492187500e+01 -9.766198158264160156e+00 -8.500886559486389160e-01 7.529803752899169922e+00 2.003914594650268555e+00 -5.723133683204650879e-01
2.128000000000000000e+03 6.751291656494140625e+01 -8.729527473449707031e+00 -7.224243283271789551e-01 5.826237678527832031e+00 1.531144022941589355e+00 -1.104702115058898926e+00
2.129000000000000000e+03 6.929627227783203125e+01 -1.119590282440185547e+01 -5.224207043647766113e-01 8.268710136413574219e+00 2.323886871337890625e+00 -3.856632113456726074e-01
2.130000000000000000e+03 7.272285461425781250e+01 -1.107007694244384766e+01 -2.815128564834594727e-01 8.099338531494140625e+00 2.345347881317138672e+00 7.741528749465942383e-01
2.131000000000000000e+03 6.999624633789062500e+01 -1.363871383666992188e+01 5.954213738441467285e-01 9.820683479309082031e+00 3.124831676483154297e+00 1.051980853080749512e-01
2.132000000000000000e+03 1.328863143920898438e+01 1.363765430450439453e+01 1.555706024169921875e+00 4.883728981018066406e+00 1.931830525398254395e+00 -1.141221165657043457e+00
2.133000000000000000e+03 1.452191925048828125e+01 1.622073936462402344e+01 1.249479413032531738e+00 5.788662910461425781e+00 2.111442804336547852e+00 -9.454768300056457520e-01
2.134000000000000000e+03 7.168966674804687500e+01 -1.675154113769531250e+01 1.711895108222961426e+00 9.373926162719726562e+00 3.325746297836303711e+00 2.972531616687774658e-01
2.135000000000000000e+03 7.234548187255859375e+01 -1.525394344329833984e+01 1.159092307090759277e+00 8.761969566345214844e+00 2.976318597793579102e+00 6.668132543563842773e-01
2.136000000000000000e+03 4.370814895629882812e+01 -3.095092773437500000e+00 -5.559027194976806641e-01 1.071182250976562500e+01 3.046775817871093750e+00 9.276808500289916992e-01
2.137000000000000000e+03 7.211337280273437500e+01 -2.253128051757812500e+01 6.729750633239746094e-01 8.958806037902832031e+00 2.889534473419189453e+00 -9.539715647697448730e-01
2.138000000000000000e+03 6.942542266845703125e+01 -2.134152984619140625e+01 1.766562461853027344e+00 1.103085803985595703e+01 3.839226007461547852e+00 1.449213027954101562e-01
2.139000000000000000e+03 2.677151107788085938e+01 2.632753372192382812e+01 -4.169653952121734619e-01 4.954443871974945068e-01 2.354369685053825378e-02 3.191261887550354004e-01
2.140000000000000000e+03 1.178213787078857422e+01 1.359855175018310547e+01 1.501204848289489746e+00 3.546051025390625000e+00 1.514176726341247559e+00 -1.028090119361877441e+00
2.141000000000000000e+03 4.905196380615234375e+01 -3.362006902694702148e+00 6.008110046386718750e-01 4.621495246887207031e+00 1.566691875457763672e+00 -3.355544060468673706e-02
2.142000000000000000e+03 4.990593719482421875e+01 -3.872877359390258789e+00 7.109951376914978027e-01 3.492839097976684570e+00 1.261150240898132324e+00 2.733715474605560303e-01
2.143000000000000000e+03 7.356307220458984375e+01 -2.811898612976074219e+01 -5.928840637207031250e-01 7.758193016052246094e+00 2.149592638015747070e+00 -7.171666026115417480e-01
2.144000000000000000e+03 2.875441932678222656e+01 2.607390785217285156e+01 -5.048905611038208008e-01 4.789252281188964844e-01 -7.789598312228918076e-03 -3.769510239362716675e-02
2.145000000000000000e+03 5.470242309570312500e+01 2.871943664550781250e+01 -6.607248783111572266e-01 2.748850822448730469e+00 6.264377832412719727e-01 1.637407660484313965e+00
2.146000000000000000e+03 4.564551925659179688e+01 1.062232494354248047e+01 8.148779273033142090e-01 1.085802459716796875e+01 3.501870870590209961e+00 1.550899744033813477e+00
2.147000000000000000e+03 2.385421371459960938e+01 -4.209780693054199219e+00 4.431515216827392578e+00 1.979843258857727051e+00 1.923407435417175293e+00 -3.565927505493164062e+00
2.148000000000000000e+03 2.234622573852539062e+01 -3.744323968887329102e+00 4.750091075897216797e+00 4.314988613128662109e+00 2.719523906707763672e+00 -3.980493783950805664e+00
2.149000000000000000e+03 1.294046115875244141e+01 1.227448654174804688e+01 1.727023839950561523e+00 4.432499885559082031e+00 1.847857117652893066e+00 -1.103108167648315430e+00
2.150000000000000000e+03 4.256163024902343750e+01 -2.008826828002929688e+01 2.212779998779296875e+00 9.702535629272460938e+00 3.574594497680664062e+00 -1.954206228256225586e-01
2.151000000000000000e+03 4.185567855834960938e+01 -1.900869941711425781e+01 2.287257432937622070e+00 9.548162460327148438e+00 3.550626039505004883e+00 -7.979802787303924561e-02
2.152000000000000000e+03 4.053161239624023438e+01 -1.594169616699218750e+01 2.012523412704467773e+00 8.436171531677246094e+00 3.134608507156372070e+00 2.421796619892120361e-01
2.153000000000000000e+03 5.049592971801757812e+01 2.257634544372558594e+01 -6.903142929077148438e-01 5.908420562744140625e+00 1.565431833267211914e+00 1.372352719306945801e+00
2.154000000000000000e+03 4.908720397949218750e+01 2.337646102905273438e+01 -1.063391923904418945e+00 5.952106475830078125e+00 1.466614365577697754e+00 8.093468546867370605e-01
2.155000000000000000e+03 1.601473045349121094e+01 1.960639572143554688e+01 6.777498126029968262e-01 6.067854881286621094e+00 2.023681402206420898e+00 -5.307966470718383789e-01
2.156000000000000000e+03 1.400791549682617188e+01 2.148365211486816406e+01 -2.164656072854995728e-01 4.558958530426025391e+00 1.302747845649719238e+00 -1.064952135086059570e+00
2.157000000000000000e+03 2.573475646972656250e+01 -6.835680961608886719e+00 2.762505054473876953e+00 1.574336647987365723e+00 1.301052570343017578e+00 -2.647781610488891602e+00
2.158000000000000000e+03 2.442130851745605469e+01 -5.959879398345947266e+00 3.191565036773681641e+00 1.904358983039855957e+00 1.528777241706848145e+00 -2.997608661651611328e+00
2.159000000000000000e+03 2.633632278442382812e+01 -1.138902473449707031e+01 -5.762416496872901917e-02 9.325397014617919922e-01 2.624746561050415039e-01 -1.852090001106262207e+00
2.160000000000000000e+03 4.666637802124023438e+01 1.723840713500976562e+01 5.239153504371643066e-01 7.781746864318847656e+00 2.491698503494262695e+00 8.227565884590148926e-01
2.161000000000000000e+03 4.482670211791992188e+01 1.580056667327880859e+01 2.986490428447723389e-01 7.622407913208007812e+00 2.376317024230957031e+00 1.807804256677627563e-01
2.162000000000000000e+03 3.362133026123046875e+01 2.542882537841796875e+01 -5.687889456748962402e-01 1.260388851165771484e+00 2.074799686670303345e-01 -6.780504584312438965e-01
2.163000000000000000e+03 1.515091323852539062e+01 8.414452552795410156e+00 1.877050995826721191e+00 5.967253684997558594e+00 2.353291511535644531e+00 -1.598436951637268066e+00
2.164000000000000000e+03 1.424281024932861328e+01 9.611682891845703125e+00 1.863064646720886230e+00 5.147624015808105469e+00 2.103206634521484375e+00 -1.275169014930725098e+00
2.165000000000000000e+03 7.277748107910156250e+01 2.658537673950195312e+01 -9.079885482788085938e-01 7.887060642242431641e+00 2.093721628189086914e+00 6.518460065126419067e-02
2.166000000000000000e+03 2.454993438720703125e+01 -8.992719650268554688e+00 9.224777817726135254e-01 1.723299741744995117e+00 7.937332987785339355e-01 -2.153127670288085938e+00
2.167000000000000000e+03 6.490491485595703125e+01 2.862375831604003906e+01 -2.463821768760681152e-01 2.971382379531860352e+00 8.175000548362731934e-01 -7.647621631622314453e-01
2.168000000000000000e+03 6.837315368652343750e+01 -2.823561477661132812e+01 -1.068862438201904297e+00 6.263539791107177734e+00 1.558403134346008301e+00 6.604885458946228027e-01
2.169000000000000000e+03 5.191499328613281250e+01 2.843843650817871094e+01 -1.073991537094116211e+00 3.774109601974487305e+00 8.100354075431823730e-01 1.465884447097778320e+00
2.170000000000000000e+03 5.289438247680664062e+01 2.721006202697753906e+01 -1.014182209968566895e+00 3.547388792037963867e+00 7.599619626998901367e-01 1.766968250274658203e+00
2.171000000000000000e+03 6.369451141357421875e+01 -7.649168968200683594e+00 1.140220463275909424e-01 2.262942790985107422e+00 7.130894660949707031e-01 -8.902034163475036621e-01
2.172000000000000000e+03 6.348438644409179688e+01 -5.635295510292053223e-01 5.603651404380798340e-01 2.544703722000122070e+00 9.315206408500671387e-01 3.400442600250244141e-01
2.173000000000000000e+03 4.547554016113281250e+01 1.903941345214843750e+01 -6.679035723209381104e-02 6.554152965545654297e+00 1.946208834648132324e+00 -2.546852827072143555e-02
2.174000000000000000e+03 6.784730434417724609e+00 1.851741600036621094e+01 3.606863915920257568e-01 1.135195374488830566e+00 4.487645030021667480e-01 -1.065549254417419434e+00
2.175000000000000000e+03 4.221791839599609375e+01 1.876568603515625000e+01 -2.483126819133758545e-01 4.969037532806396484e+00 1.416217446327209473e+00 -8.575969338417053223e-01
2.176000000000000000e+03 4.589546966552734375e+01 1.538269710540771484e+01 5.608289241790771484e-01 8.469339370727539062e+00 2.709050416946411133e+00 8.754014968872070312e-01
2.177000000000000000e+03 4.309601593017578125e+01 -1.309807586669921875e+01 9.598916172981262207e-01 8.934067726135253906e+00 2.968187808990478516e+00 9.229440689086914062e-01
2.178000000000000000e+03 4.186319351196289062e+01 -1.455522060394287109e+01 1.483877062797546387e+00 8.667078018188476562e+00 3.045286417007446289e+00 6.365777850151062012e-01
2.179000000000000000e+03 7.180166625976562500e+01 -1.778793716430664062e+01 1.775398731231689453e+00 9.479344367980957031e+00 3.376423120498657227e+00 3.798326477408409119e-03
2.180000000000000000e+03 1.942967224121093750e+01 2.783555603027343750e+01 -9.643171429634094238e-01 2.699662208557128906e+00 5.206035375595092773e-01 7.919706702232360840e-01
2.181000000000000000e+03 5.822315216064453125e+01 -2.096207141876220703e+00 1.366166234016418457e+00 3.007901310920715332e-01 5.000869035720825195e-01 5.054168030619621277e-02
2.182000000000000000e+03 6.056232452392578125e+01 -4.664969921112060547e+00 7.088924050331115723e-01 9.806246757507324219e-01 5.068551301956176758e-01 -2.662380933761596680e-01
2.183000000000000000e+03 3.121936607360839844e+01 -9.576165199279785156e+00 1.499443054199218750e+00 1.579792737960815430e+00 9.237707257270812988e-01 -3.139151811599731445e+00
2.184000000000000000e+03 4.776902008056640625e+01 -1.421217560768127441e+00 6.985770463943481445e-01 6.954764842987060547e+00 2.296002626419067383e+00 -4.880748689174652100e-01
2.185000000000000000e+03 4.665344619750976562e+01 -4.001611232757568359e+00 -5.392752885818481445e-01 7.891802310943603516e+00 2.205758094787597656e+00 2.907059788703918457e-01
2.186000000000000000e+03 4.651334762573242188e+01 -3.167353820800781250e+01 -7.272549271583557129e-01 5.966742515563964844e+00 1.571846365928649902e+00 -1.467700242996215820e+00
2.187000000000000000e+03 5.681834793090820312e+01 -3.436595201492309570e+00 1.280892848968505859e+00 1.933103078044950962e-03 3.848477900028228760e-01 -3.301601111888885498e-02
2.188000000000000000e+03 6.656441497802734375e+01 4.798248767852783203e+00 -1.368801575154066086e-02 5.193590641021728516e+00 1.553970694541931152e+00 1.214250564575195312e+00
2.189000000000000000e+03 7.064408111572265625e+01 5.102508068084716797e-01 -4.427448809146881104e-01 6.496408462524414062e+00 1.816099047660827637e+00 3.903218731284141541e-02
2.190000000000000000e+03 2.612690162658691406e+01 2.829889678955078125e+01 -3.091197907924652100e-01 8.432130813598632812e-01 1.602279990911483765e-01 3.726992011070251465e-01
2.191000000000000000e+03 1.235880184173583984e+01 -2.889367485046386719e+01 -8.276289105415344238e-01 2.157830238342285156e+00 3.990604281425476074e-01 -3.666226286441087723e-03
2.192000000000000000e+03 7.912148475646972656e+00 -2.020643234252929688e+01 8.226495981216430664e-01 3.372573375701904297e+00 1.258566856384277344e+00 1.107521176338195801e+00
2.193000000000000000e+03 1.010894489288330078e+01 -2.592174530029296875e+01 -6.125363111495971680e-01 3.120569467544555664e+00 7.524099349975585938e-01 5.372203588485717773e-01
2.194000000000000000e+03 3.326284027099609375e+01 -1.366727828979492188e+01 2.076047897338867188e+00 3.188419580459594727e+00 1.579340219497680664e+00 -2.580816030502319336e+00
2.195000000000000000e+03 3.568703079223632812e+01 -1.174217510223388672e+01 1.345906972885131836e+00 4.446649074554443359e+00 1.737766861915588379e+00 -1.473368406295776367e+00
2.196000000000000000e+03 4.478202819824218750e+01 -9.466044425964355469e+00 -8.414149880409240723e-01 8.878059387207031250e+00 2.410993337631225586e+00 1.066158175468444824e+00
2.197000000000000000e+03 6.148675537109375000e+01 2.776401138305664062e+01 -1.824893504381179810e-01 1.305470108985900879e+00 3.368942141532897949e-01 1.539529711008071899e-01
2.198000000000000000e+03 6.220085525512695312e+01 2.625738906860351562e+01 -7.541762590408325195e-01 9.439950585365295410e-01 5.694562569260597229e-02 -1.751982271671295166e-01
2.199000000000000000e+03 1.727636909484863281e+01 -3.495577621459960938e+01 -4.715149700641632080e-01 6.039025783538818359e-01 3.971627354621887207e-02 -2.547219097614288330e-01
2.200000000000000000e+03 7.439791870117187500e+01 3.610846710205078125e+01 5.508578196167945862e-02 7.507813930511474609e+00 2.268869876861572266e+00 -2.134756445884704590e-01
2.201000000000000000e+03 6.644803619384765625e+01 2.872046470642089844e+01 -4.339482188224792480e-01 4.023495674133300781e+00 1.076864242553710938e+00 -9.674898386001586914e-01
2.202000000000000000e+03 7.181645202636718750e+01 8.223777770996093750e+00 4.216299206018447876e-02 8.212334632873535156e+00 2.476349353790283203e+00 -1.777372807264328003e-01
2.203000000000000000e+03 2.655919647216796875e+01 -1.054318523406982422e+01 4.734689891338348389e-01 1.199386835098266602e+00 5.018567442893981934e-01 -2.242909669876098633e+00
2.204000000000000000e+03 2.927794075012207031e+01 -1.113774871826171875e+01 9.763912558555603027e-01 1.312544941902160645e+00 6.866808533668518066e-01 -2.762433052062988281e+00
2.205000000000000000e+03 4.165106201171875000e+01 -2.381061172485351562e+01 2.047455072402954102e+00 8.801600456237792969e+00 3.254716634750366211e+00 -2.489904016256332397e-01
2.206000000000000000e+03 4.250178146362304688e+01 -2.243104743957519531e+01 2.360678195953369141e+00 9.193686485290527344e+00 3.466309309005737305e+00 -4.988039731979370117e-01
2.207000000000000000e+03 3.931649017333984375e+01 -3.148133277893066406e+01 -8.933898210525512695e-01 6.900182247161865234e+00 1.802037715911865234e+00 2.216169983148574829e-01
2.208000000000000000e+03 6.730709838867187500e+01 3.835018396377563477e+00 -1.835006773471832275e-01 5.451023101806640625e+00 1.580256700515747070e+00 8.035935759544372559e-01
2.209000000000000000e+03 3.790906524658203125e+01 -2.798493194580078125e+01 4.795184135437011719e-01 7.786796092987060547e+00 2.479894399642944336e+00 6.768096089363098145e-01
2.210000000000000000e+03 3.536833953857421875e+01 -3.492225265502929688e+01 -1.228739142417907715e+00 4.834814548492431641e+00 1.081822514533996582e+00 9.302474856376647949e-01
2.211000000000000000e+03 4.836691284179687500e+01 -4.093422889709472656e+00 7.645487040281295776e-02 5.575963973999023438e+00 1.695725679397583008e+00 1.685187071561813354e-01
2.212000000000000000e+03 8.410170555114746094e+00 -2.515577888488769531e+01 -3.942821323871612549e-01 2.997355937957763672e+00 7.809221148490905762e-01 9.985961914062500000e-01
2.213000000000000000e+03 8.869277000427246094e+00 -2.631149101257324219e+01 -5.873503088951110840e-01 2.836095571517944336e+00 6.746236085891723633e-01 7.896466255187988281e-01
2.214000000000000000e+03 1.849164772033691406e+01 -4.451770305633544922e+00 1.922251224517822266e+00 7.247914314270019531e+00 2.751049757003784180e+00 2.713186264038085938e+00
2.215000000000000000e+03 1.573239135742187500e+01 -3.627763271331787109e+00 2.909178495407104492e+00 6.644360423088073730e-01 1.072084426879882812e+00 2.221704244613647461e+00
2.216000000000000000e+03 1.705776405334472656e+01 -3.622327566146850586e+00 3.886967182159423828e+00 2.627719163894653320e+00 1.954405903816223145e+00 3.473606824874877930e+00
2.217000000000000000e+03 1.625578308105468750e+01 -3.805915117263793945e+00 3.186660289764404297e+00 1.316016435623168945e+00 1.350803017616271973e+00 2.777371883392333984e+00
2.218000000000000000e+03 1.582713127136230469e+01 -5.615115165710449219e+00 1.851732611656188965e+00 1.852587342262268066e+00 1.111295938491821289e+00 3.131217002868652344e+00
2.219000000000000000e+03 1.917810058593750000e+01 -4.469733238220214844e+00 1.569432377815246582e+00 8.459101676940917969e+00 3.008560180664062500e+00 1.337337851524353027e+00
2.220000000000000000e+03 1.951929855346679688e+01 1.657548308372497559e+00 -2.005080223083496094e+00 1.189134883880615234e+01 2.965880632400512695e+00 -2.731133699417114258e+00
2.221000000000000000e+03 1.824384498596191406e+01 -3.886310338973999023e+00 2.836801528930664062e+00 7.167051315307617188e+00 3.001155853271484375e+00 3.718518257141113281e+00
2.222000000000000000e+03 1.869231033325195312e+01 -5.021900653839111328e+00 1.455086469650268555e+00 6.587508201599121094e+00 2.412778377532958984e+00 2.072898149490356445e+00
2.223000000000000000e+03 1.919328880310058594e+01 -4.955137252807617188e+00 1.395577430725097656e+00 7.451014995574951172e+00 2.653977632522583008e+00 1.000075221061706543e+00
2.224000000000000000e+03 1.486538600921630859e+01 -4.151340484619140625e+00 2.114770889282226562e+00 5.702636837959289551e-01 8.055104017257690430e-01 2.069867134094238281e+00
2.225000000000000000e+03 1.361480617523193359e+01 -4.703433513641357422e+00 1.373135924339294434e+00 6.078882217407226562e-01 5.943072438240051270e-01 1.849285483360290527e+00
2.226000000000000000e+03 1.421375751495361328e+01 -4.390480041503906250e+00 1.691736102104187012e+00 5.408044457435607910e-01 6.697621941566467285e-01 1.917480587959289551e+00
2.227000000000000000e+03 1.217448329925537109e+01 -7.468811511993408203e+00 1.059421226382255554e-01 1.930439114570617676e+00 6.109143495559692383e-01 2.070788860321044922e+00
2.228000000000000000e+03 1.782957839965820312e+01 8.770771622657775879e-01 -3.501689434051513672e-01 7.481346607208251953e+00 2.139353275299072266e+00 -4.970886707305908203e+00
2.229000000000000000e+03 1.853342056274414062e+01 1.219098925590515137e+00 -1.461535096168518066e+00 1.064104557037353516e+01 2.753853082656860352e+00 -4.457506656646728516e+00
2.230000000000000000e+03 1.255084896087646484e+01 -5.090822696685791016e+00 8.585403561592102051e-01 7.656881213188171387e-01 4.872685372829437256e-01 1.599630832672119141e+00
2.231000000000000000e+03 1.825597381591796875e+01 1.353202223777770996e+00 -1.148309707641601562e+00 9.334438323974609375e+00 2.455838441848754883e+00 -4.602023124694824219e+00
2.232000000000000000e+03 8.250195503234863281e+00 -4.787744522094726562e+00 -7.579796016216278076e-02 5.830953121185302734e-01 1.521892100572586060e-01 1.024887040257453918e-01
2.233000000000000000e+03 9.067083358764648438e+00 -5.417576313018798828e+00 1.408577337861061096e-02 8.331795334815979004e-01 2.541795969009399414e-01 3.781841695308685303e-01
2.234000000000000000e+03 1.899236297607421875e+01 1.267111063003540039e+00 -1.759633183479309082e+00 1.176004791259765625e+01 3.000124216079711914e+00 -3.979520797729492188e+00
2.235000000000000000e+03 1.205520057678222656e+01 -4.525037288665771484e+00 6.847242116928100586e-01 5.714480876922607422e-01 3.768516778945922852e-01 1.189395785331726074e+00
2.236000000000000000e+03 1.203574657440185547e+01 -5.074802875518798828e+00 6.659095883369445801e-01 7.582171559333801270e-01 4.272380173206329346e-01 1.371230363845825195e+00
2.237000000000000000e+03 1.464650726318359375e+01 -4.640398025512695312e+00 1.948055267333984375e+00 7.717872858047485352e-01 8.159527778625488281e-01 2.301347732543945312e+00
2.238000000000000000e+03 1.405032157897949219e+01 -4.823307037353515625e+00 1.610943555831909180e+00 6.900954246520996094e-01 6.903117299079895020e-01 2.106082916259765625e+00
2.239000000000000000e+03 9.715411186218261719e+00 -5.323789596557617188e+00 7.174550741910934448e-02 8.497816920280456543e-01 2.764581739902496338e-01 5.445895195007324219e-01
2.240000000000000000e+03 1.739703941345214844e+01 2.099358797073364258e+00 -7.583206892013549805e-01 6.972402095794677734e+00 1.864224314689636230e+00 -3.821429491043090820e+00
2.241000000000000000e+03 7.539896488189697266e+00 -4.880206584930419922e+00 -1.365038901567459106e-01 5.380140542984008789e-01 1.204530596733093262e-01 -6.149792298674583435e-02
2.242000000000000000e+03 8.394791603088378906e+00 -5.525591373443603516e+00 -6.637425720691680908e-02 7.870053648948669434e-01 2.161893248558044434e-01 1.712874025106430054e-01
2.243000000000000000e+03 5.318306922912597656e+00 -5.126342296600341797e+00 -1.289321631193161011e-01 2.011347413063049316e-01 2.166077308356761932e-02 -3.764433562755584717e-01
2.244000000000000000e+03 3.887742042541503906e+00 5.221259593963623047e+00 2.617107471451163292e-03 -5.354009270668029785e-01 -1.598351448774337769e-01 8.944593071937561035e-01
2.245000000000000000e+03 5.271034717559814453e+00 6.665553092956542969e+00 2.832893729209899902e-01 -4.084340929985046387e-01 -3.754340857267379761e-02 8.730590939521789551e-01
2.246000000000000000e+03 1.033797645568847656e+01 -5.238501071929931641e+00 1.960804164409637451e-01 8.602654933929443359e-01 3.169037699699401855e-01 7.764425873756408691e-01
2.247000000000000000e+03 1.092954063415527344e+01 -5.157521247863769531e+00 3.133526146411895752e-01 8.181250095367431641e-01 3.394432961940765381e-01 9.429231882095336914e-01
2.248000000000000000e+03 4.524413585662841797e+00 5.950575351715087891e+00 1.275054812431335449e-01 -5.015481114387512207e-01 -1.122127920389175415e-01 9.075831770896911621e-01
2.249000000000000000e+03 6.246412277221679688e+00 -5.994603633880615234e+00 -1.041459888219833374e-01 4.834066331386566162e-01 1.137781888246536255e-01 -2.791677713394165039e-01
2.250000000000000000e+03 6.983675479888916016e+00 -5.821383476257324219e+00 -1.245609223842620850e-01 6.481125354766845703e-01 1.570654809474945068e-01 -1.464118212461471558e-01
2.251000000000000000e+03 6.523880481719970703e+00 6.539800643920898438e+00 4.108444750308990479e-01 -1.613652855157852173e-01 7.484375685453414917e-02 8.615102767944335938e-01
2.252000000000000000e+03 7.605644702911376953e+00 5.650447845458984375e+00 3.436733186244964600e-01 2.081128768622875214e-03 1.037263348698616028e-01 8.967512249946594238e-01
2.253000000000000000e+03 1.005832099914550781e+01 4.610493659973144531e+00 2.688457369804382324e-01 4.048091769218444824e-01 2.020964622497558594e-01 6.025118231773376465e-01
2.254000000000000000e+03 8.424962043762207031e+00 5.681451320648193359e+00 4.627941250801086426e-01 1.724278181791305542e-01 1.905665844678878784e-01 7.995246052742004395e-01
2.255000000000000000e+03 1.520341968536376953e+01 3.112456560134887695e+00 6.413862854242324829e-02 3.431113481521606445e+00 1.048575639724731445e+00 -1.742292284965515137e+00
2.256000000000000000e+03 2.230337905883789062e+01 -9.729408264160156250e+00 -4.110280871391296387e-01 1.732669115066528320e+00 3.964923024177551270e-01 -1.127425670623779297e+00
2.257000000000000000e+03 1.399596023559570312e+01 5.449009418487548828e+00 1.057893037796020508e+00 3.299237728118896484e+00 1.307139277458190918e+00 -1.077540278434753418e+00
2.258000000000000000e+03 1.317059898376464844e+01 5.214804649353027344e+00 9.323031902313232422e-01 2.410188198089599609e+00 1.002747416496276855e+00 -7.008938789367675781e-01
2.259000000000000000e+03 1.972085762023925781e+01 -4.954735755920410156e+00 1.392491579055786133e+00 7.585579395294189453e+00 2.693421363830566406e+00 -8.447958528995513916e-02
2.260000000000000000e+03 2.115410041809082031e+01 -5.518579959869384766e+00 1.896858215332031250e+00 5.537878036499023438e+00 2.230420827865600586e+00 -2.132158279418945312e+00
2.261000000000000000e+03 1.543650722503662109e+01 4.301901817321777344e+00 5.247321724891662598e-01 4.549302101135253906e+00 1.522210359573364258e+00 -1.893195986747741699e+00
2.262000000000000000e+03 1.072944259643554688e+01 4.423563003540039062e+00 2.677354514598846436e-01 5.625756978988647461e-01 2.490933388471603394e-01 4.346893727779388428e-01
2.263000000000000000e+03 1.904303932189941406e+01 1.637567400932312012e+00 -1.906458616256713867e+00 1.137803459167480469e+01 2.841472864151000977e+00 -3.710395574569702148e+00
2.264000000000000000e+03 1.224984455108642578e+01 5.200126647949218750e+00 8.089666366577148438e-01 1.649907112121582031e+00 7.376621365547180176e-01 -2.620170116424560547e-01
2.265000000000000000e+03 1.138013935089111328e+01 5.183374881744384766e+00 7.183588743209838867e-01 1.153757572174072266e+00 5.616348981857299805e-01 9.759705513715744019e-02
2.266000000000000000e+03 8.576707839965820312e+00 -6.263359546661376953e+00 -3.568507730960845947e-02 1.025401473045349121e+00 2.969149351119995117e-01 2.917505800724029541e-01
2.267000000000000000e+03 1.386362552642822266e+01 -9.818834304809570312e+00 -7.921063899993896484e-01 2.821030139923095703e+00 6.086770892143249512e-01 3.106631517410278320e+00
2.268000000000000000e+03 6.306607055664062500e+01 -2.139414548873901367e+00 5.708575844764709473e-01 2.348736524581909180e+00 8.758782148361206055e-01 -1.479685027152299881e-02
2.269000000000000000e+03 2.237650489807128906e+01 -4.498400211334228516e+00 3.741852521896362305e+00 4.310315132141113281e+00 2.415650129318237305e+00 -3.712391614913940430e+00
2.270000000000000000e+03 2.160448646545410156e+01 -4.637152671813964844e+00 3.059608459472656250e+00 5.610264301300048828e+00 2.600961923599243164e+00 -3.215143442153930664e+00
2.271000000000000000e+03 1.740224647521972656e+01 2.842854022979736328e+00 -7.942105531692504883e-01 7.276203155517578125e+00 1.944597840309143066e+00 -3.293419599533081055e+00
2.272000000000000000e+03 6.002984523773193359e+00 -1.581033897399902344e+01 9.077705740928649902e-01 1.521132946014404297e+00 7.286710739135742188e-01 1.991067081689834595e-01
2.273000000000000000e+03 7.079411506652832031e+00 -1.511768627166748047e+01 1.146051168441772461e+00 2.406348943710327148e+00 1.065719962120056152e+00 1.222370117902755737e-01
2.274000000000000000e+03 7.169169616699218750e+01 -1.219972324371337891e+01 -4.332310706377029419e-02 8.601290702819824219e+00 2.567390203475952148e+00 6.579753160476684570e-01
2.275000000000000000e+03 7.180930328369140625e+01 -1.408378887176513672e+01 6.449950337409973145e-01 9.021060943603515625e+00 2.899816751480102539e+00 7.247783541679382324e-01
2.276000000000000000e+03 4.376997756958007812e+01 -3.947218418121337891e+00 -1.020329713821411133e+00 9.912574768066406250e+00 2.667673587799072266e+00 7.443901300430297852e-01
2.277000000000000000e+03 6.721898651123046875e+01 -7.550650596618652344e+00 -5.280023217201232910e-01 5.333031654357910156e+00 1.441508889198303223e+00 -9.524047374725341797e-01
2.278000000000000000e+03 1.680160903930664062e+01 -9.983307838439941406e+00 -7.682872414588928223e-01 1.129127860069274902e+00 1.082521975040435791e-01 2.790119886398315430e+00
2.279000000000000000e+03 7.287441253662109375e+01 -1.217739868164062500e+01 3.604004858061671257e-03 8.282270431518554688e+00 2.485762357711791992e+00 9.198105335235595703e-01
2.280000000000000000e+03 1.573236560821533203e+01 -9.120196342468261719e+00 -1.850397884845733643e-01 1.756239652633666992e+00 4.713599681854248047e-01 3.301984310150146484e+00
2.281000000000000000e+03 5.960591506958007812e+01 -5.595552444458007812e+00 5.442522764205932617e-01 5.411109924316406250e-01 3.256089687347412109e-01 -2.450328618288040161e-01
2.282000000000000000e+03 4.137421798706054688e+01 -7.403813838958740234e+00 -1.255716800689697266e+00 7.865317821502685547e+00 1.982880353927612305e+00 1.659694075584411621e+00
2.283000000000000000e+03 1.185850811004638672e+01 -9.830869674682617188e+00 -4.575141370296478271e-01 3.284691810607910156e+00 8.481532931327819824e-01 1.898327589035034180e+00
2.284000000000000000e+03 6.422068119049072266e+00 -1.100442218780517578e+01 1.101513430476188660e-01 1.461970329284667969e+00 4.716364741325378418e-01 -3.176088035106658936e-01
2.285000000000000000e+03 4.197758865356445312e+01 2.012299728393554688e+01 -4.368293583393096924e-01 4.657634258270263672e+00 1.266241431236267090e+00 -9.155771732330322266e-01
2.286000000000000000e+03 4.002420425415039062e+01 2.111543083190917969e+01 -5.247754454612731934e-01 3.571844577789306641e+00 9.141207337379455566e-01 -1.029419302940368652e+00
2.287000000000000000e+03 4.663176727294921875e+01 -5.780291557312011719e+00 -1.114535927772521973e+00 7.783354759216308594e+00 2.000645637512207031e+00 7.676594257354736328e-01
2.288000000000000000e+03 4.350860595703125000e+01 -4.837164402008056641e+00 -1.462187409400939941e+00 9.760066032409667969e+00 2.489363431930541992e+00 1.071962237358093262e+00
2.289000000000000000e+03 1.690326118469238281e+01 5.282741546630859375e+00 7.508698701858520508e-01 7.286162853240966797e+00 2.411109685897827148e+00 -2.330492734909057617e+00
2.290000000000000000e+03 3.505066680908203125e+01 -1.067662048339843750e+01 1.338193058967590332e+00 3.405596256256103516e+00 1.423136830329895020e+00 -1.605641603469848633e+00
2.291000000000000000e+03 3.345902252197265625e+01 -1.085887145996093750e+01 1.453657865524291992e+00 2.635844707489013672e+00 1.226850748062133789e+00 -2.462151765823364258e+00
2.292000000000000000e+03 2.316857528686523438e+01 -4.464960575103759766e+00 4.205721855163574219e+00 2.829227685928344727e+00 2.110484838485717773e+00 -3.674869060516357422e+00
2.293000000000000000e+03 4.730054378509521484e+00 7.492672443389892578e+00 3.417977690696716309e-01 -5.453304648399353027e-01 -6.105979904532432556e-02 7.584923505783081055e-01
2.294000000000000000e+03 1.473679924011230469e+01 7.581155776977539062e+00 1.688099265098571777e+00 5.021804809570312500e+00 2.012971162796020508e+00 -1.488945484161376953e+00
2.295000000000000000e+03 1.535891437530517578e+01 7.218435287475585938e+00 1.661879777908325195e+00 5.691782474517822266e+00 2.206098556518554688e+00 -1.667427420616149902e+00
2.296000000000000000e+03 6.237392044067382812e+01 -1.073486447334289551e+00 7.613285779953002930e-01 1.958642959594726562e+00 8.159914612770080566e-01 2.001481950283050537e-01
2.297000000000000000e+03 1.937356758117675781e+01 -8.836704254150390625e+00 -4.089912772178649902e-01 2.224775552749633789e+00 5.447352528572082520e-01 6.679897308349609375e-01
2.298000000000000000e+03 4.408838653564453125e+01 -8.412343025207519531e+00 -1.260352134704589844e+00 8.902291297912597656e+00 2.292581796646118164e+00 1.059999704360961914e+00
2.299000000000000000e+03 4.447500610351562500e+01 -6.207272529602050781e+00 -1.530876159667968750e+00 9.121111869812011719e+00 2.277070760726928711e+00 9.254205822944641113e-01
2.300000000000000000e+03 4.031414413452148438e+01 -8.405924797058105469e+00 -5.654048323631286621e-01 6.841838359832763672e+00 1.882930040359497070e+00 1.335173845291137695e+00
2.301000000000000000e+03 1.298789310455322266e+01 -9.512828826904296875e+00 -5.168954133987426758e-01 3.023413181304931641e+00 7.519553303718566895e-01 2.661879777908325195e+00
2.302000000000000000e+03 6.613524627685546875e+01 1.349234819412231445e+00 1.989949122071266174e-02 4.372111797332763672e+00 1.317603349685668945e+00 6.058307290077209473e-01
2.303000000000000000e+03 6.443264770507812500e+01 1.379096627235412598e+00 3.590981364250183105e-01 3.210367202758789062e+00 1.070839524269104004e+00 7.114999294281005859e-01
2.304000000000000000e+03 3.949753189086914062e+01 2.276148223876953125e+01 -6.655126214027404785e-01 3.240049600601196289e+00 7.723610997200012207e-01 -1.027208209037780762e+00
2.305000000000000000e+03 3.180266189575195312e+01 -1.094687652587890625e+01 1.481904506683349609e+00 1.832811355590820312e+00 9.944147467613220215e-01 -2.925835371017456055e+00
2.306000000000000000e+03 6.889892578125000000e+01 -2.959661674499511719e+01 -1.024517416954040527e+00 6.305131435394287109e+00 1.584184288978576660e+00 4.188307523727416992e-01
2.307000000000000000e+03 7.472651004791259766e+00 -1.340832042694091797e+01 6.960731148719787598e-01 2.518971204757690430e+00 9.645133018493652344e-01 -1.022525206208229065e-01
2.308000000000000000e+03 2.436127471923828125e+01 -1.001811504364013672e+01 7.023476064205169678e-02 1.393092870712280273e+00 4.389983117580413818e-01 -1.749547600746154785e+00
2.309000000000000000e+03 2.592555809020996094e+01 -7.994587898254394531e+00 1.898649811744689941e+00 1.735916614532470703e+00 1.090369939804077148e+00 -2.558207273483276367e+00
2.310000000000000000e+03 7.044664764404296875e+01 -2.814861869812011719e+01 -9.902446269989013672e-01 7.372432231903076172e+00 1.914656162261962891e+00 -9.428497403860092163e-02
2.311000000000000000e+03 6.683473968505859375e+01 -2.864568138122558594e+01 -9.658073782920837402e-01 5.070809841156005859e+00 1.231500625610351562e+00 9.302884936332702637e-01
2.312000000000000000e+03 3.927849197387695312e+01 -1.578952026367187500e+01 2.163256883621215820e+00 8.141861915588378906e+00 3.091535568237304688e+00 -9.391470253467559814e-02
2.313000000000000000e+03 7.379849243164062500e+01 2.096880912780761719e+01 -2.873520739376544952e-02 8.525118827819824219e+00 2.548914909362792969e+00 1.342291474342346191e+00
2.314000000000000000e+03 7.400882720947265625e+01 2.512581825256347656e+01 -7.402291297912597656e-01 8.367903709411621094e+00 2.288302183151245117e+00 5.642709136009216309e-01
2.315000000000000000e+03 7.274262237548828125e+01 -3.355841064453125000e+01 -4.036616086959838867e-01 7.007490158081054688e+00 1.981148481369018555e+00 -6.029955297708511353e-02
2.316000000000000000e+03 7.149140930175781250e+01 2.254926109313964844e+01 -1.102500438690185547e+00 8.643456459045410156e+00 2.262286901473999023e+00 7.236130833625793457e-01
2.317000000000000000e+03 2.790042877197265625e+01 -8.867818832397460938e+00 1.464545488357543945e+00 1.632954716682434082e+00 9.292500615119934082e-01 -2.836272716522216797e+00
2.318000000000000000e+03 7.452460479736328125e+01 -2.319241523742675781e+01 3.433013856410980225e-01 7.762982368469238281e+00 2.431885004043579102e+00 -1.159513354301452637e+00
2.319000000000000000e+03 7.336626434326171875e+01 -2.230740547180175781e+01 6.807578206062316895e-01 8.255556106567382812e+00 2.680894374847412109e+00 -1.109953880310058594e+00
2.320000000000000000e+03 7.776375770568847656e+00 2.894959068298339844e+01 -4.047161638736724854e-01 2.039058446884155273e+00 4.903027117252349854e-01 -8.451324701309204102e-01
2.321000000000000000e+03 8.906968116760253906e+00 3.223675537109375000e+01 -4.596248567104339600e-01 2.165107727050781250e+00 5.116448998451232910e-01 -5.634666085243225098e-01
2.322000000000000000e+03 7.389219665527343750e+01 2.656438827514648438e+01 -7.181288599967956543e-01 8.133555412292480469e+00 2.224627971649169922e+00 2.939295768737792969e-01
2.323000000000000000e+03 2.709219932556152344e+01 -9.663519859313964844e+00 9.973201155662536621e-01 1.515009880065917969e+00 7.536990046501159668e-01 -2.525333166122436523e+00
2.324000000000000000e+03 7.143375396728515625e+01 -2.732411384582519531e+01 -8.241661787033081055e-01 7.721867561340332031e+00 2.069310426712036133e+00 -3.940368294715881348e-01
2.325000000000000000e+03 7.389550018310546875e+01 1.607453918457031250e+01 9.630678296089172363e-01 8.503004074096679688e+00 2.839821577072143555e+00 7.197256088256835938e-01
2.326000000000000000e+03 7.288188171386718750e+01 -1.773640632629394531e+01 1.550938487052917480e+00 8.668727874755859375e+00 3.065899848937988281e+00 1.206410229206085205e-01
2.327000000000000000e+03 7.366306304931640625e+01 7.626596450805664062e+00 -5.484662577509880066e-02 7.899807453155517578e+00 2.353488206863403320e+00 -4.976305365562438965e-01
2.328000000000000000e+03 7.145249938964843750e+01 3.860243797302246094e+00 -3.999485075473785400e-01 7.164865970611572266e+00 2.029475212097167969e+00 -4.931103438138961792e-02
2.329000000000000000e+03 7.437435913085937500e+01 4.181522846221923828e+00 -3.044769167900085449e-01 7.557246685028076172e+00 2.175830841064453125e+00 -4.214448034763336182e-01
2.330000000000000000e+03 7.298725891113281250e+01 -2.529726982116699219e+00 -4.870529472827911377e-01 7.109851360321044922e+00 1.986839532852172852e+00 4.559661075472831726e-02
2.331000000000000000e+03 7.261951446533203125e+01 -3.689572334289550781e+00 -5.344328880310058594e-01 7.112631797790527344e+00 1.973459601402282715e+00 1.169276162981987000e-01
2.332000000000000000e+03 7.414939117431640625e+01 1.219527339935302734e+01 7.437766194343566895e-01 8.062469482421875000e+00 2.641873836517333984e+00 -2.392862141132354736e-01
2.333000000000000000e+03 7.175563812255859375e+01 1.111420631408691406e+01 8.732388019561767578e-01 8.826902389526367188e+00 2.910042285919189453e+00 -4.193577915430068970e-02
2.334000000000000000e+03 7.416989135742187500e+01 -1.167345046997070312e+01 -5.107948184013366699e-02 7.818463802337646484e+00 2.330215454101562500e+00 9.600706696510314941e-01
2.335000000000000000e+03 7.392867279052734375e+01 5.713967800140380859e+00 -2.365565448999404907e-01 7.699552536010742188e+00 2.238898754119873047e+00 -4.960782229900360107e-01
2.336000000000000000e+03 7.424099731445312500e+01 -1.161852955818176270e+00 -3.702451586723327637e-01 7.329142093658447266e+00 2.087669134140014648e+00 -3.537517413496971130e-02
2.337000000000000000e+03 7.297252655029296875e+01 -1.135676264762878418e+00 -4.585217535495758057e-01 7.081345558166503906e+00 1.986847162246704102e+00 -2.648030780255794525e-02
2.338000000000000000e+03 7.292147064208984375e+01 2.718977332115173340e-01 -4.253934025764465332e-01 7.084976196289062500e+00 1.997874855995178223e+00 -9.971454739570617676e-02
2.339000000000000000e+03 7.331322479248046875e+01 -2.126890945434570312e+01 9.847730994224548340e-01 8.330011367797851562e+00 2.794435262680053711e+00 -8.519529104232788086e-01
2.340000000000000000e+03 7.335607147216796875e+01 -7.486482143402099609e+00 -5.704565048217773438e-01 7.561898708343505859e+00 2.097432613372802734e+00 4.960070848464965820e-01
2.341000000000000000e+03 7.245680236816406250e+01 -6.743687629699707031e+00 -6.890579462051391602e-01 7.387273311614990234e+00 2.009464502334594727e+00 2.858880460262298584e-01
2.342000000000000000e+03 7.194836425781250000e+01 1.656970024108886719e+01 1.278826475143432617e+00 9.525647163391113281e+00 3.241342306137084961e+00 8.338111639022827148e-01
2.343000000000000000e+03 6.619690704345703125e+01 -7.616512298583984375e+00 -3.667481541633605957e-01 4.447216510772705078e+00 1.224140524864196777e+00 -1.022971153259277344e+00
2.344000000000000000e+03 6.511920928955078125e+01 -1.037655448913574219e+01 -1.802713274955749512e-01 3.291428565979003906e+00 9.333471655845642090e-01 -1.803867459297180176e+00
2.345000000000000000e+03 8.237400054931640625e+00 2.054256820678710938e+01 2.081633359193801880e-01 1.969171166419982910e+00 6.532003283500671387e-01 -1.300244808197021484e+00
2.346000000000000000e+03 7.112674236297607422e+00 2.388129806518554688e+01 -1.600572615861892700e-01 1.703009843826293945e+00 4.628857970237731934e-01 -1.180361986160278320e+00
2.347000000000000000e+03 7.176094055175781250e+00 3.422736740112304688e+01 -3.123975098133087158e-01 1.962610721588134766e+00 4.950639605522155762e-01 -4.403890073299407959e-01
2.348000000000000000e+03 7.024836730957031250e+01 2.894437980651855469e+01 -7.101517319679260254e-01 6.442564487457275391e+00 1.719723820686340332e+00 -5.680772066116333008e-01
2.349000000000000000e+03 7.264910125732421875e+01 2.521433639526367188e+01 -1.020565748214721680e+00 8.077828407287597656e+00 2.117178916931152344e+00 3.621080815792083740e-01
2.350000000000000000e+03 5.933187007904052734e+00 -8.494489669799804688e+00 -6.232601776719093323e-02 8.217194080352783203e-01 2.278180122375488281e-01 -3.335352241992950439e-01
2.351000000000000000e+03 4.904325008392333984e+00 -8.492812156677246094e+00 -5.407329648733139038e-02 3.822332620620727539e-01 9.844799339771270752e-02 -4.716568589210510254e-01
2.352000000000000000e+03 6.055217266082763672e+00 2.695999526977539062e+01 -2.360666990280151367e-01 1.593601942062377930e+00 4.072605669498443604e-01 -9.306319355964660645e-01
2.353000000000000000e+03 3.832375335693359375e+01 -1.330787563323974609e+01 1.315879702568054199e+00 6.808767318725585938e+00 2.437394142150878906e+00 -2.553531229496002197e-01
2.354000000000000000e+03 4.123857498168945312e+01 -2.277818107604980469e+01 2.223160266876220703e+00 9.115314483642578125e+00 3.401542425155639648e+00 -1.979427337646484375e-01
2.355000000000000000e+03 6.268891811370849609e+00 -2.339172554016113281e+01 3.745531663298606873e-02 2.159456014633178711e+00 6.590734124183654785e-01 1.259055614471435547e+00
2.356000000000000000e+03 5.161890983581542969e+00 -1.877006912231445312e+01 6.642059087753295898e-01 1.134665727615356445e+00 5.396614670753479004e-01 7.668820023536682129e-01
2.357000000000000000e+03 7.602810859680175781e+00 -1.897655487060546875e+01 1.080466151237487793e+00 3.110251426696777344e+00 1.257215261459350586e+00 1.037249565124511719e+00
2.358000000000000000e+03 5.297240257263183594e+00 1.489730453491210938e+01 5.074416399002075195e-01 8.704317361116409302e-02 1.783454567193984985e-01 -5.049075484275817871e-01
2.359000000000000000e+03 6.480774402618408203e+00 1.483500480651855469e+01 6.818686723709106445e-01 6.282105445861816406e-01 3.930237591266632080e-01 -6.090060472488403320e-01
2.360000000000000000e+03 6.310502529144287109e+00 1.361801815032958984e+01 7.469964027404785156e-01 4.379290044307708740e-01 3.554776310920715332e-01 -4.043226838111877441e-01
2.361000000000000000e+03 5.171087265014648438e+00 1.237131786346435547e+01 5.793107151985168457e-01 -2.084922194480895996e-01 1.112455427646636963e-01 -5.767201632261276245e-02
2.362000000000000000e+03 6.615919113159179688e+00 2.042105674743652344e+01 1.872773021459579468e-01 1.227499723434448242e+00 4.244330823421478271e-01 -1.150546789169311523e+00
2.363000000000000000e+03 6.453885555267333984e+00 2.147467231750488281e+01 4.161294177174568176e-02 1.251766204833984375e+00 3.880137503147125244e-01 -1.164416551589965820e+00
2.364000000000000000e+03 7.323075866699218750e+01 1.734585380554199219e+01 9.815759062767028809e-01 8.712181091308593750e+00 2.908127307891845703e+00 9.906753897666931152e-01
2.365000000000000000e+03 6.101273536682128906e+00 -3.474243927001953125e+01 -2.964399158954620361e-01 1.908619523048400879e+00 4.836539030075073242e-01 3.214578628540039062e-01
2.366000000000000000e+03 1.146025657653808594e+01 -3.332455825805664062e+01 -6.427106261253356934e-01 1.718126416206359863e+00 3.226247727870941162e-01 5.414402112364768982e-02
2.367000000000000000e+03 8.325533866882324219e+00 2.681719398498535156e+01 -4.083851277828216553e-01 2.160470724105834961e+00 5.256257057189941406e-01 -1.008881807327270508e+00
2.368000000000000000e+03 7.123548507690429688e+00 2.759304237365722656e+01 -3.264870047569274902e-01 1.856126427650451660e+00 4.588918387889862061e-01 -9.350323081016540527e-01
2.369000000000000000e+03 8.344878196716308594e+00 6.501807689666748047e+00 7.104928493499755859e-01 2.855403423309326172e-01 2.988099455833435059e-01 6.746203899383544922e-01
2.370000000000000000e+03 6.648067474365234375e+00 8.404037475585937500e+00 7.463924288749694824e-01 2.612817101180553436e-02 2.317561805248260498e-01 5.460147261619567871e-01
2.371000000000000000e+03 4.518170547485351562e+01 1.733938980102539062e+01 1.439933180809020996e-01 7.099129199981689453e+00 2.172936677932739258e+00 1.039236709475517273e-01
2.372000000000000000e+03 7.029179382324218750e+01 -2.351449775695800781e+01 -4.241318907588720322e-03 9.227545738220214844e+00 2.766991376876831055e+00 -3.032966256141662598e-01
2.373000000000000000e+03 8.199023246765136719e+00 -1.451650905609130859e+01 1.135635852813720703e+00 3.134567499160766602e+00 1.281060934066772461e+00 8.017026633024215698e-02
2.374000000000000000e+03 6.275452613830566406e+00 1.245219612121582031e+01 7.979791760444641113e-01 2.618925273418426514e-01 3.179615139961242676e-01 -1.768292039632797241e-01
2.375000000000000000e+03 6.442120075225830078e+00 9.249325752258300781e+00 7.969084382057189941e-01 4.046553000807762146e-02 2.512121796607971191e-01 4.148555397987365723e-01
2.376000000000000000e+03 6.354913234710693359e+00 1.023405647277832031e+01 8.032865524291992188e-01 1.009293273091316223e-01 2.712647616863250732e-01 2.225881069898605347e-01
2.377000000000000000e+03 5.678562641143798828e+00 -1.255103397369384766e+01 3.719758987426757812e-01 1.158012509346008301e+00 4.589965343475341797e-01 -3.471465706825256348e-01
2.378000000000000000e+03 6.863275527954101562e+00 -1.223122501373291016e+01 3.601018190383911133e-01 1.881551623344421387e+00 6.724960207939147949e-01 -2.821715176105499268e-01
2.379000000000000000e+03 7.196465301513671875e+01 2.063138008117675781e+01 1.852453686296939850e-02 8.951798439025878906e+00 2.691097021102905273e+00 1.294500350952148438e+00
2.380000000000000000e+03 7.137332916259765625e+01 1.942580223083496094e+01 6.924806833267211914e-01 9.537465095520019531e+00 3.068983793258666992e+00 9.949306249618530273e-01
2.381000000000000000e+03 4.758720016479492188e+01 -4.912117481231689453e+00 -5.798096060752868652e-01 6.812124252319335938e+00 1.869694352149963379e+00 4.245006442070007324e-01
2.382000000000000000e+03 5.714062213897705078e+00 -7.241487979888916016e+00 -8.378034085035324097e-02 5.446907281875610352e-01 1.382731199264526367e-01 -3.596838414669036865e-01
2.383000000000000000e+03 6.360362243652343750e+01 -6.360620975494384766e+00 1.390519589185714722e-01 2.420513868331909180e+00 7.678697109222412109e-01 -7.637802362442016602e-01
2.384000000000000000e+03 7.266907501220703125e+01 2.179394149780273438e+01 -5.757432579994201660e-01 8.821502685546875000e+00 2.473727941513061523e+00 1.137694478034973145e+00
2.385000000000000000e+03 3.361013412475585938e+01 -8.482826232910156250e+00 1.490957736968994141e+00 1.323997020721435547e+00 8.444864153861999512e-01 -2.188269138336181641e+00
2.386000000000000000e+03 3.250040435791015625e+01 -8.927638053894042969e+00 1.507031440734863281e+00 1.513010144233703613e+00 9.060125350952148438e-01 -2.791024684906005859e+00
2.387000000000000000e+03 4.571243667602539062e+01 -4.741350173950195312e+00 -1.043488502502441406e+00 8.670265197753906250e+00 2.288033008575439453e+00 4.975378215312957764e-01
2.388000000000000000e+03 4.574361038208007812e+01 -6.778967857360839844e+00 -1.395354866981506348e+00 8.511174201965332031e+00 2.134745836257934570e+00 8.683066964149475098e-01
2.389000000000000000e+03 6.404981994628906250e+01 -1.558720469474792480e+00 4.212896823883056641e-01 2.890624761581420898e+00 9.935743212699890137e-01 1.144995465874671936e-01
2.390000000000000000e+03 6.132793807983398438e+01 -1.968915343284606934e+00 9.103085398674011230e-01 1.386150360107421875e+00 6.889376640319824219e-01 4.232011362910270691e-02
2.391000000000000000e+03 4.832039260864257812e+01 -2.484997749328613281e+00 5.101606249809265137e-01 5.725969791412353516e+00 1.870839238166809082e+00 -3.473212420940399170e-01
2.392000000000000000e+03 5.907004547119140625e+01 -3.477830171585083008e+00 1.049129009246826172e+00 4.589786827564239502e-01 4.524323046207427979e-01 -1.198580041527748108e-01
2.393000000000000000e+03 6.238227081298828125e+01 -6.091263294219970703e+00 3.552738428115844727e-01 1.704270839691162109e+00 6.178634166717529297e-01 -6.003504991531372070e-01
2.394000000000000000e+03 1.330849170684814453e+01 1.875031852722167969e+01 7.128466367721557617e-01 4.495250701904296875e+00 1.562429189682006836e+00 -1.238505721092224121e+00
2.395000000000000000e+03 5.948981475830078125e+01 -2.286535501480102539e+00 1.167559027671813965e+00 6.293195486068725586e-01 5.390635728836059570e-01 9.794508107006549835e-03
2.396000000000000000e+03 5.986231613159179688e+01 -3.903939485549926758e+00 8.715213537216186523e-01 7.099145054817199707e-01 4.744307696819305420e-01 -1.879415363073348999e-01
2.397000000000000000e+03 3.963572692871093750e+01 -2.561602592468261719e+01 1.563161611557006836e+00 8.354073524475097656e+00 2.975170612335205078e+00 1.990338712930679321e-01
2.398000000000000000e+03 7.008881378173828125e+01 -2.527178955078125000e+01 -6.514726281166076660e-01 8.285078048706054688e+00 2.290081501007080078e+00 -4.560385644435882568e-02
2.399000000000000000e+03 6.984377288818359375e+01 -2.700219345092773438e+01 -9.793924689292907715e-01 7.498775005340576172e+00 1.955814719200134277e+00 1.431095153093338013e-01
2.400000000000000000e+03 3.485285186767578125e+01 -1.270702934265136719e+01 1.552334070205688477e+00 4.364748477935791016e+00 1.775124788284301758e+00 -1.916637182235717773e+00
2.401000000000000000e+03 3.719618225097656250e+01 -1.452275753021240234e+01 1.648022890090942383e+00 6.824525356292724609e+00 2.541764497756958008e+00 -7.697108387947082520e-01
2.402000000000000000e+03 7.223628997802734375e+00 -1.787744903564453125e+01 1.172427296638488770e+00 2.741421222686767578e+00 1.174154639244079590e+00 7.068796753883361816e-01
2.403000000000000000e+03 4.644720458984375000e+01 -1.654240012168884277e+00 5.204913616180419922e-01 8.548916816711425781e+00 2.720822572708129883e+00 -1.391225159168243408e-01
2.404000000000000000e+03 4.355057907104492188e+01 -1.014426517486572266e+01 -5.028722286224365234e-01 8.786088943481445312e+00 2.484965085983276367e+00 1.016969442367553711e+00
2.405000000000000000e+03 1.795455360412597656e+01 2.316670417785644531e+01 -1.063554048538208008e+00 4.590842723846435547e+00 1.058186650276184082e+00 4.026517868041992188e-01
2.406000000000000000e+03 1.696990013122558594e+01 2.392627716064453125e+01 -1.105540037155151367e+00 4.436321735382080078e+00 9.992345571517944336e-01 1.697360724210739136e-01
2.407000000000000000e+03 1.310372352600097656e+01 2.050261306762695312e+01 1.970197558403015137e-01 4.188674449920654297e+00 1.315708279609680176e+00 -1.299295067787170410e+00
2.408000000000000000e+03 1.414416503906250000e+01 1.969056320190429688e+01 5.109530687332153320e-01 4.966891288757324219e+00 1.643353223800659180e+00 -1.087000966072082520e+00
2.409000000000000000e+03 6.933765411376953125e+01 -2.852367782592773438e+01 -9.856716394424438477e-01 6.725506782531738281e+00 1.721950531005859375e+00 2.746690809726715088e-01
2.410000000000000000e+03 8.660385131835937500e+00 -2.305743598937988281e+01 5.041571334004402161e-02 3.491977691650390625e+00 1.062718033790588379e+00 1.085814714431762695e+00
2.411000000000000000e+03 7.249134826660156250e+01 7.017539978027343750e+00 -1.364306360483169556e-01 7.816900730133056641e+00 2.304141044616699219e+00 -3.564844429492950439e-01
2.412000000000000000e+03 6.927004241943359375e+01 5.287508964538574219e+00 -3.732012212276458740e-01 6.904723167419433594e+00 1.959456562995910645e+00 4.365693628787994385e-01
2.413000000000000000e+03 7.231830596923828125e+01 9.972230911254882812e+00 5.218214988708496094e-01 8.525745391845703125e+00 2.714270114898681641e+00 -2.365652024745941162e-01
2.414000000000000000e+03 7.273717498779296875e+01 1.418075180053710938e+01 1.263830900192260742e+00 8.679325103759765625e+00 2.982946634292602539e+00 1.954085826873779297e-01
2.415000000000000000e+03 7.133463287353515625e+01 6.504791259765625000e+00 -2.922250330448150635e-01 7.779136180877685547e+00 2.246073246002197266e+00 -6.392660737037658691e-02
2.416000000000000000e+03 7.292387390136718750e+01 5.837820053100585938e+00 -2.740446627140045166e-01 7.690254688262939453e+00 2.224863052368164062e+00 -3.263936340808868408e-01
2.417000000000000000e+03 7.292066192626953125e+01 1.634571433067321777e+00 -4.221658706665039062e-01 7.203927040100097656e+00 2.034528255462646484e+00 -1.464711278676986694e-01
2.418000000000000000e+03 3.690368652343750000e+01 2.370326423645019531e+01 -6.334968209266662598e-01 2.201816797256469727e+00 4.704959690570831299e-01 -9.498890638351440430e-01
2.419000000000000000e+03 6.773886871337890625e+01 -3.001450920104980469e+01 -8.711710572242736816e-01 5.457247257232666016e+00 1.375822782516479492e+00 6.793929934501647949e-01
2.420000000000000000e+03 6.863734436035156250e+01 -3.172866821289062500e+01 -7.868453264236450195e-01 5.601227283477783203e+00 1.444314599037170410e+00 4.853309690952301025e-01
2.421000000000000000e+03 2.253222846984863281e+01 -5.270991325378417969e+00 3.025511503219604492e+00 3.785198450088500977e+00 2.043212890625000000e+00 -3.256949901580810547e+00
2.422000000000000000e+03 2.075380897521972656e+01 -8.558915138244628906e+00 -1.380193233489990234e-01 2.670829296112060547e+00 7.598429918289184570e-01 -5.181813240051269531e-01
2.423000000000000000e+03 3.940506362915039062e+01 -2.938811874389648438e+01 -1.977431327104568481e-01 7.456066131591796875e+00 2.177496910095214844e+00 2.002885341644287109e-01
2.424000000000000000e+03 4.191633987426757812e+01 -2.993612098693847656e+01 -4.343439042568206787e-01 7.415328025817871094e+00 2.094295263290405273e+00 -3.974309265613555908e-01
2.425000000000000000e+03 4.000234222412109375e+01 -1.958126068115234375e+01 2.478314638137817383e+00 9.109219551086425781e+00 3.476260185241699219e+00 -2.366401702165603638e-01
2.426000000000000000e+03 4.183924102783203125e+01 -1.589558315277099609e+01 1.895878195762634277e+00 8.976246833801269531e+00 3.261637687683105469e+00 5.004361271858215332e-01
2.427000000000000000e+03 4.019770812988281250e+01 -1.720508193969726562e+01 2.383990526199340820e+00 8.713987350463867188e+00 3.329393386840820312e+00 6.195615278556942940e-04
2.428000000000000000e+03 3.152979660034179688e+01 2.638776016235351562e+01 -4.999558627605438232e-01 9.168189167976379395e-01 1.250589191913604736e-01 -4.140828251838684082e-01
2.429000000000000000e+03 9.169868469238281250e+00 1.531807994842529297e+01 1.039422035217285156e+00 2.067991733551025391e+00 9.322241544723510742e-01 -9.514225721359252930e-01
2.430000000000000000e+03 6.874295806884765625e+01 1.886939525604248047e+00 -3.680438697338104248e-01 5.892689704895019531e+00 1.657393813133239746e+00 3.060610890388488770e-01
2.431000000000000000e+03 2.549391937255859375e+01 -1.021063232421875000e+01 3.478749990463256836e-01 1.315085172653198242e+00 4.988880455493927002e-01 -2.040650606155395508e+00
2.432000000000000000e+03 1.425278949737548828e+01 1.065895652770996094e+01 1.874371767044067383e+00 5.485908508300781250e+00 2.208084106445312500e+00 -1.325876832008361816e+00
2.433000000000000000e+03 6.828686523437500000e+01 4.584826469421386719e+00 -2.613280713558197021e-01 6.240589618682861328e+00 1.793778419494628906e+00 7.509556412696838379e-01
2.434000000000000000e+03 7.249682617187500000e+01 4.224542617797851562e+00 -4.022398591041564941e-01 7.424645423889160156e+00 2.106721639633178711e+00 -2.183297425508499146e-01
2.435000000000000000e+03 3.996636199951171875e+01 -1.838581466674804688e+01 2.433870792388916016e+00 9.004612922668457031e+00 3.431545257568359375e+00 -1.988450586795806885e-01
2.436000000000000000e+03 3.488832092285156250e+01 -9.490711212158203125e+00 1.260395884513854980e+00 2.619824409484863281e+00 1.164066076278686523e+00 -1.609714150428771973e+00
2.437000000000000000e+03 3.353397369384765625e+01 -9.557001113891601562e+00 1.518437385559082031e+00 1.948959708213806152e+00 1.040219187736511230e+00 -2.311099529266357422e+00
2.438000000000000000e+03 1.307634830474853516e+01 8.732241630554199219e+00 1.813685536384582520e+00 3.694677591323852539e+00 1.652508974075317383e+00 -9.044930934906005859e-01
2.439000000000000000e+03 4.380831527709960938e+01 1.902164268493652344e+01 -2.420216798782348633e-01 5.807246685028076172e+00 1.669567584991455078e+00 -5.224035382270812988e-01
2.440000000000000000e+03 5.312683105468750000e+01 2.988523292541503906e+01 -7.141805291175842285e-01 3.241602659225463867e+00 7.582266330718994141e-01 1.440664887428283691e+00
2.441000000000000000e+03 5.788849258422851562e+01 3.099595642089843750e+01 6.778628379106521606e-02 2.240772247314453125e+00 6.925675868988037109e-01 9.810290336608886719e-01
2.442000000000000000e+03 2.152644157409667969e+01 2.779399681091308594e+01 -7.061697840690612793e-01 1.936232566833496094e+00 3.690188229084014893e-01 9.638459682464599609e-01
2.443000000000000000e+03 2.230707931518554688e+01 2.629924392700195312e+01 -7.050563693046569824e-01 1.562498927116394043e+00 2.572327554225921631e-01 1.097794890403747559e+00
2.444000000000000000e+03 6.865796661376953125e+01 2.704518508911132812e+01 -1.119482994079589844e+00 5.893085479736328125e+00 1.432080745697021484e+00 -8.675126433372497559e-01
2.445000000000000000e+03 2.908715248107910156e+01 -8.559107780456542969e+00 1.620570302009582520e+00 1.769137978553771973e+00 1.016912460327148438e+00 -3.091544628143310547e+00
2.446000000000000000e+03 3.770047378540039062e+01 -1.075952053070068359e+01 7.917153835296630859e-01 5.402091979980468750e+00 1.858142256736755371e+00 -1.592811346054077148e-01
2.447000000000000000e+03 4.290677261352539062e+01 -2.887243652343750000e+01 4.814845323562622070e-02 7.676478862762451172e+00 2.317388296127319336e+00 -6.794514060020446777e-01
2.448000000000000000e+03 5.887331771850585938e+01 2.883283424377441406e+01 -8.930140733718872070e-02 1.619929075241088867e+00 4.591883122920989990e-01 9.700308442115783691e-01
2.449000000000000000e+03 5.018650054931640625e+01 2.921722602844238281e+01 -1.111731052398681641e+00 4.063436508178710938e+00 8.855116367340087891e-01 1.090390086174011230e+00
2.450000000000000000e+03 4.062295532226562500e+01 -1.462021350860595703e+01 1.633909702301025391e+00 8.225121498107910156e+00 2.957709550857543945e+00 3.824827075004577637e-01
2.451000000000000000e+03 3.883124923706054688e+01 -1.077853298187255859e+01 5.708401203155517578e-01 5.986901760101318359e+00 1.967322468757629395e+00 3.029517531394958496e-01
2.452000000000000000e+03 7.398796081542968750e+01 1.514887046813964844e+01 1.003129482269287109e+00 8.230740547180175781e+00 2.770161151885986328e+00 4.749688208103179932e-01
2.453000000000000000e+03 7.404803752899169922e+00 -2.944291305541992188e+01 -5.684616565704345703e-01 2.183004856109619141e+00 4.843629896640777588e-01 7.555048465728759766e-01
2.454000000000000000e+03 4.751881027221679688e+01 2.394566154479980469e+01 -1.070222616195678711e+00 5.645804405212402344e+00 1.372674584388732910e+00 3.818064332008361816e-01
2.455000000000000000e+03 1.420506477355957031e+01 -3.473152542114257812e+01 -5.475003719329833984e-01 1.213336467742919922e+00 1.997508406639099121e-01 -1.537649929523468018e-01
2.456000000000000000e+03 1.567961502075195312e+01 -3.686828613281250000e+01 -3.393723070621490479e-01 8.538296818733215332e-01 1.543372124433517456e-01 -1.667599976062774658e-01
2.457000000000000000e+03 1.740930557250976562e+01 -3.321972656250000000e+01 -6.441675424575805664e-01 6.187022924423217773e-01 -7.639588322490453720e-03 -2.816123366355895996e-01
2.458000000000000000e+03 4.067421340942382812e+01 -1.343799972534179688e+01 1.176628589630126953e+00 7.875820636749267578e+00 2.715734720230102539e+00 4.610001444816589355e-01
2.459000000000000000e+03 5.775910854339599609e+00 -3.085703086853027344e+01 -3.956005275249481201e-01 1.941208004951477051e+00 4.636822342872619629e-01 6.789894104003906250e-01
2.460000000000000000e+03 7.377766418457031250e+01 -5.533284187316894531e+00 -4.896572828292846680e-01 7.403805255889892578e+00 2.074244260787963867e+00 3.368908762931823730e-01
2.461000000000000000e+03 1.256673812866210938e+01 -3.058021354675292969e+01 -8.124358654022216797e-01 1.838146686553955078e+00 3.077132403850555420e-01 -3.339536115527153015e-02
2.462000000000000000e+03 6.731322479248046875e+01 -3.239782333374023438e+01 -5.680914521217346191e-01 4.744448661804199219e+00 1.252907156944274902e+00 7.183148860931396484e-01
2.463000000000000000e+03 7.444962310791015625e+01 -1.304962253570556641e+01 1.949642449617385864e-01 7.784245491027832031e+00 2.393762826919555664e+00 9.853082895278930664e-01
2.464000000000000000e+03 7.425480651855468750e+01 1.917664909362792969e+01 4.641054272651672363e-01 8.343400955200195312e+00 2.642251968383789062e+00 1.232775926589965820e+00
2.465000000000000000e+03 5.306678771972656250e+01 2.440331649780273438e+01 -9.951361417770385742e-01 3.764984846115112305e+00 8.309546113014221191e-01 2.023540496826171875e+00
2.466000000000000000e+03 5.274337768554687500e+01 -3.781733322143554688e+01 1.916832849383354187e-02 2.523516416549682617e+00 7.628054618835449219e-01 -9.233763217926025391e-01
2.467000000000000000e+03 1.721673011779785156e+01 -4.621824264526367188e+00 2.604527235031127930e+00 3.658494234085083008e+00 1.878906488418579102e+00 3.491769075393676758e+00
2.468000000000000000e+03 1.677865600585937500e+01 -3.876007556915283203e+00 3.506777763366699219e+00 2.223585844039916992e+00 1.719109058380126953e+00 3.343325376510620117e+00
2.469000000000000000e+03 1.578794765472412109e+01 -4.857393741607666016e+00 2.346993923187255859e+00 1.529185891151428223e+00 1.162853956222534180e+00 2.942382574081420898e+00
2.470000000000000000e+03 1.872948837280273438e+01 1.488959193229675293e+00 -1.636554598808288574e+00 1.092604255676269531e+01 2.786846399307250977e+00 -4.154497146606445312e+00
2.471000000000000000e+03 1.787045669555664062e+01 1.404103755950927734e+00 -8.038194775581359863e-01 8.065054893493652344e+00 2.178370475769042969e+00 -4.627646923065185547e+00
2.472000000000000000e+03 1.401005840301513672e+01 -5.243046760559082031e+00 1.432515025138854980e+00 8.911213874816894531e-01 6.970909237861633301e-01 2.298222541809082031e+00
2.473000000000000000e+03 1.438817119598388672e+01 -5.077119827270507812e+00 1.633222818374633789e+00 9.196549057960510254e-01 7.658632993698120117e-01 2.378653526306152344e+00
2.474000000000000000e+03 1.301616954803466797e+01 -5.581947803497314453e+00 9.481716752052307129e-01 9.956836700439453125e-01 5.831565856933593750e-01 2.008254766464233398e+00
2.475000000000000000e+03 1.348588848114013672e+01 -5.602605819702148438e+00 1.114563941955566406e+00 9.679065346717834473e-01 6.247411370277404785e-01 2.181715965270996094e+00
2.476000000000000000e+03 1.353850173950195312e+01 -5.169629096984863281e+00 1.259353637695312500e+00 8.326840996742248535e-01 6.276113390922546387e-01 2.071420431137084961e+00
2.477000000000000000e+03 1.063694381713867188e+01 -6.576977252960205078e+00 1.199478730559349060e-01 1.451636672019958496e+00 4.714753627777099609e-01 1.168867230415344238e+00
2.478000000000000000e+03 1.506022453308105469e+01 -4.951242923736572266e+00 2.007104396820068359e+00 1.096577286720275879e+00 9.311044812202453613e-01 2.637602090835571289e+00
2.479000000000000000e+03 1.149537754058837891e+01 -5.091247081756591797e+00 4.781044721603393555e-01 8.156471848487854004e-01 3.881255090236663818e-01 1.177305221557617188e+00
2.480000000000000000e+03 9.861170768737792969e+00 -6.012727737426757812e+00 6.920010596513748169e-02 1.142886996269226074e+00 3.636261522769927979e-01 7.244041562080383301e-01
2.481000000000000000e+03 1.046638584136962891e+01 -5.897915840148925781e+00 1.715370565652847290e-01 1.104288935661315918e+00 3.827477991580963135e-01 9.387775659561157227e-01
2.482000000000000000e+03 7.912581443786621094e+00 -6.419546127319335938e+00 -9.290271997451782227e-02 9.453267455101013184e-01 2.557272017002105713e-01 8.328343182802200317e-02
2.483000000000000000e+03 1.816288566589355469e+01 2.726511001586914062e+00 -1.298730373382568359e+00 9.025187492370605469e+00 2.317937135696411133e+00 -3.556401252746582031e+00
2.484000000000000000e+03 7.700743198394775391e+00 -5.659057617187500000e+00 -7.643241435289382935e-02 7.185794711112976074e-01 1.926441192626953125e-01 2.656737528741359711e-02
2.485000000000000000e+03 9.231721878051757812e+00 -6.137852191925048828e+00 -1.836782321333885193e-02 1.082557678222656250e+00 3.192569613456726074e-01 4.656425416469573975e-01
2.486000000000000000e+03 1.103961944580078125e+01 -5.777505874633789062e+00 3.170164823532104492e-01 1.072375535964965820e+00 4.168176054954528809e-01 1.164867043495178223e+00
2.487000000000000000e+03 6.539116382598876953e+00 -6.989319801330566406e+00 -1.095562949776649475e-01 7.676712870597839355e-01 1.974344998598098755e-01 -2.302135527133941650e-01
2.488000000000000000e+03 6.983841896057128906e+00 5.939577102661132812e+00 3.541699945926666260e-01 -1.116256341338157654e-01 7.276330888271331787e-02 9.120751619338989258e-01
2.489000000000000000e+03 9.337121963500976562e+00 5.735903263092041016e+00 6.255656480789184570e-01 4.401170015335083008e-01 3.197048008441925049e-01 6.030156612396240234e-01
2.490000000000000000e+03 7.278503417968750000e+00 6.965149879455566406e+00 6.306473016738891602e-01 3.525828197598457336e-02 1.997716873884201050e-01 7.266573905944824219e-01
2.491000000000000000e+03 1.517815017700195312e+01 5.346146106719970703e+00 1.043921113014221191e+00 4.682513236999511719e+00 1.717930316925048828e+00 -1.616703033447265625e+00
2.492000000000000000e+03 1.222569751739501953e+01 9.607258796691894531e+00 1.767374992370605469e+00 3.180771350860595703e+00 1.484443902969360352e+00 -7.232707142829895020e-01
2.493000000000000000e+03 1.366281604766845703e+01 6.222346305847167969e+00 1.296240925788879395e+00 3.250328540802001953e+00 1.363970875740051270e+00 -9.581766724586486816e-01
2.494000000000000000e+03 1.403239250183105469e+01 -8.993751525878906250e+00 -2.602779269218444824e-01 2.326098918914794922e+00 6.197462677955627441e-01 3.219753503799438477e+00
2.495000000000000000e+03 1.585167121887207031e+01 3.747457981109619141e+00 2.620011568069458008e-01 4.926727771759033203e+00 1.556618690490722656e+00 -2.160783767700195312e+00
2.496000000000000000e+03 1.563633441925048828e+01 5.918198585510253906e+00 1.196036815643310547e+00 5.654397010803222656e+00 2.055130004882812500e+00 -1.745291233062744141e+00
2.497000000000000000e+03 2.028949737548828125e+01 -4.951281070709228516e+00 1.747173070907592773e+00 7.169191837310791016e+00 2.674909353256225586e+00 -1.370240449905395508e+00
2.498000000000000000e+03 2.251308822631835938e+01 -6.821928024291992188e+00 1.664737820625305176e+00 3.185061216354370117e+00 1.454939723014831543e+00 -2.403084993362426758e+00
2.499000000000000000e+03 1.571629810333251953e+01 6.566337585449218750e+00 1.423256397247314453e+00 5.966361045837402344e+00 2.216885328292846680e+00 -1.772027730941772461e+00
2.500000000000000000e+03 1.421632003784179688e+01 6.546621322631835938e+00 1.405901908874511719e+00 4.008571147918701172e+00 1.624341964721679688e+00 -1.248238325119018555e+00
2.501000000000000000e+03 2.161425018310546875e+01 -8.747815132141113281e+00 6.715469807386398315e-02 2.345954895019531250e+00 7.239328622817993164e-01 -1.067618608474731445e+00
2.502000000000000000e+03 2.248500251770019531e+01 -8.859588623046875000e+00 2.869435250759124756e-01 2.226336240768432617e+00 7.539839148521423340e-01 -1.570327997207641602e+00
2.503000000000000000e+03 1.408789634704589844e+01 8.641365051269531250e+00 1.865874886512756348e+00 4.728266239166259766e+00 1.978242278099060059e+00 -1.230280518531799316e+00
2.504000000000000000e+03 1.387652778625488281e+01 7.733531475067138672e+00 1.752003192901611328e+00 4.194351196289062500e+00 1.783906340599060059e+00 -1.090896606445312500e+00
2.505000000000000000e+03 7.752048015594482422e+00 -8.716162681579589844e+00 -1.341339051723480225e-01 1.620303273200988770e+00 4.458508193492889404e-01 4.588484019041061401e-02
2.506000000000000000e+03 1.027984809875488281e+01 -1.179791545867919922e+01 1.128102988004684448e-01 3.941306591033935547e+00 1.216235041618347168e+00 7.572810053825378418e-01
2.507000000000000000e+03 1.021885108947753906e+01 -1.052522277832031250e+01 -1.971784681081771851e-01 3.363561153411865234e+00 9.499148130416870117e-01 9.000349044799804688e-01
2.508000000000000000e+03 1.055657386779785156e+01 5.071523666381835938e+00 5.536772012710571289e-01 6.823233366012573242e-01 3.708001673221588135e-01 3.839667439460754395e-01
2.509000000000000000e+03 8.227817535400390625e+00 9.273344039916992188e+00 1.127896785736083984e+00 7.275031208992004395e-01 5.566199421882629395e-01 1.648151874542236328e-01
2.510000000000000000e+03 1.294289493560791016e+01 6.121501445770263672e+00 1.223126530647277832e+00 2.682551145553588867e+00 1.171703219413757324e+00 -6.613682508468627930e-01
2.511000000000000000e+03 1.210649299621582031e+01 6.076869487762451172e+00 1.177638173103332520e+00 1.959799170494079590e+00 9.412311911582946777e-01 -2.995057404041290283e-01
2.512000000000000000e+03 1.663920211791992188e+01 3.767106533050537109e+00 1.556283980607986450e-02 6.208732128143310547e+00 1.867288589477539062e+00 -2.550565958023071289e+00
2.513000000000000000e+03 1.588945579528808594e+01 4.878245353698730469e+00 6.943358182907104492e-01 5.437939643859863281e+00 1.839682579040527344e+00 -1.952088475227355957e+00
2.514000000000000000e+03 4.400383758544921875e+01 -7.327124595642089844e+00 -1.512676477432250977e+00 8.964729309082031250e+00 2.235615968704223633e+00 1.069732785224914551e+00
2.515000000000000000e+03 1.322979640960693359e+01 -8.771854400634765625e+00 -2.987796664237976074e-01 2.526184797286987305e+00 6.682215332984924316e-01 2.786422252655029297e+00
2.516000000000000000e+03 7.311302661895751953e+00 1.354312229156494141e+01 8.858513832092285156e-01 8.681889772415161133e-01 5.262120962142944336e-01 -4.872762560844421387e-01
2.517000000000000000e+03 8.702966690063476562e+00 1.703227806091308594e+01 7.543207406997680664e-01 1.921714782714843750e+00 8.028106689453125000e-01 -1.104568839073181152e+00
2.518000000000000000e+03 4.033843994140625000e+01 -9.673151969909667969e+00 -1.678043603897094727e-01 6.996329307556152344e+00 2.048557519912719727e+00 9.318717718124389648e-01
2.519000000000000000e+03 1.751394271850585938e+01 3.635998725891113281e+00 -3.601105511188507080e-01 7.848903656005859375e+00 2.246637821197509766e+00 -2.905731439590454102e+00
2.520000000000000000e+03 8.546199798583984375e+00 -1.290582275390625000e+01 6.071618795394897461e-01 3.095715761184692383e+00 1.110863327980041504e+00 2.056439034640789032e-02
2.521000000000000000e+03 1.314794254302978516e+01 1.056942653656005859e+01 1.833023667335510254e+00 4.234732627868652344e+00 1.820326924324035645e+00 -1.023434758186340332e+00
2.522000000000000000e+03 1.029313278198242188e+01 5.868322849273681641e+00 8.269690275192260742e-01 8.297428488731384277e-01 4.970135688781738281e-01 3.604188859462738037e-01
2.523000000000000000e+03 1.624395370483398438e+01 5.555037021636962891e+00 1.032671570777893066e+00 6.342002868652343750e+00 2.212402343750000000e+00 -2.076940059661865234e+00
2.524000000000000000e+03 4.481146621704101562e+01 -4.089483261108398438e+00 -9.061620831489562988e-01 9.313255310058593750e+00 2.522127866744995117e+00 5.741131305694580078e-01
2.525000000000000000e+03 4.168283081054687500e+01 -2.081149482727050781e+01 2.389059066772460938e+00 9.382381439208984375e+00 3.531432151794433594e+00 -3.115441501140594482e-01
2.526000000000000000e+03 7.190159606933593750e+01 5.380214214324951172e+00 -3.095552921295166016e-01 7.513467311859130859e+00 2.161173582077026367e+00 -1.820550411939620972e-01
2.527000000000000000e+03 6.707575988769531250e+01 2.117428064346313477e+00 -1.449994742870330811e-01 5.010428905487060547e+00 1.459628820419311523e+00 5.894458293914794922e-01
2.528000000000000000e+03 1.746102905273437500e+01 -8.768812179565429688e+00 -1.400673091411590576e-01 1.865178465843200684e+00 5.175333619117736816e-01 2.426207780838012695e+00
2.529000000000000000e+03 1.641203308105468750e+01 -8.169949531555175781e+00 2.766734957695007324e-01 2.017396688461303711e+00 6.882210373878479004e-01 3.093216896057128906e+00
2.530000000000000000e+03 2.461256217956542969e+01 -7.965152263641357422e+00 1.649590730667114258e+00 1.750023841857910156e+00 1.019884347915649414e+00 -2.456195354461669922e+00
2.531000000000000000e+03 3.599143218994140625e+01 -1.336100673675537109e+01 1.719004750251770020e+00 5.585915088653564453e+00 2.191475868225097656e+00 -1.488403916358947754e+00
2.532000000000000000e+03 3.744058990478515625e+01 -1.175142574310302734e+01 1.104445934295654297e+00 5.566950321197509766e+00 2.001418828964233398e+00 -4.937952458858489990e-01
2.533000000000000000e+03 7.118611907958984375e+01 -2.445898246765136719e+01 -2.239429652690887451e-01 8.741819381713867188e+00 2.555362701416015625e+00 -7.286434769630432129e-01
2.534000000000000000e+03 2.334147262573242188e+01 -5.207991600036621094e+00 3.467079877853393555e+00 2.885320425033569336e+00 1.905720114707946777e+00 -3.433620452880859375e+00
2.535000000000000000e+03 4.745204925537109375e+01 -3.263408899307250977e+00 7.549161463975906372e-02 7.021295547485351562e+00 2.129036188125610352e+00 -1.687425076961517334e-01
2.536000000000000000e+03 1.602132225036621094e+01 2.320405006408691406e+01 -9.211388826370239258e-01 4.666774749755859375e+00 1.123690843582153320e+00 -3.937037289142608643e-01
2.537000000000000000e+03 1.508150100708007812e+01 2.055878639221191406e+01 1.141831651329994202e-01 5.105190753936767578e+00 1.565812230110168457e+00 -9.398479461669921875e-01
2.538000000000000000e+03 6.690919494628906250e+01 -4.014708518981933594e+00 -2.462338060140609741e-01 4.686571121215820312e+00 1.332101225852966309e+00 -3.708809018135070801e-01
2.539000000000000000e+03 6.595498657226562500e+01 -2.951940000057220459e-01 6.255520880222320557e-02 4.156838417053222656e+00 1.265818119049072266e+00 3.088203370571136475e-01
2.540000000000000000e+03 6.133240127563476562e+01 -3.733415126800537109e+00 7.466124892234802246e-01 1.352700591087341309e+00 6.297939419746398926e-01 -2.198063433170318604e-01
2.541000000000000000e+03 2.091533088684082031e+01 2.503160667419433594e+01 -9.178726673126220703e-01 2.304744243621826172e+00 4.160614907741546631e-01 1.306234478950500488e+00
2.542000000000000000e+03 1.751808166503906250e+01 2.483128738403320312e+01 -1.153586387634277344e+00 3.965001106262207031e+00 8.434243798255920410e-01 3.993112146854400635e-01
2.543000000000000000e+03 6.983738708496093750e+01 -3.051957702636718750e+01 -8.675318956375122070e-01 6.501335144042968750e+00 1.690140962600708008e+00 2.003227025270462036e-01
2.544000000000000000e+03 7.225537872314453125e+01 -2.803962135314941406e+01 -7.344250082969665527e-01 7.670973777770996094e+00 2.080964565277099609e+00 -5.455006957054138184e-01
2.545000000000000000e+03 2.261117553710937500e+01 -6.042224407196044922e+00 2.374880790710449219e+00 3.430607080459594727e+00 1.741646409034729004e+00 -2.807468891143798828e+00
2.546000000000000000e+03 7.167220306396484375e+01 -1.107744216918945312e+01 -3.627259731292724609e-01 8.283445358276367188e+00 2.376215934753417969e+00 6.389558315277099609e-01
2.547000000000000000e+03 1.312300491333007812e+01 1.148968124389648438e+01 1.812209367752075195e+00 4.365173816680908203e+00 1.853214859962463379e+00 -1.084203481674194336e+00
2.548000000000000000e+03 1.317710399627685547e+01 9.631263732910156250e+00 1.831038236618041992e+00 4.039533138275146484e+00 1.761171460151672363e+00 -1.002148866653442383e+00
2.549000000000000000e+03 7.104269409179687500e+01 -5.059489250183105469e+00 -6.660432219505310059e-01 6.856301784515380859e+00 1.857077479362487793e+00 2.655198425054550171e-02
2.550000000000000000e+03 1.413137817382812500e+01 1.172439575195312500e+01 1.782775402069091797e+00 5.576377391815185547e+00 2.207745790481567383e+00 -1.255176782608032227e+00
2.551000000000000000e+03 1.176141166687011719e+01 1.228661918640136719e+01 1.648529767990112305e+00 3.324457168579101562e+00 1.491896152496337891e+00 -9.260994195938110352e-01
2.552000000000000000e+03 7.216881561279296875e+01 1.774985694885253906e+01 1.135193467140197754e+00 9.217760086059570312e+00 3.105886220932006836e+00 8.686584830284118652e-01
2.553000000000000000e+03 6.214282989501953125e+01 -2.868476390838623047e+00 6.932123899459838867e-01 1.849002957344055176e+00 7.626646161079406738e-01 -1.282742023468017578e-01
2.554000000000000000e+03 6.137945175170898438e+01 -5.427482128143310547e+00 5.363964438438415527e-01 1.202884078025817871e+00 5.217841863632202148e-01 -3.980519771575927734e-01
2.555000000000000000e+03 3.814175415039062500e+01 -1.564905738830566406e+01 1.971920967102050781e+00 7.746833801269531250e+00 2.915626525878906250e+00 -4.938817024230957031e-01
2.556000000000000000e+03 3.952416992187500000e+01 -1.338381862640380859e+01 1.314096331596374512e+00 7.433755397796630859e+00 2.624355554580688477e+00 1.259621530771255493e-01
2.557000000000000000e+03 1.019400501251220703e+01 -7.838342666625976562e+00 -1.027102619409561157e-01 1.933355093002319336e+00 5.491934418678283691e-01 1.007794141769409180e+00
2.558000000000000000e+03 6.116244792938232422e+00 -9.764815330505371094e+00 -3.512133611366152763e-03 1.058653831481933594e+00 3.165425062179565430e-01 -3.715496361255645752e-01
2.559000000000000000e+03 7.095339202880859375e+01 2.442437934875488281e+01 -1.422020792961120605e+00 7.867481708526611328e+00 1.933638215065002441e+00 6.782062817364931107e-03
2.560000000000000000e+03 6.714538097381591797e+00 2.261406135559082031e+01 -2.577080763876438141e-02 1.456134080886840820e+00 4.291089773178100586e-01 -1.191691398620605469e+00
2.561000000000000000e+03 9.019756317138671875e+00 2.472660636901855469e+01 -3.512890636920928955e-01 2.399319887161254883e+00 6.144092082977294922e-01 -1.181857943534851074e+00
2.562000000000000000e+03 7.082035827636718750e+01 -2.629110908508300781e+01 -7.712085247039794922e-01 8.035366058349609375e+00 2.179247379302978516e+00 -3.887859284877777100e-01
2.563000000000000000e+03 1.259750175476074219e+01 1.440288352966308594e+01 1.476295351982116699e+00 4.315174102783203125e+00 1.737440824508666992e+00 -1.127573966979980469e+00
2.564000000000000000e+03 1.179584693908691406e+01 1.509829807281494141e+01 1.290342330932617188e+00 3.681276082992553711e+00 1.491485476493835449e+00 -1.120325088500976562e+00
2.565000000000000000e+03 7.162226104736328125e+01 2.838879823684692383e+00 -4.693610966205596924e-01 7.061426639556884766e+00 1.977619647979736328e+00 -3.205155953764915466e-02
2.566000000000000000e+03 7.015335083007812500e+01 -4.550090312957763672e+00 -6.315205693244934082e-01 6.421662330627441406e+00 1.737042546272277832e+00 -1.868463754653930664e-01
2.567000000000000000e+03 7.335360717773437500e+01 -4.503693580627441406e+00 -5.303753614425659180e-01 7.269901752471923828e+00 2.021857976913452148e+00 1.998688131570816040e-01
2.568000000000000000e+03 7.307868957519531250e+01 -5.996859550476074219e+00 -5.918880105018615723e-01 7.352844715118408203e+00 2.028286933898925781e+00 3.076775670051574707e-01
2.569000000000000000e+03 6.502110290527343750e+01 -9.771562218666076660e-01 2.269332259893417358e-01 3.521956920623779297e+00 1.124667048454284668e+00 2.194355130195617676e-01
2.570000000000000000e+03 7.052450561523437500e+01 -9.740261077880859375e+00 -7.198615670204162598e-01 7.830291271209716797e+00 2.133128881454467773e+00 5.585652962327003479e-02
2.571000000000000000e+03 1.251755905151367188e+01 1.774580001831054688e+01 9.027967453002929688e-01 4.109270095825195312e+00 1.503620028495788574e+00 -1.218915224075317383e+00
2.572000000000000000e+03 6.704981327056884766e+00 1.736526870727539062e+01 5.111096501350402832e-01 9.870598912239074707e-01 4.494508802890777588e-01 -9.646554589271545410e-01
2.573000000000000000e+03 8.514924049377441406e+00 1.882912826538085938e+01 4.899719059467315674e-01 1.983617305755615234e+00 7.420767545700073242e-01 -1.247626900672912598e+00
2.574000000000000000e+03 7.433873653411865234e+00 1.955245590209960938e+01 2.866831719875335693e-01 1.474466085433959961e+00 5.283447504043579102e-01 -1.201295614242553711e+00
2.575000000000000000e+03 6.050946807861328125e+01 -2.955259799957275391e+00 9.443269968032836914e-01 1.024134397506713867e+00 5.905384421348571777e-01 -1.026071161031723022e-01
2.576000000000000000e+03 8.245555877685546875e+00 -3.333659362792968750e+01 -4.996525645256042480e-01 1.885692119598388672e+00 4.158118367195129395e-01 3.202876150608062744e-01
2.577000000000000000e+03 7.908250331878662109e+00 -1.187517929077148438e+01 2.352136224508285522e-01 2.555992364883422852e+00 8.373618125915527344e-01 -5.943747609853744507e-02
2.578000000000000000e+03 8.139245986938476562e+00 7.312037467956542969e+00 8.642807006835937500e-01 3.478637337684631348e-01 3.636433184146881104e-01 5.722562074661254883e-01
2.579000000000000000e+03 6.315962314605712891e+00 1.132163810729980469e+01 7.791220545768737793e-01 1.730312854051589966e-01 2.856460213661193848e-01 4.656629636883735657e-02
2.580000000000000000e+03 1.209726333618164062e+01 3.098724555969238281e+01 -7.256344556808471680e-01 2.614294052124023438e+00 5.665978789329528809e-01 -4.396742880344390869e-01
2.581000000000000000e+03 6.572280883789062500e+01 -4.571813106536865234e+00 -9.497272223234176636e-02 3.902590274810791016e+00 1.142285227775573730e+00 -5.201063752174377441e-01
2.582000000000000000e+03 1.266558361053466797e+01 1.602931976318359375e+01 1.240189552307128906e+00 4.338902473449707031e+00 1.673727631568908691e+00 -1.153606057167053223e+00
2.583000000000000000e+03 1.225859355926513672e+01 1.949113655090332031e+01 5.205480456352233887e-01 3.870248317718505859e+00 1.317238926887512207e+00 -1.315044879913330078e+00
2.584000000000000000e+03 7.295766448974609375e+01 8.802960395812988281e+00 1.553428322076797485e-01 8.080931663513183594e+00 2.470882415771484375e+00 -4.397205710411071777e-01
2.585000000000000000e+03 3.906705856323242188e+01 -9.515501022338867188e+00 1.962706893682479858e-01 5.897019863128662109e+00 1.827987194061279297e+00 7.317086458206176758e-01
2.586000000000000000e+03 3.741382598876953125e+01 -9.886376380920410156e+00 7.442499995231628418e-01 4.659312725067138672e+00 1.621068835258483887e+00 -1.548992656171321869e-02
2.587000000000000000e+03 6.943669891357421875e+01 -3.298200607299804688e+01 -6.080657243728637695e-01 5.984297275543212891e+00 1.612869501113891602e+00 2.890084087848663330e-01
2.588000000000000000e+03 7.161965942382812500e+01 1.666201114654541016e+00 -4.333577752113342285e-01 6.893414020538330078e+00 1.938016891479492188e+00 -5.442238599061965942e-02
2.589000000000000000e+03 7.236448669433593750e+01 -2.678493309020996094e+01 -6.319630742073059082e-01 8.018025398254394531e+00 2.215818881988525391e+00 -7.652729153633117676e-01
2.590000000000000000e+03 6.726554107666015625e+01 -5.139454841613769531e+00 -3.986590802669525146e-01 5.019869327545166016e+00 1.386363029479980469e+00 -4.969732463359832764e-01
2.591000000000000000e+03 4.222404479980468750e+01 -1.071117210388183594e+01 -6.944888830184936523e-02 8.265132904052734375e+00 2.458704948425292969e+00 9.117677807807922363e-01
2.592000000000000000e+03 7.188769531250000000e+01 -2.561915016174316406e+01 -5.274032354354858398e-01 8.199695587158203125e+00 2.301687717437744141e+00 -7.413054108619689941e-01
2.593000000000000000e+03 7.168546295166015625e+01 4.137787818908691406e-01 -4.809451103210449219e-01 6.817262649536132812e+00 1.900895357131958008e+00 -2.039357274770736694e-02
2.594000000000000000e+03 7.188729858398437500e+01 -1.285856485366821289e+00 -4.766173064708709717e-01 6.800570487976074219e+00 1.897186040878295898e+00 -9.875168092548847198e-03
2.595000000000000000e+03 6.793906402587890625e+01 -2.907694816589355469e+01 -1.032685518264770508e+00 5.823852062225341797e+00 1.437350034713745117e+00 7.877358794212341309e-01
2.596000000000000000e+03 4.629587173461914062e+01 -2.858679294586181641e+00 -3.856443986296653748e-02 8.440096855163574219e+00 2.520459651947021484e+00 1.133103370666503906e-01
2.597000000000000000e+03 3.632823562622070312e+01 -1.023974800109863281e+01 1.046249747276306152e+00 4.179333686828613281e+00 1.567674994468688965e+00 -8.182852864265441895e-01
2.598000000000000000e+03 4.333310317993164062e+01 -2.482626533508300781e+01 1.731157302856445312e+00 8.705482482910156250e+00 3.130992174148559570e+00 -6.839415431022644043e-01
2.599000000000000000e+03 4.233430480957031250e+01 -2.442548751831054688e+01 1.979075908660888672e+00 8.789429664611816406e+00 3.230551719665527344e+00 -3.800019323825836182e-01
2.600000000000000000e+03 7.378028106689453125e+01 -6.484602928161621094e+00 -5.420018434524536133e-01 7.502048969268798828e+00 2.088014125823974609e+00 4.335874021053314209e-01
2.601000000000000000e+03 6.996537017822265625e+01 -7.565801143646240234e+00 -8.408399820327758789e-01 7.004158973693847656e+00 1.848995685577392578e+00 -2.621038258075714111e-01
2.602000000000000000e+03 4.460419464111328125e+01 -2.613518524169921875e+01 9.975354671478271484e-01 8.436543464660644531e+00 2.830223798751831055e+00 -1.106627821922302246e+00
2.603000000000000000e+03 4.525045013427734375e+01 2.275219917297363281e+01 -8.273844718933105469e-01 5.542537689208984375e+00 1.414545893669128418e+00 -2.604813873767852783e-01
2.604000000000000000e+03 4.328271865844726562e+01 2.171203422546386719e+01 -6.866760253906250000e-01 4.922023296356201172e+00 1.270604133605957031e+00 -6.949539780616760254e-01
2.605000000000000000e+03 4.055054092407226562e+01 1.973442268371582031e+01 -3.993724584579467773e-01 3.879710674285888672e+00 1.044101476669311523e+00 -1.016571521759033203e+00
2.606000000000000000e+03 4.225353622436523438e+01 1.737498283386230469e+01 -7.411824911832809448e-02 5.237212657928466797e+00 1.548928260803222656e+00 -8.104037046432495117e-01
2.607000000000000000e+03 7.452388763427734375e+00 1.035445117950439453e+01 1.010571122169494629e+00 5.373647809028625488e-01 4.643807709217071533e-01 1.058101728558540344e-01
2.608000000000000000e+03 1.242539882659912109e+01 1.295312023162841797e+01 1.633636713027954102e+00 4.038524627685546875e+00 1.701648473739624023e+00 -1.058396220207214355e+00
2.609000000000000000e+03 9.159971237182617188e+00 2.833613967895507812e+01 -5.134744644165039062e-01 2.338598251342773438e+00 5.475371479988098145e-01 -8.475143313407897949e-01
2.610000000000000000e+03 7.313271331787109375e+01 -1.347898960113525391e+01 4.092657864093780518e-01 8.251768112182617188e+00 2.598309993743896484e+00 8.884735703468322754e-01
2.611000000000000000e+03 7.089575958251953125e+01 4.867852687835693359e+00 -4.270610809326171875e-01 7.308106422424316406e+00 2.064313650131225586e+00 2.741872891783714294e-02
2.612000000000000000e+03 4.090599822998046875e+01 -2.873349571228027344e+01 5.549186095595359802e-02 7.596435070037841797e+00 2.295578002929687500e+00 -2.058394849300384521e-01
2.613000000000000000e+03 4.331153106689453125e+01 -3.009331130981445312e+01 -4.808768928050994873e-01 7.220483779907226562e+00 2.021882057189941406e+00 -7.575589418411254883e-01
2.614000000000000000e+03 6.881510925292968750e+01 -8.313771247863769531e+00 -7.774976491928100586e-01 6.654479503631591797e+00 1.763094425201416016e+00 -5.950809121131896973e-01
2.615000000000000000e+03 4.777441787719726562e+01 2.761196708679199219e+01 -1.284651875495910645e+00 4.635673046112060547e+00 1.005306243896484375e+00 5.410857200622558594e-01
2.616000000000000000e+03 7.053566741943359375e+01 -3.432381057739257812e+01 -4.719502627849578857e-01 6.288028717041015625e+00 1.744823575019836426e+00 2.581046223640441895e-01
2.617000000000000000e+03 8.975770950317382812e+00 -2.966683959960937500e+01 -7.127466201782226562e-01 2.304481983184814453e+00 4.775206148624420166e-01 5.219840407371520996e-01
2.618000000000000000e+03 6.730950355529785156e+00 -3.292058181762695312e+01 -4.165855348110198975e-01 1.932950019836425781e+00 4.549093544483184814e-01 4.605851471424102783e-01
2.619000000000000000e+03 4.145884704589843750e+01 2.320723533630371094e+01 -7.906646132469177246e-01 4.061265468597412109e+00 9.811801910400390625e-01 -8.695757985115051270e-01
2.620000000000000000e+03 1.762628173828125000e+01 2.609565925598144531e+01 -1.192952036857604980e+00 3.662338495254516602e+00 7.408159375190734863e-01 4.022690653800964355e-01
2.621000000000000000e+03 1.113142299652099609e+01 3.474356460571289062e+01 -5.264143943786621094e-01 2.270083665847778320e+00 5.231007933616638184e-01 -2.936148345470428467e-01
2.622000000000000000e+03 7.125279998779296875e+01 -2.928608512878417969e+01 -8.995794653892517090e-01 7.291148662567138672e+00 1.917470693588256836e+00 -1.600121706724166870e-01
2.623000000000000000e+03 5.256484222412109375e+01 3.318055343627929688e+01 -4.561270773410797119e-01 3.173074960708618164e+00 8.150843381881713867e-01 9.608618021011352539e-01
2.624000000000000000e+03 2.455324172973632812e+01 2.992012405395507812e+01 -3.165685534477233887e-01 1.294793128967285156e+00 2.934673726558685303e-01 5.122021436691284180e-01
2.625000000000000000e+03 2.310706710815429688e+01 2.855624389648437500e+01 -4.776206910610198975e-01 1.389698624610900879e+00 2.736233770847320557e-01 7.866354584693908691e-01
2.626000000000000000e+03 7.018213653564453125e+01 2.600575256347656250e+01 -1.325552463531494141e+00 7.065679073333740234e+00 1.722038030624389648e+00 -4.320566654205322266e-01
2.627000000000000000e+03 4.225986862182617188e+01 -7.918025016784667969e+00 -1.312236070632934570e+00 8.533676147460937500e+00 2.166431903839111328e+00 1.341313719749450684e+00
2.628000000000000000e+03 3.824156570434570312e+01 2.672390174865722656e+01 -7.029469013214111328e-01 2.730398178100585938e+00 6.082353591918945312e-01 -8.428388237953186035e-01
2.629000000000000000e+03 6.821282196044921875e+01 2.505906295776367188e+01 -1.678689837455749512e+00 6.061316490173339844e+00 1.314787983894348145e+00 -1.064265489578247070e+00
2.630000000000000000e+03 6.918544006347656250e+01 2.406453132629394531e+01 -1.775878429412841797e+00 7.271883964538574219e+00 1.648801684379577637e+00 -6.779817342758178711e-01
2.631000000000000000e+03 9.783395767211914062e+00 2.614784812927246094e+01 -4.983008801937103271e-01 2.579186201095581055e+00 6.242655515670776367e-01 -1.033310770988464355e+00
2.632000000000000000e+03 1.144384288787841797e+01 2.931239891052246094e+01 -7.163023352622985840e-01 2.699852228164672852e+00 5.950649976730346680e-01 -5.955232381820678711e-01
2.633000000000000000e+03 4.101418304443359375e+01 2.496339797973632812e+01 -8.511549830436706543e-01 3.782562255859375000e+00 8.794221878051757812e-01 -8.179209828376770020e-01
2.634000000000000000e+03 6.080215454101562500e+01 2.971062850952148438e+01 1.255821883678436279e-01 1.878905296325683594e+00 6.013462543487548828e-01 3.753568828105926514e-01
2.635000000000000000e+03 3.900716400146484375e+01 -1.700660896301269531e+01 2.417052745819091797e+00 8.387720108032226562e+00 3.241431713104248047e+00 -2.686999738216400146e-01
2.636000000000000000e+03 1.768087005615234375e+01 -4.107828903198242188e+01 -7.080177217721939087e-02 5.988005399703979492e-01 1.583996266126632690e-01 -5.942448601126670837e-02
2.637000000000000000e+03 6.704989624023437500e+01 3.207234954833984375e+01 1.418186258524656296e-02 4.550701618194580078e+00 1.369464993476867676e+00 -6.066186428070068359e-01
2.638000000000000000e+03 6.527048492431640625e+01 3.492286682128906250e+01 3.874983489513397217e-01 4.018754959106445312e+00 1.321875929832458496e+00 -3.074184954166412354e-01
2.639000000000000000e+03 7.250466918945312500e+01 2.975914001464843750e+01 -5.252630710601806641e-01 7.317811965942382812e+00 2.037764549255371094e+00 -2.949971854686737061e-01
2.640000000000000000e+03 6.835564422607421875e+01 2.304613876342773438e+01 -2.070523262023925781e+00 7.285843372344970703e+00 1.564595937728881836e+00 -9.108800292015075684e-01
2.641000000000000000e+03 7.030719757080078125e+01 2.326180458068847656e+01 -1.597477436065673828e+00 8.297419548034667969e+00 2.009982585906982422e+00 5.188024416565895081e-02
2.642000000000000000e+03 5.764637374877929688e+01 -4.107811737060546875e+01 7.237495779991149902e-01 1.796255350112915039e+00 7.560014724731445312e-01 -8.156103640794754028e-02
2.643000000000000000e+03 1.004641246795654297e+01 2.096592330932617188e+01 1.458109766244888306e-01 2.780772447586059570e+00 8.779749870300292969e-01 -1.372224807739257812e+00
2.644000000000000000e+03 1.547321891784667969e+01 -5.288476943969726562e+00 1.970337271690368652e+00 1.481957316398620605e+00 1.035688400268554688e+00 2.921586513519287109e+00
2.645000000000000000e+03 1.726609611511230469e+01 -4.251221179962158203e+00 2.942321062088012695e+00 3.798864841461181641e+00 2.022355794906616211e+00 3.608434677124023438e+00
2.646000000000000000e+03 1.720328140258789062e+01 -3.949322700500488281e+00 3.485239267349243164e+00 3.394385337829589844e+00 2.063887357711791992e+00 3.714534997940063477e+00
2.647000000000000000e+03 1.927327156066894531e+01 -5.501253128051757812e+00 1.108198761940002441e+00 6.270937919616699219e+00 2.213741064071655273e+00 8.697742819786071777e-01
2.648000000000000000e+03 1.446559429168701172e+01 -5.952350139617919922e+00 1.309707164764404297e+00 1.277442097663879395e+00 7.761448025703430176e-01 2.701982736587524414e+00
2.649000000000000000e+03 1.834818458557128906e+01 -7.871057510375976562e+00 2.504628598690032959e-01 2.809088468551635742e+00 9.178653955459594727e-01 1.880193710327148438e+00
2.650000000000000000e+03 1.533231067657470703e+01 -4.462495326995849609e+00 2.388647317886352539e+00 9.848181605339050293e-01 1.012039661407470703e+00 2.559732198715209961e+00
2.651000000000000000e+03 1.251235198974609375e+01 -5.646236896514892578e+00 7.428482770919799805e-01 9.772652983665466309e-01 5.160340666770935059e-01 1.763559579849243164e+00
2.652000000000000000e+03 1.201691627502441406e+01 -5.628542423248291016e+00 5.889797806739807129e-01 1.028302550315856934e+00 4.851846992969512939e-01 1.593532562255859375e+00
2.653000000000000000e+03 1.353949737548828125e+01 -6.494289398193359375e+00 8.174979686737060547e-01 1.389157772064208984e+00 6.619967222213745117e-01 2.504583597183227539e+00
2.654000000000000000e+03 1.261218357086181641e+01 -6.164336681365966797e+00 6.586146354675292969e-01 1.252323389053344727e+00 5.732814073562622070e-01 1.991973996162414551e+00
2.655000000000000000e+03 7.553971290588378906e+00 -7.330168724060058594e+00 -1.234359964728355408e-01 1.090262174606323242e+00 2.900478541851043701e-01 3.847198560833930969e-03
2.656000000000000000e+03 1.176774978637695312e+01 -6.086458206176757812e+00 4.314302504062652588e-01 1.252343654632568359e+00 5.051321983337402344e-01 1.590853691101074219e+00
2.657000000000000000e+03 1.289930725097656250e+01 -6.565399169921875000e+00 5.935311317443847656e-01 1.418278336524963379e+00 6.035428643226623535e-01 2.254077434539794922e+00
2.658000000000000000e+03 1.114396476745605469e+01 -9.345674514770507812e+00 -3.815309107303619385e-01 3.067150831222534180e+00 8.056859970092773438e-01 1.478637456893920898e+00
2.659000000000000000e+03 1.212961387634277344e+01 -6.521467208862304688e+00 4.211059808731079102e-01 1.384607315063476562e+00 5.417140126228332520e-01 1.858084321022033691e+00
2.660000000000000000e+03 1.475400352478027344e+01 -5.443291187286376953e+00 1.656740665435791016e+00 1.173017501831054688e+00 8.489274382591247559e-01 2.683079481124877930e+00
2.661000000000000000e+03 7.235009670257568359e+00 -6.640793800354003906e+00 -7.835073024034500122e-02 8.585048913955688477e-01 2.340462356805801392e-01 -5.280406773090362549e-02
2.662000000000000000e+03 7.066102981567382812e+00 -7.733459949493408203e+00 -8.804425597190856934e-02 1.057673454284667969e+00 2.908887565135955811e-01 -1.094966828823089600e-01
2.663000000000000000e+03 6.900368690490722656e+00 -8.598910331726074219e+00 -7.622824609279632568e-02 1.161876678466796875e+00 3.256945312023162842e-01 -1.955130100250244141e-01
2.664000000000000000e+03 1.974434089660644531e+01 -5.478525638580322266e+00 1.217785835266113281e+00 6.567610740661621094e+00 2.335618972778320312e+00 -4.700721055269241333e-02
2.665000000000000000e+03 9.228684425354003906e+00 6.678132534027099609e+00 9.123966097831726074e-01 6.302313804626464844e-01 4.627884030342102051e-01 4.710037112236022949e-01
2.666000000000000000e+03 1.287619209289550781e+01 6.988458633422851562e+00 1.499022483825683594e+00 2.979590177536010742e+00 1.343583822250366211e+00 -6.621163487434387207e-01
2.667000000000000000e+03 1.121957683563232422e+01 6.020048618316650391e+00 1.023067474365234375e+00 1.345420479774475098e+00 7.105464339256286621e-01 2.902965806424617767e-02
2.668000000000000000e+03 7.390125751495361328e+00 9.441449165344238281e+00 9.767858982086181641e-01 4.187064468860626221e-01 4.186477065086364746e-01 2.506467700004577637e-01
2.669000000000000000e+03 1.295194435119628906e+01 7.854249954223632812e+00 1.681706190109252930e+00 3.308147907257080078e+00 1.496956229209899902e+00 -7.978854179382324219e-01
2.670000000000000000e+03 1.487361621856689453e+01 -9.108393669128417969e+00 -2.933282256126403809e-01 1.953848481178283691e+00 4.981560707092285156e-01 3.311331987380981445e+00
2.671000000000000000e+03 1.342278861999511719e+01 -8.102185249328613281e+00 6.927179545164108276e-02 2.124292135238647461e+00 6.580691933631896973e-01 2.825248241424560547e+00
2.672000000000000000e+03 1.565294933319091797e+01 -8.247075080871582031e+00 2.178122550249099731e-01 1.857612252235412598e+00 6.226273179054260254e-01 3.213672161102294922e+00
2.673000000000000000e+03 1.103167057037353516e+01 7.913363933563232422e+00 1.429370760917663574e+00 1.806567072868347168e+00 9.707813858985900879e-01 -1.758775413036346436e-01
2.674000000000000000e+03 6.804010009765625000e+01 2.863291740417480469e+00 -2.703414261341094971e-01 5.732658386230468750e+00 1.638695120811462402e+00 5.864846110343933105e-01
2.675000000000000000e+03 6.778591156005859375e+01 1.175000190734863281e+00 -2.395885884761810303e-01 5.333561897277832031e+00 1.528191924095153809e+00 4.021214842796325684e-01
2.676000000000000000e+03 6.898052978515625000e+01 -4.140348434448242188e+00 -5.292156338691711426e-01 5.862055301666259766e+00 1.599851846694946289e+00 -2.307330965995788574e-01
2.677000000000000000e+03 1.998815155029296875e+01 -8.210830688476562500e+00 -5.672365427017211914e-03 2.803754568099975586e+00 8.394246697425842285e-01 4.440560936927795410e-02
2.678000000000000000e+03 1.201175308227539062e+01 7.899242877960205078e+00 1.577630281448364258e+00 2.572803735733032227e+00 1.245130181312561035e+00 -4.815432131290435791e-01
2.679000000000000000e+03 1.888281822204589844e+01 -8.257268905639648438e+00 8.467263542115688324e-03 2.510911941528320312e+00 7.558137178421020508e-01 1.079481840133666992e+00
2.680000000000000000e+03 4.074932479858398438e+01 -1.237440586090087891e+01 8.408521413803100586e-01 7.717485427856445312e+00 2.567501306533813477e+00 5.768030285835266113e-01
2.681000000000000000e+03 4.010056686401367188e+01 -1.096518039703369141e+01 3.696562945842742920e-01 7.120469093322753906e+00 2.247037649154663086e+00 6.325986385345458984e-01
2.682000000000000000e+03 1.660132789611816406e+01 -9.015113830566406250e+00 -1.324249207973480225e-01 1.542694330215454102e+00 4.230808019638061523e-01 2.934717655181884766e+00
2.683000000000000000e+03 1.825534439086914062e+01 -8.557297706604003906e+00 -1.553194783627986908e-02 2.024554491043090820e+00 6.027067303657531738e-01 1.870664596557617188e+00
2.684000000000000000e+03 1.112911128997802734e+01 1.282679939270019531e+01 1.546915531158447266e+00 2.949255228042602539e+00 1.348851203918457031e+00 -8.699702024459838867e-01
2.685000000000000000e+03 1.120843982696533203e+01 1.167332458496093750e+01 1.617767453193664551e+00 2.844534635543823242e+00 1.338690638542175293e+00 -7.578296661376953125e-01
2.686000000000000000e+03 9.587592124938964844e+00 -1.102627563476562500e+01 -1.306871175765991211e-01 3.252971649169921875e+00 9.366853237152099609e-01 4.384199082851409912e-01
2.687000000000000000e+03 1.072863292694091797e+01 -9.963480949401855469e+00 -3.179354965686798096e-01 3.120471000671386719e+00 8.407606482505798340e-01 1.132848501205444336e+00
2.688000000000000000e+03 8.558776855468750000e+00 1.023503494262695312e+01 1.211260676383972168e+00 9.850569367408752441e-01 6.588952541351318359e-01 -4.297745227813720703e-02
2.689000000000000000e+03 7.202335357666015625e+01 -9.022060394287109375e+00 -6.495985388755798340e-01 7.809955120086669922e+00 2.148107051849365234e+00 4.379804432392120361e-01
2.690000000000000000e+03 7.264685821533203125e+01 -8.293434143066406250e+00 -6.509057283401489258e-01 7.701947689056396484e+00 2.115312576293945312e+00 5.001866221427917480e-01
2.691000000000000000e+03 3.672718048095703125e+01 -1.110163116455078125e+01 1.101130247116088867e+00 4.610567092895507812e+00 1.713509202003479004e+00 -7.028741240501403809e-01
2.692000000000000000e+03 2.346062469482421875e+01 -6.968852043151855469e+00 1.999909281730651855e+00 2.419423818588256836e+00 1.325799942016601562e+00 -2.597544670104980469e+00
2.693000000000000000e+03 5.704328536987304688e+00 8.005069732666015625e+00 5.434300899505615234e-01 -2.815998792648315430e-01 7.854906469583511353e-02 6.826128363609313965e-01
2.694000000000000000e+03 7.184653472900390625e+01 -4.397789001464843750e+00 -6.279834508895874023e-01 6.960949897766113281e+00 1.899889826774597168e+00 7.097438722848892212e-02
2.695000000000000000e+03 7.004985046386718750e+01 -1.122117042541503906e+00 -4.583458304405212402e-01 6.218866825103759766e+00 1.728156328201293945e+00 5.762005457654595375e-04
2.696000000000000000e+03 1.220026969909667969e+01 -9.129101753234863281e+00 -4.073263704776763916e-01 2.968068838119506836e+00 7.682227492332458496e-01 2.138798713684082031e+00
2.697000000000000000e+03 2.345904541015625000e+01 -6.052517890930175781e+00 2.817814588546752930e+00 2.611450433731079102e+00 1.628779411315917969e+00 -3.100424289703369141e+00
2.698000000000000000e+03 7.525635719299316406e+00 8.738191604614257812e+00 9.492600560188293457e-01 3.434060811996459961e-01 3.877998292446136475e-01 3.980587720870971680e-01
2.699000000000000000e+03 7.854838371276855469e+00 8.069168090820312500e+00 8.972240686416625977e-01 3.387694358825683594e-01 3.707980513572692871e-01 4.604048430919647217e-01
2.700000000000000000e+03 6.687121582031250000e+01 4.354679286479949951e-01 -1.032735183835029602e-01 4.713020324707031250e+00 1.382924079895019531e+00 3.460837602615356445e-01
2.701000000000000000e+03 6.663719940185546875e+01 -1.231615185737609863e+00 -8.421023935079574585e-02 4.496423721313476562e+00 1.323664069175720215e+00 8.822825551033020020e-02
2.702000000000000000e+03 8.817220687866210938e+00 -1.147556209564208984e+01 1.712381541728973389e-01 2.905764818191528320e+00 9.231008291244506836e-01 1.861194521188735962e-01
2.703000000000000000e+03 6.978425598144531250e+01 2.551567316055297852e+00 -4.107199013233184814e-01 6.467516422271728516e+00 1.817039012908935547e+00 2.347203046083450317e-01
2.704000000000000000e+03 6.466984558105468750e+01 -2.507535696029663086e+00 2.464097440242767334e-01 3.263603687286376953e+00 1.053004026412963867e+00 -8.348889648914337158e-02
2.705000000000000000e+03 6.366078567504882812e+01 -5.266929149627685547e+00 2.586808502674102783e-01 2.585098505020141602e+00 8.531337976455688477e-01 -5.734397768974304199e-01
2.706000000000000000e+03 7.083351135253906250e+01 -2.293340206146240234e+00 -5.162692666053771973e-01 6.486369609832763672e+00 1.791030168533325195e+00 -2.860772795975208282e-02
2.707000000000000000e+03 6.565906524658203125e+01 -1.907880306243896484e+00 8.555426448583602905e-02 3.890520811080932617e+00 1.192822575569152832e+00 1.880548149347305298e-02
2.708000000000000000e+03 1.286672496795654297e+01 2.242153930664062500e+01 -3.105159699916839600e-01 3.855623960494995117e+00 1.063532352447509766e+00 -1.165287017822265625e+00
2.709000000000000000e+03 1.214273452758789062e+01 2.697246742248535156e+01 -7.693567276000976562e-01 3.108404397964477539e+00 7.017142772674560547e-01 -7.574804425239562988e-01
2.710000000000000000e+03 6.523164367675781250e+01 5.846658945083618164e-01 2.076770067214965820e-01 3.697796583175659180e+00 1.171642065048217773e+00 4.906964600086212158e-01
2.711000000000000000e+03 3.942843627929687500e+01 -1.457092571258544922e+01 1.609418749809265137e+00 7.702847957611083984e+00 2.793679952621459961e+00 3.288488462567329407e-02
2.712000000000000000e+03 7.613112449645996094e+00 1.462626361846923828e+01 8.794991374015808105e-01 1.111461043357849121e+00 5.972880125045776367e-01 -6.817141175270080566e-01
2.713000000000000000e+03 7.413057804107666016e+00 -1.080984401702880859e+01 8.936143666505813599e-02 1.938337206840515137e+00 6.083096265792846680e-01 -1.573902368545532227e-01
2.714000000000000000e+03 9.037654876708984375e+00 -1.025723934173583984e+01 -5.796906352043151855e-02 2.627671480178833008e+00 7.709107398986816406e-01 3.941441476345062256e-01
2.715000000000000000e+03 7.493322372436523438e+00 1.147934818267822266e+01 1.025871634483337402e+00 6.984938383102416992e-01 5.173096656799316406e-01 -1.392504274845123291e-01
2.716000000000000000e+03 7.831172943115234375e+00 2.220995521545410156e+01 -2.162588015198707581e-02 1.897984623908996582e+00 5.629076361656188965e-01 -1.279058694839477539e+00
2.717000000000000000e+03 7.321425437927246094e+00 2.116112518310546875e+01 1.211050599813461304e-01 1.616106390953063965e+00 5.211634635925292969e-01 -1.257613897323608398e+00
2.718000000000000000e+03 7.735202312469482422e+00 1.782837104797363281e+01 5.359407663345336914e-01 1.529804229736328125e+00 6.197234988212585449e-01 -1.109632015228271484e+00
2.719000000000000000e+03 8.021565437316894531e+00 1.584147453308105469e+01 8.015806078910827637e-01 1.473165273666381836e+00 6.824237704277038574e-01 -9.177169203758239746e-01
2.720000000000000000e+03 5.905292510986328125e+01 -4.527873516082763672e+00 7.843230962753295898e-01 4.279828965663909912e-01 3.636917769908905029e-01 -2.012641578912734985e-01
2.721000000000000000e+03 7.038597106933593750e+01 1.485616803169250488e+00 -4.808214008808135986e-01 6.558305263519287109e+00 1.823245167732238770e+00 8.630456030368804932e-02
2.722000000000000000e+03 1.170918178558349609e+01 1.105109500885009766e+01 1.720557808876037598e+00 3.170702219009399414e+00 1.467378020286560059e+00 -7.939343452453613281e-01
2.723000000000000000e+03 7.089092254638671875e+01 -6.694018363952636719e+00 -7.653334140777587891e-01 7.062960624694824219e+00 1.889288187026977539e+00 2.732884883880615234e-02
2.724000000000000000e+03 6.207925415039062500e+01 -4.482427597045898438e+00 5.696810483932495117e-01 1.725513100624084473e+00 6.885582208633422852e-01 -3.893355727195739746e-01
2.725000000000000000e+03 9.887415885925292969e+00 8.952544212341308594e+00 1.385633826255798340e+00 1.420396566390991211e+00 8.418090939521789551e-01 -9.010647982358932495e-02
2.726000000000000000e+03 6.994020843505859375e+01 4.260147094726562500e+00 -3.719287514686584473e-01 6.821752071380615234e+00 1.934947013854980469e+00 2.878157198429107666e-01
2.727000000000000000e+03 6.900697326660156250e+01 3.575092792510986328e+00 -4.003186821937561035e-01 6.344017505645751953e+00 1.783109664916992188e+00 4.005163311958312988e-01
2.728000000000000000e+03 1.016000843048095703e+01 1.476809692382812500e+01 1.206158638000488281e+00 2.561568975448608398e+00 1.130318284034729004e+00 -9.799868464469909668e-01
2.729000000000000000e+03 9.844977378845214844e+00 1.638760375976562500e+01 9.534366726875305176e-01 2.494236230850219727e+00 1.034301877021789551e+00 -1.131523966789245605e+00
2.730000000000000000e+03 4.415806198120117188e+01 -2.810670471191406250e+01 2.185924947261810303e-01 7.610906600952148438e+00 2.348849773406982422e+00 -9.190953969955444336e-01
2.731000000000000000e+03 6.750986099243164062e+00 -2.546553802490234375e+01 -3.282655477523803711e-01 2.259507656097412109e+00 5.793726444244384766e-01 1.147263407707214355e+00
2.732000000000000000e+03 1.197761249542236328e+01 3.271109771728515625e+01 -6.519352793693542480e-01 2.464568853378295898e+00 5.437900424003601074e-01 -3.546399176120758057e-01
2.733000000000000000e+03 4.603984832763671875e+01 2.071873092651367188e+01 -4.001758694648742676e-01 6.238752841949462891e+00 1.751573204994201660e+00 -4.783068597316741943e-02
2.734000000000000000e+03 4.032531738281250000e+01 -2.708955955505371094e+01 8.534176945686340332e-01 8.088902473449707031e+00 2.682696104049682617e+00 5.361144617199897766e-02
2.735000000000000000e+03 6.282025909423828125e+01 -5.085939407348632812e+00 3.933834731578826904e-01 2.087570667266845703e+00 7.442862391471862793e-01 -5.001100301742553711e-01
2.736000000000000000e+03 1.038375091552734375e+01 1.329584407806396484e+01 1.373838901519775391e+00 2.508867502212524414e+00 1.164811968803405762e+00 -8.139426112174987793e-01
2.737000000000000000e+03 6.611336517333984375e+01 -5.720347881317138672e+00 -1.905987262725830078e-01 4.230091094970703125e+00 1.211847662925720215e+00 -6.928164362907409668e-01
2.738000000000000000e+03 6.763259124755859375e+01 -6.082195281982421875e+00 -4.958720505237579346e-01 5.307406425476074219e+00 1.443460345268249512e+00 -6.376247406005859375e-01
2.739000000000000000e+03 7.188814544677734375e+01 2.837805938720703125e+01 -7.607545256614685059e-01 7.348690032958984375e+00 1.976380586624145508e+00 -2.496677190065383911e-01
2.740000000000000000e+03 1.115635967254638672e+01 2.024233436584472656e+01 2.806234061717987061e-01 3.260359287261962891e+00 1.062294840812683105e+00 -1.395484924316406250e+00
2.741000000000000000e+03 4.166729736328125000e+01 2.156510734558105469e+01 -6.110124588012695312e-01 4.360018730163574219e+00 1.124701857566833496e+00 -9.261587262153625488e-01
2.742000000000000000e+03 3.873340988159179688e+01 2.459075927734375000e+01 -7.096119523048400879e-01 2.896020174026489258e+00 6.559224724769592285e-01 -9.504950642585754395e-01
2.743000000000000000e+03 7.776082992553710938e+00 -3.535851669311523438e+01 -3.523328900337219238e-01 1.800855755805969238e+00 4.345568716526031494e-01 2.687477171421051025e-01
2.744000000000000000e+03 9.867519378662109375e+00 -3.365386581420898438e+01 -5.532221198081970215e-01 1.791212201118469238e+00 3.713970184326171875e-01 2.121350616216659546e-01
2.745000000000000000e+03 1.312483978271484375e+01 2.867939758300781250e+01 -8.956620097160339355e-01 3.044880628585815430e+00 6.447656154632568359e-01 -4.573686420917510986e-01
2.746000000000000000e+03 1.197753238677978516e+01 2.132110023498535156e+01 2.877811901271343231e-03 3.647083997726440430e+00 1.094988584518432617e+00 -1.323271155357360840e+00
2.747000000000000000e+03 6.917514801025390625e+01 2.580196762084960938e+01 -1.443568706512451172e+00 6.650947570800781250e+00 1.562213659286499023e+00 -8.233779668807983398e-01
2.748000000000000000e+03 9.024876594543457031e+00 -2.785976409912109375e+01 -7.173429131507873535e-01 2.616945028305053711e+00 5.698806047439575195e-01 6.793944239616394043e-01
2.749000000000000000e+03 6.340966033935546875e+01 -4.445423603057861328e+00 3.644247949123382568e-01 2.498353719711303711e+00 8.588335514068603516e-01 -4.324181079864501953e-01
2.750000000000000000e+03 4.414411544799804688e+01 2.465392112731933594e+01 -9.996147155761718750e-01 4.759305477142333984e+00 1.127907276153564453e+00 -4.593336284160614014e-01
2.751000000000000000e+03 4.416592407226562500e+01 -3.446352767944335938e+01 -1.256242752075195312e+00 6.044029235839843750e+00 1.436336040496826172e+00 -8.177324533462524414e-01
2.752000000000000000e+03 6.778022766113281250e+01 2.823106384277343750e+01 -7.746245861053466797e-01 5.154448509216308594e+00 1.313947081565856934e+00 -1.008238434791564941e+00
2.753000000000000000e+03 4.787306594848632812e+01 2.572500419616699219e+01 -1.294765353202819824e+00 5.213018417358398438e+00 1.175475955009460449e+00 4.881852567195892334e-01
2.754000000000000000e+03 7.153987121582031250e+01 2.702300453186035156e+01 -9.667932391166687012e-01 7.388986110687255859e+00 1.926657915115356445e+00 -1.534879058599472046e-01
2.755000000000000000e+03 1.499410438537597656e+01 2.568168449401855469e+01 -1.012642741203308105e+00 3.841315746307373047e+00 8.486018776893615723e-01 -4.048160314559936523e-01
2.756000000000000000e+03 1.121970844268798828e+01 2.543824577331542969e+01 -6.076626777648925781e-01 3.028732776641845703e+00 7.263210415840148926e-01 -1.020016193389892578e+00
2.757000000000000000e+03 6.430271911621093750e+01 -3.579342269897460938e+01 2.214542031288146973e-02 3.124852657318115234e+00 9.440994262695312500e-01 6.694113612174987793e-01
2.758000000000000000e+03 6.761103057861328125e+01 -3.407208633422851562e+01 -4.207094311714172363e-01 4.680912494659423828e+00 1.278060913085937500e+00 5.536323785781860352e-01
2.759000000000000000e+03 9.133218765258789062e+00 3.411660766601562500e+01 -4.485081732273101807e-01 2.169350385665893555e+00 5.162526965141296387e-01 -4.399908185005187988e-01
2.760000000000000000e+03 9.365929603576660156e+00 3.836489868164062500e+01 -3.486352264881134033e-01 2.069633007049560547e+00 5.162993073463439941e-01 -1.902164518833160400e-01
2.761000000000000000e+03 4.267551803588867188e+01 -2.592816734313964844e+01 1.312521576881408691e+00 8.451466560363769531e+00 2.929196596145629883e+00 -5.501420497894287109e-01
2.762000000000000000e+03 1.211115360260009766e+01 -3.554505538940429688e+01 -5.102314949035644531e-01 1.447985410690307617e+00 2.813261747360229492e-01 -4.622736573219299316e-02
2.763000000000000000e+03 4.682664871215820312e+01 -3.363841629028320312e+01 -9.185012578964233398e-01 5.307527542114257812e+00 1.316707849502563477e+00 -1.262513399124145508e+00
2.764000000000000000e+03 1.278732776641845703e+01 -3.812675476074218750e+01 -2.936825752258300781e-01 1.200884461402893066e+00 2.721605896949768066e-01 -7.166031748056411743e-02
2.765000000000000000e+03 4.604740905761718750e+01 3.241175079345703125e+01 -9.290456175804138184e-01 3.669757366180419922e+00 8.222135305404663086e-01 2.488804310560226440e-01
2.766000000000000000e+03 4.801108169555664062e+01 2.964225196838378906e+01 -1.155956149101257324e+00 4.178265571594238281e+00 9.066928625106811523e-01 5.851497054100036621e-01
2.767000000000000000e+03 3.273305511474609375e+01 2.943379974365234375e+01 -3.192806243896484375e-01 1.464532494544982910e+00 3.435755670070648193e-01 -4.533010423183441162e-01
2.768000000000000000e+03 1.391271972656250000e+01 2.354978179931640625e+01 -7.114254832267761230e-01 4.093875885009765625e+00 1.014735102653503418e+00 -8.802747130393981934e-01
2.769000000000000000e+03 1.640976333618164062e+01 2.476837730407714844e+01 -1.148984313011169434e+00 4.159042358398437500e+00 9.030174612998962402e-01 -7.031241059303283691e-02
2.770000000000000000e+03 5.103278732299804688e+01 2.732399749755859375e+01 -1.231775760650634766e+00 4.351442337036132812e+00 9.358999729156494141e-01 1.429562926292419434e+00
2.771000000000000000e+03 4.107218933105468750e+01 -3.441840362548828125e+01 -1.423051476478576660e+00 6.299348831176757812e+00 1.462889194488525391e+00 -8.772738277912139893e-02
2.772000000000000000e+03 1.906345367431640625e+01 2.222022628784179688e+01 -1.055183291435241699e+00 5.091930389404296875e+00 1.211024165153503418e+00 1.161987900733947754e+00
2.773000000000000000e+03 6.567231655120849609e+00 3.809207534790039062e+01 -2.172482311725616455e-01 1.943045139312744141e+00 5.177390575408935547e-01 -1.999646574258804321e-01
2.774000000000000000e+03 2.641395187377929688e+01 -3.847759246826171875e+01 -1.628366857767105103e-01 8.844355940818786621e-01 2.164796739816665649e-01 3.090393543243408203e-01
2.775000000000000000e+03 5.399286651611328125e+01 -3.302373886108398438e+01 -1.495760828256607056e-01 1.345855355262756348e+00 3.588837981224060059e-01 -1.562005281448364258e+00
2.776000000000000000e+03 2.472932434082031250e+01 3.535405349731445312e+01 -2.451269626617431641e-01 1.653832674026489258e+00 4.226117134094238281e-01 2.269873619079589844e-01
2.777000000000000000e+03 1.778347206115722656e+01 -7.461163997650146484e+00 4.655279219150543213e-01 2.886883735656738281e+00 1.005723476409912109e+00 2.315938234329223633e+00
2.778000000000000000e+03 1.616933441162109375e+01 -4.528660774230957031e+00 2.729318857192993164e+00 1.742677688598632812e+00 1.341598987579345703e+00 3.069564819335937500e+00
2.779000000000000000e+03 1.680594444274902344e+01 -5.592315673828125000e+00 1.836140036582946777e+00 2.901521682739257812e+00 1.421298503875732422e+00 3.283717870712280273e+00
2.780000000000000000e+03 1.790547180175781250e+01 -4.089147090911865234e+00 2.898335695266723633e+00 5.646516799926757812e+00 2.563455820083618164e+00 3.725703954696655273e+00
2.781000000000000000e+03 1.745730400085449219e+01 -3.852973699569702148e+00 3.497211456298828125e+00 4.151812553405761719e+00 2.294707059860229492e+00 3.875551939010620117e+00
2.782000000000000000e+03 1.807404518127441406e+01 -4.607417583465576172e+00 2.144338607788085938e+00 5.828248023986816406e+00 2.391776084899902344e+00 3.221793413162231445e+00
2.783000000000000000e+03 1.396995449066162109e+01 -5.703801631927490234e+00 1.288776636123657227e+00 1.092952370643615723e+00 7.145187258720397949e-01 2.446661472320556641e+00
2.784000000000000000e+03 1.005796146392822266e+01 -6.712433338165283203e+00 1.254358049482107162e-02 1.420959115028381348e+00 4.300507903099060059e-01 8.335441946983337402e-01
2.785000000000000000e+03 9.440680503845214844e+00 -6.888480663299560547e+00 -3.002535179257392883e-02 1.425184845924377441e+00 4.185478389263153076e-01 6.569504141807556152e-01
2.786000000000000000e+03 8.149292945861816406e+00 -7.146713733673095703e+00 -7.238227128982543945e-02 1.175911903381347656e+00 3.310588896274566650e-01 1.741239875555038452e-01
2.787000000000000000e+03 1.388325119018554688e+01 -6.724618911743164062e+00 8.372936844825744629e-01 1.496378779411315918e+00 7.001017332077026367e-01 2.743498086929321289e+00
2.788000000000000000e+03 1.304329204559326172e+01 -5.983733177185058594e+00 8.595948815345764160e-01 1.098724603652954102e+00 5.874958634376525879e-01 2.123816728591918945e+00
2.789000000000000000e+03 1.124062442779541016e+01 -6.425506591796875000e+00 2.386449724435806274e-01 1.357120513916015625e+00 4.787296354770660400e-01 1.382542371749877930e+00
2.790000000000000000e+03 1.378483390808105469e+01 -6.133625507354736328e+00 1.051409125328063965e+00 1.236736059188842773e+00 6.864435672760009766e-01 2.513791799545288086e+00
2.791000000000000000e+03 1.418715953826904297e+01 -6.399713039398193359e+00 1.054673910140991211e+00 1.394407987594604492e+00 7.347245812416076660e-01 2.719061136245727539e+00
2.792000000000000000e+03 1.149852275848388672e+01 -8.697073936462402344e+00 -2.504255175590515137e-01 2.584452867507934570e+00 7.002081871032714844e-01 1.747579216957092285e+00
2.793000000000000000e+03 1.119157981872558594e+01 -7.594532489776611328e+00 -2.789535187184810638e-02 1.959521055221557617e+00 5.794876813888549805e-01 1.524361014366149902e+00
2.794000000000000000e+03 1.921535682678222656e+01 -6.789862155914306641e+00 6.020040512084960938e-01 4.302244186401367188e+00 1.471274375915527344e+00 9.563279747962951660e-01
2.795000000000000000e+03 2.023165702819824219e+01 -5.497553348541259766e+00 1.444212317466735840e+00 6.278872489929199219e+00 2.316925525665283203e+00 -9.471584558486938477e-01
2.796000000000000000e+03 6.952238559722900391e+00 7.661585330963134766e+00 6.959552764892578125e-01 3.199135512113571167e-02 2.183839976787567139e-01 6.498313546180725098e-01
2.797000000000000000e+03 1.201492595672607422e+01 6.984785079956054688e+00 1.394866585731506348e+00 2.243384122848510742e+00 1.091475248336791992e+00 -3.738854527473449707e-01
2.798000000000000000e+03 1.366219139099121094e+01 6.932355403900146484e+00 1.496034026145935059e+00 3.660935878753662109e+00 1.547091007232666016e+00 -9.993032217025756836e-01
2.799000000000000000e+03 1.411444473266601562e+01 -7.065486431121826172e+00 6.483516097068786621e-01 1.647449612617492676e+00 6.887403726577758789e-01 2.882206201553344727e+00
2.800000000000000000e+03 1.356849098205566406e+01 -7.521913051605224609e+00 3.345193862915039062e-01 1.833872318267822266e+00 6.505175232887268066e-01 2.771179199218750000e+00
2.801000000000000000e+03 2.179893302917480469e+01 -8.042616844177246094e+00 4.855505228042602539e-01 2.849335432052612305e+00 1.000465750694274902e+00 -1.450193881988525391e+00
2.802000000000000000e+03 8.290248870849609375e+00 -1.056113433837890625e+01 -6.374195963144302368e-02 2.434364080429077148e+00 7.111865878105163574e-01 9.549155831336975098e-02
2.803000000000000000e+03 1.936651992797851562e+01 -7.736158847808837891e+00 1.794792562723159790e-01 3.220502376556396484e+00 1.019994497299194336e+00 7.520588636398315430e-01
2.804000000000000000e+03 7.064872741699218750e+01 3.283144474029541016e+00 -4.652860760688781738e-01 6.876602172851562500e+00 1.923394799232482910e+00 6.028892472386360168e-02
2.805000000000000000e+03 7.058612060546875000e+01 -3.388334035873413086e+00 -5.887888073921203613e-01 6.446822166442871094e+00 1.757410049438476562e+00 -5.571941658854484558e-02
2.806000000000000000e+03 1.109554100036621094e+01 6.938697338104248047e+00 1.286171436309814453e+00 1.565769076347351074e+00 8.555821776390075684e-01 -5.769854038953781128e-02
2.807000000000000000e+03 8.485209465026855469e+00 -8.671914100646972656e+00 -7.612881064414978027e-02 1.781053423881530762e+00 5.114774107933044434e-01 2.857393622398376465e-01
2.808000000000000000e+03 7.174024200439453125e+01 -1.000184822082519531e+01 -6.119616627693176270e-01 8.063229560852050781e+00 2.235380411148071289e+00 4.808090925216674805e-01
2.809000000000000000e+03 7.173141479492187500e+01 -7.543875217437744141e+00 -7.362503409385681152e-01 7.367455482482910156e+00 1.989361524581909180e+00 1.915884763002395630e-01
2.810000000000000000e+03 8.788485527038574219e+00 8.569258689880371094e+00 1.156118869781494141e+00 8.351466059684753418e-01 5.973796248435974121e-01 2.187319993972778320e-01
2.811000000000000000e+03 9.061038970947265625e+00 7.620277881622314453e+00 1.086727261543273926e+00 7.791442871093750000e-01 5.597614645957946777e-01 3.319090902805328369e-01
2.812000000000000000e+03 1.715898132324218750e+01 -7.945824146270751953e+00 4.035250246524810791e-01 2.251611948013305664e+00 7.965410947799682617e-01 2.736169815063476562e+00
2.813000000000000000e+03 1.208679389953613281e+01 8.787337303161621094e+00 1.716612577438354492e+00 2.881596803665161133e+00 1.379462838172912598e+00 -6.256088614463806152e-01
2.814000000000000000e+03 4.170110321044921875e+01 -2.539603614807128906e+01 1.615137338638305664e+00 8.380977630615234375e+00 2.998834609985351562e+00 -2.799187898635864258e-01
2.815000000000000000e+03 4.220626449584960938e+01 -2.778160667419433594e+01 4.131061136722564697e-01 7.937134742736816406e+00 2.505072355270385742e+00 -4.191285371780395508e-01
2.816000000000000000e+03 2.109105491638183594e+01 -7.817995071411132812e+00 4.506740272045135498e-01 3.134525060653686523e+00 1.075559735298156738e+00 -9.672137498855590820e-01
2.817000000000000000e+03 8.360646247863769531e+00 -7.881492137908935547e+00 -1.655176579952239990e-01 1.550274014472961426e+00 4.154269099235534668e-01 2.323479056358337402e-01
2.818000000000000000e+03 1.871689224243164062e+01 -6.350675106048583984e+00 8.159419894218444824e-01 4.614974498748779297e+00 1.629274964332580566e+00 1.593341708183288574e+00
2.819000000000000000e+03 2.214538192749023438e+01 -7.462697029113769531e+00 1.154177427291870117e+00 2.917928457260131836e+00 1.221631765365600586e+00 -1.900531768798828125e+00
2.820000000000000000e+03 3.853181076049804688e+01 -1.205392742156982422e+01 1.006737589836120605e+00 6.467816352844238281e+00 2.242366075515747070e+00 -1.162141263484954834e-01
2.821000000000000000e+03 1.102611923217773438e+01 1.419897556304931641e+01 1.410609602928161621e+00 3.069203853607177734e+00 1.343944072723388672e+00 -1.007718801498413086e+00
2.822000000000000000e+03 1.087875747680664062e+01 1.575361537933349609e+01 1.172213435173034668e+00 3.089258193969726562e+00 1.278441548347473145e+00 -1.120873212814331055e+00
2.823000000000000000e+03 4.352392578125000000e+01 2.043622016906738281e+01 -4.354805052280426025e-01 5.376601696014404297e+00 1.482336401939392090e+00 -6.307238936424255371e-01
2.824000000000000000e+03 1.249738883972167969e+01 -8.454687118530273438e+00 -1.899206787347793579e-01 2.472842931747436523e+00 6.848766803741455078e-01 2.364010810852050781e+00
2.825000000000000000e+03 1.234495544433593750e+01 1.169712162017822266e+01 1.758125066757202148e+00 3.723336219787597656e+00 1.644438385963439941e+00 -9.430437088012695312e-01
2.826000000000000000e+03 1.066065788269042969e+01 1.208280086517333984e+01 1.512110710144042969e+00 2.490325689315795898e+00 1.200730919837951660e+00 -6.950308680534362793e-01
2.827000000000000000e+03 6.757351684570312500e+01 -5.001477599143981934e-01 -2.060358077287673950e-01 5.074656963348388672e+00 1.460586428642272949e+00 1.830652654170989990e-01
2.828000000000000000e+03 6.730683898925781250e+01 -2.216137170791625977e+00 -2.106866687536239624e-01 4.848440170288085938e+00 1.391326069831848145e+00 -7.743813842535018921e-02
2.829000000000000000e+03 7.164237976074218750e+01 -3.470958232879638672e+00 -5.757288336753845215e-01 6.811017036437988281e+00 1.870586514472961426e+00 -1.540379453217610717e-04
2.830000000000000000e+03 9.335295677185058594e+00 -8.149562835693359375e+00 -1.297640949487686157e-01 1.862959742546081543e+00 5.199586749076843262e-01 5.748419761657714844e-01
2.831000000000000000e+03 1.518180179595947266e+01 2.434144592285156250e+01 -9.135206937789916992e-01 4.068838119506835938e+00 9.465952515602111816e-01 -4.431140422821044922e-01
2.832000000000000000e+03 6.524519348144531250e+01 -3.501472949981689453e+00 1.009499132633209229e-01 3.612404346466064453e+00 1.114006280899047852e+00 -2.980813384056091309e-01
2.833000000000000000e+03 7.019450378417968750e+01 -5.673859596252441406e+00 -7.414948940277099609e-01 6.635133266448974609e+00 1.768091559410095215e+00 -1.821962147951126099e-01
2.834000000000000000e+03 6.283727645874023438e+01 -3.699121952056884766e+00 4.994527995586395264e-01 2.203469514846801758e+00 8.108766674995422363e-01 -2.804611921310424805e-01
2.835000000000000000e+03 9.284183502197265625e+00 1.987238502502441406e+01 3.130715787410736084e-01 2.378118276596069336e+00 8.073569536209106445e-01 -1.344653606414794922e+00
2.836000000000000000e+03 9.558309555053710938e+00 1.811513328552246094e+01 6.432446837425231934e-01 2.440137624740600586e+00 9.250146746635437012e-01 -1.262709498405456543e+00
2.837000000000000000e+03 8.130417823791503906e+00 1.316005325317382812e+01 1.084704995155334473e+00 1.233581662178039551e+00 6.954860091209411621e-01 -5.128960609436035156e-01
2.838000000000000000e+03 6.464772796630859375e+01 -5.019719600677490234e+00 1.031608134508132935e-01 3.200949668884277344e+00 9.912331700325012207e-01 -5.915980935096740723e-01
2.839000000000000000e+03 6.426403045654296875e+01 -4.001477241516113281e+00 2.332782000303268433e-01 2.988869428634643555e+00 9.666442871093750000e-01 -3.607932925224304199e-01
2.840000000000000000e+03 1.025837612152099609e+01 -3.197591209411621094e+01 -6.984604001045227051e-01 1.956641793251037598e+00 3.774544298648834229e-01 2.179971635341644287e-01
2.841000000000000000e+03 9.902807235717773438e+00 1.234066963195800781e+01 1.423221945762634277e+00 2.103617191314697266e+00 1.058051705360412598e+00 -6.202331781387329102e-01
2.842000000000000000e+03 6.823823547363281250e+01 -7.052513122558593750e+00 -6.996276378631591797e-01 5.825983047485351562e+00 1.537906646728515625e+00 -7.029824256896972656e-01
2.843000000000000000e+03 1.063191986083984375e+01 1.742994689941406250e+01 8.478056192398071289e-01 2.985624313354492188e+00 1.150028944015502930e+00 -1.244321942329406738e+00
2.844000000000000000e+03 1.165705776214599609e+01 2.330300903320312500e+01 -3.955328464508056641e-01 3.382669210433959961e+00 8.961409330368041992e-01 -1.210114598274230957e+00
2.845000000000000000e+03 7.008551788330078125e+01 2.735804748535156250e+01 -1.059300303459167480e+00 6.723793983459472656e+00 1.699348092079162598e+00 -5.946612954139709473e-01
2.846000000000000000e+03 7.077059936523437500e+01 3.053448295593261719e+01 -4.535768628120422363e-01 6.517295360565185547e+00 1.819115519523620605e+00 -4.873598217964172363e-01
2.847000000000000000e+03 1.082048797607421875e+01 2.210213470458984375e+01 -9.820052236318588257e-02 3.079333543777465820e+00 8.943399190902709961e-01 -1.336154341697692871e+00
2.848000000000000000e+03 9.684682846069335938e+00 1.130015277862548828e+01 1.409903049468994141e+00 1.810306429862976074e+00 9.660628437995910645e-01 -4.256663322448730469e-01
2.849000000000000000e+03 1.361593532562255859e+01 2.617134475708007812e+01 -8.997749686241149902e-01 3.505252599716186523e+00 7.816433310508728027e-01 -6.366335749626159668e-01
2.850000000000000000e+03 1.168676662445068359e+01 1.673927879333496094e+01 1.034256219863891602e+00 3.627912521362304688e+00 1.398650646209716797e+00 -1.216414809226989746e+00
2.851000000000000000e+03 3.829002761840820312e+01 -1.450085735321044922e+01 1.789380788803100586e+00 7.346095085144042969e+00 2.740642786026000977e+00 -4.460676908493041992e-01
2.852000000000000000e+03 1.037132453918457031e+01 2.406573867797851562e+01 -3.731116950511932373e-01 2.856621503829956055e+00 7.450529336929321289e-01 -1.197774410247802734e+00
2.853000000000000000e+03 4.285442733764648438e+01 2.556129074096679688e+01 -9.856879115104675293e-01 4.311469078063964844e+00 9.977343678474426270e-01 -6.172848343849182129e-01
2.854000000000000000e+03 6.628804016113281250e+01 -2.913766860961914062e+00 -9.070502966642379761e-02 4.262236595153808594e+00 1.251459479331970215e+00 -1.894565224647521973e-01
2.855000000000000000e+03 1.932879447937011719e+01 2.589830207824707031e+01 -1.114599704742431641e+00 3.146103143692016602e+00 6.094510555267333984e-01 9.914165735244750977e-01
2.856000000000000000e+03 4.388190841674804688e+01 2.666385459899902344e+01 -1.097433686256408691e+00 4.501571655273437500e+00 1.021241307258605957e+00 -3.565389215946197510e-01
2.857000000000000000e+03 1.055134010314941406e+01 3.157280731201171875e+01 -5.855017900466918945e-01 2.388141870498657227e+00 5.407919883728027344e-01 -5.152543783187866211e-01
2.858000000000000000e+03 1.617564392089843750e+01 2.950692939758300781e+01 -9.697057604789733887e-01 2.954264879226684570e+00 5.953677296638488770e-01 9.526424109935760498e-02
2.859000000000000000e+03 1.447123336791992188e+01 3.305319595336914062e+01 -7.224036455154418945e-01 2.514800071716308594e+00 5.377189517021179199e-01 -9.287907183170318604e-02
2.860000000000000000e+03 2.169670486450195312e+01 2.934000587463378906e+01 -6.183723807334899902e-01 1.958074927330017090e+00 4.019107520580291748e-01 7.698442339897155762e-01
2.861000000000000000e+03 4.141596221923828125e+01 -3.186469841003417969e+01 -9.096807837486267090e-01 6.876447677612304688e+00 1.790030002593994141e+00 -2.732889056205749512e-01
2.862000000000000000e+03 7.099632263183593750e+01 -1.350485682487487793e+00 -5.183283090591430664e-01 6.540381908416748047e+00 1.806616067886352539e+00 -1.102750189602375031e-02
2.863000000000000000e+03 7.095451354980468750e+01 -8.492503166198730469e+00 -8.128364086151123047e-01 7.560646057128906250e+00 2.024342775344848633e+00 1.091514974832534790e-01
2.864000000000000000e+03 6.898506927490234375e+01 3.133934020996093750e+01 -2.438700646162033081e-01 5.525292873382568359e+00 1.584426879882812500e+00 -6.342203617095947266e-01
2.865000000000000000e+03 4.606030654907226562e+01 2.709550476074218750e+01 -1.213365435600280762e+00 4.671851158142089844e+00 1.037545680999755859e+00 1.275672614574432373e-01
2.866000000000000000e+03 4.952596282958984375e+01 2.596286964416503906e+01 -1.317366719245910645e+00 5.077257633209228516e+00 1.127967238426208496e+00 9.872680306434631348e-01
2.867000000000000000e+03 5.272167968750000000e+01 -4.095210266113281250e+01 4.416685923933982849e-02 2.765492200851440430e+00 8.428977131843566895e-01 -3.234710693359375000e-01
2.868000000000000000e+03 7.182803344726562500e+01 -4.073655319213867188e+01 5.160287022590637207e-02 6.195020198822021484e+00 1.873986959457397461e+00 5.768037959933280945e-02
2.869000000000000000e+03 7.151373291015625000e+01 -3.758067703247070312e+01 -1.079726517200469971e-01 6.137040138244628906e+00 1.808720231056213379e+00 1.547457128763198853e-01
2.870000000000000000e+03 2.352848815917968750e+01 3.298091506958007812e+01 -3.426028490066528320e-01 1.675738453865051270e+00 3.999406993389129639e-01 3.750710785388946533e-01
2.871000000000000000e+03 9.416560173034667969e+00 -3.819979095458984375e+01 -2.854719758033752441e-01 1.591732025146484375e+00 3.918780386447906494e-01 1.019333228468894958e-01
2.872000000000000000e+03 1.036076736450195312e+01 1.917525672912597656e+01 5.196279287338256836e-01 2.885929822921752930e+00 1.021667361259460449e+00 -1.335802197456359863e+00
2.873000000000000000e+03 9.386852264404296875e+00 3.603029632568359375e+01 -4.054741263389587402e-01 2.113348245620727539e+00 5.123621821403503418e-01 -2.851075530052185059e-01
2.874000000000000000e+03 5.852544021606445312e+01 -3.614564132690429688e+01 5.473464131355285645e-01 1.110538959503173828e+00 4.973656237125396729e-01 -1.505319625139236450e-01
2.875000000000000000e+03 3.734709548950195312e+01 -3.632432174682617188e+01 -1.540384292602539062e+00 5.448985099792480469e+00 1.172580122947692871e+00 5.306811928749084473e-01
2.876000000000000000e+03 3.323398208618164062e+01 -3.666861724853515625e+01 -9.982096552848815918e-01 3.483034133911132812e+00 7.454473376274108887e-01 9.218462705612182617e-01
2.877000000000000000e+03 3.835827636718750000e+01 2.890944480895996094e+01 -6.796948313713073730e-01 2.737892866134643555e+00 6.174594163894653320e-01 -6.744754314422607422e-01
2.878000000000000000e+03 3.109011268615722656e+01 3.197300720214843750e+01 -1.977828443050384521e-01 1.433343291282653809e+00 3.706681430339813232e-01 -2.459378540515899658e-01
2.879000000000000000e+03 4.879004669189453125e+01 3.189231681823730469e+01 -9.095138907432556152e-01 3.731976747512817383e+00 8.467388749122619629e-01 6.761734485626220703e-01
2.880000000000000000e+03 4.060181808471679688e+01 2.677332878112792969e+01 -8.624436259269714355e-01 3.494141101837158203e+00 7.895092368125915527e-01 -7.239864468574523926e-01
2.881000000000000000e+03 4.983861160278320312e+01 3.438751602172851562e+01 -6.038194298744201660e-01 3.365104198455810547e+00 8.283854126930236816e-01 6.344009041786193848e-01
2.882000000000000000e+03 1.615626335144042969e+01 -5.323073863983154297e+00 2.107158660888671875e+00 2.061592340469360352e+00 1.250625252723693848e+00 3.208000421524047852e+00
2.883000000000000000e+03 1.520598602294921875e+01 -5.782139778137207031e+00 1.615820884704589844e+00 1.518282413482666016e+00 9.402309656143188477e-01 2.945018291473388672e+00
2.884000000000000000e+03 1.695778846740722656e+01 -4.887704849243164062e+00 2.446068286895751953e+00 3.128421783447265625e+00 1.672347068786621094e+00 3.424957275390625000e+00
2.885000000000000000e+03 1.653715133666992188e+01 -5.064887523651123047e+00 2.287066459655761719e+00 2.513367414474487305e+00 1.440130114555358887e+00 3.295095920562744141e+00
2.886000000000000000e+03 1.838926506042480469e+01 -5.789494991302490234e+00 1.158634781837463379e+00 5.097040176391601562e+00 1.876702547073364258e+00 2.232183933258056641e+00
2.887000000000000000e+03 1.763071060180664062e+01 -4.705759048461914062e+00 2.369263887405395508e+00 4.592998027801513672e+00 2.088678598403930664e+00 3.450905084609985352e+00
2.888000000000000000e+03 1.414159679412841797e+01 -8.245010375976562500e+00 9.798807650804519653e-02 2.007549285888671875e+00 6.316612362861633301e-01 3.099538326263427734e+00
2.889000000000000000e+03 1.822118949890136719e+01 -5.171099185943603516e+00 1.591471314430236816e+00 5.638700962066650391e+00 2.169051647186279297e+00 2.709015130996704102e+00
2.890000000000000000e+03 1.977987861633300781e+01 -7.183769702911376953e+00 5.040581822395324707e-01 3.894949197769165039e+00 1.319702267646789551e+00 1.833915412425994873e-01
2.891000000000000000e+03 1.879393577575683594e+01 -7.298750400543212891e+00 4.523621201515197754e-01 3.525669574737548828e+00 1.193409562110900879e+00 1.364662051200866699e+00
2.892000000000000000e+03 9.534388542175292969e+00 -7.597701072692871094e+00 -1.148672401905059814e-01 1.732059478759765625e+00 4.851576685905456543e-01 6.930491328239440918e-01
2.893000000000000000e+03 1.327304077148437500e+01 -6.859511852264404297e+00 5.828927755355834961e-01 1.561735630035400391e+00 6.433885097503662109e-01 2.522164583206176758e+00
2.894000000000000000e+03 1.253763961791992188e+01 -6.963906764984130859e+00 3.603666722774505615e-01 1.660320997238159180e+00 6.062062978744506836e-01 2.172428607940673828e+00
2.895000000000000000e+03 1.417958068847656250e+01 -7.587892532348632812e+00 4.653055667877197266e-01 1.827205777168273926e+00 6.877534389495849609e-01 3.005998373031616211e+00
2.896000000000000000e+03 1.183061408996582031e+01 -8.055600166320800781e+00 -1.171708703041076660e-01 2.320847988128662109e+00 6.611031889915466309e-01 1.917433500289916992e+00
2.897000000000000000e+03 1.162982368469238281e+01 -7.008726596832275391e+00 1.581863015890121460e-01 1.718217968940734863e+00 5.629212856292724609e-01 1.671042680740356445e+00
2.898000000000000000e+03 1.276798152923583984e+01 -7.840333461761474609e+00 5.260046571493148804e-02 2.113630771636962891e+00 6.498693227767944336e-01 2.445973396301269531e+00
2.899000000000000000e+03 1.615841484069824219e+01 -6.508246898651123047e+00 1.255964636802673340e+00 2.316934823989868164e+00 1.071869850158691406e+00 3.229483366012573242e+00
2.900000000000000000e+03 1.302113246917724609e+01 -7.303467750549316406e+00 3.172220289707183838e-01 1.801221132278442383e+00 6.355329751968383789e-01 2.489968776702880859e+00
2.901000000000000000e+03 2.040523338317871094e+01 -7.532719135284423828e+00 3.899658322334289551e-01 3.610433340072631836e+00 1.200119733810424805e+00 -4.597245454788208008e-01
2.902000000000000000e+03 2.073427391052246094e+01 -6.897984504699707031e+00 8.749334216117858887e-01 4.157402038574218750e+00 1.509700655937194824e+00 -1.003959894180297852e+00
2.903000000000000000e+03 2.085216903686523438e+01 -6.303707599639892578e+00 1.212736845016479492e+00 4.871165275573730469e+00 1.825170636177062988e+00 -1.477570056915283203e+00
2.904000000000000000e+03 2.065408515930175781e+01 -5.797184467315673828e+00 1.425584793090820312e+00 5.733050823211669922e+00 2.147590637207031250e+00 -1.393589138984680176e+00
2.905000000000000000e+03 1.994531822204589844e+01 -5.894570350646972656e+00 1.008684873580932617e+00 5.716044425964355469e+00 2.017418622970581055e+00 -2.118325680494308472e-01
2.906000000000000000e+03 8.952211380004882812e+00 -7.690810680389404297e+00 -8.035232126712799072e-02 1.600380420684814453e+00 4.560084342956542969e-01 4.829721450805664062e-01
2.907000000000000000e+03 1.489247322082519531e+01 -8.276347160339355469e+00 2.198731601238250732e-01 1.957776308059692383e+00 6.532948613166809082e-01 3.298732995986938477e+00
2.908000000000000000e+03 1.484470272064208984e+01 -7.488324642181396484e+00 6.109249591827392578e-01 1.787212848663330078e+00 7.194413542747497559e-01 3.144506454467773438e+00
2.909000000000000000e+03 9.240744590759277344e+00 -9.294111251831054688e+00 -1.324240267276763916e-01 2.348096132278442383e+00 6.647016406059265137e-01 5.529648065567016602e-01
2.910000000000000000e+03 1.013308238983154297e+01 -9.430758476257324219e+00 -2.718170881271362305e-01 2.828995704650878906e+00 7.671536207199096680e-01 9.592705965042114258e-01
2.911000000000000000e+03 6.959203338623046875e+01 -3.062362909317016602e+00 -5.130646824836730957e-01 6.040866851806640625e+00 1.658340692520141602e+00 -1.325654387474060059e-01
2.912000000000000000e+03 8.982067108154296875e+00 1.265627861022949219e+01 1.230195641517639160e+00 1.606206536293029785e+00 8.509206771850585938e-01 -5.300683975219726562e-01
2.913000000000000000e+03 1.139565658569335938e+01 9.815414428710937500e+00 1.651067018508911133e+00 2.517811775207519531e+00 1.250663638114929199e+00 -5.344645977020263672e-01
2.914000000000000000e+03 8.652817726135253906e+00 1.144985294342041016e+01 1.264122128486633301e+00 1.274133801460266113e+00 7.614768147468566895e-01 -3.005716800689697266e-01
2.915000000000000000e+03 1.054983901977539062e+01 1.132891178131103516e+01 1.552214503288269043e+00 2.286758661270141602e+00 1.151691913604736328e+00 -5.859017968177795410e-01
2.916000000000000000e+03 9.649365425109863281e+00 -9.890758514404296875e+00 -2.424933761358261108e-01 2.768059015274047852e+00 7.576696872711181641e-01 5.876832604408264160e-01
2.917000000000000000e+03 7.927757740020751953e+00 -9.627511024475097656e+00 -4.868308454751968384e-02 1.877765178680419922e+00 5.487246513366699219e-01 5.290283262729644775e-02
2.918000000000000000e+03 6.890933990478515625e+01 -2.386528491973876953e+00 -4.302880764007568359e-01 5.769211769104003906e+00 1.601677179336547852e+00 -6.631916761398315430e-02
2.919000000000000000e+03 1.051745605468750000e+01 -8.874318122863769531e+00 -2.227078378200531006e-01 2.497490882873535156e+00 6.824349164962768555e-01 1.146942973136901855e+00
2.920000000000000000e+03 6.934835815429687500e+01 9.508036375045776367e-01 -3.976089656352996826e-01 6.066397190093994141e+00 1.700636506080627441e+00 2.024058699607849121e-01
2.921000000000000000e+03 6.916027069091796875e+01 -5.966490507125854492e-01 -3.989612460136413574e-01 5.891791820526123047e+00 1.647849202156066895e+00 8.822376281023025513e-02
2.922000000000000000e+03 3.665616989135742188e+01 -1.254235363006591797e+01 1.276904344558715820e+00 5.589703559875488281e+00 2.059982299804687500e+00 -9.445394873619079590e-01
2.923000000000000000e+03 6.922353363037109375e+01 -6.308044910430908203e+00 -7.153378725051879883e-01 6.303315162658691406e+00 1.676393151283264160e+00 -3.693918287754058838e-01
2.924000000000000000e+03 6.830008697509765625e+01 -1.441093325614929199e+00 -3.479716181755065918e-01 5.431129932403564453e+00 1.524947524070739746e+00 -1.170758344233036041e-02
2.925000000000000000e+03 6.983707427978515625e+01 -2.104228019714355469e+00 -5.066121220588684082e-01 6.135153770446777344e+00 1.688562512397766113e+00 -2.710326947271823883e-02
2.926000000000000000e+03 6.836203002929687500e+01 -5.287393569946289062e+00 -5.480422377586364746e-01 5.638978958129882812e+00 1.527281045913696289e+00 -4.405615031719207764e-01
2.927000000000000000e+03 6.801007080078125000e+01 -3.252470254898071289e+00 -3.856901824474334717e-01 5.269763946533203125e+00 1.465222120285034180e+00 -2.382533699274063110e-01
2.928000000000000000e+03 1.265375328063964844e+01 2.462124633789062500e+01 -6.741428375244140625e-01 3.537840366363525391e+00 8.591092824935913086e-01 -9.254854917526245117e-01
2.929000000000000000e+03 9.732711791992187500e+00 1.015128898620605469e+01 1.420092344284057617e+00 1.599210739135742188e+00 9.057909250259399414e-01 -2.308009415864944458e-01
2.930000000000000000e+03 6.847348022460937500e+01 2.962089157104492188e+01 -5.550502538681030273e-01 5.447071075439453125e+00 1.467606306076049805e+00 -7.914326190948486328e-01
2.931000000000000000e+03 9.630078315734863281e+00 2.280808258056640625e+01 -1.665723025798797607e-01 2.631738424301147461e+00 7.395498156547546387e-01 -1.308197498321533203e+00
2.932000000000000000e+03 1.624674415588378906e+01 2.583338356018066406e+01 -1.079618573188781738e+00 3.806971073150634766e+00 8.182057738304138184e-01 -1.624666503630578518e-03
2.933000000000000000e+03 4.500234222412109375e+01 2.598056793212890625e+01 -1.116976022720336914e+00 4.690905570983886719e+00 1.072178840637207031e+00 -2.186147570610046387e-01
2.934000000000000000e+03 7.079269409179687500e+01 3.472681808471679688e+01 4.946442693471908569e-02 6.293783664703369141e+00 1.902974486351013184e+00 -4.476990401744842529e-01
2.935000000000000000e+03 1.578062915802001953e+01 2.686631011962890625e+01 -1.073230147361755371e+00 3.521510124206542969e+00 7.344840168952941895e-01 -1.373808979988098145e-01
2.936000000000000000e+03 7.316930389404296875e+01 3.414503860473632812e+01 -1.731076277792453766e-02 7.178536891937255859e+00 2.148367881774902344e+00 -3.417672216892242432e-01
2.937000000000000000e+03 1.732344818115234375e+01 2.770625114440917969e+01 -1.085310697555541992e+00 3.247043609619140625e+00 6.485198736190795898e-01 3.519172072410583496e-01
2.938000000000000000e+03 1.415261173248291016e+01 3.065922355651855469e+01 -8.476475477218627930e-01 2.790949821472167969e+00 5.829906463623046875e-01 -1.801847964525222778e-01
2.939000000000000000e+03 5.654307174682617188e+01 3.322048568725585938e+01 1.021450534462928772e-01 2.642798900604248047e+00 8.234832286834716797e-01 8.811464905738830566e-01
2.940000000000000000e+03 6.279829025268554688e+01 3.025840187072753906e+01 1.702481806278228760e-01 2.423525571823120117e+00 7.781321406364440918e-01 -1.716156452894210815e-01
2.941000000000000000e+03 6.486724090576171875e+01 3.250637054443359375e+01 2.426173090934753418e-01 3.568138360977172852e+00 1.143226742744445801e+00 -4.059038758277893066e-01
2.942000000000000000e+03 1.737634658813476562e+01 3.604537582397460938e+01 -5.430207848548889160e-01 2.190939664840698242e+00 4.943756461143493652e-01 1.107743605971336365e-01
2.943000000000000000e+03 4.066938400268554688e+01 2.857437324523925781e+01 -8.584433794021606445e-01 3.337304353713989258e+00 7.436582446098327637e-01 -6.287861466407775879e-01
2.944000000000000000e+03 4.250220489501953125e+01 2.692199516296386719e+01 -9.959172010421752930e-01 4.003212928771972656e+00 9.021886587142944336e-01 -5.691284537315368652e-01
2.945000000000000000e+03 6.595701599121093750e+01 -3.792232131958007812e+01 1.946308910846710205e-01 3.872315168380737305e+00 1.220083832740783691e+00 4.087717831134796143e-01
2.946000000000000000e+03 2.623878288269042969e+01 3.173895835876464844e+01 -2.040339410305023193e-01 1.302829027175903320e+00 3.296385407447814941e-01 2.548815906047821045e-01
2.947000000000000000e+03 4.649607467651367188e+01 3.499966812133789062e+01 -6.981481313705444336e-01 3.368269920349121094e+00 8.010365962982177734e-01 2.761208713054656982e-01
2.948000000000000000e+03 3.900365447998046875e+01 3.081535720825195312e+01 -6.823154687881469727e-01 2.813014507293701172e+00 6.392096877098083496e-01 -5.730634331703186035e-01
2.949000000000000000e+03 8.244011878967285156e+00 4.111232757568359375e+01 -2.515411078929901123e-01 1.999108433723449707e+00 5.242702364921569824e-01 -5.403826758265495300e-02
2.950000000000000000e+03 1.772491455078125000e+01 -5.275602340698242188e+00 1.819940805435180664e+00 4.497131824493408203e+00 1.895121812820434570e+00 3.086532592773437500e+00
2.951000000000000000e+03 1.497132492065429688e+01 -6.361042022705078125e+00 1.238519906997680664e+00 1.585366964340209961e+00 8.471660614013671875e-01 3.010545015335083008e+00
2.952000000000000000e+03 1.563393115997314453e+01 -6.014264583587646484e+00 1.601902365684509277e+00 1.824885487556457520e+00 1.028036355972290039e+00 3.112768650054931641e+00
2.953000000000000000e+03 1.723590087890625000e+01 -5.409053802490234375e+00 1.873000621795654297e+00 3.570784091949462891e+00 1.633135437965393066e+00 3.255302906036376953e+00
2.954000000000000000e+03 1.788299751281738281e+01 -5.892913818359375000e+00 1.266726970672607422e+00 4.320708751678466797e+00 1.676230669021606445e+00 2.632445335388183594e+00
2.955000000000000000e+03 1.913277435302734375e+01 -5.958631515502929688e+00 9.306347966194152832e-01 5.560561656951904297e+00 1.947358965873718262e+00 1.046506524085998535e+00
2.956000000000000000e+03 2.036029624938964844e+01 -6.184259891510009766e+00 1.059550404548645020e+00 5.125391006469726562e+00 1.855482459068298340e+00 -6.482012271881103516e-01
2.957000000000000000e+03 1.647828292846679688e+01 -6.939433574676513672e+00 1.010150909423828125e+00 2.412137746810913086e+00 1.026686549186706543e+00 3.161975383758544922e+00
2.958000000000000000e+03 1.558074092864990234e+01 -7.401185512542724609e+00 7.566071152687072754e-01 1.966637849807739258e+00 8.169734477996826172e-01 3.243306159973144531e+00
2.959000000000000000e+03 1.628217506408691406e+01 -7.446472167968750000e+00 7.241616249084472656e-01 2.163225650787353516e+00 8.662161827087402344e-01 3.125125408172607422e+00
2.960000000000000000e+03 1.774395942687988281e+01 -6.439285755157470703e+00 9.963683485984802246e-01 3.713614702224731445e+00 1.412994980812072754e+00 2.590620517730712891e+00
2.961000000000000000e+03 1.105146980285644531e+01 8.929887771606445312e+00 1.578577041625976562e+00 2.135314941406250000e+00 1.114167571067810059e+00 -3.409116268157958984e-01
2.962000000000000000e+03 9.119994163513183594e+00 -8.692826271057128906e+00 -2.129505276679992676e-01 2.136335611343383789e+00 5.770155191421508789e-01 5.220413208007812500e-01
2.963000000000000000e+03 8.937904357910156250e+00 2.163411140441894531e+01 4.774294421076774597e-02 2.304050445556640625e+00 7.055380344390869141e-01 -1.335186600685119629e+00
2.964000000000000000e+03 6.967706298828125000e+01 3.309078216552734375e+01 -7.330630719661712646e-02 5.852723121643066406e+00 1.733825087547302246e+00 -4.574447274208068848e-01
2.965000000000000000e+03 1.466532993316650391e+01 2.783056449890136719e+01 -1.006785035133361816e+00 3.332487583160400391e+00 6.977108120918273926e-01 -2.696244716644287109e-01
2.966000000000000000e+03 4.314823150634765625e+01 3.034344100952148438e+01 -9.764690995216369629e-01 3.667668104171752930e+00 8.073597550392150879e-01 -2.679557204246520996e-01
2.967000000000000000e+03 6.622618865966796875e+01 3.775996398925781250e+01 4.757733643054962158e-01 4.548145771026611328e+00 1.507175803184509277e+00 -2.079709172248840332e-01
2.968000000000000000e+03 6.227426147460937500e+01 3.506923675537109375e+01 4.882222414016723633e-01 3.213379144668579102e+00 1.110480427742004395e+00 5.168234184384346008e-02
2.969000000000000000e+03 3.572090911865234375e+01 2.701278305053710938e+01 -5.466946363449096680e-01 1.953732371330261230e+00 4.221113324165344238e-01 -7.913690209388732910e-01
2.970000000000000000e+03 8.303148269653320312e+00 -4.100199508666992188e+01 -1.758824586868286133e-01 1.678263545036315918e+00 4.507143199443817139e-01 3.825204446911811829e-02
2.971000000000000000e+03 1.317292213439941406e+01 3.851517105102539062e+01 -4.604243338108062744e-01 2.156759977340698242e+00 5.089006423950195312e-01 -8.213147521018981934e-02
2.972000000000000000e+03 1.659262657165527344e+01 -6.240670204162597656e+00 1.446655631065368652e+00 2.581015586853027344e+00 1.208301424980163574e+00 3.227165222167968750e+00
2.973000000000000000e+03 1.825689697265625000e+01 -6.846659660339355469e+00 6.990225315093994141e-01 3.797509431838989258e+00 1.348959565162658691e+00 2.062427759170532227e+00
2.974000000000000000e+03 1.368221950531005859e+01 -7.060287952423095703e+00 5.722747445106506348e-01 1.660119891166687012e+00 6.697183847427368164e-01 2.711927652359008789e+00
2.975000000000000000e+03 1.958949661254882812e+01 -6.300605297088623047e+00 8.558207750320434570e-01 5.013230800628662109e+00 1.760715484619140625e+00 3.721628487110137939e-01
2.976000000000000000e+03 1.699169731140136719e+01 -6.111360073089599609e+00 1.410609841346740723e+00 3.140156984329223633e+00 1.365230083465576172e+00 3.159850835800170898e+00
2.977000000000000000e+03 1.688685417175292969e+01 -6.569571971893310547e+00 1.142634391784667969e+00 2.921850204467773438e+00 1.219345450401306152e+00 3.087281465530395508e+00
2.978000000000000000e+03 1.684474182128906250e+01 -7.336859226226806641e+00 6.582888960838317871e-01 2.568537950515747070e+00 9.680480957031250000e-01 2.963899135589599609e+00
2.979000000000000000e+03 1.459578514099121094e+01 -6.834134578704833984e+00 9.285258054733276367e-01 1.642522931098937988e+00 7.713146209716796875e-01 2.997460126876831055e+00
2.980000000000000000e+03 1.731633186340332031e+01 -6.927666187286376953e+00 8.707541823387145996e-01 2.968594789505004883e+00 1.151804685592651367e+00 2.833782672882080078e+00
2.981000000000000000e+03 1.557217788696289062e+01 -6.617699623107910156e+00 1.182914018630981445e+00 1.876352310180664062e+00 9.177799224853515625e-01 3.155693531036376953e+00
2.982000000000000000e+03 6.668991851806640625e+01 2.744255256652832031e+01 -8.380437493324279785e-01 4.232861995697021484e+00 1.018445491790771484e+00 -1.184676766395568848e+00
2.983000000000000000e+03 6.774265289306640625e+01 3.416389846801757812e+01 1.853186041116714478e-01 4.849454879760742188e+00 1.510432004928588867e+00 -4.444198906421661377e-01
2.984000000000000000e+03 2.053417015075683594e+01 3.352734375000000000e+01 -5.088869333267211914e-01 2.024135828018188477e+00 4.545746445655822754e-01 3.875215053558349609e-01
2.985000000000000000e+03 4.093232345581054688e+01 3.030623626708984375e+01 -8.233782649040222168e-01 3.254065036773681641e+00 7.292060256004333496e-01 -4.710086882114410400e-01
2.986000000000000000e+03 1.741689109802246094e+01 -5.990407466888427734e+00 1.406754970550537109e+00 3.542746067047119141e+00 1.484850287437438965e+00 3.050641536712646484e+00
2.987000000000000000e+03 4.064714813232421875e+01 3.204106140136718750e+01 -7.334439158439636230e-01 3.025784492492675781e+00 6.877021789550781250e-01 -3.987518846988677979e-01
2.988000000000000000e+03 7.168638610839843750e+01 3.801612091064453125e+01 2.282734960317611694e-01 6.458277702331542969e+00 2.005965471267700195e+00 -2.653798162937164307e-01
2.989000000000000000e+03 4.320538711547851562e+01 3.249754333496093750e+01 -8.553627729415893555e-01 3.411847114562988281e+00 7.669453024864196777e-01 -1.262451708316802979e-01
2.990000000000000000e+03 4.556991958618164062e+01 3.004949569702148438e+01 -1.100452423095703125e+00 4.052252292633056641e+00 8.855400085449218750e-01 1.526697725057601929e-01
2.991000000000000000e+03 2.820298385620117188e+01 3.403619003295898438e+01 -1.723943650722503662e-01 1.478906869888305664e+00 3.919537365436553955e-01 3.211894258856773376e-02
2.992000000000000000e+03 4.475880432128906250e+01 2.813200187683105469e+01 -1.170137405395507812e+00 4.331156730651855469e+00 9.483058452606201172e-01 -8.484801650047302246e-02
2.993000000000000000e+03 4.697107315063476562e+01 3.785144042968750000e+01 -5.202338099479675293e-01 3.169813871383666992e+00 7.948740124702453613e-01 1.844960749149322510e-01
2.994000000000000000e+03 3.050605010986328125e+01 3.696834945678710938e+01 -1.837056726217269897e-01 1.727723479270935059e+00 4.632053375244140625e-01 -7.651665806770324707e-02
2.995000000000000000e+03 6.006198501586914062e+01 3.195518493652343750e+01 3.176768124103546143e-01 2.349413871765136719e+00 8.001272082328796387e-01 4.866990149021148682e-01
2.996000000000000000e+03 3.852841949462890625e+01 -4.065922546386718750e+01 -1.639857888221740723e+00 5.083987236022949219e+00 1.033238887786865234e+00 7.019673287868499756e-02
2.997000000000000000e+03 1.382851982116699219e+01 3.571682739257812500e+01 -5.791862607002258301e-01 2.303053855895996094e+00 5.171602964401245117e-01 -1.053745448589324951e-01
2.998000000000000000e+03 2.708290672302246094e+01 -3.476064682006835938e+01 -4.371328651905059814e-01 5.535172224044799805e-01 3.491530939936637878e-02 5.293239355087280273e-01
2.999000000000000000e+03 2.503216361999511719e+01 -3.439255142211914062e+01 -5.600815415382385254e-01 1.112728938460350037e-02 -1.646862775087356567e-01 2.110034376382827759e-01
3.000000000000000000e+03 2.105640220642089844e+01 3.596654891967773438e+01 -4.234806001186370850e-01 1.958055377006530762e+00 4.603724479675292969e-01 2.442097812891006470e-01
3.001000000000000000e+03 5.461750793457031250e+01 3.560062789916992188e+01 -1.045469939708709717e-02 2.919136047363281250e+00 8.726044297218322754e-01 6.682069301605224609e-01
3.002000000000000000e+03 3.163495826721191406e+01 -4.084450149536132812e+01 -8.245493173599243164e-01 2.902793407440185547e+00 6.234732270240783691e-01 2.422709763050079346e-01
3.003000000000000000e+03 2.604218673706054688e+01 3.809040451049804688e+01 -2.076479792594909668e-01 1.697551488876342773e+00 4.469710588455200195e-01 1.028299257159233093e-01
3.004000000000000000e+03 4.019497299194335938e+01 -3.728959274291992188e+01 -1.629876971244812012e+00 5.788589477539062500e+00 1.247613787651062012e+00 1.085867658257484436e-01
3.005000000000000000e+03 7.189178466796875000e+01 4.088977050781250000e+01 2.770560383796691895e-01 6.551250457763671875e+00 2.048491954803466797e+00 -9.129081666469573975e-02
3.006000000000000000e+03 6.223071289062500000e+01 3.795433807373046875e+01 5.816509723663330078e-01 3.458479166030883789e+00 1.212038993835449219e+00 5.014422535896301270e-02
3.007000000000000000e+03 6.912794494628906250e+01 3.649443054199218750e+01 2.807559669017791748e-01 5.554980278015136719e+00 1.750720858573913574e+00 -2.866742908954620361e-01
3.008000000000000000e+03 3.802743530273437500e+01 3.692161178588867188e+01 -4.565128684043884277e-01 2.489634990692138672e+00 6.099366545677185059e-01 -2.216378748416900635e-01
3.009000000000000000e+03 5.918044281005859375e+01 3.449001312255859375e+01 3.824587464332580566e-01 2.717473506927490234e+00 9.299796223640441895e-01 5.027247071266174316e-01
3.010000000000000000e+03 2.028233146667480469e+01 3.147566223144531250e+01 -6.080524325370788574e-01 2.120614051818847656e+00 4.537684917449951172e-01 4.609954357147216797e-01
3.011000000000000000e+03 1.809264945983886719e+01 3.098673820495605469e+01 -8.156189322471618652e-01 2.560068607330322266e+00 5.233348608016967773e-01 3.555412292480468750e-01
3.012000000000000000e+03 4.279263687133789062e+01 2.850613212585449219e+01 -1.009067773818969727e+00 3.872061014175415039e+00 8.588979244232177734e-01 -3.938067257404327393e-01
3.013000000000000000e+03 1.595464992523193359e+01 -2.718377590179443359e+00 2.979484081268310547e+00 1.329412162303924561e-01 9.337275624275207520e-01 1.346485614776611328e+00
3.014000000000000000e+03 1.617944717407226562e+01 -2.873232603073120117e+00 3.228591203689575195e+00 3.237216770648956299e-01 1.065693855285644531e+00 1.620180249214172363e+00
3.015000000000000000e+03 1.615020370483398438e+01 -2.713416576385498047e+00 3.187641382217407227e+00 1.648716926574707031e-01 1.005753874778747559e+00 1.467636585235595703e+00
3.016000000000000000e+03 1.627596473693847656e+01 -3.035133838653564453e+00 3.396623134613037109e+00 6.181232929229736328e-01 1.204423904418945312e+00 1.935024976730346680e+00
3.017000000000000000e+03 1.757549476623535156e+01 -3.431118249893188477e+00 4.292848587036132812e+00 4.080124378204345703e+00 2.511891841888427734e+00 4.143498897552490234e+00
3.018000000000000000e+03 1.866270637512207031e+01 -3.192462444305419922e+00 3.185405731201171875e+00 1.145470619201660156e+01 4.392033576965332031e+00 4.237773418426513672e+00
3.019000000000000000e+03 1.856889724731445312e+01 -3.738043546676635742e+00 2.605380535125732422e+00 8.957525253295898438e+00 3.468871593475341797e+00 3.470867633819580078e+00
3.020000000000000000e+03 1.652418136596679688e+01 1.028532743453979492e+00 -2.917912006378173828e-01 3.481606721878051758e+00 9.569447040557861328e-01 -3.018763303756713867e+00
3.021000000000000000e+03 1.685048103332519531e+01 4.859941899776458740e-01 -1.937114866450428963e-04 3.388907670974731445e+00 1.016614198684692383e+00 -3.287925243377685547e+00
3.022000000000000000e+03 1.763584136962890625e+01 3.430998027324676514e-01 6.011066436767578125e-01 5.799150466918945312e+00 1.920077085494995117e+00 -4.990432262420654297e+00
3.023000000000000000e+03 1.859785652160644531e+01 1.762720197439193726e-01 -2.403832226991653442e-01 1.259225463867187500e+01 3.705561399459838867e+00 -5.894453048706054688e+00
3.024000000000000000e+03 1.855344200134277344e+01 7.688496708869934082e-01 -9.900782108306884766e-01 1.125028038024902344e+01 3.078060626983642578e+00 -4.966554641723632812e+00
3.025000000000000000e+03 1.853204154968261719e+01 3.800589442253112793e-01 -4.594829082489013672e-01 1.157510185241699219e+01 3.334685802459716797e+00 -5.586187839508056641e+00
3.026000000000000000e+03 7.836672210693359375e+01 3.736439132690429688e+01 -9.649083018302917480e-03 9.059542655944824219e+00 2.714967966079711914e+00 -1.130471751093864441e-01
3.027000000000000000e+03 7.804193115234375000e+01 4.165181732177734375e+01 1.760589033365249634e-01 8.800662040710449219e+00 2.693016290664672852e+00 -4.954507574439048767e-02
3.028000000000000000e+03 2.348872566223144531e+01 1.278179168701171875e+00 -5.671749114990234375e-01 -4.712336063385009766e-01 -3.115225434303283691e-01 8.051857352256774902e-01
3.029000000000000000e+03 2.391775131225585938e+01 2.284989166259765625e+01 -9.812298417091369629e-01 1.417305413633584976e-02 -2.901170253753662109e-01 6.998789906501770020e-01
3.030000000000000000e+03 1.948729896545410156e+01 -3.954207658767700195e+00 1.987076759338378906e+00 1.046336269378662109e+01 3.735131740570068359e+00 4.568903744220733643e-01
3.031000000000000000e+03 1.658607482910156250e+01 -3.531171321868896484e+00 3.653654336929321289e+00 1.554091215133666992e+00 1.562323689460754395e+00 2.883827209472656250e+00
3.032000000000000000e+03 1.651651000976562500e+01 -4.212325096130371094e+00 3.087169408798217773e+00 2.028766393661499023e+00 1.534780740737915039e+00 3.217279434204101562e+00
3.033000000000000000e+03 1.881554603576660156e+01 -4.236515045166015625e+00 1.819514155387878418e+00 8.359893798828125000e+00 3.053822278976440430e+00 2.029675960540771484e+00
3.034000000000000000e+03 4.092174530029296875e+01 -4.715859889984130859e+00 -9.459538459777832031e-01 8.392011642456054688e+00 2.233817338943481445e+00 2.720563173294067383e+00
3.035000000000000000e+03 3.632065057754516602e+00 -2.566892147064208984e+00 -1.982349306344985962e-01 -4.801792651414871216e-02 -7.387585937976837158e-02 -2.988709509372711182e-01
3.036000000000000000e+03 1.997287178039550781e+01 2.348631858825683594e+01 -9.740739464759826660e-01 3.450694322586059570e+00 7.429861426353454590e-01 1.528418660163879395e+00
3.037000000000000000e+03 2.143101501464843750e+01 1.033795952796936035e+00 -3.623387217521667480e-01 8.038220405578613281e+00 2.302764415740966797e+00 -6.735502481460571289e-01
3.038000000000000000e+03 1.873749732971191406e+01 5.163931250572204590e-01 -8.467976450920104980e-01 1.257107543945312500e+01 3.517283439636230469e+00 -5.187366008758544922e+00
3.039000000000000000e+03 1.832370185852050781e+01 1.008109927177429199e+00 -9.284043908119201660e-01 9.724115371704101562e+00 2.638713359832763672e+00 -4.944955825805664062e+00
3.040000000000000000e+03 1.700390625000000000e+01 -4.137306690216064453e+00 3.255212068557739258e+00 2.827700614929199219e+00 1.824873805046081543e+00 3.476121425628662109e+00
3.041000000000000000e+03 5.325191116333007812e+01 -1.728123068809509277e+00 1.965624213218688965e+00 3.689127266407012939e-01 7.003610730171203613e-01 2.197719067335128784e-01
3.042000000000000000e+03 5.280293655395507812e+01 -9.327973127365112305e-01 2.116410732269287109e+00 3.204938769340515137e-01 7.310714125633239746e-01 3.084576427936553955e-01
3.043000000000000000e+03 4.430810928344726562e+01 -1.572790145874023438e+01 1.442833900451660156e+00 1.047286891937255859e+01 3.574710607528686523e+00 1.290690302848815918e+00
3.044000000000000000e+03 6.134020996093750000e+01 2.527443122863769531e+01 -1.241061329841613770e+00 2.007376849651336670e-01 -3.120971024036407471e-01 3.194130659103393555e-01
3.045000000000000000e+03 1.717288017272949219e+01 6.977490186691284180e-01 2.173803001642227173e-01 4.508014678955078125e+00 1.417618513107299805e+00 -4.096971035003662109e+00
3.046000000000000000e+03 2.199106454849243164e+00 3.698621749877929688e+01 -3.144940361380577087e-02 1.794583320617675781e+00 5.289402008056640625e-01 -1.317981034517288208e-01
3.047000000000000000e+03 1.704048919677734375e+01 2.223466873168945312e+01 -7.144385576248168945e-01 5.160159587860107422e+00 1.333716273307800293e+00 3.682519122958183289e-02
3.048000000000000000e+03 4.708217620849609375e+01 -2.856395149230957031e+01 2.261028438806533813e-01 6.531238079071044922e+00 2.027202367782592773e+00 -2.005877733230590820e+00
3.049000000000000000e+03 3.694866418838500977e+00 -3.306421995162963867e+00 -1.582273542881011963e-01 -7.048847526311874390e-02 -6.861475110054016113e-02 -3.531497716903686523e-01
3.050000000000000000e+03 4.218672275543212891e+00 -3.195175170898437500e+01 -2.338742762804031372e-01 1.849730372428894043e+00 4.847567975521087646e-01 5.464389324188232422e-01
3.051000000000000000e+03 1.685939598083496094e+01 -4.466168880462646484e+00 2.838385581970214844e+00 2.732550144195556641e+00 1.671280741691589355e+00 3.419841051101684570e+00
3.052000000000000000e+03 1.757656478881835938e+01 -4.229556083679199219e+00 2.892084836959838867e+00 4.526896476745605469e+00 2.225694417953491211e+00 3.694811105728149414e+00
3.053000000000000000e+03 5.259924697875976562e+01 2.306813812255859375e+01 -6.217087507247924805e-01 4.655648231506347656e+00 1.210181832313537598e+00 2.247429847717285156e+00
3.054000000000000000e+03 3.374965286254882812e+01 -1.469566059112548828e+01 2.541441202163696289e+00 3.677590608596801758e+00 1.865709543228149414e+00 -2.638431072235107422e+00
3.055000000000000000e+03 1.935914230346679688e+01 2.246257305145263672e+00 -2.169710874557495117e+00 1.095273399353027344e+01 2.634907007217407227e+00 -2.770956754684448242e+00
3.056000000000000000e+03 2.050587654113769531e+01 2.058096885681152344e+00 -1.875360608100891113e+00 9.989457130432128906e+00 2.434228897094726562e+00 -1.521594762802124023e+00
3.057000000000000000e+03 6.247528839111328125e+01 3.248914718627929688e+01 3.567415177822113037e-01 2.849682807922363281e+00 9.619272947311401367e-01 -9.694783948361873627e-03
3.058000000000000000e+03 4.246750259399414062e+01 -4.344237804412841797e+00 -1.095272183418273926e+00 9.685791015625000000e+00 2.577155590057373047e+00 1.487688064575195312e+00
3.059000000000000000e+03 6.728085517883300781e+00 -1.682837104797363281e+01 1.138100981712341309e+00 2.308491230010986328e+00 1.033977746963500977e+00 5.208515524864196777e-01
3.060000000000000000e+03 6.247659301757812500e+01 -3.486318206787109375e+01 7.757237553596496582e-02 2.101640462875366211e+00 6.537638902664184570e-01 6.946950554847717285e-01
3.061000000000000000e+03 3.566987228393554688e+01 2.962673950195312500e+01 -4.814033508300781250e-01 2.079750299453735352e+00 4.795041084289550781e-01 -6.331707239151000977e-01
3.062000000000000000e+03 1.884863281250000000e+01 2.571794033050537109e+00 -1.814853429794311523e+00 1.001228332519531250e+01 2.459228992462158203e+00 -3.265373229980468750e+00
3.063000000000000000e+03 4.628271102905273438e+01 8.659751892089843750e+00 9.543932676315307617e-01 1.173857975006103516e+01 3.807891845703125000e+00 1.837738156318664551e+00
3.064000000000000000e+03 5.856072235107421875e+01 -6.371465206146240234e+00 3.016859889030456543e-01 2.302606850862503052e-01 1.595840007066726685e-01 -1.622388213872909546e-01
3.065000000000000000e+03 5.317085647583007812e+01 2.578091049194335938e+01 -1.163697719573974609e+00 3.557171583175659180e+00 7.180421352386474609e-01 1.915145754814147949e+00
3.066000000000000000e+03 1.551795387268066406e+01 -3.981559753417968750e+00 2.671120882034301758e+00 7.948399186134338379e-01 1.039788246154785156e+00 2.371182918548583984e+00
3.067000000000000000e+03 1.964747810363769531e+01 -4.440535068511962891e+00 1.662170290946960449e+00 8.871580123901367188e+00 3.160125255584716797e+00 -2.508412599563598633e-01
3.068000000000000000e+03 4.137254714965820312e+01 -8.373239517211914062e+00 -9.381873607635498047e-01 7.681999206542968750e+00 2.023143529891967773e+00 1.373681783676147461e+00
3.069000000000000000e+03 1.352015113830566406e+01 1.526462745666503906e+01 1.304099559783935547e+00 5.037518978118896484e+00 1.902485609054565430e+00 -1.085687994956970215e+00
3.070000000000000000e+03 1.665521240234375000e+01 1.493102550506591797e+00 -4.011546969413757324e-01 4.344176292419433594e+00 1.182906508445739746e+00 -3.213203907012939453e+00
3.071000000000000000e+03 1.359061336517333984e+01 -2.868879127502441406e+01 -7.488637566566467285e-01 1.786596536636352539e+00 3.113198280334472656e-01 -1.811941862106323242e-01
3.072000000000000000e+03 4.258257675170898438e+01 -2.350689506530761719e+01 2.116177082061767578e+00 9.057153701782226562e+00 3.351999282836914062e+00 -4.605547487735748291e-01
3.073000000000000000e+03 7.114485168457031250e+01 -1.309279823303222656e+01 3.320211470127105713e-01 8.932593345642089844e+00 2.779384374618530273e+00 5.509145259857177734e-01
3.074000000000000000e+03 6.749657440185546875e+01 -3.112471961975097656e+01 -8.526775240898132324e-01 5.136774539947509766e+00 1.285229086875915527e+00 7.703974246978759766e-01
3.075000000000000000e+03 7.198641204833984375e+01 1.358372974395751953e+01 1.137629508972167969e+00 9.309207916259765625e+00 3.134051322937011719e+00 3.589436709880828857e-01
3.076000000000000000e+03 5.181010818481445312e+01 2.664783096313476562e+01 -1.234016656875610352e+00 4.157195568084716797e+00 8.769536018371582031e-01 1.606687307357788086e+00
3.077000000000000000e+03 5.210242462158203125e+01 2.568388366699218750e+01 -1.195264816284179688e+00 4.174543380737304688e+00 8.937835693359375000e-01 1.795502066612243652e+00
3.078000000000000000e+03 1.640919685363769531e+01 -5.789959907531738281e+00 1.689907431602478027e+00 2.482458829879760742e+00 1.251709938049316406e+00 3.240688562393188477e+00
3.079000000000000000e+03 1.845528030395507812e+01 1.801934719085693359e+00 -1.576998353004455566e+00 9.878816604614257812e+00 2.490545511245727539e+00 -4.121253490447998047e+00
3.080000000000000000e+03 1.702353477478027344e+01 1.431719779968261719e+00 -4.219443500041961670e-01 5.415297985076904297e+00 1.498006105422973633e+00 -3.730618953704833984e+00
3.081000000000000000e+03 6.253718185424804688e+01 -8.014439582824707031e+00 1.198647096753120422e-01 1.473384499549865723e+00 4.779747426509857178e-01 -7.390769720077514648e-01
3.082000000000000000e+03 1.305267047882080078e+01 -5.113771438598632812e+00 1.044210910797119141e+00 7.571535110473632812e-01 5.404093265533447266e-01 1.800527095794677734e+00
3.083000000000000000e+03 5.118783187866210938e+01 2.533583450317382812e+01 -1.282706856727600098e+00 4.819056034088134766e+00 1.060904741287231445e+00 1.460471630096435547e+00
3.084000000000000000e+03 1.602650260925292969e+01 -5.994955539703369141e+00 1.616385579109191895e+00 2.052555561065673828e+00 1.100682258605957031e+00 3.185691833496093750e+00
3.085000000000000000e+03 4.961931610107421875e+01 2.758964729309082031e+01 -1.292608737945556641e+00 4.512699604034423828e+00 9.660272002220153809e-01 9.855233430862426758e-01
3.086000000000000000e+03 5.012598037719726562e+01 2.460277175903320312e+01 -1.190753936767578125e+00 5.318649768829345703e+00 1.238368749618530273e+00 1.160373926162719727e+00
3.087000000000000000e+03 7.350786590576171875e+01 -3.257984924316406250e+01 -4.312988817691802979e-01 7.205147266387939453e+00 2.032154560089111328e+00 -1.478332728147506714e-01
3.088000000000000000e+03 3.710368728637695312e+01 -1.346408843994140625e+01 1.535491943359375000e+00 6.353456020355224609e+00 2.366684436798095703e+00 -8.919320702552795410e-01
3.089000000000000000e+03 6.667047119140625000e+01 3.024159622192382812e+01 -2.038536816835403442e-01 4.186156749725341797e+00 1.194690942764282227e+00 -8.041010499000549316e-01
3.090000000000000000e+03 3.320058822631835938e+01 2.423802185058593750e+01 -6.809911131858825684e-01 1.040330410003662109e+00 1.078017875552177429e-01 -6.349002122879028320e-01
3.091000000000000000e+03 1.975176239013671875e+01 2.973665237426757812e+01 -7.959010601043701172e-01 2.406195402145385742e+00 4.830882847309112549e-01 5.747146010398864746e-01
3.092000000000000000e+03 2.818227767944335938e+01 -1.049862575531005859e+01 8.878986239433288574e-01 1.195023655891418457e+00 6.248766779899597168e-01 -2.685167551040649414e+00
3.093000000000000000e+03 5.006313323974609375e+00 -1.769854545593261719e+01 6.395658254623413086e-01 9.066771268844604492e-01 4.638728797435760498e-01 5.773841738700866699e-01
3.094000000000000000e+03 1.063460540771484375e+01 2.768218612670898438e+01 -6.479707956314086914e-01 2.692435979843139648e+00 6.133395433425903320e-01 -8.396028876304626465e-01
3.095000000000000000e+03 7.360111236572265625e+01 -2.029290199279785156e+01 1.125588297843933105e+00 8.206144332885742188e+00 2.799519777297973633e+00 -6.647977828979492188e-01
3.096000000000000000e+03 4.501606369018554688e+01 -7.777045249938964844e+00 -1.413731336593627930e+00 8.843475341796875000e+00 2.228923320770263672e+00 1.007311463356018066e+00
3.097000000000000000e+03 1.883973884582519531e+01 -5.566019535064697266e+00 1.121318459510803223e+00 5.918614864349365234e+00 2.111979961395263672e+00 1.562819123268127441e+00
3.098000000000000000e+03 1.111250209808349609e+01 -2.871266365051269531e+01 -8.145865797996520996e-01 2.364152431488037109e+00 4.648697376251220703e-01 2.460100501775741577e-01
3.099000000000000000e+03 1.074701595306396484e+01 -3.023089027404785156e+01 -7.907922863960266113e-01 2.156393051147460938e+00 4.096802473068237305e-01 2.434668242931365967e-01
3.100000000000000000e+03 2.735126686096191406e+01 -1.122479438781738281e+01 3.903138041496276855e-01 1.046419024467468262e+00 4.310198426246643066e-01 -2.196783065795898438e+00
3.101000000000000000e+03 7.556028747558593750e+01 2.092619895935058594e+01 -1.399540458805859089e-03 8.222806930541992188e+00 2.466422080993652344e+00 1.173410534858703613e+00
3.102000000000000000e+03 7.398613739013671875e+01 -3.093000602722167969e+01 -5.093771219253540039e-01 7.465978622436523438e+00 2.086980342864990234e+00 -3.860902488231658936e-01
3.103000000000000000e+03 7.542665863037109375e+01 7.182384014129638672e+00 -3.566805645823478699e-02 7.642379760742187500e+00 2.282013416290283203e+00 -5.826570391654968262e-01
3.104000000000000000e+03 7.489323425292968750e+01 1.666575813293457031e+01 6.743053793907165527e-01 8.067458152770996094e+00 2.622529029846191406e+00 7.498522996902465820e-01
3.105000000000000000e+03 7.602272033691406250e+01 -1.528040218353271484e+01 3.998744487762451172e-01 6.990865230560302734e+00 2.217221975326538086e+00 6.414508223533630371e-01
3.106000000000000000e+03 6.440763854980468750e+01 -1.319904178380966187e-01 3.531821668148040771e-01 3.240936040878295898e+00 1.078235507011413574e+00 3.972562551498413086e-01
3.107000000000000000e+03 7.134426116943359375e+01 2.567224121093750000e+01 -1.277722835540771484e+00 7.685685634613037109e+00 1.922388911247253418e+00 -1.234171092510223389e-01
3.108000000000000000e+03 3.971339797973632812e+01 -1.219795608520507812e+01 8.780958652496337891e-01 7.141467094421386719e+00 2.405868768692016602e+00 3.306409716606140137e-01
3.109000000000000000e+03 9.853787422180175781e+00 2.991884231567382812e+01 -5.666154026985168457e-01 2.379568815231323242e+00 5.438860058784484863e-01 -7.003448009490966797e-01
3.110000000000000000e+03 7.499122619628906250e+00 -2.772776412963867188e+01 -5.390178561210632324e-01 2.326543569564819336e+00 5.362577438354492188e-01 9.013118147850036621e-01
3.111000000000000000e+03 2.191888046264648438e+01 -6.000088691711425781e+00 2.010863065719604492e+00 4.154912471771240234e+00 1.849732637405395508e+00 -2.531492710113525391e+00
3.112000000000000000e+03 2.137393760681152344e+01 -6.138073444366455078e+00 1.562702536582946777e+00 4.515921592712402344e+00 1.823587179183959961e+00 -1.926327705383300781e+00
3.113000000000000000e+03 2.177396011352539062e+01 -6.562069892883300781e+00 1.525993227958679199e+00 3.846641540527343750e+00 1.611790418624877930e+00 -2.050738573074340820e+00
3.114000000000000000e+03 4.680686569213867188e+01 2.231731414794921875e+01 -7.713012099266052246e-01 6.049994945526123047e+00 1.583608150482177734e+00 1.326211690902709961e-01
3.115000000000000000e+03 6.458241462707519531e+00 5.472704887390136719e+00 1.763732880353927612e-01 -2.020904868841171265e-01 -7.715160492807626724e-03 9.796670675277709961e-01
3.116000000000000000e+03 7.450070953369140625e+01 -2.210607910156250000e+01 5.057820677757263184e-01 7.777811050415039062e+00 2.485077857971191406e+00 -9.936603307723999023e-01
3.117000000000000000e+03 1.477427196502685547e+01 6.895492076873779297e+00 1.513681292533874512e+00 4.765992641448974609e+00 1.883902192115783691e+00 -1.430690765380859375e+00
3.118000000000000000e+03 5.450344085693359375e+00 1.744121170043945312e+01 3.751809895038604736e-01 4.047625064849853516e-01 2.339830547571182251e-01 -8.383464217185974121e-01
3.119000000000000000e+03 7.443726348876953125e+01 -7.984522342681884766e+00 -4.667349457740783691e-01 7.642622947692871094e+00 2.152766466140747070e+00 6.484414935111999512e-01
3.120000000000000000e+03 7.469042205810546875e+01 -6.658613204956054688e+00 -4.204550683498382568e-01 7.532836914062500000e+00 2.133714437484741211e+00 4.992894232273101807e-01
3.121000000000000000e+03 1.340962696075439453e+01 -5.978446006774902344e+00 1.007603406906127930e+00 1.147172451019287109e+00 6.464327573776245117e-01 2.304784774780273438e+00
3.122000000000000000e+03 1.154978656768798828e+01 -5.634335041046142578e+00 4.270837008953094482e-01 1.011074781417846680e+00 4.314475357532501221e-01 1.304924488067626953e+00
3.123000000000000000e+03 1.052197647094726562e+01 -7.207322597503662109e+00 -1.250321511179208755e-02 1.736111164093017578e+00 5.170823931694030762e-01 1.140421867370605469e+00
3.124000000000000000e+03 6.845352172851562500e+01 2.513432204723358154e-01 -3.291059732437133789e-01 5.557311058044433594e+00 1.568461537361145020e+00 1.724910885095596313e-01
3.125000000000000000e+03 1.322091865539550781e+01 -6.273407459259033203e+00 8.262267112731933594e-01 1.276240944862365723e+00 6.307402849197387695e-01 2.324294328689575195e+00
3.126000000000000000e+03 1.513859558105468750e+01 6.311541557312011719e+00 1.337939023971557617e+00 4.897548675537109375e+00 1.870646238327026367e+00 -1.564341068267822266e+00
3.127000000000000000e+03 4.627358627319335938e+01 2.567694282531738281e+01 -1.201402306556701660e+00 5.045240879058837891e+00 1.153151512145996094e+00 1.086896732449531555e-01
3.128000000000000000e+03 2.011366271972656250e+01 -6.653053283691406250e+00 7.413272261619567871e-01 4.690383911132812500e+00 1.629513263702392578e+00 -2.875676751136779785e-01
3.129000000000000000e+03 9.928213119506835938e+00 -8.459615707397460938e+00 -2.263565361499786377e-01 2.324155330657958984e+00 6.293396949768066406e-01 8.927742242813110352e-01
3.130000000000000000e+03 2.253091430664062500e+01 -8.035747528076171875e+00 8.610047101974487305e-01 2.500766038894653320e+00 1.008531212806701660e+00 -1.853403687477111816e+00
3.131000000000000000e+03 4.463990020751953125e+01 2.131331825256347656e+01 -5.953729748725891113e-01 5.659014225006103516e+00 1.519092440605163574e+00 -3.955495655536651611e-01
3.132000000000000000e+03 8.630924224853515625e+00 1.422777080535888672e+01 1.066006422042846680e+00 1.641742110252380371e+00 8.123245835304260254e-01 -7.479751706123352051e-01
3.133000000000000000e+03 6.985295867919921875e+01 1.649537980556488037e-01 -4.526547789573669434e-01 6.231152057647705078e+00 1.733549237251281738e+00 7.747101783752441406e-02
3.134000000000000000e+03 7.068461894989013672e+00 -9.715999603271484375e+00 -5.445526540279388428e-02 1.555038452148437500e+00 4.501749575138092041e-01 -1.689839810132980347e-01
3.135000000000000000e+03 7.049575805664062500e+01 -2.760582268238067627e-01 -4.609234929084777832e-01 6.418888568878173828e+00 1.787389516830444336e+00 4.676014930009841919e-02
3.136000000000000000e+03 7.136769104003906250e+01 -5.603981614112854004e-01 -4.730075001716613770e-01 6.670019626617431641e+00 1.859103679656982422e+00 -3.935006260871887207e-02
3.137000000000000000e+03 7.718341350555419922e+00 -7.949902534484863281e+00 -9.456312656402587891e-02 1.313925981521606445e+00 3.658088445663452148e-01 2.461326308548450470e-02
3.138000000000000000e+03 1.215132236480712891e+01 1.035615253448486328e+01 1.766701579093933105e+00 3.308361053466796875e+00 1.522518754005432129e+00 -8.138100504875183105e-01
3.139000000000000000e+03 9.543910980224609375e+00 1.375284481048583984e+01 1.262903690338134766e+00 2.103993892669677734e+00 1.010069251060485840e+00 -7.820088863372802734e-01
3.140000000000000000e+03 5.522675514221191406e+00 2.016319656372070312e+01 1.441520601511001587e-01 7.869732379913330078e-01 2.793375849723815918e-01 -1.039883732795715332e+00
3.141000000000000000e+03 9.637847900390625000e+00 -8.966942787170410156e+00 -1.845780611038208008e-01 2.318456172943115234e+00 6.401634216308593750e-01 6.977103352546691895e-01
3.142000000000000000e+03 7.347791671752929688e+00 1.256425952911376953e+01 1.000686526298522949e+00 7.867857217788696289e-01 5.362417101860046387e-01 -3.138413429260253906e-01
3.143000000000000000e+03 1.081733989715576172e+01 1.048938941955566406e+01 1.603558182716369629e+00 2.297095060348510742e+00 1.170195937156677246e+00 -5.222747325897216797e-01
3.144000000000000000e+03 1.105858802795410156e+01 -5.865809917449951172e-01 -9.612230658531188965e-01 -1.545539591461420059e-02 -2.930035293102264404e-01 1.723169833421707153e-01
3.145000000000000000e+03 1.167972469329833984e+01 -1.452614903450012207e+00 -4.785485267639160156e-01 1.633537560701370239e-02 -1.386639475822448730e-01 2.204429060220718384e-01
3.146000000000000000e+03 1.025387477874755859e+01 -1.193646550178527832e+00 -7.023419737815856934e-01 7.976056635379791260e-02 -1.867744326591491699e-01 9.853760898113250732e-02
3.147000000000000000e+03 1.239226341247558594e+01 -1.585148334503173828e+00 -3.196918070316314697e-01 -2.322574704885482788e-02 -1.028752699494361877e-01 2.592508196830749512e-01
3.148000000000000000e+03 1.251665687561035156e+01 -8.556226491928100586e-01 -8.320062756538391113e-01 -3.013795241713523865e-02 -2.586432695388793945e-01 2.107093781232833862e-01
3.149000000000000000e+03 1.178777027130126953e+01 -7.200965881347656250e-01 -9.281476736068725586e-01 -2.617721632122993469e-02 -2.862974703311920166e-01 1.948007345199584961e-01
3.150000000000000000e+03 1.096688938140869141e+01 -1.322091937065124512e+00 -5.992295145988464355e-01 4.716889932751655579e-02 -1.656181961297988892e-01 1.452155709266662598e-01
3.151000000000000000e+03 1.032922649383544922e+01 -4.551429152488708496e-01 -9.208262562751770020e-01 2.215549722313880920e-02 -2.696012258529663086e-01 1.172460913658142090e-01
3.152000000000000000e+03 8.732760429382324219e+00 -1.120617032051086426e+00 -7.155942916870117188e-01 5.723744630813598633e-02 -1.975070536136627197e-01 4.299295833334326744e-04
3.153000000000000000e+03 8.744119644165039062e+00 -3.806170821189880371e-01 -9.877728223800659180e-01 1.425322890281677246e-02 -2.920558750629425049e-01 -5.928953643888235092e-03
3.154000000000000000e+03 9.557686805725097656e+00 -3.860147297382354736e-01 -9.332265257835388184e-01 2.828218042850494385e-02 -2.714833021163940430e-01 4.354941472411155701e-02
3.155000000000000000e+03 7.929113388061523438e+00 -3.783791959285736084e-01 -9.574042558670043945e-01 4.714188165962696075e-03 -2.858070135116577148e-01 -2.756901085376739502e-02
3.156000000000000000e+03 6.294783592224121094e+00 -3.763209879398345947e-01 -7.697432041168212891e-01 1.964705996215343475e-03 -2.303335517644882202e-01 -5.640911683440208435e-02
3.157000000000000000e+03 5.471644878387451172e+00 -3.752553761005401611e-01 -6.335964202880859375e-01 3.954190295189619064e-03 -1.888926774263381958e-01 -6.443321704864501953e-02
3.158000000000000000e+03 4.613348007202148438e+00 -3.803671598434448242e-01 -4.793136715888977051e-01 9.683748940005898476e-04 -1.435035914182662964e-01 -7.004020363092422485e-02
3.159000000000000000e+03 3.732568025588989258e+00 -3.332802653312683105e-01 -3.364661335945129395e-01 -1.130754686892032623e-02 -1.043321043252944946e-01 -5.889858677983283997e-02
3.160000000000000000e+03 3.565870285034179688e+00 -8.610453605651855469e-01 -2.962506711483001709e-01 -9.143889881670475006e-03 -9.161836653947830200e-02 -1.400398761034011841e-01
3.161000000000000000e+03 2.136041402816772461e+00 -7.255376577377319336e-01 -1.170166432857513428e-01 -1.988057419657707214e-02 -4.106916487216949463e-02 -7.594370096921920776e-02
3.162000000000000000e+03 1.105533838272094727e+00 -3.810451924800872803e-01 -1.056369859725236893e-02 -1.043343264609575272e-02 -6.299139466136693954e-03 -9.694432839751243591e-03
3.163000000000000000e+03 3.938522040843963623e-01 -5.564679503440856934e-01 7.324322941713035107e-04 2.610084367915987968e-03 1.002755016088485718e-03 1.418731524609029293e-03
3.164000000000000000e+03 6.703363060951232910e-01 -1.121045231819152832e+00 -2.290648408234119415e-02 -2.290989086031913757e-02 -1.374491211026906967e-02 -2.304752357304096222e-02
3.165000000000000000e+03 9.509115219116210938e+00 -1.126014709472656250e+00 -7.379549145698547363e-01 8.475168049335479736e-02 -1.959609687328338623e-01 5.864712595939636230e-02
3.166000000000000000e+03 7.954967498779296875e+00 -1.118379235267639160e+00 -7.128994464874267578e-01 4.285161569714546204e-02 -2.010143548250198364e-01 -6.426058709621429443e-02
3.167000000000000000e+03 7.175180912017822266e+00 -1.117205142974853516e+00 -6.717660427093505859e-01 3.024096786975860596e-02 -1.924575269222259521e-01 -1.099394559860229492e-01
3.168000000000000000e+03 6.395063877105712891e+00 -1.116320967674255371e+00 -6.103047132492065430e-01 2.450285665690898895e-02 -1.757405549287796021e-01 -1.439324021339416504e-01
3.169000000000000000e+03 5.609138011932373047e+00 -1.115255355834960938e+00 -5.284399986267089844e-01 1.265028957277536392e-02 -1.547369062900543213e-01 -1.673357337713241577e-01
3.170000000000000000e+03 4.788054466247558594e+00 -1.120367169380187988e+00 -4.270969629287719727e-01 3.148868447169661522e-03 -1.271844357252120972e-01 -1.754096448421478271e-01
3.171000000000000000e+03 4.061712265014648438e+00 -1.217836499214172363e+00 -3.291762173175811768e-01 -1.228392869234085083e-02 -1.024380475282669067e-01 -1.841861158609390259e-01
3.172000000000000000e+03 3.415162801742553711e+00 -1.287765026092529297e+00 -2.389463782310485840e-01 -2.160081453621387482e-02 -7.816416025161743164e-02 -1.909422576427459717e-01
3.173000000000000000e+03 2.701009988784790039e+00 -1.257357716560363770e+00 -1.862500607967376709e-01 -3.284660726785659790e-02 -6.572899967432022095e-02 -1.669715195894241333e-01
3.174000000000000000e+03 1.974916696548461914e+00 -1.234486579895019531e+00 -1.046150922775268555e-01 -5.560587346553802490e-02 -4.806629195809364319e-02 -1.253863573074340820e-01
3.175000000000000000e+03 7.112113475799560547e+00 -3.772051930427551270e-01 -8.814595937728881836e-01 8.917653933167457581e-03 -2.617625892162322998e-01 -4.430511593818664551e-02
3.176000000000000000e+03 2.813032150268554688e+00 -7.646003365516662598e-01 -1.954556554555892944e-01 -1.432776916772127151e-02 -6.293502449989318848e-02 -1.098098158836364746e-01
3.177000000000000000e+03 2.897913694381713867e+00 -2.672426402568817139e-01 -1.849133819341659546e-01 -2.520555863156914711e-03 -5.623017996549606323e-02 -3.567486256361007690e-02
3.178000000000000000e+03 1.625427722930908203e+00 -5.587234497070312500e-01 -5.436068773269653320e-02 -1.315881032496690750e-02 -2.025585062801837921e-02 -3.655649721622467041e-02
3.179000000000000000e+03 1.293549656867980957e+00 -1.184639215469360352e+00 -4.016737639904022217e-02 -5.518451705574989319e-02 -2.860556729137897491e-02 -6.049218401312828064e-02
3.180000000000000000e+03 2.151047229766845703e+00 -2.510510981082916260e-01 -7.855605334043502808e-02 -3.753680735826492310e-03 -2.469292096793651581e-02 -2.532878518104553223e-02
3.181000000000000000e+03 1.877334594726562500e+01 -1.495327830314636230e+00 2.672230911254882812e+01 2.770470857620239258e+00 8.847834587097167969e+00 6.312937736511230469e+00
3.182000000000000000e+03 1.877452659606933594e+01 -1.514760136604309082e+00 2.741822814941406250e+01 9.859976768493652344e+00 1.118346118927001953e+01 1.629331970214843750e+01
3.183000000000000000e+03 1.877946853637695312e+01 -1.533590674400329590e+00 2.708758926391601562e+01 1.873750114440917969e+01 1.374752712249755859e+01 2.052762603759765625e+01
3.184000000000000000e+03 1.878798294067382812e+01 -1.551098704338073730e+00 2.493610000610351562e+01 2.817749977111816406e+01 1.593407917022705078e+01 2.295948219299316406e+01
3.185000000000000000e+03 1.879974174499511719e+01 -1.566614389419555664e+00 2.261890220642089844e+01 3.800689697265625000e+01 1.818774032592773438e+01 2.291609001159667969e+01
3.186000000000000000e+03 1.881429672241210938e+01 -1.579543828964233398e+00 1.956856155395507812e+01 4.672212219238281250e+01 1.988720512390136719e+01 2.091042327880859375e+01
3.187000000000000000e+03 1.883108901977539062e+01 -1.589392423629760742e+00 1.756045150756835938e+01 5.424650573730468750e+01 2.154208755493164062e+01 1.681716728210449219e+01
3.188000000000000000e+03 1.884947967529296875e+01 -1.595783233642578125e+00 1.615940475463867188e+01 5.925516510009765625e+01 2.262437057495117188e+01 1.140948867797851562e+01
3.189000000000000000e+03 1.886876106262207031e+01 -1.598471641540527344e+00 1.670360755920410156e+01 6.175680541992187500e+01 2.353812408447265625e+01 5.413897514343261719e+00
3.190000000000000000e+03 1.888819694519042969e+01 -1.597354888916015625e+00 1.874468612670898438e+01 6.157397460937500000e+01 2.409559822082519531e+01 -4.187464118003845215e-01
3.191000000000000000e+03 1.890704345703125000e+01 -1.592475533485412598e+00 2.208596420288085938e+01 5.919293594360351562e+01 2.438366889953613281e+01 -5.093748569488525391e+00
3.192000000000000000e+03 1.892457962036132812e+01 -1.584020495414733887e+00 2.648073577880859375e+01 5.527087402343750000e+01 2.452548408508300781e+01 -8.252333641052246094e+00
3.193000000000000000e+03 1.894013404846191406e+01 -1.572313189506530762e+00 3.081100654602050781e+01 5.082360458374023438e+01 2.449038314819335938e+01 -9.530040740966796875e+00
3.194000000000000000e+03 1.895311164855957031e+01 -1.557801604270935059e+00 3.537162017822265625e+01 4.630811309814453125e+01 2.450391960144042969e+01 -9.010891914367675781e+00
3.195000000000000000e+03 1.896301651000976562e+01 -1.541041254997253418e+00 3.841481781005859375e+01 4.259178924560546875e+01 2.430198287963867188e+01 -7.306607723236083984e+00
3.196000000000000000e+03 1.896946907043457031e+01 -1.522673249244689941e+00 4.094498443603515625e+01 4.019207000732421875e+01 2.434111785888671875e+01 -4.198128223419189453e+00
3.197000000000000000e+03 1.897222137451171875e+01 -1.503400564193725586e+00 4.203818511962890625e+01 3.940305709838867188e+01 2.443237304687500000e+01 -7.763131260871887207e-01
3.198000000000000000e+03 1.897116851806640625e+01 -1.483960866928100586e+00 4.149234771728515625e+01 3.954049301147460938e+01 2.430985260009765625e+01 3.203028917312622070e+00
3.199000000000000000e+03 1.896635246276855469e+01 -1.465097904205322266e+00 4.015612792968750000e+01 4.189298629760742188e+01 2.461473464965820312e+01 6.172325134277343750e+00
3.200000000000000000e+03 1.895795631408691406e+01 -1.447533488273620605e+00 3.672936248779296875e+01 4.568862533569335938e+01 2.472539710998535156e+01 9.008557319641113281e+00
3.201000000000000000e+03 1.894630050659179688e+01 -1.431939959526062012e+00 3.279656600952148438e+01 4.983358383178710938e+01 2.478904533386230469e+01 1.017380809783935547e+01
3.202000000000000000e+03 1.893183326721191406e+01 -1.418913722038269043e+00 2.785640907287597656e+01 5.487381744384765625e+01 2.481906700134277344e+01 9.656441688537597656e+00
3.203000000000000000e+03 1.891510581970214844e+01 -1.408953547477722168e+00 2.339151382446289062e+01 5.960169982910156250e+01 2.489796257019042969e+01 7.151394844055175781e+00
3.204000000000000000e+03 1.889675903320312500e+01 -1.402440309524536133e+00 1.859600830078125000e+01 6.271234130859375000e+01 2.439250373840332031e+01 2.916928052902221680e+00
3.205000000000000000e+03 1.887749481201171875e+01 -1.399623513221740723e+00 1.603826904296875000e+01 6.411347198486328125e+01 2.404552268981933594e+01 -2.610026836395263672e+00
3.206000000000000000e+03 1.885805130004882812e+01 -1.400610804557800293e+00 1.480802536010742188e+01 6.281928253173828125e+01 2.328819274902343750e+01 -9.053444862365722656e+00
3.207000000000000000e+03 1.883917427062988281e+01 -1.405364394187927246e+00 1.499937915802001953e+01 5.859362411499023438e+01 2.207790184020996094e+01 -1.516913604736328125e+01
3.208000000000000000e+03 1.882158088684082031e+01 -1.413702487945556641e+00 1.759792900085449219e+01 5.211270904541015625e+01 2.091319084167480469e+01 -2.011643791198730469e+01
3.209000000000000000e+03 1.880594825744628906e+01 -1.425305962562561035e+00 2.045260810852050781e+01 4.295118713378906250e+01 1.902113914489746094e+01 -2.347148704528808594e+01
3.210000000000000000e+03 1.879287528991699219e+01 -1.439730644226074219e+00 2.478430175781250000e+01 3.280722045898437500e+01 1.727745628356933594e+01 -2.418121528625488281e+01
3.211000000000000000e+03 1.878285980224609375e+01 -1.456424713134765625e+00 2.816547393798828125e+01 2.155934906005859375e+01 1.491744709014892578e+01 -2.238767433166503906e+01
3.212000000000000000e+03 1.877628517150878906e+01 -1.474749207496643066e+00 3.326542663574218750e+01 8.931234359741210938e+00 1.265899753570556641e+01 -1.476352977752685547e+01
