# el_label, x, y, sXX, sYY, sZZ, sXY
1.000000000000000000e+00 7.531391143798828125e+01 1.952663612365722656e+01 -6.242005348205566406e+00 -2.458893775939941406e+00 -2.610269546508789062e+00 -2.691868066787719727e+00
2.000000000000000000e+00 7.511563110351562500e+01 1.950921630859375000e+01 -1.821749329566955566e+00 9.464696645736694336e-01 -2.625839114189147949e-01 6.967256069183349609e-01
3.000000000000000000e+00 7.491735839843750000e+01 1.949179840087890625e+01 -2.972232818603515625e+00 -4.342384636402130127e-01 -1.021941423416137695e+00 -1.403008494526147842e-02
4.000000000000000000e+00 7.471907806396484375e+01 1.947438049316406250e+01 -3.200458526611328125e+00 2.551668882369995117e-01 -8.835874795913696289e-01 1.404951661825180054e-01
5.000000000000000000e+00 7.532468414306640625e+01 1.946923446655273438e+01 8.861807823181152344e+00 -2.470334291458129883e+00 1.917442202568054199e+00 1.665747046470642090e+00
6.000000000000000000e+00 7.513359069824218750e+01 1.941354751586914062e+01 1.934321880340576172e+00 3.534853756427764893e-01 6.863421797752380371e-01 1.172393083572387695e+00
7.000000000000000000e+00 7.494249725341796875e+01 1.935786056518554688e+01 1.884875535964965820e+00 6.772304177284240723e-01 7.686318159103393555e-01 1.913675189018249512e+00
8.000000000000000000e+00 7.475141143798828125e+01 1.930217552185058594e+01 8.366260528564453125e-01 2.403458654880523682e-01 3.230915665626525879e-01 1.183365941047668457e+00
9.000000000000000000e+00 7.534643554687500000e+01 1.941502952575683594e+01 1.394093894958496094e+01 2.400221586227416992e+00 4.902348041534423828e+00 8.548198699951171875e+00
1.000000000000000000e+01 7.516983795166015625e+01 1.932320594787597656e+01 7.653128623962402344e+00 1.422957062721252441e+00 2.722825765609741211e+00 4.853899002075195312e+00
1.100000000000000000e+01 7.499324035644531250e+01 1.923138236999511719e+01 4.614578723907470703e+00 1.907521009445190430e+00 1.956629991531372070e+00 3.739550113677978516e+00
1.200000000000000000e+01 7.481664276123046875e+01 1.913955879211425781e+01 3.758874177932739258e+00 1.707583189010620117e+00 1.639937281608581543e+00 3.496786594390869141e+00
1.300000000000000000e+01 7.537831878662109375e+01 1.936609268188476562e+01 1.549182987213134766e+01 9.171898841857910156e+00 7.399118900299072266e+00 1.385332393646240234e+01
1.400000000000000000e+01 7.522297668457031250e+01 1.924164772033691406e+01 9.208494186401367188e+00 5.633073806762695312e+00 4.452470302581787109e+00 8.866945266723632812e+00
1.500000000000000000e+01 7.506763458251953125e+01 1.911720085144042969e+01 6.854163169860839844e+00 4.601167678833007812e+00 3.436599254608154297e+00 6.773000240325927734e+00
1.600000000000000000e+01 7.491229248046875000e+01 1.899275398254394531e+01 4.913269519805908203e+00 3.987961053848266602e+00 2.670369148254394531e+00 5.651647567749023438e+00
1.700000000000000000e+01 7.541911315917968750e+01 1.932430267333984375e+01 1.351621246337890625e+01 1.760716629028320312e+01 9.337014198303222656e+00 1.714540100097656250e+01
1.800000000000000000e+01 7.529097747802734375e+01 1.917199516296386719e+01 9.183712005615234375e+00 1.139678764343261719e+01 6.174149513244628906e+00 1.176816654205322266e+01
1.900000000000000000e+01 7.516283416748046875e+01 1.901968765258789062e+01 6.542313098907470703e+00 8.984343528747558594e+00 4.657997131347656250e+00 9.181159019470214844e+00
2.000000000000000000e+01 7.503469848632812500e+01 1.886738014221191406e+01 5.320177555084228516e+00 7.665608882904052734e+00 3.895735979080200195e+00 7.803862094879150391e+00
2.100000000000000000e+01 7.546726989746093750e+01 1.929125404357910156e+01 1.070212268829345703e+01 2.641857528686523438e+01 1.113620948791503906e+01 1.778462791442871094e+01
2.200000000000000000e+01 7.537123107910156250e+01 1.911691474914550781e+01 7.223147869110107422e+00 1.790989875793457031e+01 7.539914131164550781e+00 1.289686775207519531e+01
2.300000000000000000e+01 7.527519226074218750e+01 1.894257354736328125e+01 5.520845413208007812e+00 1.433324432373046875e+01 5.956226825714111328e+00 1.048870086669921875e+01
2.400000000000000000e+01 7.517916107177734375e+01 1.876823425292968750e+01 4.097082138061523438e+00 1.217860984802246094e+01 4.882707595825195312e+00 8.767912864685058594e+00
2.500000000000000000e+01 7.552094268798828125e+01 1.926821136474609375e+01 7.377589225769042969e+00 3.440250015258789062e+01 1.253402709960937500e+01 1.582236862182617188e+01
2.600000000000000000e+01 7.546067810058593750e+01 1.907851219177246094e+01 5.311293125152587891e+00 2.432295417785644531e+01 8.890274047851562500e+00 1.222211456298828125e+01
2.700000000000000000e+01 7.540042114257812500e+01 1.888881111145019531e+01 3.593344688415527344e+00 1.964737510681152344e+01 6.972215652465820312e+00 1.012135696411132812e+01
2.800000000000000000e+01 7.534016418457031250e+01 1.869911003112792969e+01 2.677416324615478516e+00 1.710473251342773438e+01 5.934644699096679688e+00 8.725269317626953125e+00
2.900000000000000000e+01 7.557806396484375000e+01 1.925605964660644531e+01 5.498950481414794922e+00 4.070930480957031250e+01 1.386247634887695312e+01 1.190901374816894531e+01
3.000000000000000000e+01 7.555589294433593750e+01 1.905825805664062500e+01 3.476995944976806641e+00 2.965715980529785156e+01 9.940246582031250000e+00 9.843448638916015625e+00
3.100000000000000000e+01 7.553371429443359375e+01 1.886045646667480469e+01 2.200407266616821289e+00 2.447240257263183594e+01 8.001842498779296875e+00 8.393967628479003906e+00
3.200000000000000000e+01 7.551154327392578125e+01 1.866265296936035156e+01 1.232537508010864258e+00 2.114687347412109375e+01 6.713823318481445312e+00 7.295970916748046875e+00
3.300000000000000000e+01 7.563646697998046875e+01 1.925526237487792969e+01 5.103542804718017578e+00 4.454569625854492188e+01 1.489477157592773438e+01 6.841817855834960938e+00
3.400000000000000000e+01 7.565322113037109375e+01 1.905692672729492188e+01 2.916121721267700195e+00 3.357305526733398438e+01 1.094675350189208984e+01 6.418441295623779297e+00
3.500000000000000000e+01 7.566998291015625000e+01 1.885859298706054688e+01 1.423374891281127930e+00 2.792414283752441406e+01 8.804255485534667969e+00 5.561226844787597656e+00
3.600000000000000000e+01 7.568674468994140625e+01 1.866025924682617188e+01 5.653449296951293945e-01 2.436386680603027344e+01 7.478763580322265625e+00 4.824822902679443359e+00
3.700000000000000000e+01 7.569390106201171875e+01 1.926584815979003906e+01 6.804574489593505859e+00 4.600699234008789062e+01 1.584346961975097656e+01 1.798501014709472656e+00
3.800000000000000000e+01 7.574895477294921875e+01 1.907457160949707031e+01 3.520478010177612305e+00 3.557630920410156250e+01 1.172903633117675781e+01 2.509883642196655273e+00
3.900000000000000000e+01 7.580400085449218750e+01 1.888329505920410156e+01 1.929445981979370117e+00 2.992544364929199219e+01 9.556467056274414062e+00 2.271104574203491211e+00
4.000000000000000000e+01 7.585905456542968750e+01 1.869201850891113281e+01 7.554113864898681641e-01 2.628363037109375000e+01 8.111712455749511719e+00 1.946540117263793945e+00
4.100000000000000000e+01 7.574817657470703125e+01 1.928741455078125000e+01 9.979123115539550781e+00 4.525836563110351562e+01 1.657124710083007812e+01 -2.450326919555664062e+00
4.200000000000000000e+01 7.583941650390625000e+01 1.911051559448242188e+01 5.583348751068115234e+00 3.586863708496093750e+01 1.243559551239013672e+01 -1.040151357650756836e+00
4.300000000000000000e+01 7.593064880371093750e+01 1.893361663818359375e+01 3.442064046859741211e+00 3.034271049499511719e+01 1.013543224334716797e+01 -9.101713299751281738e-01
4.400000000000000000e+01 7.602188873291015625e+01 1.875671577453613281e+01 2.230020999908447266e+00 2.675057601928710938e+01 8.694179534912109375e+00 -7.749450802803039551e-01
4.500000000000000000e+01 7.579721832275390625e+01 1.931913566589355469e+01 1.413585376739501953e+01 4.316662216186523438e+01 1.719074249267578125e+01 -5.174294471740722656e+00
4.600000000000000000e+01 7.592115020751953125e+01 1.916338157653808594e+01 8.649704933166503906e+00 3.461785507202148438e+01 1.298026847839355469e+01 -3.757385015487670898e+00
4.700000000000000000e+01 7.604508209228515625e+01 1.900762939453125000e+01 5.933026313781738281e+00 2.950296020507812500e+01 1.063079547882080078e+01 -3.245431661605834961e+00
4.800000000000000000e+01 7.616900634765625000e+01 1.885187721252441406e+01 4.419312000274658203e+00 2.592469978332519531e+01 9.103203773498535156e+00 -3.047736883163452148e+00
4.900000000000000000e+01 7.583914947509765625e+01 1.935979652404785156e+01 1.854767227172851562e+01 4.032862472534179688e+01 1.766288948059082031e+01 -6.243249416351318359e+00
5.000000000000000000e+01 7.599102783203125000e+01 1.923114967346191406e+01 1.217608356475830078e+01 3.253390502929687500e+01 1.341299724578857422e+01 -5.131512641906738281e+00
5.100000000000000000e+01 7.614290618896484375e+01 1.910250473022460938e+01 9.016049385070800781e+00 2.769300842285156250e+01 1.101271724700927734e+01 -4.491663932800292969e+00
5.200000000000000000e+01 7.629478454589843750e+01 1.897385978698730469e+01 6.882915019989013672e+00 2.437771034240722656e+01 9.378187179565429688e+00 -4.216112613677978516e+00
5.300000000000000000e+01 7.587235260009765625e+01 1.940784072875976562e+01 2.236232757568359375e+01 3.759242248535156250e+01 1.798642539978027344e+01 -5.772896289825439453e+00
5.400000000000000000e+01 7.604637908935546875e+01 1.931122589111328125e+01 1.569786071777343750e+01 3.013653182983398438e+01 1.375031757354736328e+01 -5.036346912384033203e+00
5.500000000000000000e+01 7.622039031982421875e+01 1.921461105346679688e+01 1.196685600280761719e+01 2.562300682067871094e+01 1.127695846557617188e+01 -4.502586364746093750e+00
5.600000000000000000e+01 7.639440917968750000e+01 1.911799621582031250e+01 9.533246040344238281e+00 2.245708084106445312e+01 9.597098350524902344e+00 -4.138624668121337891e+00
5.700000000000000000e+01 7.589557647705078125e+01 1.946143150329589844e+01 2.530936050415039062e+01 3.550408935546875000e+01 1.824403572082519531e+01 -4.000332832336425781e+00
5.800000000000000000e+01 7.608507537841796875e+01 1.940054321289062500e+01 1.837765693664550781e+01 2.805264663696289062e+01 1.392909145355224609e+01 -3.732148170471191406e+00
5.900000000000000000e+01 7.627457427978515625e+01 1.933965492248535156e+01 1.443577766418457031e+01 2.385265541076660156e+01 1.148652935028076172e+01 -3.271642684936523438e+00
6.000000000000000000e+01 7.646407318115234375e+01 1.927876853942871094e+01 1.170155239105224609e+01 2.081980323791503906e+01 9.756406784057617188e+00 -3.138154745101928711e+00
6.100000000000000000e+01 7.590791320800781250e+01 1.951851844787597656e+01 2.681623840332031250e+01 3.421374130249023438e+01 1.830899429321289062e+01 -1.540363192558288574e+00
6.200000000000000000e+01 7.610564422607421875e+01 1.949568557739257812e+01 1.995280838012695312e+01 2.696046066284179688e+01 1.407398033142089844e+01 -1.427306890487670898e+00
6.300000000000000000e+01 7.630336761474609375e+01 1.947285652160644531e+01 1.576521968841552734e+01 2.268321990966796875e+01 1.153453159332275391e+01 -1.344952583312988281e+00
6.400000000000000000e+01 7.650109863281250000e+01 1.945002555847167969e+01 1.298634624481201172e+01 2.006212806701660156e+01 9.914542198181152344e+00 -1.279417037963867188e+00
6.500000000000000000e+01 7.590890502929687500e+01 1.957691383361816406e+01 2.691523742675781250e+01 3.421525955200195312e+01 1.833914947509765625e+01 1.255822181701660156e+00
6.600000000000000000e+01 7.610729217529296875e+01 1.959301376342773438e+01 2.001313400268554688e+01 2.679446601867675781e+01 1.404228019714355469e+01 1.157607913017272949e+00
6.700000000000000000e+01 7.630568695068359375e+01 1.960911560058593750e+01 1.583103942871093750e+01 2.274446487426757812e+01 1.157265090942382812e+01 9.850212931632995605e-01
6.800000000000000000e+01 7.650407409667968750e+01 1.962521553039550781e+01 1.288630867004394531e+01 1.992174911499023438e+01 9.842416763305664062e+00 8.739824891090393066e-01
6.900000000000000000e+01 7.589850616455078125e+01 1.963438606262207031e+01 2.550840759277343750e+01 3.528096389770507812e+01 1.823681259155273438e+01 3.840150356292724609e+00
7.000000000000000000e+01 7.608996582031250000e+01 1.968880271911621094e+01 1.858375740051269531e+01 2.784418106079101562e+01 1.392838191986083984e+01 3.494803190231323242e+00
7.100000000000000000e+01 7.628142547607421875e+01 1.974321746826171875e+01 1.454240417480468750e+01 2.372541427612304688e+01 1.148034572601318359e+01 3.049545526504516602e+00
7.200000000000000000e+01 7.647288513183593750e+01 1.979763412475585938e+01 1.179970169067382812e+01 2.074191093444824219e+01 9.762483596801757812e+00 2.867783546447753906e+00
7.300000000000000000e+01 7.587712097167968750e+01 1.968873596191406250e+01 2.266681289672851562e+01 3.719590377807617188e+01 1.795881462097167969e+01 5.758613109588623047e+00
7.400000000000000000e+01 7.605432891845703125e+01 1.977938270568847656e+01 1.594581508636474609e+01 2.993222618103027344e+01 1.376341247558593750e+01 4.937232494354248047e+00
7.500000000000000000e+01 7.623152923583984375e+01 1.987003135681152344e+01 1.213548469543457031e+01 2.532798385620117188e+01 1.123904037475585938e+01 4.436256408691406250e+00
7.600000000000000000e+01 7.640872955322265625e+01 1.996068000793457031e+01 9.798517227172851562e+00 2.242094230651855469e+01 9.665838241577148438e+00 3.944132566452026367e+00
7.700000000000000000e+01 7.584556579589843750e+01 1.973788070678710938e+01 1.895174789428710938e+01 4.003639221191406250e+01 1.769644165039062500e+01 6.380836963653564453e+00
7.800000000000000000e+01 7.600173187255859375e+01 1.986129188537597656e+01 1.233297348022460938e+01 3.221051025390625000e+01 1.336304473876953125e+01 5.294712066650390625e+00
7.900000000000000000e+01 7.615789794921875000e+01 1.998470306396484375e+01 9.231195449829101562e+00 2.752373886108398438e+01 1.102647972106933594e+01 4.468100070953369141e+00
8.000000000000000000e+01 7.631405639648437500e+01 2.010811614990234375e+01 6.910639762878417969e+00 2.416095542907714844e+01 9.321478843688964844e+00 4.188331604003906250e+00
8.100000000000000000e+01 7.580504608154296875e+01 1.977994155883789062e+01 1.433283233642578125e+01 4.285139846801757812e+01 1.715526962280273438e+01 5.604567050933837891e+00
8.200000000000000000e+01 7.593419647216796875e+01 1.993139457702636719e+01 8.827082633972167969e+00 3.446529769897460938e+01 1.298771381378173828e+01 4.025695800781250000e+00
8.300000000000000000e+01 7.606334686279296875e+01 2.008284759521484375e+01 5.865749835968017578e+00 2.936436653137207031e+01 1.056903457641601562e+01 3.443104028701782227e+00
8.400000000000000000e+01 7.619249725341796875e+01 2.023430061340332031e+01 4.344509124755859375e+00 2.586229515075683594e+01 9.062041282653808594e+00 3.053906917572021484e+00
8.500000000000000000e+01 7.575711059570312500e+01 1.981331062316894531e+01 1.015187644958496094e+01 4.515665435791015625e+01 1.659255981445312500e+01 3.065513610839843750e+00
8.600000000000000000e+01 7.585430908203125000e+01 1.998700714111328125e+01 5.418035030364990234e+00 3.586589050292968750e+01 1.238517761230468750e+01 1.481068968772888184e+00
8.700000000000000000e+01 7.595149993896484375e+01 2.016070747375488281e+01 3.290525436401367188e+00 3.038172721862792969e+01 1.010167598724365234e+01 1.174984097480773926e+00
8.800000000000000000e+01 7.604869079589843750e+01 2.033440399169921875e+01 1.814311981201171875e+00 2.685627174377441406e+01 8.601175308227539062e+00 9.767574071884155273e-01
8.900000000000000000e+01 7.570359802246093750e+01 1.983670806884765625e+01 6.604509353637695312e+00 4.614814758300781250e+01 1.582579708099365234e+01 -1.041235089302062988e+00
9.000000000000000000e+01 7.576511383056640625e+01 2.002600288391113281e+01 3.203329324722290039e+00 3.582965087890625000e+01 1.170989418029785156e+01 -1.991733908653259277e+00
9.100000000000000000e+01 7.582662963867187500e+01 2.021529960632324219e+01 1.408279657363891602e+00 3.018544197082519531e+01 9.478116035461425781e+00 -1.967092633247375488e+00
9.200000000000000000e+01 7.588814544677734375e+01 2.040459632873535156e+01 2.887451052665710449e-01 2.649176597595214844e+01 8.034152984619140625e+00 -1.700584769248962402e+00
9.300000000000000000e+01 7.564655303955078125e+01 1.984923934936523438e+01 4.678065299987792969e+00 4.504984283447265625e+01 1.491837215423583984e+01 -6.037798404693603516e+00
9.400000000000000000e+01 7.567003631591796875e+01 2.004688835144042969e+01 2.238632202148437500e+00 3.404626083374023438e+01 1.088546848297119141e+01 -5.942348957061767578e+00
9.500000000000000000e+01 7.569352722167968750e+01 2.024453926086425781e+01 7.217968702316284180e-01 2.842280006408691406e+01 8.743378639221191406e+00 -5.248266220092773438e+00
9.600000000000000000e+01 7.571701049804687500e+01 2.044219017028808594e+01 -1.871201395988464355e-01 2.478125572204589844e+01 7.378241062164306641e+00 -4.720190048217773438e+00
9.700000000000000000e+01 7.558816528320312500e+01 1.985042381286621094e+01 4.653487205505371094e+00 4.152200317382812500e+01 1.385264682769775391e+01 -1.122380161285400391e+01
9.800000000000000000e+01 7.557271575927734375e+01 2.004886627197265625e+01 2.651548147201538086e+00 3.038361549377441406e+01 9.910549163818359375e+00 -9.484540939331054688e+00
9.900000000000000000e+01 7.555727386474609375e+01 2.024730682373046875e+01 1.227111935615539551e+00 2.507401275634765625e+01 7.890337467193603516e+00 -8.192982673645019531e+00
1.000000000000000000e+02 7.554183197021484375e+01 2.044574737548828125e+01 2.689239680767059326e-01 2.181691932678222656e+01 6.625753402709960938e+00 -7.244110107421875000e+00
1.010000000000000000e+02 7.553065490722656250e+01 1.984021949768066406e+01 6.321744918823242188e+00 3.552325057983398438e+01 1.255349826812744141e+01 -1.535099887847900391e+01
1.020000000000000000e+02 7.547687530517578125e+01 2.003185653686523438e+01 4.270346164703369141e+00 2.516545295715332031e+01 8.830739974975585938e+00 -1.210080051422119141e+01
1.030000000000000000e+02 7.542309570312500000e+01 2.022349548339843750e+01 2.583770513534545898e+00 2.036988067626953125e+01 6.886095046997070312e+00 -1.008881473541259766e+01
1.040000000000000000e+02 7.536931610107421875e+01 2.041513252258300781e+01 1.508311152458190918e+00 1.764256477355957031e+01 5.745262622833251953e+00 -8.772549629211425781e+00
1.050000000000000000e+02 7.547623443603515625e+01 1.981901359558105469e+01 9.481589317321777344e+00 2.766238403320312500e+01 1.114319229125976562e+01 -1.765781974792480469e+01
1.060000000000000000e+02 7.538617706298828125e+01 1.999651527404785156e+01 6.145763874053955078e+00 1.882409095764160156e+01 7.490956306457519531e+00 -1.302884197235107422e+01
1.070000000000000000e+02 7.529611206054687500e+01 2.017401695251464844e+01 4.512156963348388672e+00 1.503650188446044922e+01 5.864597797393798828e+00 -1.068737983703613281e+01
1.080000000000000000e+02 7.520605468750000000e+01 2.035151672363281250e+01 2.970316886901855469e+00 1.266612148284912109e+01 4.690931320190429688e+00 -9.074912071228027344e+00
1.090000000000000000e+02 7.542698669433593750e+01 1.978762054443359375e+01 1.236917209625244141e+01 1.881978034973144531e+01 9.356685638427734375e+00 -1.737545394897460938e+01
1.100000000000000000e+02 7.530409240722656250e+01 1.994419097900390625e+01 8.132741928100585938e+00 1.223467636108398438e+01 6.110225677490234375e+00 -1.212834453582763672e+01
1.110000000000000000e+02 7.518119812011718750e+01 2.010076332092285156e+01 5.631113529205322266e+00 9.610714912414550781e+00 4.572548389434814453e+00 -9.619991302490234375e+00
1.120000000000000000e+02 7.505830383300781250e+01 2.025733375549316406e+01 4.330559730529785156e+00 8.371420860290527344e+00 3.810594320297241211e+00 -8.307929992675781250e+00
1.130000000000000000e+02 7.538478851318359375e+01 1.974723815917968750e+01 1.453865909576416016e+01 1.013539314270019531e+01 7.402215480804443359e+00 -1.440716743469238281e+01
1.140000000000000000e+02 7.523376464843750000e+01 1.987688827514648438e+01 8.375949859619140625e+00 6.282803535461425781e+00 4.397625923156738281e+00 -9.332185745239257812e+00
1.150000000000000000e+02 7.508274078369140625e+01 2.000653839111328125e+01 5.952270984649658203e+00 5.135709285736083984e+00 3.326394081115722656e+00 -7.353767395019531250e+00
1.160000000000000000e+02 7.493171691894531250e+01 2.013618850708007812e+01 4.123339653015136719e+00 4.775669574737548828e+00 2.669702768325805664e+00 -6.140089035034179688e+00
1.170000000000000000e+02 7.535126495361328125e+01 1.969941520690917969e+01 1.336358642578125000e+01 2.996338367462158203e+00 4.907977581024169922e+00 -9.211138725280761719e+00
1.180000000000000000e+02 7.517788696289062500e+01 1.979718208312988281e+01 7.065153598785400391e+00 1.782262325286865234e+00 2.654224872589111328e+00 -5.342536926269531250e+00
1.190000000000000000e+02 7.500451660156250000e+01 1.989495086669921875e+01 3.829768896102905273e+00 2.325428724288940430e+00 1.846559166908264160e+00 -4.183361530303955078e+00
1.200000000000000000e+02 7.483113861083984375e+01 1.999271774291992188e+01 2.875944614410400391e+00 2.190635204315185547e+00 1.519973993301391602e+00 -3.837610721588134766e+00
1.210000000000000000e+02 7.532769012451171875e+01 1.964597892761230469e+01 8.780609130859375000e+00 -2.333703994750976562e+00 1.934071540832519531e+00 -2.218812465667724609e+00
1.220000000000000000e+02 7.513859558105468750e+01 1.970812225341796875e+01 1.543467164039611816e+00 4.289907813072204590e-01 5.917373895645141602e-01 -1.439483165740966797e+00
1.230000000000000000e+02 7.494950866699218750e+01 1.977026557922363281e+01 1.212821006774902344e+00 9.811367988586425781e-01 6.581873297691345215e-01 -2.105734109878540039e+00
1.240000000000000000e+02 7.476041412353515625e+01 1.983241081237792969e+01 -3.931748494505882263e-02 2.590180039405822754e-01 6.591016054153442383e-02 -1.296072721481323242e+00
1.250000000000000000e+02 7.531497192382812500e+01 1.958897590637207031e+01 -6.026744365692138672e+00 -2.702784776687622070e+00 -2.618858814239501953e+00 2.748962163925170898e+00
1.260000000000000000e+02 7.511739349365234375e+01 1.961311721801757812e+01 -2.216553211212158203e+00 1.047631978988647461e+00 -3.506763875484466553e-01 -7.058013081550598145e-01
1.270000000000000000e+02 7.491982269287109375e+01 1.963725852966308594e+01 -3.530666351318359375e+00 -4.362976253032684326e-01 -1.190089225769042969e+00 9.012294560670852661e-02
1.280000000000000000e+02 7.472225189208984375e+01 1.966140174865722656e+01 -3.852709531784057617e+00 2.451829761266708374e-01 -1.082257986068725586e+00 -5.832144990563392639e-02
1.290000000000000000e+02 7.070925140380859375e+01 1.823979377746582031e+01 -4.640581607818603516e-01 -2.573147788643836975e-02 -1.469368934631347656e-01 -6.113891005516052246e-01
1.300000000000000000e+02 7.157151794433593750e+01 1.874562072753906250e+01 -1.026941299438476562e+00 2.907598018646240234e-02 -2.993595898151397705e-01 -4.198822379112243652e-01
1.310000000000000000e+02 7.012003326416015625e+01 1.828561782836914062e+01 -3.941011726856231689e-01 -1.580753177404403687e-01 -1.656529456377029419e-01 -5.837756991386413574e-01
1.320000000000000000e+02 7.254570770263671875e+01 1.832564353942871094e+01 9.008862078189849854e-02 4.527277946472167969e-01 1.628449261188507080e-01 8.793539553880691528e-02
1.330000000000000000e+02 7.216737365722656250e+01 1.902659606933593750e+01 -1.724894165992736816e+00 9.517655707895755768e-03 -5.146129727363586426e-01 -3.380223512649536133e-01
1.340000000000000000e+02 7.226301574707031250e+01 1.828786468505859375e+01 -1.123896464705467224e-01 3.263301551342010498e-01 6.418214738368988037e-02 -1.686938293278217316e-02
1.350000000000000000e+02 7.101958465576171875e+01 1.861757850646972656e+01 -7.965636253356933594e-01 -3.830004855990409851e-02 -2.504591047763824463e-01 -5.443160533905029297e-01
1.360000000000000000e+02 7.239790344238281250e+01 1.866246414184570312e+01 -7.522014975547790527e-01 2.716493606567382812e-01 -1.441656351089477539e-01 -1.754616945981979370e-01
1.370000000000000000e+02 7.195039367675781250e+01 1.920311164855957031e+01 -2.136315822601318359e+00 -5.044389516115188599e-02 -6.560279130935668945e-01 -3.409431576728820801e-01
1.380000000000000000e+02 7.232077789306640625e+01 1.943149566650390625e+01 -2.695147514343261719e+00 3.776301071047782898e-02 -7.972153425216674805e-01 -2.775836288928985596e-01
1.390000000000000000e+02 7.005806732177734375e+01 1.902305412292480469e+01 -9.097049236297607422e-01 -3.116057999432086945e-02 -2.822596728801727295e-01 -3.492867648601531982e-01
1.400000000000000000e+02 7.229998016357421875e+01 1.884977912902832031e+01 -1.341496348381042480e+00 8.507251739501953125e-02 -3.769271671772003174e-01 -2.956753373146057129e-01
1.410000000000000000e+02 7.244065093994140625e+01 1.919967269897460938e+01 -2.031452178955078125e+00 1.653502732515335083e-01 -5.598305463790893555e-01 -3.293288946151733398e-01
1.420000000000000000e+02 7.254834747314453125e+01 1.879165458679199219e+01 -9.411687254905700684e-01 2.844881713390350342e-01 -1.970041692256927490e-01 -1.858679950237274170e-01
1.430000000000000000e+02 7.248291778564453125e+01 1.851537513732910156e+01 -3.714354932308197021e-01 4.855633378028869629e-01 3.423835709691047668e-02 -1.811093837022781372e-02
1.440000000000000000e+02 7.195680236816406250e+01 1.884951972961425781e+01 -1.213172674179077148e+00 -4.204899817705154419e-02 -3.765664994716644287e-01 -3.644070029258728027e-01
1.450000000000000000e+02 7.174115753173828125e+01 1.827337074279785156e+01 -2.706268727779388428e-01 1.997254937887191772e-01 -2.127041295170783997e-02 -3.343033790588378906e-01
1.460000000000000000e+02 7.148091125488281250e+01 1.924272155761718750e+01 -2.057560682296752930e+00 -8.442514576017856598e-03 -6.198009848594665527e-01 -3.601195812225341797e-01
1.470000000000000000e+02 7.121514129638671875e+01 1.820854377746582031e+01 -3.403297662734985352e-01 1.250185072422027588e-01 -6.459338217973709106e-02 -4.842404425144195557e-01
1.480000000000000000e+02 7.079975128173828125e+01 1.913098907470703125e+01 -1.436141371726989746e+00 -4.451473057270050049e-02 -4.441968202590942383e-01 -3.638404309749603271e-01
1.490000000000000000e+02 7.250444793701171875e+01 1.899270629882812500e+01 -1.660538077354431152e+00 2.276216149330139160e-01 -4.298749268054962158e-01 -3.564736843109130859e-01
1.500000000000000000e+02 7.258265686035156250e+01 1.860985565185546875e+01 -6.037122011184692383e-01 3.494607508182525635e-01 -7.627543807029724121e-02 -2.128826268017292023e-02
1.510000000000000000e+02 7.258995056152343750e+01 1.845215225219726562e+01 1.932238973677158356e-02 3.774997889995574951e-01 1.190466508269309998e-01 5.130206048488616943e-02
1.520000000000000000e+02 7.218577575683593750e+01 1.863137245178222656e+01 -7.830983996391296387e-01 1.244459748268127441e-01 -1.975957304239273071e-01 -2.246723622083663940e-01
1.530000000000000000e+02 7.271350097656250000e+01 1.947429656982421875e+01 -2.975754261016845703e+00 -3.103459067642688751e-02 -9.020366668701171875e-01 -9.066013246774673462e-02
1.540000000000000000e+02 7.568129730224609375e+01 1.818955039978027344e+01 -5.647037625312805176e-01 1.927891159057617188e+01 5.614262580871582031e+00 3.975485086441040039e+00
1.550000000000000000e+02 7.670880889892578125e+01 1.942642974853515625e+01 1.064720439910888672e+01 1.773536491394042969e+01 8.514770507812500000e+00 -1.223105192184448242e+00
1.560000000000000000e+02 7.671532440185546875e+01 1.963119697570800781e+01 1.075681018829345703e+01 1.770070457458496094e+01 8.537254333496093750e+00 7.958651781082153320e-01
1.570000000000000000e+02 7.287570190429687500e+01 1.996313858032226562e+01 -4.458105564117431641e+00 -4.338426887989044189e-02 -1.350446939468383789e+00 -1.411118060350418091e-01
1.580000000000000000e+02 7.575921630859375000e+01 2.064653015136718750e+01 -8.744456768035888672e-01 2.228427886962890625e+01 6.422950267791748047e+00 -4.097733497619628906e+00
1.590000000000000000e+02 7.275305938720703125e+01 1.821073722839355469e+01 3.389410376548767090e-01 7.954967617988586426e-01 3.403313457965850830e-01 3.724426925182342529e-01
1.600000000000000000e+02 7.528114318847656250e+01 1.816305541992187500e+01 5.580976009368896484e-01 1.461543750762939453e+01 4.552060604095458984e+00 6.032136917114257812e+00
1.610000000000000000e+02 7.508026123046875000e+01 1.858662986755371094e+01 3.303769350051879883e+00 1.083653926849365234e+01 4.242092609405517578e+00 7.704052925109863281e+00
1.620000000000000000e+02 7.491933441162109375e+01 1.818035507202148438e+01 1.864000558853149414e+00 9.766634941101074219e+00 3.489190816879272461e+00 6.039965152740478516e+00
1.630000000000000000e+02 7.451564025878906250e+01 1.945757675170898438e+01 -3.404549360275268555e+00 -1.175458431243896484e-01 -1.056628584861755371e+00 4.054773226380348206e-02
1.640000000000000000e+02 7.374967193603515625e+01 1.848260498046875000e+01 1.385944366455078125e+00 1.313562273979187012e+00 8.098520040512084961e-01 1.660469532012939453e+00
1.650000000000000000e+02 7.334316253662109375e+01 1.820350456237792969e+01 9.942098259925842285e-01 1.158262133598327637e+00 6.457415819168090820e-01 1.204159617424011230e+00
1.660000000000000000e+02 7.621952056884765625e+01 2.081142807006835938e+01 -5.302792787551879883e-01 2.123472976684570312e+01 6.211335182189941406e+00 3.620512187480926514e-01
1.670000000000000000e+02 7.645187377929687500e+01 1.886572837829589844e+01 5.909375190734863281e+00 2.208866882324218750e+01 8.399413108825683594e+00 -4.036886692047119141e+00
1.680000000000000000e+02 7.605746459960937500e+01 1.842793655395507812e+01 2.616364359855651855e-01 2.278520584106445312e+01 6.914052963256835938e+00 2.957219779491424561e-01
1.690000000000000000e+02 7.267868041992187500e+01 2.099283409118652344e+01 -1.069256424903869629e+00 8.081281781196594238e-01 -7.833845913410186768e-02 -9.623720645904541016e-01
1.700000000000000000e+02 7.291210174560546875e+01 2.075184249877929688e+01 -1.353309869766235352e+00 4.945177733898162842e-01 -2.576376199722290039e-01 -9.996766448020935059e-01
1.710000000000000000e+02 7.288764190673828125e+01 2.098479270935058594e+01 -9.001632332801818848e-01 6.426692008972167969e-01 -7.724820822477340698e-02 -1.127717971801757812e+00
1.720000000000000000e+02 7.282186126708984375e+01 2.019160461425781250e+01 -3.197812318801879883e+00 -5.121503770351409912e-02 -9.747081995010375977e-01 -2.464294433593750000e-01
1.730000000000000000e+02 7.554383087158203125e+01 2.066932106018066406e+01 -3.962776958942413330e-01 1.965899085998535156e+01 5.778814315795898438e+00 -6.201398849487304688e+00
1.740000000000000000e+02 7.270661926269531250e+01 1.972952270507812500e+01 -5.841926574707031250e+00 -2.321942150592803955e-01 -1.822236180305480957e+00 -4.020963981747627258e-02
1.750000000000000000e+02 7.268795013427734375e+01 2.033452606201171875e+01 -2.938223838806152344e+00 1.528505533933639526e-01 -8.356119990348815918e-01 -3.207961618900299072e-01
1.760000000000000000e+02 7.350408172607421875e+01 1.976942062377929688e+01 -4.991416931152343750e+00 -4.435392841696739197e-02 -1.510731220245361328e+00 -2.031469345092773438e-02
1.770000000000000000e+02 7.371935272216796875e+01 1.976631736755371094e+01 -4.845990657806396484e+00 -9.651507437229156494e-02 -1.482751727104187012e+00 5.391451716423034668e-02
1.780000000000000000e+02 7.456878662109375000e+01 1.988916969299316406e+01 -7.373517751693725586e-01 4.776442646980285645e-01 -7.791224867105484009e-02 -1.264174222946166992e+00
1.790000000000000000e+02 7.452566528320312500e+01 1.968273162841796875e+01 -4.165048122406005859e+00 -1.190140545368194580e-01 -1.285218596458435059e+00 1.939288340508937836e-02
1.800000000000000000e+02 7.635078430175781250e+01 2.038613510131835938e+01 3.112164735794067383e+00 2.299459266662597656e+01 7.832027435302734375e+00 3.097836017608642578e+00
1.810000000000000000e+02 7.453161621093750000e+01 1.923215675354003906e+01 3.373174667358398438e-01 4.018546640872955322e-01 2.217516452074050903e-01 1.127582192420959473e+00
1.820000000000000000e+02 7.430561828613281250e+01 1.820887565612792969e+01 2.278358459472656250e+00 4.042179107666015625e+00 1.896161317825317383e+00 3.808012723922729492e+00
1.830000000000000000e+02 7.587532806396484375e+01 1.846369934082031250e+01 -2.905567176640033722e-02 2.333958244323730469e+01 6.993157863616943359e+00 2.067835569381713867e+00
1.840000000000000000e+02 7.632462310791015625e+01 1.870099067687988281e+01 3.423023223876953125e+00 2.319453811645507812e+01 7.985268115997314453e+00 -2.980435848236083984e+00
1.850000000000000000e+02 7.275617218017578125e+01 1.866250038146972656e+01 -4.772675633430480957e-01 3.122220337390899658e-01 -4.951365292072296143e-02 5.495955236256122589e-03
1.860000000000000000e+02 7.271262359619140625e+01 1.925934600830078125e+01 -2.362298011779785156e+00 -2.187312766909599304e-02 -7.152513265609741211e-01 -2.103114873170852661e-01
1.870000000000000000e+02 7.399446105957031250e+01 1.840686607360839844e+01 1.901070713996887207e+00 2.206494092941284180e+00 1.232269406318664551e+00 2.517917633056640625e+00
1.880000000000000000e+02 7.474330139160156250e+01 1.883545303344726562e+01 4.182632446289062500e+00 3.925015449523925781e+00 2.432294368743896484e+00 5.046264648437500000e+00
1.890000000000000000e+02 7.548184967041015625e+01 1.844220542907714844e+01 5.973743796348571777e-01 1.871537399291992188e+01 5.793824195861816406e+00 6.319428920745849609e+00
1.900000000000000000e+02 7.295289611816406250e+01 1.821191787719726562e+01 5.433491468429565430e-01 8.485602140426635742e-01 4.175727963447570801e-01 6.624687314033508301e-01
1.910000000000000000e+02 7.372890472412109375e+01 1.942483711242675781e+01 -3.365925788879394531e+00 -7.010515034198760986e-02 -1.030809283256530762e+00 -7.770387083292007446e-02
1.920000000000000000e+02 7.490278625488281250e+01 1.869421958923339844e+01 4.091989040374755859e+00 6.926433563232421875e+00 3.305526971817016602e+00 6.647459030151367188e+00
1.930000000000000000e+02 7.353775024414062500e+01 1.820802307128906250e+01 1.405205726623535156e+00 1.524030923843383789e+00 8.787710070610046387e-01 1.667749047279357910e+00
1.940000000000000000e+02 7.568694305419921875e+01 1.844123077392578125e+01 -1.649846434593200684e-01 2.162251091003417969e+01 6.437257766723632812e+00 4.352804660797119141e+00
1.950000000000000000e+02 7.527395629882812500e+01 1.849412918090820312e+01 1.821135044097900391e+00 1.502506351470947266e+01 5.053859710693359375e+00 7.526255607604980469e+00
1.960000000000000000e+02 7.470983886718750000e+01 1.821508979797363281e+01 2.405640602111816406e+00 7.193325519561767578e+00 2.879689693450927734e+00 5.481430530548095703e+00
1.970000000000000000e+02 7.661757659912109375e+01 1.883648681640625000e+01 5.542691707611083984e+00 1.996848678588867188e+01 7.653353691101074219e+00 -3.992174148559570312e+00
1.980000000000000000e+02 7.693752288818359375e+01 1.904505157470703125e+01 7.099555015563964844e+00 1.597614479064941406e+01 6.922709941864013672e+00 -2.959056615829467773e+00
1.990000000000000000e+02 7.678655242919921875e+01 1.902005004882812500e+01 7.235592365264892578e+00 1.752846527099609375e+01 7.429217338562011719e+00 -3.395151138305664062e+00
2.000000000000000000e+02 7.411711883544921875e+01 1.946388244628906250e+01 -3.561612606048583984e+00 -4.162515327334403992e-02 -1.080971360206604004e+00 -1.649076701141893864e-03
2.010000000000000000e+02 7.547568511962890625e+01 1.818764877319335938e+01 -2.459934353828430176e-02 1.704009056091308594e+01 5.104647159576416016e+00 5.320076942443847656e+00
2.020000000000000000e+02 7.460618591308593750e+01 1.901484489440917969e+01 2.732833147048950195e+00 1.433527112007141113e+00 1.249908089637756348e+00 2.810984849929809570e+00
2.030000000000000000e+02 7.696034240722656250e+01 1.942187881469726562e+01 8.752610206604003906e+00 1.568943309783935547e+01 7.332612991333007812e+00 -9.503501653671264648e-01
2.040000000000000000e+02 7.666439056396484375e+01 2.027945709228515625e+01 5.112772941589355469e+00 1.958143234252929688e+01 7.408261775970458984e+00 3.754406690597534180e+00
2.050000000000000000e+02 7.431816864013671875e+01 2.094770812988281250e+01 1.400567412376403809e+00 4.252120494842529297e+00 1.695806384086608887e+00 -4.690883159637451172e+00
2.060000000000000000e+02 7.474784088134765625e+01 2.029830360412597656e+01 2.856462955474853516e+00 4.040513992309570312e+00 2.069092988967895508e+00 -5.391111850738525391e+00
2.070000000000000000e+02 7.617859649658203125e+01 2.051157569885253906e+01 1.046993613243103027e+00 2.381852912902832031e+01 7.459656715393066406e+00 1.178214430809020996e+00
2.080000000000000000e+02 7.648759460449218750e+01 2.022147560119628906e+01 5.615074157714843750e+00 2.180068016052246094e+01 8.224725723266601562e+00 3.855386972427368164e+00
2.090000000000000000e+02 7.597722625732421875e+01 2.059217834472656250e+01 -2.933208346366882324e-01 2.392098808288574219e+01 7.088300228118896484e+00 -1.135853171348571777e+00
2.100000000000000000e+02 7.512518310546875000e+01 2.059115028381347656e+01 1.853544116020202637e+00 1.185776424407958984e+01 4.113392829895019531e+00 -7.865991115570068359e+00
2.110000000000000000e+02 7.510742187500000000e+01 2.090163230895996094e+01 6.043374538421630859e-01 1.195514583587646484e+01 3.767845153808593750e+00 -6.857898712158203125e+00
2.120000000000000000e+02 7.434233093261718750e+01 2.071337699890136719e+01 1.452287793159484863e+00 3.441518783569335938e+00 1.468142032623291016e+00 -4.258574008941650391e+00
2.130000000000000000e+02 7.676245880126953125e+01 1.915094947814941406e+01 8.538141250610351562e+00 1.774364471435546875e+01 7.884535789489746094e+00 -2.843832015991210938e+00
2.140000000000000000e+02 7.587120819091796875e+01 1.820550155639648438e+01 -8.271994590759277344e-01 2.011326599121093750e+01 5.785820007324218750e+00 2.317358970642089844e+00
2.150000000000000000e+02 7.680776977539062500e+01 2.032442855834960938e+01 4.933003902435302734e+00 1.785919952392578125e+01 6.837660789489746094e+00 3.511314153671264648e+00
2.160000000000000000e+02 7.653085327148437500e+01 2.056171226501464844e+01 2.314725399017333984e+00 2.080409812927246094e+01 6.935647010803222656e+00 2.958074808120727539e+00
2.170000000000000000e+02 7.604672241210937500e+01 1.822709083557128906e+01 -6.817492246627807617e-01 2.104043388366699219e+01 6.107605457305908203e+00 9.309470653533935547e-01
2.180000000000000000e+02 7.634432983398437500e+01 1.839314079284667969e+01 8.788959383964538574e-01 2.112002563476562500e+01 6.599676132202148438e+00 -1.893483161926269531e+00
2.190000000000000000e+02 7.649861907958984375e+01 1.851939773559570312e+01 2.342878818511962891e+00 2.061896133422851562e+01 6.888552188873291016e+00 -2.979086637496948242e+00
2.200000000000000000e+02 7.666002655029296875e+01 1.864257049560546875e+01 4.112222194671630859e+00 1.981784248352050781e+01 7.179018974304199219e+00 -3.604720115661621094e+00
2.210000000000000000e+02 7.680081176757812500e+01 1.875049400329589844e+01 5.184951305389404297e+00 1.839101600646972656e+01 7.072790145874023438e+00 -3.560554981231689453e+00
2.220000000000000000e+02 7.688808441162109375e+01 1.888262557983398438e+01 5.993259906768798828e+00 1.654419136047363281e+01 6.761235713958740234e+00 -3.160728931427001953e+00
2.230000000000000000e+02 7.696686553955078125e+01 1.962719917297363281e+01 8.855841636657714844e+00 1.558784484863281250e+01 7.333106040954589844e+00 4.153010249137878418e-01
2.240000000000000000e+02 7.664328002929687500e+01 1.922878265380859375e+01 1.005382633209228516e+01 1.880870819091796875e+01 8.658761024475097656e+00 -2.817065238952636719e+00
2.250000000000000000e+02 7.692964935302734375e+01 2.001313781738281250e+01 7.449265480041503906e+00 1.654438972473144531e+01 7.198096275329589844e+00 2.666993856430053711e+00
2.260000000000000000e+02 7.660305023193359375e+01 2.003014183044433594e+01 8.123159408569335938e+00 1.969224357604980469e+01 8.344620704650878906e+00 3.655583143234252930e+00
2.270000000000000000e+02 7.668695831298828125e+01 1.983268737792968750e+01 9.882246017456054688e+00 1.845200729370117188e+01 8.500275611877441406e+00 2.416237354278564453e+00
2.280000000000000000e+02 7.676320648193359375e+01 2.010271453857421875e+01 7.133191108703613281e+00 1.838928413391113281e+01 7.656742572784423828e+00 3.302381515502929688e+00
2.290000000000000000e+02 7.694470214843750000e+01 1.983016395568847656e+01 8.240743637084960938e+00 1.601968383789062500e+01 7.278128147125244141e+00 1.878758668899536133e+00
2.300000000000000000e+02 7.668914794921875000e+01 2.044521141052246094e+01 3.529543399810791016e+00 1.948210716247558594e+01 6.903494834899902344e+00 3.533307075500488281e+00
2.310000000000000000e+02 7.584257507324218750e+01 2.081355476379394531e+01 -1.255072832107543945e+00 2.117873764038085938e+01 5.977099418640136719e+00 -3.129678249359130859e+00
2.320000000000000000e+02 7.373590850830078125e+01 1.821275138854980469e+01 1.586489558219909668e+00 2.252731323242187500e+00 1.151766300201416016e+00 2.188511848449707031e+00
2.330000000000000000e+02 7.352074432373046875e+01 1.941052246093750000e+01 -3.319808006286621094e+00 -3.748996928334236145e-02 -1.007189393043518066e+00 -1.979712769389152527e-02
2.340000000000000000e+02 7.289512634277343750e+01 1.923274803161621094e+01 -2.301283121109008789e+00 8.596352487802505493e-02 -6.645959019660949707e-01 -1.951797157526016235e-01
2.350000000000000000e+02 7.392848968505859375e+01 1.819515800476074219e+01 1.685514330863952637e+00 2.557657718658447266e+00 1.272951602935791016e+00 2.533990383148193359e+00
2.360000000000000000e+02 7.272650146484375000e+01 1.887046051025390625e+01 -1.179321050643920898e+00 2.003863751888275146e-01 -2.936803996562957764e-01 -2.056114226579666138e-01
2.370000000000000000e+02 7.392512512207031250e+01 1.945919609069824219e+01 -3.489356517791748047e+00 1.029503047466278076e-01 -1.015921831130981445e+00 -7.865301519632339478e-02
2.380000000000000000e+02 7.267463684082031250e+01 2.015005302429199219e+01 -3.605305910110473633e+00 5.184551328420639038e-02 -1.066038131713867188e+00 -4.921714588999748230e-02
2.390000000000000000e+02 7.397879791259765625e+01 1.999831199645996094e+01 -2.456514596939086914e+00 1.694237887859344482e-01 -6.861272454261779785e-01 -6.757772564888000488e-01
2.400000000000000000e+02 7.392842102050781250e+01 1.973518371582031250e+01 -4.740656852722167969e+00 6.721456348896026611e-02 -1.402032732963562012e+00 8.820713311433792114e-02
2.410000000000000000e+02 7.329032135009765625e+01 2.098360443115234375e+01 -3.567683696746826172e-01 1.145369052886962891e+00 2.365802228450775146e-01 -1.797040939331054688e+00
2.420000000000000000e+02 7.432921600341796875e+01 1.969950294494628906e+01 -4.406300067901611328e+00 6.521588563919067383e-02 -1.302325248718261719e+00 1.855128328315913677e-03
2.430000000000000000e+02 7.417707061767578125e+01 1.995844650268554688e+01 -2.042241811752319336e+00 3.751564919948577881e-01 -5.001256465911865234e-01 -7.488499283790588379e-01
2.440000000000000000e+02 7.364834594726562500e+01 2.075341033935546875e+01 -1.085700914263725281e-01 1.299941897392272949e+00 3.574115633964538574e-01 -2.140197515487670898e+00
2.450000000000000000e+02 7.344371032714843750e+01 2.005072212219238281e+01 -3.350098371505737305e+00 4.576590657234191895e-02 -9.912997484207153320e-01 -1.774295717477798462e-01
2.460000000000000000e+02 7.532598876953125000e+01 2.091650199890136719e+01 -1.765702217817306519e-01 1.499508094787597656e+01 4.445553302764892578e+00 -6.566111564636230469e+00
2.470000000000000000e+02 7.490293884277343750e+01 2.092820167541503906e+01 1.076200604438781738e+00 9.215765953063964844e+00 3.087589979171752930e+00 -6.551016807556152344e+00
2.480000000000000000e+02 7.452333831787109375e+01 2.094612884521484375e+01 1.192806959152221680e+00 5.953066349029541016e+00 2.143761873245239258e+00 -5.318527698516845703e+00
2.490000000000000000e+02 7.533219146728515625e+01 2.064309883117675781e+01 7.107532024383544922e-01 1.593107891082763672e+01 4.992549419403076172e+00 -7.624599456787109375e+00
2.500000000000000000e+02 7.389193725585937500e+01 2.093623542785644531e+01 5.641476511955261230e-01 2.401319742202758789e+00 8.896402120590209961e-01 -3.097912788391113281e+00
2.510000000000000000e+02 7.368498229980468750e+01 2.096888160705566406e+01 1.502830535173416138e-01 1.802355170249938965e+00 5.857914686203002930e-01 -2.563977956771850586e+00
2.520000000000000000e+02 7.410713958740234375e+01 2.093217849731445312e+01 9.794037938117980957e-01 3.189964056015014648e+00 1.250810384750366211e+00 -3.684742927551269531e+00
2.530000000000000000e+02 7.477711486816406250e+01 2.073342132568359375e+01 1.855692148208618164e+00 7.293817996978759766e+00 2.744853019714355469e+00 -6.297978878021240234e+00
2.540000000000000000e+02 7.382717132568359375e+01 2.066946220397949219e+01 1.844216734170913696e-01 1.507610321044921875e+00 5.076096057891845703e-01 -2.363883733749389648e+00
2.550000000000000000e+02 7.491592407226562500e+01 2.048070716857910156e+01 2.741435766220092773e+00 7.499546051025390625e+00 3.072294473648071289e+00 -7.081713676452636719e+00
2.560000000000000000e+02 7.270665740966796875e+01 2.054027748107910156e+01 -2.183591127395629883e+00 2.721374295651912689e-02 -6.469132304191589355e-01 -4.909278154373168945e-01
2.570000000000000000e+02 7.269305419921875000e+01 2.077125167846679688e+01 -1.609742283821105957e+00 3.353137671947479248e-01 -3.823285698890686035e-01 -6.217581629753112793e-01
2.580000000000000000e+02 7.275474548339843750e+01 1.843151283264160156e+01 1.363919768482446671e-02 4.453247189521789551e-01 1.376891732215881348e-01 1.546869575977325439e-01
2.590000000000000000e+02 7.308441162109375000e+01 1.919296836853027344e+01 -2.139444112777709961e+00 6.866709142923355103e-02 -6.212330460548400879e-01 -1.431711167097091675e-01
2.600000000000000000e+02 7.270338439941406250e+01 1.905570411682128906e+01 -1.639849066734313965e+00 6.874457746744155884e-02 -4.713313579559326172e-01 -2.911885976791381836e-01
2.610000000000000000e+02 7.456668090820312500e+01 1.862360572814941406e+01 3.264003753662109375e+00 3.790341377258300781e+00 2.116303443908691406e+00 4.509802818298339844e+00
2.620000000000000000e+02 7.510594177246093750e+01 1.815089035034179688e+01 1.227582573890686035e+00 1.175144577026367188e+01 3.893708467483520508e+00 6.097615242004394531e+00
2.630000000000000000e+02 7.431239318847656250e+01 1.945443725585937500e+01 -3.503503322601318359e+00 1.028415188193321228e-01 -1.020198464393615723e+00 4.906388372182846069e-02
2.640000000000000000e+02 7.331007385253906250e+01 1.943084144592285156e+01 -3.290800571441650391e+00 4.754864051938056946e-02 -9.729756116867065430e-01 -2.751545235514640808e-02
2.650000000000000000e+02 7.310733032226562500e+01 1.944862937927246094e+01 -3.233639717102050781e+00 -1.459589414298534393e-02 -9.744706749916076660e-01 -5.373626574873924255e-02
2.660000000000000000e+02 7.309745025634765625e+01 1.973859024047851562e+01 -5.425161361694335938e+00 -3.215400129556655884e-02 -1.637194633483886719e+00 5.325097963213920593e-02
2.670000000000000000e+02 7.336270904541015625e+01 2.052416419982910156e+01 -1.357581496238708496e+00 5.107095837593078613e-01 -2.540615797042846680e-01 -1.077081918716430664e+00
2.680000000000000000e+02 7.319409942626953125e+01 2.026592636108398438e+01 -2.495032310485839844e+00 1.658836752176284790e-01 -6.987445950508117676e-01 -4.796482622623443604e-01
2.690000000000000000e+02 7.451378631591796875e+01 2.042628860473632812e+01 1.817441105842590332e+00 3.050319194793701172e+00 1.460328102111816406e+00 -4.280528068542480469e+00
2.700000000000000000e+02 7.311663055419921875e+01 2.075081634521484375e+01 -1.087682843208312988e+00 5.887602567672729492e-01 -1.496767550706863403e-01 -1.140888094902038574e+00
2.710000000000000000e+02 7.430032348632812500e+01 2.051807022094726562e+01 1.085182309150695801e+00 2.450258970260620117e+00 1.060632348060607910e+00 -3.494769096374511719e+00
2.720000000000000000e+02 7.293846130371093750e+01 2.050580215454101562e+01 -2.072347879409790039e+00 2.547881305217742920e-01 -5.452679395675659180e-01 -6.143631339073181152e-01
2.730000000000000000e+02 7.437384033203125000e+01 1.993070793151855469e+01 -1.495759010314941406e+00 2.017796784639358521e-01 -3.881937861442565918e-01 -9.800174236297607422e-01
2.740000000000000000e+02 7.416733551025390625e+01 1.860687065124511719e+01 2.109818935394287109e+00 1.856113910675048828e+00 1.189779877662658691e+00 2.602008819580078125e+00
2.750000000000000000e+02 7.347776031494140625e+01 1.882184600830078125e+01 -8.807636052370071411e-02 4.276328980922698975e-01 1.018669605255126953e-01 5.044482946395874023e-01
2.760000000000000000e+02 7.285134887695312500e+01 1.900811386108398438e+01 -1.433324694633483887e+00 1.193880066275596619e-01 -3.941810131072998047e-01 -1.699264645576477051e-01
2.770000000000000000e+02 7.369805908203125000e+01 2.043944358825683594e+01 -8.773142099380493164e-01 6.756358742713928223e-01 -6.050351262092590332e-02 -1.460013866424560547e+00
2.780000000000000000e+02 7.329553985595703125e+01 1.974794197082519531e+01 -5.216557979583740234e+00 8.848872780799865723e-02 -1.538420796394348145e+00 -4.726693499833345413e-03
2.790000000000000000e+02 7.455319213867187500e+01 2.068762588500976562e+01 2.045007705688476562e+00 4.833110809326171875e+00 2.063435554504394531e+00 -5.433914661407470703e+00
2.800000000000000000e+02 7.315184783935546875e+01 2.051157760620117188e+01 -1.756841421127319336e+00 3.513319194316864014e-01 -4.216528534889221191e-01 -8.937359452247619629e-01
2.810000000000000000e+02 7.438100433349609375e+01 1.882258415222167969e+01 2.369544506072998047e+00 1.668094635009765625e+00 1.211291790008544922e+00 2.661478281021118164e+00
2.820000000000000000e+02 7.420113372802734375e+01 1.899479675292968750e+01 9.405519366264343262e-01 6.506100296974182129e-01 4.773485958576202393e-01 1.372446537017822266e+00
2.830000000000000000e+02 7.464112854003906250e+01 2.009269523620605469e+01 1.665553927421569824e+00 1.418483614921569824e+00 9.252112507820129395e-01 -3.103556156158447266e+00
2.840000000000000000e+02 7.399474334716796875e+01 1.882623100280761719e+01 1.052091121673583984e+00 9.422017335891723633e-01 5.982878804206848145e-01 1.436882495880126953e+00
2.850000000000000000e+02 7.377636718750000000e+01 2.006899261474609375e+01 -2.510877609252929688e+00 1.838093400001525879e-01 -6.981204748153686523e-01 -6.559586524963378906e-01
2.860000000000000000e+02 7.404857635498046875e+01 2.021752166748046875e+01 -8.735226392745971680e-01 7.093544602394104004e-01 -4.925045743584632874e-02 -1.520302057266235352e+00
2.870000000000000000e+02 7.296464538574218750e+01 1.844248771667480469e+01 2.331162244081497192e-01 5.943788886070251465e-01 2.482485324144363403e-01 3.962761163711547852e-01
2.880000000000000000e+02 7.372511291503906250e+01 1.903402900695800781e+01 -7.469765543937683105e-01 1.757690757513046265e-01 -1.713622510433197021e-01 3.218992650508880615e-01
2.890000000000000000e+02 7.269434356689453125e+01 1.994480323791503906e+01 -4.512914657592773438e+00 -2.266897112131118774e-01 -1.421881318092346191e+00 -6.664466112852096558e-02
2.900000000000000000e+02 7.290236663818359375e+01 1.973225975036621094e+01 -5.584158897399902344e+00 7.634168118238449097e-02 -1.652345061302185059e+00 8.224145323038101196e-02
2.910000000000000000e+02 7.309081268310546875e+01 2.098268318176269531e+01 -6.389034390449523926e-01 1.056653261184692383e+00 1.253249496221542358e-01 -1.569356441497802734e+00
2.920000000000000000e+02 7.331069946289062500e+01 2.076024055480957031e+01 -7.282401919364929199e-01 8.963111639022827148e-01 5.042129755020141602e-02 -1.577884793281555176e+00
2.930000000000000000e+02 7.348627471923828125e+01 2.077906799316406250e+01 -4.750625491142272949e-01 1.039520740509033203e+00 1.693374514579772949e-01 -1.824627041816711426e+00
2.940000000000000000e+02 7.348725891113281250e+01 2.098312568664550781e+01 -1.017184853553771973e-01 1.449925541877746582e+00 4.044620990753173828e-01 -2.146729230880737305e+00
2.950000000000000000e+02 7.305774688720703125e+01 1.998998451232910156e+01 -4.142195224761962891e+00 5.541351437568664551e-02 -1.226034522056579590e+00 -1.249194145202636719e-01
2.960000000000000000e+02 7.413050079345703125e+01 1.971498489379882812e+01 -4.614899158477783203e+00 -1.321959495544433594e-02 -1.388435721397399902e+00 3.145521506667137146e-02
2.970000000000000000e+02 7.442835235595703125e+01 2.017190361022949219e+01 8.353734612464904785e-01 1.293979883193969727e+00 6.388059854507446289e-01 -2.623271703720092773e+00
2.980000000000000000e+02 7.290966796875000000e+01 1.946381378173828125e+01 -3.126288890838623047e+00 4.586402326822280884e-02 -9.241274595260620117e-01 -7.677449285984039307e-02
2.990000000000000000e+02 7.328983306884765625e+01 1.915028572082519531e+01 -1.889272809028625488e+00 8.659650385379791260e-02 -5.408028960227966309e-01 -9.064283967018127441e-02
3.000000000000000000e+02 7.351201629638671875e+01 1.910150146484375000e+01 -1.385288238525390625e+00 1.080313622951507568e-01 -3.831770718097686768e-01 5.936628207564353943e-02
3.010000000000000000e+02 7.302909088134765625e+01 1.893878555297851562e+01 -1.151824831962585449e+00 1.715018749237060547e-01 -2.940968871116638184e-01 -9.189781546592712402e-02
3.020000000000000000e+02 7.319581604003906250e+01 1.865843582153320312e+01 -2.006813324987888336e-02 4.184840619564056396e-01 1.195247769355773926e-01 3.695785403251647949e-01
3.030000000000000000e+02 7.298152160644531250e+01 1.868461036682128906e+01 -3.910022377967834473e-01 2.934766411781311035e-01 -2.925767935812473297e-02 1.195078492164611816e-01
3.040000000000000000e+02 7.314837646484375000e+01 1.820807647705078125e+01 7.846344113349914551e-01 1.063895106315612793e+00 5.545588731765747070e-01 9.259458780288696289e-01
3.050000000000000000e+02 7.334981536865234375e+01 1.841627311706542969e+01 7.223139405250549316e-01 9.467917084693908691e-01 5.007317066192626953e-01 9.525882005691528320e-01
3.060000000000000000e+02 7.316311645507812500e+01 1.843487739562988281e+01 4.563457667827606201e-01 6.870557665824890137e-01 3.430204391479492188e-01 6.837115287780761719e-01
3.070000000000000000e+02 7.352648162841796875e+01 1.844559478759765625e+01 9.493020772933959961e-01 9.372206330299377441e-01 5.659568309783935547e-01 1.157033205032348633e+00
3.080000000000000000e+02 7.411202239990234375e+01 1.820636367797851562e+01 2.103078126907348633e+00 3.146857738494873047e+00 1.574980735778808594e+00 3.223522424697875977e+00
3.090000000000000000e+02 7.450332641601562500e+01 1.820949363708496094e+01 2.510473728179931641e+00 5.453427791595458984e+00 2.389170408248901367e+00 4.733861446380615234e+00
3.100000000000000000e+02 7.438851928710937500e+01 1.842501449584960938e+01 2.679458856582641602e+00 3.899816274642944336e+00 1.973782539367675781e+00 4.033508777618408203e+00
3.110000000000000000e+02 7.498308563232421875e+01 1.839415359497070312e+01 2.623595952987670898e+00 1.004531288146972656e+01 3.800672531127929688e+00 6.826550006866455078e+00
3.120000000000000000e+02 7.477409362792968750e+01 1.847973632812500000e+01 3.194783449172973633e+00 6.804711341857910156e+00 2.999848365783691406e+00 5.920255661010742188e+00
3.130000000000000000e+02 7.400614166259765625e+01 2.053399658203125000e+01 3.368352651596069336e-01 1.627271533012390137e+00 5.892320275306701660e-01 -2.605236053466796875e+00
3.140000000000000000e+02 7.390444946289062500e+01 1.903010559082031250e+01 -3.149659335613250732e-01 2.123522460460662842e-01 -3.078410401940345764e-02 4.348777234554290771e-01
3.150000000000000000e+02 7.396370697021484375e+01 1.926459693908691406e+01 -2.211998224258422852e+00 8.249600417912006378e-03 -6.611245870590209961e-01 1.281656175851821899e-01
3.160000000000000000e+02 7.517623901367187500e+01 1.831225013732910156e+01 1.565365433692932129e+00 1.331591701507568359e+01 4.464385032653808594e+00 6.709252357482910156e+00
3.170000000000000000e+02 7.620012664794921875e+01 1.828736305236816406e+01 1.892027328722178936e-03 2.136014175415039062e+01 6.408609867095947266e+00 -8.012818694114685059e-01
3.180000000000000000e+02 7.616726684570312500e+01 1.858013153076171875e+01 1.328884124755859375e+00 2.385124588012695312e+01 7.554039001464843750e+00 -1.211859464645385742e+00
3.190000000000000000e+02 7.666311645507812500e+01 1.901209449768066406e+01 7.941287040710449219e+00 1.968123435974121094e+01 8.286756515502929688e+00 -3.814593315124511719e+00
3.200000000000000000e+02 7.695385742187500000e+01 1.922414588928222656e+01 8.089370727539062500e+00 1.575884914398193359e+01 7.154466152191162109e+00 -2.398066759109497070e+00
3.210000000000000000e+02 7.689122772216796875e+01 2.017151451110839844e+01 5.533759593963623047e+00 1.705639839172363281e+01 6.777047634124755859e+00 3.286397218704223633e+00
3.220000000000000000e+02 7.636191558837890625e+01 2.069244384765625000e+01 7.808830738067626953e-01 2.137948226928710938e+01 6.648109912872314453e+00 1.755430459976196289e+00
3.230000000000000000e+02 7.607979583740234375e+01 2.089628791809082031e+01 -1.252561807632446289e+00 2.032702445983886719e+01 5.722338676452636719e+00 -1.199540138244628906e+00
3.240000000000000000e+02 7.591184997558593750e+01 2.094534301757812500e+01 -1.432124137878417969e+00 2.010275650024414062e+01 5.601189613342285156e+00 -2.194112539291381836e+00
3.250000000000000000e+02 7.603934478759765625e+01 2.075797462463378906e+01 -7.316715121269226074e-01 2.208344078063964844e+01 6.405530929565429688e+00 -1.067843556404113770e+00
3.260000000000000000e+02 7.574201965332031250e+01 2.094736671447753906e+01 -1.480842828750610352e+00 1.959568977355957031e+01 5.434453964233398438e+00 -4.043210983276367188e+00
3.270000000000000000e+02 7.554405212402343750e+01 2.092397880554199219e+01 -9.511072635650634766e-01 1.768314170837402344e+01 5.019610404968261719e+00 -5.270974636077880859e+00
3.280000000000000000e+02 7.471785736083984375e+01 2.095461463928222656e+01 1.053948640823364258e+00 7.047467708587646484e+00 2.430424928665161133e+00 -5.693193912506103516e+00
3.290000000000000000e+02 7.430245208740234375e+01 1.921876144409179688e+01 -5.346263051033020020e-01 2.618359923362731934e-01 -8.183708041906356812e-02 7.256323099136352539e-01
3.300000000000000000e+02 7.411735534667968750e+01 1.926870536804199219e+01 -1.760399580001831055e+00 2.923090159893035889e-01 -4.404271543025970459e-01 2.711001634597778320e-01
3.310000000000000000e+02 7.654463958740234375e+01 1.904812431335449219e+01 8.136721611022949219e+00 2.049671173095703125e+01 8.590029716491699219e+00 -4.024702072143554688e+00
3.320000000000000000e+02 7.404879760742187500e+01 1.912263488769531250e+01 -7.164129614830017090e-01 3.043943941593170166e-01 -1.236055642366409302e-01 5.992941260337829590e-01
3.330000000000000000e+02 7.373931121826171875e+01 1.876757049560546875e+01 5.562156438827514648e-01 6.221216917037963867e-01 3.535012006759643555e-01 9.948254227638244629e-01
3.340000000000000000e+02 7.380933380126953125e+01 1.919823455810546875e+01 -1.868380308151245117e+00 1.047342047095298767e-01 -5.290938615798950195e-01 2.626763582229614258e-01
3.350000000000000000e+02 7.354501342773437500e+01 2.059328460693359375e+01 -7.346819639205932617e-01 7.521928548812866211e-01 5.253249779343605042e-03 -1.517046570777893066e+00
3.360000000000000000e+02 7.416490936279296875e+01 2.037276458740234375e+01 5.823820233345031738e-01 1.350650310516357422e+00 5.799097418785095215e-01 -2.584443330764770508e+00
3.370000000000000000e+02 7.416194915771484375e+01 2.068245506286621094e+01 8.525955677032470703e-01 2.450939178466796875e+00 9.910603761672973633e-01 -3.399108886718750000e+00
3.380000000000000000e+02 7.676799774169921875e+01 1.887413215637207031e+01 5.959174156188964844e+00 1.837864303588867188e+01 7.301345348358154297e+00 -3.684618234634399414e+00
3.390000000000000000e+02 7.299204254150390625e+01 2.024633598327636719e+01 -2.949993848800659180e+00 2.326507866382598877e-02 -8.780186176300048828e-01 -3.134927153587341309e-01
3.400000000000000000e+02 7.324811553955078125e+01 2.001486015319824219e+01 -3.906785011291503906e+00 3.022192232310771942e-02 -1.162968993186950684e+00 -1.156551912426948547e-01
3.410000000000000000e+02 7.324531555175781250e+01 1.889211273193359375e+01 -7.493792772293090820e-01 1.969290822744369507e-01 -1.657350659370422363e-01 8.456800878047943115e-02
3.420000000000000000e+02 7.340642547607421875e+01 1.860197448730468750e+01 4.036190509796142578e-01 6.694716811180114746e-01 3.219272196292877197e-01 7.221276164054870605e-01
3.430000000000000000e+02 7.339522552490234375e+01 2.028376770019531250e+01 -2.091817140579223633e+00 2.701538205146789551e-01 -5.464990139007568359e-01 -7.737830281257629395e-01
3.440000000000000000e+02 7.422403717041015625e+01 2.018778228759765625e+01 -1.514795571565628052e-01 9.258854985237121582e-01 2.323217839002609253e-01 -1.992097258567810059e+00
3.450000000000000000e+02 7.388072967529296875e+01 2.031636428833007812e+01 -8.339469432830810547e-01 5.835463404655456543e-01 -7.512018829584121704e-02 -1.411717772483825684e+00
3.460000000000000000e+02 7.358451843261718750e+01 2.020218086242675781e+01 -2.231827974319458008e+00 2.151743024587631226e-01 -6.049960851669311523e-01 -6.671234965324401855e-01
3.470000000000000000e+02 7.237268829345703125e+01 1.995334815979003906e+01 -4.369945526123046875e+00 6.874817889183759689e-03 -1.308921217918395996e+00 9.240682423114776611e-02
3.480000000000000000e+02 7.105480957031250000e+01 2.042567062377929688e+01 -2.969039201736450195e+00 1.248513534665107727e-01 -8.532563447952270508e-01 1.678558588027954102e-01
3.490000000000000000e+02 7.239784240722656250e+01 2.078622436523437500e+01 -1.636895537376403809e+00 2.000434398651123047e-01 -4.310556352138519287e-01 -4.049990177154541016e-01
3.500000000000000000e+02 7.198877716064453125e+01 2.027993774414062500e+01 -3.545520305633544922e+00 -7.816310226917266846e-02 -1.087105035781860352e+00 -1.299029737710952759e-01
3.510000000000000000e+02 7.236067199707031250e+01 2.038772392272949219e+01 -2.890116691589355469e+00 2.081142365932464600e-02 -8.607915639877319336e-01 -2.551429569721221924e-01
3.520000000000000000e+02 7.052102661132812500e+01 2.071026420593261719e+01 -2.445175647735595703e+00 1.399564296007156372e-01 -6.915658116340637207e-01 3.345805108547210693e-01
3.530000000000000000e+02 7.228035736083984375e+01 2.097817611694335938e+01 -1.514558315277099609e+00 3.175741136074066162e-01 -3.590952754020690918e-01 -4.853818714618682861e-01
3.540000000000000000e+02 7.238356781005859375e+01 2.016864204406738281e+01 -4.005669593811035156e+00 -8.161608129739761353e-03 -1.204149365425109863e+00 -4.402492195367813110e-02
3.550000000000000000e+02 6.981276702880859375e+01 2.065634727478027344e+01 -2.427458047866821289e+00 3.270727694034576416e-01 -6.301155686378479004e-01 5.906361937522888184e-01
3.560000000000000000e+02 7.067424011230468750e+01 1.973311233520507812e+01 -3.963176488876342773e+00 5.530340224504470825e-02 -1.172361969947814941e+00 -1.320555061101913452e-01
3.570000000000000000e+02 7.192852783203125000e+01 1.992761421203613281e+01 -4.563914299011230469e+00 -2.350836992263793945e-02 -1.376226782798767090e+00 -7.055495679378509521e-02
3.580000000000000000e+02 6.994941711425781250e+01 1.967189407348632812e+01 -3.532145500183105469e+00 -8.381248265504837036e-02 -1.084787487983703613e+00 -1.203931793570518494e-01
3.590000000000000000e+02 6.986804199218750000e+01 2.016366004943847656e+01 -2.905636787414550781e+00 1.064948365092277527e-01 -8.397426009178161621e-01 3.070730268955230713e-01
3.600000000000000000e+02 7.236280059814453125e+01 2.059810256958007812e+01 -2.168020248413085938e+00 1.969992071390151978e-01 -5.913063287734985352e-01 -3.856153786182403564e-01
3.610000000000000000e+02 7.230945587158203125e+01 1.971803855895996094e+01 -5.387810707092285156e+00 8.809918537735939026e-03 -1.613700270652770996e+00 -1.901419311761856079e-01
3.620000000000000000e+02 7.159378051757812500e+01 2.069593811035156250e+01 -2.436317205429077148e+00 1.247837319970130920e-01 -6.934600472450256348e-01 3.015592880547046661e-02
3.630000000000000000e+02 7.206509399414062500e+01 2.078897285461425781e+01 -1.859091162681579590e+00 3.238069117069244385e-01 -4.605852663516998291e-01 -3.349635004997253418e-01
3.640000000000000000e+02 7.137224578857421875e+01 1.982934570312500000e+01 -4.420989513397216797e+00 -4.522453248500823975e-02 -1.339864253997802734e+00 -1.413095742464065552e-01
3.650000000000000000e+02 7.053085327148437500e+01 2.022176361083984375e+01 -3.325072288513183594e+00 2.053278498351573944e-02 -9.913618564605712891e-01 1.710642427206039429e-01
3.660000000000000000e+02 6.913301086425781250e+01 2.007382965087890625e+01 -2.380342006683349609e+00 2.813472747802734375e-01 -6.296983957290649414e-01 6.030917763710021973e-01
3.670000000000000000e+02 6.842984008789062500e+01 2.001361465454101562e+01 -2.386689901351928711e+00 2.833616137504577637e-01 -6.309984326362609863e-01 7.193838953971862793e-01
3.680000000000000000e+02 6.909191131591796875e+01 2.055768966674804688e+01 -2.516029834747314453e+00 3.894676864147186279e-01 -6.379686594009399414e-01 6.790332198143005371e-01
3.690000000000000000e+02 6.743466186523437500e+01 1.986900138854980469e+01 -1.198755621910095215e+00 -4.469261467456817627e-01 -4.937045276165008545e-01 7.613126039505004883e-01
3.700000000000000000e+02 6.789413452148437500e+01 2.025256729125976562e+01 -2.313081264495849609e+00 2.844987511634826660e-01 -6.085747480392456055e-01 7.830578684806823730e-01
3.710000000000000000e+02 6.914060211181640625e+01 1.956134796142578125e+01 -2.436085224151611328e+00 8.336076140403747559e-02 -7.058173418045043945e-01 -6.901900470256805420e-02
3.720000000000000000e+02 6.843615722656250000e+01 2.044115829467773438e+01 -2.317893505096435547e+00 3.312417268753051758e-01 -5.959954857826232910e-01 7.598155140876770020e-01
3.730000000000000000e+02 6.827417755126953125e+01 1.943595314025878906e+01 -9.196851849555969238e-01 1.211421638727188110e-01 -2.395628988742828369e-01 2.223389148712158203e-01
3.740000000000000000e+02 6.836172485351562500e+01 1.872426414489746094e+01 -7.915357500314712524e-02 -6.893870979547500610e-02 -4.442768543958663940e-02 -1.449835896492004395e-01
3.750000000000000000e+02 6.933589172363281250e+01 1.816823005676269531e+01 -2.461346238851547241e-01 -1.890535205602645874e-01 -1.305564492940902710e-01 -5.159580707550048828e-01
3.760000000000000000e+02 6.922095489501953125e+01 1.890072250366210938e+01 -4.396130144596099854e-01 -1.170591413974761963e-01 -1.670016497373580933e-01 -2.595714926719665527e-01
3.770000000000000000e+02 6.791447448730468750e+01 1.805000495910644531e+01 -2.097783982753753662e-02 -2.677231132984161377e-01 -8.661028742790222168e-02 -3.500422835350036621e-02
3.780000000000000000e+02 6.849047851562500000e+01 1.799483680725097656e+01 -1.247535422444343567e-01 -4.035121202468872070e-01 -1.584797054529190063e-01 -3.323360085487365723e-01
3.790000000000000000e+02 6.942857360839843750e+01 1.731313896179199219e+01 8.123641833662986755e-03 -3.836827576160430908e-01 -1.126677319407463074e-01 -5.482642054557800293e-01
3.800000000000000000e+02 7.109144592285156250e+01 1.518465995788574219e+01 1.226231977343559265e-01 1.358400106430053711e+00 4.443069994449615479e-01 1.361842155456542969e-01
3.810000000000000000e+02 7.369035339355468750e+01 8.885066032409667969e+00 -4.043053090572357178e-01 5.765531539916992188e+00 1.608367919921875000e+00 5.394751429557800293e-01
3.820000000000000000e+02 7.948355865478515625e+01 8.414177894592285156e+00 -6.224822252988815308e-03 1.156817913055419922e+01 3.468586206436157227e+00 2.044138126075267792e-02
3.830000000000000000e+02 7.849306488037109375e+01 9.856904029846191406e+00 -6.859108060598373413e-02 1.065507221221923828e+01 3.175944328308105469e+00 5.704975500702857971e-02
3.840000000000000000e+02 7.953253936767578125e+01 1.114958953857421875e+01 -1.561017800122499466e-02 1.182178497314453125e+01 3.541852474212646484e+00 -7.760003954172134399e-02
3.850000000000000000e+02 7.864529418945312500e+01 1.244829463958740234e+01 -1.683550924062728882e-01 1.078631973266601562e+01 3.185389518737792969e+00 -3.140727579593658447e-01
3.860000000000000000e+02 7.276452636718750000e+01 1.767565345764160156e+01 8.709920048713684082e-01 1.346012473106384277e+00 6.651013493537902832e-01 9.039078950881958008e-01
3.870000000000000000e+02 7.129642486572265625e+01 1.774441528320312500e+01 6.165076419711112976e-02 2.516147792339324951e-01 9.397966414690017700e-02 -3.611252903938293457e-01
3.880000000000000000e+02 6.794815826416015625e+01 1.691587257385253906e+01 1.403645798563957214e-02 -1.082471847534179688e+00 -3.205306231975555420e-01 -8.711698651313781738e-02
3.890000000000000000e+02 6.905940246582031250e+01 1.205956172943115234e+01 -6.566686034202575684e-01 2.469591423869132996e-02 -1.895918101072311401e-01 -3.204538524150848389e-01
3.900000000000000000e+02 6.719763946533203125e+01 9.015858650207519531e+00 -9.986062049865722656e-01 -8.275360465049743652e-01 -5.478426814079284668e-01 -7.168114185333251953e-01
3.910000000000000000e+02 6.601403808593750000e+01 6.271903991699218750e+00 -7.701104879379272461e-01 -3.900885879993438721e-01 -3.480597138404846191e-01 -5.291752219200134277e-01
3.920000000000000000e+02 6.745792388916015625e+01 4.435080528259277344e+00 -2.596935331821441650e-01 8.709455728530883789e-01 1.833755970001220703e-01 1.152768582105636597e-01
3.930000000000000000e+02 6.362511444091796875e+01 1.098366022109985352e+00 -2.946067154407501221e-01 -1.556180864572525024e-01 -1.350674480199813843e-01 -2.278396040201187134e-01
3.940000000000000000e+02 6.484567260742187500e+01 -3.969247102737426758e+00 2.491024583578109741e-01 6.703337430953979492e-01 2.758308649063110352e-01 3.051164150238037109e-01
3.950000000000000000e+02 6.272974014282226562e+01 -8.222368240356445312e+00 1.354928910732269287e-01 -7.475955039262771606e-02 1.821999996900558472e-02 4.010800123214721680e-01
3.960000000000000000e+02 6.361343383789062500e+01 -1.156729507446289062e+01 -1.199532032012939453e+00 -1.915249973535537720e-01 -4.173170924186706543e-01 3.956882357597351074e-01
3.970000000000000000e+02 6.550864410400390625e+01 -1.217139911651611328e+01 -1.114810705184936523e+00 -4.326144233345985413e-02 -3.474216461181640625e-01 3.928398489952087402e-01
3.980000000000000000e+02 6.647337341308593750e+01 -1.303504467010498047e+01 -5.769814252853393555e-01 6.380463838577270508e-01 1.831948570907115936e-02 7.366874814033508301e-02
3.990000000000000000e+02 6.696610260009765625e+01 -9.338926315307617188e+00 -2.092074155807495117e-01 1.674057006835937500e+00 4.394548833370208740e-01 -1.764292642474174500e-02
4.000000000000000000e+02 6.938455963134765625e+01 -7.608620166778564453e+00 -9.297821670770645142e-02 3.248579502105712891e+00 9.466804265975952148e-01 3.076687157154083252e-01
4.010000000000000000e+02 7.224386596679687500e+01 -9.854452311992645264e-02 1.062147393822669983e-01 4.626034736633300781e+00 1.419674873352050781e+00 6.649808287620544434e-01
4.020000000000000000e+02 7.259826660156250000e+01 3.143280982971191406e+00 3.665471216663718224e-03 4.840110778808593750e+00 1.453132867813110352e+00 7.095702290534973145e-01
4.030000000000000000e+02 6.941714477539062500e+01 5.577226638793945312e+00 -2.606791257858276367e-01 2.159091949462890625e+00 5.695238709449768066e-01 4.155079126358032227e-01
4.040000000000000000e+02 7.058617401123046875e+01 1.095806789398193359e+01 -5.652262568473815918e-01 2.199274301528930664e+00 4.902144372463226318e-01 2.372868806123733521e-01
4.050000000000000000e+02 7.215290069580078125e+01 1.257871246337890625e+01 -4.528472125530242920e-01 3.827557563781738281e+00 1.012413024902343750e+00 4.685574471950531006e-01
4.060000000000000000e+02 6.810296630859375000e+01 1.377949333190917969e+01 -1.624405533075332642e-01 -1.835917234420776367e+00 -5.995073318481445312e-01 -4.658074378967285156e-01
4.070000000000000000e+02 6.539745330810546875e+01 8.844127655029296875e+00 -1.639130473136901855e+00 -1.813725829124450684e+00 -1.035856842994689941e+00 -1.608481884002685547e+00
4.080000000000000000e+02 6.339182281494140625e+01 6.948767662048339844e+00 -1.690137743949890137e+00 -1.463786959648132324e+00 -9.461773633956909180e-01 -1.546960115432739258e+00
4.090000000000000000e+02 6.440309143066406250e+01 7.881896018981933594e+00 -1.683820128440856934e+00 -1.549108028411865234e+00 -9.698784351348876953e-01 -1.603073835372924805e+00
4.100000000000000000e+02 6.511761474609375000e+01 3.834201812744140625e+00 -4.625499546527862549e-01 -1.698892414569854736e-01 -1.897317618131637573e-01 -3.607485592365264893e-01
4.110000000000000000e+02 6.105905914306640625e+01 -8.318654298782348633e-01 -4.811057150363922119e-01 -4.845621883869171143e-01 -2.897003591060638428e-01 -1.747900396585464478e-01
4.120000000000000000e+02 5.996738433837890625e+01 -3.089591741561889648e+00 -2.082049697637557983e-01 -4.929731190204620361e-01 -2.103534340858459473e-01 1.160684600472450256e-01
4.130000000000000000e+02 5.992518615722656250e+01 -8.465471267700195312e+00 1.508945673704147339e-01 -2.938871085643768311e-01 -4.289775714278221130e-02 3.420983254909515381e-01
4.140000000000000000e+02 5.867839050292968750e+01 -1.042269325256347656e+01 -2.828083932399749756e-02 -8.683227747678756714e-02 -3.453393653035163879e-02 1.138814687728881836e-01
4.150000000000000000e+02 6.027337265014648438e+01 -9.834585189819335938e+00 -9.249339252710342407e-02 -1.760430037975311279e-01 -8.056092262268066406e-02 3.266816437244415283e-01
4.160000000000000000e+02 6.239560317993164062e+01 -1.145543003082275391e+01 -8.330308198928833008e-01 -2.972597256302833557e-02 -2.588270306587219238e-01 2.572511732578277588e-01
4.170000000000000000e+02 6.421692657470703125e+01 6.180585384368896484e+00 -1.192800879478454590e+00 -1.050263524055480957e+00 -6.729193329811096191e-01 -1.093631982803344727e+00
4.180000000000000000e+02 6.237559509277343750e+01 6.027917861938476562e+00 -1.704688787460327148e+00 -1.360080122947692871e+00 -9.194306731224060059e-01 -1.495495200157165527e+00
4.190000000000000000e+02 6.142784881591796875e+01 3.322126865386962891e+00 -1.060900807380676270e+00 -9.633617401123046875e-01 -6.072787642478942871e-01 -1.036146283149719238e+00
4.200000000000000000e+02 5.599970626831054688e+01 6.554205417633056641e-01 -2.316537618637084961e+00 -6.955649852752685547e-01 -9.036307930946350098e-01 -1.099825620651245117e+00
4.210000000000000000e+02 5.686087036132812500e+01 -5.149188041687011719e-01 -1.560581803321838379e+00 -7.961360812187194824e-01 -7.070153355598449707e-01 -5.837736129760742188e-01
4.220000000000000000e+02 5.278473663330078125e+01 -1.373903304338455200e-01 -2.765283823013305664e+00 -2.546773552894592285e-01 -9.059883952140808105e-01 -3.154040873050689697e-01
4.230000000000000000e+02 5.081536483764648438e+01 -8.842623233795166016e-01 -1.710223793983459473e+00 -7.738409936428070068e-02 -5.362823605537414551e-01 -3.007519841194152832e-01
4.240000000000000000e+02 5.160369491577148438e+01 -9.159974753856658936e-03 -2.455261945724487305e+00 -1.241223365068435669e-01 -7.738152742385864258e-01 1.361584514379501343e-01
4.250000000000000000e+02 5.838842010498046875e+01 2.276049852371215820e+00 -1.634072542190551758e+00 -1.245539784431457520e+00 -8.638836741447448730e-01 -1.294403553009033203e+00
4.260000000000000000e+02 5.012632369995117188e+01 -8.438748121261596680e-01 -1.523641705513000488e+00 -1.851399079896509647e-03 -4.576479494571685791e-01 -2.203233987092971802e-01
4.270000000000000000e+02 4.939706039428710938e+01 -2.036380052566528320e+00 -1.150990009307861328e+00 6.360261142253875732e-02 -3.262162208557128906e-01 -4.333336353302001953e-01
4.280000000000000000e+02 5.074596786499023438e+01 -7.274419307708740234e+00 7.194430567324161530e-03 -7.833991199731826782e-02 -2.134364470839500427e-02 -3.022356927394866943e-01
4.290000000000000000e+02 5.065351486206054688e+01 -8.836753845214843750e+00 9.371126443147659302e-02 -3.339911636430770159e-04 2.801318280398845673e-02 3.588742390275001526e-02
4.300000000000000000e+02 5.175082015991210938e+01 -8.152565956115722656e+00 4.927532076835632324e-01 3.575620800256729126e-02 1.585528254508972168e-01 -4.091488197445869446e-02
4.310000000000000000e+02 4.939810943603515625e+01 -1.457634866237640381e-01 -1.289076566696166992e+00 7.082740217447280884e-02 -3.654747605323791504e-01 -6.760391592979431152e-02
4.320000000000000000e+02 4.637813568115234375e+01 -3.017738461494445801e-02 -7.290966510772705078e-01 7.957809418439865112e-02 -1.948555558919906616e-01 -1.639157831668853760e-01
4.330000000000000000e+02 4.295407104492187500e+01 2.581719160079956055e-01 -3.041186034679412842e-01 -7.168875634670257568e-02 -1.127422004938125610e-01 -2.214487791061401367e-01
4.340000000000000000e+02 4.307466125488281250e+01 -6.635185480117797852e-01 -5.405508875846862793e-01 -4.210976511240005493e-02 -1.747981905937194824e-01 -3.472207784652709961e-01
4.350000000000000000e+02 4.190571212768554688e+01 3.856790959835052490e-01 -1.644034683704376221e-01 -1.029748246073722839e-01 -8.021348714828491211e-02 -1.587784141302108765e-01
4.360000000000000000e+02 4.048962402343750000e+01 -2.450715541839599609e+00 -1.068066954612731934e+00 -5.959885120391845703e-01 -4.992166459560394287e-01 -6.679071784019470215e-01
4.370000000000000000e+02 4.318037033081054688e+01 -4.690188884735107422e+00 -8.610793948173522949e-01 2.831044420599937439e-02 -2.498306930065155029e-01 -2.700082659721374512e-01
4.380000000000000000e+02 4.765993118286132812e+01 -1.188656997680664062e+01 2.453514561057090759e-02 1.192623302340507507e-01 4.313924163579940796e-02 4.174175113439559937e-02
4.390000000000000000e+02 4.849381637573242188e+01 -1.067699623107910156e+01 -9.767058072611689568e-04 7.627028226852416992e-02 2.258807234466075897e-02 3.305849060416221619e-02
4.400000000000000000e+02 4.957225036621093750e+01 -9.699382781982421875e+00 3.761752322316169739e-02 3.091525472700595856e-02 2.055983431637287140e-02 2.073845360428094864e-03
4.410000000000000000e+02 4.006077957153320312e+01 -5.250007152557373047e+00 -1.029936075210571289e+00 -2.475714236497879028e-01 -3.832522630691528320e-01 -2.358638793230056763e-01
4.420000000000000000e+02 4.009634780883789062e+01 -6.558824062347412109e+00 -8.047361969947814941e-01 -2.236911356449127197e-01 -3.085282146930694580e-01 -1.814165115356445312e-01
4.430000000000000000e+02 3.962330627441406250e+01 -1.332173633575439453e+01 1.842455863952636719e-01 -2.528867721557617188e-01 -2.059235051274299622e-02 -1.094809845089912415e-01
4.440000000000000000e+02 3.978574371337890625e+01 -1.806452178955078125e+01 3.326957821846008301e-01 -2.710026502609252930e-01 1.850793324410915375e-02 -4.472793340682983398e-01
4.450000000000000000e+02 3.924442672729492188e+01 -2.096496391296386719e+01 8.623833954334259033e-02 -2.652898132801055908e-01 -5.371544510126113892e-02 -4.762077927589416504e-01
4.460000000000000000e+02 3.922243118286132812e+01 -2.368877029418945312e+01 -7.828980684280395508e-02 -3.151930272579193115e-01 -1.180448457598686218e-01 -3.011220097541809082e-01
4.470000000000000000e+02 4.177098464965820312e+01 -2.732737350463867188e+01 1.038885265588760376e-01 3.883242234587669373e-02 4.281628504395484924e-02 -7.231935858726501465e-02
4.480000000000000000e+02 4.022132110595703125e+01 -3.308014297485351562e+01 2.867387831211090088e-01 -1.746333390474319458e-01 3.363163024187088013e-02 3.083850070834159851e-02
4.490000000000000000e+02 3.762249374389648438e+01 -4.102372741699218750e+01 4.571760296821594238e-01 -2.478292286396026611e-01 6.280403584241867065e-02 -1.520560588687658310e-03
4.500000000000000000e+02 4.234387969970703125e+01 -4.102629089355468750e+01 4.638436734676361084e-01 -6.546697020530700684e-02 1.195130124688148499e-01 -2.286902163177728653e-03
4.510000000000000000e+02 4.196437454223632812e+01 -3.796966552734375000e+01 4.232460558414459229e-01 -7.596642524003982544e-02 1.041838899254798889e-01 3.526408690959215164e-03
4.520000000000000000e+02 4.339586639404296875e+01 -3.372222137451171875e+01 3.229540288448333740e-01 7.253716886043548584e-02 1.186473667621612549e-01 -1.416914816945791245e-02
4.530000000000000000e+02 4.486733627319335938e+01 -2.937651252746582031e+01 2.027530521154403687e-01 3.446951210498809814e-01 1.642344444990158081e-01 -1.078410148620605469e-01
4.540000000000000000e+02 4.323831176757812500e+01 -2.742881584167480469e+01 1.484203636646270752e-01 2.504296004772186279e-01 1.196549907326698303e-01 -9.115456044673919678e-02
4.550000000000000000e+02 4.161633682250976562e+01 -2.239597129821777344e+01 1.242600455880165100e-01 5.018497258424758911e-02 5.233350768685340881e-02 -3.890052437782287598e-01
4.560000000000000000e+02 4.448109436035156250e+01 -2.041284179687500000e+01 1.471714377403259277e-01 4.733412861824035645e-01 1.861538141965866089e-01 -3.510843217372894287e-01
4.570000000000000000e+02 4.506500625610351562e+01 -1.698462486267089844e+01 4.051674529910087585e-02 2.812461853027343750e-01 9.652887284755706787e-02 -1.381578445434570312e-01
4.580000000000000000e+02 4.282152938842773438e+01 -1.205085086822509766e+01 -2.765254117548465729e-02 -1.134575381875038147e-01 -4.233302175998687744e-02 -7.890739291906356812e-02
4.590000000000000000e+02 4.161640930175781250e+01 -9.994748115539550781e+00 -2.441736310720443726e-01 -1.670720279216766357e-01 -1.233736947178840637e-01 -5.161872133612632751e-02
4.600000000000000000e+02 4.118938064575195312e+01 -5.445886611938476562e+00 -9.323971271514892578e-01 -1.811614930629730225e-01 -3.340675830841064453e-01 -2.219278961420059204e-01
4.610000000000000000e+02 2.894104194641113281e+01 -5.012965679168701172e+00 -1.392065405845642090e+00 -2.358247041702270508e-01 -4.883670210838317871e-01 3.203993737697601318e-01
4.620000000000000000e+02 2.799584007263183594e+01 -4.255670547485351562e+00 -5.890457034111022949e-01 -1.210776716470718384e-01 -2.130370140075683594e-01 2.981380224227905273e-01
4.630000000000000000e+02 2.586334419250488281e+01 -2.937171220779418945e+00 -2.916042208671569824e-01 3.008619137108325958e-02 -7.845541089773178101e-02 8.237573504447937012e-02
4.640000000000000000e+02 2.494916152954101562e+01 -3.044594526290893555e+00 -2.882629930973052979e-01 5.358624085783958435e-02 -7.040302455425262451e-02 3.294099122285842896e-02
4.650000000000000000e+02 2.147393608093261719e+01 -4.141148567199707031e+00 -2.338018566370010376e-01 6.214572489261627197e-02 -5.149684101343154907e-02 -1.586013585329055786e-01
4.660000000000000000e+02 2.137770652770996094e+01 -4.891336917877197266e+00 -2.719968855381011963e-01 8.244488388299942017e-02 -5.686559900641441345e-02 -2.044498771429061890e-01
4.670000000000000000e+02 2.245045471191406250e+01 -1.191948604583740234e+01 -1.693771779537200928e-01 1.017165556550025940e-01 -2.029818668961524963e-02 -2.398002594709396362e-01
4.680000000000000000e+02 2.206203269958496094e+01 -1.416015911102294922e+01 8.761876076459884644e-02 8.297691121697425842e-03 2.877493388950824738e-02 -7.060005515813827515e-02
4.690000000000000000e+02 3.096528625488281250e+01 -1.339166069030761719e+01 5.094209313392639160e-01 1.636547297239303589e-01 2.019226849079132080e-01 -3.689905405044555664e-01
4.700000000000000000e+02 3.001579856872558594e+01 -1.493454742431640625e+01 1.081929326057434082e+00 9.737213142216205597e-03 3.274999558925628662e-01 -2.127219736576080322e-01
4.710000000000000000e+02 2.970506095886230469e+01 -6.045823097229003906e+00 -1.519439101219177246e+00 -2.320422977209091187e-01 -5.254444479942321777e-01 3.635725239291787148e-03
4.720000000000000000e+02 2.071709442138671875e+01 -3.409879446029663086e+00 -1.373589336872100830e-01 3.303609788417816162e-02 -3.129685297608375549e-02 -1.417229622602462769e-01
4.730000000000000000e+02 1.816943168640136719e+01 -4.048384189605712891e+00 -5.002136528491973877e-02 1.330569200217723846e-02 -1.101470179855823517e-02 -1.973498761653900146e-01
4.740000000000000000e+02 1.893798637390136719e+01 -5.638652801513671875e+00 -2.063838988542556763e-01 2.632475830614566803e-02 -5.401774123311042786e-02 -2.735002040863037109e-01
4.750000000000000000e+02 1.776610755920410156e+01 -1.134729576110839844e+01 -6.934746503829956055e-01 -4.277358204126358032e-02 -2.208744734525680542e-01 -3.268195688724517822e-01
4.760000000000000000e+02 1.839243507385253906e+01 -1.279410839080810547e+01 -3.355431556701660156e-01 3.702124580740928650e-02 -8.955656737089157104e-02 8.944322168827056885e-02
4.770000000000000000e+02 1.957967376708984375e+01 -1.336715030670166016e+01 -1.460705548524856567e-01 1.642288989387452602e-03 -4.332848265767097473e-02 -2.181174233555793762e-02
4.780000000000000000e+02 1.750344467163085938e+01 -3.206851005554199219e+00 6.611800193786621094e-02 1.733883097767829895e-02 2.503705024719238281e-02 -1.468734443187713623e-01
4.790000000000000000e+02 1.595882892608642578e+01 -2.955773115158081055e+00 1.564307212829589844e-01 5.419895169325172901e-04 4.709181189537048340e-02 -1.119147017598152161e-01
4.800000000000000000e+02 1.630363082885742188e+01 -5.960994720458984375e+00 -1.313439905643463135e-01 -9.880543500185012817e-02 -6.904482841491699219e-02 -2.260755896568298340e-01
4.810000000000000000e+02 1.608530807495117188e+01 -1.162289905548095703e+01 -1.120912671089172363e+00 -3.890431225299835205e-01 -4.529867172241210938e-01 -3.095086216926574707e-01
4.820000000000000000e+02 1.720439720153808594e+01 -1.226242923736572266e+01 -1.056688785552978516e+00 -1.027513891458511353e-01 -3.478320240974426270e-01 -3.735086321830749512e-02
4.830000000000000000e+02 1.520005798339843750e+01 -2.817762136459350586e+00 1.883891373872756958e-01 -1.189670991152524948e-02 5.294772982597351074e-02 -9.259979426860809326e-02
4.840000000000000000e+02 1.139772033691406250e+01 -2.839266538619995117e+00 1.881073415279388428e-01 -5.159684643149375916e-02 4.095314815640449524e-02 1.577656343579292297e-02
4.850000000000000000e+02 1.119827270507812500e+01 -6.220539093017578125e+00 -5.213249847292900085e-02 -1.525536626577377319e-01 -6.140584498643875122e-02 2.605796791613101959e-02
4.860000000000000000e+02 1.333339595794677734e+01 -1.240361690521240234e+01 -8.377159833908081055e-01 -5.463227033615112305e-01 -4.152115881443023682e-01 -4.146441817283630371e-01
4.870000000000000000e+02 1.310852050781250000e+01 -1.403447914123535156e+01 -8.066407442092895508e-01 -8.804494142532348633e-01 -5.061270594596862793e-01 -7.292093038558959961e-01
4.880000000000000000e+02 1.161799240112304688e+01 -1.698696708679199219e+01 -1.766893565654754639e-01 -8.977360129356384277e-01 -3.223276138305664062e-01 -2.732277512550354004e-01
4.890000000000000000e+02 1.179053878784179688e+01 -2.070049667358398438e+01 1.206923723220825195e-01 3.498419001698493958e-02 4.670296981930732727e-02 -1.444328725337982178e-01
4.900000000000000000e+02 1.168680763244628906e+01 -1.820690536499023438e+01 2.548689767718315125e-02 -5.711687207221984863e-01 -1.637045443058013916e-01 -8.512839674949645996e-02
4.910000000000000000e+02 7.814785957336425781e+00 -2.537842035293579102e+00 1.409109234809875488e-01 -2.320788614451885223e-02 3.531090915203094482e-02 7.328851521015167236e-02
4.920000000000000000e+02 8.669003486633300781e+00 -1.854145884513854980e+00 1.942201405763626099e-01 -2.382035925984382629e-02 5.111993476748466492e-02 4.424348101019859314e-02
4.930000000000000000e+02 4.148127555847167969e+00 -2.570541620254516602e+00 5.920151248574256897e-02 1.428958214819431305e-02 2.204732783138751984e-02 7.878369092941284180e-02
4.940000000000000000e+02 6.234627962112426758e-01 -5.032763004302978516e+00 1.084709540009498596e-03 1.218063458800315857e-01 3.686731681227684021e-02 2.797025255858898163e-02
4.950000000000000000e+02 1.774193882942199707e+00 -7.923861503601074219e+00 -8.908639661967754364e-03 1.743870377540588379e-01 4.964351654052734375e-02 6.043679639697074890e-02
4.960000000000000000e+02 4.024679660797119141e+00 -1.063928413391113281e+01 -7.981003820896148682e-02 6.721817702054977417e-02 -3.777559148147702217e-03 1.927304454147815704e-02
4.970000000000000000e+02 1.066973209381103516e+01 -1.315811634063720703e+01 -5.141476392745971680e-01 -3.936080038547515869e-01 -2.723267078399658203e-01 -2.361150085926055908e-01
4.980000000000000000e+02 9.917080879211425781e+00 -1.226548099517822266e+01 -4.500950574874877930e-01 -2.831907570362091064e-01 -2.199857383966445923e-01 -1.320102214813232422e-01
4.990000000000000000e+02 8.309020042419433594e+00 -1.210729312896728516e+01 -3.411884307861328125e-01 -1.654245108366012573e-01 -1.519838869571685791e-01 -8.845791220664978027e-02
5.000000000000000000e+02 8.149082183837890625e+00 -5.256607532501220703e+00 1.391736976802349091e-02 -6.197278201580047607e-02 -1.441662386059761047e-02 9.912932664155960083e-02
5.010000000000000000e+02 4.455953598022460938e+00 -5.744366645812988281e+00 4.046504385769367218e-03 3.237226605415344238e-02 1.092563103884458542e-02 1.134844347834587097e-01
5.020000000000000000e+02 5.753154277801513672e+00 -5.170202255249023438e+00 1.939759403467178345e-02 -3.308802377432584763e-03 4.826637450605630875e-03 1.178573742508888245e-01
5.030000000000000000e+02 3.424808025360107422e+00 -1.872994899749755859e+00 5.419242754578590393e-02 1.187340915203094482e-02 1.981975138187408447e-02 5.754146724939346313e-02
5.040000000000000000e+02 4.904047489166259766e+00 -1.840224146842956543e+00 9.331472218036651611e-02 3.184488508850336075e-03 2.894976362586021423e-02 6.843957304954528809e-02
5.050000000000000000e+02 5.815285444259643555e-01 -9.273870468139648438e+00 -3.101832699030637741e-03 2.966471314430236816e-01 8.806359022855758667e-02 1.697132922708988190e-02
5.060000000000000000e+02 1.743469953536987305e+00 -1.064501667022705078e+01 -2.099988795816898346e-02 2.168285101652145386e-01 5.874858796596527100e-02 1.838980801403522491e-02
5.070000000000000000e+02 4.021020889282226562e+00 -1.192850780487060547e+01 -1.088434681296348572e-01 6.225754320621490479e-02 -1.397577859461307526e-02 -2.728164196014404297e-02
5.080000000000000000e+02 9.359117507934570312e+00 -1.559241580963134766e+01 -3.832980394363403320e-01 -3.613834381103515625e-01 -2.234044373035430908e-01 -3.368723392486572266e-01
5.090000000000000000e+02 1.045005130767822266e+01 -1.484276294708251953e+01 -4.730980098247528076e-01 -4.601956605911254883e-01 -2.799881100654602051e-01 -3.486385941505432129e-01
5.100000000000000000e+02 5.863667130470275879e-01 -1.207768535614013672e+01 -5.224613938480615616e-03 3.299798667430877686e-01 9.742657095193862915e-02 -4.544450435787439346e-03
5.110000000000000000e+02 1.763793468475341797e+00 -1.342123508453369141e+01 -2.663097903132438660e-02 1.868271678686141968e-01 4.805885627865791321e-02 -4.944159835577011108e-02
5.120000000000000000e+02 4.287490844726562500e+00 -1.736641120910644531e+01 -6.363385170698165894e-02 -9.858591109514236450e-02 -4.866592958569526672e-02 -2.671509981155395508e-01
5.130000000000000000e+02 1.009731483459472656e+01 -1.890380477905273438e+01 -3.664673492312431335e-02 -3.400544524192810059e-01 -1.130103543400764465e-01 -4.150679707527160645e-01
5.140000000000000000e+02 1.129884338378906250e+01 -2.202160453796386719e+01 2.232098728418350220e-01 4.825004190206527710e-02 8.143797516822814941e-02 -2.379090934991836548e-01
5.150000000000000000e+02 5.986355543136596680e-01 -1.630589103698730469e+01 -3.881400218233466148e-03 1.544464081525802612e-01 4.516950249671936035e-02 -4.350441321730613708e-02
5.160000000000000000e+02 3.035019636154174805e+00 -1.754334259033203125e+01 -2.895844541490077972e-02 -7.049090415239334106e-02 -2.983480505645275116e-02 -2.137943804264068604e-01
5.170000000000000000e+02 5.658571720123291016e+00 -1.886891555786132812e+01 -3.558650612831115723e-02 -1.947233974933624268e-01 -6.909296661615371704e-02 -3.459409177303314209e-01
5.180000000000000000e+02 1.031199550628662109e+01 -2.337977600097656250e+01 2.801936566829681396e-01 -1.054311171174049377e-01 5.242876335978507996e-02 -2.646149396896362305e-01
5.190000000000000000e+02 1.330985546112060547e+01 -2.382536697387695312e+01 3.437630236148834229e-01 3.413524925708770752e-01 2.055346518754959106e-01 -3.315158784389495850e-01
5.200000000000000000e+02 1.529703044891357422e+01 -2.772116088867187500e+01 3.832029104232788086e-01 2.544808089733123779e-01 1.913051158189773560e-01 -2.798058390617370605e-01
5.210000000000000000e+02 1.509926128387451172e+01 -2.973066520690917969e+01 3.219499289989471436e-01 1.874345988035202026e-01 1.528153568506240845e-01 -1.708740741014480591e-01
5.220000000000000000e+02 1.582551956176757812e+01 -3.367366027832031250e+01 1.656953245401382446e-01 1.448667794466018677e-01 9.316863119602203369e-02 -9.364802390336990356e-02
5.230000000000000000e+02 2.045593261718750000e+01 -3.725856399536132812e+01 1.221505478024482727e-01 1.481865346431732178e-01 8.110112696886062622e-02 -8.989057689905166626e-02
5.240000000000000000e+02 2.265095520019531250e+01 -4.100394439697265625e+01 1.240039840340614319e-01 9.901671856641769409e-02 6.690621376037597656e-02 -2.587223798036575317e-02
5.250000000000000000e+02 2.670707893371582031e+01 -4.090514755249023438e+01 2.437118440866470337e-01 -5.153636261820793152e-02 5.765264481306076050e-02 -3.827729821205139160e-02
5.260000000000000000e+02 2.960713005065917969e+01 -3.920470046997070312e+01 3.167492449283599854e-01 -1.656319200992584229e-01 4.533519595861434937e-02 -8.316567540168762207e-02
5.270000000000000000e+02 3.107305717468261719e+01 -3.639313888549804688e+01 3.330972492694854736e-01 -2.519525587558746338e-01 2.434340864419937134e-02 -1.505105793476104736e-01
5.280000000000000000e+02 3.101675033569335938e+01 -3.013953399658203125e+01 -6.815535575151443481e-02 -1.623245924711227417e-01 -6.914398074150085449e-02 -1.859606057405471802e-01
5.290000000000000000e+02 2.966568183898925781e+01 -3.059046554565429688e+01 9.988810122013092041e-02 -8.910504728555679321e-02 3.234917297959327698e-03 -1.004224494099617004e-01
5.300000000000000000e+02 2.824771118164062500e+01 -3.083853149414062500e+01 2.300772964954376221e-01 -1.399208605289459229e-02 6.482556462287902832e-02 -7.379406690597534180e-02
5.310000000000000000e+02 2.679722404479980469e+01 -3.094984245300292969e+01 3.390960693359375000e-01 -8.079097606241703033e-03 9.930509328842163086e-02 -6.555423140525817871e-02
5.320000000000000000e+02 2.717018890380859375e+01 -3.676929092407226562e+01 2.309133708477020264e-01 -3.752463683485984802e-02 5.801662057638168335e-02 -1.533325314521789551e-01
5.330000000000000000e+02 2.535016059875488281e+01 -3.826667022705078125e+01 2.018589824438095093e-01 1.828523166477680206e-02 6.604326516389846802e-02 -1.195731982588768005e-01
5.340000000000000000e+02 5.917759537696838379e-01 -1.912558937072753906e+01 3.146287926938384771e-04 -8.418998122215270996e-02 -2.516260556876659393e-02 -5.500986799597740173e-02
5.350000000000000000e+02 1.725626707077026367e+00 -2.040645599365234375e+01 2.179878531023859978e-03 -2.077871114015579224e-01 -6.168217211961746216e-02 -1.526041477918624878e-01
5.360000000000000000e+02 5.948023796081542969e+00 -2.256924438476562500e+01 1.047390252351760864e-01 -2.933443188667297363e-01 -5.658159032464027405e-02 -2.989986240863800049e-01
5.370000000000000000e+02 9.456690788269042969e+00 -2.680473327636718750e+01 2.239632159471511841e-01 -1.492668688297271729e-01 2.240890264511108398e-02 -1.648735105991363525e-01
5.380000000000000000e+02 1.351720046997070312e+01 -2.807950973510742188e+01 2.946043014526367188e-01 1.307888478040695190e-01 1.276179403066635132e-01 -2.026781737804412842e-01
5.390000000000000000e+02 1.314461135864257812e+01 -3.590506362915039062e+01 5.585987120866775513e-02 -3.520123893395066261e-03 1.570192351937294006e-02 -3.666960075497627258e-02
5.400000000000000000e+02 1.620614051818847656e+01 -3.868730545043945312e+01 4.432898759841918945e-02 9.922832250595092773e-02 4.306719452142715454e-02 -3.970837965607643127e-02
5.410000000000000000e+02 1.921797752380371094e+01 -3.975391006469726562e+01 6.844050437211990356e-02 1.461959630250930786e-01 6.439093500375747681e-02 -4.060167446732521057e-02
5.420000000000000000e+02 5.834764242172241211e-01 -2.191779708862304688e+01 4.274381790310144424e-03 -3.508055210113525391e-01 -1.039593368768692017e-01 -5.088905990123748779e-02
5.430000000000000000e+02 1.870306015014648438e+00 -2.307508087158203125e+01 1.911208406090736389e-02 -3.960656821727752686e-01 -1.130860745906829834e-01 -1.332673281431198120e-01
5.440000000000000000e+02 6.856875896453857422e+00 -3.014498329162597656e+01 9.485812485218048096e-02 -3.247745633125305176e-01 -6.897492706775665283e-02 -7.874082028865814209e-02
5.450000000000000000e+02 8.354887962341308594e+00 -3.073318099975585938e+01 1.168156191706657410e-01 -2.306852489709854126e-01 -3.416088968515396118e-02 -7.814352214336395264e-02
5.460000000000000000e+02 8.796202659606933594e+00 -3.408370590209960938e+01 6.088029220700263977e-02 -2.158893495798110962e-01 -4.650271683931350708e-02 -3.387486934661865234e-02
5.470000000000000000e+02 1.277665042877197266e+01 -3.861751937866210938e+01 2.108034491539001465e-02 -1.899185590445995331e-02 6.265466217882931232e-04 -1.643315702676773071e-02
5.480000000000000000e+02 1.677790451049804688e+01 -4.123198318481445312e+01 3.220709413290023804e-02 1.022094562649726868e-01 4.032496735453605652e-02 -1.218860223889350891e-02
5.490000000000000000e+02 6.767221093177795410e-01 -2.756332588195800781e+01 5.869510583579540253e-03 -6.927164196968078613e-01 -2.060540765523910522e-01 -2.287892624735832214e-02
5.500000000000000000e+02 2.077086925506591797e+00 -2.877966499328613281e+01 1.639506593346595764e-02 -6.124603152275085449e-01 -1.788195669651031494e-01 -5.110853910446166992e-02
5.510000000000000000e+02 6.133479118347167969e+00 -3.144258308410644531e+01 6.408155709505081177e-02 -3.618337512016296387e-01 -8.932565152645111084e-02 -5.186481028795242310e-02
5.520000000000000000e+02 6.179745674133300781e+00 -3.369019699096679688e+01 4.774207994341850281e-02 -3.690649569034576416e-01 -9.639686346054077148e-02 -2.564222365617752075e-02
5.530000000000000000e+02 9.393711090087890625e+00 -3.810275650024414062e+01 1.084489747881889343e-02 -1.941588819026947021e-01 -5.499419569969177246e-02 -8.736818097531795502e-03
5.540000000000000000e+02 1.254140090942382812e+01 -4.124188995361328125e+01 -2.237330591015052050e-05 -2.801550552248954773e-02 -8.411363698542118073e-03 -2.586650894954800606e-03
5.550000000000000000e+02 7.032800912857055664e-01 -2.898007774353027344e+01 4.166699072811752558e-04 -7.339062094688415527e-01 -2.200468480587005615e-01 -1.715920679271221161e-02
5.560000000000000000e+02 2.220284700393676758e+00 -3.021326255798339844e+01 1.553338579833507538e-02 -6.260703802108764648e-01 -1.831610947847366333e-01 -3.641090542078018188e-02
5.570000000000000000e+02 8.391926884651184082e-01 -3.471420288085937500e+01 1.753574120812118053e-03 -7.728694677352905273e-01 -2.313347607851028442e-01 6.132793612778186798e-03
5.580000000000000000e+02 8.251329660415649414e-01 -3.614123535156250000e+01 -4.380938131362199783e-03 -7.646867036819458008e-01 -2.307202965021133423e-01 3.945937845855951309e-03
5.590000000000000000e+02 1.259732842445373535e+00 -3.998104095458984375e+01 1.349607482552528381e-02 -6.973806023597717285e-01 -2.051653563976287842e-01 2.528957650065422058e-02
5.600000000000000000e+02 5.042640209197998047e+00 -4.007144927978515625e+01 -1.166761387139558792e-02 -4.870314300060272217e-01 -1.496097147464752197e-01 -1.489225216209888458e-02
5.610000000000000000e+02 8.198419570922851562e+00 -4.103737640380859375e+01 -9.528079070150852203e-03 -2.741950154304504395e-01 -8.511692285537719727e-02 -2.380651189014315605e-03
5.620000000000000000e+02 6.582934379577636719e+00 -3.745466995239257812e+01 1.609773933887481689e-02 -3.413394391536712646e-01 -9.757250547409057617e-02 -7.575485855340957642e-03
5.630000000000000000e+02 5.158600807189941406e+00 -3.494532775878906250e+01 2.089308947324752808e-02 -4.481846690177917480e-01 -1.281874775886535645e-01 -1.285426877439022064e-02
5.640000000000000000e+02 2.530433177947998047e+00 -3.466975402832031250e+01 1.205749996006488800e-02 -6.500923633575439453e-01 -1.914104670286178589e-01 2.932099625468254089e-03
5.650000000000000000e+02 2.021792888641357422e+00 -4.158900451660156250e+01 -2.782106399536132812e-02 -6.863731741905212402e-01 -2.142582833766937256e-01 7.895298302173614502e-03
5.660000000000000000e+02 3.312849426269531250e+01 -4.076954269409179688e+01 3.952947258949279785e-01 -2.507935464382171631e-01 4.335035383701324463e-02 -3.268135339021682739e-02
5.670000000000000000e+02 3.414391326904296875e+01 -3.756282043457031250e+01 4.030699431896209717e-01 -3.077207803726196289e-01 2.860474959015846252e-02 -8.313206583261489868e-02
5.680000000000000000e+02 3.436314773559570312e+01 -3.037653541564941406e+01 7.656779885292053223e-02 -6.264201998710632324e-01 -1.649557203054428101e-01 -1.965235322713851929e-01
5.690000000000000000e+02 3.582080078125000000e+01 -2.729182434082031250e+01 -2.601581811904907227e-01 -9.134225845336914062e-01 -3.520742356777191162e-01 -3.245016336441040039e-01
5.700000000000000000e+02 3.725012969970703125e+01 -2.579178619384765625e+01 -2.132145017385482788e-01 -6.965162158012390137e-01 -2.729192078113555908e-01 -1.797513812780380249e-01
5.710000000000000000e+02 3.617179489135742188e+01 -2.320819282531738281e+01 -1.286291033029556274e-01 -1.285534977912902832e+00 -4.242492020130157471e-01 -2.634399235248565674e-01
5.720000000000000000e+02 3.740253829956054688e+01 -1.907121467590332031e+01 2.741688787937164307e-01 -4.035104811191558838e-01 -3.880248963832855225e-02 -4.657450020313262939e-01
5.730000000000000000e+02 3.615235900878906250e+01 -2.041547012329101562e+01 -1.636953093111515045e-02 -7.261663675308227539e-01 -2.227607667446136475e-01 -1.258834749460220337e-01
5.740000000000000000e+02 3.748068237304687500e+01 -1.784545135498046875e+01 4.637213349342346191e-01 -3.965658247470855713e-01 2.014665305614471436e-02 -4.110620915889739990e-01
5.750000000000000000e+02 3.664456176757812500e+01 -1.526095199584960938e+01 6.336404085159301758e-01 -2.311393767595291138e-01 1.207503154873847961e-01 -1.854259967803955078e-01
5.760000000000000000e+02 3.380133056640625000e+01 -1.066176319122314453e+01 -1.891219019889831543e-01 -6.554453074932098389e-02 -7.639992982149124146e-02 -8.896534144878387451e-02
5.770000000000000000e+02 3.496269607543945312e+01 -1.319613838195800781e+01 4.154812693595886230e-01 -5.998627096414566040e-02 1.066485047340393066e-01 -4.576990008354187012e-02
5.780000000000000000e+02 3.128844833374023438e+01 -1.496960353851318359e+01 1.302443504333496094e+00 1.584540158510208130e-01 4.382692575454711914e-01 -3.216384947299957275e-01
5.790000000000000000e+02 3.327348327636718750e+01 -1.567471981048583984e+01 1.424922704696655273e+00 4.285253584384918213e-01 5.560344457626342773e-01 -5.716887712478637695e-01
5.800000000000000000e+02 3.420396804809570312e+01 -1.647834014892578125e+01 9.569868445396423340e-01 5.189355015754699707e-01 4.427767097949981689e-01 -6.448733210563659668e-01
5.810000000000000000e+02 3.509633255004882812e+01 -1.732123756408691406e+01 5.454190969467163086e-01 2.397522777318954468e-01 2.355514168739318848e-01 -4.287368357181549072e-01
5.820000000000000000e+02 3.655323791503906250e+01 -1.647266387939453125e+01 7.104644179344177246e-01 -2.359880357980728149e-01 1.423429250717163086e-01 -3.316485583782196045e-01
5.830000000000000000e+02 3.781081390380859375e+01 -3.807585525512695312e+01 4.299683570861816406e-01 -2.574584782123565674e-01 5.175296217203140259e-02 -8.709887042641639709e-03
5.840000000000000000e+02 3.786965179443359375e+01 -3.523624420166015625e+01 3.850623667240142822e-01 -3.105291426181793213e-01 2.235997281968593597e-02 -1.362042687833309174e-02
5.850000000000000000e+02 3.793553924560546875e+01 -3.044623184204101562e+01 1.744405925273895264e-01 -4.028480052947998047e-01 -6.852222979068756104e-02 -3.900068579241633415e-03
5.860000000000000000e+02 3.554473876953125000e+01 -2.579814720153808594e+01 -3.089089095592498779e-01 -1.219888210296630859e+00 -4.586391448974609375e-01 -4.815301895141601562e-01
5.870000000000000000e+02 4.708245849609375000e+01 -4.092023468017578125e+01 4.976944923400878906e-01 1.268574148416519165e-01 1.873655766248703003e-01 -1.678447797894477844e-02
5.880000000000000000e+02 4.630070495605468750e+01 -3.771988677978515625e+01 4.514037966728210449e-01 1.405450105667114258e-01 1.775846481323242188e-01 -6.113136932253837585e-02
5.890000000000000000e+02 4.629815673828125000e+01 -3.456394958496093750e+01 3.389149308204650879e-01 2.112343758344650269e-01 1.650447845458984375e-01 -9.210744500160217285e-02
5.900000000000000000e+02 4.659738922119140625e+01 -3.057840347290039062e+01 2.347502261400222778e-01 4.368435740470886230e-01 2.014781385660171509e-01 -1.620231568813323975e-01
5.910000000000000000e+02 4.572146224975585938e+01 -2.576733970642089844e+01 2.908842265605926514e-01 5.977051854133605957e-01 2.665768265724182129e-01 -2.453569471836090088e-01
5.920000000000000000e+02 4.740425109863281250e+01 -2.473185920715332031e+01 4.906535446643829346e-01 1.042417407035827637e+00 4.599212706089019775e-01 -5.890463590621948242e-01
5.930000000000000000e+02 4.470618057250976562e+01 -2.431988525390625000e+01 2.840543389320373535e-01 5.102472305297851562e-01 2.382904589176177979e-01 -2.510758042335510254e-01
5.940000000000000000e+02 4.638380432128906250e+01 -2.284240150451660156e+01 2.937080860137939453e-01 1.173939704895019531e+00 4.402943253517150879e-01 -4.359459877014160156e-01
5.950000000000000000e+02 4.617701721191406250e+01 -2.152659416198730469e+01 9.263696521520614624e-02 1.028753757476806641e+00 3.364172279834747314e-01 -2.849607467651367188e-01
5.960000000000000000e+02 4.471377944946289062e+01 -1.830238151550292969e+01 8.492954820394515991e-02 3.696867525577545166e-01 1.363848894834518433e-01 -2.564552426338195801e-01
5.970000000000000000e+02 4.384872817993164062e+01 -1.661787414550781250e+01 1.160890832543373108e-01 1.328901946544647217e-01 7.469378411769866943e-02 -2.312069684267044067e-01
5.980000000000000000e+02 4.563804626464843750e+01 -1.433816242218017578e+01 2.448796108365058899e-02 1.207608282566070557e-01 4.357463866472244263e-02 -2.123300917446613312e-02
5.990000000000000000e+02 5.161720657348632812e+01 -4.068795394897460938e+01 6.145831346511840820e-01 3.270628750324249268e-01 2.824937999248504639e-01 -5.177025496959686279e-02
6.000000000000000000e+02 5.019220352172851562e+01 -3.740967559814453125e+01 4.941743612289428711e-01 2.907157838344573975e-01 2.354670464992523193e-01 -1.354574114084243774e-01
6.010000000000000000e+02 4.949933624267578125e+01 -3.474584960937500000e+01 4.127676486968994141e-01 3.246986865997314453e-01 2.212399095296859741e-01 -1.965730190277099609e-01
6.020000000000000000e+02 5.118224716186523438e+01 -2.857536506652832031e+01 6.033318042755126953e-01 4.474235475063323975e-01 3.152266144752502441e-01 -4.384249746799468994e-01
6.030000000000000000e+02 5.385702514648437500e+01 -2.984350967407226562e+01 3.382368981838226318e-01 1.176080703735351562e-01 1.367534846067428589e-01 -2.123093903064727783e-01
6.040000000000000000e+02 5.013202667236328125e+01 -2.761115074157714844e+01 5.238026380538940430e-01 5.364069938659667969e-01 3.180628716945648193e-01 -4.997181892395019531e-01
6.050000000000000000e+02 5.151421356201171875e+01 -3.103001594543457031e+01 3.406505882740020752e-01 4.024574458599090576e-01 2.229324132204055786e-01 -3.308772444725036621e-01
6.060000000000000000e+02 5.327268981933593750e+01 -3.624608612060546875e+01 5.631641149520874023e-01 3.308852016925811768e-01 2.682147920131683350e-01 -1.912832558155059814e-01
6.070000000000000000e+02 5.538169097900390625e+01 -3.008811378479003906e+01 1.885279864072799683e-01 6.591199338436126709e-02 7.633199542760848999e-02 -1.464672982692718506e-01
6.080000000000000000e+02 5.513251495361328125e+01 -3.918160247802734375e+01 6.843754649162292480e-01 4.833342432975769043e-01 3.503129184246063232e-01 -5.576607584953308105e-02
6.090000000000000000e+02 5.733578109741210938e+01 -3.696691513061523438e+01 6.991276144981384277e-01 6.129360198974609375e-01 3.936190903186798096e-01 -3.255268931388854980e-02
6.100000000000000000e+02 5.585853195190429688e+01 -3.483443832397460938e+01 6.172710657119750977e-01 3.820214867591857910e-01 2.997877597808837891e-01 -1.469325721263885498e-01
6.110000000000000000e+02 5.978967666625976562e+01 -2.917159652709960938e+01 -9.721515700221061707e-03 1.561705917119979858e-01 4.393472522497177124e-02 9.637989103794097900e-02
6.120000000000000000e+02 5.901955032348632812e+01 -3.131088447570800781e+01 3.930155038833618164e-01 3.151909112930297852e-01 2.124619334936141968e-01 1.480203717947006226e-01
6.130000000000000000e+02 5.693073272705078125e+01 -3.000163459777832031e+01 4.291895776987075806e-02 3.468551486730575562e-02 2.328134141862392426e-02 -8.485624939203262329e-02
6.140000000000000000e+02 5.837197113037109375e+01 -4.088790130615234375e+01 7.094362378120422363e-01 8.619606494903564453e-01 4.714190661907196045e-01 1.856765337288379669e-02
6.150000000000000000e+02 5.970840835571289062e+01 -3.795619964599609375e+01 6.627852320671081543e-01 1.017587065696716309e+00 5.041116476058959961e-01 1.074576079845428467e-01
6.160000000000000000e+02 5.940945434570312500e+01 -3.572004699707031250e+01 6.421435475349426270e-01 8.801324963569641113e-01 4.566828310489654541e-01 1.487956047058105469e-01
6.170000000000000000e+02 6.421665191650390625e+01 -3.014315032958984375e+01 2.236687093973159790e-01 1.873932480812072754e+00 6.292803287506103516e-01 7.502137422561645508e-01
6.180000000000000000e+02 6.317533111572265625e+01 -2.666246604919433594e+01 4.414665699005126953e-01 7.577723264694213867e-01 3.597716689109802246e-01 5.923359990119934082e-01
6.190000000000000000e+02 6.684194183349609375e+01 -2.498758316040039062e+01 5.117058157920837402e-01 3.446235418319702148e+00 1.187382340431213379e+00 1.451312541961669922e+00
6.200000000000000000e+02 7.007054901123046875e+01 -2.374585914611816406e+01 4.375794231891632080e-01 5.119716644287109375e+00 1.667188763618469238e+00 5.768298506736755371e-01
6.210000000000000000e+02 7.548174285888671875e+01 -2.572597312927246094e+01 5.565860494971275330e-02 5.262747764587402344e+00 1.595521807670593262e+00 8.615634869784116745e-04
6.220000000000000000e+02 7.801103210449218750e+01 -2.467869186401367188e+01 4.101185873150825500e-02 5.417317390441894531e+00 1.637498855590820312e+00 -1.896551065146923065e-02
6.230000000000000000e+02 7.935691833496093750e+01 -2.074829673767089844e+01 2.194956131279468536e-02 5.571867465972900391e+00 1.678145051002502441e+00 6.281641870737075806e-02
6.240000000000000000e+02 7.806421661376953125e+01 -2.045534515380859375e+01 7.855173945426940918e-02 5.627959728240966797e+00 1.711953401565551758e+00 2.183802425861358643e-01
6.250000000000000000e+02 7.935694122314453125e+01 -1.935040664672851562e+01 1.320332102477550507e-02 5.750506877899169922e+00 1.729113101959228516e+00 1.030642762780189514e-01
6.260000000000000000e+02 7.819972229003906250e+01 -1.618605613708496094e+01 3.483282402157783508e-02 6.284258365631103516e+00 1.895727396011352539e+00 4.239818751811981201e-01
6.270000000000000000e+02 7.625149536132812500e+01 -1.372018718719482422e+01 -4.447302967309951782e-02 6.330497741699218750e+00 1.885807394981384277e+00 7.746154665946960449e-01
6.280000000000000000e+02 7.051157379150390625e+01 -1.081818962097167969e+01 -5.052852034568786621e-01 4.271204948425292969e+00 1.129775881767272949e+00 4.272679388523101807e-01
6.290000000000000000e+02 7.310323333740234375e+01 -1.383958244323730469e+01 -1.558486968278884888e-01 5.579029083251953125e+00 1.626954078674316406e+00 9.784576296806335449e-01
6.300000000000000000e+02 6.991821289062500000e+01 -1.498089313507080078e+01 -1.515533179044723511e-01 5.137810230255126953e+00 1.495877027511596680e+00 6.733395457267761230e-01
6.310000000000000000e+02 6.889794158935546875e+01 -1.156764125823974609e+01 -6.825293302536010742e-01 3.458127021789550781e+00 8.326793313026428223e-01 1.448102742433547974e-01
6.320000000000000000e+02 6.821459960937500000e+01 -1.272579765319824219e+01 -8.633551001548767090e-01 3.344442844390869141e+00 7.443263530731201172e-01 1.168504282832145691e-01
6.330000000000000000e+02 6.275998687744140625e+01 -4.112223434448242188e+01 5.844130516052246094e-01 1.701420783996582031e+00 6.857501268386840820e-01 6.193502619862556458e-02
6.340000000000000000e+02 6.321662902832031250e+01 -3.823324584960937500e+01 5.280813574790954590e-01 1.728649497032165527e+00 6.770192980766296387e-01 2.162543386220932007e-01
6.350000000000000000e+02 6.727352142333984375e+01 -3.177346038818359375e+01 9.109223634004592896e-02 3.004300594329833984e+00 9.286178350448608398e-01 6.265700459480285645e-01
6.360000000000000000e+02 6.752796173095703125e+01 -2.598324012756347656e+01 1.406526267528533936e-01 3.673840045928955078e+00 1.144347786903381348e+00 9.343752264976501465e-01
6.370000000000000000e+02 6.605695343017578125e+01 -2.783326530456542969e+01 1.911087334156036377e-01 2.667303323745727539e+00 8.575236201286315918e-01 9.636854529380798340e-01
6.380000000000000000e+02 6.738812255859375000e+01 -4.120959472656250000e+01 3.312102258205413818e-01 2.844542264938354492e+00 9.527257680892944336e-01 7.062027603387832642e-02
6.390000000000000000e+02 6.726042938232421875e+01 -3.843759536743164062e+01 2.942629754543304443e-01 2.865000009536743164e+00 9.477788805961608887e-01 2.338282167911529541e-01
6.400000000000000000e+02 6.702082824707031250e+01 -3.564711761474609375e+01 2.307055741548538208e-01 2.849294185638427734e+00 9.239999651908874512e-01 3.942937254905700684e-01
6.410000000000000000e+02 6.936041259765625000e+01 -2.989280700683593750e+01 -3.232273459434509277e-02 3.793573617935180664e+00 1.128375291824340820e+00 5.209012627601623535e-01
6.420000000000000000e+02 6.934688568115234375e+01 -2.666374969482421875e+01 6.460846401751041412e-03 4.245204448699951172e+00 1.275499582290649414e+00 6.059463024139404297e-01
6.430000000000000000e+02 7.159281158447265625e+01 -2.813190269470214844e+01 -7.026568800210952759e-02 4.618029117584228516e+00 1.364328980445861816e+00 2.890659868717193604e-01
6.440000000000000000e+02 7.185417938232421875e+01 -4.118948364257812500e+01 1.161420866847038269e-01 3.994274616241455078e+00 1.233125090599060059e+00 4.247321560978889465e-02
6.450000000000000000e+02 7.098775482177734375e+01 -3.855668640136718750e+01 1.259590983390808105e-01 3.812932968139648438e+00 1.181667566299438477e+00 1.553245931863784790e-01
6.460000000000000000e+02 7.255416870117187500e+01 -3.452623748779296875e+01 -1.107957586646080017e-02 4.289467811584472656e+00 1.283516526222229004e+00 2.158664017915725708e-01
6.470000000000000000e+02 7.310897064208984375e+01 -2.974304389953613281e+01 -8.400527387857437134e-02 4.738409996032714844e+00 1.396321415901184082e+00 1.708972901105880737e-01
6.480000000000000000e+02 7.441493988037109375e+01 -2.921378326416015625e+01 -5.644582211971282959e-02 5.002587795257568359e+00 1.483842492103576660e+00 5.759345367550849915e-02
6.490000000000000000e+02 7.536606597900390625e+01 -2.703530693054199219e+01 1.565858349204063416e-02 5.201621532440185547e+00 1.565183997154235840e+00 -7.436984684318304062e-03
6.500000000000000000e+02 7.497206878662109375e+01 -4.047473907470703125e+01 6.021437048912048340e-02 4.738772869110107422e+00 1.439696073532104492e+00 -2.373827621340751648e-02
6.510000000000000000e+02 7.363108825683593750e+01 -3.853404998779296875e+01 4.198609665036201477e-02 4.382961273193359375e+00 1.327484250068664551e+00 4.074738547205924988e-02
6.520000000000000000e+02 7.782646179199218750e+01 -3.177376937866210938e+01 -2.148425206542015076e-02 5.373748302459716797e+00 1.605679273605346680e+00 -9.932186454534530640e-03
6.530000000000000000e+02 7.930589294433593750e+01 -2.775371742248535156e+01 -8.900892920792102814e-03 5.522939682006835938e+00 1.654211521148681641e+00 -2.752362750470638275e-02
6.540000000000000000e+02 7.793746185302734375e+01 -2.752571868896484375e+01 5.680327303707599640e-03 5.399492740631103516e+00 1.621551990509033203e+00 -5.255476757884025574e-02
6.550000000000000000e+02 7.933401489257812500e+01 -2.494501495361328125e+01 -1.666438300162553787e-03 5.438210964202880859e+00 1.630963444709777832e+00 -1.441398262977600098e-02
6.560000000000000000e+02 7.796829223632812500e+01 -4.166185760498046875e+01 8.265163004398345947e-02 5.312975883483886719e+00 1.618688344955444336e+00 2.311727218329906464e-02
6.570000000000000000e+02 7.918785858154296875e+01 -3.745389556884765625e+01 -2.630579471588134766e-02 5.508086681365966797e+00 1.644534230232238770e+00 3.846895322203636169e-02
6.580000000000000000e+02 7.733957672119140625e+01 -3.816766738891601562e+01 -3.941766917705535889e-02 5.212652206420898438e+00 1.551970362663269043e+00 7.880990952253341675e-02
6.590000000000000000e+02 7.925502777099609375e+01 -3.473270416259765625e+01 -8.247922174632549286e-03 5.600466728210449219e+00 1.677665710449218750e+00 1.926508173346519470e-02
6.600000000000000000e+02 7.622311401367187500e+01 -3.432751846313476562e+01 -4.516047984361648560e-02 5.018947124481201172e+00 1.492136120796203613e+00 5.643455684185028076e-02
6.610000000000000000e+02 7.774720764160156250e+01 -3.453196334838867188e+01 -2.850602194666862488e-02 5.344786167144775391e+00 1.594884037971496582e+00 2.053357288241386414e-02
6.620000000000000000e+02 7.941991424560546875e+01 -1.516103935241699219e+01 -4.576775711029767990e-03 6.692201614379882812e+00 2.006287336349487305e+00 1.595693975687026978e-01
6.630000000000000000e+02 7.827419281005859375e+01 -1.483209037780761719e+01 -9.704827680252492428e-04 6.567138195037841797e+00 1.969850301742553711e+00 4.407607614994049072e-01
6.640000000000000000e+02 7.428652191162109375e+01 -9.627695083618164062e+00 -2.147326022386550903e-01 5.926276206970214844e+00 1.713463187217712402e+00 6.770825386047363281e-01
6.650000000000000000e+02 7.075296020507812500e+01 -8.689759254455566406e+00 -2.619246840476989746e-01 4.141038894653320312e+00 1.163734316825866699e+00 4.037245810031890869e-01
6.660000000000000000e+02 7.941290283203125000e+01 -1.241207695007324219e+01 -2.675303723663091660e-03 7.455105781555175781e+00 2.235729217529296875e+00 1.449376940727233887e-01
6.670000000000000000e+02 7.822755432128906250e+01 -1.079855155944824219e+01 -3.584647923707962036e-02 7.366182804107666016e+00 2.199100971221923828e+00 3.742236196994781494e-01
6.680000000000000000e+02 7.594573211669921875e+01 -9.110659599304199219e+00 -1.263875365257263184e-01 6.635160446166992188e+00 1.952631831169128418e+00 5.726980566978454590e-01
6.690000000000000000e+02 7.124528503417968750e+01 -2.982423067092895508e+00 1.275360882282257080e-01 4.061076164245605469e+00 1.256583690643310547e+00 5.786204338073730469e-01
6.700000000000000000e+02 7.171398925781250000e+01 -7.224562644958496094e+00 -1.359222382307052612e-01 4.552531719207763672e+00 1.324982881546020508e+00 4.794395565986633301e-01
6.710000000000000000e+02 7.940398406982421875e+01 -9.636449813842773438e+00 -4.003627225756645203e-03 8.111091613769531250e+00 2.432126522064208984e+00 1.105785667896270752e-01
6.720000000000000000e+02 7.814341735839843750e+01 -6.664213180541992188e+00 -1.532239746302366257e-02 7.977143764495849609e+00 2.388546466827392578e+00 2.841143608093261719e-01
6.730000000000000000e+02 7.435005950927734375e+01 -1.616468071937561035e+00 6.886985152959823608e-02 6.096383571624755859e+00 1.849575996398925781e+00 6.017447113990783691e-01
6.740000000000000000e+02 7.116488647460937500e+01 -1.412657350301742554e-01 1.382688879966735840e-01 3.897688388824462891e+00 1.210787177085876465e+00 6.580917239189147949e-01
6.750000000000000000e+02 7.251327514648437500e+01 -2.775053977966308594e+00 1.161428615450859070e-01 4.863284587860107422e+00 1.493828296661376953e+00 5.966675281524658203e-01
6.760000000000000000e+02 7.937134552001953125e+01 -5.468325614929199219e+00 -2.097729360684752464e-03 8.852012634277343750e+00 2.654974460601806641e+00 8.370184898376464844e-02
6.770000000000000000e+02 7.808927154541015625e+01 -3.870542049407958984e+00 6.204152596183121204e-04 8.323624610900878906e+00 2.497273445129394531e+00 2.687774598598480225e-01
6.780000000000000000e+02 7.567080688476562500e+01 -5.797027349472045898e-01 4.541286081075668335e-02 7.073363780975341797e+00 2.135632991790771484e+00 5.764885544776916504e-01
6.790000000000000000e+02 7.586151885986328125e+01 2.161345005035400391e+00 2.175384387373924255e-02 7.407700061798095703e+00 2.228836059570312500e+00 5.985177159309387207e-01
6.800000000000000000e+02 7.450222778320312500e+01 -3.098772764205932617e-01 6.989183276891708374e-02 6.255558490753173828e+00 1.897635102272033691e+00 6.252515316009521484e-01
6.810000000000000000e+02 7.936408233642578125e+01 -2.679175615310668945e+00 -9.784242865862324834e-05 9.304310798645019531e+00 2.791263818740844727e+00 8.314422518014907837e-02
6.820000000000000000e+02 7.815890502929687500e+01 3.421616852283477783e-01 1.019477751106023788e-02 8.960154533386230469e+00 2.691104888916015625e+00 3.028721809387207031e-01
6.830000000000000000e+02 7.702127838134765625e+01 1.947491765022277832e+00 1.334048248827457428e-02 8.309966087341308594e+00 2.496991872787475586e+00 4.779299497604370117e-01
6.840000000000000000e+02 7.837772369384765625e+01 7.189686775207519531e+00 -3.837489336729049683e-02 1.023640632629394531e+01 3.059409379959106445e+00 2.343221902847290039e-01
6.850000000000000000e+02 7.612138366699218750e+01 7.493833541870117188e+00 -1.559582203626632690e-01 8.075084686279296875e+00 2.375737905502319336e+00 4.836105704307556152e-01
6.860000000000000000e+02 7.625191497802734375e+01 1.009512710571289062e+01 -3.416266143321990967e-01 8.460739135742187500e+00 2.435733795166015625e+00 2.579891979694366455e-01
6.870000000000000000e+02 7.948052215576171875e+01 1.527313995361328125e+01 -2.773123979568481445e-01 9.485079765319824219e+00 2.762330293655395508e+00 -8.436433076858520508e-01
6.880000000000000000e+02 7.943804168701171875e+01 1.674791526794433594e+01 -1.846138685941696167e-01 6.868700504302978516e+00 2.005226135253906250e+00 -1.417889118194580078e+00
6.890000000000000000e+02 7.653229522705078125e+01 1.810804176330566406e+01 1.072749271988868713e-01 1.873843955993652344e+01 5.653714179992675781e+00 -2.073071479797363281e+00
6.900000000000000000e+02 7.705314636230468750e+01 2.044992446899414062e+01 3.629561424255371094e+00 1.598966503143310547e+01 5.885767936706542969e+00 3.506702899932861328e+00
6.910000000000000000e+02 7.950618743896484375e+01 2.372099494934082031e+01 -1.453652232885360718e-01 8.739012718200683594e+00 2.578094244003295898e+00 6.389577388763427734e-01
6.920000000000000000e+02 7.578303527832031250e+01 2.646881484985351562e+01 -7.241128683090209961e-01 7.881262779235839844e+00 2.147145032882690430e+00 -9.755509495735168457e-01
6.930000000000000000e+02 7.248040771484375000e+01 3.178141784667968750e+01 3.945032656192779541e-01 4.504706859588623047e+00 1.469763040542602539e+00 -1.020510792732238770e+00
6.940000000000000000e+02 6.489127349853515625e+01 3.482065582275390625e+01 9.176583290100097656e-01 1.264912605285644531e+00 6.547712683677673340e-01 -1.961631625890731812e-01
6.950000000000000000e+02 6.389651870727539062e+01 3.779291534423828125e+01 1.027682542800903320e+00 1.177674889564514160e+00 6.616072058677673340e-01 -7.671312987804412842e-02
6.960000000000000000e+02 6.293712234497070312e+01 4.091836547851562500e+01 1.144940137863159180e+00 1.013024806976318359e+00 6.473894715309143066e-01 -1.240468211472034454e-02
6.970000000000000000e+02 5.865528869628906250e+01 4.042447280883789062e+01 1.045980453491210938e+00 1.907411515712738037e-01 3.710164725780487061e-01 6.173647940158843994e-02
6.980000000000000000e+02 5.556523513793945312e+01 3.827445602416992188e+01 8.524709343910217285e-01 -1.115414947271347046e-01 2.222788333892822266e-01 1.837463080883026123e-01
6.990000000000000000e+02 5.376270675659179688e+01 3.483502578735351562e+01 5.205099582672119141e-01 -2.159309834241867065e-01 9.137369692325592041e-02 3.956719338893890381e-01
7.000000000000000000e+02 5.391312789916992188e+01 2.782963752746582031e+01 -4.097806215286254883e-01 -1.255328208208084106e-01 -1.605940312147140503e-01 5.396227240562438965e-01
7.010000000000000000e+02 5.209270858764648438e+01 2.253414535522460938e+01 -7.948618531227111816e-01 2.277901582419872284e-02 -2.316248565912246704e-01 6.330044567584991455e-02
7.020000000000000000e+02 5.355123519897460938e+01 2.115480232238769531e+01 -1.019811749458312988e+00 -1.744492202997207642e-01 -3.582783043384552002e-01 -2.794940173625946045e-01
7.030000000000000000e+02 5.491030883789062500e+01 2.174183273315429688e+01 -1.312749981880187988e+00 -1.105208694934844971e-01 -4.269812703132629395e-01 -2.396205812692642212e-01
7.040000000000000000e+02 5.889759063720703125e+01 2.298167037963867188e+01 -2.580405950546264648e+00 -1.555405408143997192e-01 -8.207839727401733398e-01 5.450313538312911987e-02
7.050000000000000000e+02 5.869319915771484375e+01 2.569137382507324219e+01 -1.010943651199340820e+00 -2.760150432586669922e-01 -3.860875964164733887e-01 6.000744104385375977e-01
7.060000000000000000e+02 5.638170242309570312e+01 3.285871124267578125e+01 4.341576695442199707e-01 -1.760104745626449585e-01 7.744415104389190674e-02 4.748036563396453857e-01
7.070000000000000000e+02 5.827879714965820312e+01 3.499295425415039062e+01 7.999995946884155273e-01 3.047245927155017853e-02 2.491416186094284058e-01 3.103606700897216797e-01
7.080000000000000000e+02 6.072037124633789062e+01 3.674708175659179688e+01 9.748440980911254883e-01 4.221908748149871826e-01 4.191105067729949951e-01 1.254485398530960083e-01
7.090000000000000000e+02 7.881059265136718750e+01 4.017399597167968750e+01 -9.830896556377410889e-02 7.098698139190673828e+00 2.100116729736328125e+00 -2.038985490798950195e-01
7.100000000000000000e+02 7.803810119628906250e+01 4.166949081420898438e+01 2.439296692609786987e-01 6.985472202301025391e+00 2.168820619583129883e+00 -6.842871755361557007e-02
7.110000000000000000e+02 7.925139617919921875e+01 3.751267242431640625e+01 2.753425948321819305e-02 7.595459938049316406e+00 2.286898136138916016e+00 -1.509723514318466187e-01
7.120000000000000000e+02 7.924420166015625000e+01 3.202124023437500000e+01 1.510672736912965775e-02 8.816145896911621094e+00 2.649375915527343750e+00 -2.036666125059127808e-01
7.130000000000000000e+02 7.937340545654296875e+01 2.788124847412109375e+01 -3.677059337496757507e-02 1.000681400299072266e+01 2.991013050079345703e+00 -1.218997761607170105e-01
7.140000000000000000e+02 7.678479003906250000e+01 2.086630630493164062e+01 8.610253334045410156e-01 1.763676834106445312e+01 5.549338340759277344e+00 2.767660617828369141e+00
7.150000000000000000e+02 7.928936767578125000e+01 3.063513183593750000e+01 -1.517250761389732361e-02 9.225986480712890625e+00 2.763244152069091797e+00 -2.050645798444747925e-01
7.160000000000000000e+02 7.760574340820312500e+01 3.334495162963867188e+01 7.813806831836700439e-02 7.585764884948730469e+00 2.299170732498168945e+00 -5.311514139175415039e-01
7.170000000000000000e+02 7.480416107177734375e+01 3.616961288452148438e+01 2.735907137393951416e-01 5.835994720458984375e+00 1.832875609397888184e+00 -5.619823932647705078e-01
7.180000000000000000e+02 7.312670135498046875e+01 3.489357757568359375e+01 4.332896769046783447e-01 4.900826930999755859e+00 1.600234985351562500e+00 -7.180126905441284180e-01
7.190000000000000000e+02 7.505251312255859375e+01 3.005053901672363281e+01 4.787714034318923950e-02 6.442005157470703125e+00 1.946964740753173828e+00 -9.482994675636291504e-01
7.200000000000000000e+02 7.286370086669921875e+01 2.832126235961914062e+01 1.581024378538131714e-02 4.752146244049072266e+00 1.430386900901794434e+00 -1.303474426269531250e+00
7.210000000000000000e+02 7.198432159423828125e+01 4.113699722290039062e+01 5.641966462135314941e-01 4.475712776184082031e+00 1.511972784996032715e+00 -1.166834160685539246e-01
7.220000000000000000e+02 7.079878234863281250e+01 3.561706161499023438e+01 6.196895837783813477e-01 3.756115913391113281e+00 1.312741637229919434e+00 -6.636812090873718262e-01
7.230000000000000000e+02 6.749361419677734375e+01 4.114441680908203125e+01 9.686365723609924316e-01 2.493667125701904297e+00 1.038691163063049316e+00 -9.292090684175491333e-02
7.240000000000000000e+02 6.758209991455078125e+01 3.833061599731445312e+01 9.310550093650817871e-01 2.435198545455932617e+00 1.009876132011413574e+00 -2.744046747684478760e-01
7.250000000000000000e+02 6.782100677490234375e+01 3.548242950439453125e+01 8.368762731552124023e-01 2.360780000686645508e+00 9.592968821525573730e-01 -4.393609166145324707e-01
7.260000000000000000e+02 5.181763458251953125e+01 4.030865097045898438e+01 7.486750483512878418e-01 -2.328170686960220337e-01 1.547573953866958618e-01 1.193667948246002197e-01
7.270000000000000000e+02 5.072085189819335938e+01 3.644210052490234375e+01 5.007210373878479004e-01 -2.304839938879013062e-01 8.107111603021621704e-02 3.099524676799774170e-01
7.280000000000000000e+02 4.905254364013671875e+01 3.407791137695312500e+01 2.572463452816009521e-01 -1.883586496114730835e-01 2.066631242632865906e-02 3.812184631824493408e-01
7.290000000000000000e+02 4.863835906982421875e+01 3.001656150817871094e+01 -8.049234002828598022e-02 -7.833869010210037231e-02 -4.764930903911590576e-02 4.072937965393066406e-01
7.300000000000000000e+02 4.798551940917968750e+01 2.624029731750488281e+01 -3.552203178405761719e-01 4.120057076215744019e-02 -9.420593082904815674e-02 3.129175007343292236e-01
7.310000000000000000e+02 5.241463851928710938e+01 2.027414512634277344e+01 -5.724204778671264648e-01 -1.761949211359024048e-01 -2.245846241712570190e-01 -2.608186602592468262e-01
7.320000000000000000e+02 4.938382720947265625e+01 1.860193824768066406e+01 -2.097376286983489990e-01 -1.136318221688270569e-02 -6.633024662733078003e-02 -9.671903401613235474e-02
7.330000000000000000e+02 5.155141830444335938e+01 1.910159111022949219e+01 -2.145905047655105591e-01 -1.112398356199264526e-01 -9.774909913539886475e-02 -1.476508677005767822e-01
7.340000000000000000e+02 4.897169113159179688e+01 2.214374351501464844e+01 -5.088639855384826660e-01 9.466929733753204346e-02 -1.242584064602851868e-01 6.501633673906326294e-02
7.350000000000000000e+02 4.723551559448242188e+01 4.046189880371093750e+01 4.822064936161041260e-01 -2.738983333110809326e-01 6.249245628714561462e-02 8.167386054992675781e-02
7.360000000000000000e+02 4.746798706054687500e+01 3.681671524047851562e+01 4.263157844543457031e-01 -2.358512878417968750e-01 5.713934451341629028e-02 2.405846416950225830e-01
7.370000000000000000e+02 4.679266738891601562e+01 3.252025985717773438e+01 1.291874498128890991e-01 -1.345002651214599609e-01 -1.593846245668828487e-03 3.624033927917480469e-01
7.380000000000000000e+02 4.494139480590820312e+01 3.080520248413085938e+01 2.774329390376806259e-03 -8.340736478567123413e-02 -2.418991178274154663e-02 3.061287105083465576e-01
7.390000000000000000e+02 4.672919082641601562e+01 2.859661102294921875e+01 -1.511685997247695923e-01 -2.400491572916507721e-02 -5.255205556750297546e-02 3.435811996459960938e-01
7.400000000000000000e+02 4.680414199829101562e+01 2.387538146972656250e+01 -3.752861917018890381e-01 8.645778894424438477e-02 -8.664852380752563477e-02 1.618188172578811646e-01
7.410000000000000000e+02 4.808043289184570312e+01 1.932598876953125000e+01 -2.844169735908508301e-01 3.354764357209205627e-02 -7.526080310344696045e-02 -7.408545911312103271e-02
7.420000000000000000e+02 4.853572082519531250e+01 1.739198112487792969e+01 -1.162358745932579041e-01 -1.474686898291110992e-02 -3.929482400417327881e-02 -6.428191810846328735e-02
7.430000000000000000e+02 4.791794967651367188e+01 1.376219272613525391e+01 -1.052248012274503708e-02 -6.087894551455974579e-03 -4.983112215995788574e-03 -4.421021323651075363e-03
7.440000000000000000e+02 4.859622573852539062e+01 9.529387474060058594e+00 2.615799894556403160e-03 8.148943074047565460e-03 3.229422727599740028e-03 3.782364306971430779e-03
7.450000000000000000e+02 4.741197204589843750e+01 3.863556623458862305e+00 -1.196745324705261737e-05 -1.385744835715740919e-04 -4.516257831710390747e-05 -4.645721855922602117e-05
7.460000000000000000e+02 4.511974716186523438e+01 4.030897617340087891e+00 5.229086964391171932e-04 3.036828820768278092e-05 1.659830886637791991e-04 1.228891633218154311e-04
7.470000000000000000e+02 4.826784133911132812e+01 3.895356416702270508e+00 4.430660337675362825e-04 -9.330799366580322385e-05 1.049274142133072019e-04 -3.437315535848028958e-05
7.480000000000000000e+02 4.910702514648437500e+01 1.226046752929687500e+01 2.879646141082048416e-03 1.808752305805683136e-02 6.290150806307792664e-03 6.091624498367309570e-03
7.490000000000000000e+02 4.966015625000000000e+01 1.507785892486572266e+01 -1.618156395852565765e-02 8.396620862185955048e-03 -2.335482975468039513e-03 -9.280499070882797241e-03
7.500000000000000000e+02 5.082471084594726562e+01 1.782319641113281250e+01 -8.445477485656738281e-02 -4.765201732516288757e-02 -3.963203728199005127e-02 -6.778568774461746216e-02
7.510000000000000000e+02 4.726233673095703125e+01 1.843148803710937500e+01 -2.088484913110733032e-01 1.850712485611438751e-02 -5.710240826010704041e-02 -5.143723636865615845e-02
7.520000000000000000e+02 4.235789871215820312e+01 4.062002182006835938e+01 3.202012777328491211e-01 -2.312694191932678223e-01 2.667955309152603149e-02 5.507109686732292175e-02
7.530000000000000000e+02 4.461776733398437500e+01 3.513148117065429688e+01 2.522510290145874023e-01 -1.954776346683502197e-01 1.703201979398727417e-02 2.398407906293869019e-01
7.540000000000000000e+02 4.278823852539062500e+01 3.263708496093750000e+01 8.379702270030975342e-02 -1.173881888389587402e-01 -1.007734984159469604e-02 2.432714253664016724e-01
7.550000000000000000e+02 4.161621475219726562e+01 3.042715263366699219e+01 -9.763572365045547485e-03 -6.940535455942153931e-02 -2.375067770481109619e-02 2.229048907756805420e-01
7.560000000000000000e+02 4.265494537353515625e+01 2.614553833007812500e+01 -1.768508702516555786e-01 2.206283994019031525e-02 -4.643640667200088501e-02 1.781822293996810913e-01
7.570000000000000000e+02 4.237125778198242188e+01 2.280545043945312500e+01 -2.190425097942352295e-01 5.265452712774276733e-02 -4.991639405488967896e-02 1.015673130750656128e-01
7.580000000000000000e+02 4.464659881591796875e+01 1.853706359863281250e+01 -1.935522407293319702e-01 3.692489862442016602e-02 -4.698820412158966064e-02 -9.711408056318759918e-03
7.590000000000000000e+02 4.338350296020507812e+01 1.746298027038574219e+01 -1.421954482793807983e-01 2.556947991251945496e-02 -3.498778864741325378e-02 -2.024096203967928886e-03
7.600000000000000000e+02 4.209019851684570312e+01 1.332560539245605469e+01 -3.114323131740093231e-02 1.109805889427661896e-03 -9.010028094053268433e-03 3.282518824562430382e-03
7.610000000000000000e+02 4.200002288818359375e+01 8.959166526794433594e+00 3.851587651297450066e-03 7.833709008991718292e-03 3.505588974803686142e-03 -5.331526510417461395e-03
7.620000000000000000e+02 4.242926025390625000e+01 6.164278507232666016e+00 5.132002988830208778e-04 2.009801974054425955e-04 2.142541488865390420e-04 -2.674871066119521856e-04
7.630000000000000000e+02 4.353284835815429688e+01 4.182559967041015625e+00 2.690552209969609976e-04 -8.204751065932214260e-05 5.610231528407894075e-05 3.385637828614562750e-04
7.640000000000000000e+02 4.141227340698242188e+01 3.707432174682617188e+01 2.410521507263183594e-01 -1.976244449615478516e-01 1.302831154316663742e-02 1.433669924736022949e-01
7.650000000000000000e+02 4.004011154174804688e+01 3.394586944580078125e+01 1.119758561253547668e-01 -1.334741562604904175e-01 -6.449488922953605652e-03 1.839779168367385864e-01
7.660000000000000000e+02 3.892766952514648438e+01 2.834258460998535156e+01 -7.002636045217514038e-02 -3.191144391894340515e-02 -3.058134205639362335e-02 1.593866497278213501e-01
7.670000000000000000e+02 3.912504577636718750e+01 2.270413589477539062e+01 -1.580534279346466064e-01 2.284128963947296143e-02 -4.056364297866821289e-02 8.002506941556930542e-02
7.680000000000000000e+02 3.991010665893554688e+01 1.886681365966796875e+01 -1.514211148023605347e-01 3.131036832928657532e-02 -3.603322058916091919e-02 4.115570336580276489e-02
7.690000000000000000e+02 3.985737228393554688e+01 1.685383796691894531e+01 -1.062328219413757324e-01 1.852959394454956055e-02 -2.631096914410591125e-02 2.532537281513214111e-02
7.700000000000000000e+02 3.555684280395507812e+01 1.687475776672363281e+01 -8.703848719596862793e-02 -3.158768638968467712e-02 -3.558785468339920044e-02 5.445111542940139771e-02
7.710000000000000000e+02 3.982892227172851562e+01 1.286638450622558594e+01 -8.170779794454574585e-03 8.896915242075920105e-03 2.178407012252137065e-04 -5.467057344503700733e-04
7.720000000000000000e+02 3.876449966430664062e+01 1.394448947906494141e+01 -2.489926293492317200e-02 6.999518373049795628e-04 -7.259793113917112350e-03 9.197270497679710388e-03
7.730000000000000000e+02 3.978300094604492188e+01 1.488843059539794922e+01 -5.790625140070915222e-02 1.024656463414430618e-02 -1.429790537804365158e-02 1.641768775880336761e-02
7.740000000000000000e+02 4.143338775634765625e+01 1.030060005187988281e+01 6.028166040778160095e-03 1.115360576659440994e-02 5.154531449079513550e-03 -8.029825985431671143e-03
7.750000000000000000e+02 3.759649658203125000e+01 4.098309707641601562e+01 1.950592547655105591e-01 -1.829101890325546265e-01 3.644722281023859978e-03 2.477965690195560455e-02
7.760000000000000000e+02 3.740993118286132812e+01 3.789433670043945312e+01 1.730290949344635010e-01 -1.678804457187652588e-01 1.544595113955438137e-03 7.996658235788345337e-02
7.770000000000000000e+02 3.675101089477539062e+01 3.477352905273437500e+01 1.125792860984802246e-01 -1.352267414331436157e-01 -6.794237531721591949e-03 1.263017803430557251e-01
7.780000000000000000e+02 3.608356475830078125e+01 3.167446517944335938e+01 2.661601267755031586e-02 -8.723539113998413086e-02 -1.818581297993659973e-02 1.334687769412994385e-01
7.790000000000000000e+02 3.460933685302734375e+01 2.330883407592773438e+01 -1.108637824654579163e-01 -2.024464681744575500e-02 -3.933252766728401184e-02 7.256001234054565430e-02
7.800000000000000000e+02 3.766902160644531250e+01 1.903167533874511719e+01 -1.332003474235534668e-01 1.189612783491611481e-02 -3.639126196503639221e-02 4.768968373537063599e-02
7.810000000000000000e+02 3.441703033447265625e+01 1.777158164978027344e+01 -1.102475151419639587e-01 -4.211900010704994202e-02 -4.570995643734931946e-02 6.672371178865432739e-02
7.820000000000000000e+02 3.665754318237304688e+01 1.593107223510742188e+01 -6.495218724012374878e-02 -2.109678089618682861e-02 -2.581469155848026276e-02 3.791990503668785095e-02
7.830000000000000000e+02 3.770101547241210938e+01 1.694323730468750000e+01 -9.711036086082458496e-02 2.393793314695358276e-03 -2.841497026383876801e-02 3.717890009284019470e-02
7.840000000000000000e+02 3.325451660156250000e+01 4.109026718139648438e+01 1.253633648157119751e-01 -1.422384530305862427e-01 -5.062526557594537735e-03 1.575984619557857513e-02
7.850000000000000000e+02 3.378727722167968750e+01 3.834155273437500000e+01 1.228854432702064514e-01 -1.429202556610107422e-01 -6.010444834828376770e-03 5.475649610161781311e-02
7.860000000000000000e+02 3.328499221801757812e+01 3.548933029174804688e+01 8.919012546539306641e-02 -1.223798245191574097e-01 -9.956910274922847748e-03 7.879032939672470093e-02
7.870000000000000000e+02 3.268843460083007812e+01 3.241077423095703125e+01 3.852444142103195190e-02 -9.313732385635375977e-02 -1.638386398553848267e-02 9.480269253253936768e-02
7.880000000000000000e+02 3.363980865478515625e+01 2.820566558837890625e+01 -2.831885032355785370e-02 -5.848147720098495483e-02 -2.604009769856929779e-02 1.004874482750892639e-01
7.890000000000000000e+02 3.199683189392089844e+01 1.938883399963378906e+01 -1.538036316633224487e-01 -4.851550608873367310e-02 -6.069574132561683655e-02 8.012589812278747559e-02
7.900000000000000000e+02 3.289038467407226562e+01 2.054815292358398438e+01 -1.327490508556365967e-01 -3.477017953991889954e-02 -5.025576800107955933e-02 6.094463169574737549e-02
7.910000000000000000e+02 3.323195266723632812e+01 1.861337280273437500e+01 -1.324039846658706665e-01 -4.704746231436729431e-02 -5.383543670177459717e-02 7.744514197111129761e-02
7.920000000000000000e+02 3.071476173400878906e+01 3.953654479980468750e+01 9.211426973342895508e-02 -1.209254264831542969e-01 -8.643346838653087616e-03 2.626228891313076019e-02
7.930000000000000000e+02 2.992800521850585938e+01 3.641238784790039062e+01 6.610340625047683716e-02 -1.047371700406074524e-01 -1.159012876451015472e-02 5.102588236331939697e-02
7.940000000000000000e+02 2.938443946838378906e+01 3.334132385253906250e+01 3.848022967576980591e-02 -8.875034749507904053e-02 -1.508103590458631516e-02 6.608293205499649048e-02
7.950000000000000000e+02 2.880331039428710938e+01 3.037726783752441406e+01 5.183701403439044952e-03 -7.033608853816986084e-02 -1.954571716487407684e-02 7.345343381166458130e-02
7.960000000000000000e+02 2.968031311035156250e+01 2.626095008850097656e+01 -4.663310572504997253e-02 -5.178745836019515991e-02 -2.952616848051548004e-02 7.232017815113067627e-02
7.970000000000000000e+02 2.800447463989257812e+01 2.132555770874023438e+01 -1.165110319852828979e-01 -2.014089003205299377e-02 -4.099557548761367798e-02 4.887538775801658630e-02
7.980000000000000000e+02 3.038274383544921875e+01 2.212590599060058594e+01 -1.068748086690902710e-01 -4.250232502818107605e-02 -4.481314122676849365e-02 6.545697152614593506e-02
7.990000000000000000e+02 2.710200691223144531e+01 4.072903823852539062e+01 6.788623332977294922e-02 -1.003578826785087585e-01 -9.741495363414287567e-03 1.289745420217514038e-02
8.000000000000000000e+02 2.647702407836914062e+01 3.729930496215820312e+01 5.051059648394584656e-02 -8.826931565999984741e-02 -1.132761687040328979e-02 3.477256372570991516e-02
8.010000000000000000e+02 2.607906341552734375e+01 3.409347534179687500e+01 2.963478304445743561e-02 -7.548662275075912476e-02 -1.375555153936147690e-02 4.918146505951881409e-02
8.020000000000000000e+02 2.580351257324218750e+01 3.110378646850585938e+01 7.668457459658384323e-03 -6.231881678104400635e-02 -1.639510691165924072e-02 5.580681934952735901e-02
8.030000000000000000e+02 2.665968322753906250e+01 2.378335189819335938e+01 -6.933512538671493530e-02 -3.116665594279766083e-02 -3.015053458511829376e-02 5.209185183048248291e-02
8.040000000000000000e+02 2.339939880371093750e+01 2.197748565673828125e+01 -6.747502088546752930e-02 -8.518402464687824249e-03 -2.279802784323692322e-02 1.757987588644027710e-02
8.050000000000000000e+02 2.647440910339355469e+01 2.173501586914062500e+01 -1.019782796502113342e-01 -2.056959457695484161e-02 -3.676436096429824829e-02 3.802225738763809204e-02
8.060000000000000000e+02 2.265331649780273438e+01 4.099003982543945312e+01 3.913021087646484375e-02 -7.190428674221038818e-02 -9.832222014665603638e-03 5.129056982696056366e-03
8.070000000000000000e+02 2.274270629882812500e+01 3.784786224365234375e+01 3.500096499919891357e-02 -6.921922415494918823e-02 -1.026547607034444809e-02 2.225508727133274078e-02
8.080000000000000000e+02 2.254546546936035156e+01 3.456336593627929688e+01 2.013566344976425171e-02 -5.912189930677413940e-02 -1.169587112963199615e-02 3.466128557920455933e-02
8.090000000000000000e+02 2.340662765502929688e+01 2.389950180053710938e+01 -5.101000517606735229e-02 -1.692619360983371735e-02 -2.038085833191871643e-02 3.531963378190994263e-02
8.100000000000000000e+02 2.191626930236816406e+01 2.186422729492187500e+01 -4.501038044691085815e-02 -3.324397606775164604e-03 -1.450043357908725739e-02 8.163244463503360748e-03
8.110000000000000000e+02 1.839967918395996094e+01 4.106495285034179688e+01 2.120816707611083984e-02 -4.916183650493621826e-02 -8.386101573705673218e-03 5.108929239213466644e-03
8.120000000000000000e+02 1.920189857482910156e+01 3.825195693969726562e+01 2.152083441615104675e-02 -5.242535844445228577e-02 -9.271357208490371704e-03 1.429501920938491821e-02
8.130000000000000000e+02 1.893693542480468750e+01 3.530146408081054688e+01 1.454707421362400055e-02 -4.561316967010498047e-02 -9.319828823208808899e-03 2.186741679906845093e-02
8.140000000000000000e+02 1.943012809753417969e+01 2.735850334167480469e+01 -1.743141002953052521e-02 -1.856976374983787537e-02 -1.080035232007503510e-02 2.793115749955177307e-02
8.150000000000000000e+02 2.024767875671386719e+01 2.340044975280761719e+01 -3.439165279269218445e-02 -8.440873934887349606e-04 -1.057072170078754425e-02 1.788375154137611389e-02
8.160000000000000000e+02 1.907672882080078125e+01 1.946179962158203125e+01 1.671829610131680965e-03 7.197857834398746490e-03 2.660906175151467323e-03 2.810157369822263718e-03
8.170000000000000000e+02 1.863265609741210938e+01 1.816189765930175781e+01 8.707370143383741379e-04 7.914845831692218781e-03 2.635674783959984779e-03 3.250871319323778152e-03
8.180000000000000000e+02 1.915074348449707031e+01 2.110936737060546875e+01 -1.061600260436534882e-02 3.747509326785802841e-03 -2.060547936707735062e-03 3.224810585379600525e-03
8.190000000000000000e+02 1.605959320068359375e+01 3.950491333007812500e+01 1.451309025287628174e-02 -3.869337961077690125e-02 -7.254087366163730621e-03 6.684314925223588943e-03
8.200000000000000000e+02 1.556550312042236328e+01 3.643074798583984375e+01 8.013388141989707947e-03 -3.199571371078491211e-02 -7.194696925580501556e-03 1.141690928488969803e-02
8.210000000000000000e+02 1.519756412506103516e+01 3.356076431274414062e+01 4.295609425753355026e-03 -2.755233459174633026e-02 -6.977017503231763840e-03 1.576111465692520142e-02
8.220000000000000000e+02 1.488866043090820312e+01 3.095153045654296875e+01 -3.905914258211851120e-03 -1.982915028929710388e-02 -7.120519410818815231e-03 1.659700088202953339e-02
8.230000000000000000e+02 1.644785881042480469e+01 2.617037200927734375e+01 -1.518895104527473450e-02 -8.093385957181453705e-03 -6.984701380133628845e-03 1.461899187415838242e-02
8.240000000000000000e+02 1.414603805541992188e+01 2.363700294494628906e+01 -8.223460987210273743e-03 -3.971824422478675842e-03 -3.658585483208298683e-03 4.424539860337972641e-03
8.250000000000000000e+02 1.620582389831542969e+01 2.087724113464355469e+01 -5.995272658765316010e-03 -1.686645555309951305e-03 -2.304575406014919281e-03 1.321238582022488117e-03
8.260000000000000000e+02 1.681136512756347656e+01 1.555353260040283203e+01 1.421939581632614136e-03 1.403388683684170246e-03 8.475984795950353146e-04 1.714327954687178135e-03
8.270000000000000000e+02 1.667326736450195312e+01 1.398022556304931641e+01 7.951371662784367800e-05 1.122430898249149323e-03 3.605833917390555143e-04 1.131963450461626053e-03
8.280000000000000000e+02 1.662321662902832031e+01 8.269586563110351562e+00 3.088894009124487638e-04 2.981131256092339754e-04 1.821007608668878675e-04 3.272522299084812403e-04
8.290000000000000000e+02 1.676124000549316406e+01 7.204612731933593750e+00 -1.862618955783545971e-04 1.463888183934614062e-04 -1.196192351926583797e-05 1.178355960291810334e-04
8.300000000000000000e+02 1.516877460479736328e+01 1.756946086883544922e+00 1.117959327530115843e-04 -2.101912059515598230e-06 3.290820677648298442e-05 3.106014628428965807e-05
8.310000000000000000e+02 1.361710739135742188e+01 1.235417485237121582e+00 2.971063804579898715e-05 4.435778919287258759e-06 1.024392440740484744e-05 3.121318877674639225e-05
8.320000000000000000e+02 1.583128356933593750e+01 8.668026924133300781e-01 6.244491669349372387e-05 3.519249730743467808e-06 1.978924956347327679e-05 -4.543210252450080588e-06
8.330000000000000000e+02 1.725351905822753906e+01 5.987023115158081055e-01 1.390637953591067344e-05 3.553814531187526882e-05 1.483335654484108090e-05 -1.542647623864468187e-05
8.340000000000000000e+02 1.906584358215332031e+01 1.129349231719970703e+00 3.999348336947150528e-05 4.054638702655211091e-05 2.416196184640284628e-05 2.761942369033931755e-06
8.350000000000000000e+02 1.949218750000000000e+01 6.933735847473144531e+00 -2.684265491552650928e-04 5.013569898437708616e-05 -6.548725650645792484e-05 3.293356712674722075e-05
8.360000000000000000e+02 2.055512619018554688e+01 5.043926239013671875e+00 3.886697231791913509e-05 5.712139318347908556e-05 2.879650855902582407e-05 7.340221054619178176e-05
8.370000000000000000e+02 1.917399787902832031e+01 8.206830978393554688e+00 2.711612323764711618e-04 1.706003240542486310e-04 1.325284683844074607e-04 2.116559153364505619e-05
8.380000000000000000e+02 1.758282470703125000e+01 9.533679962158203125e+00 3.142950008623301983e-04 4.460919299162924290e-04 2.281160850543528795e-04 2.861089014913886786e-04
8.390000000000000000e+02 1.518393707275390625e+01 9.268570899963378906e+00 4.107105487491935492e-04 2.335505269002169371e-04 1.932783343363553286e-04 5.521664279513061047e-04
8.400000000000000000e+02 1.241839122772216797e+01 4.066230773925781250e+01 7.978824898600578308e-03 -2.687873318791389465e-02 -5.669972859323024750e-03 2.155379159376025200e-03
8.410000000000000000e+02 1.236844921112060547e+01 3.716438293457031250e+01 6.029475480318069458e-03 -2.385192736983299255e-02 -5.346735473722219467e-03 8.078339509665966034e-03
8.420000000000000000e+02 1.235819149017333984e+01 3.394201660156250000e+01 1.105414587073028088e-03 -1.937578059732913971e-02 -5.481109954416751862e-03 9.890084154903888702e-03
8.430000000000000000e+02 1.143197154998779297e+01 2.829286384582519531e+01 -4.996416158974170685e-03 -9.291134774684906006e-03 -4.286265466362237930e-03 8.151890709996223450e-03
8.440000000000000000e+02 1.067563629150390625e+01 2.591275024414062500e+01 -4.873365629464387894e-03 -5.647371523082256317e-03 -3.156221006065607071e-03 4.471319727599620819e-03
8.450000000000000000e+02 1.280062675476074219e+01 2.322459030151367188e+01 -6.252978928387165070e-03 -3.916094545274972916e-03 -3.050721948966383934e-03 2.686682157218456268e-03
8.460000000000000000e+02 1.129477214813232422e+01 1.837579536437988281e+01 -4.441765486262738705e-04 -2.214094623923301697e-03 -7.974813343025743961e-04 -1.450871350243687630e-04
8.470000000000000000e+02 1.148499393463134766e+01 1.729591941833496094e+01 1.261166908079758286e-04 -2.653524279594421387e-03 -7.582222460769116879e-04 -3.291700559202581644e-04
8.480000000000000000e+02 1.248575973510742188e+01 1.299365234375000000e+01 7.720207795500755310e-04 -7.990843732841312885e-04 -8.119066478684544563e-06 6.474379915744066238e-04
8.490000000000000000e+02 1.365567016601562500e+01 9.957141876220703125e+00 6.176108145155012608e-04 -1.323705364484339952e-04 1.455720775993540883e-04 5.206164787523448467e-04
8.500000000000000000e+02 1.212580680847167969e+01 5.328886508941650391e+00 3.320339892525225878e-04 -2.900784238590858877e-05 9.090785169973969460e-05 1.747861679177731276e-04
8.510000000000000000e+02 1.210743427276611328e+01 1.495396852493286133e+00 6.166507228044793010e-05 -2.210433422078494914e-06 1.783639163477346301e-05 1.481734125263756141e-05
8.520000000000000000e+02 1.293730640411376953e+01 2.097771644592285156e+00 3.781254417845048010e-05 -2.239776222268119454e-06 1.067183075065258890e-05 3.450104122748598456e-05
8.530000000000000000e+02 8.287706375122070312e+00 4.067820739746093750e+01 3.013884415850043297e-03 -1.451889704912900925e-02 -3.451503813266754150e-03 1.356627093628048897e-03
8.540000000000000000e+02 9.387299537658691406e+00 3.725926971435546875e+01 3.081680042669177055e-03 -1.675269566476345062e-02 -4.101304803043603897e-03 4.402715247124433517e-03
8.550000000000000000e+02 9.205289840698242188e+00 3.172153282165527344e+01 -1.672866404987871647e-03 -1.067781075835227966e-02 -3.705203067511320114e-03 6.443728227168321609e-03
8.560000000000000000e+02 7.938385486602783203e+00 2.860936164855957031e+01 -2.782461000606417656e-03 -5.355976056307554245e-03 -2.441531047224998474e-03 3.842971054837107658e-03
8.570000000000000000e+02 8.757682800292968750e+00 2.642100715637207031e+01 -3.250085981562733650e-03 -4.684288520365953445e-03 -2.380312420427799225e-03 3.172568744048476219e-03
8.580000000000000000e+02 8.750736236572265625e+00 2.360302543640136719e+01 -2.838551765307784081e-03 -3.121074754744768143e-03 -1.787888002581894398e-03 1.136363134719431400e-03
8.590000000000000000e+02 9.808334350585937500e+00 1.887884902954101562e+01 -7.642974378541111946e-04 -2.315283287316560745e-03 -9.238742641173303127e-04 -4.655985976569354534e-04
8.600000000000000000e+02 8.822710990905761719e+00 1.605755805969238281e+01 6.286792922765016556e-04 -1.445060013793408871e-03 -2.449142048135399818e-04 -5.851533496752381325e-04
8.610000000000000000e+02 9.779604911804199219e+00 1.331670475006103516e+01 9.455979452468454838e-04 -1.273863599635660648e-03 -9.847970795817673206e-05 -3.545321233104914427e-04
8.620000000000000000e+02 7.439920425415039062e+00 1.030893898010253906e+01 6.742465193383395672e-04 -3.375319938641041517e-04 1.010143605526536703e-04 -3.484676708467304707e-04
8.630000000000000000e+02 8.583074569702148438e+00 5.058926105499267578e+00 1.717949053272604942e-04 -1.541931269457563758e-04 5.280531695461831987e-06 -9.660621435614302754e-05
8.640000000000000000e+02 7.633329868316650391e+00 1.850295305252075195e+00 9.969527309294790030e-05 -3.176570317009463906e-05 2.037887134065385908e-05 -4.572375110001303256e-05
8.650000000000000000e+02 6.908014774322509766e+00 1.858213543891906738e+00 1.396720908815041184e-04 1.519801753602223471e-05 4.646103116101585329e-05 -3.202297375537455082e-05
8.660000000000000000e+02 8.423318862915039062e+00 2.525959730148315430e+00 1.076130502042360604e-04 -4.430253829923458397e-05 1.899315248010680079e-05 -5.196320489631034434e-05
8.670000000000000000e+02 1.134022235870361328e+01 1.623882174491882324e+00 1.653081271797418594e-04 -2.070268055831547827e-05 4.338163489592261612e-05 4.871613418799825013e-05
8.680000000000000000e+02 5.560533046722412109e+00 3.947546386718750000e+01 1.598662929609417915e-03 -8.122041821479797363e-03 -1.957013737410306931e-03 1.022065291181206703e-03
8.690000000000000000e+02 7.005611896514892578e+00 3.678228759765625000e+01 1.183003652840852737e-03 -1.097303163260221481e-02 -2.937008161097764969e-03 2.878956263884902000e-03
8.700000000000000000e+02 7.463859558105468750e+00 3.432543945312500000e+01 7.587054278701543808e-04 -1.020779740065336227e-02 -2.834727754816412926e-03 3.948505502194166183e-03
8.710000000000000000e+02 6.562066555023193359e+00 2.887017059326171875e+01 -1.177172292955219746e-03 -4.090010188519954681e-03 -1.580154756084084511e-03 2.916506724432110786e-03
8.720000000000000000e+02 5.156245708465576172e+00 2.904497146606445312e+01 -1.285825856029987335e-03 -2.578989835456013680e-03 -1.159444684162735939e-03 1.991851255297660828e-03
8.730000000000000000e+02 6.283835411071777344e+00 2.258101844787597656e+01 -1.225442159920930862e-03 -1.051446422934532166e-03 -6.830666097812354565e-04 -1.823451166274026036e-04
8.740000000000000000e+02 8.130566596984863281e+00 2.085615539550781250e+01 -9.613071451894938946e-04 -1.878721406683325768e-03 -8.520085830241441727e-04 -4.536627093330025673e-04
8.750000000000000000e+02 5.634932518005371094e+00 1.757059097290039062e+01 2.531419449951499701e-04 -2.357100747758522630e-04 5.229563157627126202e-06 -1.035066554322838783e-03
8.760000000000000000e+02 5.216509342193603516e+00 1.238557624816894531e+01 5.286461091600358486e-04 -2.492737257853150368e-05 1.511156151536852121e-04 -6.287113064900040627e-04
8.770000000000000000e+02 5.164021968841552734e+00 1.115266227722167969e+01 1.568704319652169943e-04 -7.773099787300452590e-05 2.374182986386585981e-05 -5.874610505998134613e-04
8.780000000000000000e+02 4.050771713256835938e+00 8.446749687194824219e+00 3.202271764166653156e-04 1.200776314362883568e-04 1.320914452662691474e-04 -2.672520058695226908e-04
8.790000000000000000e+02 4.004060268402099609e+00 1.917454361915588379e+00 8.170866931322962046e-05 3.356464367243461311e-05 3.458199353190138936e-05 -5.458804298541508615e-05
8.800000000000000000e+02 4.791620731353759766e+00 2.708534240722656250e+00 1.091184167307801545e-04 3.467179703875444829e-05 4.313706449465826154e-05 -8.595684630563482642e-05
8.810000000000000000e+02 6.181477069854736328e+00 1.869115233421325684e+00 8.224661723943427205e-05 -3.215668402845039964e-05 1.502697978139622137e-05 -4.406164953252300620e-05
8.820000000000000000e+02 3.357234477996826172e+00 4.056518936157226562e+01 7.120529189705848694e-04 -3.996036015450954437e-03 -9.851949289441108704e-04 2.169714280171319842e-04
8.830000000000000000e+02 2.092546224594116211e+00 3.731739044189453125e+01 3.161622589686885476e-05 -2.152336528524756432e-03 -6.362161366268992424e-04 1.112904283218085766e-03
8.840000000000000000e+02 2.272133827209472656e+00 3.354260253906250000e+01 1.113169346353970468e-04 -4.390799149405211210e-04 -9.832889918470755219e-05 1.394413760863244534e-03
8.850000000000000000e+02 2.299532651901245117e+00 3.059571647644042969e+01 -2.770158607745543122e-05 9.213923476636409760e-04 2.681072219274938107e-04 1.044162549078464508e-03
8.860000000000000000e+02 2.083673954010009766e+00 2.625678443908691406e+01 -4.489865677896887064e-04 2.585939364507794380e-03 6.410857895389199257e-04 1.577768998686224222e-04
8.870000000000000000e+02 2.020071506500244141e+00 2.340733528137207031e+01 -3.978325694333761930e-04 2.843781141564249992e-03 7.337845745496451855e-04 -3.119810135103762150e-04
8.880000000000000000e+02 1.964550733566284180e+00 1.917811203002929688e+01 1.586275611771270633e-04 2.250357531011104584e-03 7.226955494843423367e-04 -6.319239037111401558e-04
8.890000000000000000e+02 1.848244905471801758e+00 1.634799003601074219e+01 2.228511439170688391e-04 1.616330584511160851e-03 5.517544923350214958e-04 -5.879570962861180305e-04
8.900000000000000000e+02 1.758389592170715332e+00 1.355852413177490234e+01 2.260892797494307160e-04 1.026875106617808342e-03 3.758892999030649662e-04 -4.299049614928662777e-04
8.910000000000000000e+02 1.702106237411499023e+00 1.080739974975585938e+01 2.047569432761520147e-04 5.680643953382968903e-04 2.318463957635685802e-04 -2.642380713950842619e-04
8.920000000000000000e+02 1.708542943000793457e+00 6.696141719818115234e+00 -1.123538822866976261e-04 1.696677209110930562e-04 1.719415013212710619e-05 -1.221257844008505344e-04
8.930000000000000000e+02 3.321417808532714844e+00 2.795538902282714844e+00 9.313685586676001549e-05 4.017786704935133457e-05 3.999441469204612076e-05 -5.168672578292898834e-05
8.940000000000000000e+02 1.094971656799316406e+00 4.031999588012695312e+01 -2.576324332039803267e-04 -2.442090539261698723e-03 -8.099168771877884865e-04 8.385250694118440151e-04
8.950000000000000000e+02 1.993548393249511719e+01 3.992195427417755127e-01 2.862293331418186426e-05 3.772640411625616252e-05 1.990480086533352733e-05 -5.154852829036826733e-07
8.960000000000000000e+02 2.281848144531250000e+01 1.622377157211303711e+00 -1.154877008957555518e-05 3.966660369769670069e-05 8.435349627688992769e-06 -1.953848004632163793e-05
8.970000000000000000e+02 2.144528388977050781e+01 3.999261856079101562e+00 -4.737105700769461691e-05 -9.920283628161996603e-05 -4.397216616780497134e-05 -4.724492464447394013e-05
8.980000000000000000e+02 2.229675865173339844e+01 1.440504193305969238e+00 -1.835194416344165802e-05 -2.764128112175967544e-05 -1.379796776745934039e-05 1.334777789452346042e-05
8.990000000000000000e+02 1.854620742797851562e+01 1.096111583709716797e+01 3.408137708902359009e-04 7.489200215786695480e-04 3.269201260991394520e-04 1.104584080167114735e-04
9.000000000000000000e+02 1.832988166809082031e+01 1.239999961853027344e+01 -2.571092336438596249e-04 1.353437779471278191e-03 3.288985753897577524e-04 2.582816523499786854e-04
9.010000000000000000e+02 1.825821304321289062e+01 1.531614589691162109e+01 -1.874880545074120164e-04 3.425767179578542709e-03 9.714837651699781418e-04 8.713749120943248272e-04
9.020000000000000000e+02 1.695986747741699219e+01 1.713532257080078125e+01 9.124617208726704121e-04 1.172529067844152451e-03 6.254972540773451328e-04 1.943910028785467148e-03
9.030000000000000000e+02 2.057301139831542969e+01 2.138471031188964844e+01 -1.783511415123939514e-02 4.863695707172155380e-03 -3.891425672918558121e-03 3.827404929324984550e-03
9.040000000000000000e+02 4.265602493286132812e+01 4.258409976959228516e+00 2.523634175304323435e-04 -9.564435458742082119e-05 4.701571742771193385e-05 -1.274558599106967449e-05
9.050000000000000000e+02 5.986310958862304688e+01 2.392840385437011719e+01 -2.357580661773681641e+00 -3.301006555557250977e-01 -8.063043951988220215e-01 3.904882967472076416e-01
9.060000000000000000e+02 6.247423934936523438e+01 2.265585708618164062e+01 -3.469574451446533203e+00 -2.243987321853637695e-01 -1.108191967010498047e+00 7.180386781692504883e-01
9.070000000000000000e+02 6.226893234252929688e+01 2.986225700378417969e+01 3.019571900367736816e-01 7.293432205915451050e-02 1.124674528837203979e-01 2.337488085031509399e-01
9.080000000000000000e+02 6.021212768554687500e+01 3.250146102905273438e+01 5.592815876007080078e-01 5.355603992938995361e-02 1.838512867689132690e-01 2.887953221797943115e-01
9.090000000000000000e+02 6.231103515625000000e+01 3.374898529052734375e+01 8.094211816787719727e-01 5.013595223426818848e-01 3.932342231273651123e-01 8.103185147047042847e-02
9.100000000000000000e+02 6.506234741210937500e+01 2.187251663208007812e+01 -3.789788484573364258e+00 -6.865242719650268555e-01 -1.342893838882446289e+00 1.279070734977722168e+00
9.110000000000000000e+02 6.630685424804687500e+01 2.691203308105468750e+01 -3.056339919567108154e-01 4.686356782913208008e-01 4.890051111578941345e-02 -2.695056200027465820e-01
9.120000000000000000e+02 6.616432952880859375e+01 2.979369163513183594e+01 4.146510958671569824e-01 1.101934075355529785e+00 4.549755752086639404e-01 -3.747222721576690674e-01
9.130000000000000000e+02 6.379546356201171875e+01 2.235856628417968750e+01 -3.599117517471313477e+00 -4.111432433128356934e-01 -1.203078269958496094e+00 9.188389182090759277e-01
9.140000000000000000e+02 6.616597747802734375e+01 2.124146270751953125e+01 -3.314966201782226562e+00 -9.713442921638488770e-01 -1.285893201828002930e+00 1.563144803047180176e+00
9.150000000000000000e+02 6.766873931884765625e+01 2.102988052368164062e+01 -2.325984716415405273e+00 2.736186385154724121e-01 -6.157098412513732910e-01 8.176520466804504395e-01
9.160000000000000000e+02 6.700245666503906250e+01 2.096677970886230469e+01 -2.501675605773925781e+00 -5.059675574302673340e-01 -9.022929072380065918e-01 1.158812046051025391e+00
9.170000000000000000e+02 6.767104339599609375e+01 2.207375907897949219e+01 -2.426805019378662109e+00 2.825896441936492920e-01 -6.432646512985229492e-01 5.918778181076049805e-01
9.180000000000000000e+02 6.904898834228515625e+01 2.207500076293945312e+01 -1.827226638793945312e+00 6.058839559555053711e-01 -3.664027750492095947e-01 4.384467005729675293e-01
9.190000000000000000e+02 7.308838653564453125e+01 2.125406646728515625e+01 -1.688336431980133057e-01 1.322477102279663086e+00 3.460930287837982178e-01 -1.826579332351684570e+00
9.200000000000000000e+02 5.512847137451171875e+01 -8.525798797607421875e+00 6.058838367462158203e-01 2.161738462746143341e-02 1.882503777742385864e-01 -1.753175109624862671e-01
9.210000000000000000e+02 5.633226013183593750e+01 -9.168207168579101562e+00 3.578385114669799805e-01 -2.509789541363716125e-02 9.982218593358993530e-02 -6.158172339200973511e-02
9.220000000000000000e+02 5.689803695678710938e+01 -8.002015113830566406e+00 3.030924797058105469e-01 -2.385379970073699951e-01 1.936634629964828491e-02 1.348162740468978882e-01
9.230000000000000000e+02 5.573063278198242188e+01 -2.952835321426391602e+00 -8.416775465011596680e-01 -5.801971554756164551e-01 -4.265623986721038818e-01 -1.691119819879531860e-01
9.240000000000000000e+02 5.726622390747070312e+01 1.346462130546569824e+00 -2.040072202682495117e+00 -1.057404994964599609e+00 -9.292431473731994629e-01 -1.220017194747924805e+00
9.250000000000000000e+02 6.823281097412109375e+01 -1.591587162017822266e+01 2.139700502157211304e-01 5.097208499908447266e+00 1.593353509902954102e+00 -4.778623282909393311e-01
9.260000000000000000e+02 6.965727996826171875e+01 -1.615143013000488281e+01 2.364847064018249512e-01 5.232101917266845703e+00 1.640576004981994629e+00 7.376015782356262207e-01
9.270000000000000000e+02 6.950778198242187500e+01 -1.990883064270019531e+01 1.251193523406982422e+00 5.953701496124267578e+00 2.161468505859375000e+00 1.160772562026977539e+00
9.280000000000000000e+02 7.554756164550781250e+01 -2.257513046264648438e+01 2.560184895992279053e-01 5.357909679412841797e+00 1.684178471565246582e+00 1.792748272418975830e-01
9.290000000000000000e+02 7.554785156250000000e+01 -2.140866088867187500e+01 3.107798397541046143e-01 5.412951469421386719e+00 1.717119336128234863e+00 3.015523254871368408e-01
9.300000000000000000e+02 7.674670410156250000e+01 -2.297218513488769531e+01 1.519780308008193970e-01 5.405409812927246094e+00 1.667216420173645020e+00 9.148078411817550659e-02
9.310000000000000000e+02 7.508023834228515625e+01 -1.742404747009277344e+01 2.604615390300750732e-01 5.694543361663818359e+00 1.786501407623291016e+00 7.967567443847656250e-01
9.320000000000000000e+02 6.954744720458984375e+01 -1.735532569885253906e+01 4.376011192798614502e-01 5.641538619995117188e+00 1.823741912841796875e+00 4.618954062461853027e-01
9.330000000000000000e+02 6.832730102539062500e+01 -1.854421424865722656e+01 7.038822025060653687e-02 6.962450981140136719e+00 2.109851837158203125e+00 2.367815971374511719e-01
9.340000000000000000e+02 6.700952911376953125e+01 -2.296938705444335938e+01 1.362372875213623047e+00 3.896670341491699219e+00 1.577712893486022949e+00 2.007196187973022461e+00
9.350000000000000000e+02 6.826286315917968750e+01 -2.251210975646972656e+01 1.085701227188110352e+00 5.374930381774902344e+00 1.938189506530761719e+00 1.590185880661010742e+00
9.360000000000000000e+02 6.411703491210937500e+01 -2.782175636291503906e+01 3.109934329986572266e-01 1.582577109336853027e+00 5.680711269378662109e-01 8.232911825180053711e-01
9.370000000000000000e+02 6.308165359497070312e+01 -2.886778831481933594e+01 2.781260907649993896e-01 1.197968482971191406e+00 4.428283572196960449e-01 6.471741199493408203e-01
9.380000000000000000e+02 6.055351257324218750e+01 -3.064687156677246094e+01 3.055599629878997803e-01 5.721892118453979492e-01 2.633247673511505127e-01 3.443098664283752441e-01
9.390000000000000000e+02 6.191389846801757812e+01 -2.985678863525390625e+01 2.562837004661560059e-01 8.560546636581420898e-01 3.337015211582183838e-01 5.035099983215332031e-01
9.400000000000000000e+02 3.064112472534179688e+01 -1.204947280883789062e+01 1.924488097429275513e-01 8.890587091445922852e-02 8.440640568733215332e-02 -3.035083115100860596e-01
9.410000000000000000e+02 3.444701385498046875e+01 -2.783541107177734375e+01 -3.622946739196777344e-01 -8.446845412254333496e-01 -3.620937466621398926e-01 -4.465779364109039307e-01
9.420000000000000000e+02 2.550997352600097656e+01 -3.312710189819335938e+01 2.838431596755981445e-01 4.365612939000129700e-02 9.824978560209274292e-02 -1.593264788389205933e-01
9.430000000000000000e+02 2.297634887695312500e+01 -3.844163513183593750e+01 1.575999706983566284e-01 8.415621519088745117e-02 7.252685725688934326e-02 -9.089312702417373657e-02
9.440000000000000000e+02 2.226756858825683594e+01 -3.055617523193359375e+01 5.266337394714355469e-01 1.229761093854904175e-01 1.948829442262649536e-01 -1.781938374042510986e-01
9.450000000000000000e+02 1.942130661010742188e+01 -3.199958229064941406e+01 3.211385011672973633e-01 2.087560594081878662e-01 1.589683741331100464e-01 -1.741010695695877075e-01
9.460000000000000000e+02 1.715059852600097656e+01 -2.971313476562500000e+01 3.978382647037506104e-01 2.468521595001220703e-01 1.934071332216262817e-01 -2.240995764732360840e-01
9.470000000000000000e+02 1.826649856567382812e+01 -2.849354934692382812e+01 5.915713906288146973e-01 3.114186823368072510e-01 2.708970010280609131e-01 -3.726427853107452393e-01
9.480000000000000000e+02 1.623786354064941406e+01 -2.662829017639160156e+01 4.211912453174591064e-01 3.532938957214355469e-01 2.323455363512039185e-01 -3.786788880825042725e-01
9.490000000000000000e+02 1.428331279754638672e+01 -2.476884078979492188e+01 3.671487569808959961e-01 3.414163291454315186e-01 2.125695198774337769e-01 -3.534460067749023438e-01
9.500000000000000000e+02 1.120099353790283203e+01 -1.586018371582031250e+01 -3.908060789108276367e-01 -8.010711073875427246e-01 -3.575631380081176758e-01 -3.909240663051605225e-01
9.510000000000000000e+02 1.225335979461669922e+01 -1.502974319458007812e+01 -4.791608750820159912e-01 -1.002029776573181152e+00 -4.443572163581848145e-01 -5.892601013183593750e-01
9.520000000000000000e+02 1.236206245422363281e+01 -1.324905109405517578e+01 -6.600403189659118652e-01 -6.393111944198608398e-01 -3.898054659366607666e-01 -4.154936969280242920e-01
9.530000000000000000e+02 7.756575012207031250e+01 1.120709800720214844e+01 -2.801503241062164307e-01 9.832112312316894531e+00 2.865588665008544922e+00 -5.552567169070243835e-02
9.540000000000000000e+02 7.548299407958984375e+01 1.357960605621337891e+01 -1.022781014442443848e+00 8.586799621582031250e+00 2.269205570220947266e+00 3.541650474071502686e-01
9.550000000000000000e+02 6.632387542724609375e+01 9.889517784118652344e+00 -1.291629791259765625e+00 -1.852118611335754395e+00 -9.431245326995849609e-01 -1.487689137458801270e+00
9.560000000000000000e+02 6.897690582275390625e+01 8.919296264648437500e+00 -6.641254425048828125e-01 1.062099933624267578e+00 1.193923428654670715e-01 2.005172148346900940e-02
9.570000000000000000e+02 7.135875701904296875e+01 7.424346923828125000e+00 -3.436001539230346680e-01 3.571537971496582031e+00 9.683814048767089844e-01 5.475928783416748047e-01
9.580000000000000000e+02 6.886344909667968750e+01 6.817024707794189453e+00 -4.660831689834594727e-01 1.437336683273315430e+00 2.913760542869567871e-01 2.014745622873306274e-01
9.590000000000000000e+02 6.505866241455078125e+01 5.410670757293701172e+00 -7.626393437385559082e-01 -6.011511087417602539e-01 -4.091371297836303711e-01 -6.536604166030883789e-01
9.600000000000000000e+02 7.356671905517578125e+01 2.631729364395141602e+00 2.998884394764900208e-02 5.560501575469970703e+00 1.677147030830383301e+00 7.046496868133544922e-01
9.610000000000000000e+02 6.699938964843750000e+01 3.012514591217041016e+00 -1.260217726230621338e-01 9.386342763900756836e-01 2.437837421894073486e-01 1.704179942607879639e-01
9.620000000000000000e+02 7.607937622070312500e+01 6.184195995330810547e+00 -9.106498211622238159e-02 7.912957668304443359e+00 2.346567630767822266e+00 5.362557172775268555e-01
9.630000000000000000e+02 7.458605194091796875e+01 1.035074710845947266e+00 5.803279206156730652e-02 6.368035793304443359e+00 1.927820563316345215e+00 6.568632125854492188e-01
9.640000000000000000e+02 7.824782562255859375e+01 3.104178428649902344e+00 -2.808165038004517555e-03 9.471980094909667969e+00 2.840751409530639648e+00 3.110557198524475098e-01
9.650000000000000000e+02 6.093634033203125000e+01 1.487079024314880371e+00 -8.561232686042785645e-01 -7.273705005645751953e-01 -4.750481247901916504e-01 -6.535203456878662109e-01
9.660000000000000000e+02 6.479643249511718750e+01 6.928333640098571777e-01 -1.120662465691566467e-01 2.902871072292327881e-01 5.346625298261642456e-02 5.784369539469480515e-03
9.670000000000000000e+02 6.728244018554687500e+01 5.823388695716857910e-01 7.583732157945632935e-02 1.408298969268798828e+00 4.452408850193023682e-01 3.280865252017974854e-01
9.680000000000000000e+02 6.797591400146484375e+01 1.440595746040344238e+00 4.060760512948036194e-02 1.722533822059631348e+00 5.289424061775207520e-01 3.700285851955413818e-01
9.690000000000000000e+02 4.349177169799804688e+01 2.359393835067749023e-01 -4.089199900627136230e-01 -1.209306623786687851e-02 -1.263039261102676392e-01 -2.281976491212844849e-01
9.700000000000000000e+02 4.378348541259765625e+01 -2.980589151382446289e+00 -8.618752360343933105e-01 6.711967289447784424e-02 -2.384266704320907593e-01 -3.408632874488830566e-01
9.710000000000000000e+02 4.761012268066406250e+01 -2.544784307479858398e+00 -9.443277716636657715e-01 1.238342672586441040e-01 -2.461480498313903809e-01 -4.023171365261077881e-01
9.720000000000000000e+02 4.738288497924804688e+01 -1.617643117904663086e+00 -9.606591463088989258e-01 1.743370890617370605e-01 -2.358966171741485596e-01 -2.906532287597656250e-01
9.730000000000000000e+02 4.649536895751953125e+01 -7.732613086700439453e-01 -8.203927874565124512e-01 1.298069059848785400e-01 -2.071757614612579346e-01 -2.326255589723587036e-01
9.740000000000000000e+02 5.396625518798828125e+01 -7.913058400154113770e-01 -2.192603349685668945e+00 -4.674554169178009033e-01 -7.980176806449890137e-01 -4.723657965660095215e-01
9.750000000000000000e+02 5.495404815673828125e+01 -1.942360281944274902e+00 -1.247848510742187500e+00 -6.240831017494201660e-01 -5.615794658660888672e-01 -3.670085370540618896e-01
9.760000000000000000e+02 5.771210098266601562e+01 -3.996277332305908203e+00 -3.168580830097198486e-01 -5.746148824691772461e-01 -2.674418985843658447e-01 6.763804703950881958e-02
9.770000000000000000e+02 5.272408676147460938e+01 -2.525728225708007812e+00 -1.166547536849975586e+00 -3.618593513965606689e-01 -4.585220515727996826e-01 -3.902001976966857910e-01
9.780000000000000000e+02 5.449084854125976562e+01 -6.807126045227050781e+00 9.327486902475357056e-02 -7.940754294395446777e-02 4.160198848694562912e-03 -2.369428612291812897e-02
9.790000000000000000e+02 6.225464630126953125e+01 -8.095246553421020508e-01 -2.711018919944763184e-01 -2.438608855009078979e-01 -1.544888317584991455e-01 -1.023607105016708374e-01
9.800000000000000000e+02 6.737187194824218750e+01 -3.098766565322875977e+00 2.155320495367050171e-01 1.750196933746337891e+00 5.897186994552612305e-01 4.021738171577453613e-01
9.810000000000000000e+02 6.439393615722656250e+01 -8.583528995513916016e-01 -5.377767607569694519e-03 3.523987829685211182e-01 1.041063070297241211e-01 9.891185909509658813e-02
9.820000000000000000e+02 7.551049804687500000e+01 -2.023502826690673828e+00 5.103756114840507507e-02 6.840860366821289062e+00 2.067569255828857422e+00 5.618536472320556641e-01
9.830000000000000000e+02 9.517309188842773438e+00 -5.463913917541503906e+00 1.716176746413111687e-03 -1.011946648359298706e-01 -2.984354458749294281e-02 7.549290359020233154e-02
9.840000000000000000e+02 1.154744148254394531e+01 -2.160359621047973633e+00 2.430378943681716919e-01 -3.103864379227161407e-02 6.359977275133132935e-02 4.862801637500524521e-03
9.850000000000000000e+02 1.231157207489013672e+01 -5.320380210876464844e+00 5.817497614771127701e-03 -1.295060068368911743e-01 -3.710655122995376587e-02 -1.071341428905725479e-02
9.860000000000000000e+02 1.539096355438232422e+01 -6.502106189727783203e+00 -1.412703245878219604e-01 -1.591175049543380737e-01 -9.011635184288024902e-02 -1.941173672676086426e-01
9.870000000000000000e+02 1.894017601013183594e+01 -4.828102588653564453e+00 -1.482517570257186890e-01 2.520545758306980133e-02 -3.691389039158821106e-02 -2.347861230373382568e-01
9.880000000000000000e+02 2.225149917602539062e+01 -4.927169322967529297e+00 -3.368442952632904053e-01 1.067258939146995544e-01 -6.903551518917083740e-02 -1.755122840404510498e-01
9.890000000000000000e+02 2.657302093505859375e+01 -6.179877281188964844e+00 -7.377293705940246582e-01 1.673321425914764404e-01 -1.711191684007644653e-01 -2.292217016220092773e-01
9.900000000000000000e+02 2.801665306091308594e+01 -6.006569862365722656e+00 -1.005790710449218750e+00 1.190746352076530457e-01 -2.660148143768310547e-01 -2.116083949804306030e-01
9.910000000000000000e+02 2.598835182189941406e+01 -5.684811115264892578e+00 -7.946879267692565918e-01 2.118279784917831421e-01 -1.748579740524291992e-01 -1.166942268610000610e-01
9.920000000000000000e+02 3.502981567382812500e+01 -4.752397537231445312e+00 -1.665523409843444824e+00 -1.174647361040115356e-01 -5.348964333534240723e-01 -4.735404253005981445e-01
9.930000000000000000e+02 3.664342498779296875e+01 -5.498746871948242188e+00 -1.403902530670166016e+00 -1.517952680587768555e-01 -4.667093455791473389e-01 -4.042019844055175781e-01
9.940000000000000000e+02 3.632230377197265625e+01 -4.336014747619628906e+00 -1.605004906654357910e+00 -1.535633355379104614e-01 -5.275704860687255859e-01 -4.529585540294647217e-01
9.950000000000000000e+02 3.885435867309570312e+01 -3.685192823410034180e+00 -1.581730365753173828e+00 -4.269363880157470703e-01 -6.026000380516052246e-01 -6.430758237838745117e-01
9.960000000000000000e+02 3.231690597534179688e+01 -5.580751419067382812e+00 -2.026310443878173828e+00 -1.211431026458740234e-01 -6.442360877990722656e-01 -2.295695394277572632e-01
9.970000000000000000e+02 3.718143844604492188e+01 -1.031369972229003906e+01 -2.255463898181915283e-01 -2.101475000381469727e-01 -1.307081729173660278e-01 -3.224883973598480225e-02
9.980000000000000000e+02 3.528823089599609375e+01 -7.369637966156005859e+00 -1.006957530975341797e+00 -1.765411645174026489e-01 -3.550495803356170654e-01 -1.402214616537094116e-01
9.990000000000000000e+02 4.369176864624023438e+01 -2.139241933822631836e+00 -8.153364062309265137e-01 4.829815402626991272e-02 -2.301114797592163086e-01 -4.019781649112701416e-01
1.000000000000000000e+03 6.059922409057617188e+01 -7.423020362854003906e+00 1.972076892852783203e-01 -3.077742755413055420e-01 -3.316997736692428589e-02 3.881181776523590088e-01
1.001000000000000000e+03 6.812360382080078125e+01 -7.793094158172607422e+00 -6.590962409973144531e-02 2.469759702682495117e+00 7.211550474166870117e-01 1.768971234560012817e-01
1.002000000000000000e+03 6.437660217285156250e+01 -6.235318660736083984e+00 3.111708164215087891e-01 4.502718746662139893e-01 2.284328043460845947e-01 2.934947311878204346e-01
1.003000000000000000e+03 7.571808624267578125e+01 -7.794967651367187500e+00 -7.251566648483276367e-02 6.607999324798583984e+00 1.960645079612731934e+00 5.422904491424560547e-01
1.004000000000000000e+03 3.092992973327636719e+01 -5.619202136993408203e+00 -2.016606569290161133e+00 -1.647924035787582397e-01 -6.544197201728820801e-01 1.968209259212017059e-02
1.005000000000000000e+03 5.007521820068359375e+01 -1.540041208267211914e+00 -1.329572200775146484e+00 1.455529220402240753e-02 -3.945050835609436035e-01 -4.070313274860382080e-01
1.006000000000000000e+03 1.250594043731689453e+01 -1.163324546813964844e+01 -5.704715847969055176e-01 -4.682313799858093262e-01 -3.116108775138854980e-01 -2.051219344139099121e-01
1.007000000000000000e+03 1.494299793243408203e+01 -9.318159103393554688e+00 -3.868362903594970703e-01 -3.420660793781280518e-01 -2.186707109212875366e-01 -2.368128448724746704e-01
1.008000000000000000e+03 1.831936073303222656e+01 -1.047918224334716797e+01 -5.450803637504577637e-01 -2.685941569507122040e-02 -1.715819388628005981e-01 -3.194288015365600586e-01
1.009000000000000000e+03 2.612427902221679688e+01 -1.094874191284179688e+01 -1.654944270849227905e-01 1.215988174080848694e-01 -1.316868327558040619e-02 -3.876763880252838135e-01
1.010000000000000000e+03 2.929965209960937500e+01 -1.097982406616210938e+01 -5.950671806931495667e-02 4.562486708164215088e-02 -4.164555575698614120e-03 -3.760844171047210693e-01
1.011000000000000000e+03 3.372898864746093750e+01 -7.601120948791503906e+00 -1.048156142234802246e+00 -1.706347912549972534e-01 -3.656373023986816406e-01 -1.129215359687805176e-01
1.012000000000000000e+03 3.336841964721679688e+01 -8.852260589599609375e+00 -6.507692337036132812e-01 -1.582552045583724976e-01 -2.427073270082473755e-01 -1.139671429991722107e-01
1.013000000000000000e+03 3.646351623535156250e+01 -1.407135486602783203e+01 5.116714239120483398e-01 -2.138851732015609741e-01 8.933588117361068726e-02 -8.119380474090576172e-02
1.014000000000000000e+03 3.584621047973632812e+01 -1.005089664459228516e+01 -3.407107293605804443e-01 -1.654566526412963867e-01 -1.518502235412597656e-01 -3.290715813636779785e-02
1.015000000000000000e+03 4.352828598022460938e+01 -1.120145893096923828e+01 -1.034166961908340454e-01 -7.702139019966125488e-02 -5.413142591714859009e-02 -6.872591376304626465e-02
1.016000000000000000e+03 4.006232833862304688e+01 -9.068802833557128906e+00 -4.015842080116271973e-01 -2.002187967300415039e-01 -1.805409044027328491e-01 -7.032676041126251221e-02
1.017000000000000000e+03 4.716136932373046875e+01 -7.185661792755126953e+00 -3.950259089469909668e-01 7.100180257111787796e-03 -1.163777187466621399e-01 -2.665600776672363281e-01
1.018000000000000000e+03 6.739183807373046875e+01 -1.042558002471923828e+01 -4.502277970314025879e-01 2.105195522308349609e+00 4.964902997016906738e-01 -1.090767681598663330e-01
1.019000000000000000e+03 6.475894927978515625e+01 -1.110402679443359375e+01 -7.966833114624023438e-01 -9.031038731336593628e-02 -2.660981118679046631e-01 2.898076772689819336e-01
1.020000000000000000e+03 7.597124481201171875e+01 -1.036647796630859375e+01 -1.246146783232688904e-01 6.575882434844970703e+00 1.935380339622497559e+00 6.278718113899230957e-01
1.021000000000000000e+03 2.732950210571289062e+01 -1.350551414489746094e+01 4.596759974956512451e-01 7.749436050653457642e-02 1.611511111259460449e-01 -3.027129769325256348e-01
1.022000000000000000e+03 2.603490066528320312e+01 -1.460450077056884766e+01 5.657415986061096191e-01 3.110002726316452026e-02 1.790524870157241821e-01 -1.402211934328079224e-01
1.023000000000000000e+03 4.444217300415039062e+01 -1.412981891632080078e+01 5.383877083659172058e-02 4.162942618131637573e-02 2.864045836031436920e-02 -7.853400707244873047e-02
1.024000000000000000e+03 3.868321990966796875e+01 -1.357143974304199219e+01 2.963445186614990234e-01 -2.858316898345947266e-01 3.153853351250290871e-03 -1.047646626830101013e-01
1.025000000000000000e+03 4.018788337707519531e+00 -1.469852638244628906e+01 -1.100066453218460083e-01 9.637565352022647858e-03 -3.011072427034378052e-02 -1.543835997581481934e-01
1.026000000000000000e+03 3.883300018310546875e+01 -1.669221496582031250e+01 4.728530645370483398e-01 -3.517279624938964844e-01 3.633752837777137756e-02 -3.649752736091613770e-01
1.027000000000000000e+03 4.469604492187500000e+01 -1.292197608947753906e+01 5.020304117351770401e-03 -2.392452443018555641e-03 7.883554208092391491e-04 -5.019084736704826355e-02
1.028000000000000000e+03 7.961104393005371094e+00 -1.835365867614746094e+01 -9.423201531171798706e-02 -2.299362719058990479e-01 -9.725048393011093140e-02 -3.925198018550872803e-01
1.029000000000000000e+03 4.486948013305664062e+00 -2.186093711853027344e+01 4.925862699747085571e-02 -2.827485799789428711e-01 -7.004698365926742554e-02 -2.874836921691894531e-01
1.030000000000000000e+03 9.548982620239257812e+00 -1.973736572265625000e+01 4.923636838793754578e-02 -2.991520464420318604e-01 -7.497470080852508545e-02 -3.465169370174407959e-01
1.031000000000000000e+03 4.591341018676757812e+00 -2.565452384948730469e+01 8.166773617267608643e-02 -3.934772908687591553e-01 -9.354286640882492065e-02 -1.773206740617752075e-01
1.032000000000000000e+03 9.322350502014160156e+00 -2.463600730895996094e+01 2.430385202169418335e-01 -1.644921898841857910e-01 2.356389723718166351e-02 -2.256487607955932617e-01
1.033000000000000000e+03 1.435335636138916016e+01 -2.685147094726562500e+01 3.427960574626922607e-01 2.426227778196334839e-01 1.756256520748138428e-01 -2.807131111621856689e-01
1.034000000000000000e+03 1.143045711517333984e+01 -2.656134223937988281e+01 2.766655981540679932e-01 4.946226719766855240e-03 8.448354899883270264e-02 -1.873321831226348877e-01
1.035000000000000000e+03 4.702095985412597656e+00 -2.958156967163085938e+01 5.695415288209915161e-02 -4.452379345893859863e-01 -1.164851337671279907e-01 -7.999294996261596680e-02
1.036000000000000000e+03 1.819539451599121094e+01 -3.078594207763671875e+01 3.724920749664306641e-01 2.386527806520462036e-01 1.833434551954269409e-01 -2.136389017105102539e-01
1.037000000000000000e+03 1.088019847869873047e+01 -3.296425247192382812e+01 1.124759018421173096e-01 -7.518863677978515625e-02 1.118618063628673553e-02 -5.361753702163696289e-02
1.038000000000000000e+03 1.405050659179687500e+01 -3.096524238586425781e+01 2.323127537965774536e-01 1.014490723609924316e-01 1.001285463571548462e-01 -1.137626394629478455e-01
1.039000000000000000e+03 2.199820518493652344e+01 -3.539626693725585938e+01 2.028317302465438843e-01 1.386868357658386230e-01 1.024555712938308716e-01 -1.370788067579269409e-01
1.040000000000000000e+03 2.325235557556152344e+01 -3.402957153320312500e+01 2.364087104797363281e-01 1.360854953527450562e-01 1.117482632398605347e-01 -1.580450385808944702e-01
1.041000000000000000e+03 2.856694984436035156e+01 -3.493643569946289062e+01 2.584018111228942871e-01 -1.123280152678489685e-01 4.382213205099105835e-02 -1.897193342447280884e-01
1.042000000000000000e+03 3.326873397827148438e+01 -3.126031112670898438e+01 1.453738063573837280e-01 -4.492876231670379639e-01 -9.117414802312850952e-02 -2.325625121593475342e-01
1.043000000000000000e+03 3.663168334960937500e+01 -3.163146209716796875e+01 2.188645750284194946e-01 -4.346438944339752197e-01 -6.473378837108612061e-02 -5.208680406212806702e-02
1.044000000000000000e+03 3.924390029907226562e+01 -3.167444038391113281e+01 2.102533280849456787e-01 -2.628343701362609863e-01 -1.577431336045265198e-02 4.700630530714988708e-02
1.045000000000000000e+03 4.112643432617187500e+01 -3.516608810424804688e+01 3.607394397258758545e-01 -8.467660844326019287e-02 8.281885087490081787e-02 1.594774983823299408e-02
1.046000000000000000e+03 4.676217269897460938e+01 -3.214405822753906250e+01 2.756254076957702637e-01 3.391087353229522705e-01 1.844202429056167603e-01 -1.297244727611541748e-01
1.047000000000000000e+03 4.914221191406250000e+01 -2.883811187744140625e+01 4.132574498653411865e-01 5.125011801719665527e-01 2.777275741100311279e-01 -3.462308347225189209e-01
1.048000000000000000e+03 6.774052429199218750e+01 -3.016319274902343750e+01 -2.568001626059412956e-03 3.293086528778076172e+00 9.871555566787719727e-01 6.892845630645751953e-01
1.049000000000000000e+03 7.167975616455078125e+01 -3.059123039245605469e+01 -8.863972872495651245e-02 4.397583484649658203e+00 1.292683124542236328e+00 2.876237332820892334e-01
1.050000000000000000e+03 7.363143920898437500e+01 -3.325311660766601562e+01 -3.032146580517292023e-02 4.585475444793701172e+00 1.366546154022216797e+00 1.399263292551040649e-01
1.051000000000000000e+03 4.744484710693359375e+01 -2.670760154724121094e+01 2.973060905933380127e-01 7.688796520233154297e-01 3.198557198047637939e-01 -3.831911385059356689e-01
1.052000000000000000e+03 3.991273880004882812e+01 -2.822977638244628906e+01 5.015346035361289978e-02 -2.167612910270690918e-01 -4.998235031962394714e-02 -2.220269851386547089e-02
1.053000000000000000e+03 4.515296173095703125e+01 -2.802826499938964844e+01 2.146872431039810181e-01 4.032990038394927979e-01 1.853958666324615479e-01 -1.425110846757888794e-01
1.054000000000000000e+03 1.045893478393554688e+01 -3.544540405273437500e+01 5.815630033612251282e-02 -1.128680631518363953e-01 -1.641353033483028412e-02 -1.881447620689868927e-02
1.055000000000000000e+03 1.345399665832519531e+01 -3.313013458251953125e+01 1.426370888948440552e-01 4.605581611394882202e-02 5.660786852240562439e-02 -6.723164021968841553e-02
1.056000000000000000e+03 3.474125671386718750e+01 -3.467290115356445312e+01 3.540816903114318848e-01 -3.772578835487365723e-01 -6.952854339033365250e-03 -9.570021927356719971e-02
1.057000000000000000e+03 6.380804061889648438e+01 -3.530603027343750000e+01 4.430001676082611084e-01 1.823048472404479980e+00 6.798145771026611328e-01 3.899317085742950439e-01
1.058000000000000000e+03 7.138885498046875000e+01 -3.625248336791992188e+01 7.021117210388183594e-02 3.905542850494384766e+00 1.192726254463195801e+00 2.195662856101989746e-01
1.059000000000000000e+03 7.425481414794921875e+01 -3.539052200317382812e+01 -1.691891998052597046e-02 4.584741592407226562e+00 1.370346784591674805e+00 9.008798003196716309e-02
1.060000000000000000e+03 4.421776771545410156e+00 -3.676331329345703125e+01 1.309625525027513504e-02 -5.338155627250671387e-01 -1.562157869338989258e-01 -1.505056582391262054e-02
1.061000000000000000e+03 7.137631988525390625e+01 -2.355992507934570312e+01 4.661569893360137939e-01 5.190897464752197266e+00 1.697116255760192871e+00 2.384997755289077759e-01
1.062000000000000000e+03 6.831352996826171875e+01 -1.989560317993164062e+01 7.271193861961364746e-01 8.287217140197753906e+00 2.704300880432128906e+00 1.124082922935485840e+00
1.063000000000000000e+03 7.570437622070312500e+01 -1.663331985473632812e+01 1.538949757814407349e-01 5.872686862945556641e+00 1.807974576950073242e+00 7.738813757896423340e-01
1.064000000000000000e+03 7.712486267089843750e+01 -1.331791782379150391e+01 -5.113408342003822327e-02 6.598168849945068359e+00 1.964110374450683594e+00 6.347910165786743164e-01
1.065000000000000000e+03 7.137533569335937500e+01 2.138060951232910156e+01 -1.458045363426208496e+00 3.938369154930114746e-01 -3.192625343799591064e-01 -1.437604427337646484e-01
1.066000000000000000e+03 7.050254058837890625e+01 2.221040534973144531e+01 -1.140348911285400391e+00 7.813121676445007324e-01 -1.077110245823860168e-01 -8.798103034496307373e-02
1.067000000000000000e+03 6.742710876464843750e+01 2.625856399536132812e+01 -3.713461756706237793e-01 7.571787238121032715e-01 1.157497689127922058e-01 -3.432768285274505615e-01
1.068000000000000000e+03 6.782113647460937500e+01 2.421900558471679688e+01 -1.044460773468017578e+00 5.625878572463989258e-01 -1.445618718862533569e-01 -4.337947815656661987e-02
1.069000000000000000e+03 6.840010070800781250e+01 2.300016212463378906e+01 -1.645010709762573242e+00 6.169130206108093262e-01 -3.084293007850646973e-01 1.725279986858367920e-01
1.070000000000000000e+03 5.367192077636718750e+01 2.327483558654785156e+01 -1.033655166625976562e+00 -4.128036648035049438e-02 -3.224806785583496094e-01 1.249761804938316345e-01
1.071000000000000000e+03 5.763158035278320312e+01 2.262301826477050781e+01 -1.988894581794738770e+00 -5.994292721152305603e-02 -6.146512627601623535e-01 -1.344638615846633911e-01
1.072000000000000000e+03 4.711351776123046875e+01 2.229407882690429688e+01 -3.963385224342346191e-01 9.176634252071380615e-02 -9.137165546417236328e-02 8.619111031293869019e-02
1.073000000000000000e+03 4.030043411254882812e+01 2.110980224609375000e+01 -1.725749224424362183e-01 3.543223813176155090e-02 -4.114280641078948975e-02 6.536712497472763062e-02
1.074000000000000000e+03 3.648445510864257812e+01 2.007327842712402344e+01 -1.332549452781677246e-01 7.295006653293967247e-04 -3.975763171911239624e-02 5.376908555626869202e-02
1.075000000000000000e+03 1.589809703826904297e+01 2.243929862976074219e+01 -9.427142329514026642e-03 -2.044202992692589760e-03 -3.441403619945049286e-03 3.454578109085559845e-03
1.076000000000000000e+03 1.221876430511474609e+01 1.993745422363281250e+01 -1.776717603206634521e-03 -2.731610555201768875e-03 -1.352498424239456654e-03 2.705760707613080740e-04
1.077000000000000000e+03 1.045622539520263672e+01 2.068464088439941406e+01 -1.863998477347195148e-03 -2.753684297204017639e-03 -1.385304844006896019e-03 1.534315670141950250e-04
1.078000000000000000e+03 4.858220100402832031e+00 2.209592628479003906e+01 -3.501511237118393183e-04 4.214608998154290020e-05 -9.240151121048256755e-05 -4.839291214011609554e-04
1.079000000000000000e+03 5.903257369995117188e+00 1.891239356994628906e+01 -3.989077231381088495e-04 -5.065670702606439590e-04 -2.716424351092427969e-04 -9.437325061298906803e-04
1.080000000000000000e+03 1.046028804779052734e+01 1.611291122436523438e+01 5.584941827692091465e-04 -2.220027148723602295e-03 -4.984599072486162186e-04 -4.489265265874564648e-04
1.081000000000000000e+03 1.273187541961669922e+01 1.741560935974121094e+01 3.482635656837373972e-04 -2.005195943638682365e-03 -4.970796871930360794e-04 2.363458334002643824e-04
1.082000000000000000e+03 3.878594970703125000e+01 1.793773651123046875e+01 -1.235610470175743103e-01 1.778026670217514038e-02 -3.173423558473587036e-02 3.556567057967185974e-02
1.083000000000000000e+03 6.655247211456298828e-01 2.058882522583007812e+01 1.672306825639680028e-04 3.778051119297742844e-03 1.183584565296769142e-03 -2.279609325341880322e-04
1.084000000000000000e+03 7.149202728271484375e+01 2.200903320312500000e+01 -7.799802422523498535e-01 9.464445710182189941e-01 4.993929341435432434e-02 -5.836346745491027832e-01
1.085000000000000000e+03 7.143041992187500000e+01 2.557872009277343750e+01 -1.107669770717620850e-01 3.112681388854980469e+00 9.005743265151977539e-01 -1.368162631988525391e+00
1.086000000000000000e+03 6.761889648437500000e+01 2.913735961914062500e+01 3.238694071769714355e-01 1.490072250366210938e+00 5.441824793815612793e-01 -5.849753022193908691e-01
1.087000000000000000e+03 6.640997314453125000e+01 2.822564315795898438e+01 1.408964544534683228e-01 7.318456768989562988e-01 2.618226408958435059e-01 -3.760627210140228271e-01
1.088000000000000000e+03 6.523402404785156250e+01 2.755706214904785156e+01 -1.685109585523605347e-01 3.261275291442871094e-01 4.728497564792633057e-02 -1.007540151476860046e-01
1.089000000000000000e+03 6.048322296142578125e+01 2.528861427307128906e+01 -1.422415137290954590e+00 -3.997541666030883789e-01 -5.466508269309997559e-01 6.416052579879760742e-01
1.090000000000000000e+03 5.319791412353515625e+01 2.941395187377929688e+01 -1.462365984916687012e-01 -1.518602371215820312e-01 -8.942905068397521973e-02 5.422065854072570801e-01
1.091000000000000000e+03 5.795727539062500000e+01 2.857656288146972656e+01 -2.417048960924148560e-01 -2.298318296670913696e-01 -1.414610147476196289e-01 6.183410882949829102e-01
1.092000000000000000e+03 4.878054428100585938e+01 2.402687072753906250e+01 -5.077722072601318359e-01 8.906376361846923828e-02 -1.256125271320343018e-01 1.836609393358230591e-01
1.093000000000000000e+03 4.525075912475585938e+01 2.352499580383300781e+01 -3.071009814739227295e-01 7.520859688520431519e-02 -6.956771761178970337e-02 1.384987086057662964e-01
1.094000000000000000e+03 3.555769729614257812e+01 2.484572792053222656e+01 -9.939280152320861816e-02 -2.029058337211608887e-02 -3.590501472353935242e-02 9.188293665647506714e-02
1.095000000000000000e+03 2.177854156494140625e+01 2.372961044311523438e+01 -4.011315852403640747e-02 -8.373500779271125793e-03 -1.454599853605031967e-02 2.911269292235374451e-02
1.096000000000000000e+03 1.992899703979492188e+01 2.536844062805175781e+01 -2.579481899738311768e-02 -1.122825965285301208e-02 -1.110692322254180908e-02 2.621323242783546448e-02
1.097000000000000000e+03 1.552195835113525391e+01 2.404867744445800781e+01 -1.215658150613307953e-02 -3.690181998535990715e-03 -4.754029214382171631e-03 6.449910346418619156e-03
1.098000000000000000e+03 1.113953018188476562e+01 2.436675262451171875e+01 -5.108849145472049713e-03 -4.570617806166410446e-03 -2.903840038925409317e-03 2.934476826339960098e-03
1.099000000000000000e+03 9.492946624755859375e+00 2.524595260620117188e+01 -3.697192994877696037e-03 -4.490134771913290024e-03 -2.456198213621973991e-03 2.630707807838916779e-03
1.100000000000000000e+03 4.590910434722900391e+00 2.482682228088378906e+01 -6.048129289411008358e-04 -2.326983376406133175e-04 -2.512533683329820633e-04 3.891858796123415232e-04
1.101000000000000000e+03 6.743575334548950195e-01 2.341207695007324219e+01 1.741178130032494664e-04 4.551954567432403564e-03 1.417821738868951797e-03 -1.278054987778887153e-04
1.102000000000000000e+03 7.145962524414062500e+01 2.732476997375488281e+01 3.663883358240127563e-02 3.473352432250976562e+00 1.052997350692749023e+00 -1.331031918525695801e+00
1.103000000000000000e+03 6.450743865966796875e+01 2.907460212707519531e+01 2.046640515327453613e-01 4.096680581569671631e-01 1.842996329069137573e-01 -2.886265981942415237e-03
1.104000000000000000e+03 6.083438110351562500e+01 3.043507957458496094e+01 3.785823583602905273e-01 -3.042883239686489105e-02 1.044460609555244446e-01 3.381062448024749756e-01
1.105000000000000000e+03 5.303205490112304688e+01 3.178097724914550781e+01 1.436756253242492676e-01 -1.829393655061721802e-01 -1.177912205457687378e-02 5.047817826271057129e-01
1.106000000000000000e+03 5.518239974975585938e+01 3.076396369934082031e+01 8.266146481037139893e-02 -2.135343998670578003e-01 -3.926188126206398010e-02 5.527492165565490723e-01
1.107000000000000000e+03 4.333958435058593750e+01 2.923200416564941406e+01 -8.288165926933288574e-02 -3.430989757180213928e-02 -3.515746816992759705e-02 2.553445100784301758e-01
1.108000000000000000e+03 3.175258827209472656e+01 2.963021087646484375e+01 -7.234593853354454041e-03 -6.911779195070266724e-02 -2.290571480989456177e-02 9.123604744672775269e-02
1.109000000000000000e+03 2.790351676940917969e+01 2.772802734375000000e+01 -2.614110521972179413e-02 -5.359881371259689331e-02 -2.392197586596012115e-02 6.858714669942855835e-02
1.110000000000000000e+03 1.859930610656738281e+01 2.925551033020019531e+01 -9.608951397240161896e-03 -2.392468042671680450e-02 -1.006008964031934738e-02 2.708011306822299957e-02
1.111000000000000000e+03 1.461743736267089844e+01 2.725892066955566406e+01 -1.057721860706806183e-02 -8.759628981351852417e-03 -5.801054183393716812e-03 1.163819897919893265e-02
1.112000000000000000e+03 1.196990489959716797e+01 2.649775314331054688e+01 -6.498179398477077484e-03 -6.886214017868041992e-03 -4.015318118035793304e-03 6.167934276163578033e-03
1.113000000000000000e+03 7.609022617340087891e+00 2.713442611694335938e+01 -1.977584557607769966e-03 -4.124054685235023499e-03 -1.830491703003644943e-03 2.717334777116775513e-03
1.114000000000000000e+03 6.988815665245056152e-01 2.624984169006347656e+01 1.547020074212923646e-04 4.724395927041769028e-03 1.463729422539472580e-03 7.349619409069418907e-05
1.115000000000000000e+03 7.608293914794921875e+01 3.177026748657226562e+01 1.211855635046958923e-01 6.914291858673095703e+00 2.110643386840820312e+00 -7.988416552543640137e-01
1.116000000000000000e+03 6.579579162597656250e+01 3.206612396240234375e+01 6.665827631950378418e-01 1.248995184898376465e+00 5.746734142303466797e-01 -3.315061628818511963e-01
1.117000000000000000e+03 5.066235351562500000e+01 3.149124526977539062e+01 1.058328077197074890e-01 -1.538668423891067505e-01 -1.441020984202623367e-02 4.698325097560882568e-01
1.118000000000000000e+03 3.917110824584960938e+01 3.110648155212402344e+01 1.325292047113180161e-02 -7.985670119524002075e-02 -1.998113468289375305e-02 1.826447695493698120e-01
1.119000000000000000e+03 2.320746803283691406e+01 2.847666168212890625e+01 -1.556431408971548080e-02 -3.825063258409500122e-02 -1.614448428153991699e-02 4.761892557144165039e-02
1.120000000000000000e+03 1.810343933105468750e+01 3.257691955566406250e+01 2.606156514957547188e-03 -3.441400453448295593e-02 -9.542354382574558258e-03 2.500728517770767212e-02
1.121000000000000000e+03 1.714417839050292969e+01 2.853331756591796875e+01 -1.162341795861721039e-02 -1.613707281649112701e-02 -8.328147232532501221e-03 2.056506276130676270e-02
1.122000000000000000e+03 1.257136535644531250e+01 3.109684562683105469e+01 -1.803781604394316673e-03 -1.552919950336217880e-02 -5.199894309043884277e-03 1.153158955276012421e-02
1.123000000000000000e+03 8.308457374572753906e+00 3.004644775390625000e+01 -1.429960131645202637e-03 -7.412117905914783478e-03 -2.652623457834124565e-03 4.901899490505456924e-03
1.124000000000000000e+03 5.385657310485839844e+00 3.061123275756835938e+01 -6.027129129506647587e-04 -3.838871372863650322e-03 -1.332475221715867519e-03 2.830835524946451187e-03
1.125000000000000000e+03 7.653315067291259766e-01 3.052234840393066406e+01 -2.360185026191174984e-04 3.540087956935167313e-03 9.912208188325166702e-04 3.403096925467252731e-04
1.126000000000000000e+03 5.564225196838378906e+00 3.411177444458007812e+01 2.104287414113059640e-04 -6.420277990400791168e-03 -1.862954813987016678e-03 2.821381436660885811e-03
1.127000000000000000e+03 7.466636896133422852e-01 3.337201309204101562e+01 -2.181166346417739987e-04 2.063530962914228439e-03 5.536242388188838959e-04 4.081705701537430286e-04
1.128000000000000000e+03 7.432833099365234375e+01 3.820692062377929688e+01 3.330543339252471924e-01 5.422775745391845703e+00 1.726748943328857422e+00 -3.729263544082641602e-01
1.129000000000000000e+03 7.128228759765625000e+01 3.833123016357421875e+01 6.319104433059692383e-01 4.112493515014648438e+00 1.423321247100830078e+00 -4.171032309532165527e-01
1.130000000000000000e+03 7.380416393280029297e-01 3.751043319702148438e+01 2.267485688207671046e-04 -7.146724965423345566e-04 -1.463771768612787127e-04 4.592329205479472876e-04
1.131000000000000000e+03 4.096707820892333984e+00 1.361087417602539062e+01 4.175845533609390259e-04 3.287209838163107634e-04 2.238916640635579824e-04 -7.287422777153551579e-04
1.132000000000000000e+03 7.808242321014404297e+00 1.377119636535644531e+01 4.160957469139248133e-04 -9.148941026069223881e-04 -1.496395125286653638e-04 -6.713019101880490780e-04
1.133000000000000000e+03 1.214533901214599609e+01 1.437197685241699219e+01 6.817843532189726830e-04 -1.303673954680562019e-03 -1.865668746177107096e-04 3.559181932359933853e-04
1.134000000000000000e+03 6.175404191017150879e-01 1.634778594970703125e+01 -1.496619515819475055e-04 2.208426827564835548e-03 6.176294991746544838e-04 -2.338145277462899685e-04
1.135000000000000000e+03 3.998683691024780273e+00 1.101614570617675781e+01 3.888169012498110533e-04 2.143139863619580865e-04 1.809392706491053104e-04 -4.732084635179489851e-04
1.136000000000000000e+03 7.558567047119140625e+00 1.132518768310546875e+01 3.697262436617165804e-04 -5.285076331347227097e-04 -4.763441756949760020e-05 -4.104880208615213633e-04
1.137000000000000000e+03 1.254276275634765625e+01 9.604617118835449219e+00 4.116604977753013372e-04 -4.389831156004220247e-04 -8.196786438929848373e-06 2.894673380069434643e-04
1.138000000000000000e+03 5.862849354743957520e-01 1.353135681152343750e+01 -1.445167290512472391e-04 1.289999578148126602e-03 3.436448459979146719e-04 -1.720857253530994058e-04
1.139000000000000000e+03 4.143401622772216797e+00 6.228845596313476562e+00 2.619315928313881159e-04 8.147049811668694019e-05 1.030206258292309940e-04 -1.494918542448431253e-04
1.140000000000000000e+03 1.330311965942382812e+01 7.938548088073730469e+00 2.224627824034541845e-04 -2.213938860222697258e-04 3.206710630365705583e-07 2.133259113179519773e-04
1.141000000000000000e+03 1.561433982849121094e+01 7.230681419372558594e+00 3.246702544856816530e-04 1.809108216548338532e-04 1.516743213869631290e-04 3.273429465480148792e-04
1.142000000000000000e+03 5.618218779563903809e-01 9.326733589172363281e+00 1.497005869168788195e-04 4.316326230764389038e-04 1.743999600876122713e-04 -6.350506009766831994e-05
1.143000000000000000e+03 9.083647727966308594e+00 1.833954930305480957e+00 1.033215667121112347e-04 -2.485339246049989015e-05 2.354045318497810513e-05 -3.382816066732630134e-05
1.144000000000000000e+03 1.056887245178222656e+01 1.746513485908508301e+00 9.330100874649360776e-05 -1.190974398923572153e-05 2.441737888148054481e-05 -7.934279892651829869e-06
1.145000000000000000e+03 1.992929077148437500e+01 4.042591571807861328e+00 -2.951058559119701385e-05 1.228285600518574938e-05 -5.168318693904438987e-06 -5.151450750418007374e-05
1.146000000000000000e+03 1.603956222534179688e+01 2.500272512435913086e+00 1.553457404952496290e-04 -4.168385203229263425e-06 4.535320840659551322e-05 3.418196865823119879e-05
1.147000000000000000e+03 5.669510364532470703e-01 6.521987438201904297e+00 1.087853743229061365e-04 1.522396778455004096e-04 7.830751565052196383e-05 -3.333852146170102060e-05
1.148000000000000000e+03 4.241286087036132812e+01 1.442459487915039062e+01 -5.309892818331718445e-02 3.376029431819915771e-03 -1.491686981171369553e-02 2.257162705063819885e-03
1.149000000000000000e+03 4.938680267333984375e+01 1.364453601837158203e+01 -4.362021107226610184e-03 1.793102547526359558e-02 4.070701543241739273e-03 3.319898387417197227e-03
1.150000000000000000e+03 4.636668777465820312e+01 1.500050163269042969e+01 -5.613523721694946289e-02 -1.029873732477426529e-02 -1.993019133806228638e-02 -2.004417590796947479e-02
1.151000000000000000e+03 4.457575225830078125e+01 9.532367706298828125e+00 4.995441064238548279e-03 -6.918331608176231384e-03 -5.768670816905796528e-04 -5.332060391083359718e-04
1.152000000000000000e+03 4.738524246215820312e+01 9.665240287780761719e+00 2.259630011394619942e-03 8.886752766557037830e-05 7.045492529869079590e-04 5.186849273741245270e-03
1.153000000000000000e+03 4.840176010131835938e+01 8.151067733764648438e+00 1.315612462349236012e-04 3.678068518638610840e-03 1.142888911999762058e-03 2.136019524186849594e-03
1.154000000000000000e+03 4.687476730346679688e+01 5.812633991241455078e+00 1.771155628375709057e-03 3.397831169422715902e-04 6.332816556096076965e-04 4.342346219345927238e-04
1.155000000000000000e+03 4.336804962158203125e+01 7.666628837585449219e+00 2.933011623099446297e-03 -6.254535401239991188e-04 6.922674365341663361e-04 -2.670547692105174065e-03
1.156000000000000000e+03 3.878586578369140625e+01 -1.995044136047363281e+01 1.825525611639022827e-01 -3.665290772914886475e-01 -5.519295856356620789e-02 -4.979216754436492920e-01
1.157000000000000000e+03 4.629707717895507812e+01 -1.726867103576660156e+01 2.299073338508605957e-02 3.550668954849243164e-01 1.134172901511192322e-01 -3.602467477321624756e-02
1.158000000000000000e+03 8.554257392883300781e+00 -2.560376405715942383e+00 1.544169932603836060e-01 -3.371452540159225464e-02 3.621073812246322632e-02 6.369589269161224365e-02
1.159000000000000000e+03 7.821611785888671875e+01 2.653970909118652344e+01 -3.081871569156646729e-01 9.353436470031738281e+00 2.713574886322021484e+00 -1.161076277494430542e-01
1.160000000000000000e+03 6.835331726074218750e+01 1.512129211425781250e+01 -9.399864822626113892e-02 -1.476971626281738281e+00 -4.712910950183868408e-01 -3.078340590000152588e-01
1.161000000000000000e+03 6.780168151855468750e+01 1.236577606201171875e+01 -5.825237035751342773e-01 -1.966143608093261719e+00 -7.646002173423767090e-01 -7.714341282844543457e-01
1.162000000000000000e+03 6.720550537109375000e+01 1.103122043609619141e+01 -9.725185036659240723e-01 -1.945787429809570312e+00 -8.754917979240417480e-01 -1.163513422012329102e+00
1.163000000000000000e+03 6.134912490844726562e+01 5.129884243011474609e+00 -1.564842939376831055e+00 -1.202134490013122559e+00 -8.300932645797729492e-01 -1.375079393386840820e+00
1.164000000000000000e+03 6.034400558471679688e+01 4.226680755615234375e+00 -1.411367654800415039e+00 -1.158797621726989746e+00 -7.710496187210083008e-01 -1.316980719566345215e+00
1.165000000000000000e+03 5.482397842407226562e+01 7.316241413354873657e-02 -2.559139013290405273e+00 -5.080680847167968750e-01 -9.201620817184448242e-01 -7.814887762069702148e-01
1.166000000000000000e+03 4.864182662963867188e+01 -1.221056059002876282e-01 -1.052413105964660645e+00 1.900410056114196777e-01 -2.587116360664367676e-01 -6.064520776271820068e-02
1.167000000000000000e+03 4.713266754150390625e+01 -8.085561543703079224e-02 -8.268581628799438477e-01 1.133215874433517456e-01 -2.140609771013259888e-01 -1.220105364918708801e-01
1.168000000000000000e+03 4.562210845947265625e+01 5.069229006767272949e-02 -6.464747190475463867e-01 6.940644234418869019e-02 -1.731204837560653687e-01 -2.025591433048248291e-01
1.169000000000000000e+03 4.486793899536132812e+01 1.331814825534820557e-01 -5.692946910858154297e-01 6.048391014337539673e-02 -1.526432484388351440e-01 -2.151795476675033569e-01
1.170000000000000000e+03 4.121569061279296875e+01 -1.411738634109497070e+00 -4.832636415958404541e-01 -4.493620693683624268e-01 -2.797877192497253418e-01 -4.624009430408477783e-01
1.171000000000000000e+03 3.761893463134765625e+01 -4.011598110198974609e+00 -1.681625604629516602e+00 -2.011493742465972900e-01 -5.648325085639953613e-01 -5.353210568428039551e-01
1.172000000000000000e+03 3.371901321411132812e+01 -5.273296833038330078e+00 -1.900047421455383301e+00 -2.007639706134796143e-01 -6.302434206008911133e-01 -3.680370450019836426e-01
1.173000000000000000e+03 2.684962844848632812e+01 -2.768424749374389648e+00 -2.170758843421936035e-01 -7.134489715099334717e-02 -8.652623742818832397e-02 1.212575584650039673e-01
1.174000000000000000e+03 2.322995948791503906e+01 -3.276330709457397461e+00 -2.526708841323852539e-01 5.062547326087951660e-02 -6.061362475156784058e-02 -4.196020960807800293e-02
1.175000000000000000e+03 2.237722206115722656e+01 -3.383220672607421875e+00 -2.251577973365783691e-01 4.693637415766716003e-02 -5.346642807126045227e-02 -8.450476825237274170e-02
1.176000000000000000e+03 2.153724288940429688e+01 -3.427312612533569336e+00 -1.801100373268127441e-01 3.020999953150749207e-02 -4.497000947594642639e-02 -1.186330020427703857e-01
1.177000000000000000e+03 1.829214477539062500e+01 -3.305919170379638672e+00 1.496608182787895203e-02 1.681969314813613892e-02 9.535732679069042206e-03 -1.632977426052093506e-01
1.178000000000000000e+03 1.909475326538085938e+01 -3.363284826278686523e+00 -3.692200779914855957e-02 2.754554338753223419e-02 -2.812938997521996498e-03 -1.618249565362930298e-01
1.179000000000000000e+03 1.672715759277343750e+01 -3.087607860565185547e+00 1.121508628129959106e-01 3.692730329930782318e-03 3.475307673215866089e-02 -1.362616121768951416e-01
1.180000000000000000e+03 1.225540733337402344e+01 -2.285819530487060547e+00 2.433822005987167358e-01 -2.883630059659481049e-02 6.436377018690109253e-02 -1.416385546326637268e-02
1.181000000000000000e+03 1.297815036773681641e+01 -2.414744615554809570e+00 2.425977885723114014e-01 -2.104508876800537109e-02 6.646580994129180908e-02 -2.860136702656745911e-02
1.182000000000000000e+03 1.371552085876464844e+01 -2.546195983886718750e+00 2.318596541881561279e-01 -2.018032036721706390e-02 6.350380182266235352e-02 -5.049719661474227905e-02
1.183000000000000000e+03 1.013767242431640625e+01 -1.930225729942321777e+00 2.280438542366027832e-01 -3.368331119418144226e-02 5.830816552042961121e-02 2.540444582700729370e-02
1.184000000000000000e+03 7.163625717163085938e+00 -1.839450359344482422e+00 1.535414457321166992e-01 -8.985169231891632080e-03 4.336688295006752014e-02 6.353159248828887939e-02
1.185000000000000000e+03 6.409153938293457031e+00 -1.835036277770996094e+00 1.330266445875167847e-01 -5.624577403068542480e-03 3.822062164545059204e-02 6.742589920759201050e-02
1.186000000000000000e+03 7.917046070098876953e+00 -1.845887660980224609e+00 1.711799055337905884e-01 -1.669492945075035095e-02 4.634549096226692200e-02 5.386805161833763123e-02
1.187000000000000000e+03 4.161642074584960938e+00 -1.851535320281982422e+00 7.639037817716598511e-02 6.786674261093139648e-03 2.495311759412288666e-02 6.341456621885299683e-02
1.188000000000000000e+03 2.695317983627319336e+00 -1.931063294410705566e+00 3.798067197203636169e-02 1.754060573875904083e-02 1.665638387203216553e-02 5.009968206286430359e-02
1.189000000000000000e+03 1.956825375556945801e+00 -2.010105609893798828e+00 2.364429831504821777e-02 2.374281547963619232e-02 1.421613432466983795e-02 4.110618680715560913e-02
1.190000000000000000e+03 1.893133044242858887e+00 -5.189524173736572266e+00 4.783577751368284225e-03 9.928762167692184448e-02 3.122135996818542480e-02 7.095685601234436035e-02
1.191000000000000000e+03 1.195129513740539551e+00 -2.102419614791870117e+00 1.028904505074024200e-02 2.945749834179878235e-02 1.192396320402622223e-02 2.478878572583198547e-02
1.192000000000000000e+03 4.052925705909729004e-01 -2.182819128036499023e+00 1.823290134780108929e-03 1.926693134009838104e-02 6.327066570520401001e-03 8.123800158500671387e-03
1.193000000000000000e+03 7.908423542976379395e-01 -3.871511840820312500e+01 -4.769335035234689713e-03 -7.292690277099609375e-01 -2.202115058898925781e-01 1.174833253026008606e-02
1.194000000000000000e+03 8.276842832565307617e-01 -3.328232192993164062e+01 5.826218985021114349e-03 -7.775769233703613281e-01 -2.315251976251602173e-01 -4.049719718750566244e-04
1.195000000000000000e+03 8.157852292060852051e-01 -3.184560966491699219e+01 -6.107717053964734077e-04 -7.730305790901184082e-01 -2.320923954248428345e-01 -5.063554737716913223e-03
1.196000000000000000e+03 6.650157570838928223e-01 -2.614627265930175781e+01 2.022108295932412148e-03 -6.357411742210388184e-01 -1.901157200336456299e-01 -3.176113590598106384e-02
1.197000000000000000e+03 1.744831562042236328e+00 -2.172773742675781250e+01 9.715812280774116516e-03 -3.102026283740997314e-01 -9.014604240655899048e-02 -1.482233256101608276e-01
1.198000000000000000e+03 1.786666393280029297e+00 -1.904432868957519531e+01 -6.901724264025688171e-03 -1.127335578203201294e-01 -3.589058294892311096e-02 -1.538422405719757080e-01
1.199000000000000000e+03 1.752509713172912598e+00 -1.202725219726562500e+01 -2.486786991357803345e-02 2.128255516290664673e-01 5.638730525970458984e-02 -1.280649192631244659e-02
1.200000000000000000e+03 1.815191745758056641e+00 -6.566350936889648438e+00 -5.350926890969276428e-03 1.392413824796676636e-01 4.016713425517082214e-02 6.998820602893829346e-02
1.201000000000000000e+03 1.427103757858276367e+00 -3.292089700698852539e+00 8.556354790925979614e-03 5.844428390264511108e-02 2.010019123554229736e-02 4.772568866610527039e-02
1.202000000000000000e+03 7.913555145263671875e+01 3.884688568115234375e+01 1.241104770451784134e-02 7.353583812713623047e+00 2.209798336029052734e+00 -1.172828301787376404e-01
1.203000000000000000e+03 7.762017059326171875e+01 3.842246627807617188e+01 8.774527348577976227e-03 7.109889984130859375e+00 2.135599374771118164e+00 -4.003314673900604248e-01
1.204000000000000000e+03 7.920185852050781250e+01 3.480788421630859375e+01 3.077924717217683792e-03 8.183956146240234375e+00 2.456110239028930664e+00 -1.451236605644226074e-01
1.205000000000000000e+03 7.933451080322265625e+01 2.925494003295898438e+01 -1.368577871471643448e-02 9.644317626953125000e+00 2.889189720153808594e+00 -1.761470139026641846e-01
1.206000000000000000e+03 7.810677337646484375e+01 2.787697410583496094e+01 -1.392607837915420532e-01 9.017314910888671875e+00 2.663416385650634766e+00 -3.670073747634887695e-01
1.207000000000000000e+03 7.830630493164062500e+01 2.513702774047851562e+01 -5.818104743957519531e-01 9.620998382568359375e+00 2.711756467819213867e+00 4.554142355918884277e-01
1.208000000000000000e+03 7.875337982177734375e+01 2.239575386047363281e+01 -4.722010493278503418e-01 8.591398239135742188e+00 2.435759067535400391e+00 2.294954776763916016e+00
1.209000000000000000e+03 7.719281768798828125e+01 1.903240966796875000e+01 6.437548637390136719e+00 1.445073223114013672e+01 6.266484260559082031e+00 -3.030929803848266602e+00
1.210000000000000000e+03 7.857369995117187500e+01 1.116183567047119141e+01 -1.267830878496170044e-01 1.077392101287841797e+01 3.194141387939453125e+00 -9.327608346939086914e-02
1.211000000000000000e+03 7.950627136230468750e+01 9.785099983215332031e+00 -2.359733730554580688e-02 1.175283813476562500e+01 3.518772125244140625e+00 -1.938270032405853271e-02
1.212000000000000000e+03 7.842889404296875000e+01 8.531063079833984375e+00 -6.332020461559295654e-02 1.047162723541259766e+01 3.122492074966430664e+00 1.548476368188858032e-01
1.213000000000000000e+03 7.944710540771484375e+01 5.660121917724609375e+00 -4.554014187306165695e-03 1.102460384368896484e+01 3.306015014648437500e+00 7.240577042102813721e-02
1.214000000000000000e+03 7.820270538330078125e+01 1.727521777153015137e+00 5.837935488671064377e-03 9.210188865661621094e+00 2.764808177947998047e+00 3.160254955291748047e-01
1.215000000000000000e+03 7.938401031494140625e+01 1.141528561711311340e-01 -5.017108749598264694e-03 9.815371513366699219e+00 2.943106174468994141e+00 9.351630508899688721e-02
1.216000000000000000e+03 7.812032318115234375e+01 -1.058694839477539062e+00 7.427798118442296982e-03 8.733959197998046875e+00 2.622416019439697266e+00 2.937156558036804199e-01
1.217000000000000000e+03 7.811119079589843750e+01 -5.270180702209472656e+00 -8.033088408410549164e-03 8.156130790710449219e+00 2.444429397583007812e+00 2.703337669372558594e-01
1.218000000000000000e+03 7.938243865966796875e+01 -6.860633373260498047e+00 -5.476648220792412758e-04 8.625392913818359375e+00 2.587453603744506836e+00 8.609383553266525269e-02
1.219000000000000000e+03 7.818212127685546875e+01 -8.042022705078125000e+00 -1.741341315209865570e-02 7.798633098602294922e+00 2.334365844726562500e+00 2.929681241512298584e-01
1.220000000000000000e+03 7.822827911376953125e+01 -1.216934394836425781e+01 -2.602354995906352997e-02 7.120306968688964844e+00 2.128285169601440430e+00 4.067530035972595215e-01
1.221000000000000000e+03 7.939761352539062500e+01 -1.654787826538085938e+01 1.031918544322252274e-02 6.320225238800048828e+00 1.899163365364074707e+00 1.480679959058761597e-01
1.222000000000000000e+03 7.811267852783203125e+01 -1.759654045104980469e+01 5.483749881386756897e-02 6.014376640319824219e+00 1.820764303207397461e+00 3.784671723842620850e-01
1.223000000000000000e+03 7.807582855224609375e+01 -2.184675788879394531e+01 8.100488036870956421e-02 5.510060787200927734e+00 1.677319645881652832e+00 1.100252345204353333e-01
1.224000000000000000e+03 7.934753417968750000e+01 -2.354252052307128906e+01 1.929452270269393921e-02 5.429147720336914062e+00 1.634532690048217773e+00 -1.223607832798734307e-04
1.225000000000000000e+03 7.932233428955078125e+01 -2.634753990173339844e+01 1.208695210516452789e-02 5.475423336029052734e+00 1.646253108978271484e+00 -2.787153981626033783e-02
1.226000000000000000e+03 7.786680603027343750e+01 -2.894197845458984375e+01 -1.662079803645610809e-02 5.398069381713867188e+00 1.614434599876403809e+00 -4.916471242904663086e-02
1.227000000000000000e+03 7.927720642089843750e+01 -3.055464935302734375e+01 -9.073586203157901764e-03 5.599078178405761719e+00 1.677001357078552246e+00 -1.836465112864971161e-02
1.228000000000000000e+03 7.780166625976562500e+01 -3.316012573242187500e+01 -2.250275574624538422e-02 5.345392704010009766e+00 1.596866965293884277e+00 1.232881937175989151e-02
1.229000000000000000e+03 7.923589324951171875e+01 -3.610138702392578125e+01 8.833852596580982208e-03 5.563960075378417969e+00 1.671838164329528809e+00 1.591981016099452972e-02
1.230000000000000000e+03 7.866497039794921875e+01 -4.013137435913085938e+01 -2.186288870871067047e-02 5.347731113433837891e+00 1.597760558128356934e+00 6.920050084590911865e-02
1.231000000000000000e+03 5.545634627342224121e-01 3.655053853988647461e+00 7.167673902586102486e-05 3.089099118369631469e-05 3.077031942666508257e-05 -5.866049377800663933e-06
1.232000000000000000e+03 1.759176373481750488e+00 5.287438392639160156e+00 1.462834770791232586e-04 1.110096636693924665e-04 7.718794222455471754e-05 -6.981444312259554863e-05
1.233000000000000000e+03 1.690768003463745117e+00 8.070277214050292969e+00 1.846779632614925504e-04 2.599795116111636162e-04 1.333972468273714185e-04 -1.419107575202360749e-04
1.234000000000000000e+03 5.666145682334899902e-01 1.072688198089599609e+01 -1.380924222758039832e-04 6.464746547862887383e-04 1.525146653875708580e-04 -1.142043765867128968e-04
1.235000000000000000e+03 1.724825739860534668e+00 1.218091583251953125e+01 -1.037879555951803923e-04 7.566593703813850880e-04 1.958614157047122717e-04 -3.815118689090013504e-04
1.236000000000000000e+03 1.799279570579528809e+00 1.494749546051025391e+01 -1.173385026049800217e-04 1.294152694754302502e-03 3.530442481860518456e-04 -5.469738389365375042e-04
1.237000000000000000e+03 1.906347751617431641e+00 1.775870132446289062e+01 -1.782589097274467349e-04 1.918195863254368305e-03 5.219810991548001766e-04 -6.657561170868575573e-04
1.238000000000000000e+03 6.827419400215148926e-01 2.483018302917480469e+01 -2.593460085336118937e-04 4.738325253129005432e-03 1.343693700619041920e-03 -5.494490324053913355e-05
1.239000000000000000e+03 7.216750383377075195e-01 2.766992378234863281e+01 -2.448375744279474020e-04 4.508392885327339172e-03 1.279066549614071846e-03 1.398440217599272728e-04
1.240000000000000000e+03 2.235554218292236328e+00 2.913053321838378906e+01 -4.137609212193638086e-04 1.558107323944568634e-03 3.433039237279444933e-04 7.323090103454887867e-04
1.241000000000000000e+03 7.685238718986511230e-01 3.195153808593750000e+01 1.857684546848759055e-04 2.843169262632727623e-03 9.086813079193234444e-04 4.302770830690860748e-04
1.242000000000000000e+03 2.123696088790893555e+00 3.493883514404296875e+01 -1.164625355158932507e-04 -9.272611350752413273e-04 -3.131171106360852718e-04 1.178264850750565529e-03
1.243000000000000000e+03 9.329930543899536133e-01 3.890723800659179688e+01 -2.390582230873405933e-04 -1.541762962006032467e-03 -5.342463264241814613e-04 4.859102482441812754e-04
1.244000000000000000e+03 9.814568519592285156e+00 1.816805124282836914e+00 1.775682030711323023e-04 -8.982812687463592738e-06 5.057561429566703737e-05 3.205687244189903140e-05
1.245000000000000000e+03 9.151036262512207031e+00 2.502403736114501953e+00 1.958491338882595301e-04 -1.163874821941135451e-05 5.526311360881663859e-05 2.138514719263184816e-05
1.246000000000000000e+03 5.454749584197998047e+00 1.884036540985107422e+00 1.034948218148201704e-04 2.996762486873194575e-05 4.003873254987411201e-05 -5.712735219276510179e-05
1.247000000000000000e+03 3.277023077011108398e+00 1.931089758872985840e+00 1.034154320223024115e-05 -1.273076941288309172e-05 -7.167676585595472716e-07 -1.584398523846175522e-05
1.248000000000000000e+03 2.553139209747314453e+00 1.939996361732482910e+00 8.127978071570396423e-05 2.751384818111546338e-05 3.263808685005642474e-05 -4.616151636582799256e-05
1.249000000000000000e+03 1.209284424781799316e+00 2.053096771240234375e+00 -1.888659426185768098e-05 -2.508218130969908088e-05 -1.319063267146702856e-05 2.716418021009303629e-05
1.250000000000000000e+03 1.147256946563720703e+01 3.030858755111694336e+00 2.229001547675579786e-04 -2.605590998427942395e-05 5.905327270738780499e-05 8.822432573651894927e-05
1.251000000000000000e+03 1.287033557891845703e+01 1.364531397819519043e+00 1.354978303425014019e-04 -2.106896317854989320e-05 3.432866287766955793e-05 4.188751336187124252e-05
1.252000000000000000e+03 1.435093784332275391e+01 1.110665678977966309e+00 9.454500104766339064e-05 -9.452433914702851325e-06 2.552777004893869162e-05 2.451593354635406286e-05
1.253000000000000000e+03 1.739026260375976562e+01 1.298790574073791504e+00 2.729841980908531696e-05 -1.619462818780448288e-05 3.331137804707395844e-06 4.439970871317200363e-05
1.254000000000000000e+03 1.655318450927734375e+01 7.378521561622619629e-01 -3.341534238643362187e-06 -8.906519724405370653e-06 -3.674416120702517219e-06 4.465129313757643104e-05
1.255000000000000000e+03 1.793750000000000000e+01 4.648033976554870605e-01 4.926849328512616921e-07 -3.227248453185893595e-05 -9.533940101391635835e-06 1.289067949983291328e-05
1.256000000000000000e+03 1.927416419982910156e+01 3.741001486778259277e-01 -2.391397538303863257e-05 -3.489412119961343706e-05 -1.764242915669456124e-05 -1.085442363546462730e-05
1.257000000000000000e+03 2.128581619262695312e+01 4.157997965812683105e-01 3.265317354816943407e-05 2.690856308618094772e-05 1.786852044460829347e-05 -1.141658049164107069e-05
1.258000000000000000e+03 2.332469367980957031e+01 6.965273022651672363e-01 8.230917956097982824e-06 -5.861464887857437134e-05 -1.511511891294503585e-05 -2.404225369900814258e-06
1.259000000000000000e+03 2.394844055175781250e+01 8.768156170845031738e-01 3.703901893459260464e-05 4.473234730539843440e-05 2.453140950819943100e-05 2.792677878460381180e-05
1.260000000000000000e+03 2.214395332336425781e+01 2.268669843673706055e+00 1.544711813039612025e-05 -2.538828312026453204e-06 3.872487013723002747e-06 2.591374368421384133e-06
1.261000000000000000e+03 1.882514762878417969e+01 9.556099891662597656e+00 -2.830932789947837591e-04 3.992578713223338127e-04 3.484938497422263026e-05 2.785691503959242254e-05
1.262000000000000000e+03 1.823032379150390625e+01 1.385366249084472656e+01 5.107565084472298622e-04 2.179777948185801506e-03 8.071602787822484970e-04 4.701150173787027597e-04
1.263000000000000000e+03 1.836133575439453125e+01 1.676959991455078125e+01 1.370602054521441460e-03 5.520657636225223541e-03 2.067377790808677673e-03 1.676611602306365967e-03
1.264000000000000000e+03 2.489655494689941406e+01 2.186692237854003906e+01 -8.280847221612930298e-02 -1.062766741961240768e-02 -2.803084068000316620e-02 2.654508128762245178e-02
1.265000000000000000e+03 2.937977027893066406e+01 2.068902587890625000e+01 -1.406403183937072754e-01 -2.649785391986370087e-02 -5.014145374298095703e-02 5.899891629815101624e-02
1.266000000000000000e+03 3.773043441772460938e+01 1.496081161499023438e+01 -4.365194216370582581e-02 -8.933954872190952301e-03 -1.577576994895935059e-02 2.427445724606513977e-02
1.267000000000000000e+03 4.074417877197265625e+01 1.163048267364501953e+01 -5.678088054992258549e-04 1.168406754732131958e-02 3.334877546876668930e-03 -6.785635836422443390e-03
1.268000000000000000e+03 4.231571960449218750e+01 7.548939228057861328e+00 1.208346919156610966e-03 2.969798864796757698e-03 1.253443770110607147e-03 -2.204217016696929932e-03
1.269000000000000000e+03 4.586526870727539062e+01 3.947296380996704102e+00 -1.546708808746188879e-04 1.606011355761438608e-04 1.779076228558551520e-06 -9.628283441998064518e-05
1.270000000000000000e+03 4.661043548583984375e+01 3.872493267059326172e+00 2.950656635221093893e-04 1.285480830119922757e-04 1.270841166842728853e-04 -1.104170441976748407e-04
1.271000000000000000e+03 4.664550399780273438e+01 4.914489269256591797e+00 5.852868071087868884e-06 1.121217501349747181e-04 3.539238605299033225e-05 2.764824021141976118e-04
1.272000000000000000e+03 4.883999252319335938e+01 1.089154911041259766e+01 5.950062768533825874e-04 1.334626879543066025e-02 4.182382486760616302e-03 5.544260609894990921e-03
1.273000000000000000e+03 5.629463958740234375e+01 2.221725082397460938e+01 -1.645575881004333496e+00 -9.045755863189697266e-02 -5.208100080490112305e-01 -1.774420440196990967e-01
1.274000000000000000e+03 6.835404205322265625e+01 2.111887168884277344e+01 -2.356774091720581055e+00 4.108223617076873779e-01 -5.837855339050292969e-01 7.720794081687927246e-01
1.275000000000000000e+03 7.058628082275390625e+01 2.137326812744140625e+01 -1.717128634452819824e+00 4.598123133182525635e-01 -3.771948814392089844e-01 2.021308392286300659e-01
1.276000000000000000e+03 6.977350616455078125e+01 2.211779403686523438e+01 -1.496794462203979492e+00 6.918901205062866211e-01 -2.414712756872177124e-01 2.402541637420654297e-01
1.277000000000000000e+03 7.288471984863281250e+01 2.130085754394531250e+01 -3.933006525039672852e-01 1.319822907447814941e+00 2.779566943645477295e-01 -1.498643159866333008e+00
1.278000000000000000e+03 7.371329498291015625e+01 2.123126029968261719e+01 4.919687807559967041e-01 2.563533544540405273e+00 9.166506528854370117e-01 -3.036174774169921875e+00
1.279000000000000000e+03 7.398546600341796875e+01 2.143688201904296875e+01 6.298740506172180176e-01 4.158318042755126953e+00 1.436457633972167969e+00 -3.936129093170166016e+00
1.280000000000000000e+03 7.453981018066406250e+01 2.126990890502929688e+01 6.909396648406982422e-01 6.774296760559082031e+00 2.239570856094360352e+00 -5.137858390808105469e+00
1.281000000000000000e+03 7.634836578369140625e+01 2.106436920166015625e+01 -1.094164729118347168e+00 1.907677650451660156e+01 5.394783496856689453e+00 5.914955139160156250e-01
1.282000000000000000e+03 7.715312194824218750e+01 2.024375343322753906e+01 4.913827896118164062e+00 1.520629787445068359e+01 6.036037921905517578e+00 3.265228986740112305e+00
1.283000000000000000e+03 7.726937103271484375e+01 1.981184577941894531e+01 6.478157520294189453e+00 1.394573020935058594e+01 6.127166271209716797e+00 1.225209474563598633e+00
1.284000000000000000e+03 7.726855468750000000e+01 1.959599494934082031e+01 6.963548660278320312e+00 1.375127601623535156e+01 6.214447498321533203e+00 2.507320940494537354e-01
1.285000000000000000e+03 7.474644470214843750e+01 1.790466880798339844e+01 1.402881741523742676e+00 8.538025856018066406e+00 2.982272386550903320e+00 5.043840885162353516e+00
1.286000000000000000e+03 7.413126373291015625e+01 1.787977409362792969e+01 1.840126872062683105e+00 4.340203762054443359e+00 1.854099154472351074e+00 3.500427246093750000e+00
1.287000000000000000e+03 7.352494049072265625e+01 1.794566345214843750e+01 1.291762351989746094e+00 2.191968441009521484e+00 1.045119285583496094e+00 1.909376025199890137e+00
1.288000000000000000e+03 7.310786437988281250e+01 1.791372299194335938e+01 1.031224846839904785e+00 1.377166748046875000e+00 7.225174903869628906e-01 1.186856031417846680e+00
1.289000000000000000e+03 7.291294860839843750e+01 1.794725799560546875e+01 8.307810425758361816e-01 1.314545869827270508e+00 6.435980796813964844e-01 9.005783200263977051e-01
1.290000000000000000e+03 7.074018859863281250e+01 1.763698959350585938e+01 5.133066792041063309e-03 1.160639300942420959e-01 3.635909780859947205e-02 -4.922547042369842529e-01
1.291000000000000000e+03 7.090838623046875000e+01 1.705461502075195312e+01 3.134911954402923584e-01 3.443788886070251465e-01 1.973610222339630127e-01 -3.167060315608978271e-01
1.292000000000000000e+03 7.015979766845703125e+01 1.750168037414550781e+01 -1.591381430625915527e-02 -9.791680425405502319e-02 -3.414918482303619385e-02 -6.600068211555480957e-01
1.293000000000000000e+03 5.749684906005859375e+01 -9.837977409362792969e+00 1.344441622495651245e-01 -6.814594566822052002e-02 1.988946646451950073e-02 2.874182537198066711e-02
1.294000000000000000e+03 6.243055343627929688e+01 -1.034719181060791016e+01 -4.089126884937286377e-01 -1.616831868886947632e-01 -1.711787730455398560e-01 4.801625311374664307e-01
1.295000000000000000e+03 6.736147308349609375e+01 -1.395489692687988281e+01 -1.120494306087493896e-01 2.472863912582397461e+00 7.082443237304687500e-01 -3.729421198368072510e-01
1.296000000000000000e+03 6.832479858398437500e+01 -1.720178985595703125e+01 2.619181871414184570e-01 6.505766868591308594e+00 2.030305385589599609e+00 -1.568327099084854126e-01
1.297000000000000000e+03 6.514974975585937500e+01 -2.477936744689941406e+01 9.086651802062988281e-01 1.732799410820007324e+00 7.924394011497497559e-01 1.212137818336486816e+00
1.298000000000000000e+03 6.418975067138671875e+01 -2.573469161987304688e+01 6.878847479820251465e-01 1.175782203674316406e+00 5.591000914573669434e-01 8.862254619598388672e-01
1.299000000000000000e+03 6.212554168701171875e+01 -2.757773590087890625e+01 2.629317045211791992e-01 5.069507956504821777e-01 2.309647500514984131e-01 3.796458840370178223e-01
1.300000000000000000e+03 6.102068710327148438e+01 -2.844686698913574219e+01 1.221308559179306030e-01 3.221526741981506348e-01 1.332850605249404907e-01 2.299453914165496826e-01
1.301000000000000000e+03 5.841536331176757812e+01 -2.969565582275390625e+01 -4.480608552694320679e-02 5.901838839054107666e-02 4.263690672814846039e-03 -1.424976065754890442e-02
1.302000000000000000e+03 4.917733001708984375e+01 -2.660479354858398438e+01 4.990718960762023926e-01 6.366271376609802246e-01 3.407097160816192627e-01 -5.306533575057983398e-01
1.303000000000000000e+03 4.827077865600585938e+01 -2.562798690795898438e+01 5.107014775276184082e-01 7.301200628280639648e-01 3.722464442253112793e-01 -6.077714562416076660e-01
1.304000000000000000e+03 4.602570343017578125e+01 -2.012674713134765625e+01 7.377360761165618896e-02 7.790521979331970215e-01 2.558477222919464111e-01 -1.807304620742797852e-01
1.305000000000000000e+03 4.609108352661132812e+01 -1.867704391479492188e+01 2.872703596949577332e-02 5.393221974372863770e-01 1.704147607088088989e-01 -9.514611214399337769e-02
1.306000000000000000e+03 4.649555206298828125e+01 -1.590912818908691406e+01 5.778061226010322571e-03 2.465850263833999634e-01 7.570892572402954102e-02 2.637792844325304031e-03
1.307000000000000000e+03 4.676965332031250000e+01 -1.456185722351074219e+01 2.455979399383068085e-02 1.811905354261398315e-01 6.172510236501693726e-02 2.728533931076526642e-02
1.308000000000000000e+03 2.110085296630859375e+01 -1.272279453277587891e+01 -1.664358973503112793e-01 6.223647296428680420e-02 -3.125982731580734253e-02 -1.273001432418823242e-01
1.309000000000000000e+03 2.477378654479980469e+01 -1.330665683746337891e+01 2.057330459356307983e-01 7.260017096996307373e-02 8.349996060132980347e-02 -2.287585884332656860e-01
1.310000000000000000e+03 2.870267486572265625e+01 -1.483189582824707031e+01 9.586684107780456543e-01 6.198964267969131470e-02 3.061974048614501953e-01 -2.048132270574569702e-01
1.311000000000000000e+03 3.254243469238281250e+01 -1.453786754608154297e+01 1.076442241668701172e+00 2.983337640762329102e-01 4.124328196048736572e-01 -3.475361466407775879e-01
1.312000000000000000e+03 3.605223846435546875e+01 -1.909818840026855469e+01 1.624931395053863525e-01 -3.192175030708312988e-01 -4.701730608940124512e-02 -2.264264076948165894e-01
1.313000000000000000e+03 3.625672149658203125e+01 -2.179717063903808594e+01 -1.786607131361961365e-02 -9.908344149589538574e-01 -3.026101589202880859e-01 -1.579077690839767456e-01
1.314000000000000000e+03 3.585721969604492188e+01 -2.455633926391601562e+01 -1.798222959041595459e-01 -1.420813083648681641e+00 -4.801906049251556396e-01 -4.207403361797332764e-01
1.315000000000000000e+03 3.339715576171875000e+01 -2.867913436889648438e+01 -3.177403211593627930e-01 -5.106168389320373535e-01 -2.485071420669555664e-01 -3.944545686244964600e-01
1.316000000000000000e+03 3.226615905761718750e+01 -2.948821258544921875e+01 -2.291087657213211060e-01 -3.447021842002868652e-01 -1.721432805061340332e-01 -2.753202021121978760e-01
1.317000000000000000e+03 2.532708549499511719e+01 -3.093142127990722656e+01 4.320511519908905029e-01 3.471502661705017090e-02 1.400298476219177246e-01 -8.778425306081771851e-02
1.318000000000000000e+03 2.382841682434082031e+01 -3.072300720214843750e+01 4.861849546432495117e-01 4.660521447658538818e-02 1.598370522260665894e-01 -1.213648468255996704e-01
1.319000000000000000e+03 2.075222206115722656e+01 -3.011025810241699219e+01 5.528969764709472656e-01 1.601355373859405518e-01 2.139097601175308228e-01 -2.430775761604309082e-01
1.320000000000000000e+03 1.721982574462890625e+01 -2.758498382568359375e+01 5.028989315032958984e-01 3.610750138759613037e-01 2.591921985149383545e-01 -3.972319662570953369e-01
1.321000000000000000e+03 1.241941070556640625e+01 -2.282881355285644531e+01 2.664041817188262939e-01 2.623337209224700928e-01 1.586213707923889160e-01 -2.742095589637756348e-01
1.322000000000000000e+03 1.175801563262939453e+01 -1.946481323242187500e+01 -2.888068929314613342e-02 -2.608859241008758545e-01 -8.692998439073562622e-02 -6.560186296701431274e-02
1.323000000000000000e+03 1.411330223083496094e+01 -1.314198017120361328e+01 -1.058798074722290039e+00 -6.290468573570251465e-01 -5.063534379005432129e-01 -7.382772564888000488e-01
1.324000000000000000e+03 4.149325942993164062e+01 3.584565818309783936e-01 -7.928974181413650513e-02 -2.085996717214584351e-01 -8.636682480573654175e-02 -1.231191903352737427e-01
1.325000000000000000e+03 7.236066436767578125e+01 1.789504623413085938e+01 4.486909210681915283e-01 6.977408528327941895e-01 3.439295291900634766e-01 2.675661146640777588e-01
1.326000000000000000e+03 7.332258605957031250e+01 1.791786766052246094e+01 1.235727667808532715e+00 1.667693018913269043e+00 8.710262179374694824e-01 1.489336490631103516e+00
1.327000000000000000e+03 7.454605865478515625e+01 1.788663864135742188e+01 1.722257494926452637e+00 6.888589382171630859e+00 2.583254098892211914e+00 4.666276931762695312e+00
1.328000000000000000e+03 7.434192657470703125e+01 1.787660408020019531e+01 1.872217178344726562e+00 5.405694007873535156e+00 2.183373212814331055e+00 4.108413696289062500e+00
1.329000000000000000e+03 7.391192626953125000e+01 1.788744735717773438e+01 1.762270927429199219e+00 3.354530334472656250e+00 1.535040378570556641e+00 2.888914823532104492e+00
1.330000000000000000e+03 7.547319793701171875e+01 1.790393066406250000e+01 -5.937119722366333008e-01 1.554733371734619141e+01 4.486086368560791016e+00 4.385220050811767578e+00
1.331000000000000000e+03 7.612055206298828125e+01 1.795397567749023438e+01 -1.191443800926208496e+00 1.892024993896484375e+01 5.318642139434814453e+00 5.377712845802307129e-01
1.332000000000000000e+03 7.632940673828125000e+01 1.801862335205078125e+01 -6.714619398117065430e-01 1.915658378601074219e+01 5.545536518096923828e+00 -9.356212019920349121e-01
1.333000000000000000e+03 7.672711181640625000e+01 1.822945785522460938e+01 9.910804629325866699e-01 1.793183708190917969e+01 5.676875591278076172e+00 -2.814512491226196289e+00
1.334000000000000000e+03 7.657611846923828125e+01 2.100570678710937500e+01 -1.927266865968704224e-01 1.825793838500976562e+01 5.419563770294189453e+00 1.880522847175598145e+00
1.335000000000000000e+03 7.948820495605468750e+01 1.823934555053710938e+01 4.176022112369537354e-01 3.543560266494750977e+00 1.188348770141601562e+00 -1.231526136398315430e+00
1.336000000000000000e+03 7.693923187255859375e+01 1.837348175048828125e+01 2.105267047882080078e+00 1.674154090881347656e+01 5.654042243957519531e+00 -3.344467401504516602e+00
1.337000000000000000e+03 7.715479278564453125e+01 1.881190681457519531e+01 5.282809257507324219e+00 1.482238101959228516e+01 6.031557083129882812e+00 -3.346507310867309570e+00
1.338000000000000000e+03 7.957419586181640625e+01 1.965782737731933594e+01 4.144077301025390625e-01 1.335601806640625000e+00 5.250028967857360840e-01 -2.866660431027412415e-02
1.339000000000000000e+03 7.722750091552734375e+01 2.003249740600585938e+01 5.641039848327636719e+00 1.445981502532958984e+01 6.030256271362304688e+00 2.566938161849975586e+00
1.340000000000000000e+03 7.698677062988281250e+01 1.786321640014648438e+01 -3.956837207078933716e-02 1.598930740356445312e+01 4.784921646118164062e+00 -2.634083986282348633e+00
1.341000000000000000e+03 7.614003753662109375e+01 2.112407112121582031e+01 -1.555987000465393066e+00 1.890715026855468750e+01 5.205348968505859375e+00 -9.629051089286804199e-01
1.342000000000000000e+03 7.765782928466796875e+01 1.977892494201660156e+01 4.344282627105712891e+00 1.139457035064697266e+01 4.721655845642089844e+00 1.007402062416076660e+00
1.343000000000000000e+03 7.742156982421875000e+01 1.929202651977539062e+01 5.900630474090576172e+00 1.296551036834716797e+01 5.659842491149902344e+00 -1.737667679786682129e+00
1.344000000000000000e+03 7.693630981445312500e+01 2.065572166442871094e+01 2.374164104461669922e+00 1.695364189147949219e+01 5.798341274261474609e+00 3.485284328460693359e+00
1.345000000000000000e+03 7.840795135498046875e+01 1.940100669860839844e+01 2.115149736404418945e+00 7.677369117736816406e+00 2.937755584716796875e+00 -3.068135976791381836e-01
1.346000000000000000e+03 7.572794342041015625e+01 1.753052330017089844e+01 -1.409042477607727051e+00 1.543982982635498047e+01 4.209236145019531250e+00 2.572354078292846680e+00
1.347000000000000000e+03 7.431195831298828125e+01 2.127394294738769531e+01 7.093619108200073242e-01 5.377508163452148438e+00 1.826061010360717773e+00 -4.589363574981689453e+00
1.348000000000000000e+03 7.303513336181640625e+01 2.154982566833496094e+01 -1.258554905652999878e-01 1.806179404258728027e+00 5.040971636772155762e-01 -1.979479551315307617e+00
1.349000000000000000e+03 7.297109985351562500e+01 2.193542098999023438e+01 -8.927525021135807037e-03 2.322844266891479492e+00 6.941750049591064453e-01 -2.149459362030029297e+00
1.350000000000000000e+03 7.262679290771484375e+01 2.136196708679199219e+01 -5.716933012008666992e-01 9.930893182754516602e-01 1.264188140630722046e-01 -1.250210285186767578e+00
1.351000000000000000e+03 7.545231628417968750e+01 2.139460945129394531e+01 -1.404481768608093262e+00 1.432765674591064453e+01 3.876952409744262695e+00 -4.668041706085205078e+00
1.352000000000000000e+03 6.857470703125000000e+01 1.624513435363769531e+01 -2.533838525414466858e-02 -9.135285615921020508e-01 -2.816600799560546875e-01 -3.352485001087188721e-01
1.353000000000000000e+03 4.205551147460937500e+01 -2.242307186126708984e+00 -9.308360815048217773e-01 -1.104781404137611389e-01 -3.123942613601684570e-01 -4.750508368015289307e-01
1.354000000000000000e+03 4.412700653076171875e+01 1.995399445295333862e-01 -4.804026782512664795e-01 2.536023966968059540e-02 -1.365127414464950562e-01 -2.280653268098831177e-01
1.355000000000000000e+03 4.242155456542968750e+01 2.953508198261260986e-01 -2.080830335617065430e-01 -9.124428033828735352e-02 -8.979818969964981079e-02 -1.735112369060516357e-01
1.356000000000000000e+03 4.242433929443359375e+01 -7.351730465888977051e-01 -4.534119367599487305e-01 -1.551760882139205933e-01 -1.825764030218124390e-01 -3.596372306346893311e-01
1.357000000000000000e+03 4.172695159912109375e+01 -4.854637980461120605e-01 -3.074572384357452393e-01 -2.238058596849441528e-01 -1.593789309263229370e-01 -2.724343240261077881e-01
1.358000000000000000e+03 7.142687225341796875e+01 1.726142883300781250e+01 3.773900568485260010e-01 5.684599280357360840e-01 2.837550044059753418e-01 -1.223938539624214172e-01
1.359000000000000000e+03 7.183974456787109375e+01 1.782753753662109375e+01 2.239243537187576294e-01 4.636138975620269775e-01 2.062614858150482178e-01 -1.243823990225791931e-01
1.360000000000000000e+03 7.357742309570312500e+01 1.769968414306640625e+01 1.455579996109008789e+00 2.855610370635986328e+00 1.293357133865356445e+00 2.263409137725830078e+00
1.361000000000000000e+03 7.034580230712890625e+01 1.671995544433593750e+01 2.038232535123825073e-01 2.309300750494003296e-01 1.304259896278381348e-01 -4.242828786373138428e-01
1.362000000000000000e+03 7.192762756347656250e+01 1.740400695800781250e+01 5.210357308387756348e-01 8.299213051795959473e-01 4.052871167659759521e-01 1.676670014858245850e-01
1.363000000000000000e+03 5.072472000122070312e+01 -1.882266998291015625e-02 -1.823552727699279785e+00 -2.191384583711624146e-01 -6.128073334693908691e-01 1.881224215030670166e-01
1.364000000000000000e+03 5.010065460205078125e+01 -1.339994221925735474e-01 -1.352395057678222656e+00 4.649923369288444519e-02 -3.917687237262725830e-01 -3.681129217147827148e-02
1.365000000000000000e+03 4.875684356689453125e+01 -1.454106211662292480e+00 -1.127318978309631348e+00 1.593058556318283081e-01 -2.904039323329925537e-01 -2.982828021049499512e-01
1.366000000000000000e+03 6.628713989257812500e+01 2.224216270446777344e+01 -2.860726594924926758e+00 -2.440839558839797974e-01 -9.314431548118591309e-01 5.596126317977905273e-01
1.367000000000000000e+03 2.197147178649902344e+01 4.552054703235626221e-01 -2.470938306942116469e-05 -2.700561526580713689e-05 -1.551449895487166941e-05 6.945589575479971245e-06
1.368000000000000000e+03 2.143335914611816406e+01 2.396712779998779297e+00 -4.877279570791870356e-05 -7.203464338090270758e-05 -3.624223245424218476e-05 -3.076501889154314995e-05
1.369000000000000000e+03 2.060721588134765625e+01 4.135888516902923584e-01 -3.459450454101897776e-05 -3.257266871514730155e-05 -2.015015161305200309e-05 -5.801200586574850604e-06
1.370000000000000000e+03 2.072319984436035156e+01 2.408809423446655273e+00 2.379734723945148289e-05 6.159606709843501449e-05 2.561802284617442638e-05 -2.424393096589483321e-05
1.371000000000000000e+03 2.166335296630859375e+01 1.410546064376831055e+00 4.234634252497926354e-05 2.984487582580186427e-05 2.165736623283009976e-05 -8.091727977443952113e-06
1.372000000000000000e+03 6.905059051513671875e+01 2.121905517578125000e+01 -2.191236019134521484e+00 5.046663880348205566e-01 -5.059708952903747559e-01 6.554704308509826660e-01
1.373000000000000000e+03 6.834910583496093750e+01 2.206481742858886719e+01 -2.058777809143066406e+00 5.442799925804138184e-01 -4.543493390083312988e-01 5.306959152221679688e-01
1.374000000000000000e+03 9.415367126464843750e+00 -1.868214726448059082e+00 2.121767103672027588e-01 -3.212826326489448547e-02 5.401453375816345215e-02 3.478541597723960876e-02
1.375000000000000000e+03 1.069253540039062500e+01 -2.733775377273559570e+00 1.874552816152572632e-01 -4.792488366365432739e-02 4.185912013053894043e-02 3.257170692086219788e-02
1.376000000000000000e+03 1.084143543243408203e+01 -2.040597677230834961e+00 2.378346920013427734e-01 -3.712077438831329346e-02 6.021417304873466492e-02 1.536385715007781982e-02
1.377000000000000000e+03 1.125710582733154297e+01 -3.524610519409179688e+00 1.390815675258636475e-01 -6.723920255899429321e-02 2.155270986258983612e-02 2.847999520599842072e-02
1.378000000000000000e+03 9.991845130920410156e+00 -2.649361371994018555e+00 1.789172589778900146e-01 -4.784895479679107666e-02 3.932049125432968140e-02 4.374321177601814270e-02
1.379000000000000000e+03 1.210730838775634766e+01 -2.960842132568359375e+00 1.875334829092025757e-01 -4.649326205253601074e-02 4.231206700205802917e-02 6.570658879354596138e-04
1.380000000000000000e+03 1.798942184448242188e+01 1.057647109031677246e+00 2.337843397981487215e-06 4.133207403356209397e-05 1.310097559326095507e-05 -2.703595782804768533e-06
1.381000000000000000e+03 1.861128616333007812e+01 3.818385601043701172e-01 1.433962643204722553e-05 4.571498357108794153e-05 1.801638245524372905e-05 1.912463631015270948e-06
1.382000000000000000e+03 1.446678447723388672e+01 2.603154420852661133e+00 1.529135333839803934e-04 -2.141427103197202086e-06 4.523163443082012236e-05 5.567211337620392442e-05
1.383000000000000000e+03 1.967557716369628906e+01 1.261538624763488770e+00 -3.669639045256190002e-05 -2.882025182771030813e-05 -1.965499177458696067e-05 -7.680177077418193221e-06
1.384000000000000000e+03 2.265969085693359375e+01 5.520684719085693359e-01 8.753539077588357031e-06 2.514423431421164423e-05 1.016933219943894073e-05 -1.916199107654392719e-05
1.385000000000000000e+03 2.323870658874511719e+01 1.968978404998779297e+00 -4.745427577290683985e-05 -8.578518463764339685e-05 -3.997183739556930959e-05 -4.030677519040182233e-05
1.386000000000000000e+03 8.537568092346191406e+00 3.854653358459472656e+00 1.390351972077041864e-04 -9.729307203087955713e-05 1.252263609785586596e-05 -6.473669054685160518e-05
1.387000000000000000e+03 6.975534915924072266e+00 2.567817926406860352e+00 9.686077100923284888e-05 -3.782186468015424907e-05 1.771167262631934136e-05 -6.550570105900987983e-05
1.388000000000000000e+03 4.903017520904541016e+00 3.532786607742309570e+00 8.181401062756776810e-05 -2.097911237797234207e-05 1.825047002057544887e-05 -6.756091897841542959e-05
1.389000000000000000e+03 2.563061475753784180e+00 2.825179100036621094e+00 -9.415344720764551312e-06 -1.210530808748444542e-05 -6.456195933424169198e-06 -1.356999018753413111e-05
1.390000000000000000e+03 6.347415447235107422e+00 3.319278240203857422e+00 9.812542703002691269e-05 -3.299594391137361526e-05 1.953884384420234710e-05 -8.788506966084241867e-05
1.391000000000000000e+03 8.358115196228027344e+00 1.843333244323730469e+00 1.667352917138487101e-04 2.362104851272306405e-06 5.072922067483887076e-05 -2.457271421008044854e-06
1.392000000000000000e+03 7.699162483215332031e+00 2.544943571090698242e+00 1.775982673279941082e-04 -2.893982127716299146e-06 5.241128747002221644e-05 -2.060496444755699486e-05
1.393000000000000000e+03 4.728854179382324219e+00 1.901212573051452637e+00 4.742149030789732933e-05 -2.112661240971647203e-05 7.888463187555316836e-06 -2.812464481394272298e-05
1.394000000000000000e+03 4.063541889190673828e+00 2.760708093643188477e+00 1.417231669620377943e-05 6.977566044952254742e-06 6.344964731397340074e-06 -4.026462920592166483e-05
1.395000000000000000e+03 3.404185056686401367e+00 3.671357393264770508e+00 -3.639562783064320683e-05 6.010846846038475633e-05 7.113852007023524493e-06 -8.402454841416329145e-05
1.396000000000000000e+03 1.757954239845275879e+00 2.724740743637084961e+00 1.461780339013785124e-04 8.339489431818947196e-05 6.887187919346615672e-05 -3.490725430310703814e-05
1.397000000000000000e+03 1.857558369636535645e+00 1.921002268791198730e+00 -4.992978938389569521e-05 3.318393646623007953e-05 -5.023755875299684703e-06 -2.166414196835830808e-05
1.398000000000000000e+03 4.590605926513671875e+01 5.014193534851074219e+00 1.193509320728480816e-03 -4.127329157199710608e-05 3.456707927398383617e-04 1.301552692893892527e-04
1.399000000000000000e+03 4.436679077148437500e+01 4.104968070983886719e+00 -2.030991599895060062e-04 2.447813167236745358e-04 1.250464265467599034e-05 -1.692680089036002755e-04
1.400000000000000000e+03 1.509100437164306641e+01 9.897114634513854980e-01 2.150556383639923297e-06 7.754118087177630514e-06 2.971402182083693333e-06 3.668023055070079863e-05
1.401000000000000000e+03 1.594456672668457031e+01 1.668426990509033203e+00 -2.467220292601268739e-05 2.270296499773394316e-05 -5.907712647967855446e-07 5.320249329088255763e-05
1.402000000000000000e+03 1.445492172241210938e+01 -2.679452896118164062e+00 2.157557010650634766e-01 -1.027403865009546280e-02 6.164450198411941528e-02 -6.625506281852722168e-02
1.403000000000000000e+03 1.653015708923339844e+01 -3.830356121063232422e+00 4.126780852675437927e-02 -1.147338934242725372e-02 8.938325569033622742e-03 -1.562597155570983887e-01
1.404000000000000000e+03 1.427618217468261719e+01 -3.334178447723388672e+00 1.473663300275802612e-01 -3.732494637370109558e-02 3.301241621375083923e-02 -7.185506820678710938e-02
1.405000000000000000e+03 1.282411766052246094e+01 -3.087329626083374023e+00 1.772427856922149658e-01 -4.555855691432952881e-02 3.950526937842369080e-02 -2.434776350855827332e-02
1.406000000000000000e+03 5.654679775238037109e+00 -1.834501385688781738e+00 1.131084784865379333e-01 -1.220227059093303978e-04 3.389593586325645447e-02 7.029567658901214600e-02
1.407000000000000000e+03 8.440674781799316406e+00 -3.260196685791015625e+00 1.194478124380111694e-01 -4.057705402374267578e-02 2.366122603416442871e-02 7.990496605634689331e-02
1.408000000000000000e+03 4.848035335540771484e+00 -3.206357240676879883e+00 5.914559960365295410e-02 9.393335320055484772e-03 2.056168019771575928e-02 9.754099696874618530e-02
1.409000000000000000e+03 4.858848094940185547e+00 -2.526385545730590820e+00 7.691885530948638916e-02 7.881842553615570068e-03 2.544020861387252808e-02 8.477893471717834473e-02
1.410000000000000000e+03 9.864543914794921875e+00 -3.351073265075683594e+00 1.356392502784729004e-01 -5.617251247167587280e-02 2.384001947939395905e-02 5.740712583065032959e-02
1.411000000000000000e+03 6.330478191375732422e+00 -2.502493143081665039e+00 1.090259552001953125e-01 -6.640246603637933731e-03 3.071571327745914459e-02 8.468482643365859985e-02
1.412000000000000000e+03 7.072499275207519531e+00 -2.518268346786499023e+00 1.231671422719955444e-01 -1.535275392234325409e-02 3.234431520104408264e-02 7.931683957576751709e-02
1.413000000000000000e+03 3.268631458282470703e+00 -4.236174583435058594e+00 2.378257922828197479e-02 4.751847311854362488e-02 2.139031514525413513e-02 9.467145055532455444e-02
1.414000000000000000e+03 5.367210507392883301e-01 -3.581184864044189453e+00 5.650930572301149368e-03 6.790411472320556641e-02 2.206651493906974792e-02 2.067687362432479858e-02
1.415000000000000000e+03 4.796377944946289062e+01 -8.027964830398559570e-01 -1.012846827507019043e+00 1.870284378528594971e-01 -2.477455288171768188e-01 -1.826588213443756104e-01
1.416000000000000000e+03 4.788653564453125000e+01 -1.030346006155014038e-01 -9.317602515220642090e-01 1.217516139149665833e-01 -2.430025786161422729e-01 -9.195704013109207153e-02
1.417000000000000000e+03 4.869007873535156250e+01 -7.901350259780883789e-01 -1.156597256660461426e+00 1.296268552541732788e-01 -3.080911040306091309e-01 -2.107449918985366821e-01
1.418000000000000000e+03 4.723677444458007812e+01 -8.095609545707702637e-01 -9.092480540275573730e-01 1.275669932365417480e-01 -2.345043122768402100e-01 -2.206192314624786377e-01
1.419000000000000000e+03 4.941647338867187500e+01 -8.052287101745605469e-01 -1.247195601463317871e+00 1.330075711011886597e-01 -3.342564105987548828e-01 -2.033796608448028564e-01
1.420000000000000000e+03 4.500654983520507812e+01 -6.081203222274780273e-01 -6.771208047866821289e-01 8.376527577638626099e-02 -1.780066639184951782e-01 -2.821284532546997070e-01
1.421000000000000000e+03 4.430636596679687500e+01 -5.678271055221557617e-01 -6.207044124603271484e-01 4.961430653929710388e-02 -1.713270395994186401e-01 -2.937674522399902344e-01
1.422000000000000000e+03 4.367232513427734375e+01 -5.950183272361755371e-01 -5.672659277915954590e-01 1.271704956889152527e-02 -1.663646697998046875e-01 -3.165586292743682861e-01
1.423000000000000000e+03 4.574337387084960938e+01 -6.923075914382934570e-01 -7.502931356430053711e-01 9.969846904277801514e-02 -1.951783895492553711e-01 -2.573638558387756348e-01
1.424000000000000000e+03 1.733259582519531250e+01 -3.971622705459594727e+00 -4.047495778650045395e-03 -2.147012390196323395e-03 -1.858352567069232464e-03 -1.835846155881881714e-01
1.425000000000000000e+03 1.501386928558349609e+01 -3.472007036209106445e+00 1.231354027986526489e-01 -2.807791531085968018e-02 2.851724810898303986e-02 -9.457243978977203369e-02
1.426000000000000000e+03 1.975294303894042969e+01 -4.801155090332031250e+00 -1.845939159393310547e-01 4.141367971897125244e-02 -4.295407235622406006e-02 -2.382042407989501953e-01
1.427000000000000000e+03 1.142226409912109375e+01 2.311232805252075195e+00 7.686465687584131956e-05 -2.267799754918087274e-05 1.625599907129071653e-05 5.571091151068685576e-06
1.428000000000000000e+03 1.218497467041015625e+01 2.208598613739013672e+00 1.859283511294052005e-04 -2.467196827637962997e-05 4.837691449210979044e-05 6.939174636499956250e-05
1.429000000000000000e+03 1.065111637115478516e+01 2.401005268096923828e+00 1.960912195499986410e-04 -2.002393921429757029e-05 5.282018537400290370e-05 5.778445847681723535e-05
1.430000000000000000e+03 6.974195098876953125e+01 2.293243789672851562e+01 -1.048495292663574219e+00 9.269921183586120605e-01 -3.645094484090805054e-02 -1.174462437629699707e-01
1.431000000000000000e+03 7.211820220947265625e+01 2.135711860656738281e+01 -1.090335607528686523e+00 6.528571248054504395e-01 -1.312435269355773926e-01 -7.189187407493591309e-01
1.432000000000000000e+03 7.211807250976562500e+01 2.326338577270507812e+01 -1.262117326259613037e-01 2.523198127746582031e+00 7.190959453582763672e-01 -1.593162178993225098e+00
1.433000000000000000e+03 7.207774353027343750e+01 2.193331527709960938e+01 -5.552980899810791016e-01 1.118745088577270508e+00 1.690340936183929443e-01 -1.024719834327697754e+00
1.434000000000000000e+03 7.110050201416015625e+01 2.242573165893554688e+01 -7.185040712356567383e-01 9.737836718559265137e-01 7.658388465642929077e-02 -4.900085330009460449e-01
1.435000000000000000e+03 1.990496253967285156e+01 -3.387126207351684570e+00 -8.780863881111145020e-02 2.408293448388576508e-02 -1.911771297454833984e-02 -1.610650867223739624e-01
1.436000000000000000e+03 2.063547515869140625e+01 -4.117428779602050781e+00 -1.808067113161087036e-01 4.492386057972908020e-02 -4.076485335826873779e-02 -1.869708001613616943e-01
1.437000000000000000e+03 1.900072288513183594e+01 -4.083921432495117188e+00 -9.532845020294189453e-02 2.580012939870357513e-02 -2.085849456489086151e-02 -2.059597820043563843e-01
1.438000000000000000e+03 1.981658172607421875e+01 -4.096384048461914062e+00 -1.375583857297897339e-01 3.696890547871589661e-02 -3.017684444785118103e-02 -1.963221579790115356e-01
1.439000000000000000e+03 2.318318939208984375e+01 -4.064182281494140625e+00 -3.183753788471221924e-01 8.666808903217315674e-02 -6.951218843460083008e-02 -8.826700598001480103e-02
1.440000000000000000e+03 2.490354537963867188e+01 -3.872474193572998047e+00 -3.886521458625793457e-01 8.864233642816543579e-02 -9.000294655561447144e-02 3.166692797094583511e-03
1.441000000000000000e+03 2.585364723205566406e+01 -3.832087993621826172e+00 -4.208645522594451904e-01 8.064404129981994629e-02 -1.020661517977714539e-01 5.912378057837486267e-02
1.442000000000000000e+03 2.408195495605468750e+01 -3.159917593002319336e+00 -2.792176902294158936e-01 6.277774274349212646e-02 -6.493198126554489136e-02 -5.404371302574872971e-03
1.443000000000000000e+03 2.477027893066406250e+01 -5.315482616424560547e+00 -5.419020652770996094e-01 1.625538617372512817e-01 -1.138044670224189758e-01 -1.021266430616378784e-01
1.444000000000000000e+03 2.403139114379882812e+01 -3.967175960540771484e+00 -3.544890582561492920e-01 9.670922905206680298e-02 -7.733394950628280640e-02 -3.940729796886444092e-02
1.445000000000000000e+03 4.822754669189453125e+01 5.272819995880126953e+00 -4.385960346553474665e-04 -9.251437586499378085e-05 -1.593331253388896585e-04 2.900807157857343554e-05
1.446000000000000000e+03 6.958640289306640625e+01 1.631235504150390625e+01 8.911071717739105225e-02 -3.328991830348968506e-01 -7.313653826713562012e-02 -5.075289011001586914e-01
1.447000000000000000e+03 4.260853195190429688e+01 5.097250938415527344e+00 -4.768185608554631472e-04 -6.056165439076721668e-04 -3.247305285185575485e-04 1.174904173240065575e-04
1.448000000000000000e+03 4.337588500976562500e+01 6.306599617004394531e+00 1.399808796122670174e-03 4.674252413678914309e-04 5.601702141575515270e-04 -8.798901108093559742e-04
1.449000000000000000e+03 1.928461074829101562e+01 -1.095876789093017578e+01 -4.802228212356567383e-01 7.908890396356582642e-02 -1.203401759266853333e-01 -2.913354337215423584e-01
1.450000000000000000e+03 1.509429073333740234e+01 -1.083290672302246094e+01 -6.582049131393432617e-01 -4.325004220008850098e-01 -3.272115886211395264e-01 -3.138342797756195068e-01
1.451000000000000000e+03 6.972978210449218750e+01 -2.238894844055175781e+01 7.999175786972045898e-01 5.709067344665527344e+00 1.952695488929748535e+00 5.517981052398681641e-01
1.452000000000000000e+03 6.812694549560546875e+01 -2.115344429016113281e+01 1.501567363739013672e+00 7.125591278076171875e+00 2.588147640228271484e+00 2.112028121948242188e+00
1.453000000000000000e+03 6.185808181762695312e+01 2.647290992736816406e+01 -8.203414082527160645e-01 -3.190649151802062988e-01 -3.418219089508056641e-01 5.335276126861572266e-01
1.454000000000000000e+03 6.120024871826171875e+01 2.292005729675292969e+01 -3.315629482269287109e+00 -2.953748703002929688e-01 -1.083301305770874023e+00 4.352630078792572021e-01
1.455000000000000000e+03 3.620896530151367188e+01 -1.777018356323242188e+01 4.655010998249053955e-01 -1.286969184875488281e-01 1.010412499308586121e-01 -3.695851564407348633e-01
1.456000000000000000e+03 5.266852951049804688e+01 -7.303781032562255859e+00 3.642019629478454590e-01 4.844176024198532104e-02 1.237931177020072937e-01 -1.918768733739852905e-01
1.457000000000000000e+03 5.054378128051757812e+01 -5.788860321044921875e+00 -3.068284392356872559e-01 -8.695076406002044678e-02 -1.181337609887123108e-01 -4.125120341777801514e-01
1.458000000000000000e+03 6.407858276367187500e+01 2.413258171081542969e+01 -1.965702652931213379e+00 -4.152885973453521729e-01 -7.142973542213439941e-01 5.608101487159729004e-01
1.459000000000000000e+03 6.282124710083007812e+01 2.443914985656738281e+01 -1.959427237510681152e+00 -4.415683448314666748e-01 -7.202987074851989746e-01 5.232332348823547363e-01
1.460000000000000000e+03 6.525890350341796875e+01 2.404315376281738281e+01 -1.766901016235351562e+00 -3.158106505870819092e-01 -6.248134970664978027e-01 3.832669258117675781e-01
1.461000000000000000e+03 3.431092453002929688e+01 -1.485373020172119141e+01 7.866750955581665039e-01 1.217845082283020020e-01 2.725378870964050293e-01 -1.121542975306510925e-01
1.462000000000000000e+03 5.018269348144531250e+01 -2.998398399353027344e+01 3.715274930000305176e-01 4.518677592277526855e-01 2.470185756683349609e-01 -3.102921247482299805e-01
1.463000000000000000e+03 5.334874725341796875e+01 -6.144759178161621094e+00 -7.674688100814819336e-02 -6.591564416885375977e-02 -4.279875755310058594e-02 -2.177278846502304077e-01
1.464000000000000000e+03 5.388555908203125000e+01 -8.013574600219726562e+00 7.596024870872497559e-01 8.613175153732299805e-02 2.537202537059783936e-01 -1.476678699254989624e-01
1.465000000000000000e+03 6.340560150146484375e+01 -1.040735054016113281e+01 -2.170888632535934448e-01 -1.593009084463119507e-01 -1.129169315099716187e-01 4.281713962554931641e-01
1.466000000000000000e+03 4.620165252685546875e+01 -2.429105949401855469e+01 3.869383335113525391e-01 9.640900492668151855e-01 4.053085148334503174e-01 -4.146968424320220947e-01
1.467000000000000000e+03 4.650455856323242188e+01 -2.713728904724121094e+01 2.972192764282226562e-01 5.579821467399597168e-01 2.565604448318481445e-01 -2.567935585975646973e-01
1.468000000000000000e+03 6.851951599121093750e+01 -1.460343360900878906e+01 -1.193450987339019775e-01 4.074216365814208984e+00 1.186461448669433594e+00 -6.639935821294784546e-02
1.469000000000000000e+03 4.475531005859375000e+01 -2.298983001708984375e+01 2.988164126873016357e-01 5.138931870460510254e-01 2.438128739595413208e-01 -3.484468162059783936e-01
1.470000000000000000e+03 4.690563583374023438e+01 -8.788591384887695312e+00 -2.300871461629867554e-01 6.673151510767638683e-04 -6.882594525814056396e-02 -1.282720118761062622e-01
1.471000000000000000e+03 4.629173278808593750e+01 -1.041358375549316406e+01 -1.173939332365989685e-01 9.112929925322532654e-03 -3.248430043458938599e-02 -5.100208520889282227e-02
1.472000000000000000e+03 5.864508819580078125e+01 -7.314389228820800781e+00 1.765995174646377563e-01 -3.423302471637725830e-01 -4.971921816468238831e-02 3.036487102508544922e-01
1.473000000000000000e+03 1.133932304382324219e+01 -2.425037193298339844e+01 3.026725649833679199e-01 5.722862202674150467e-03 9.251862764358520508e-02 -2.184519916772842407e-01
1.474000000000000000e+03 9.939645767211914062e+00 -1.654454231262207031e+01 -2.999708354473114014e-01 -3.757790923118591309e-01 -2.027249783277511597e-01 -3.605230152606964111e-01
1.475000000000000000e+03 6.949880218505859375e+01 -1.862606430053710938e+01 6.279101967811584473e-01 6.530994415283203125e+00 2.147671461105346680e+00 8.567335605621337891e-01
1.476000000000000000e+03 5.567488479614257812e+01 -7.409483432769775391e+00 3.390568792819976807e-01 -1.795087307691574097e-01 4.786444827914237976e-02 1.037226840853691101e-01
1.477000000000000000e+03 3.743175888061523438e+01 -2.354898071289062500e+01 -1.677743196487426758e-01 -7.291548252105712891e-01 -2.690787315368652344e-01 -3.130346536636352539e-01
1.478000000000000000e+03 6.135997772216796875e+01 -1.016386413574218750e+01 -2.348012477159500122e-01 -1.215413138270378113e-01 -1.069027706980705261e-01 3.757861554622650146e-01
1.479000000000000000e+03 4.714517211914062500e+01 -1.322487354278564453e+01 1.367201190441846848e-02 1.492752730846405029e-01 4.888418316841125488e-02 4.756852611899375916e-02
1.480000000000000000e+03 4.979532623291015625e+01 -8.069153785705566406e+00 6.693005561828613281e-02 -6.361743062734603882e-02 9.937877766788005829e-04 -1.362028867006301880e-01
1.481000000000000000e+03 7.101220703125000000e+01 -2.223190116882324219e+01 8.545086979866027832e-01 5.185156345367431641e+00 1.811899542808532715e+00 4.325608611106872559e-01
1.482000000000000000e+03 4.759177017211914062e+01 -9.801814079284667969e+00 -8.533693104982376099e-02 3.073759935796260834e-02 -1.637979969382286072e-02 -6.593628227710723877e-02
1.483000000000000000e+03 4.523177337646484375e+01 -1.109871292114257812e+01 -9.917596727609634399e-02 -9.923966601490974426e-03 -3.272997960448265076e-02 -5.769393220543861389e-02
1.484000000000000000e+03 5.527040100097656250e+01 -3.240039825439453125e+01 4.558556079864501953e-01 2.056511491537094116e-01 1.984520256519317627e-01 -2.312019765377044678e-01
1.485000000000000000e+03 5.242830276489257812e+01 -2.932279777526855469e+01 5.179907679557800293e-01 2.458735257387161255e-01 2.291592806577682495e-01 -3.235360383987426758e-01
1.486000000000000000e+03 5.730337142944335938e+01 -3.192834472656250000e+01 4.460798501968383789e-01 1.937483400106430054e-01 1.919484585523605347e-01 -4.976775869727134705e-02
1.487000000000000000e+03 6.142670440673828125e+01 -3.236125946044921875e+01 4.473792314529418945e-01 1.059851050376892090e+00 4.521690905094146729e-01 4.044230878353118896e-01
1.488000000000000000e+03 5.321964263916015625e+01 -3.205148315429687500e+01 4.174094796180725098e-01 2.876578569412231445e-01 2.115201950073242188e-01 -3.219977617263793945e-01
1.489000000000000000e+03 1.142599487304687500e+01 -1.407817459106445312e+01 -5.882025957107543945e-01 -5.787209868431091309e-01 -3.500770926475524902e-01 -3.469151258468627930e-01
1.490000000000000000e+03 6.114509963989257812e+01 -1.124054145812988281e+01 -5.200710892677307129e-01 -7.236237823963165283e-02 -1.777300536632537842e-01 2.305495887994766235e-01
1.491000000000000000e+03 5.922403335571289062e+01 -9.253099441528320312e+00 6.925192475318908691e-02 -2.122820019721984863e-01 -4.290902614593505859e-02 2.683445811271667480e-01
1.492000000000000000e+03 6.506979370117187500e+01 -2.680490112304687500e+01 3.801659941673278809e-01 2.022090435028076172e+00 7.206768989562988281e-01 1.005257129669189453e+00
1.493000000000000000e+03 1.519128799438476562e+01 -1.240625095367431641e+01 -1.352583885192871094e+00 -4.022827744483947754e-01 -5.264599919319152832e-01 -5.533777475357055664e-01
1.494000000000000000e+03 6.607996368408203125e+01 -2.383518791198730469e+01 1.116369724273681641e+00 2.331876754760742188e+00 1.034473896026611328e+00 1.593473792076110840e+00
1.495000000000000000e+03 6.882962799072265625e+01 -2.396862411499023438e+01 3.578939735889434814e-01 4.689674377441406250e+00 1.514270544052124023e+00 7.856331467628479004e-01
1.496000000000000000e+03 5.811329650878906250e+01 -8.587815284729003906e+00 2.246272563934326172e-01 -2.597590982913970947e-01 -1.053955685347318649e-02 2.118602395057678223e-01
1.497000000000000000e+03 3.549959945678710938e+01 -5.887979984283447266e+00 -1.516930460929870605e+00 -1.299137771129608154e-01 -4.940532743930816650e-01 -2.822791039943695068e-01
1.498000000000000000e+03 3.793468475341796875e+01 -2.826982116699218750e+01 -5.210941657423973083e-02 -5.002524852752685547e-01 -1.657085716724395752e-01 -5.590485036373138428e-02
1.499000000000000000e+03 6.776180267333984375e+01 -2.435004997253417969e+01 2.636912167072296143e-01 4.374236583709716797e+00 1.391378283500671387e+00 1.174351334571838379e+00
1.500000000000000000e+03 5.989858627319335938e+01 -1.089676189422607422e+01 -2.437075376510620117e-01 -6.760466098785400391e-02 -9.339366108179092407e-02 1.852500140666961670e-01
1.501000000000000000e+03 4.534704971313476562e+01 -1.566571521759033203e+01 4.280392453074455261e-02 1.887376010417938232e-01 6.946245580911636353e-02 -7.203031331300735474e-02
1.502000000000000000e+03 4.464846038818359375e+01 -2.172249984741210938e+01 2.440574020147323608e-01 5.725246667861938477e-01 2.449746280908584595e-01 -4.000930190086364746e-01
1.503000000000000000e+03 4.820279693603515625e+01 -2.772982597351074219e+01 3.589514791965484619e-01 5.980770587921142578e-01 2.871085703372955322e-01 -3.822578191757202148e-01
1.504000000000000000e+03 2.377812194824218750e+01 -3.260295104980468750e+01 3.596962690353393555e-01 1.071274802088737488e-01 1.400471329689025879e-01 -1.652603000402450562e-01
1.505000000000000000e+03 2.337054252624511719e+01 -1.434473705291748047e+01 2.206748872995376587e-01 2.512877993285655975e-02 7.374110072851181030e-02 -8.392992615699768066e-02
1.506000000000000000e+03 2.350462150573730469e+01 -1.317919826507568359e+01 8.042917400598526001e-02 4.928644746541976929e-02 3.891468420624732971e-02 -1.994286179542541504e-01
1.507000000000000000e+03 1.943332099914550781e+01 -2.930761909484863281e+01 5.806190371513366699e-01 2.131340652704238892e-01 2.381259202957153320e-01 -3.132042288780212402e-01
1.508000000000000000e+03 2.225452423095703125e+01 -3.261157989501953125e+01 3.407466411590576172e-01 1.536006778478622437e-01 1.483041942119598389e-01 -1.762759983539581299e-01
1.509000000000000000e+03 3.045565414428710938e+01 -3.261000442504882812e+01 2.034715265035629272e-01 -1.934417784214019775e-01 3.008923726156353951e-03 -2.143103331327438354e-01
1.510000000000000000e+03 3.195621109008789062e+01 -3.200803756713867188e+01 1.846321970224380493e-01 -3.745840787887573242e-01 -5.698556080460548401e-02 -2.246546894311904907e-01
1.511000000000000000e+03 1.053145980834960938e+01 -2.031496429443359375e+01 1.045344620943069458e-01 -2.362582832574844360e-01 -3.951714560389518738e-02 -3.334509134292602539e-01
1.512000000000000000e+03 3.560002136230468750e+01 -1.627154922485351562e+01 8.405585289001464844e-01 -1.023032590746879578e-01 2.214765697717666626e-01 -3.516007959842681885e-01
1.513000000000000000e+03 1.083295249938964844e+01 -1.933345794677734375e+01 4.394381493330001831e-02 -2.889648079872131348e-01 -7.350629568099975586e-02 -2.382050156593322754e-01
1.514000000000000000e+03 2.079541587829589844e+01 -1.384203338623046875e+01 -3.984346985816955566e-03 4.280774295330047607e-02 1.164701860398054123e-02 -3.356881812214851379e-02
1.515000000000000000e+03 1.996636009216308594e+01 -1.234272384643554688e+01 -2.742903530597686768e-01 9.548649191856384277e-02 -5.364115536212921143e-02 -7.485368847846984863e-02
1.516000000000000000e+03 3.678080749511718750e+01 -2.897425651550292969e+01 5.926083307713270187e-03 -5.317415595054626465e-01 -1.577446460723876953e-01 -6.030800938606262207e-02
1.517000000000000000e+03 2.722703361511230469e+01 -3.313827514648437500e+01 2.551586329936981201e-01 4.693905822932720184e-03 7.795576006174087524e-02 -1.528633683919906616e-01
1.518000000000000000e+03 2.227575492858886719e+01 -1.299921607971191406e+01 -2.184036746621131897e-02 7.483202964067459106e-02 1.589749753475189209e-02 -1.433625966310501099e-01
1.519000000000000000e+03 2.736952972412109375e+01 -1.472284793853759766e+01 7.638446688652038574e-01 1.650461554527282715e-02 2.341047823429107666e-01 -1.612564325332641602e-01
1.520000000000000000e+03 2.470022583007812500e+01 -1.447640609741210938e+01 3.847356140613555908e-01 1.795141771435737610e-02 1.208061128854751587e-01 -1.138050109148025513e-01
1.521000000000000000e+03 3.377194595336914062e+01 -1.377686119079589844e+01 5.285595655441284180e-01 1.571602672338485718e-01 2.057159543037414551e-01 -1.571800261735916138e-01
1.522000000000000000e+03 2.888515663146972656e+01 -3.297210311889648438e+01 2.307060658931732178e-01 -1.275627017021179199e-01 3.094301186501979828e-02 -1.821158528327941895e-01
1.523000000000000000e+03 2.859504318237304688e+01 -1.355384826660156250e+01 5.534170866012573242e-01 4.806489124894142151e-02 1.804445981979370117e-01 -2.951413989067077637e-01
1.524000000000000000e+03 3.752627944946289062e+01 -2.027408790588378906e+01 9.256736189126968384e-02 -4.671688079833984375e-01 -1.123804375529289246e-01 -4.051793813705444336e-01
1.525000000000000000e+03 1.526457691192626953e+01 -2.569099426269531250e+01 3.869385123252868652e-01 3.480975031852722168e-01 2.205108106136322021e-01 -3.603105843067169189e-01
1.526000000000000000e+03 3.781497192382812500e+01 -2.152010917663574219e+01 -3.085817210376262665e-02 -5.781952738761901855e-01 -1.827160418033599854e-01 -3.869386613368988037e-01
1.527000000000000000e+03 1.336048698425292969e+01 -2.603370857238769531e+01 3.133004605770111084e-01 2.125135511159896851e-01 1.577441990375518799e-01 -2.543159723281860352e-01
1.528000000000000000e+03 6.983185577392578125e+01 9.544137001037597656e+00 -6.519221067428588867e-01 1.661034226417541504e+00 3.027336299419403076e-01 1.667495071887969971e-01
1.529000000000000000e+03 6.816909027099609375e+01 1.003184604644775391e+01 -8.217605948448181152e-01 -3.108744323253631592e-01 -3.397904932498931885e-01 -4.136068224906921387e-01
1.530000000000000000e+03 5.583357620239257812e+01 -1.167406439781188965e+00 -1.421116113662719727e+00 -6.684940457344055176e-01 -6.268830299377441406e-01 -4.150394201278686523e-01
1.531000000000000000e+03 6.917388916015625000e+01 1.340129089355468750e+01 -3.964163362979888916e-01 -3.415850102901458740e-01 -2.214004099369049072e-01 -3.327572345733642578e-01
1.532000000000000000e+03 5.249320983886718750e+01 -1.235521197319030762e+00 -1.666031956672668457e+00 -4.248229861259460449e-01 -6.272565126419067383e-01 -4.017015099525451660e-01
1.533000000000000000e+03 5.935247039794921875e+01 3.302716493606567383e+00 -1.339954137802124023e+00 -1.222012162208557129e+00 -7.685899138450622559e-01 -1.308956027030944824e+00
1.534000000000000000e+03 6.232563018798828125e+01 4.309182167053222656e+00 -1.063357353210449219e+00 -1.042537331581115723e+00 -6.317684054374694824e-01 -1.067972064018249512e+00
1.535000000000000000e+03 6.621422576904296875e+01 8.036375999450683594e+00 -1.066101312637329102e+00 -9.217848777770996094e-01 -5.963658690452575684e-01 -8.763862848281860352e-01
1.536000000000000000e+03 3.118624305725097656e+01 -7.082839965820312500e+00 -1.151047825813293457e+00 -2.432482242584228516e-01 -4.182888269424438477e-01 -2.043392509222030640e-01
1.537000000000000000e+03 4.007122802734375000e+01 -3.755052328109741211e+00 -1.260193943977355957e+00 -4.370951354503631592e-01 -5.091867446899414062e-01 -5.090081691741943359e-01
1.538000000000000000e+03 3.895829772949218750e+01 -5.183272361755371094e+00 -1.069737434387207031e+00 -3.170748054981231689e-01 -4.160436689853668213e-01 -3.133767843246459961e-01
1.539000000000000000e+03 7.935759735107421875e+01 -2.214233207702636719e+01 8.570787496864795685e-03 5.466123580932617188e+00 1.642408370971679688e+00 3.262748569250106812e-02
1.540000000000000000e+03 7.783018493652343750e+01 -3.036367607116699219e+01 -1.338373683393001556e-02 5.391552448272705078e+00 1.613450646400451660e+00 -2.992715314030647278e-02
1.541000000000000000e+03 7.928767395019531250e+01 -2.915493011474609375e+01 4.295407328754663467e-03 5.565865039825439453e+00 1.671048045158386230e+00 -2.477424219250679016e-02
1.542000000000000000e+03 7.798752593994140625e+01 -2.610175704956054688e+01 8.242517709732055664e-03 5.407858371734619141e+00 1.624830245971679688e+00 -4.420183971524238586e-02
1.543000000000000000e+03 7.647469329833984375e+01 -3.921586227416992188e+01 2.065878361463546753e-03 5.198411464691162109e+00 1.560143232345581055e+00 3.559498488903045654e-02
1.544000000000000000e+03 7.902251434326171875e+01 -3.878314590454101562e+01 2.847719704732298851e-03 5.428933143615722656e+00 1.629534244537353516e+00 5.096485465764999390e-02
1.545000000000000000e+03 7.926775360107421875e+01 -3.334671020507812500e+01 -1.277830358594655991e-02 5.625841140747070312e+00 1.683918833732604980e+00 -3.332087071612477303e-04
1.546000000000000000e+03 7.769289398193359375e+01 -3.585697555541992188e+01 -2.321355976164340973e-02 5.317997455596923828e+00 1.588435173034667969e+00 6.759678572416305542e-02
1.547000000000000000e+03 7.927437591552734375e+01 -3.195312500000000000e+01 1.800009631551802158e-03 5.621109485626220703e+00 1.686872839927673340e+00 -1.254799589514732361e-02
1.548000000000000000e+03 7.924150848388671875e+01 3.616917419433593750e+01 -2.173885144293308258e-02 7.903197288513183594e+00 2.364437580108642578e+00 -1.624682843685150146e-01
1.549000000000000000e+03 7.804676818847656250e+01 -2.325444221496582031e+01 4.870264977216720581e-02 5.446832180023193359e+00 1.648660421371459961e+00 3.680750355124473572e-02
1.550000000000000000e+03 7.643498992919921875e+01 -2.872830200195312500e+01 -1.777644641697406769e-02 5.242120742797851562e+00 1.567303180694580078e+00 -2.285216562449932098e-02
1.551000000000000000e+03 7.767769622802734375e+01 -3.709956359863281250e+01 -3.029483836144208908e-03 5.280285835266113281e+00 1.583176970481872559e+00 5.903673917055130005e-02
1.552000000000000000e+03 7.955342864990234375e+01 1.251090526580810547e+01 -5.020606890320777893e-02 1.165540122985839844e+01 3.481558561325073242e+00 -1.831867992877960205e-01
1.553000000000000000e+03 7.741823577880859375e+01 9.956233024597167969e+00 -1.959839761257171631e-01 9.603554725646972656e+00 2.822271108627319336e+00 1.322841048240661621e-01
1.554000000000000000e+03 7.955010223388671875e+01 1.387261104583740234e+01 -3.115955926477909088e-02 1.110280609130859375e+01 3.321494102478027344e+00 -3.167538046836853027e-01
1.555000000000000000e+03 7.850907135009765625e+01 1.495571708679199219e+01 -6.286528706550598145e-01 1.011303424835205078e+01 2.845314502716064453e+00 -1.509140610694885254e+00
1.556000000000000000e+03 7.961858367919921875e+01 2.100130462646484375e+01 6.536955386400222778e-02 2.757985115051269531e+00 8.470063805580139160e-01 9.882698059082031250e-01
1.557000000000000000e+03 7.958068847656250000e+01 2.234585762023925781e+01 -7.572191953659057617e-02 6.253602981567382812e+00 1.853364348411560059e+00 9.850827455520629883e-01
1.558000000000000000e+03 7.944159698486328125e+01 2.511205673217773438e+01 -1.301519870758056641e-01 9.872710227966308594e+00 2.922767400741577148e+00 2.761901617050170898e-01
1.559000000000000000e+03 7.851552581787109375e+01 2.372637939453125000e+01 -7.700042724609375000e-01 9.585655212402343750e+00 2.644695281982421875e+00 1.293517351150512695e+00
1.560000000000000000e+03 7.785292053222656250e+01 3.055214309692382812e+01 -1.604084298014640808e-02 8.289797782897949219e+00 2.482127189636230469e+00 -5.572589039802551270e-01
1.561000000000000000e+03 7.799019622802734375e+01 2.920145416259765625e+01 -6.216518580913543701e-02 8.667993545532226562e+00 2.581748485565185547e+00 -4.985886812210083008e-01
1.562000000000000000e+03 7.940657806396484375e+01 2.650317192077636719e+01 -8.160032331943511963e-02 1.017599868774414062e+01 3.028319597244262695e+00 1.588940806686878204e-02
1.563000000000000000e+03 7.921030426025390625e+01 3.341640090942382812e+01 2.363678254187107086e-02 8.466858863830566406e+00 2.547148704528808594e+00 -1.680848002433776855e-01
1.564000000000000000e+03 7.709098052978515625e+01 1.857271003723144531e+01 3.526567935943603516e+00 1.557199287414550781e+01 5.729568004608154297e+00 -3.414967536926269531e+00
1.565000000000000000e+03 7.833498382568359375e+01 5.835999011993408203e+00 -2.493134886026382446e-02 9.989715576171875000e+00 2.989435434341430664e+00 2.713926136493682861e-01
1.566000000000000000e+03 7.946387481689453125e+01 7.039404869079589844e+00 -1.513111405074596405e-02 1.131749534606933594e+01 3.390709161758422852e+00 4.937388747930526733e-02
1.567000000000000000e+03 7.937146759033203125e+01 -1.794701957702636719e+01 8.057073689997196198e-03 6.004300117492675781e+00 1.803707242012023926e+00 1.277302950620651245e-01
1.568000000000000000e+03 7.680828094482421875e+01 -2.158012390136718750e+01 1.777417808771133423e-01 5.493684291839599609e+00 1.701427817344665527e+00 2.306866347789764404e-01
1.569000000000000000e+03 7.942208099365234375e+01 -1.378543090820312500e+01 -2.408384112641215324e-03 7.085988998413085938e+00 2.125074148178100586e+00 1.505665928125381470e-01
1.570000000000000000e+03 7.940859222412109375e+01 -1.102731895446777344e+01 -1.156820170581340790e-02 7.801756381988525391e+00 2.337056636810302734e+00 1.300836503505706787e-01
1.571000000000000000e+03 7.826873779296875000e+01 -1.350764369964599609e+01 -1.926322467625141144e-02 6.861979484558105469e+00 2.052814960479736328e+00 4.364985227584838867e-01
1.572000000000000000e+03 7.939487457275390625e+01 -8.249269485473632812e+00 -8.350651711225509644e-03 8.382614135742187500e+00 2.512279033660888672e+00 9.726505726575851440e-02
1.573000000000000000e+03 7.700032806396484375e+01 -1.198025894165039062e+01 -6.602848321199417114e-02 6.745638370513916016e+00 2.003882884979248047e+00 6.116106510162353516e-01
1.574000000000000000e+03 7.936408233642578125e+01 -4.074435234069824219e+00 6.326672155410051346e-04 9.076503753662109375e+00 2.723140716552734375e+00 8.204171806573867798e-02
1.575000000000000000e+03 7.937183380126953125e+01 -1.282057404518127441e+00 6.315630394965410233e-03 9.547972679138183594e+00 2.866286516189575195e+00 8.942945301532745361e-02
1.576000000000000000e+03 7.685203552246093750e+01 -5.100678443908691406e+00 -2.382786385715007782e-02 7.421454429626464844e+00 2.219288110733032227e+00 4.224924147129058838e-01
1.577000000000000000e+03 7.939922332763671875e+01 1.504722833633422852e+00 3.396482206881046295e-03 1.010023593902587891e+01 3.031089782714843750e+00 9.074835479259490967e-02
1.578000000000000000e+03 7.941499328613281250e+01 2.892367601394653320e+00 -3.719803644344210625e-03 1.040100669860839844e+01 3.119185924530029297e+00 9.243180602788925171e-02
1.579000000000000000e+03 7.943106079101562500e+01 4.277661323547363281e+00 -4.719886463135480881e-03 1.071390914916992188e+01 3.212756872177124023e+00 8.316160738468170166e-02
1.580000000000000000e+03 7.696317291259765625e+01 3.940800476074218750e+01 4.112040996551513672e-02 7.060457229614257812e+00 2.130473375320434570e+00 -2.831359505653381348e-01
1.581000000000000000e+03 7.770671081542968750e+01 3.193097686767578125e+01 5.801274999976158142e-02 7.937095642089843750e+00 2.398532629013061523e+00 -5.541577935218811035e-01
1.582000000000000000e+03 7.750083923339843750e+01 3.482001876831054688e+01 7.208488881587982178e-02 7.273251533508300781e+00 2.203600883483886719e+00 -4.573504328727722168e-01
1.583000000000000000e+03 7.809242248535156250e+01 -2.466827392578125000e+00 1.615895330905914307e-02 8.514692306518554688e+00 2.559255361557006836e+00 2.841438353061676025e-01
1.584000000000000000e+03 7.821651458740234375e+01 -9.414330482482910156e+00 -3.898112103343009949e-02 7.604330539703369141e+00 2.269604682922363281e+00 3.265549838542938232e-01
1.585000000000000000e+03 7.806021118164062500e+01 -1.903520393371582031e+01 6.603647768497467041e-02 5.803627014160156250e+00 1.760899066925048828e+00 3.007004261016845703e-01
1.586000000000000000e+03 3.244017791748046875e+01 -7.118749618530273438e+00 -1.212535500526428223e+00 -2.503417432308197021e-01 -4.388631880283355713e-01 -1.352383941411972046e-01
1.587000000000000000e+03 2.695143127441406250e+01 -3.843423366546630859e+00 -4.303189814090728760e-01 -2.954713068902492523e-02 -1.379598379135131836e-01 1.382102072238922119e-01
1.588000000000000000e+03 4.826027679443359375e+01 6.717397212982177734e+00 1.089167897589504719e-03 8.288135286420583725e-04 5.753944278694689274e-04 7.362411124631762505e-04
1.589000000000000000e+03 4.717977905273437500e+01 6.926474571228027344e+00 7.792401593178510666e-04 1.176788864540867507e-04 2.690757100936025381e-04 1.455597695894539356e-03
1.590000000000000000e+03 5.769612884521484375e+01 2.504718589782714844e+01 -1.141639947891235352e+00 -1.769797503948211670e-01 -3.955859243869781494e-01 5.911305546760559082e-01
1.591000000000000000e+03 4.729097747802734375e+01 8.307657241821289062e+00 3.664303338155150414e-03 3.416931212996132672e-05 1.109541859477758408e-03 3.370613791048526764e-03
1.592000000000000000e+03 5.087310409545898438e+01 2.138249397277832031e+01 -6.349354982376098633e-01 5.870662257075309753e-02 -1.728686690330505371e-01 -3.032476268708705902e-02
1.593000000000000000e+03 4.756733703613281250e+01 1.101447010040283203e+01 3.600131720304489136e-03 3.631722938735038042e-04 1.188991242088377476e-03 5.993219558149576187e-03
1.594000000000000000e+03 4.789455032348632812e+01 1.518668842315673828e+01 -4.309135675430297852e-02 -1.369692757725715637e-02 -1.703648455440998077e-02 -2.338580414652824402e-02
1.595000000000000000e+03 2.155312538146972656e+00 2.768496322631835938e+01 -3.366814780747517943e-05 2.174484543502330780e-03 6.422448786906898022e-04 5.354181630536913872e-04
1.596000000000000000e+03 2.322352170944213867e+00 3.207535934448242188e+01 -3.181268984917551279e-04 2.289596595801413059e-04 -2.675017640285659581e-05 1.205636654049158096e-03
1.597000000000000000e+03 6.998077630996704102e-01 3.476984786987304688e+01 2.110936911776661873e-04 1.219377038069069386e-03 4.291412187740206718e-04 4.708283231593668461e-04
1.598000000000000000e+03 2.709708929061889648e+00 3.864052963256835938e+01 7.827758963685482740e-05 -4.086793400347232819e-03 -1.202554791234433651e-03 1.484058797359466553e-03
1.599000000000000000e+03 1.973571062088012695e+00 -3.778138732910156250e+01 6.443214137107133865e-03 -6.713379621505737305e-01 -1.994684189558029175e-01 1.809942163527011871e-02
1.600000000000000000e+03 6.951486468315124512e-01 -3.750022506713867188e+01 9.750302881002426147e-03 -7.538242936134338379e-01 -2.232221961021423340e-01 8.624614216387271881e-03
1.601000000000000000e+03 6.711009144783020020e-01 2.199955177307128906e+01 -2.189676743000745773e-04 4.214077256619930267e-03 1.198532874695956707e-03 -1.897161855595186353e-04
1.602000000000000000e+03 2.036566019058227539e+00 2.483004188537597656e+01 9.458626664127223194e-06 2.787755336612462997e-03 8.391641895286738873e-04 -3.483353066258132458e-05
1.603000000000000000e+03 7.468731999397277832e-01 2.909437751770019531e+01 1.315168337896466255e-04 4.115289077162742615e-03 1.274041715078055859e-03 2.761729119811207056e-04
1.604000000000000000e+03 1.931670427322387695e+00 3.618427658081054688e+01 1.048652993631549180e-04 -1.187024754472076893e-03 -3.246478445362299681e-04 1.197619480080902576e-03
1.605000000000000000e+03 6.656123995780944824e-01 3.614455032348632812e+01 -2.277948806295171380e-04 2.494776563253253698e-04 6.504829343612072989e-06 4.453604342415928841e-04
1.606000000000000000e+03 1.820278406143188477e+00 4.175962448120117188e+01 1.002726494334638119e-03 -3.123966744169592857e-03 -6.363720749504864216e-04 2.802270755637437105e-04
1.607000000000000000e+03 7.555050849914550781e-01 -3.040826606750488281e+01 6.439091637730598450e-03 -7.596760988235473633e-01 -2.259711027145385742e-01 -9.725031442940235138e-03
1.608000000000000000e+03 2.014930009841918945e+00 -2.737402915954589844e+01 1.691444404423236847e-02 -5.815095305442810059e-01 -1.693785339593887329e-01 -7.029284536838531494e-02
1.609000000000000000e+03 5.975827574729919434e-01 -6.473427772521972656e+00 -1.566278398968279362e-03 1.866653859615325928e-01 5.552973225712776184e-02 2.742746658623218536e-02
1.610000000000000000e+03 3.386552810668945312e+00 -3.299685239791870117e+00 3.449663147330284119e-02 3.185067698359489441e-02 1.990419253706932068e-02 8.225525170564651489e-02
1.611000000000000000e+03 5.818002223968505859e-01 -1.067355442047119141e+01 -4.670211113989353180e-03 3.265150189399719238e-01 9.655343741178512573e-02 7.596071343868970871e-03
1.612000000000000000e+03 1.750418901443481445e+00 -9.279489517211914062e+00 -1.571288518607616425e-02 2.024304270744323730e-01 5.601526051759719849e-02 4.379984363913536072e-02
1.613000000000000000e+03 5.906272530555725098e-01 -1.348485755920410156e+01 -5.500601138919591904e-03 3.034041821956634521e-01 8.937107771635055542e-02 -1.731595396995544434e-02
1.614000000000000000e+03 6.010361313819885254e-01 -1.771824073791503906e+01 -3.180098719894886017e-03 4.203008860349655151e-02 1.165499724447727203e-02 -5.190021917223930359e-02
1.615000000000000000e+03 1.785083055496215820e+00 -1.622316551208496094e+01 -2.187397889792919159e-02 6.778124719858169556e-02 1.377218123525381088e-02 -1.205504387617111206e-01
1.616000000000000000e+03 5.768349766731262207e-01 -2.052363777160644531e+01 -8.030475582927465439e-04 -2.187130004167556763e-01 -6.585481762886047363e-02 -5.586387589573860168e-02
1.617000000000000000e+03 1.807740330696105957e+00 -1.763742065429687500e+01 -1.129131950438022614e-02 -1.993327774107456207e-02 -9.367379359900951385e-03 -1.425163894891738892e-01
1.618000000000000000e+03 6.181172132492065430e-01 -2.331645011901855469e+01 6.820364797022193670e-05 -4.659711420536041260e-01 -1.397708803415298462e-01 -4.652892425656318665e-02
1.619000000000000000e+03 1.991304874420166016e+00 -2.595151901245117188e+01 2.253001742064952850e-02 -5.304220318794250488e-01 -1.523676067590713501e-01 -9.306953102350234985e-02
1.620000000000000000e+03 3.825016260147094727e+00 -3.387829589843750000e+01 2.140751853585243225e-02 -5.407635569572448730e-01 -1.558068096637725830e-01 -1.851849444210529327e-02
1.621000000000000000e+03 1.703422784805297852e+00 3.838333845138549805e+00 -7.530923176091164351e-05 3.948808807763271034e-05 -1.074634383257944137e-05 -5.899785173824056983e-05
1.622000000000000000e+03 2.007792711257934570e+00 2.059299278259277344e+01 -2.637013967614620924e-04 2.476915949955582619e-03 6.639643688686192036e-04 -5.857163923792541027e-04
1.623000000000000000e+03 6.533013582229614258e-01 1.917611312866210938e+01 -1.692998775979503989e-04 3.265405539423227310e-03 9.288316941820085049e-04 -2.471441111993044615e-04
1.624000000000000000e+03 6.362069845199584961e-01 1.776103210449218750e+01 1.646816526772454381e-04 2.742125885561108589e-03 8.720422629266977310e-04 -2.353463351028040051e-04
1.625000000000000000e+03 6.008964180946350098e-01 1.493762874603271484e+01 1.740124862408265471e-04 1.723309280350804329e-03 5.691965343430638313e-04 -1.881488715298473835e-04
1.626000000000000000e+03 1.689932584762573242e+00 9.438205718994140625e+00 -1.046110119204968214e-04 3.857022675219923258e-04 8.432738104602321982e-05 -2.367438719375059009e-04
1.627000000000000000e+03 5.616345405578613281e-01 7.926255226135253906e+00 -1.173516866401769221e-04 2.670454268809407949e-04 4.490812716539949179e-05 -6.388953624991700053e-05
1.628000000000000000e+03 3.279345512390136719e+00 -3.869055938720703125e+01 1.163431815803050995e-02 -6.378006935119628906e-01 -1.878499090671539307e-01 1.303198840469121933e-02
1.629000000000000000e+03 2.477891683578491211e+00 -3.173087882995605469e+01 1.534990500658750534e-02 -6.278670430183410645e-01 -1.837551444768905640e-01 -2.085406892001628876e-02
1.630000000000000000e+03 1.963755607604980469e+00 -2.449855041503906250e+01 1.655912771821022034e-02 -4.665012657642364502e-01 -1.349826455116271973e-01 -1.164802610874176025e-01
1.631000000000000000e+03 6.500090360641479492e-01 -2.472683525085449219e+01 5.623665638267993927e-03 -5.602253675460815430e-01 -1.663805097341537476e-01 -3.932347521185874939e-02
1.632000000000000000e+03 1.766720175743103027e+00 -1.481934738159179688e+01 -2.654264308512210846e-02 1.398436427116394043e-01 3.399030119180679321e-02 -8.502440899610519409e-02
1.633000000000000000e+03 5.929242968559265137e-01 -1.489418888092041016e+01 -6.300596520304679871e-03 2.442642003297805786e-01 7.138907909393310547e-02 -3.161399066448211670e-02
1.634000000000000000e+03 3.074397563934326172e+00 -6.722931385040283203e+00 -1.000189408659934998e-02 9.067297726869583130e-02 2.420132420957088470e-02 9.515276551246643066e-02
1.635000000000000000e+03 5.861964821815490723e-01 -7.876735687255859375e+00 -2.012675860896706581e-03 2.475594431161880493e-01 7.366403192281723022e-02 2.326959930360317230e-02
1.636000000000000000e+03 2.178425550460815430e+00 -3.013875961303710938e+00 2.371308952569961548e-02 3.676581382751464844e-02 1.814367249608039856e-02 6.214161217212677002e-02
1.637000000000000000e+03 5.720958113670349121e-01 5.107451915740966797e+00 -7.619224925292655826e-05 7.047803956083953381e-05 -1.714264840302348603e-06 -3.060274684685282409e-05
1.638000000000000000e+03 5.742301344871520996e-01 1.212876510620117188e+01 1.670326309977099299e-04 9.404632146470248699e-04 3.322487464174628258e-04 -1.194552678498439491e-04
1.639000000000000000e+03 2.021422863006591797e+00 2.199953460693359375e+01 1.009195402730256319e-04 2.707004547119140625e-03 8.423772524110972881e-04 -4.825165669899433851e-04
1.640000000000000000e+03 1.759897994995117188e+01 2.109870910644531250e+01 -8.210794068872928619e-03 1.304147648625075817e-03 -2.071993891149759293e-03 1.807011896744370461e-03
1.641000000000000000e+03 1.769731712341308594e+01 1.987524390220642090e+00 -2.151848457287997007e-05 3.060660310438834131e-05 2.726435923250392079e-06 -2.053261596302036196e-05
1.642000000000000000e+03 2.815616226196289062e+01 2.453482437133789062e+01 -6.465748697519302368e-02 -4.155745729804039001e-02 -3.186448290944099426e-02 6.004562601447105408e-02
1.643000000000000000e+03 1.802070236206054688e+01 7.097082614898681641e+00 2.583405585028231144e-04 2.133039088221266866e-04 1.414933358319103718e-04 1.050148784997873008e-04
1.644000000000000000e+03 1.722824478149414062e+01 1.090943813323974609e+01 -2.086596941808238626e-04 6.611944991163909435e-04 1.357604487566277385e-04 3.480463346932083368e-04
1.645000000000000000e+03 2.237759208679199219e+01 2.976325750350952148e+00 3.806267704931087792e-05 7.270347123267129064e-05 3.322984412079676986e-05 6.098788071540184319e-05
1.646000000000000000e+03 1.798319435119628906e+01 6.068835258483886719e+00 -2.146953047486022115e-04 1.428678078809753060e-04 -2.154824869649019092e-05 7.107687997631728649e-05
1.647000000000000000e+03 1.936891365051269531e+01 5.751665592193603516e+00 1.603189157322049141e-04 1.806460750231053680e-05 5.351505751605145633e-05 -4.876174716628156602e-05
1.648000000000000000e+03 4.405876541137695312e+01 1.095576381683349609e+01 -3.348966420162469149e-04 -9.625483304262161255e-03 -2.988113788887858391e-03 -8.659677114337682724e-04
1.649000000000000000e+03 4.269586944580078125e+01 1.062507152557373047e+01 3.097021719440817833e-03 -1.975290942937135696e-03 3.365192387718707323e-04 -3.844694234430789948e-03
1.650000000000000000e+03 1.786587715148925781e+01 8.249155044555664062e+00 -2.531985228415578604e-04 2.673442359082400799e-04 4.243714556650957093e-06 1.111627498175948858e-04
1.651000000000000000e+03 1.812271690368652344e+01 3.108374357223510742e+00 -4.628087481250986457e-05 3.925411874661222100e-05 -2.108027274516643956e-06 8.835262269712984562e-05
1.652000000000000000e+03 2.088385963439941406e+01 3.264033794403076172e+00 6.058227882022038102e-05 2.798457717290148139e-05 2.657005643413867801e-05 4.198808528599329293e-05
1.653000000000000000e+03 3.074276733398437500e+01 2.453655624389648438e+01 -7.027789205312728882e-02 -4.808755591511726379e-02 -3.550963476300239563e-02 6.970574706792831421e-02
1.654000000000000000e+03 3.070734786987304688e+01 2.007710266113281250e+01 -1.620727926492691040e-01 -3.982628509402275085e-02 -6.056972593069076538e-02 7.238308340311050415e-02
1.655000000000000000e+03 3.417845916748046875e+01 1.975733757019042969e+01 -1.306886672973632812e-01 -2.642599865794181824e-02 -4.713439941406250000e-02 5.943203344941139221e-02
1.656000000000000000e+03 4.430833053588867188e+01 5.166909694671630859e+00 1.036446774378418922e-03 9.270925511373206973e-05 3.387468168511986732e-04 -8.194521797122433782e-05
1.657000000000000000e+03 4.083702850341796875e+01 1.388870334625244141e+01 -3.920912742614746094e-02 7.262154482305049896e-03 -9.584091603755950928e-03 7.178068161010742188e-03
1.658000000000000000e+03 3.658195114135742188e+01 1.794164085388183594e+01 -1.125825345516204834e-01 -5.956467706710100174e-03 -3.556169942021369934e-02 4.620409384369850159e-02
1.659000000000000000e+03 3.159861946105957031e+01 2.128931236267089844e+01 -1.208476200699806213e-01 -4.231403395533561707e-02 -4.894849658012390137e-02 6.274422258138656616e-02
1.660000000000000000e+03 4.331337738037109375e+01 -1.475935578346252441e+00 -7.008538246154785156e-01 8.552166633307933807e-03 -2.076904922723770142e-01 -3.800575435161590576e-01
1.661000000000000000e+03 3.877088928222656250e+01 1.591918659210205078e+01 -7.805546373128890991e-02 7.154377177357673645e-03 -2.127032540738582611e-02 2.514520287513732910e-02
1.662000000000000000e+03 6.649886322021484375e+01 -1.116987514495849609e+01 -4.784161746501922607e-01 1.275938391685485840e+00 2.392566651105880737e-01 -2.617203891277313232e-01
1.663000000000000000e+03 5.809435653686523438e+01 9.166370332241058350e-02 -1.333342075347900391e+00 -8.689820766448974609e-01 -6.606972813606262207e-01 -6.528333425521850586e-01
1.664000000000000000e+03 2.566578674316406250e+01 -4.669399738311767578e+00 -5.485181212425231934e-01 1.184505447745323181e-01 -1.290202736854553223e-01 5.460035055875778198e-03
1.665000000000000000e+03 7.370934295654296875e+01 1.792650604248046875e+01 1.472971916198730469e+00 2.762057781219482422e+00 1.270508885383605957e+00 2.358094692230224609e+00
1.666000000000000000e+03 7.463423156738281250e+01 1.751812553405761719e+01 7.505551576614379883e-01 8.035248756408691406e+00 2.635740995407104492e+00 4.141853809356689453e+00
1.667000000000000000e+03 7.505294799804687500e+01 1.765906524658203125e+01 1.575191169977188110e-01 1.141794395446777344e+01 3.472639083862304688e+00 4.760232448577880859e+00
1.668000000000000000e+03 7.507358551025390625e+01 2.142428588867187500e+01 -5.946635603904724121e-01 1.151288223266601562e+01 3.275465726852416992e+00 -5.376519203186035156e+00
1.669000000000000000e+03 7.514225769042968750e+01 2.119846343994140625e+01 -4.056875705718994141e-01 1.238183784484863281e+01 3.592845201492309570e+00 -5.884246349334716797e+00
1.670000000000000000e+03 7.433779144287109375e+01 2.205041122436523438e+01 -2.226099371910095215e-01 6.908833980560302734e+00 2.005867242813110352e+00 -4.157962322235107422e+00
1.671000000000000000e+03 7.329441833496093750e+01 2.125931167602539062e+01 -1.777305826544761658e-02 1.628129601478576660e+00 4.831069707870483398e-01 -2.115174531936645508e+00
1.672000000000000000e+03 7.336136627197265625e+01 2.301420402526855469e+01 -1.661000102758407593e-01 4.423609256744384766e+00 1.277252793312072754e+00 -2.703244924545288086e+00
1.673000000000000000e+03 7.475492095947265625e+01 2.124363327026367188e+01 6.340157389640808105e-01 8.293725013732910156e+00 2.678322315216064453e+00 -5.755599021911621094e+00
1.674000000000000000e+03 7.486981201171875000e+01 2.159647369384765625e+01 -4.346255958080291748e-01 9.780418395996093750e+00 2.803737878799438477e+00 -5.058773994445800781e+00
1.675000000000000000e+03 7.350547027587890625e+01 2.124895858764648438e+01 2.019871026277542114e-01 2.047515153884887695e+00 6.748506426811218262e-01 -2.514547824859619141e+00
1.676000000000000000e+03 7.572659301757812500e+01 2.119410133361816406e+01 -1.733763098716735840e+00 1.758265304565429688e+01 4.754667282104492188e+00 -3.684774875640869141e+00
1.677000000000000000e+03 7.568453979492187500e+01 2.151922607421875000e+01 -1.916619896888732910e+00 1.535089397430419922e+01 4.030282497406005859e+00 -3.386677265167236328e+00
1.678000000000000000e+03 7.590850830078125000e+01 1.790816307067871094e+01 -1.247120261192321777e+00 1.818959808349609375e+01 5.082743644714355469e+00 1.931534409523010254e+00
1.679000000000000000e+03 7.593341064453125000e+01 2.117701530456542969e+01 -1.809543132781982422e+00 1.849143409729003906e+01 5.004567146301269531e+00 -2.306476831436157227e+00
1.680000000000000000e+03 7.568944549560546875e+01 1.787976837158203125e+01 -1.076962590217590332e+00 1.678628349304199219e+01 4.712796211242675781e+00 3.255083084106445312e+00
1.681000000000000000e+03 7.621208190917968750e+01 1.761118507385253906e+01 -1.565228462219238281e+00 1.710055541992187500e+01 4.660597801208496094e+00 1.337417662143707275e-01
1.682000000000000000e+03 7.722217559814453125e+01 1.940611648559570312e+01 6.575460433959960938e+00 1.378040027618408203e+01 6.106758117675781250e+00 -1.132483839988708496e+00
1.683000000000000000e+03 7.719741821289062500e+01 1.922911071777343750e+01 7.117240428924560547e+00 1.402876758575439453e+01 6.343802452087402344e+00 -2.294756889343261719e+00
1.684000000000000000e+03 7.762835693359375000e+01 1.844022560119628906e+01 2.902081727981567383e+00 1.254287624359130859e+01 4.633487224578857422e+00 -3.276717185974121094e+00
1.685000000000000000e+03 7.756990814208984375e+01 1.876453018188476562e+01 4.638863563537597656e+00 1.273466968536376953e+01 5.212059974670410156e+00 -3.069951295852661133e+00
1.686000000000000000e+03 7.752967834472656250e+01 2.034306907653808594e+01 3.633056163787841797e+00 1.278517627716064453e+01 4.925469875335693359e+00 2.835265874862670898e+00
1.687000000000000000e+03 7.797140502929687500e+01 1.869278335571289062e+01 3.344707250595092773e+00 1.113537406921386719e+01 4.344024181365966797e+00 -2.696772336959838867e+00
1.688000000000000000e+03 7.666692352294921875e+01 2.145226669311523438e+01 -1.349715948104858398e+00 1.658175849914550781e+01 4.569612979888916016e+00 1.248430132865905762e+00
1.689000000000000000e+03 7.761816406250000000e+01 1.949140930175781250e+01 4.599616527557373047e+00 1.169782638549804688e+01 4.889233112335205078e+00 -4.489657580852508545e-01
1.690000000000000000e+03 7.791603088378906250e+01 1.918323516845703125e+01 3.963430166244506836e+00 1.081649971008300781e+01 4.433979034423828125e+00 -1.432473897933959961e+00
1.691000000000000000e+03 7.241331481933593750e+01 1.750883865356445312e+01 7.101230621337890625e-01 1.205130338668823242e+00 5.745760202407836914e-01 5.487762689590454102e-01
1.692000000000000000e+03 7.072579956054687500e+01 1.623554801940917969e+01 3.049212396144866943e-01 5.719617605209350586e-01 2.630648910999298096e-01 -1.876825243234634399e-01
1.693000000000000000e+03 7.115988922119140625e+01 1.659401893615722656e+01 3.959719240665435791e-01 7.548958063125610352e-01 3.452603220939636230e-01 -9.706397354602813721e-02
1.694000000000000000e+03 7.160071563720703125e+01 1.682895469665527344e+01 5.286908745765686035e-01 9.595310091972351074e-01 4.464665651321411133e-01 1.279712468385696411e-01
1.695000000000000000e+03 1.055865383148193359e+01 -3.425058364868164062e+00 1.362987011671066284e-01 -6.563983112573623657e-02 2.119765989482402802e-02 4.351277276873588562e-02
1.696000000000000000e+03 9.282485008239746094e+00 -2.592295169830322266e+00 1.700975298881530762e-01 -3.973854705691337585e-02 3.910769522190093994e-02 5.411326140165328979e-02
1.697000000000000000e+03 1.996898841857910156e+01 2.368477582931518555e+00 -6.260384543566033244e-05 -3.035831650777254254e-05 -2.788864730973728001e-05 5.488119313667993993e-06
1.698000000000000000e+03 1.851750564575195312e+01 1.005362629890441895e+00 -2.297404535056557506e-05 -2.244287861685734242e-05 -1.362507737212581560e-05 -3.731351625901879743e-06
1.699000000000000000e+03 7.256781005859375000e+01 2.190464782714843750e+01 -3.036158680915832520e-01 1.560526609420776367e+00 3.770732283592224121e-01 -1.558769106864929199e+00
1.700000000000000000e+03 2.032040214538574219e+01 1.360466837882995605e+00 5.177516868570819497e-05 3.961239417549222708e-05 2.741626849456224591e-05 -8.253396117652300745e-06
1.701000000000000000e+03 6.700666809082031250e+01 2.209881973266601562e+01 -2.793565034866333008e+00 4.414876922965049744e-02 -8.248249292373657227e-01 5.446517467498779297e-01
1.702000000000000000e+03 6.701446533203125000e+01 2.420158386230468750e+01 -1.188943862915039062e+00 2.820010483264923096e-01 -2.720828652381896973e-01 5.546434223651885986e-02
1.703000000000000000e+03 1.441227245330810547e+01 1.859800219535827637e+00 1.413108475389890373e-05 8.115858690871391445e-06 6.674083124380558729e-06 4.772237298311665654e-05
1.704000000000000000e+03 1.669736480712890625e+01 1.529127001762390137e+00 5.766603499068878591e-05 1.672419057285878807e-05 2.231706821476109326e-05 -2.505391603335738182e-05
1.705000000000000000e+03 1.692919921875000000e+01 2.391218185424804688e+00 -1.129501470131799579e-05 2.622606552904471755e-05 4.479315066419076174e-06 9.246460103895515203e-05
1.706000000000000000e+03 1.180231380462646484e+01 -4.356358528137207031e+00 8.027447015047073364e-02 -9.514759480953216553e-02 -4.461938049644231796e-03 1.214974652975797653e-02
1.707000000000000000e+03 1.195946884155273438e+01 -3.650931119918823242e+00 1.289532929658889771e-01 -7.186226546764373779e-02 1.712730713188648224e-02 4.234035033732652664e-03
1.708000000000000000e+03 5.630059719085693359e+00 3.412028551101684570e+00 1.368484954582527280e-04 1.580127900524530560e-05 4.579493179335258901e-05 -7.956735498737543821e-05
1.709000000000000000e+03 5.520859718322753906e+00 2.651622533798217773e+00 8.083758439170196652e-05 -2.974464769067708403e-05 1.532787973701488227e-05 -5.895689537283033133e-05
1.710000000000000000e+03 2.660116672515869141e+00 3.816775083541870117e+00 2.734303961915429682e-05 3.447529525146819651e-05 1.854550100688356906e-05 -6.447040505008772016e-05
1.711000000000000000e+03 8.485956192016601562e+00 3.198773384094238281e+00 2.137340488843619823e-04 -1.825093204388394952e-05 5.864493505214340985e-05 -3.108643113591824658e-06
1.712000000000000000e+03 6.249394416809082031e+00 2.602217674255371094e+00 1.411143894074484706e-04 1.451750631531467661e-05 4.668956535169854760e-05 -5.336028334568254650e-05
1.713000000000000000e+03 4.301038742065429688e+00 4.616689205169677734e+00 5.500315455719828606e-05 5.937622518104035407e-06 1.828223321354016662e-05 -6.124432547949254513e-05
1.714000000000000000e+03 7.059393882751464844e+00 3.261607408523559570e+00 1.919786882353946567e-04 -1.322819571214495227e-05 5.362514639273285866e-05 -4.592820550897158682e-05
1.715000000000000000e+03 9.890257835388183594e+00 2.464770793914794922e+00 1.038789851008914411e-04 -4.096664997632615268e-05 1.887370126496534795e-05 -2.779085116344504058e-05
1.716000000000000000e+03 9.210672378540039062e+00 3.171300172805786133e+00 1.210778791573829949e-04 -7.084796379785984755e-05 1.506897388026118279e-05 -4.681614518631249666e-05
1.717000000000000000e+03 4.160636425018310547e+00 3.646440744400024414e+00 1.419617037754505873e-04 3.540394754963926971e-05 5.320969648892059922e-05 -1.268712221644818783e-04
1.718000000000000000e+03 9.947203636169433594e+00 3.134849309921264648e+00 2.238588640466332436e-04 -2.308881994395051152e-05 6.023101377650164068e-05 5.163484456716105342e-05
1.719000000000000000e+03 4.736974334716796875e+01 5.056391239166259766e+00 2.307363902218639851e-04 -1.539890035928692669e-05 6.460124859586358070e-05 8.529608749086037278e-05
1.720000000000000000e+03 1.354838466644287109e+01 -3.211201906204223633e+00 1.670574098825454712e-01 -3.656265512108802795e-02 3.914842382073402405e-02 -4.244327172636985779e-02
1.721000000000000000e+03 1.411244201660156250e+01 -3.995526313781738281e+00 9.057064354419708252e-02 -5.749060213565826416e-02 9.924012236297130585e-03 -6.943784654140472412e-02
1.722000000000000000e+03 1.628383827209472656e+01 -4.608656406402587891e+00 -2.604498341679573059e-02 -4.964822903275489807e-02 -2.270796336233615875e-02 -1.801567971706390381e-01
1.723000000000000000e+03 1.266926383972167969e+01 -3.784931421279907227e+00 1.214679330587387085e-01 -6.712397933006286621e-02 1.630318537354469299e-02 -1.550697069615125656e-02
1.724000000000000000e+03 1.339147949218750000e+01 -3.900365829467773438e+00 1.050531491637229919e-01 -6.643027812242507935e-02 1.158686168491840363e-02 -4.679398983716964722e-02
1.725000000000000000e+03 5.590122222900390625e+00 -2.500453233718872070e+00 9.249437600374221802e-02 -1.219826168380677700e-03 2.738236449658870697e-02 8.540412783622741699e-02
1.726000000000000000e+03 6.975277423858642578e+00 -3.196542978286743164e+00 9.722551703453063965e-02 -1.825482025742530823e-02 2.369120903313159943e-02 9.433299303054809570e-02
1.727000000000000000e+03 3.476877927780151367e+00 -2.597667694091796875e+00 5.067326873540878296e-02 1.819932647049427032e-02 2.066177874803543091e-02 7.285973429679870605e-02
1.728000000000000000e+03 5.511542320251464844e+00 -3.741822957992553711e+00 5.585268512368202209e-02 6.877696141600608826e-04 1.696213707327842712e-02 1.061863377690315247e-01
1.729000000000000000e+03 2.865465641021728516e+00 -2.793738365173339844e+00 3.453999757766723633e-02 2.755877934396266937e-02 1.862963289022445679e-02 6.790423393249511719e-02
1.730000000000000000e+03 4.140302181243896484e+00 -3.318390130996704102e+00 4.721194878220558167e-02 2.476465888321399689e-02 2.159298211336135864e-02 9.402519464492797852e-02
1.731000000000000000e+03 2.143770694732666016e+00 -4.000293731689453125e+00 1.279410161077976227e-02 6.252188980579376221e-02 2.259479835629463196e-02 7.049541920423507690e-02
1.732000000000000000e+03 9.749343872070312500e+00 -4.048212528228759766e+00 9.034287184476852417e-02 -7.312656939029693604e-02 5.164890084415674210e-03 6.496376544237136841e-02
1.733000000000000000e+03 7.708178520202636719e+00 -3.228955268859863281e+00 1.062308698892593384e-01 -3.061621263623237610e-02 2.268439717590808868e-02 8.743266761302947998e-02
1.734000000000000000e+03 4.670642089843750000e+01 -2.521200895309448242e+00 -8.869818449020385742e-01 1.535321474075317383e-01 -2.200348973274230957e-01 -3.639668822288513184e-01
1.735000000000000000e+03 4.808730316162109375e+01 -1.538178324699401855e+00 -1.041345834732055664e+00 1.362531334161758423e-01 -2.715278267860412598e-01 -3.187744021415710449e-01
1.736000000000000000e+03 4.941602325439453125e+01 -1.451680421829223633e+00 -1.286054611206054688e+00 7.629521936178207397e-02 -3.629278242588043213e-01 -3.386341333389282227e-01
1.737000000000000000e+03 4.512055587768554688e+01 -1.329316258430480957e+00 -7.691525816917419434e-01 9.992492944002151489e-02 -2.007682919502258301e-01 -3.239135444164276123e-01
1.738000000000000000e+03 4.268548965454101562e+01 -1.705221295356750488e+00 -7.336200475692749023e-01 -7.946052402257919312e-02 -2.439241707324981689e-01 -4.489464461803436279e-01
1.739000000000000000e+03 4.388100814819335938e+01 -1.318695306777954102e+00 -7.033966183662414551e-01 4.209699481725692749e-02 -1.983898729085922241e-01 -3.597500324249267578e-01
1.740000000000000000e+03 1.716019821166992188e+01 -4.777904510498046875e+00 -7.115426659584045410e-02 -2.650644443929195404e-02 -2.929821424186229706e-02 -2.114030122756958008e-01
1.741000000000000000e+03 1.576570129394531250e+01 -3.642463922500610352e+00 8.312045037746429443e-02 -2.919081039726734161e-02 1.617889106273651123e-02 -1.301734596490859985e-01
1.742000000000000000e+03 1.522149276733398438e+01 -4.885550975799560547e+00 -1.100008375942707062e-02 -8.529138565063476562e-02 -2.888743951916694641e-02 -1.431242674589157104e-01
1.743000000000000000e+03 1.223751258850097656e+01 2.958459854125976562e+00 5.828555367770604789e-05 -2.623490763653535396e-05 9.615193448553327471e-06 2.277892053825780749e-05
1.744000000000000000e+03 1.070375061035156250e+01 3.089302778244018555e+00 1.040324714267626405e-04 -5.904709541937336326e-05 1.349561262031784281e-05 -1.198592053697211668e-05
1.745000000000000000e+03 1.482542896270751953e+01 -4.105999469757080078e+00 6.547155976295471191e-02 -5.968291312456130981e-02 1.736593898385763168e-03 -1.056417152285575867e-01
1.746000000000000000e+03 7.097323608398437500e+01 2.317139625549316406e+01 -5.349627733230590820e-01 1.413781166076660156e+00 2.636455297470092773e-01 -7.200548648834228516e-01
1.747000000000000000e+03 7.212580108642578125e+01 2.256651687622070312e+01 -2.109893411397933960e-01 1.869966626167297363e+00 4.976932108402252197e-01 -1.402590632438659668e+00
1.748000000000000000e+03 7.154187774658203125e+01 2.323898124694824219e+01 -2.978385984897613525e-01 1.834442615509033203e+00 4.609811902046203613e-01 -1.138592243194580078e+00
1.749000000000000000e+03 2.054731941223144531e+01 -4.820519924163818359e+00 -2.329119592905044556e-01 6.171771511435508728e-02 -5.135827139019966125e-02 -2.210486382246017456e-01
1.750000000000000000e+03 1.803932571411132812e+01 -5.579229354858398438e+00 -1.680851131677627563e-01 -1.025256328284740448e-02 -5.350130051374435425e-02 -2.636406719684600830e-01
1.751000000000000000e+03 2.232854080200195312e+01 -4.128010272979736328e+00 -2.709818482398986816e-01 7.070802897214889526e-02 -6.008214876055717468e-02 -1.214354708790779114e-01
1.752000000000000000e+03 1.367753124237060547e+01 1.979832410812377930e+00 1.502202940173447132e-04 -1.554793561808764935e-05 4.040170824737288058e-05 4.974907642463222146e-05
1.753000000000000000e+03 1.299648952484130859e+01 2.869955301284790039e+00 2.105942548951134086e-04 -2.693810893106274307e-05 5.509684342541731894e-05 8.661406172905117273e-05
1.754000000000000000e+03 5.072348403930664062e+01 -1.690440654754638672e+00 -1.387721776962280273e+00 -1.505250930786132812e-01 -4.614740610122680664e-01 -4.475498795509338379e-01
1.755000000000000000e+03 2.397958946228027344e+01 -4.772728443145751953e+00 -4.237291514873504639e-01 1.269188523292541504e-01 -8.904308825731277466e-02 -1.000673025846481323e-01
1.756000000000000000e+03 2.651040840148925781e+01 -4.894363880157470703e+00 -6.928537487983703613e-01 1.219726726412773132e-01 -1.712643206119537354e-01 9.199709445238113403e-02
1.757000000000000000e+03 2.214566421508789062e+01 -5.772401809692382812e+00 -3.618690967559814453e-01 1.247233152389526367e-01 -7.114373147487640381e-02 -2.338673323392868042e-01
1.758000000000000000e+03 2.312968444824218750e+01 -4.888688564300537109e+00 -3.760114312171936035e-01 1.198141351342201233e-01 -7.685919106006622314e-02 -1.291948407888412476e-01
1.759000000000000000e+03 1.808100318908691406e+01 -4.806698322296142578e+00 -1.153315454721450806e-01 5.395943764597177505e-03 -3.298068046569824219e-02 -2.339164465665817261e-01
1.760000000000000000e+03 6.772015380859375000e+01 2.309353065490722656e+01 -1.765646576881408691e+00 3.757917284965515137e-01 -4.169564545154571533e-01 1.581235826015472412e-01
1.761000000000000000e+03 1.374312591552734375e+01 2.751590967178344727e+00 1.711218101263511926e-05 6.906821454322198406e-06 7.205700512713519856e-06 6.250000296859070659e-05
1.762000000000000000e+03 4.511896514892578125e+01 5.103810310363769531e+00 3.089460951741784811e-04 3.798880061367526650e-05 1.040804709191434085e-04 -2.464108110871165991e-04
1.763000000000000000e+03 7.001881408691406250e+01 1.538866519927978516e+01 7.317093014717102051e-02 2.412696927785873413e-01 9.433218836784362793e-02 -2.928235828876495361e-01
1.764000000000000000e+03 7.091680145263671875e+01 -1.646812820434570312e+01 2.401297092437744141e-01 5.431509494781494141e+00 1.701491832733154297e+00 8.510448336601257324e-01
1.765000000000000000e+03 6.922732543945312500e+01 -1.329322338104248047e+01 -6.160582900047302246e-01 4.007430076599121094e+00 1.017411470413208008e+00 4.315012991428375244e-01
1.766000000000000000e+03 6.494354248046875000e+01 -9.108297348022460938e+00 -2.843988128006458282e-02 4.138663709163665771e-01 1.156279519200325012e-01 1.906146556138992310e-01
1.767000000000000000e+03 1.753175735473632812e+01 4.222495555877685547e+00 -8.199451258406043053e-05 8.545370656065642834e-05 1.037756419464130886e-06 1.277701085200533271e-04
1.768000000000000000e+03 1.823457527160644531e+01 1.507876276969909668e+00 5.809789217892102897e-05 1.383013932354515418e-05 2.157840935979038477e-05 3.105977157247252762e-05
1.769000000000000000e+03 4.154643630981445312e+01 -3.123256683349609375e+00 -1.041947603225708008e+00 -9.882793575525283813e-02 -3.422326743602752686e-01 -3.605206012725830078e-01
1.770000000000000000e+03 4.281534957885742188e+01 -2.952604532241821289e+00 -9.227400422096252441e-01 2.986641228199005127e-02 -2.678620815277099609e-01 -3.323031663894653320e-01
1.771000000000000000e+03 2.362204170227050781e+01 -1.094753646850585938e+01 -2.311838120222091675e-01 1.406138688325881958e-01 -2.717098034918308258e-02 -3.228158056735992432e-01
1.772000000000000000e+03 6.043161773681640625e+01 2.468665361404418945e+00 -1.224631547927856445e+00 -9.042115807533264160e-01 -6.386529207229614258e-01 -1.041398406028747559e+00
1.773000000000000000e+03 6.325293350219726562e+01 5.253921508789062500e+00 -1.136131048202514648e+00 -1.070283293724060059e+00 -6.619243025779724121e-01 -1.055270910263061523e+00
1.774000000000000000e+03 1.432729148864746094e+01 -2.880032539367675781e+01 3.166692256927490234e-01 1.789391785860061646e-01 1.486825197935104370e-01 -1.903468370437622070e-01
1.775000000000000000e+03 1.676871109008789062e+01 -1.074419021606445312e+01 -6.188873052597045898e-01 -2.504769265651702881e-01 -2.608092725276947021e-01 -3.497486710548400879e-01
1.776000000000000000e+03 1.621843147277832031e+01 -2.868622970581054688e+01 4.168801307678222656e-01 2.376628518104553223e-01 1.963628977537155151e-01 -2.538323402404785156e-01
1.777000000000000000e+03 5.963313674926757812e+01 1.567188620567321777e+00 -1.320636153221130371e+00 -8.491146564483642578e-01 -6.509252786636352539e-01 -8.692435622215270996e-01
1.778000000000000000e+03 6.268077087402343750e+01 2.567953586578369141e+00 -7.066459059715270996e-01 -6.272540092468261719e-01 -4.001699686050415039e-01 -6.571806669235229492e-01
1.779000000000000000e+03 2.729388999938964844e+01 -5.344328403472900391e+00 -1.040280580520629883e+00 1.532113254070281982e-01 -2.661207914352416992e-01 1.415000297129154205e-02
1.780000000000000000e+03 2.867033004760742188e+01 -6.873751163482666016e+00 -9.218333363533020020e-01 -1.259590499103069305e-02 -2.803287804126739502e-01 -2.599239945411682129e-01
1.781000000000000000e+03 6.157514953613281250e+01 -9.144404411315917969e+00 -6.904955953359603882e-03 -2.141636013984680176e-01 -6.632056832313537598e-02 4.511578977108001709e-01
1.782000000000000000e+03 6.064952468872070312e+01 -8.956960678100585938e+00 6.118995696306228638e-02 -2.169594317674636841e-01 -4.673084244132041931e-02 3.840429186820983887e-01
1.783000000000000000e+03 6.801018524169921875e+01 -1.111227989196777344e+01 -5.798573493957519531e-01 2.744390249252319336e+00 6.493598818778991699e-01 -1.847480796277523041e-02
1.784000000000000000e+03 3.740393447875976562e+01 -2.705026435852050781e+01 -1.018394604325294495e-01 -6.255243420600891113e-01 -2.182091325521469116e-01 -1.174893677234649658e-01
1.785000000000000000e+03 1.254114913940429688e+01 -1.013431358337402344e+01 -4.131067097187042236e-01 -3.748067915439605713e-01 -2.363740503787994385e-01 -1.116157621145248413e-01
1.786000000000000000e+03 1.426789569854736328e+01 -1.160616397857666016e+01 -7.812081575393676758e-01 -4.831690788269042969e-01 -3.793131709098815918e-01 -3.098086416721343994e-01
1.787000000000000000e+03 2.360500144958496094e+01 -1.204416084289550781e+01 -6.507047265768051147e-02 1.188412979245185852e-01 1.613124646246433258e-02 -2.647379040718078613e-01
1.788000000000000000e+03 2.957446098327636719e+01 -1.222200489044189453e+01 1.737214475870132446e-01 9.817066788673400879e-02 8.156763762235641479e-02 -3.729185760021209717e-01
1.789000000000000000e+03 5.769268035888671875e+01 -5.676068782806396484e+00 1.306715048849582672e-02 -4.257672131061553955e-01 -1.238100230693817139e-01 2.206878960132598877e-01
1.790000000000000000e+03 4.361896514892578125e+01 -1.272319984436035156e+01 7.220378611236810684e-03 -5.791118368506431580e-02 -1.520724222064018250e-02 -8.303782343864440918e-02
1.791000000000000000e+03 1.884488868713378906e+01 -1.187590599060058594e+01 -6.113362908363342285e-01 9.839007258415222168e-02 -1.538838744163513184e-01 -1.336135566234588623e-01
1.792000000000000000e+03 1.742834281921386719e+01 -9.914501190185546875e+00 -5.435447096824645996e-01 -1.217982321977615356e-01 -1.996028870344161987e-01 -3.717344701290130615e-01
1.793000000000000000e+03 6.300577545166015625e+01 -3.152610778808593750e+01 3.393158912658691406e-01 1.459624648094177246e+00 5.396821498870849609e-01 5.977498888969421387e-01
1.794000000000000000e+03 2.068574905395507812e+01 -1.032174015045166016e+01 -3.837524950504302979e-01 1.234356909990310669e-01 -7.809504121541976929e-02 -3.160235583782196045e-01
1.795000000000000000e+03 2.032672691345214844e+01 -1.133506870269775391e+01 -4.316354095935821533e-01 1.292093247175216675e-01 -9.072782844305038452e-02 -2.160040289163589478e-01
1.796000000000000000e+03 6.922756958007812500e+01 -2.531001663208007812e+01 1.535710394382476807e-01 4.551399707794189453e+00 1.411491274833679199e+00 7.695750594139099121e-01
1.797000000000000000e+03 6.809716796875000000e+01 7.995774745941162109e+00 -6.689060330390930176e-01 4.586444795131683350e-01 -6.307846307754516602e-02 -8.281360566616058350e-02
1.798000000000000000e+03 6.520881652832031250e+01 7.099191665649414062e+00 -1.141121745109558105e+00 -1.098068714141845703e+00 -6.717571616172790527e-01 -1.027406454086303711e+00
1.799000000000000000e+03 4.334659194946289062e+01 1.328304100036621094e+01 -3.067117743194103241e-02 -3.817272605374455452e-03 -1.034653466194868088e-02 -2.506250049918889999e-03
1.800000000000000000e+03 4.217476272583007812e+01 1.200801467895507812e+01 -8.845463395118713379e-03 -8.190294029191136360e-04 -2.899348037317395210e-03 -1.218015560880303383e-03
1.801000000000000000e+03 2.727898406982421875e+01 -1.229236698150634766e+01 1.567563861608505249e-01 6.902243942022323608e-02 6.773364543914794922e-02 -3.602717816829681396e-01
1.802000000000000000e+03 5.159673309326171875e+01 -9.814624786376953125e-01 -1.810761451721191406e+00 -2.719927728176116943e-01 -6.248262524604797363e-01 -3.883386254310607910e-01
1.803000000000000000e+03 1.839686775207519531e+01 2.491130065917968750e+01 -2.271567843854427338e-02 -5.516365170478820801e-03 -8.469613268971443176e-03 1.746687479317188263e-02
1.804000000000000000e+03 1.879592704772949219e+01 2.306378364562988281e+01 -2.278167940676212311e-02 4.510991566348820925e-04 -6.699174176901578903e-03 9.000994265079498291e-03
1.805000000000000000e+03 4.331871032714843750e+01 -2.443409538269042969e+01 1.981248706579208374e-01 2.908924221992492676e-01 1.467051953077316284e-01 -2.555665373802185059e-01
1.806000000000000000e+03 4.329245376586914062e+01 -2.317103958129882812e+01 1.999999433755874634e-01 2.883723378181457520e-01 1.465116739273071289e-01 -3.212449252605438232e-01
1.807000000000000000e+03 4.601712799072265625e+01 6.054130077362060547e+00 8.101427229121327400e-04 -3.880730655509978533e-04 1.266209001187235117e-04 3.195888421032577753e-04
1.808000000000000000e+03 1.635985183715820312e+01 9.443294525146484375e+00 -1.039115741150453687e-04 2.904496795963495970e-04 5.596143091679550707e-05 2.854508929885923862e-04
1.809000000000000000e+03 1.681773185729980469e+01 1.240071868896484375e+01 6.618248298764228821e-04 8.466867147944867611e-04 4.525534459389746189e-04 8.380668587051331997e-04
1.810000000000000000e+03 3.556845855712890625e+01 -2.973273277282714844e+01 1.005793511867523193e-01 -6.286203861236572266e-01 -1.584123075008392334e-01 -1.039297431707382202e-01
1.811000000000000000e+03 4.671816635131835938e+01 -2.603134918212890625e+01 2.539453804492950439e-01 7.506264448165893555e-01 3.013715445995330811e-01 -3.013234138488769531e-01
1.812000000000000000e+03 5.184717941284179688e+01 -3.400521087646484375e+01 4.488122165203094482e-01 3.193660676479339600e-01 2.304534763097763062e-01 -2.577603757381439209e-01
1.813000000000000000e+03 2.482609939575195312e+01 -1.212447452545166016e+01 6.398329860530793667e-04 9.177699685096740723e-02 2.772504836320877075e-02 -3.135279715061187744e-01
1.814000000000000000e+03 2.605587196350097656e+01 -1.341363525390625000e+01 3.273236453533172607e-01 4.940612241625785828e-02 1.130189299583435059e-01 -2.600626647472381592e-01
1.815000000000000000e+03 3.442804718017578125e+01 -6.531332492828369141e+00 -1.347297072410583496e+00 -1.474523842334747314e-01 -4.484248161315917969e-01 -1.617521345615386963e-01
1.816000000000000000e+03 3.690597534179687500e+01 -6.600053787231445312e+00 -1.122770071029663086e+00 -2.105069309473037720e-01 -3.999831080436706543e-01 -2.269327193498611450e-01
1.817000000000000000e+03 6.444688415527343750e+01 2.602408027648925781e+01 -7.139092683792114258e-01 -8.125045150518417358e-02 -2.385479211807250977e-01 1.547440737485885620e-01
1.818000000000000000e+03 6.315486145019531250e+01 2.635885620117187500e+01 -6.602439284324645996e-01 -2.376471310853958130e-01 -2.693673074245452881e-01 3.595520555973052979e-01
1.819000000000000000e+03 7.639510345458984375e+01 -3.163184356689453125e+01 -4.104868322610855103e-02 5.147102832794189453e+00 1.531816244125366211e+00 2.402849122881889343e-02
1.820000000000000000e+03 7.634727478027343750e+01 -3.297770690917968750e+01 -3.404936939477920532e-02 5.109806537628173828e+00 1.522727251052856445e+00 3.158444166183471680e-02
1.821000000000000000e+03 7.636296081542968750e+01 -3.020847511291503906e+01 -4.373584315180778503e-02 5.190615177154541016e+00 1.544063806533813477e+00 -7.914111949503421783e-03
1.822000000000000000e+03 7.630005645751953125e+01 -3.711776733398437500e+01 -2.964745834469795227e-02 5.079191207885742188e+00 1.514863133430480957e+00 6.186837702989578247e-02
1.823000000000000000e+03 7.886621093750000000e+01 2.117545318603515625e+01 1.677685976028442383e-01 6.938770771026611328e+00 2.131961822509765625e+00 2.488903760910034180e+00
1.824000000000000000e+03 7.857333374023437500e+01 1.848810958862304688e+01 1.488193750381469727e+00 7.614811897277832031e+00 2.730901718139648438e+00 -2.451473474502563477e+00
1.825000000000000000e+03 7.669657135009765625e+01 -2.444226646423339844e+01 8.151622116565704346e-02 5.366425991058349609e+00 1.634382605552673340e+00 1.409959513694047928e-02
1.826000000000000000e+03 7.670724487304687500e+01 -2.588837432861328125e+01 4.082681238651275635e-02 5.331496238708496094e+00 1.611696958541870117e+00 -3.195695206522941589e-02
1.827000000000000000e+03 7.662206268310546875e+01 -2.728996086120605469e+01 -3.456990933045744896e-03 5.306975364685058594e+00 1.591055512428283691e+00 -4.068339988589286804e-02
1.828000000000000000e+03 7.696308135986328125e+01 2.421174240112304688e+01 -1.522012829780578613e+00 1.027358436584472656e+01 2.625471591949462891e+00 1.179237216711044312e-01
1.829000000000000000e+03 7.768359375000000000e+01 2.344941139221191406e+01 -1.445447087287902832e+00 1.062856483459472656e+01 2.754935264587402344e+00 1.263239145278930664e+00
1.830000000000000000e+03 7.845561981201171875e+01 1.683636474609375000e+01 -5.257508754730224609e-01 9.641204833984375000e+00 2.734636306762695312e+00 -2.812326669692993164e+00
1.831000000000000000e+03 7.865257263183593750e+01 1.370871162414550781e+01 -2.639754712581634521e-01 1.041140365600585938e+01 3.044228553771972656e+00 -7.384914755821228027e-01
1.832000000000000000e+03 7.732695770263671875e+01 8.662246704101562500e+00 -1.413408517837524414e-01 9.367526054382324219e+00 2.767855644226074219e+00 2.851344645023345947e-01
1.833000000000000000e+03 7.679176330566406250e+01 2.781269836425781250e+01 -2.959307730197906494e-01 8.185343742370605469e+00 2.366823673248291016e+00 -6.584017276763916016e-01
1.834000000000000000e+03 7.700182342529296875e+01 2.655075263977050781e+01 -5.547710061073303223e-01 8.661864280700683594e+00 2.432127952575683594e+00 -4.265475273132324219e-01
1.835000000000000000e+03 7.771896362304687500e+01 1.240538978576660156e+01 -4.080590009689331055e-01 1.000331592559814453e+01 2.878576993942260742e+00 -3.439667224884033203e-01
1.836000000000000000e+03 7.777477264404296875e+01 1.353005218505859375e+01 -6.556901931762695312e-01 1.021953105926513672e+01 2.869152307510375977e+00 -7.959654927253723145e-01
1.837000000000000000e+03 7.661891937255859375e+01 2.906772422790527344e+01 -1.441538035869598389e-01 7.754641056060791016e+00 2.283146142959594727e+00 -8.016387820243835449e-01
1.838000000000000000e+03 7.684486389160156250e+01 -1.720975303649902344e+01 1.218160167336463928e-01 5.945194244384765625e+00 1.820103049278259277e+00 6.085995435714721680e-01
1.839000000000000000e+03 7.717015075683593750e+01 -1.449866199493408203e+01 7.702946197241544724e-03 6.407092094421386719e+00 1.924438476562500000e+00 6.409745812416076660e-01
1.840000000000000000e+03 7.700778198242187500e+01 -1.576238250732421875e+01 4.538825154304504395e-02 6.203534603118896484e+00 1.874676823616027832e+00 6.442898511886596680e-01
1.841000000000000000e+03 7.689647674560546875e+01 -6.504456520080566406e+00 -2.011729404330253601e-02 7.322569847106933594e+00 2.190735816955566406e+00 4.220992922782897949e-01
1.842000000000000000e+03 7.696365356445312500e+01 -7.877674579620361328e+00 -5.096637830138206482e-02 7.229372024536132812e+00 2.153521537780761719e+00 4.455140233039855957e-01
1.843000000000000000e+03 7.688079071044921875e+01 -8.279892206192016602e-01 2.744773216545581818e-02 7.882143497467041016e+00 2.372877359390258789e+00 4.535963237285614014e-01
1.844000000000000000e+03 7.695056915283203125e+01 5.720962882041931152e-01 2.736849151551723480e-02 8.099074363708496094e+00 2.437932729721069336e+00 4.737204313278198242e-01
1.845000000000000000e+03 7.714269256591796875e+01 2.526082801818847656e+01 -1.018528819084167480e+00 9.448004722595214844e+00 2.528842687606811523e+00 -4.320183768868446350e-02
1.846000000000000000e+03 7.726287078857421875e+01 7.349059104919433594e+00 -9.110467880964279175e-02 9.157601356506347656e+00 2.719949007034301758e+00 3.659839332103729248e-01
1.847000000000000000e+03 7.708957672119140625e+01 3.317525625228881836e+00 -3.964899573475122452e-03 8.522770881652832031e+00 2.555641651153564453e+00 4.799188375473022461e-01
1.848000000000000000e+03 7.681367492675781250e+01 -2.251982212066650391e+00 2.695419080555438995e-02 7.705421447753906250e+00 2.319712638854980469e+00 4.360479712486267090e-01
1.849000000000000000e+03 7.548570251464843750e+01 -3.527004003524780273e+00 3.065980225801467896e-02 6.721405029296875000e+00 2.025619506835937500e+00 5.397524237632751465e-01
1.850000000000000000e+03 7.704987335205078125e+01 -9.224582672119140625e+00 -7.332141697406768799e-02 7.106260299682617188e+00 2.109881639480590820e+00 4.829508662223815918e-01
1.851000000000000000e+03 7.706723785400390625e+01 -1.058741474151611328e+01 -8.882341533899307251e-02 6.952499866485595703e+00 2.059103012084960938e+00 5.392010211944580078e-01
1.852000000000000000e+03 7.672998809814453125e+01 -1.872325897216796875e+01 1.768798381090164185e-01 5.734858036041259766e+00 1.773521423339843750e+00 4.998495280742645264e-01
1.853000000000000000e+03 7.676393890380859375e+01 -2.020974349975585938e+01 1.817344576120376587e-01 5.596513271331787109e+00 1.733474254608154297e+00 3.418880701065063477e-01
1.854000000000000000e+03 7.640855407714843750e+01 3.037005615234375000e+01 1.543931197375059128e-02 7.301825523376464844e+00 2.195179462432861328e+00 -8.377820849418640137e-01
1.855000000000000000e+03 7.829261016845703125e+01 4.474121570587158203e+00 -1.290236227214336395e-02 9.732562065124511719e+00 2.915898084640502930e+00 3.034488558769226074e-01
1.856000000000000000e+03 7.720987701416015625e+01 6.017848491668701172e+00 -5.295941233634948730e-02 8.953289031982421875e+00 2.670099020004272461e+00 4.295607805252075195e-01
1.857000000000000000e+03 7.715351104736328125e+01 4.675031185150146484e+00 -2.954128570854663849e-02 8.741190910339355469e+00 2.613494873046875000e+00 4.581767022609710693e-01
1.858000000000000000e+03 7.680234527587890625e+01 -3.681036233901977539e+00 1.705468073487281799e-02 7.558935165405273438e+00 2.272796869277954102e+00 4.262941777706146240e-01
1.859000000000000000e+03 3.781912994384765625e+01 -5.277781486511230469e+00 -1.262413501739501953e+00 -2.979493737220764160e-01 -4.681088626384735107e-01 -4.161798655986785889e-01
1.860000000000000000e+03 5.751448440551757812e+01 2.679915428161621094e+01 -8.298029303550720215e-01 -1.922169774770736694e-01 -3.066059648990631104e-01 5.760952830314636230e-01
1.861000000000000000e+03 4.778806686401367188e+01 1.237570095062255859e+01 -2.998779295012354851e-03 -1.388811971992254257e-03 -1.316277426667511463e-03 3.047418547794222832e-03
1.862000000000000000e+03 5.013428115844726562e+01 1.649477767944335938e+01 -3.434517979621887207e-02 -9.344240650534629822e-03 -1.310682576149702072e-02 -2.760301902890205383e-02
1.863000000000000000e+03 2.981959342956542969e+01 -1.352443504333496094e+01 6.749396920204162598e-01 1.011314615607261658e-01 2.328213453292846680e-01 -3.630533814430236816e-01
1.864000000000000000e+03 4.081449127197265625e+01 1.581132221221923828e+01 -8.521497249603271484e-02 1.504489872604608536e-02 -2.105102129280567169e-02 1.592942140996456146e-02
1.865000000000000000e+03 3.841692924499511719e+00 3.063908576965332031e+01 -6.026179180480539799e-04 -1.610173843801021576e-03 -6.638375343754887581e-04 1.726160990074276924e-03
1.866000000000000000e+03 3.915494680404663086e+00 3.220800018310546875e+01 -1.475622993893921375e-04 -2.451324136927723885e-03 -7.796659483574330807e-04 2.017704769968986511e-03
1.867000000000000000e+03 3.353645801544189453e+00 2.341597366333007812e+01 -1.840774639276787639e-04 1.298021175898611546e-03 3.341831325087696314e-04 -2.741945500019937754e-04
1.868000000000000000e+03 3.352947473526000977e+00 2.482353210449218750e+01 -7.574183400720357895e-04 1.208390342071652412e-03 1.352916151518002152e-04 1.763067666615825146e-05
1.869000000000000000e+03 4.196259498596191406e+00 3.769511032104492188e+01 3.753347846213728189e-05 -4.464620258659124374e-03 -1.328126061707735062e-03 2.154052956029772758e-03
1.870000000000000000e+03 3.431729316711425781e+00 2.624044227600097656e+01 -2.913149364758282900e-04 7.593477494083344936e-04 1.404098438797518611e-04 5.513789365068078041e-04
1.871000000000000000e+03 3.562277078628540039e+00 2.766357231140136719e+01 -7.962924428284168243e-04 1.610929612070322037e-04 -1.905598473967984319e-04 8.307572570629417896e-04
1.872000000000000000e+03 3.709372282028198242e+00 2.912223434448242188e+01 -3.664329997263848782e-04 -5.835223128087818623e-04 -2.849865704774856567e-04 1.449062372557818890e-03
1.873000000000000000e+03 3.329219341278076172e+00 -2.719140052795410156e+01 4.390043392777442932e-02 -4.916887581348419189e-01 -1.343364864587783813e-01 -1.106074228882789612e-01
1.874000000000000000e+03 3.294407844543457031e+00 -2.577853202819824219e+01 4.789372906088829041e-02 -4.563010036945343018e-01 -1.225221827626228333e-01 -1.418620944023132324e-01
1.875000000000000000e+03 3.554943323135375977e+00 -2.990371894836425781e+01 3.390526771545410156e-02 -5.290711522102355957e-01 -1.485497653484344482e-01 -5.971470847725868225e-02
1.876000000000000000e+03 3.386806964874267578e+00 -2.855151367187500000e+01 3.903150931000709534e-02 -5.186843872070312500e-01 -1.438958644866943359e-01 -8.168445527553558350e-02
1.877000000000000000e+03 3.196655988693237305e+00 -5.452054977416992188e+00 2.877577440813183784e-03 6.589041650295257568e-02 2.063039876520633698e-02 1.022536531090736389e-01
1.878000000000000000e+03 2.894782543182373047e+00 -1.062989044189453125e+01 -5.039400607347488403e-02 1.335590928792953491e-01 2.494952455163002014e-02 2.344814129173755646e-02
1.879000000000000000e+03 2.927219867706298828e+00 -9.311115264892578125e+00 -3.573015332221984863e-02 1.263237595558166504e-01 2.717808447778224945e-02 5.538556724786758423e-02
1.880000000000000000e+03 2.924181938171386719e+00 -1.336178493499755859e+01 -6.274374574422836304e-02 1.032782793045043945e-01 1.216035895049571991e-02 -7.345294207334518433e-02
1.881000000000000000e+03 2.903680801391601562e+00 -1.197850990295410156e+01 -6.022760272026062012e-02 1.260402649641036987e-01 1.974380016326904297e-02 -2.392796799540519714e-02
1.882000000000000000e+03 2.839238882064819336e+00 -2.034285736083984375e+01 -4.226529039442539215e-03 -2.103416174650192261e-01 -6.437044590711593628e-02 -2.308483570814132690e-01
1.883000000000000000e+03 3.020469903945922852e+00 -1.901626586914062500e+01 -1.366269588470458984e-02 -1.408283561468124390e-01 -4.634731635451316833e-02 -2.262539416551589966e-01
1.884000000000000000e+03 3.175159931182861328e+00 -2.268899726867675781e+01 3.640133142471313477e-02 -3.374667763710021973e-01 -9.031963348388671875e-02 -2.113090008497238159e-01
1.885000000000000000e+03 2.864247560501098633e+00 -2.144800186157226562e+01 2.761305123567581177e-02 -2.840317785739898682e-01 -7.692561298608779907e-02 -2.179427891969680786e-01
1.886000000000000000e+03 3.997838258743286133e+00 -3.129748916625976562e+01 3.492937609553337097e-02 -5.071963667869567871e-01 -1.416800916194915771e-01 -4.511275887489318848e-02
1.887000000000000000e+03 2.471740484237670898e+00 -3.324052429199218750e+01 1.294282823801040649e-02 -6.376153230667114258e-01 -1.874017417430877686e-01 -7.689280435442924500e-03
1.888000000000000000e+03 4.273086071014404297e+00 1.629956245422363281e+01 3.488808579277247190e-04 4.114631155971437693e-04 2.281031920574605465e-04 -9.521960164420306683e-04
1.889000000000000000e+03 3.169553518295288086e+00 1.773447799682617188e+01 2.310755371581763029e-04 1.138019259087741375e-03 4.107284185010939837e-04 -8.776179747655987740e-04
1.890000000000000000e+03 2.928418159484863281e+00 1.358283710479736328e+01 -3.836177347693592310e-05 6.553306593559682369e-04 1.850906555773690343e-04 -6.628589471802115440e-04
1.891000000000000000e+03 2.989503622055053711e+00 1.494785022735595703e+01 3.090673126280307770e-04 8.484499412588775158e-04 3.472551761660724878e-04 -7.331518572755157948e-04
1.892000000000000000e+03 2.866668462753295898e+00 6.951039791107177734e+00 2.320494822924956679e-04 1.342276664217934012e-04 1.098831417039036751e-04 -1.449708361178636551e-04
1.893000000000000000e+03 2.841965436935424805e+00 8.249017715454101562e+00 -5.911657353863120079e-05 1.987764262594282627e-04 4.189795436104759574e-05 -2.822227543219923973e-04
1.894000000000000000e+03 3.301661014556884766e+00 -2.423550605773925781e+01 5.019652098417282104e-02 -3.970279395580291748e-01 -1.040494292974472046e-01 -1.847579926252365112e-01
1.895000000000000000e+03 2.950088500976562500e+00 -1.611723899841308594e+01 -5.238140746951103210e-02 4.694292321801185608e-03 -1.430613454431295395e-02 -1.784164458513259888e-01
1.896000000000000000e+03 2.913228988647460938e+00 -1.474459743499755859e+01 -6.489356607198715210e-02 6.629823893308639526e-02 4.214004729874432087e-04 -1.272629797458648682e-01
1.897000000000000000e+03 2.996041774749755859e+00 -8.009882926940917969e+00 -2.660342492163181305e-02 1.119528338313102722e-01 2.560482360422611237e-02 8.121489733457565308e-02
1.898000000000000000e+03 3.023188114166259766e+00 5.649669170379638672e+00 -7.372251275228336453e-05 6.084180131438188255e-05 -3.864213795168325305e-06 -1.509615831309929490e-04
1.899000000000000000e+03 2.845719814300537109e+00 1.090187358856201172e+01 -3.819028279394842684e-05 3.831799549516290426e-04 1.034969027386978269e-04 -4.493981250561773777e-04
1.900000000000000000e+03 3.068740844726562500e+00 1.633194923400878906e+01 -1.054409076459705830e-04 9.804301662370562553e-04 2.624967892188578844e-04 -8.514518849551677704e-04
1.901000000000000000e+03 3.388319492340087891e+00 2.059396934509277344e+01 2.835203667927999049e-05 1.338489237241446972e-03 4.100523656234145164e-04 -7.566687418147921562e-04
1.902000000000000000e+03 3.401381731033325195e+00 2.201441574096679688e+01 -5.267206579446792603e-04 1.345926895737648010e-03 2.457618829794228077e-04 -5.717436433769762516e-04
1.903000000000000000e+03 3.287842035293579102e+00 1.915874481201171875e+01 -3.044094773940742016e-04 1.203430467285215855e-03 2.697063027881085873e-04 -8.938916726037859917e-04
1.904000000000000000e+03 2.879815101623535156e+00 1.223601913452148438e+01 3.034478868357837200e-04 5.451097385957837105e-04 2.545672759879380465e-04 -5.041894619353115559e-04
1.905000000000000000e+03 2.834006786346435547e+00 9.568072319030761719e+00 2.602154272608458996e-04 3.032016684301197529e-04 1.690251228865236044e-04 -2.980740391649305820e-04
1.906000000000000000e+03 6.560299682617187500e+01 2.552050209045410156e+01 -8.287277817726135254e-01 6.210736185312271118e-02 -2.299861162900924683e-01 4.033020883798599243e-02
1.907000000000000000e+03 1.678421592712402344e+01 6.237912178039550781e+00 2.781582588795572519e-04 1.318714494118466973e-04 1.230089110322296619e-04 1.727760827634483576e-04
1.908000000000000000e+03 2.844943046569824219e+01 -1.231952190399169922e+01 2.387772947549819946e-01 8.675975352525711060e-02 9.766111522912979126e-02 -3.965407013893127441e-01
1.909000000000000000e+03 4.125071334838867188e+01 -4.210591793060302734e+00 -9.939870834350585938e-01 -1.689523309469223022e-01 -3.488818109035491943e-01 -2.793433070182800293e-01
1.910000000000000000e+03 7.084596252441406250e+01 -2.103645515441894531e+01 9.712176322937011719e-01 5.488545894622802734e+00 1.937929153442382812e+00 6.995295286178588867e-01
1.911000000000000000e+03 8.166801452636718750e+00 -1.638005065917968750e+01 -2.432610392570495605e-01 -2.240514904260635376e-01 -1.401937603950500488e-01 -3.541317880153656006e-01
1.912000000000000000e+03 1.044021034240722656e+01 -1.748019790649414062e+01 -1.884288191795349121e-01 -4.560392498970031738e-01 -1.933404207229614258e-01 -3.972181677818298340e-01
1.913000000000000000e+03 4.602936172485351562e+01 9.759284019470214844e+00 4.961792379617691040e-03 -6.056467071175575256e-03 -3.284023841843008995e-04 3.297672374173998833e-03
1.914000000000000000e+03 4.613045120239257812e+01 8.401189804077148438e+00 3.725230460986495018e-03 -2.821351634338498116e-03 2.711636479943990707e-04 1.993484562262892723e-03
1.915000000000000000e+03 6.998493957519531250e+01 8.472328186035156250e+00 -5.597853064537048340e-01 2.057782173156738281e+00 4.493990540504455566e-01 2.864956855773925781e-01
1.916000000000000000e+03 4.400666809082031250e+01 -1.932585144042968750e+01 1.357235461473464966e-01 3.229929506778717041e-01 1.376149505376815796e-01 -3.385802507400512695e-01
1.917000000000000000e+03 4.308808517456054688e+01 -2.196464347839355469e+01 2.113211601972579956e-01 2.054464668035507202e-01 1.250302940607070923e-01 -3.786991536617279053e-01
1.918000000000000000e+03 6.581500244140625000e+01 -1.008224582672119141e+01 -1.707388013601303101e-01 7.622110843658447266e-01 1.774416863918304443e-01 -1.597387157380580902e-02
1.919000000000000000e+03 6.068116760253906250e+01 2.666246986389160156e+01 -8.010435104370117188e-01 -3.384401202201843262e-01 -3.418450951576232910e-01 5.305459499359130859e-01
1.920000000000000000e+03 6.162708282470703125e+01 2.474798583984375000e+01 -1.590367317199707031e+00 -4.358533620834350586e-01 -6.078662276268005371e-01 5.315406322479248047e-01
1.921000000000000000e+03 4.350400543212890625e+01 -1.777588272094726562e+01 1.420227289199829102e-01 1.308371424674987793e-01 8.185795694589614868e-02 -3.037861585617065430e-01
1.922000000000000000e+03 1.547790718078613281e+01 1.739454269409179688e+01 1.561877550557255745e-03 -1.018917770124971867e-03 1.628879253985360265e-04 1.325028948485851288e-03
1.923000000000000000e+03 1.537136077880859375e+01 1.583680438995361328e+01 8.072367054410278797e-04 -4.327951755840331316e-04 1.123324618674814701e-04 1.377431908622384071e-03
1.924000000000000000e+03 4.855907440185546875e+01 2.060036087036132812e+01 -4.155677258968353271e-01 7.244497537612915039e-02 -1.029368266463279724e-01 -3.863399475812911987e-02
1.925000000000000000e+03 1.888924026489257812e+01 4.721908569335937500e+00 -7.488523260690271854e-05 6.888865027576684952e-05 -1.798976541067531798e-06 1.178748862002976239e-04
1.926000000000000000e+03 1.931069374084472656e+01 2.080152511596679688e+00 6.115488213254138827e-05 3.985295916208997369e-05 3.030235166079364717e-05 -5.482850156113272533e-06
1.927000000000000000e+03 2.540128898620605469e+01 -5.352629661560058594e+00 -6.126787066459655762e-01 1.773567944765090942e-01 -1.305965781211853027e-01 -5.380445346236228943e-02
1.928000000000000000e+03 3.712489700317382812e+01 -2.463775634765625000e+01 -2.592833042144775391e-01 -8.358786702156066895e-01 -3.285485804080963135e-01 -2.510364949703216553e-01
1.929000000000000000e+03 4.657627487182617188e+01 1.373021507263183594e+01 -2.454447932541370392e-02 -1.469361223280429840e-02 -1.177142746746540070e-02 -1.067053154110908508e-02
1.930000000000000000e+03 2.693556022644042969e+01 2.562171363830566406e+01 -4.834906011819839478e-02 -4.080165550112724304e-02 -2.674521505832672119e-02 5.864290520548820496e-02
1.931000000000000000e+03 2.520987510681152344e+01 2.600657081604003906e+01 -3.957971930503845215e-02 -3.594611957669258118e-02 -2.265775203704833984e-02 5.438370630145072937e-02
1.932000000000000000e+03 5.011330413818359375e+01 1.994124221801757812e+01 -3.900645673274993896e-01 1.372421439737081528e-02 -1.129021048545837402e-01 -1.267155408859252930e-01
1.933000000000000000e+03 1.511001968383789062e+01 1.435950851440429688e+01 1.324610551819205284e-03 -1.992004836210981011e-04 3.376230306457728148e-04 1.215215306729078293e-03
1.934000000000000000e+03 5.620492935180664062e+01 -6.302274703979492188e+00 3.082155622541904449e-02 -3.051259815692901611e-01 -8.229132741689682007e-02 1.312862485647201538e-01
1.935000000000000000e+03 3.012748336791992188e+01 -7.259456634521484375e+00 -1.084224581718444824e+00 -1.750692874193191528e-01 -3.777881562709808350e-01 -2.711213529109954834e-01
1.936000000000000000e+03 4.550563812255859375e+01 -2.698953819274902344e+01 2.272391021251678467e-01 5.495479702949523926e-01 2.330361157655715942e-01 -2.163370549678802490e-01
1.937000000000000000e+03 6.596530151367187500e+01 -2.584397315979003906e+01 4.985495209693908691e-01 2.497332811355590820e+00 8.987647294998168945e-01 1.200082659721374512e+00
1.938000000000000000e+03 6.826752471923828125e+01 -2.549626731872558594e+01 2.267683744430541992e-01 4.073066234588623047e+00 1.289950370788574219e+00 8.740690946578979492e-01
1.939000000000000000e+03 5.810437011718750000e+01 -3.385223007202148438e+01 5.915213823318481445e-01 4.724195599555969238e-01 3.191822767257690430e-01 5.385259911417961121e-02
1.940000000000000000e+03 5.982774734497070312e+01 -3.294126892089843750e+01 5.267274379730224609e-01 5.773767828941345215e-01 3.312312662601470947e-01 2.230156362056732178e-01
1.941000000000000000e+03 6.702893066406250000e+01 7.127109050750732422e+00 -7.182103991508483887e-01 -1.238902285695075989e-01 -2.526302039623260498e-01 -3.785302042961120605e-01
1.942000000000000000e+03 4.794313430786132812e+01 -8.057695388793945312e+00 -1.826694309711456299e-01 -1.600200496613979340e-02 -5.960142984986305237e-02 -1.827123016119003296e-01
1.943000000000000000e+03 4.581966400146484375e+01 -9.362560272216796875e+00 -2.158149778842926025e-01 -7.017963565886020660e-03 -6.684988737106323242e-02 -1.119504496455192566e-01
1.944000000000000000e+03 4.427498245239257812e+01 6.269741058349609375e+00 1.271934248507022858e-03 -3.623261582106351852e-04 2.728824038058519363e-04 -8.349932031705975533e-04
1.945000000000000000e+03 4.436108398437500000e+01 7.457071781158447266e+00 4.428113810718059540e-03 -1.551557215861976147e-03 8.629669900983572006e-04 -1.397858606651425362e-03
1.946000000000000000e+03 6.685423278808593750e+01 -2.685470199584960938e+01 1.521830260753631592e-01 3.216343879699707031e+00 1.010558128356933594e+00 1.075272917747497559e+00
1.947000000000000000e+03 3.902363967895507812e+01 -6.484017848968505859e+00 -9.279078245162963867e-01 -2.301201969385147095e-01 -3.474084138870239258e-01 -1.914450675249099731e-01
1.948000000000000000e+03 3.488604354858398438e+01 -1.572696399688720703e+01 9.604235887527465820e-01 2.280703559517860413e-02 2.949691712856292725e-01 -2.550467848777770996e-01
1.949000000000000000e+03 5.393007659912109375e+01 2.559588241577148438e+01 -8.494486808776855469e-01 -4.401123896241188049e-02 -2.680379748344421387e-01 4.572425484657287598e-01
1.950000000000000000e+03 5.078306579589843750e+01 2.431241989135742188e+01 -6.456548571586608887e-01 7.215608656406402588e-02 -1.720496416091918945e-01 2.407142519950866699e-01
1.951000000000000000e+03 7.075050354003906250e+01 -1.757990646362304688e+01 5.242647528648376465e-01 5.661520957946777344e+00 1.855735659599304199e+00 1.041911721229553223e+00
1.952000000000000000e+03 7.066960906982421875e+01 -1.873434829711914062e+01 9.592747688293457031e-01 5.420407772064208984e+00 1.913904786109924316e+00 9.321938157081604004e-01
1.953000000000000000e+03 6.417814636230468750e+01 4.514681816101074219e+00 -7.538234591484069824e-01 -6.553356051445007324e-01 -4.227477014064788818e-01 -7.163383364677429199e-01
1.954000000000000000e+03 5.960252380371093750e+01 2.650497817993164062e+01 -9.944394230842590332e-01 -3.750633299350738525e-01 -4.108508229255676270e-01 5.919444561004638672e-01
1.955000000000000000e+03 6.931614685058593750e+01 1.069894599914550781e+01 -7.193990945816040039e-01 7.926121950149536133e-01 2.196392416954040527e-02 -6.449455022811889648e-02
1.956000000000000000e+03 1.001283073425292969e+01 -2.140246391296386719e+01 1.861177086830139160e-01 -2.296126931905746460e-01 -1.304849609732627869e-02 -3.015243411064147949e-01
1.957000000000000000e+03 1.234436130523681641e+01 -2.516120719909667969e+01 2.898794710636138916e-01 1.419687271118164062e-01 1.295544654130935669e-01 -2.203290909528732300e-01
1.958000000000000000e+03 1.249751472473144531e+01 -2.745929527282714844e+01 2.847940027713775635e-01 9.206983447074890137e-02 1.130591556429862976e-01 -1.836887747049331665e-01
1.959000000000000000e+03 3.541291809082031250e+01 1.888652229309082031e+01 -1.241776943206787109e-01 -1.514851581305265427e-02 -4.179786145687103271e-02 5.539099127054214478e-02
1.960000000000000000e+03 5.335583114624023438e+01 -1.833170413970947266e+00 -1.434335947036743164e+00 -4.574998915195465088e-01 -5.675507187843322754e-01 -3.415846526622772217e-01
1.961000000000000000e+03 3.209630966186523438e+01 -1.307266902923583984e+01 3.872460126876831055e-01 1.707578152418136597e-01 1.674011498689651489e-01 -2.434305548667907715e-01
1.962000000000000000e+03 4.499724960327148438e+01 8.243258476257324219e+00 4.899208433926105499e-03 -3.578940173611044884e-03 3.960805188398808241e-04 3.867891209665685892e-04
1.963000000000000000e+03 4.318730545043945312e+01 9.179832458496093750e+00 6.119962316006422043e-03 -2.145536942407488823e-03 1.192327588796615601e-03 -4.234725143760442734e-03
1.964000000000000000e+03 6.093625259399414062e+01 3.377490043640136719e-01 -6.705490946769714355e-01 -5.911048054695129395e-01 -3.784961700439453125e-01 -4.289871454238891602e-01
1.965000000000000000e+03 1.778953742980957031e+01 5.115490436553955078e+00 1.883607037598267198e-04 3.322548218420706689e-05 6.647585541941225529e-05 2.124113365198354586e-07
1.966000000000000000e+03 3.936574172973632812e+01 -2.639515304565429688e+01 -4.705350846052169800e-02 -3.257406055927276611e-01 -1.118382364511489868e-01 -1.167839616537094116e-01
1.967000000000000000e+03 5.864539337158203125e+01 -1.181865572929382324e+00 -8.530210852622985840e-01 -6.940737962722778320e-01 -4.641284644603729248e-01 -2.534407079219818115e-01
1.968000000000000000e+03 1.489054965972900391e+01 2.056500625610351562e+01 -4.056534264236688614e-03 -2.049145288765430450e-03 -1.831703935749828815e-03 1.050478895194828510e-03
1.969000000000000000e+03 1.769877815246582031e+01 1.967708778381347656e+01 -3.141730325296521187e-03 4.809261881746351719e-04 -7.982412353157997131e-04 3.133658901788294315e-04
1.970000000000000000e+03 2.928365135192871094e+01 -7.851929664611816406e+00 -8.669911623001098633e-01 -1.095906868577003479e-01 -2.929745614528656006e-01 -3.315063416957855225e-01
1.971000000000000000e+03 4.875919723510742188e+01 -3.144977188110351562e+01 2.922813594341278076e-01 4.171849787235260010e-01 2.128399014472961426e-01 -2.340248227119445801e-01
1.972000000000000000e+03 5.015695190429687500e+01 -3.272002410888671875e+01 3.341467976570129395e-01 3.665876388549804688e-01 2.102203369140625000e-01 -2.563783526420593262e-01
1.973000000000000000e+03 5.154409408569335938e+01 -6.436572074890136719e+00 -1.359656602144241333e-01 -4.385854676365852356e-02 -5.394726246595382690e-02 -3.378074765205383301e-01
1.974000000000000000e+03 5.218758010864257812e+01 -5.423946380615234375e+00 -3.300006091594696045e-01 -8.898067474365234375e-02 -1.256943792104721069e-01 -3.734374642372131348e-01
1.975000000000000000e+03 2.503861236572265625e+01 2.388182449340820312e+01 -6.361483037471771240e-02 -2.536157146096229553e-02 -2.669291943311691284e-02 4.433289170265197754e-02
1.976000000000000000e+03 2.157996368408203125e+01 2.578982543945312500e+01 -3.087302297353744507e-02 -1.800272800028324127e-02 -1.466272491961717606e-02 3.511201217770576477e-02
1.977000000000000000e+03 1.442391586303710938e+01 1.314734268188476562e+01 6.805018638260662556e-04 -1.845873193815350533e-04 1.487743575125932693e-04 1.114449696615338326e-03
1.978000000000000000e+03 7.117086791992187500e+01 -1.538217544555664062e+01 7.814972102642059326e-02 5.214383602142333984e+00 1.587760090827941895e+00 9.488450288772583008e-01
1.979000000000000000e+03 4.542680740356445312e+01 1.362988471984863281e+01 -3.225275874137878418e-02 -1.018322631716728210e-02 -1.273079589009284973e-02 -9.532868862152099609e-03
1.980000000000000000e+03 1.737314605712890625e+01 1.850096702575683594e+01 2.640908816829323769e-03 4.610408795997500420e-04 9.305849089287221432e-04 1.530545530840754509e-03
1.981000000000000000e+03 1.528345489501953125e+01 1.900387954711914062e+01 -1.304593752138316631e-03 -2.173681044951081276e-03 -1.043482450768351555e-03 2.189494844060391188e-04
1.982000000000000000e+03 7.469435882568359375e+01 1.690908050537109375e+01 -1.451062858104705811e-01 8.850326538085937500e+00 2.611566066741943359e+00 3.297597646713256836e+00
1.983000000000000000e+03 7.416247558593750000e+01 1.715380668640136719e+01 8.643615841865539551e-01 5.845092773437500000e+00 2.012836217880249023e+00 3.263290166854858398e+00
1.984000000000000000e+03 7.376893615722656250e+01 2.151172256469726562e+01 4.405488669872283936e-01 3.556472063064575195e+00 1.199106216430664062e+00 -3.414902925491333008e+00
1.985000000000000000e+03 7.407871246337890625e+01 2.171820640563964844e+01 3.474596440792083740e-01 4.979528427124023438e+00 1.598096370697021484e+00 -3.957857608795166016e+00
1.986000000000000000e+03 7.508176422119140625e+01 2.187836074829101562e+01 -1.091424822807312012e+00 1.084257411956787109e+01 2.925344705581665039e+00 -4.380307197570800781e+00
1.987000000000000000e+03 7.656037902832031250e+01 2.351542663574218750e+01 -2.060073852539062500e+00 1.124766635894775391e+01 2.756277799606323242e+00 -2.186440676450729370e-01
1.988000000000000000e+03 7.518983459472656250e+01 1.716036796569824219e+01 -7.443897724151611328e-01 1.147481822967529297e+01 3.219128608703613281e+00 3.396347761154174805e+00
1.989000000000000000e+03 7.533128356933593750e+01 2.207006835937500000e+01 -1.703537583351135254e+00 1.192709350585937500e+01 3.067066669464111328e+00 -3.569429874420166016e+00
1.990000000000000000e+03 7.740824127197265625e+01 1.641636848449707031e+01 -1.620255827903747559e+00 1.223461151123046875e+01 3.184306621551513672e+00 -2.126980304718017578e+00
1.991000000000000000e+03 7.548676300048828125e+01 1.746921730041503906e+01 -1.141733765602111816e+00 1.394372749328613281e+01 3.840598106384277344e+00 3.235772371292114258e+00
1.992000000000000000e+03 7.597010040283203125e+01 1.757266616821289062e+01 -1.620855927467346191e+00 1.641584968566894531e+01 4.438498020172119141e+00 1.459483981132507324e+00
1.993000000000000000e+03 7.757388305664062500e+01 2.139012527465820312e+01 -1.708393730223178864e-02 1.286896133422851562e+01 3.855563402175903320e+00 2.910695075988769531e+00
1.994000000000000000e+03 7.769439697265625000e+01 1.804613494873046875e+01 7.785727381706237793e-01 1.213530063629150391e+01 3.874161958694458008e+00 -3.123255014419555664e+00
1.995000000000000000e+03 7.248643493652343750e+01 1.708307647705078125e+01 8.393643498420715332e-01 1.701878666877746582e+00 7.623729109764099121e-01 8.418515324592590332e-01
1.996000000000000000e+03 7.259341430664062500e+01 2.247444915771484375e+01 -5.605821684002876282e-02 2.338026523590087891e+00 6.845905184745788574e-01 -1.863469719886779785e+00
1.997000000000000000e+03 7.332570648193359375e+01 1.756174087524414062e+01 1.184525966644287109e+00 2.541198492050170898e+00 1.117717266082763672e+00 1.798882842063903809e+00
1.998000000000000000e+03 7.067506408691406250e+01 1.570992374420166016e+01 2.507924735546112061e-01 7.007020711898803711e-01 2.854483723640441895e-01 -9.140916168689727783e-02
1.999000000000000000e+03 7.109989929199218750e+01 1.591732978820800781e+01 3.963958919048309326e-01 1.116956591606140137e+00 4.540057480335235596e-01 6.241857632994651794e-02
2.000000000000000000e+03 7.159285736083984375e+01 2.257623863220214844e+01 -4.106709957122802734e-01 1.497357249259948730e+00 3.260058760643005371e-01 -9.348512887954711914e-01
2.001000000000000000e+03 7.761521911621093750e+01 2.008106613159179688e+01 4.318437099456787109e+00 1.193815994262695312e+01 4.876978874206542969e+00 2.189192295074462891e+00
2.002000000000000000e+03 7.798766326904296875e+01 1.992752456665039062e+01 3.571500301361083984e+00 1.017128562927246094e+01 4.122835636138916016e+00 1.424332022666931152e+00
2.003000000000000000e+03 7.820223236083984375e+01 2.043080139160156250e+01 2.425964593887329102e+00 9.616425514221191406e+00 3.612717151641845703e+00 2.175796747207641602e+00
2.004000000000000000e+03 7.204116058349609375e+01 1.699145889282226562e+01 6.368409991264343262e-01 1.281278491020202637e+00 5.754358172416687012e-01 4.046328663825988770e-01
2.005000000000000000e+03 7.390911102294921875e+01 1.753133392333984375e+01 1.376612544059753418e+00 4.162008762359619141e+00 1.661586403846740723e+00 2.984344959259033203e+00
2.006000000000000000e+03 9.161477088928222656e+00 -3.298106908798217773e+00 1.269584298133850098e-01 -5.241969972848892212e-02 2.236162126064300537e-02 6.814878433942794800e-02
2.007000000000000000e+03 1.043433475494384766e+01 -4.117870807647705078e+00 9.304326027631759644e-02 -7.474277168512344360e-02 5.490146577358245850e-03 5.270660668611526489e-02
2.008000000000000000e+03 1.934960556030273438e+01 3.281810760498046875e+00 7.823457417543977499e-05 2.204079464718233794e-05 3.008261046488769352e-05 4.766079291584901512e-05
2.009000000000000000e+03 7.180038452148437500e+01 1.643984222412109375e+01 5.789408087730407715e-01 1.488468885421752930e+00 6.202229261398315430e-01 3.889093101024627686e-01
2.010000000000000000e+03 6.907494354248046875e+01 2.291878318786621094e+01 -1.357987284660339355e+00 8.107045888900756836e-01 -1.641847938299179077e-01 8.694406598806381226e-02
2.011000000000000000e+03 6.855763244628906250e+01 2.392012214660644531e+01 -1.018809080123901367e+00 8.558025956153869629e-01 -4.890196025371551514e-02 -1.680976003408432007e-01
2.012000000000000000e+03 1.112090396881103516e+01 -4.209539890289306641e+00 8.503862470388412476e-02 -9.012827277183532715e-02 -1.526895794086158276e-03 3.456846252083778381e-02
2.013000000000000000e+03 1.105314826965332031e+01 -5.492397785186767578e+00 -3.196100937202572823e-03 -1.287008821964263916e-01 -3.956909477710723877e-02 3.274990245699882507e-02
2.014000000000000000e+03 9.246692657470703125e+00 3.833642005920410156e+00 2.475396031513810158e-04 -2.961693098768591881e-05 6.537680019391700625e-05 2.714590118557680398e-05
2.015000000000000000e+03 7.161718845367431641e+00 3.939689874649047852e+00 1.041265059029683471e-04 -4.648588583222590387e-05 1.729218456603121012e-05 -8.362788503291085362e-05
2.016000000000000000e+03 6.979414367675781250e+01 2.130091476440429688e+01 -2.032674312591552734e+00 4.401812255382537842e-01 -4.777479171752929688e-01 4.929152727127075195e-01
2.017000000000000000e+03 1.250990772247314453e+01 -4.521417617797851562e+00 6.065576151013374329e-02 -9.707105904817581177e-02 -1.092458982020616531e-02 -1.756206341087818146e-02
2.018000000000000000e+03 7.769409656524658203e+00 3.224851131439208984e+00 1.108408687287010252e-04 -5.512891584658063948e-05 1.671358586463611573e-05 -6.968965317355468869e-05
2.019000000000000000e+03 6.482028007507324219e+00 4.008198738098144531e+00 2.082516002701595426e-04 -3.684061812236905098e-05 5.142329609952867031e-05 -7.383526826743036509e-05
2.020000000000000000e+03 5.527185916900634766e+00 5.157328605651855469e+00 1.840698823798447847e-04 1.592831904417835176e-05 5.999946370138786733e-05 -9.789621253730729222e-05
2.021000000000000000e+03 5.805786132812500000e+00 4.143370151519775391e+00 1.187006128020584583e-04 -9.943168151949066669e-06 3.262723112129606307e-05 -1.106328345485962927e-04
2.022000000000000000e+03 3.311939477920532227e+00 4.554929256439208984e+00 2.306499081896618009e-04 7.598579395562410355e-05 9.199071064358577132e-05 -8.907919254852458835e-05
2.023000000000000000e+03 1.466428661346435547e+01 -4.695125102996826172e+00 2.013877034187316895e-02 -7.789757847785949707e-02 -1.732764393091201782e-02 -1.047840416431427002e-01
2.024000000000000000e+03 1.326147365570068359e+01 -4.627923011779785156e+00 4.974444955587387085e-02 -9.498756378889083862e-02 -1.357293408364057541e-02 -4.312331974506378174e-02
2.025000000000000000e+03 4.251708030700683594e+00 -4.158560276031494141e+00 3.159334510564804077e-02 2.660450525581836700e-02 1.745935529470443726e-02 1.057172715663909912e-01
2.026000000000000000e+03 6.253351211547851562e+00 -3.160802125930786133e+00 8.442617207765579224e-02 -9.135294705629348755e-03 2.258726395666599274e-02 9.646558016538619995e-02
2.027000000000000000e+03 7.599144935607910156e+00 -3.916631698608398438e+00 7.679310441017150879e-02 -3.472560271620750427e-02 1.262024976313114166e-02 1.000205203890800476e-01
2.028000000000000000e+03 8.947650909423828125e+00 -4.672107219696044922e+00 4.793830588459968567e-02 -7.425403594970703125e-02 -7.894719019532203674e-03 8.576510101556777954e-02
2.029000000000000000e+03 8.332585334777832031e+00 -3.949352264404296875e+00 8.120585978031158447e-02 -5.038921907544136047e-02 9.244991466403007507e-03 8.994512259960174561e-02
2.030000000000000000e+03 4.369390964508056641e+00 -6.913282871246337891e+00 -2.918717078864574432e-02 4.208645969629287720e-02 3.869786625728011131e-03 1.083249300718307495e-01
2.031000000000000000e+03 5.544672489166259766e+00 -3.146298646926879883e+00 7.444798201322555542e-02 4.344093031249940395e-04 2.246471866965293884e-02 9.797282516956329346e-02
2.032000000000000000e+03 6.153474330902099609e+00 -3.816717386245727539e+00 6.416255980730056763e-02 -8.704922161996364594e-03 1.663728989660739899e-02 1.065016612410545349e-01
2.033000000000000000e+03 4.933815002441406250e+00 -3.835169792175292969e+00 4.739990457892417908e-02 1.038702111691236496e-02 1.733607798814773560e-02 1.070555821061134338e-01
2.034000000000000000e+03 6.865064620971679688e+00 -3.877966403961181641e+00 6.719879060983657837e-02 -2.127587236464023590e-02 1.377687603235244751e-02 1.037212386727333069e-01
2.035000000000000000e+03 4.833762359619140625e+01 -2.291987180709838867e+00 -1.023753523826599121e+00 1.413738131523132324e-01 -2.647139132022857666e-01 -3.891720771789550781e-01
2.036000000000000000e+03 1.399766731262207031e+01 -4.672913074493408203e+00 3.372650593519210815e-02 -9.260191768407821655e-02 -1.766262389719486237e-02 -8.273158967494964600e-02
2.037000000000000000e+03 1.304231166839599609e+01 4.521958351135253906e+00 2.804939867928624153e-04 -7.797722901159431785e-06 8.180888107744976878e-05 1.651136553846299648e-04
2.038000000000000000e+03 1.225479984283447266e+01 3.741175174713134766e+00 2.528152544982731342e-04 -2.494387263141106814e-05 6.836141255917027593e-05 1.235933596035465598e-04
2.039000000000000000e+03 1.553518009185791016e+01 -4.304178714752197266e+00 3.037820011377334595e-02 -5.138224363327026367e-02 -6.301213521510362625e-03 -1.364739090204238892e-01
2.040000000000000000e+03 1.386288642883300781e+01 3.580272674560546875e+00 2.321295760339125991e-04 -2.733740984695032239e-05 6.143765494925901294e-05 9.571043483447283506e-05
2.041000000000000000e+03 1.577931308746337891e+01 -5.321615219116210938e+00 -6.040901690721511841e-02 -8.390939235687255859e-02 -4.329552128911018372e-02 -1.803766787052154541e-01
2.042000000000000000e+03 1.591383838653564453e+01 3.237622737884521484e+00 -9.902452438836917281e-05 7.129734149202704430e-05 -8.318153959407936782e-06 1.809035529731772840e-05
2.043000000000000000e+03 1.521278095245361328e+01 2.498523712158203125e+00 -1.802980114007368684e-05 2.304194094904232770e-05 1.503641897215857171e-06 4.753358734888024628e-05
2.044000000000000000e+03 1.457969093322753906e+01 3.333827018737792969e+00 2.613152173580601811e-05 4.564506161841563880e-05 2.153297464246861637e-05 9.450185461901128292e-05
2.045000000000000000e+03 4.584085464477539062e+01 -1.462369084358215332e+00 -8.184153437614440918e-01 1.362047344446182251e-01 -2.046631872653961182e-01 -3.146890401840209961e-01
2.046000000000000000e+03 4.661901473999023438e+01 -1.591243982315063477e+00 -9.000216126441955566e-01 1.399676799774169922e-01 -2.280161827802658081e-01 -3.149859607219696045e-01
2.047000000000000000e+03 4.456674575805664062e+01 -1.851137757301330566e+00 -8.000073432922363281e-01 9.117131680250167847e-02 -2.126508057117462158e-01 -3.622458577156066895e-01
2.048000000000000000e+03 4.513655471801757812e+01 -2.003568887710571289e+00 -8.184096813201904297e-01 1.273762285709381104e-01 -2.073100358247756958e-01 -3.524984419345855713e-01
2.049000000000000000e+03 4.411382293701171875e+01 -1.901067733764648438e+00 -7.969962954521179199e-01 7.820973545312881470e-02 -2.156359553337097168e-01 -3.770891726016998291e-01
2.050000000000000000e+03 2.121370887756347656e+01 -5.673396587371826172e+00 -3.192186653614044189e-01 9.770362079143524170e-02 -6.645450741052627563e-02 -2.439660578966140747e-01
2.051000000000000000e+03 1.583647060394287109e+01 -1.005490970611572266e+01 -5.707082748413085938e-01 -3.852590620517730713e-01 -2.867901921272277832e-01 -3.107851743698120117e-01
2.052000000000000000e+03 1.337945461273193359e+01 -1.085812377929687500e+01 -5.550070405006408691e-01 -4.499085843563079834e-01 -3.014746904373168945e-01 -2.262572646141052246e-01
2.053000000000000000e+03 4.888769149780273438e+01 -2.066287040710449219e+00 -1.108464837074279785e+00 9.836554527282714844e-02 -3.030297756195068359e-01 -4.114705622196197510e-01
2.054000000000000000e+03 4.995164108276367188e+01 -2.160221099853515625e+00 -1.221046447753906250e+00 -2.340913191437721252e-02 -3.733367025852203369e-01 -4.576048552989959717e-01
2.055000000000000000e+03 2.043231773376464844e+01 -5.497970581054687500e+00 -2.677248418331146240e-01 7.805747538805007935e-02 -5.690021067857742310e-02 -2.605925798416137695e-01
2.056000000000000000e+03 1.147960758209228516e+01 3.777335882186889648e+00 1.018083421513438225e-04 -7.706875476287677884e-05 7.421875579893821850e-06 8.628040632174815983e-06
2.057000000000000000e+03 1.071450519561767578e+01 3.797865867614746094e+00 2.557756961323320866e-04 -3.111246041953563690e-05 6.739897071383893490e-05 8.591120422352105379e-05
2.058000000000000000e+03 2.311470413208007812e+01 -5.773490428924560547e+00 -4.527442157268524170e-01 1.610615700483322144e-01 -8.750478923320770264e-02 -2.094632685184478760e-01
2.059000000000000000e+03 2.503511810302734375e+01 -7.221500873565673828e+00 -6.081178188323974609e-01 2.178176641464233398e-01 -1.170900389552116394e-01 -3.099798858165740967e-01
2.060000000000000000e+03 1.723171615600585938e+01 3.316953182220458984e+00 9.621467324905097485e-05 1.991700992221012712e-05 3.483950422378256917e-05 -3.779467442655004561e-05
2.061000000000000000e+03 1.520788669586181641e+01 3.165904998779296875e+00 2.005234418902546167e-04 -2.037694321188610047e-05 5.404395051300525665e-05 9.002658771350979805e-05
2.062000000000000000e+03 1.642333030700683594e+01 3.677338600158691406e+00 -4.391884431242942810e-06 6.372979987645521760e-05 1.780137426976580173e-05 1.189027607324533165e-04
2.063000000000000000e+03 7.242611694335937500e+01 8.801660537719726562e+00 -4.500495195388793945e-01 4.511472702026367188e+00 1.218426942825317383e+00 5.562728047370910645e-01
2.064000000000000000e+03 2.350994491577148438e+01 -9.902167320251464844e+00 -3.176793456077575684e-01 1.733038872480392456e-01 -4.331263899803161621e-02 -3.536375463008880615e-01
2.065000000000000000e+03 2.137164497375488281e+01 -1.167162036895751953e+01 -2.476790398359298706e-01 1.231421902775764465e-01 -3.736105933785438538e-02 -2.006969451904296875e-01
2.066000000000000000e+03 1.888178825378417969e+01 -9.672865867614746094e+00 -4.781158864498138428e-01 2.772554196417331696e-02 -1.351170986890792847e-01 -3.596739470958709717e-01
2.067000000000000000e+03 4.614552307128906250e+01 7.171335220336914062e+00 3.239502664655447006e-03 -7.989729638211429119e-04 7.321589509956538677e-04 1.369041623547673225e-03
2.068000000000000000e+03 7.300164031982421875e+01 -1.822811317443847656e+01 5.188437700271606445e-01 5.452552795410156250e+00 1.791418910026550293e+00 8.760138750076293945e-01
2.069000000000000000e+03 7.208702087402343750e+01 -1.682857131958007812e+01 3.788397014141082764e-01 5.449274539947509766e+00 1.748434305191040039e+00 1.070595264434814453e+00
2.070000000000000000e+03 2.433405113220214844e+01 -6.175207614898681641e+00 -5.170004367828369141e-01 1.758202612400054932e-01 -1.023540645837783813e-01 -2.174526900053024292e-01
2.071000000000000000e+03 1.596562862396240234e+01 1.069567298889160156e+01 4.643926222342997789e-04 4.751552769448608160e-04 2.818643697537481785e-04 7.324051111936569214e-04
2.072000000000000000e+03 1.545352745056152344e+01 8.219405174255371094e+00 -1.375693045702064410e-05 7.248952169902622700e-05 1.761977728165220469e-05 2.348975540371611714e-04
2.073000000000000000e+03 1.871966171264648438e+01 1.808066844940185547e+00 -5.910161053179763258e-05 1.378209344693459570e-05 -1.359585530735785142e-05 2.680815214262111112e-06
2.074000000000000000e+03 3.952714538574218750e+01 -1.919117736816406250e+01 2.362181097269058228e-01 -2.569098174571990967e-01 -6.207510828971862793e-03 -5.048559904098510742e-01
2.075000000000000000e+03 3.855500793457031250e+01 -1.899853706359863281e+01 2.890310883522033691e-01 -3.808143138885498047e-01 -2.753496915102005005e-02 -4.637730121612548828e-01
2.076000000000000000e+03 1.158655357360839844e+01 -1.240449333190917969e+01 -5.910147428512573242e-01 -4.342789947986602783e-01 -3.075881302356719971e-01 -2.218488752841949463e-01
2.077000000000000000e+03 7.773288726806640625e+01 2.101286697387695312e+01 1.414089322090148926e+00 1.258301162719726562e+01 4.199130535125732422e+00 3.290861129760742188e+00
2.078000000000000000e+03 7.822370910644531250e+01 2.115817451477050781e+01 6.271052956581115723e-01 1.006692790985107422e+01 3.208209991455078125e+00 2.961693525314331055e+00
2.079000000000000000e+03 6.702295684814453125e+01 2.311459732055664062e+01 -1.815360426902770996e+00 1.026754677295684814e-01 -5.138054490089416504e-01 2.539119422435760498e-01
2.080000000000000000e+03 7.604455566406250000e+01 -3.573054122924804688e+01 -3.538092598319053650e-02 5.009726047515869141e+00 1.492303609848022461e+00 3.373070061206817627e-02
2.081000000000000000e+03 7.476134490966796875e+01 -3.402576828002929688e+01 -2.891242131590843201e-02 4.777686119079589844e+00 1.424632072448730469e+00 8.939018100500106812e-02
2.082000000000000000e+03 8.772928237915039062e+00 -1.736223602294921875e+01 -1.898772120475769043e-01 -3.039371371269226074e-01 -1.481443047523498535e-01 -3.987861275672912598e-01
2.083000000000000000e+03 7.595529174804687500e+01 3.519000530242919922e+00 -1.494767609983682632e-02 7.587647914886474609e+00 2.271810054779052734e+00 5.879745483398437500e-01
2.084000000000000000e+03 4.550431060791015625e+01 2.112136459350585938e+01 -3.061300516128540039e-01 7.619942724704742432e-02 -6.897918134927749634e-02 4.383017867803573608e-02
2.085000000000000000e+03 7.038230895996093750e+01 2.304455184936523438e+01 -7.298517227172851562e-01 1.163036704063415527e+00 1.299555003643035889e-01 -3.808440566062927246e-01
2.086000000000000000e+03 6.945086669921875000e+01 2.422164344787597656e+01 -6.422803997993469238e-01 1.205184817314147949e+00 1.688713282346725464e-01 -5.325321555137634277e-01
2.087000000000000000e+03 1.405507373809814453e+01 1.743310737609863281e+01 1.616235531400889158e-04 -2.382436068728566170e-03 -6.662437226623296738e-04 2.283313515363261104e-04
2.088000000000000000e+03 1.400285434722900391e+01 1.610596847534179688e+01 1.489757560193538666e-03 -1.507244072854518890e-03 -5.245951342658372596e-06 9.141490445472300053e-04
2.089000000000000000e+03 4.092421531677246094e+00 -9.398000717163085938e+00 -7.029367238283157349e-02 6.617572903633117676e-02 -1.235382980667054653e-03 5.929055809974670410e-02
2.090000000000000000e+03 7.804449462890625000e+01 1.588302040100097656e+01 -1.106739401817321777e+00 1.049566745758056641e+01 2.816678285598754883e+00 -2.138040304183959961e+00
2.091000000000000000e+03 3.994421243667602539e+00 9.728740692138671875e+00 3.626039324444718659e-05 1.225783489644527435e-04 4.765162520925514400e-05 -4.384608764667063951e-04
2.092000000000000000e+03 7.766651153564453125e+01 1.453497791290283203e+01 -1.055997729301452637e+00 1.060443305969238281e+01 2.864530563354492188e+00 -1.190721035003662109e+00
2.093000000000000000e+03 7.539672088623046875e+01 -2.008513832092285156e+01 3.418658673763275146e-01 5.484900474548339844e+00 1.748029947280883789e+00 4.747904241085052490e-01
2.094000000000000000e+03 7.461064147949218750e+01 -2.185299682617187500e+01 3.855021297931671143e-01 5.358042240142822266e+00 1.723063349723815918e+00 3.088337182998657227e-01
2.095000000000000000e+03 4.644060134887695312e+00 2.348907279968261719e+01 -1.056145294569432735e-03 1.287456834688782692e-04 -2.782199007924646139e-04 -2.076605305774137378e-04
2.096000000000000000e+03 7.036934661865234375e+01 -2.516340827941894531e+01 1.310455799102783203e-01 4.810910701751708984e+00 1.482586860656738281e+00 4.343461990356445312e-01
2.097000000000000000e+03 7.164874267578125000e+01 -2.505887985229492188e+01 1.798395812511444092e-01 4.987782955169677734e+00 1.550286650657653809e+00 2.654572725296020508e-01
2.098000000000000000e+03 3.614153671264648438e+01 -1.284633541107177734e+01 2.646440863609313965e-01 -1.621066778898239136e-01 3.076121769845485687e-02 -3.482503071427345276e-02
2.099000000000000000e+03 3.567086410522460938e+01 -1.533733367919921875e+01 7.578244805335998535e-01 -1.395895183086395264e-01 1.854704916477203369e-01 -1.433970928192138672e-01
2.100000000000000000e+03 7.036969757080078125e+01 -1.380193519592285156e+01 -3.848205208778381348e-01 4.778910636901855469e+00 1.318227052688598633e+00 6.547992825508117676e-01
2.101000000000000000e+03 7.576813507080078125e+01 -1.162642574310302734e+01 -1.441667228937149048e-01 6.405560970306396484e+00 1.878418207168579102e+00 7.268029451370239258e-01
2.102000000000000000e+03 4.324039840698242188e+01 -2.467422723770141602e+00 -9.372557997703552246e-01 6.028566509485244751e-02 -2.630910277366638184e-01 -3.919872939586639404e-01
2.103000000000000000e+03 1.969647026062011719e+01 -9.281241416931152344e+00 -4.051131308078765869e-01 6.173608824610710144e-02 -1.030131131410598755e-01 -3.617272973060607910e-01
2.104000000000000000e+03 4.653549957275390625e+01 1.245557117462158203e+01 -6.572056096047163010e-03 -1.058672927320003510e-02 -5.147635471075773239e-03 -4.279326531104743481e-04
2.105000000000000000e+03 1.655443954467773438e+01 -9.291979789733886719e+00 -4.138353466987609863e-01 -2.286976277828216553e-01 -1.927598863840103149e-01 -3.519591391086578369e-01
2.106000000000000000e+03 7.372694396972656250e+01 -1.535374927520751953e+01 5.361477285623550415e-02 5.677694320678710938e+00 1.719392776489257812e+00 9.992449879646301270e-01
2.107000000000000000e+03 4.450215911865234375e+01 -2.715516662597656250e+01 1.926428675651550293e-01 3.801405429840087891e-01 1.718350201845169067e-01 -1.341599076986312866e-01
2.108000000000000000e+03 4.631145095825195312e+01 -2.822100067138671875e+01 2.251955419778823853e-01 5.186383724212646484e-01 2.231501787900924683e-01 -2.067038416862487793e-01
2.109000000000000000e+03 3.867514419555664062e+01 -2.737682723999023438e+01 -4.820623621344566345e-02 -3.786034584045410156e-01 -1.280429065227508545e-01 -6.226567551493644714e-02
2.110000000000000000e+03 3.908087158203125000e+01 -2.937994575500488281e+01 9.008880704641342163e-02 -3.039807081222534180e-01 -6.416756659746170044e-02 3.596775606274604797e-02
2.111000000000000000e+03 3.974785995483398438e+01 -2.203715896606445312e+01 3.229526057839393616e-02 -2.185360044240951538e-01 -5.587222427129745483e-02 -4.161213338375091553e-01
2.112000000000000000e+03 1.418496799468994141e+01 -1.008202552795410156e+01 -4.962643682956695557e-01 -4.055916666984558105e-01 -2.705568075180053711e-01 -2.098136693239212036e-01
2.113000000000000000e+03 1.176782894134521484e+01 -9.440480232238769531e+00 -3.121662735939025879e-01 -3.068249523639678955e-01 -1.856973618268966675e-01 -6.233657151460647583e-02
2.114000000000000000e+03 1.320433235168457031e+01 1.386716270446777344e+01 1.361964852549135685e-03 -1.196597819216549397e-03 4.961010563420131803e-05 5.945045850239694118e-04
2.115000000000000000e+03 1.540294551849365234e+01 1.202717399597167969e+01 3.610782732721418142e-04 9.423957089893519878e-05 1.365953503409400582e-04 6.912203971296548843e-04
2.116000000000000000e+03 5.687775135040283203e+00 -2.139239120483398438e+01 5.275950580835342407e-02 -2.704661786556243896e-01 -6.531199812889099121e-02 -3.327444195747375488e-01
2.117000000000000000e+03 3.857427358627319336e+00 -2.067067718505859375e+01 1.841292157769203186e-02 -2.374621480703353882e-01 -6.571476906538009644e-02 -2.803305685520172119e-01
2.118000000000000000e+03 7.027822875976562500e+01 1.209689331054687500e+01 -5.045865178108215332e-01 1.680423855781555176e+00 3.527511954307556152e-01 1.137257069349288940e-01
2.119000000000000000e+03 4.613162040710449219e+00 1.909070014953613281e+01 8.829922444419935346e-05 3.323276177980005741e-04 1.261880534002557397e-04 -9.687941055744886398e-04
2.120000000000000000e+03 4.788276195526123047e+00 5.575938224792480469e+00 6.386830500559881330e-05 1.108527067117393017e-05 2.248607233923394233e-05 -2.236811415059491992e-04
2.121000000000000000e+03 5.512430953979492188e+01 2.394769668579101562e+01 -1.199177145957946777e+00 -3.295437246561050415e-02 -3.696394562721252441e-01 2.085203528404235840e-01
2.122000000000000000e+03 9.747472763061523438e+00 -1.389722728729248047e+01 -4.684383273124694824e-01 -3.354923129081726074e-01 -2.411791980266571045e-01 -2.406163215637207031e-01
2.123000000000000000e+03 8.769008636474609375e+00 -1.462970733642578125e+01 -3.701598644256591797e-01 -2.460227906703948975e-01 -1.848547905683517456e-01 -2.649383842945098877e-01
2.124000000000000000e+03 9.258052825927734375e+00 -2.255842208862304688e+01 2.214454710483551025e-01 -1.886940002441406250e-01 9.825441054999828339e-03 -3.007695376873016357e-01
2.125000000000000000e+03 6.941060638427734375e+01 -1.031963062286376953e+01 -4.737206399440765381e-01 3.608272314071655273e+00 9.403654932975769043e-01 2.260512411594390869e-01
2.126000000000000000e+03 4.415031814575195312e+01 -1.537654399871826172e+01 7.624102383852005005e-02 8.173388987779617310e-02 4.739247262477874756e-02 -1.335716694593429565e-01
2.127000000000000000e+03 1.569068717956542969e+01 6.302971839904785156e+00 -1.050128485076129436e-04 7.014379661995917559e-05 -1.046071611199295148e-05 1.012920401990413666e-04
2.128000000000000000e+03 6.348292160034179688e+01 -9.496972084045410156e+00 -9.028238058090209961e-02 1.300724130123853683e-02 -2.318254113197326660e-02 3.507058620452880859e-01
2.129000000000000000e+03 3.227427291870117188e+01 -8.440103530883789062e+00 -7.063679099082946777e-01 -1.731815189123153687e-01 -2.638648152351379395e-01 -1.905900985002517700e-01
2.130000000000000000e+03 7.369813537597656250e+01 3.249580764770507812e+01 2.839869558811187744e-01 5.393153190612792969e+00 1.703142046928405762e+00 -8.820683956146240234e-01
2.131000000000000000e+03 2.607191276550292969e+01 -1.220093154907226562e+01 9.848225861787796021e-02 1.135988309979438782e-01 6.362432986497879028e-02 -3.550373017787933350e-01
2.132000000000000000e+03 2.829690551757812500e+01 -1.119414806365966797e+01 -8.002194762229919434e-02 6.527281552553176880e-02 -4.424741491675376892e-03 -4.190719425678253174e-01
2.133000000000000000e+03 4.158906936645507812e+01 1.490012741088867188e+01 -6.809484958648681641e-02 8.502888493239879608e-03 -1.787758804857730865e-02 8.447565138339996338e-03
2.134000000000000000e+03 4.440753936767578125e+01 1.343958759307861328e+01 -3.201230615377426147e-02 -8.918369188904762268e-03 -1.227920316159725189e-02 -4.021834582090377808e-03
2.135000000000000000e+03 4.548559951782226562e+01 1.257053756713867188e+01 -1.418694481253623962e-02 -1.368924044072628021e-02 -8.362855762243270874e-03 -3.427248215302824974e-03
2.136000000000000000e+03 5.222273826599121094e+00 -1.310446357727050781e+01 -1.778328865766525269e-01 -1.802416145801544189e-02 -5.875711515545845032e-02 -1.082891300320625305e-01
2.137000000000000000e+03 3.795254516601562500e+01 -6.487953186035156250e+00 -9.830471277236938477e-01 -2.214200943708419800e-01 -3.613401651382446289e-01 -2.160111367702484131e-01
2.138000000000000000e+03 4.200237274169921875e+01 -2.342610931396484375e+01 1.412181407213211060e-01 7.909129559993743896e-02 6.609283387660980225e-02 -3.136653900146484375e-01
2.139000000000000000e+03 4.039210319519042969e+00 1.230285358428955078e+01 5.900274481973610818e-05 2.145705948350951076e-04 8.207200153265148401e-05 -6.623585941269993782e-04
2.140000000000000000e+03 6.955539703369140625e+01 -2.113602066040039062e+01 1.272442936897277832e+00 5.576973438262939453e+00 2.054825067520141602e+00 5.743130445480346680e-01
2.141000000000000000e+03 7.496804046630859375e+01 -3.032587432861328125e+01 -6.816059350967407227e-02 5.016175746917724609e+00 1.484404563903808594e+00 6.212010234594345093e-02
2.142000000000000000e+03 7.452243041992187500e+01 -8.079526901245117188e+00 -1.268236935138702393e-01 6.048143863677978516e+00 1.776396036148071289e+00 5.872613191604614258e-01
2.143000000000000000e+03 7.433816528320312500e+01 -1.671285438537597656e+01 2.195987105369567871e-01 5.688589096069335938e+00 1.772456407546997070e+00 9.116187691688537598e-01
2.144000000000000000e+03 7.576522064208984375e+01 8.025039434432983398e-01 4.448291286826133728e-02 7.237058162689208984e+00 2.184462308883666992e+00 5.815147757530212402e-01
2.145000000000000000e+03 7.495344543457031250e+01 7.591146469116210938e+00 -2.262585312128067017e-01 6.963460922241210938e+00 2.021160602569580078e+00 5.522795915603637695e-01
2.146000000000000000e+03 7.682000732421875000e+01 1.244606971740722656e+01 -6.687236428260803223e-01 9.442965507507324219e+00 2.632272481918334961e+00 -2.024386525154113770e-01
2.147000000000000000e+03 7.651027679443359375e+01 1.133793926239013672e+01 -4.709030091762542725e-01 8.858129501342773438e+00 2.516167879104614258e+00 8.113227784633636475e-02
2.148000000000000000e+03 2.552685737609863281e+01 2.839347076416015625e+01 -1.544404029846191406e-02 -4.845695197582244873e-02 -1.917029730975627899e-02 5.854563415050506592e-02
2.149000000000000000e+03 7.534606933593750000e+01 2.767641830444335938e+01 -3.559483885765075684e-01 7.029475688934326172e+00 2.002058267593383789e+00 -1.084219455718994141e+00
2.150000000000000000e+03 4.310242462158203125e+01 -1.876912117004394531e+01 1.624303162097930908e-01 1.601673811674118042e-01 9.677930921316146851e-02 -3.614679276943206787e-01
2.151000000000000000e+03 4.621933746337890625e+01 1.114899063110351562e+01 -5.100786802358925343e-04 -8.873578161001205444e-03 -2.815096871927380562e-03 2.722348785027861595e-03
2.152000000000000000e+03 5.742005920410156250e+01 -6.805226802825927734e+00 1.880358606576919556e-01 -3.714882433414459229e-01 -5.503571406006813049e-02 2.570638954639434814e-01
2.153000000000000000e+03 5.517209243774414062e+01 2.640242195129394531e+01 -6.870263218879699707e-01 -1.203509867191314697e-01 -2.422131896018981934e-01 5.705760717391967773e-01
2.154000000000000000e+03 4.353524017333984375e+01 1.217188739776611328e+01 -1.492975931614637375e-02 -8.195885457098484039e-03 -6.937693338841199875e-03 -1.360110356472432613e-03
2.155000000000000000e+03 3.861052036285400391e+00 3.380296707153320312e+01 -2.550676290411502123e-04 -2.906213281676173210e-03 -9.483842877671122551e-04 1.968793105334043503e-03
2.156000000000000000e+03 3.584671497344970703e+00 3.533780670166015625e+01 8.807318226899951696e-05 -3.204105421900749207e-03 -9.348096791654825211e-04 2.209679223597049713e-03
2.157000000000000000e+03 3.903667449951171875e+01 -7.680821418762207031e+00 -6.723310351371765137e-01 -2.231374382972717285e-01 -2.686405479907989502e-01 -1.269775480031967163e-01
2.158000000000000000e+03 3.119547653198242188e+01 -8.339879035949707031e+00 -7.708631753921508789e-01 -1.616646200418472290e-01 -2.797583341598510742e-01 -2.497812956571578979e-01
2.159000000000000000e+03 3.536598968505859375e+01 -1.433948707580566406e+01 5.822256803512573242e-01 -7.271638512611389160e-02 1.528527885675430298e-01 -1.132464855909347534e-01
2.160000000000000000e+03 7.072379302978515625e+01 -1.989361190795898438e+01 1.004022121429443359e+00 5.553267002105712891e+00 1.967186689376831055e+00 6.515214443206787109e-01
2.161000000000000000e+03 6.399350357055664062e+01 2.034010648727416992e+00 -3.799369037151336670e-01 -1.856456398963928223e-01 -1.696747541427612305e-01 -2.956729829311370850e-01
2.162000000000000000e+03 5.100879287719726562e+01 -3.811827182769775391e+00 -7.623767852783203125e-01 -1.325117200613021851e-01 -2.684665322303771973e-01 -4.847342669963836670e-01
2.163000000000000000e+03 4.980449295043945312e+01 -6.525706768035888672e+00 -2.417155206203460693e-01 -5.031542852520942688e-02 -8.760928362607955933e-02 -3.315705358982086182e-01
2.164000000000000000e+03 5.662421798706054688e+01 -2.229597568511962891e+00 -9.121357202529907227e-01 -7.062537670135498047e-01 -4.855168461799621582e-01 -2.586885690689086914e-01
2.165000000000000000e+03 5.758811950683593750e+01 -1.651864647865295410e+00 -8.724433779716491699e-01 -7.495101094245910645e-01 -4.865860342979431152e-01 -2.312696874141693115e-01
2.166000000000000000e+03 4.618547058105468750e+01 1.756081771850585938e+01 -1.544177681207656860e-01 1.247185468673706055e-02 -4.258377477526664734e-02 -3.992348536849021912e-02
2.167000000000000000e+03 4.738874435424804688e+01 1.654119873046875000e+01 -9.384754300117492676e-02 -1.107355486601591110e-02 -3.147633001208305359e-02 -4.378055036067962646e-02
2.168000000000000000e+03 5.287850189208984375e+01 -4.374325752258300781e+00 -5.984637141227722168e-01 -2.484344840049743652e-01 -2.540694773197174072e-01 -3.451956808567047119e-01
2.169000000000000000e+03 6.518017578125000000e+01 -2.890570640563964844e+01 2.006741762161254883e-01 2.231612443923950195e+00 7.296860218048095703e-01 8.793014287948608398e-01
2.170000000000000000e+03 8.354382514953613281e+00 -2.369390296936035156e+01 2.135117799043655396e-01 -2.348453849554061890e-01 -6.400079932063817978e-03 -2.735297977924346924e-01
2.171000000000000000e+03 4.228419494628906250e+01 -4.538873195648193359e+00 -9.364623427391052246e-01 -3.932545706629753113e-02 -2.927363514900207520e-01 -2.843305468559265137e-01
2.172000000000000000e+03 4.353219604492187500e+01 -3.427499294281005859e+00 -8.974537849426269531e-01 4.583868756890296936e-02 -2.554845213890075684e-01 -3.506135940551757812e-01
2.173000000000000000e+03 1.036410522460937500e+01 -2.557745933532714844e+01 2.568953335285186768e-01 -8.508952707052230835e-02 5.154174566268920898e-02 -2.039279043674468994e-01
2.174000000000000000e+03 5.141955566406250000e+01 -1.872083425521850586e+00 -1.340265870094299316e+00 -2.571479678153991699e-01 -4.792241752147674561e-01 -4.668206572532653809e-01
2.175000000000000000e+03 5.401496505737304688e+01 -4.965054988861083984e+00 -3.906408548355102539e-01 -2.701702117919921875e-01 -1.982433199882507324e-01 -1.793597191572189331e-01
2.176000000000000000e+03 6.563177490234375000e+01 -3.117487716674804688e+01 1.603833436965942383e-01 2.428011894226074219e+00 7.765185236930847168e-01 7.634270191192626953e-01
2.177000000000000000e+03 6.188591003417968750e+01 2.819651222229003906e+01 -2.085627317428588867e-01 -2.168563306331634521e-01 -1.276257187128067017e-01 3.755885064601898193e-01
2.178000000000000000e+03 6.062913894653320312e+01 2.840063285827636719e+01 -2.902319431304931641e-01 -2.533472776412963867e-01 -1.630737632513046265e-01 4.910703599452972412e-01
2.179000000000000000e+03 3.822549057006835938e+01 -3.302725601196289062e+01 3.142575919628143311e-01 -3.059116303920745850e-01 2.503790426999330521e-03 9.770101867616176605e-03
2.180000000000000000e+03 7.233148956298828125e+01 -1.581193637847900391e+01 1.148132234811782837e-01 5.491480350494384766e+00 1.681888103485107422e+00 1.005244731903076172e+00
2.181000000000000000e+03 3.276261520385742188e+01 -1.136357307434082031e+01 -4.425930976867675781e-02 3.014785796403884888e-02 -4.233436193317174911e-03 -1.848838776350021362e-01
2.182000000000000000e+03 3.450788879394531250e+01 -1.187176895141601562e+01 6.145066022872924805e-02 -5.950487405061721802e-02 5.837362841702997684e-04 -5.484844371676445007e-02
2.183000000000000000e+03 5.573670196533203125e+01 -4.657134532928466797e+00 -3.484306037425994873e-01 -4.226617217063903809e-01 -2.313276976346969604e-01 -9.242800064384937286e-03
2.184000000000000000e+03 2.715268135070800781e+01 -6.830412864685058594e+00 -7.898831367492675781e-01 1.165184676647186279e-01 -2.020093947649002075e-01 -2.178578227758407593e-01
2.185000000000000000e+03 2.773606681823730469e+01 -7.652040004730224609e+00 -7.987235784530639648e-01 1.096337884664535522e-01 -2.067269384860992432e-01 -3.351992368698120117e-01
2.186000000000000000e+03 3.518287658691406250e+01 2.100882911682128906e+01 -1.295679509639739990e-01 -1.193430274724960327e-02 -4.245067760348320007e-02 5.803249403834342957e-02
2.187000000000000000e+03 2.919269180297851562e+01 2.316337394714355469e+01 -8.693196624517440796e-02 -4.029271006584167480e-02 -3.816740214824676514e-02 6.263262778520584106e-02
2.188000000000000000e+03 1.653733444213867188e+01 1.941244506835937500e+01 -2.168016275390982628e-03 -3.733662742888554931e-05 -6.616058526560664177e-04 5.934310029260814190e-04
2.189000000000000000e+03 6.824806976318359375e+01 -9.050643920898437500e+00 -2.406959533691406250e-01 2.670329809188842773e+00 7.288901805877685547e-01 9.958156943321228027e-02
2.190000000000000000e+03 3.766099548339843750e+01 -1.656990623474121094e+01 5.661927461624145508e-01 -3.150998651981353760e-01 7.532785832881927490e-02 -3.397888839244842529e-01
2.191000000000000000e+03 3.866614532470703125e+01 -1.790421676635742188e+01 3.804903030395507812e-01 -3.333194255828857422e-01 1.415126770734786987e-02 -4.577136039733886719e-01
2.192000000000000000e+03 4.795913314819335938e+01 -2.993866348266601562e+01 2.834588289260864258e-01 4.790285527706146240e-01 2.287462055683135986e-01 -2.186440676450729370e-01
2.193000000000000000e+03 3.043236494064331055e+00 3.661906051635742188e+01 2.633116382639855146e-04 -3.500885097309947014e-03 -9.712720639072358608e-04 1.622998504899442196e-03
2.194000000000000000e+03 5.164401054382324219e+00 3.600808715820312500e+01 2.964278974104672670e-04 -5.860827397555112839e-03 -1.669319812208414078e-03 2.024575602263212204e-03
2.195000000000000000e+03 6.124400329589843750e+01 -3.432587814331054688e+01 5.569438934326171875e-01 1.109910368919372559e+00 5.000562667846679688e-01 3.430250287055969238e-01
2.196000000000000000e+03 1.575445556640625000e+01 -3.084910392761230469e+01 2.653402686119079590e-01 1.708179712295532227e-01 1.308474689722061157e-01 -1.569675952196121216e-01
2.197000000000000000e+03 7.511177825927734375e+01 -3.784546661376953125e+01 -3.995671868324279785e-03 4.791939735412597656e+00 1.436383247375488281e+00 -1.681174524128437042e-02
2.198000000000000000e+03 2.336166763305664062e+01 2.604516983032226562e+01 -3.427622839808464050e-02 -2.769563719630241394e-02 -1.859155856072902679e-02 4.740160703659057617e-02
2.199000000000000000e+03 6.777011108398437500e+01 6.118149757385253906e+00 -4.606022834777832031e-01 6.854770183563232422e-01 6.746242195367813110e-02 3.049094229936599731e-02
2.200000000000000000e+03 1.574408340454101562e+01 3.872398853302001953e+00 2.439496747683733702e-04 -1.736103695293422788e-05 6.797658716095611453e-05 1.047125842887908220e-04
2.201000000000000000e+03 2.382440757751464844e+01 -3.667673873901367188e+01 1.763613075017929077e-01 8.603338152170181274e-02 7.871840149164199829e-02 -1.403069794178009033e-01
2.202000000000000000e+03 2.504176902770996094e+01 -3.512377929687500000e+01 2.328263521194458008e-01 6.119476631283760071e-02 8.820633590221405029e-02 -1.681504845619201660e-01
2.203000000000000000e+03 7.605175018310546875e+01 2.538611602783203125e+01 -1.113854765892028809e+00 8.760867118835449219e+00 2.294103860855102539e+00 -9.191915392875671387e-01
2.204000000000000000e+03 7.440985107421875000e+01 2.308138465881347656e+01 -7.929068207740783691e-01 7.287116527557373047e+00 1.948262929916381836e+00 -3.100947380065917969e+00
2.205000000000000000e+03 4.256341934204101562e+00 -8.154507637023925781e+00 -4.637588188052177429e-02 5.279976129531860352e-02 1.927163801155984402e-03 8.849488943815231323e-02
2.206000000000000000e+03 6.574337959289550781e+00 -5.989670276641845703e+00 -8.990911766886711121e-03 -2.943655289709568024e-02 -1.152823958545923233e-02 1.157844141125679016e-01
2.207000000000000000e+03 4.005043506622314453e+00 7.235097408294677734e+00 -9.003866580314934254e-06 9.634708112571388483e-05 2.620296436361968517e-05 -2.676022704690694809e-04
2.208000000000000000e+03 2.675130653381347656e+01 -8.298306465148925781e+00 -5.705138444900512695e-01 1.451639235019683838e-01 -1.276049613952636719e-01 -3.668902814388275146e-01
2.209000000000000000e+03 2.627876853942871094e+01 -7.469071388244628906e+00 -6.899307370185852051e-01 1.970658749341964722e-01 -1.478594541549682617e-01 -3.317577242851257324e-01
2.210000000000000000e+03 6.987885284423828125e+01 -1.206865215301513672e+01 -6.567109227180480957e-01 4.194585323333740234e+00 1.061362266540527344e+00 3.825139105319976807e-01
2.211000000000000000e+03 6.229164886474609375e+01 1.446829915046691895e+00 -6.212386488914489746e-01 -5.079501867294311523e-01 -3.387566506862640381e-01 -4.999477565288543701e-01
2.212000000000000000e+03 6.168398666381835938e+01 -8.140028953552246094e+00 1.952658295631408691e-01 -1.859315335750579834e-01 2.800290239974856377e-03 4.113915264606475830e-01
2.213000000000000000e+03 6.097484207153320312e+01 -6.117007255554199219e+00 2.125758081674575806e-01 -2.984030246734619141e-01 -2.574816904962062836e-02 3.833723962306976318e-01
2.214000000000000000e+03 3.596506118774414062e+01 -6.834561347961425781e+00 -1.110440254211425781e+00 -1.780034750699996948e-01 -3.865331411361694336e-01 -1.749958246946334839e-01
2.215000000000000000e+03 6.716178131103515625e+01 -2.881350326538085938e+01 6.166249886155128479e-02 3.213685274124145508e+00 9.826043248176574707e-01 8.221619725227355957e-01
2.216000000000000000e+03 6.833350372314453125e+01 -2.654842567443847656e+01 5.348243564367294312e-02 4.006816387176513672e+00 1.218089580535888672e+00 8.704673647880554199e-01
2.217000000000000000e+03 4.072013854980468750e+00 -1.593580436706542969e+01 -9.077205508947372437e-02 -3.619478270411491394e-02 -3.809005394577980042e-02 -2.214462608098983765e-01
2.218000000000000000e+03 3.886993408203125000e+01 2.011843872070312500e+01 -1.489598602056503296e-01 2.304813265800476074e-02 -3.777351975440979004e-02 5.414633452892303467e-02
2.219000000000000000e+03 3.768340682983398438e+01 2.133629989624023438e+01 -1.443200260400772095e-01 1.252357382327318192e-02 -3.953893482685089111e-02 6.220357120037078857e-02
2.220000000000000000e+03 7.516952514648437500e+01 -2.834072113037109375e+01 -3.824306279420852661e-02 5.142589569091796875e+00 1.531304001808166504e+00 7.949906401336193085e-03
2.221000000000000000e+03 3.843118286132812500e+01 -2.267064285278320312e+01 -1.014656126499176025e-01 -4.857591390609741211e-01 -1.761674284934997559e-01 -3.635364770889282227e-01
2.222000000000000000e+03 3.818337631225585938e+01 -2.434206008911132812e+01 -1.749804764986038208e-01 -4.778826534748077393e-01 -1.958589404821395874e-01 -2.725802361965179443e-01
2.223000000000000000e+03 1.373200798034667969e+01 1.490133762359619141e+01 7.576094358228147030e-04 -1.212142058648169041e-03 -1.363597839372232556e-04 7.603946723975241184e-04
2.224000000000000000e+03 4.294155502319335938e+01 -1.968705749511718750e+01 1.765415817499160767e-01 1.954376846551895142e-01 1.115937754511833191e-01 -4.100641906261444092e-01
2.225000000000000000e+03 6.587959289550781250e+01 4.647250652313232422e+00 -4.815208017826080322e-01 -6.127212662249803543e-03 -1.462944000959396362e-01 -2.943964898586273193e-01
2.226000000000000000e+03 7.484995269775390625e+01 1.725730514526367188e+01 -6.389611959457397461e-02 9.721036911010742188e+00 2.897142410278320312e+00 3.924598217010498047e+00
2.227000000000000000e+03 7.414799499511718750e+01 1.749603080749511719e+01 1.294201850891113281e+00 5.232606410980224609e+00 1.958042502403259277e+00 3.439926624298095703e+00
2.228000000000000000e+03 7.339364624023437500e+01 2.246304321289062500e+01 2.203253842890262604e-02 3.873390197753906250e+00 1.168626785278320312e+00 -2.844888448715209961e+00
2.229000000000000000e+03 7.594558715820312500e+01 2.152767944335937500e+01 -2.100961923599243164e+00 1.635258102416992188e+01 4.275485515594482422e+00 -2.247348785400390625e+00
2.230000000000000000e+03 7.492015838623046875e+01 2.221120071411132812e+01 -1.015871047973632812e+00 9.499536514282226562e+00 2.545099496841430664e+00 -3.912817955017089844e+00
2.231000000000000000e+03 7.729563140869140625e+01 1.763560676574707031e+01 -5.858290791511535645e-01 1.408243179321289062e+01 4.048980712890625000e+00 -3.245688199996948242e+00
2.232000000000000000e+03 7.686267852783203125e+01 1.729455757141113281e+01 -1.582873821258544922e+00 1.526533794403076172e+01 4.104739189147949219e+00 -1.919658303260803223e+00
2.233000000000000000e+03 7.674374389648437500e+01 1.771584320068359375e+01 -8.028377294540405273e-01 1.672336959838867188e+01 4.776159286499023438e+00 -2.017142534255981445e+00
2.234000000000000000e+03 7.606005859375000000e+01 2.189294052124023438e+01 -2.339700222015380859e+00 1.503230381011962891e+01 3.807780981063842773e+00 -1.597213268280029297e+00
2.235000000000000000e+03 7.703779602050781250e+01 2.159437942504882812e+01 -1.143277525901794434e+00 1.492144489288330078e+01 4.133450031280517578e+00 1.978116989135742188e+00
2.236000000000000000e+03 7.792350769042968750e+01 2.169102096557617188e+01 -6.097497940063476562e-01 1.125607013702392578e+01 3.193896055221557617e+00 2.893210411071777344e+00
2.237000000000000000e+03 7.747067260742187500e+01 2.176705932617187500e+01 -1.065796256065368652e+00 1.300455188751220703e+01 3.581626653671264648e+00 2.518962621688842773e+00
2.238000000000000000e+03 7.383846282958984375e+01 2.178774452209472656e+01 3.666124343872070312e-01 4.136989116668701172e+00 1.351080417633056641e+00 -3.641638040542602539e+00
2.239000000000000000e+03 7.330384063720703125e+01 2.159493446350097656e+01 1.037515774369239807e-01 2.352136850357055664e+00 7.367665171623229980e-01 -2.495604991912841797e+00
2.240000000000000000e+03 7.214907836914062500e+01 1.661810684204101562e+01 7.148346900939941406e-01 1.673203945159912109e+00 7.164115905761718750e-01 6.434933543205261230e-01
2.241000000000000000e+03 7.143518829345703125e+01 1.553075218200683594e+01 3.242358267307281494e-01 1.613940358161926270e+00 5.814528465270996094e-01 2.660730183124542236e-01
2.242000000000000000e+03 7.774755096435546875e+01 1.758039855957031250e+01 -4.058021605014801025e-01 1.211075496673583984e+01 3.511485815048217773e+00 -3.125559091567993164e+00
2.243000000000000000e+03 9.051753997802734375e+00 -3.992377758026123047e+00 8.955343067646026611e-02 -6.077695637941360474e-02 8.632943034172058105e-03 8.051414787769317627e-02
2.244000000000000000e+03 7.880935668945312500e+01 2.006725120544433594e+01 1.481481313705444336e+00 6.120497703552246094e+00 2.280593633651733398e+00 9.208134412765502930e-01
2.245000000000000000e+03 7.143930816650390625e+01 1.620131683349609375e+01 4.764502942562103271e-01 1.247813820838928223e+00 5.172792077064514160e-01 2.076678425073623657e-01
2.246000000000000000e+03 7.773226165771484375e+01 1.700256729125976562e+01 -7.443656325340270996e-01 1.229046821594238281e+01 3.463830709457397461e+00 -2.957347869873046875e+00
2.247000000000000000e+03 7.800239562988281250e+01 2.240959358215332031e+01 -9.866987466812133789e-01 1.076691627502441406e+01 2.934065341949462891e+00 2.488909482955932617e+00
2.248000000000000000e+03 1.099085617065429688e+01 -4.864550590515136719e+00 4.702501371502876282e-02 -9.778122603893280029e-02 -1.522686425596475601e-02 4.216215014457702637e-02
2.249000000000000000e+03 7.692587280273437500e+01 1.429305267333984375e+01 -1.222115516662597656e+00 1.035182857513427734e+01 2.738913774490356445e+00 -6.307170987129211426e-01
2.250000000000000000e+03 7.737068176269531250e+01 1.533384609222412109e+01 -1.414970636367797852e+00 1.115833950042724609e+01 2.923010826110839844e+00 -1.366665720939636230e+00
2.251000000000000000e+03 1.158738899230957031e+01 -5.068996429443359375e+00 2.234353497624397278e-02 -1.271993964910507202e-01 -3.145675733685493469e-02 1.569773256778717041e-02
2.252000000000000000e+03 7.626123809814453125e+01 1.418967819213867188e+01 -1.265910267829895020e+00 9.840412139892578125e+00 2.572350502014160156e+00 -1.129440143704414368e-01
2.253000000000000000e+03 9.245265960693359375e+00 4.477355957031250000e+00 1.589101157151162624e-04 -1.374589628539979458e-04 6.435343493649270386e-06 -5.912718188483268023e-05
2.254000000000000000e+03 7.922905921936035156e+00 4.530954360961914062e+00 1.613387430552393198e-04 -1.192237032228149474e-04 1.263451395061565563e-05 -6.905264308443292975e-05
2.255000000000000000e+03 6.092595577239990234e+00 4.808421611785888672e+00 1.534820767119526863e-04 -7.536208431702107191e-05 2.343599589949008077e-05 -1.279859279748052359e-04
2.256000000000000000e+03 7.690961456298828125e+01 2.209870147705078125e+01 -2.009668588638305664e+00 1.404814338684082031e+01 3.611542463302612305e+00 1.099944949150085449e+00
2.257000000000000000e+03 5.584552764892578125e+00 6.419221878051757812e+00 2.882260596379637718e-04 -1.048869035003008321e-05 8.332121069543063641e-05 -1.352406252408400178e-04
2.258000000000000000e+03 7.699687194824218750e+01 1.686402511596679688e+01 -1.497411131858825684e+00 1.355689525604248047e+01 3.617845296859741211e+00 -1.742402434349060059e+00
2.259000000000000000e+03 7.603746032714843750e+01 1.725838088989257812e+01 -1.794596672058105469e+00 1.523609352111816406e+01 4.032448768615722656e+00 1.123147010803222656e+00
2.260000000000000000e+03 7.842251777648925781e+00 3.887700796127319336e+00 2.331582072656601667e-04 -2.901767220464535058e-05 6.124216452008113265e-05 -4.573222395265474916e-05
2.261000000000000000e+03 7.278622150421142578e+00 4.616666793823242188e+00 2.676775038708001375e-04 -4.895028905593790114e-05 6.561816553585231304e-05 -1.107189600588753819e-04
2.262000000000000000e+03 8.573218345642089844e+00 4.481731414794921875e+00 2.648946247063577175e-04 -3.407900294405408204e-05 6.924468470970168710e-05 -9.644368219596799463e-06
2.263000000000000000e+03 5.108103275299072266e+00 4.362693309783935547e+00 1.247435720870271325e-04 1.499225527368253097e-05 4.192074629827402532e-05 -1.237248070538043976e-04
2.264000000000000000e+03 1.222043514251708984e+01 4.539200305938720703e+00 9.765457798494026065e-05 -9.315252827946096659e-05 1.350614638795377687e-06 3.559624747140333056e-05
2.265000000000000000e+03 7.090765380859375000e+01 2.401983451843261719e+01 -2.983676791191101074e-01 1.870056152343750000e+00 4.715065360069274902e-01 -9.268252253532409668e-01
2.266000000000000000e+03 7.205686950683593750e+01 2.395165634155273438e+01 -1.590543389320373535e-01 2.889938831329345703e+00 8.192653656005859375e-01 -1.641339063644409180e+00
2.267000000000000000e+03 7.494842052459716797e+00 -4.595731258392333984e+00 4.289101064205169678e-02 -3.950169682502746582e-02 1.016793888993561268e-03 1.046365201473236084e-01
2.268000000000000000e+03 5.982899188995361328e+00 -4.476043701171875000e+00 3.781357035040855408e-02 -5.802821367979049683e-03 9.603224694728851318e-03 1.128464043140411377e-01
2.269000000000000000e+03 6.620729923248291016e+00 -5.260694026947021484e+00 1.327302493155002594e-02 -2.447139844298362732e-02 -3.359511960297822952e-03 1.132064610719680786e-01
2.270000000000000000e+03 7.664117431640625000e+01 2.258596038818359375e+01 -2.229568004608154297e+00 1.313142681121826172e+01 3.270557403564453125e+00 1.134979724884033203e-01
2.271000000000000000e+03 7.608270263671875000e+01 2.450931167602539062e+01 -1.470683693885803223e+00 9.480179786682128906e+00 2.402848958969116211e+00 -9.333386421203613281e-01
2.272000000000000000e+03 7.694944763183593750e+01 1.343150615692138672e+01 -9.310374855995178223e-01 9.888466835021972656e+00 2.687228679656982422e+00 -4.539773464202880859e-01
2.273000000000000000e+03 7.565612792968750000e+01 1.169543933868408203e+01 -6.530051231384277344e-01 8.149895668029785156e+00 2.249067068099975586e+00 2.053577154874801636e-01
2.274000000000000000e+03 5.311771869659423828e+00 -4.270580291748046875e+00 4.231692850589752197e-02 5.085983779281377792e-03 1.422087382525205612e-02 1.107854321599006653e-01
2.275000000000000000e+03 4.836210250854492188e+00 -4.854618549346923828e+00 2.030051685869693756e-02 1.963439770042896271e-02 1.198047399520874023e-02 1.146811619400978088e-01
2.276000000000000000e+03 2.305651283264160156e+01 -6.738366603851318359e+00 -4.455992579460144043e-01 1.730012148618698120e-01 -8.177941292524337769e-02 -2.675544023513793945e-01
2.277000000000000000e+03 1.672843170166015625e+01 5.330058574676513672e+00 -1.535245828563347459e-04 1.252769579878076911e-04 -8.474290552840102464e-06 9.723245602799579501e-05
2.278000000000000000e+03 1.502657318115234375e+01 3.778190374374389648e+00 -7.085555989760905504e-05 4.105536936549469829e-05 -8.940057341533247381e-06 8.568499652028549463e-06
2.279000000000000000e+03 8.232653617858886719e+00 -4.619631290435791016e+00 4.920333251357078552e-02 -5.565712973475456238e-02 -1.936139538884162903e-03 9.974098205566406250e-02
2.280000000000000000e+03 1.318789482116699219e+01 -5.397689342498779297e+00 -1.583948172628879547e-02 -1.360994428396224976e-01 -4.558167606592178345e-02 -5.717718973755836487e-02
2.281000000000000000e+03 2.070666503906250000e+01 -7.379054546356201172e+00 -3.845843374729156494e-01 1.020231395959854126e-01 -8.476835489273071289e-02 -3.238376080989837646e-01
2.282000000000000000e+03 9.969079971313476562e+00 3.813505887985229492e+00 1.339214941253885627e-04 -1.018808470689691603e-04 9.612193935026880354e-06 -3.404595918254926801e-05
2.283000000000000000e+03 1.400147151947021484e+01 -5.374258518218994141e+00 -2.653033472597599030e-02 -1.206594705581665039e-01 -4.415693879127502441e-02 -8.906560391187667847e-02
2.284000000000000000e+03 1.571416473388671875e+01 -8.594663619995117188e+00 -3.436270356178283691e-01 -2.920154333114624023e-01 -1.906927376985549927e-01 -2.715190351009368896e-01
2.285000000000000000e+03 1.718349647521972656e+01 -5.560937881469726562e+00 -1.271730810403823853e-01 -4.377833008766174316e-02 -5.128542333841323853e-02 -2.411952167749404907e-01
2.286000000000000000e+03 2.582131385803222656e+01 -6.796855449676513672e+00 -6.879104971885681152e-01 1.887709945440292358e-01 -1.497418433427810669e-01 -2.134888470172882080e-01
2.287000000000000000e+03 2.401453018188476562e+01 -5.575603485107421875e+00 -5.046821832656860352e-01 1.743642389774322510e-01 -9.909538179636001587e-02 -1.421594470739364624e-01
2.288000000000000000e+03 5.587880611419677734e+00 -5.971768379211425781e+00 -1.006299909204244614e-02 6.962113548070192337e-04 -2.810036297887563705e-03 1.170370578765869141e-01
2.289000000000000000e+03 4.647358703613281250e+01 -3.421273231506347656e+00 -8.742157816886901855e-01 1.353935301303863525e-01 -2.216466814279556274e-01 -3.941433727741241455e-01
2.290000000000000000e+03 4.910876464843750000e+01 -4.282590389251708984e+00 -7.152701616287231445e-01 -7.831179536879062653e-03 -2.169304043054580688e-01 -4.762967526912689209e-01
2.291000000000000000e+03 4.497611236572265625e+01 -2.592615127563476562e+00 -8.799046277999877930e-01 1.287764310836791992e-01 -2.253384590148925781e-01 -3.704569935798645020e-01
2.292000000000000000e+03 5.116400146484375000e+01 -2.763241052627563477e+00 -1.064815759658813477e+00 -1.940682530403137207e-01 -3.776651918888092041e-01 -4.777307212352752686e-01
2.293000000000000000e+03 4.563072204589843750e+01 -2.961058139801025391e+00 -8.493779897689819336e-01 1.377911418676376343e-01 -2.134760469198226929e-01 -3.583670556545257568e-01
2.294000000000000000e+03 6.682162761688232422e+00 8.403017997741699219e+00 1.969775039469823241e-04 -2.150631771655753255e-04 -5.425700237537967041e-06 -3.261680540163069963e-04
2.295000000000000000e+03 1.067273902893066406e+01 4.515046596527099609e+00 1.491324219387024641e-04 -1.360379974357783794e-04 3.928329078917158768e-06 -9.508728908258490264e-06
2.296000000000000000e+03 6.896798706054687500e+01 2.472504806518554688e+01 -5.522008538246154785e-01 1.228331685066223145e+00 2.028392702341079712e-01 -4.761252701282501221e-01
2.297000000000000000e+03 1.678766059875488281e+01 -6.678827285766601562e+00 -2.031690627336502075e-01 -9.776847809553146362e-02 -9.028126299381256104e-02 -2.767887413501739502e-01
2.298000000000000000e+03 2.399006271362304688e+01 -6.795936584472656250e+00 -5.557062625885009766e-01 2.104999572038650513e-01 -1.035619005560874939e-01 -2.685950696468353271e-01
2.299000000000000000e+03 9.943776130676269531e+00 4.490684032440185547e+00 2.884319983422756195e-04 -4.378487574285827577e-05 7.339413423324003816e-05 5.901800614083185792e-05
2.300000000000000000e+03 1.975722122192382812e+01 -5.485208034515380859e+00 -2.353868484497070312e-01 4.305671900510787964e-02 -5.769903957843780518e-02 -2.654901742935180664e-01
2.301000000000000000e+03 2.007694435119628906e+01 -6.099803447723388672e+00 -2.870259582996368408e-01 6.316559761762619019e-02 -6.715811043977737427e-02 -2.863494455814361572e-01
2.302000000000000000e+03 4.247378540039062500e+01 -6.823254585266113281e+00 -6.701523065567016602e-01 -7.945439964532852173e-02 -2.248820215463638306e-01 -1.561924517154693604e-01
2.303000000000000000e+03 4.371202850341796875e+01 -6.641126632690429688e+00 -6.416910290718078613e-01 -5.281059537082910538e-03 -1.940916180610656738e-01 -1.926797777414321899e-01
2.304000000000000000e+03 6.969545745849609375e+01 2.366739463806152344e+01 -7.769353985786437988e-01 1.134875297546386719e+00 1.073819771409034729e-01 -3.823139071464538574e-01
2.305000000000000000e+03 4.925103378295898438e+01 -2.516314983367919922e+00 -1.052873492240905762e+00 5.368683487176895142e-02 -2.997559905052185059e-01 -4.549390971660614014e-01
2.306000000000000000e+03 1.856935882568359375e+01 -7.574127197265625000e+00 -3.356437087059020996e-01 -2.581279957666993141e-03 -1.014674976468086243e-01 -3.290925920009613037e-01
2.307000000000000000e+03 2.538196563720703125e+01 -6.250297546386718750e+00 -6.114560961723327637e-01 1.838278472423553467e-01 -1.282884627580642700e-01 -2.301890105009078979e-01
2.308000000000000000e+03 8.158033370971679688e+00 -1.370304679870605469e+01 -3.582965135574340820e-01 -1.837024539709091187e-01 -1.625996828079223633e-01 -1.867229640483856201e-01
2.309000000000000000e+03 7.733574867248535156e+00 -1.530925464630126953e+01 -3.007945418357849121e-01 -1.897165328264236450e-01 -1.471533179283142090e-01 -2.861480116844177246e-01
2.310000000000000000e+03 5.215192794799804688e+01 -2.071333169937133789e+00 -1.335984230041503906e+00 -3.145593404769897461e-01 -4.951630830764770508e-01 -4.150375723838806152e-01
2.311000000000000000e+03 5.822441101074218750e+01 -2.764961719512939453e+00 -5.312538146972656250e-01 -6.198723316192626953e-01 -3.453378379344940186e-01 -3.611933439970016479e-02
2.312000000000000000e+03 5.915766906738281250e+01 -2.333256721496582031e+00 -4.596388339996337891e-01 -6.076548695564270020e-01 -3.201881051063537598e-01 -2.406901866197586060e-02
2.313000000000000000e+03 7.131866455078125000e+01 -9.784243583679199219e+00 -3.820137977600097656e-01 4.549397468566894531e+00 1.250215172767639160e+00 4.802618920803070068e-01
2.314000000000000000e+03 2.371358489990234375e+01 -8.018213272094726562e+00 -4.520047008991241455e-01 2.007376104593276978e-01 -7.538012415170669556e-02 -3.477979898452758789e-01
2.315000000000000000e+03 1.846293640136718750e+01 3.871922254562377930e+00 6.151605339255183935e-05 2.321923420822713524e-05 2.542058609833475202e-05 -7.335377449635416269e-05
2.316000000000000000e+03 5.726494216918945312e+01 -3.180988073348999023e+00 -5.391328930854797363e-01 -6.199879646301269531e-01 -3.477362394332885742e-01 -8.591611403971910477e-04
2.317000000000000000e+03 7.032942199707031250e+01 1.409275722503662109e+01 -1.571829915046691895e-01 1.004804730415344238e+00 2.542864978313446045e-01 -9.414792805910110474e-02
2.318000000000000000e+03 7.128745269775390625e+01 1.435975360870361328e+01 -6.245442852377891541e-02 2.074073076248168945e+00 6.034856438636779785e-01 2.674048244953155518e-01
2.319000000000000000e+03 7.111225891113281250e+01 1.312739658355712891e+01 -3.314861953258514404e-01 2.328076601028442383e+00 5.989771485328674316e-01 2.806455492973327637e-01
2.320000000000000000e+03 6.944377899169921875e+01 1.457574558258056641e+01 -9.766057133674621582e-02 -1.308614015579223633e-01 -6.855659186840057373e-02 -2.876787483692169189e-01
2.321000000000000000e+03 7.019300842285156250e+01 1.317564582824707031e+01 -4.574081003665924072e-01 1.216150999069213867e+00 2.276228666305541992e-01 -5.908850207924842834e-02
2.322000000000000000e+03 2.837819671630859375e+01 -8.629442214965820312e+00 -5.965580344200134277e-01 3.936785459518432617e-02 -1.671570539474487305e-01 -3.952485620975494385e-01
2.323000000000000000e+03 7.513775634765625000e+01 2.525429534912109375e+01 -1.027297616004943848e+00 7.926253795623779297e+00 2.069686889648437500e+00 -1.497640848159790039e+00
2.324000000000000000e+03 1.824732971191406250e+01 2.425519704818725586e+00 1.360200549243018031e-04 -4.402930699143325910e-06 3.948513767682015896e-05 1.028981841955101117e-05
2.325000000000000000e+03 1.881420135498046875e+01 2.760836124420166016e+00 -4.065092070959508419e-05 3.120431574643589556e-05 -2.833981397998286411e-06 1.199012785946251824e-05
2.326000000000000000e+03 6.660797882080078125e+01 3.892863988876342773e+00 -2.729288041591644287e-01 5.436856746673583984e-01 8.122705668210983276e-02 -2.563955076038837433e-02
2.327000000000000000e+03 6.831185913085937500e+01 2.537387466430664062e+01 -5.496760010719299316e-01 1.050680398941040039e+00 1.503013223409652710e-01 -4.128957390785217285e-01
2.328000000000000000e+03 6.658219146728515625e+01 2.505787277221679688e+01 -9.956805706024169922e-01 1.903691738843917847e-01 -2.415934205055236816e-01 -4.111578315496444702e-02
2.329000000000000000e+03 5.509720230102539062e+01 -5.677986145019531250e+00 -1.113983467221260071e-01 -2.907752990722656250e-01 -1.206520944833755493e-01 -1.748878322541713715e-02
2.330000000000000000e+03 7.201422882080078125e+01 -1.324094772338867188e+01 -3.215219676494598389e-01 5.267563343048095703e+00 1.483812451362609863e+00 8.658748865127563477e-01
2.331000000000000000e+03 7.519460296630859375e+01 2.889731407165527344e+01 -1.248728930950164795e-01 6.657207965850830078e+00 1.959700465202331543e+00 -1.049825310707092285e+00
2.332000000000000000e+03 6.338662338256835938e+01 3.573526382446289062e+00 -7.289006710052490234e-01 -6.798490881919860840e-01 -4.226249158382415771e-01 -7.011278271675109863e-01
2.333000000000000000e+03 6.562961578369140625e+01 2.422656297683715820e+00 -2.199035733938217163e-01 3.312785327434539795e-01 3.341248631477355957e-02 -5.976574495434761047e-02
2.334000000000000000e+03 1.434384822845458984e+01 8.104109764099121094e+00 4.089092253707349300e-04 9.189917182084172964e-05 1.502425147918984294e-04 4.227761237416416407e-04
2.335000000000000000e+03 1.651552963256835938e+01 -7.932292938232421875e+00 -2.838203012943267822e-01 -1.699877381324768066e-01 -1.361424177885055542e-01 -3.120488524436950684e-01
2.336000000000000000e+03 4.116688156127929688e+01 -1.714097976684570312e+01 2.737240195274353027e-01 -1.478288769721984863e-01 3.776854649186134338e-02 -3.663668930530548096e-01
2.337000000000000000e+03 4.201830673217773438e+01 -1.851664161682128906e+01 2.041867524385452271e-01 4.390670452266931534e-03 6.257322430610656738e-02 -4.084218442440032959e-01
2.338000000000000000e+03 4.060562515258789062e+01 -1.946687507629394531e+01 2.217993289232254028e-01 -1.526686996221542358e-01 2.073918841779232025e-02 -4.670535624027252197e-01
2.339000000000000000e+03 4.167068099975585938e+01 -2.066481018066406250e+01 1.863326281309127808e-01 2.010465972125530243e-02 6.193118542432785034e-02 -4.443030059337615967e-01
2.340000000000000000e+03 5.558310031890869141e+00 -1.719893836975097656e+01 -1.099504008889198303e-01 -1.323156058788299561e-01 -7.267980277538299561e-02 -3.048040270805358887e-01
2.341000000000000000e+03 6.950982570648193359e+00 -1.825556755065917969e+01 -8.995468914508819580e-02 -2.240452915430068970e-01 -9.419999271631240845e-02 -3.801758587360382080e-01
2.342000000000000000e+03 4.231008148193359375e+01 -5.609520912170410156e+00 -8.341411352157592773e-01 -4.565227404236793518e-02 -2.639380395412445068e-01 -2.026066780090332031e-01
2.343000000000000000e+03 4.415154647827148438e+01 -2.642862319946289062e+00 -9.095149040222167969e-01 1.113405004143714905e-01 -2.394523173570632935e-01 -3.698108792304992676e-01
2.344000000000000000e+03 4.510844802856445312e+01 1.160854530334472656e+01 -3.633653046563267708e-03 -1.069374289363622665e-02 -4.298218991607427597e-03 -2.967053442262113094e-04
2.345000000000000000e+03 4.458584213256835938e+01 1.246458816528320312e+01 -1.724115014076232910e-02 -1.001916918903589249e-02 -8.178096264600753784e-03 -4.747670609503984451e-03
2.346000000000000000e+03 6.384016418457031250e+01 -8.533782005310058594e+00 1.577526926994323730e-01 1.545537859201431274e-01 9.369194507598876953e-02 3.546356260776519775e-01
2.347000000000000000e+03 1.454697227478027344e+01 7.186541557312011719e+00 3.855662725982256234e-05 -4.507151970756240189e-05 -1.954467052200925536e-06 1.663804287090897560e-04
2.348000000000000000e+03 1.571920108795166016e+01 5.419788837432861328e+00 2.715578302741050720e-04 6.639068305958062410e-05 1.013845467241480947e-04 1.860711927292868495e-04
2.349000000000000000e+03 5.093567276000976562e+01 -4.910951614379882812e+00 -5.510514378547668457e-01 -1.097929850220680237e-01 -1.982533186674118042e-01 -4.498375654220581055e-01
2.350000000000000000e+03 4.983861160278320312e+01 -5.084671497344970703e+00 -5.609862208366394043e-01 -4.202766343951225281e-02 -1.809041649103164673e-01 -4.515849053859710693e-01
2.351000000000000000e+03 7.602766418457031250e+01 4.862192153930664062e+00 -4.621416702866554260e-02 7.754337787628173828e+00 2.312437057495117188e+00 5.733534693717956543e-01
2.352000000000000000e+03 1.810540008544921875e+01 -9.110961914062500000e+00 -4.234658181667327881e-01 -5.909031629562377930e-02 -1.447668373584747314e-01 -3.588362932205200195e-01
2.353000000000000000e+03 1.724771118164062500e+01 -8.572471618652343750e+00 -3.868818283081054688e-01 -1.329880356788635254e-01 -1.559609621763229370e-01 -3.414310216903686523e-01
2.354000000000000000e+03 1.304531002044677734e+01 3.682893514633178711e+00 3.363970245118252933e-05 -1.896836874948348850e-05 4.401400019560242072e-06 4.392172922962345183e-05
2.355000000000000000e+03 1.332519054412841797e+01 -9.377330780029296875e+00 -3.480122685432434082e-01 -3.586975038051605225e-01 -2.120129317045211792e-01 -1.400743871927261353e-01
2.356000000000000000e+03 7.298582077026367188e+00 -2.094101142883300781e+01 7.915388792753219604e-02 -2.632900178432464600e-01 -5.524083971977233887e-02 -3.706683814525604248e-01
2.357000000000000000e+03 8.255155563354492188e+00 -2.174575805664062500e+01 1.465976238250732422e-01 -2.656287848949432373e-01 -3.570934757590293884e-02 -3.482449054718017578e-01
2.358000000000000000e+03 1.169639778137207031e+01 -1.085358428955078125e+01 -4.502528011798858643e-01 -3.637598454952239990e-01 -2.442037910223007202e-01 -1.198875010013580322e-01
2.359000000000000000e+03 4.093501091003417969e+00 -1.332588481903076172e+01 -1.129390597343444824e-01 3.407502546906471252e-02 -2.365921251475811005e-02 -1.018019020557403564e-01
2.360000000000000000e+03 6.080581665039062500e+00 -1.181390857696533203e+01 -2.019202560186386108e-01 -4.369563236832618713e-02 -7.368476688861846924e-02 -4.616789892315864563e-02
2.361000000000000000e+03 7.223602294921875000e+01 1.006467056274414062e+01 -5.473408699035644531e-01 4.239090442657470703e+00 1.107524871826171875e+00 4.698049426078796387e-01
2.362000000000000000e+03 1.662159729003906250e+01 4.472293853759765625e+00 1.879257615655660629e-04 2.899705395975615829e-05 6.507684156531468034e-05 3.788745380006730556e-05
2.363000000000000000e+03 2.166353988647460938e+01 -1.069175815582275391e+01 -3.520963490009307861e-01 1.396556645631790161e-01 -6.373220682144165039e-02 -2.813393771648406982e-01
2.364000000000000000e+03 2.079316902160644531e+01 -9.312609672546386719e+00 -4.329155087471008301e-01 1.307528764009475708e-01 -9.064879268407821655e-02 -3.383734524250030518e-01
2.365000000000000000e+03 7.048277282714843750e+01 -2.661530113220214844e+01 1.024989690631628036e-02 4.547158241271972656e+00 1.367222428321838379e+00 4.590927064418792725e-01
2.366000000000000000e+03 7.351892852783203125e+01 -2.112361907958984375e+01 5.871247649192810059e-01 5.275864124298095703e+00 1.758896708488464355e+00 4.672736525535583496e-01
2.367000000000000000e+03 7.361660003662109375e+01 -8.845789909362792969e+00 -2.045365124940872192e-01 5.570432662963867188e+00 1.609768867492675781e+00 6.355845332145690918e-01
2.368000000000000000e+03 4.892476654052734375e+01 -7.284040451049804688e+00 -2.199004739522933960e-01 -4.007713124155998230e-02 -7.799328118562698364e-02 -2.802715897560119629e-01
2.369000000000000000e+03 2.786112594604492188e+01 -1.025804805755615234e+01 -2.599781751632690430e-01 8.990598469972610474e-02 -5.102166160941123962e-02 -4.153624475002288818e-01
2.370000000000000000e+03 9.046772003173828125e+00 -1.298632144927978516e+01 -3.967894315719604492e-01 -2.291265130043029785e-01 -1.877747774124145508e-01 -1.568146497011184692e-01
2.371000000000000000e+03 5.406475067138671875e+01 -2.839445114135742188e+00 -1.044383525848388672e+00 -5.037167072296142578e-01 -4.644300639629364014e-01 -3.183600008487701416e-01
2.372000000000000000e+03 4.856654644012451172e+00 2.058707427978515625e+01 -6.516501889564096928e-04 8.196594717446714640e-05 -1.709052739897742867e-04 -7.910716813057661057e-04
2.373000000000000000e+03 5.835065364837646484e+00 2.376362609863281250e+01 -9.891579393297433853e-04 -1.092251273803412914e-03 -6.244227988645434380e-04 3.254418843425810337e-04
2.374000000000000000e+03 4.319644927978515625e+01 -1.382621288299560547e+01 6.910709291696548462e-02 -6.419821083545684814e-02 1.472664880566298962e-03 -1.148222759366035461e-01
2.375000000000000000e+03 5.023497581481933594e+00 -2.313958358764648438e+01 8.754707872867584229e-02 -3.263109326362609863e-01 -7.162915915250778198e-02 -2.696642577648162842e-01
2.376000000000000000e+03 5.929041290283203125e+01 -6.259163856506347656e+00 1.722951978445053101e-01 -4.223172962665557861e-01 -7.500662654638290405e-02 3.414873480796813965e-01
2.377000000000000000e+03 3.800305175781250000e+01 -7.604863166809082031e+00 -7.766019701957702637e-01 -2.130439728498458862e-01 -2.968937754631042480e-01 -1.181508973240852356e-01
2.378000000000000000e+03 5.571260929107666016e+00 3.229481506347656250e+01 -4.234717052895575762e-04 -5.369280930608510971e-03 -1.737825688906013966e-03 2.945385873317718506e-03
2.379000000000000000e+03 4.873921966552734375e+01 -8.913743972778320312e+00 -8.225842565298080444e-02 4.264650400727987289e-03 -2.339813299477100372e-02 -6.714781373739242554e-02
2.380000000000000000e+03 7.506597137451171875e+01 -1.509354209899902344e+01 4.000861942768096924e-02 5.891967296600341797e+00 1.779592752456665039e+00 9.112815856933593750e-01
2.381000000000000000e+03 1.573109054565429688e+01 4.591111660003662109e+00 -9.275484626414254308e-05 7.593542250106111169e-05 -5.045825673732906580e-06 7.173376070568338037e-05
2.382000000000000000e+03 7.297114562988281250e+01 -2.520121574401855469e+01 1.593532860279083252e-01 5.109138488769531250e+00 1.580547451972961426e+00 1.211666986346244812e-01
2.383000000000000000e+03 3.611446762084960938e+01 -7.697831153869628906e+00 -8.895398378372192383e-01 -1.970698237419128418e-01 -3.259828984737396240e-01 -1.393075138330459595e-01
2.384000000000000000e+03 3.707980346679687500e+01 -8.671029090881347656e+00 -5.963024497032165527e-01 -2.003642618656158447e-01 -2.390000075101852417e-01 -8.295792341232299805e-02
2.385000000000000000e+03 3.212152099609375000e+01 -9.489658355712890625e+00 -5.137180685997009277e-01 -8.603027462959289551e-02 -1.799245029687881470e-01 -1.965341269969940186e-01
2.386000000000000000e+03 3.451110458374023438e+01 -9.566298484802246094e+00 -4.592766165733337402e-01 -1.448950022459030151e-01 -1.812514811754226685e-01 -6.680683791637420654e-02
2.387000000000000000e+03 4.898231506347656250e+01 -5.761179447174072266e+00 -4.688420295715332031e-01 -3.256587311625480652e-02 -1.504223793745040894e-01 -4.153788983821868896e-01
2.388000000000000000e+03 7.339347839355468750e+01 -1.625631713867187500e+01 2.365428209304809570e-01 5.556211471557617188e+00 1.737826228141784668e+00 1.022714495658874512e+00
2.389000000000000000e+03 7.471807861328125000e+01 -1.594525241851806641e+01 1.517668813467025757e-01 5.765699863433837891e+00 1.775240063667297363e+00 9.492719769477844238e-01
2.390000000000000000e+03 3.169537734985351562e+01 -1.179249286651611328e+01 1.323794275522232056e-01 5.777795612812042236e-02 5.704721435904502869e-02 -2.751642465591430664e-01
2.391000000000000000e+03 3.327883529663085938e+01 -1.253640460968017578e+01 3.036444485187530518e-01 1.178393438458442688e-01 1.264451295137405396e-01 -1.450244039297103882e-01
2.392000000000000000e+03 2.601223754882812500e+01 -9.756256103515625000e+00 -3.246123492717742920e-01 1.602138131856918335e-01 -4.931955784559249878e-02 -4.120204746723175049e-01
2.393000000000000000e+03 2.730074501037597656e+01 -1.111361217498779297e+01 -1.011366769671440125e-01 1.265100538730621338e-01 7.612013723701238632e-03 -4.276890158653259277e-01
2.394000000000000000e+03 3.008613967895507812e+01 -9.526203155517578125e+00 -4.451957941055297852e-01 -4.848280921578407288e-02 -1.481035798788070679e-01 -3.409865796566009521e-01
2.395000000000000000e+03 5.364270210266113281e+00 -8.474812507629394531e+00 -8.388663828372955322e-02 5.932019557803869247e-03 -2.338638529181480408e-02 8.667913079261779785e-02
2.396000000000000000e+03 4.323326110839843750e+01 -2.581720352172851562e+01 1.862402707338333130e-01 2.477127611637115479e-01 1.301859021186828613e-01 -1.528617292642593384e-01
2.397000000000000000e+03 7.495178985595703125e+01 6.307563781738281250e+00 -1.350618749856948853e-01 6.897400379180908203e+00 2.028701543807983398e+00 6.196112632751464844e-01
2.398000000000000000e+03 7.489591217041015625e+01 -3.280513763427734375e+01 -5.734318122267723083e-02 4.854715347290039062e+00 1.439211726188659668e+00 1.051552072167396545e-01
2.399000000000000000e+03 4.232432937622070312e+01 -1.741996002197265625e+01 2.009395956993103027e-01 -3.390539131942205131e-05 6.027170643210411072e-02 -3.411408066749572754e-01
2.400000000000000000e+03 4.513911437988281250e+01 1.476850986480712891e+01 -5.623610317707061768e-02 -4.947368055582046509e-03 -1.835504174232482910e-02 -1.289099361747503281e-02
2.401000000000000000e+03 4.203754043579101562e+01 1.658714103698730469e+01 -1.067181602120399475e-01 1.745606213808059692e-02 -2.677862904965877533e-02 1.007674634456634521e-02
2.402000000000000000e+03 5.952042770385742188e+01 3.531343638896942139e-01 -1.055104732513427734e+00 -7.762188911437988281e-01 -5.493971109390258789e-01 -5.710542798042297363e-01
2.403000000000000000e+03 5.982239151000976562e+01 -9.165941476821899414e-01 -6.819551587104797363e-01 -6.215253472328186035e-01 -3.910441398620605469e-01 -2.446511536836624146e-01
2.404000000000000000e+03 4.452640533447265625e+01 -2.573428916931152344e+01 2.494421154260635376e-01 4.862353801727294922e-01 2.207032442092895508e-01 -1.974873989820480347e-01
2.405000000000000000e+03 5.277675151824951172e+00 1.364741325378417969e+01 1.608189195394515991e-04 -1.318488648394122720e-04 8.691014954820275307e-06 -8.176967385224997997e-04
2.406000000000000000e+03 7.447784423828125000e+01 -2.435953903198242188e+01 1.949708163738250732e-01 5.227717876434326172e+00 1.626806616783142090e+00 8.784960210323333740e-02
2.407000000000000000e+03 3.994195556640625000e+01 -2.472808456420898438e+01 -1.920839026570320129e-02 -1.944744586944580078e-01 -6.410485506057739258e-02 -2.308791577816009521e-01
2.408000000000000000e+03 6.341363906860351562e+01 1.422427445650100708e-01 -2.321924269199371338e-01 -7.499396800994873047e-02 -9.215591847896575928e-02 -1.226772516965866089e-01
2.409000000000000000e+03 5.706002712249755859e+00 -1.420362472534179688e+01 -1.921931058168411255e-01 -5.687885358929634094e-02 -7.472158968448638916e-02 -1.782407164573669434e-01
2.410000000000000000e+03 4.297346878051757812e+01 -2.076194572448730469e+01 2.014528512954711914e-01 1.977621316909790039e-01 1.197644919157028198e-01 -4.337938725948333740e-01
2.411000000000000000e+03 4.723709487915039062e+01 -2.875654792785644531e+01 2.794425487518310547e-01 5.552303194999694824e-01 2.504018545150756836e-01 -2.449211329221725464e-01
2.412000000000000000e+03 4.699601745605468750e+01 2.090645027160644531e+01 -3.524714708328247070e-01 7.752232253551483154e-02 -8.248474448919296265e-02 2.089670486748218536e-02
2.413000000000000000e+03 4.676332855224609375e+01 1.957769203186035156e+01 -2.901803255081176758e-01 5.490639805793762207e-02 -7.058218121528625488e-02 -3.163043037056922913e-02
2.414000000000000000e+03 1.355996036529541016e+01 2.026594161987304688e+01 -2.997753676027059555e-03 -2.925207838416099548e-03 -1.776888384483754635e-03 3.743776469491422176e-04
2.415000000000000000e+03 6.903530120849609375e+00 3.044470787048339844e+01 -1.842921716161072254e-03 -5.928453058004379272e-03 -2.331412397325038910e-03 3.809451591223478317e-03
2.416000000000000000e+03 7.417708587646484375e+01 -3.671120166778564453e+00 4.551798477768898010e-02 5.945155620574951172e+00 1.797202110290527344e+00 5.720531940460205078e-01
2.417000000000000000e+03 4.098837661743164062e+01 1.772694015502929688e+01 -1.353019028902053833e-01 2.813958190381526947e-02 -3.214869648218154907e-02 1.912981085479259491e-02
2.418000000000000000e+03 6.840912628173828125e+01 5.032572269439697266e+00 -2.763847112655639648e-01 1.448791503906250000e+00 3.517220616340637207e-01 2.482011467218399048e-01
2.419000000000000000e+03 6.677588653564453125e+01 5.393426895141601562e+00 -4.775586128234863281e-01 2.450160235166549683e-01 -6.976278126239776611e-02 -1.782072484493255615e-01
2.420000000000000000e+03 6.953098297119140625e+01 -8.957842826843261719e+00 -2.904562056064605713e-01 3.483764648437500000e+00 9.579924941062927246e-01 2.845154404640197754e-01
2.421000000000000000e+03 6.832489013671875000e+01 -1.016953754425048828e+01 -4.531616568565368652e-01 2.793596744537353516e+00 7.021304965019226074e-01 7.820963114500045776e-02
2.422000000000000000e+03 4.292440032958984375e+01 -1.506545829772949219e+01 1.436704397201538086e-01 -4.040560498833656311e-02 3.097945079207420349e-02 -1.866711527109146118e-01
2.423000000000000000e+03 4.263582229614257812e+01 -1.627265739440917969e+01 1.821784973144531250e-01 -3.176502138376235962e-02 4.512404277920722961e-02 -2.628987729549407959e-01
2.424000000000000000e+03 7.598955535888671875e+01 3.321051788330078125e+01 1.663017719984054565e-01 6.744569778442382812e+00 2.073261499404907227e+00 -7.304449081420898438e-01
2.425000000000000000e+03 7.452484130859375000e+01 3.128013038635253906e+01 1.558260023593902588e-01 6.067385196685791016e+00 1.866963386535644531e+00 -9.381453394889831543e-01
2.426000000000000000e+03 6.312471008300781250e+01 2.828903579711914062e+01 -8.172866702079772949e-02 4.397810995578765869e-02 -1.132516656070947647e-02 1.929200291633605957e-01
2.427000000000000000e+03 5.668623352050781250e+01 2.941775512695312500e+01 -9.719297289848327637e-02 -1.913590282201766968e-01 -8.656559884548187256e-02 6.001874804496765137e-01
2.428000000000000000e+03 1.173763275146484375e+01 -2.922128105163574219e+01 2.259935736656188965e-01 -4.777427297085523605e-03 6.636484712362289429e-02 -1.254787147045135498e-01
2.429000000000000000e+03 1.312630367279052734e+01 -2.962340736389160156e+01 2.446607202291488647e-01 7.300246506929397583e-02 9.529896080493927002e-02 -1.298270523548126221e-01
2.430000000000000000e+03 6.794326782226562500e+01 -2.775853538513183594e+01 1.256461162120103836e-02 3.609273195266723633e+00 1.086551308631896973e+00 7.757368087768554688e-01
2.431000000000000000e+03 4.313242435455322266e+00 -1.913301277160644531e+01 -2.042004466056823730e-02 -1.857960671186447144e-01 -6.186483055353164673e-02 -2.996555566787719727e-01
2.432000000000000000e+03 7.280730438232421875e+01 -2.825365638732910156e+01 -6.647996604442596436e-02 4.811971664428710938e+00 1.423647522926330566e+00 1.701351553201675415e-01
2.433000000000000000e+03 3.763074874877929688e+01 -1.390750980377197266e+01 3.844112753868103027e-01 -2.652097046375274658e-01 3.576047345995903015e-02 -1.030529662966728210e-01
2.434000000000000000e+03 6.666672229766845703e+00 -1.353250694274902344e+01 -2.642705440521240234e-01 -8.825218677520751953e-02 -1.057568192481994629e-01 -1.477677375078201294e-01
2.435000000000000000e+03 6.004067230224609375e+01 -5.434064865112304688e+00 1.044287532567977905e-01 -3.936077952384948730e-01 -8.675371110439300537e-02 3.151871562004089355e-01
2.436000000000000000e+03 2.350887680053710938e+01 -8.908931732177734375e+00 -4.315218031406402588e-01 1.832637190818786621e-01 -7.447742670774459839e-02 -3.427702188491821289e-01
2.437000000000000000e+03 4.945622920989990234e+00 -3.258279418945312500e+01 3.795211389660835266e-02 -4.464923143386840820e-01 -1.225620657205581665e-01 -3.436593711376190186e-02
2.438000000000000000e+03 5.133261680603027344e+00 -3.056238174438476562e+01 5.420847237110137939e-02 -4.208594858646392822e-01 -1.099953055381774902e-01 -6.514111906290054321e-02
2.439000000000000000e+03 7.335964965820312500e+01 -1.213285699486732483e-01 9.413580596446990967e-02 5.377158164978027344e+00 1.641388177871704102e+00 6.593958735466003418e-01
2.440000000000000000e+03 7.399118804931640625e+01 2.934518623352050781e+01 2.561155147850513458e-02 5.719964027404785156e+00 1.723672747611999512e+00 -1.153090476989746094e+00
2.441000000000000000e+03 7.384403991699218750e+01 -3.098779296875000000e+01 -7.111852616071701050e-02 4.760586261749267578e+00 1.406840324401855469e+00 1.219090148806571960e-01
2.442000000000000000e+03 4.144482803344726562e+01 -2.901863479614257812e+01 1.279998272657394409e-01 -5.782112944871187210e-03 3.666531667113304138e-02 -1.919756294228136539e-03
2.443000000000000000e+03 7.183758735656738281e+00 -2.874211311340332031e+01 1.325794309377670288e-01 -2.917158603668212891e-01 -4.774092510342597961e-02 -1.192570179700851440e-01
2.444000000000000000e+03 5.721768856048583984e+00 -2.964458847045898438e+01 7.693026214838027954e-02 -3.736618459224700928e-01 -8.901947736740112305e-02 -8.655931800603866577e-02
2.445000000000000000e+03 4.561640930175781250e+01 2.226562309265136719e+01 -3.218495547771453857e-01 8.021789044141769409e-02 -7.248950004577636719e-02 9.390357136726379395e-02
2.446000000000000000e+03 7.362228393554687500e+01 -3.690196228027343750e+01 3.726547211408615112e-02 4.452696800231933594e+00 1.346988677978515625e+00 8.163497596979141235e-02
2.447000000000000000e+03 4.911017417907714844e+00 -1.518786334991455078e+01 -1.427176445722579956e-01 -5.320043489336967468e-02 -5.877542123198509216e-02 -2.092090696096420288e-01
2.448000000000000000e+03 7.551731872558593750e+01 -2.444503593444824219e+01 1.445265561342239380e-01 5.292835712432861328e+00 1.631208658218383789e+00 4.659157991409301758e-02
2.449000000000000000e+03 7.499147033691406250e+01 -2.348357009887695312e+01 2.423927187919616699e-01 5.300071716308593750e+00 1.662739276885986328e+00 1.083326339721679688e-01
2.450000000000000000e+03 5.347899436950683594e+00 1.493758392333984375e+01 4.937819321639835835e-04 -7.805677887517958879e-05 1.247175387106835842e-04 -8.896945510059595108e-04
2.451000000000000000e+03 4.170251369476318359e+00 1.494273567199707031e+01 1.671112113399431109e-05 3.255921474192291498e-04 1.026909740176051855e-04 -8.864555275067687035e-04
2.452000000000000000e+03 3.294651412963867188e+01 2.373321723937988281e+01 -9.179604798555374146e-02 -3.565629199147224426e-02 -3.823570162057876587e-02 7.326220721006393433e-02
2.453000000000000000e+03 3.249589157104492188e+01 2.243422698974609375e+01 -1.109541207551956177e-01 -3.442020341753959656e-02 -4.361229762434959412e-02 6.436961144208908081e-02
2.454000000000000000e+03 1.159001922607421875e+01 1.547459125518798828e+01 5.822849343530833721e-04 -2.003478817641735077e-03 -4.263581358827650547e-04 -1.747983915265649557e-04
2.455000000000000000e+03 1.274141788482666016e+01 1.628821182250976562e+01 5.165396141819655895e-04 -2.274209167808294296e-03 -5.273008719086647034e-04 2.270153345307335258e-05
2.456000000000000000e+03 3.796562194824218750e+01 -8.592993736267089844e+00 -5.493798851966857910e-01 -2.285199314355850220e-01 -2.333699464797973633e-01 -7.987467199563980103e-02
2.457000000000000000e+03 6.282073497772216797e+00 -2.014759445190429688e+01 2.750422246754169464e-02 -2.485121786594390869e-01 -6.630238890647888184e-02 -3.622355163097381592e-01
2.458000000000000000e+03 1.478798103332519531e+01 1.034200668334960938e+01 2.922473067883402109e-04 -8.661110769025981426e-05 6.169086555019021034e-05 5.095198284834623337e-04
2.459000000000000000e+03 1.317674446105957031e+01 1.081531238555908203e+01 5.313440924510359764e-04 -4.979093791916966438e-04 1.003041779767954722e-05 4.069414571858942509e-04
2.460000000000000000e+03 7.585502147674560547e+00 1.980522155761718750e+01 -8.831179002299904823e-04 -1.628006459213793278e-03 -7.533372845500707626e-04 -6.937491125427186489e-04
2.461000000000000000e+03 8.280526161193847656e+00 -2.586800765991210938e+01 1.988892704248428345e-01 -2.267306149005889893e-01 -8.352402597665786743e-03 -2.029400169849395752e-01
2.462000000000000000e+03 2.116700744628906250e+01 2.803927993774414062e+01 -1.674187742173671722e-02 -2.879890985786914825e-02 -1.366223581135272980e-02 3.922476246953010559e-02
2.463000000000000000e+03 7.414037322998046875e+01 -1.856959915161132812e+01 4.523564875125885010e-01 5.457030296325683594e+00 1.772816061973571777e+00 7.703565955162048340e-01
2.464000000000000000e+03 7.540325164794921875e+01 -1.863434028625488281e+01 2.936177849769592285e-01 5.637098312377929688e+00 1.779214739799499512e+00 6.524082422256469727e-01
2.465000000000000000e+03 1.129454517364501953e+01 1.478153610229492188e+01 1.232403097674250603e-03 -1.842726022005081177e-03 -1.830968831200152636e-04 -5.461758337332867086e-05
2.466000000000000000e+03 1.344820117950439453e+01 1.228260612487792969e+01 7.830082904547452927e-04 -6.159734912216663361e-04 5.011043322156183422e-05 4.812274128198623657e-04
2.467000000000000000e+03 7.604781341552734375e+01 1.528248405456542969e+01 -1.634513616561889648e+00 1.070718860626220703e+01 2.721802473068237305e+00 1.783595532178878784e-01
2.468000000000000000e+03 7.291448211669921875e+01 1.707227325439453125e+01 9.574893712997436523e-01 2.382603406906127930e+00 1.002027869224548340e+00 1.377161383628845215e+00
2.469000000000000000e+03 7.440279388427734375e+01 1.711090850830078125e+01 5.079852342605590820e-01 7.251855373382568359e+00 2.327952146530151367e+00 3.531371831893920898e+00
2.470000000000000000e+03 7.580265045166015625e+01 1.718916130065917969e+01 -1.725344538688659668e+00 1.445304870605468750e+01 3.818311214447021484e+00 1.818838477134704590e+00
2.471000000000000000e+03 7.382928466796875000e+01 2.207783889770507812e+01 1.351415365934371948e-01 4.553119182586669922e+00 1.406478166580200195e+00 -3.544569969177246094e+00
2.472000000000000000e+03 7.592591094970703125e+01 1.683645057678222656e+01 -1.857911348342895508e+00 1.363565063476562500e+01 3.533321857452392578e+00 1.079614877700805664e+00
2.473000000000000000e+03 7.597733306884765625e+01 1.647171020507812500e+01 -1.980006575584411621e+00 1.297591209411621094e+01 3.298771619796752930e+00 7.759643793106079102e-01
2.474000000000000000e+03 7.287084197998046875e+01 2.286054229736328125e+01 -3.055880591273307800e-02 3.165338516235351562e+00 9.404339194297790527e-01 -2.228060245513916016e+00
2.475000000000000000e+03 7.346646118164062500e+01 1.726499557495117188e+01 1.185543537139892578e+00 3.328395366668701172e+00 1.354181766510009766e+00 2.159333467483520508e+00
2.476000000000000000e+03 7.388271331787109375e+01 2.307580184936523438e+01 -4.371199011802673340e-01 5.813291072845458984e+00 1.612851381301879883e+00 -3.049777984619140625e+00
2.477000000000000000e+03 7.521413421630859375e+01 2.233771514892578125e+01 -1.593569993972778320e+00 1.099514865875244141e+01 2.820473432540893555e+00 -3.364617109298706055e+00
2.478000000000000000e+03 7.548986053466796875e+01 2.232460594177246094e+01 -1.942690491676330566e+00 1.207391643524169922e+01 3.039367914199829102e+00 -2.972177505493164062e+00
2.479000000000000000e+03 7.230487823486328125e+01 1.525296878814697266e+01 1.567068248987197876e-01 3.093741178512573242e+00 9.751343727111816406e-01 7.681459188461303711e-01
2.480000000000000000e+03 7.572679901123046875e+01 1.473723697662353516e+01 -1.365791797637939453e+00 9.710791587829589844e+00 2.503499984741210938e+00 3.725252747535705566e-01
2.481000000000000000e+03 7.599961090087890625e+01 1.260394859313964844e+01 -8.161513209342956543e-01 8.794456481933593750e+00 2.393491506576538086e+00 2.271816693246364594e-02
2.482000000000000000e+03 1.391426277160644531e+01 4.480349063873291016e+00 -3.288387688371585682e-06 -8.487390914524439722e-06 -3.532733671818277799e-06 7.272426591953262687e-05
2.483000000000000000e+03 2.170749473571777344e+01 -8.352708816528320312e+00 -4.335442781448364258e-01 1.508616358041763306e-01 -8.480479568243026733e-02 -3.421865105628967285e-01
2.484000000000000000e+03 2.091533279418945312e+01 -6.483511924743652344e+00 -3.332745730876922607e-01 1.012823507189750671e-01 -6.959766894578933716e-02 -2.986632883548736572e-01
2.485000000000000000e+03 1.025733280181884766e+01 -5.548362731933593750e+00 4.485454410314559937e-04 -1.128175333142280579e-01 -3.371069580316543579e-02 6.104907765984535217e-02
2.486000000000000000e+03 1.126938438415527344e+01 -7.005490779876708984e+00 -1.089297980070114136e-01 -1.904240101575851440e-01 -8.980613946914672852e-02 1.134672388434410095e-02
2.487000000000000000e+03 7.620835876464843750e+01 1.480498123168945312e+01 -1.467744708061218262e+00 1.030681037902832031e+01 2.651719808578491211e+00 -2.252789773046970367e-02
2.488000000000000000e+03 8.429215431213378906e+00 5.586753368377685547e+00 3.683093527797609568e-04 -9.740385576151311398e-05 8.127164619509130716e-05 -4.033356890431605279e-05
2.489000000000000000e+03 8.044344902038574219e+00 5.127012252807617188e+00 2.401363308308646083e-04 -4.882534267380833626e-05 5.739329571952112019e-05 -7.566907152067869902e-05
2.490000000000000000e+03 7.253913116455078125e+01 2.406345176696777344e+01 -1.858501285314559937e-01 3.731934070587158203e+00 1.063825130462646484e+00 -1.946315288543701172e+00
2.491000000000000000e+03 6.248391151428222656e+00 5.858759403228759766e+00 1.095527040888555348e-04 -6.031284647178836167e-05 1.477195655752439052e-05 -2.240949979750439525e-04
2.492000000000000000e+03 6.651230335235595703e+00 5.277288436889648438e+00 3.386892203707247972e-04 -3.943190677091479301e-05 8.977718971436843276e-05 -1.005342928692698479e-04
2.493000000000000000e+03 4.903719425201416016e+00 7.035890102386474609e+00 1.439997431589290500e-04 -3.609012856031768024e-05 3.237288183299824595e-05 -2.530325145926326513e-04
2.494000000000000000e+03 7.693875122070312500e+01 1.592468261718750000e+01 -1.823288440704345703e+00 1.201255035400390625e+01 3.056778669357299805e+00 -1.178342342376708984e+00
2.495000000000000000e+03 1.372363471984863281e+01 6.242161750793457031e+00 6.173370638862252235e-05 -9.084772318601608276e-05 -8.734204129723366350e-06 1.069764548446983099e-04
2.496000000000000000e+03 1.296373748779296875e+01 5.359292507171630859e+00 8.464739221381023526e-05 -1.001932250801473856e-04 -4.663750587496906519e-06 7.460219057975336909e-05
2.497000000000000000e+03 8.836171150207519531e+00 -5.326158046722412109e+00 1.333921402692794800e-02 -8.164358884096145630e-02 -2.049131132662296295e-02 9.307630360126495361e-02
2.498000000000000000e+03 9.187864303588867188e+00 5.101550579071044922e+00 3.263526887167245150e-04 -6.586324161617085338e-05 7.814683340257033706e-05 -6.486539518846257124e-07
2.499000000000000000e+03 2.538318252563476562e+01 -7.909960269927978516e+00 -5.380476713180541992e-01 1.846569031476974487e-01 -1.060172319412231445e-01 -3.221957981586456299e-01
2.500000000000000000e+03 7.415045738220214844e+00 -5.922469139099121094e+00 -1.409912947565317154e-02 -5.104644224047660828e-02 -1.954367198050022125e-02 1.049329042434692383e-01
2.501000000000000000e+03 7.738751983642578125e+01 2.232350730895996094e+01 -1.536610484123229980e+00 1.270721244812011719e+01 3.351180791854858398e+00 1.850091934204101562e+00
2.502000000000000000e+03 7.219316101074218750e+01 2.460580635070800781e+01 -1.754878163337707520e-01 3.503959178924560547e+00 9.985414147377014160e-01 -1.724640369415283203e+00
2.503000000000000000e+03 2.423036003112792969e+01 -7.500943660736083984e+00 -5.072357058525085449e-01 1.853006631135940552e-01 -9.658052027225494385e-02 -2.811441719532012939e-01
2.504000000000000000e+03 1.588745403289794922e+01 -7.227618694305419922e+00 -2.164108306169509888e-01 -1.846560835838317871e-01 -1.203200742602348328e-01 -2.440442442893981934e-01
2.505000000000000000e+03 1.500510025024414062e+01 -5.824461936950683594e+00 -8.640900999307632446e-02 -1.393718570470809937e-01 -6.773426383733749390e-02 -1.562841236591339111e-01
2.506000000000000000e+03 4.587231445312500000e+01 -4.162754535675048828e+00 -7.914501428604125977e-01 1.061100363731384277e-01 -2.056020200252532959e-01 -3.733364343643188477e-01
2.507000000000000000e+03 4.818345260620117188e+01 -3.477795839309692383e+00 -8.809691071510314941e-01 9.348232299089431763e-02 -2.362460345029830933e-01 -4.360691606998443604e-01
2.508000000000000000e+03 5.217179489135742188e+01 -3.683920621871948242e+00 -7.929216623306274414e-01 -2.043119817972183228e-01 -2.991700768470764160e-01 -4.150365591049194336e-01
2.509000000000000000e+03 5.046965026855468750e+01 -2.444611310958862305e+00 -1.116940975189208984e+00 -9.826427698135375977e-02 -3.645615875720977783e-01 -4.921644628047943115e-01
2.510000000000000000e+03 7.530526733398437500e+01 2.400718116760253906e+01 -1.468616127967834473e+00 9.031061172485351562e+00 2.268733501434326172e+00 -1.890210032463073730e+00
2.511000000000000000e+03 1.405842494964599609e+01 -8.556188583374023438e+00 -2.935982644557952881e-01 -3.170839548110961914e-01 -1.832046657800674438e-01 -1.611809730529785156e-01
2.512000000000000000e+03 1.132271957397460938e+01 5.280409336090087891e+00 1.676657848292961717e-04 -1.712869125185534358e-04 -1.086340716938138939e-06 2.145425605704076588e-05
2.513000000000000000e+03 1.143169212341308594e+01 4.534499645233154297e+00 2.903818676713854074e-04 -3.315660433145239949e-05 7.716757681919261813e-05 1.252687943633645773e-04
2.514000000000000000e+03 7.489196777343750000e+01 1.120748138427734375e+01 -5.438039898872375488e-01 7.266356945037841797e+00 2.016765832901000977e+00 3.554306924343109131e-01
2.515000000000000000e+03 7.495417785644531250e+01 8.869417190551757812e+00 -3.241674602031707764e-01 7.063915729522705078e+00 2.021924495697021484e+00 4.944595694541931152e-01
2.516000000000000000e+03 4.519630813598632812e+01 -3.577249765396118164e+00 -8.708319664001464844e-01 1.297868490219116211e-01 -2.223135232925415039e-01 -3.617009520530700684e-01
2.517000000000000000e+03 1.762772941589355469e+01 -6.193140506744384766e+00 -2.082709670066833496e-01 -3.878953307867050171e-02 -7.411815226078033447e-02 -2.775391340255737305e-01
2.518000000000000000e+03 1.922378349304199219e+01 -6.495889663696289062e+00 -2.870142161846160889e-01 3.833333030343055725e-02 -7.460426539182662964e-02 -3.029572069644927979e-01
2.519000000000000000e+03 6.915528869628906250e+01 2.367600440979003906e+01 -9.853263497352600098e-01 9.976310729980468750e-01 3.691425547003746033e-03 -2.527370452880859375e-01
2.520000000000000000e+03 7.067341613769531250e+01 1.475221824645996094e+01 3.220550343394279480e-02 1.135581612586975098e+00 3.503361344337463379e-01 2.384235151112079620e-02
2.521000000000000000e+03 7.108431243896484375e+01 1.384609794616699219e+01 -2.562024891376495361e-01 2.067073583602905273e+00 5.432612895965576172e-01 2.041677385568618774e-01
2.522000000000000000e+03 4.976456069946289062e+01 -3.497072935104370117e+00 -8.694587945938110352e-01 -2.673013508319854736e-02 -2.688566744327545166e-01 -4.849627912044525146e-01
2.523000000000000000e+03 1.471118354797363281e+01 -5.241211414337158203e+00 -2.467237599194049835e-02 -1.097832545638084412e-01 -4.033668711781501770e-02 -1.235390231013298035e-01
2.524000000000000000e+03 1.438949871063232422e+01 -6.953905105590820312e+00 -1.573515534400939941e-01 -2.116089314222335815e-01 -1.106881424784660339e-01 -1.469398587942123413e-01
2.525000000000000000e+03 2.461141204833984375e+01 -8.945320129394531250e+00 -4.076573550701141357e-01 1.926348507404327393e-01 -6.450674682855606079e-02 -3.754601776599884033e-01
2.526000000000000000e+03 1.140501594543457031e+01 9.270203590393066406e+00 7.053347653709352016e-04 -4.043379740323871374e-04 9.029903594637289643e-05 1.958619104698300362e-04
2.527000000000000000e+03 1.404556846618652344e+01 9.039148330688476562e+00 2.528321638237684965e-04 -1.796187279978767037e-04 2.196402965637389570e-05 3.491324896458536386e-04
2.528000000000000000e+03 7.708968353271484375e+01 2.298552131652832031e+01 -2.027138948440551758e+00 1.205077934265136719e+01 3.007092237472534180e+00 8.112110495567321777e-01
2.529000000000000000e+03 7.622592163085937500e+01 2.297843933105468750e+01 -2.263660430908203125e+00 1.215128803253173828e+01 2.966288328170776367e+00 -8.558983206748962402e-01
2.530000000000000000e+03 5.865525436401367188e+01 -5.552412033081054688e+00 5.600999295711517334e-02 -4.414932131767272949e-01 -1.156449690461158752e-01 2.929021716117858887e-01
2.531000000000000000e+03 6.013165664672851562e+01 -6.793812751770019531e+00 1.844789683818817139e-01 -3.401080369949340820e-01 -4.668872430920600891e-02 3.680376112461090088e-01
2.532000000000000000e+03 6.938596343994140625e+01 2.624479293823242188e+01 -1.303393095731735229e-01 1.798289895057678223e+00 5.003851652145385742e-01 -8.532488346099853516e-01
2.533000000000000000e+03 1.320841693878173828e+01 -6.204926013946533203e+00 -7.139772921800613403e-02 -1.695113778114318848e-01 -7.227273285388946533e-02 -6.693126261234283447e-02
2.534000000000000000e+03 1.491954994201660156e+01 -7.818533897399902344e+00 -2.296882420778274536e-01 -2.479138821363449097e-01 -1.432806402444839478e-01 -1.963897049427032471e-01
2.535000000000000000e+03 2.284433555603027344e+01 -7.698059082031250000e+00 -4.724667966365814209e-01 1.841685473918914795e-01 -8.648947626352310181e-02 -3.145565390586853027e-01
2.536000000000000000e+03 7.181683349609375000e+01 5.070867538452148438e+00 -1.297081261873245239e-01 4.100198268890380859e+00 1.191146969795227051e+00 6.500135064125061035e-01
2.537000000000000000e+03 7.465671539306640625e+01 -1.359675312042236328e+01 -9.974198043346405029e-02 5.949687957763671875e+00 1.754983782768249512e+00 9.153851270675659180e-01
2.538000000000000000e+03 7.528306579589843750e+01 -1.272016334533691406e+01 -1.289878338575363159e-01 6.179071426391601562e+00 1.815025091171264648e+00 8.209696412086486816e-01
2.539000000000000000e+03 3.117438316345214844e+01 -9.492836952209472656e+00 -4.594861865043640137e-01 -1.012344807386398315e-01 -1.682161986827850342e-01 -2.703828513622283936e-01
2.540000000000000000e+03 3.294979476928710938e+01 -9.836227416992187500e+00 -4.114075303077697754e-01 -1.026935204863548279e-01 -1.542303115129470825e-01 -1.732591092586517334e-01
2.541000000000000000e+03 1.857839584350585938e+01 -8.320410728454589844e+00 -3.785575628280639648e-01 -3.346884856000542641e-03 -1.145713329315185547e-01 -3.662227690219879150e-01
2.542000000000000000e+03 2.256401824951171875e+01 -1.094249534606933594e+01 -2.464741021394729614e-01 1.527304351329803467e-01 -2.812310308218002319e-02 -2.816433906555175781e-01
2.543000000000000000e+03 5.160305500030517578e+00 9.945764541625976562e+00 4.562343528959900141e-04 -3.286706032668007538e-06 1.358843001071363688e-04 -3.839017299469560385e-04
2.544000000000000000e+03 7.392669677734375000e+01 -1.983588027954101562e+01 5.167555809020996094e-01 5.409187316894531250e+00 1.777782797813415527e+00 5.960074067115783691e-01
2.545000000000000000e+03 7.413965606689453125e+01 -1.445604133605957031e+01 -2.579129487276077271e-02 5.773875236511230469e+00 1.724425196647644043e+00 9.697319865226745605e-01
2.546000000000000000e+03 7.316417694091796875e+01 -1.720733261108398438e+01 3.923308849334716797e-01 5.469576358795166016e+00 1.758572101593017578e+00 9.348768591880798340e-01
2.547000000000000000e+03 5.092715263366699219e+00 -1.185351753234863281e+01 -1.444597095251083374e-01 5.888266488909721375e-03 -4.157143458724021912e-02 -3.672260418534278870e-02
2.548000000000000000e+03 7.372154998779296875e+01 -1.042869949340820312e+01 -2.879853844642639160e-01 5.673410892486572266e+00 1.615627646446228027e+00 7.318689227104187012e-01
2.549000000000000000e+03 7.498995971679687500e+01 -9.169766426086425781e+00 -1.412170827388763428e-01 6.258884906768798828e+00 1.835300326347351074e+00 6.137365102767944336e-01
2.550000000000000000e+03 1.819924926757812500e+01 -6.839819431304931641e+00 -2.573474943637847900e-01 -2.094563283026218414e-02 -8.348793536424636841e-02 -3.203634619712829590e-01
2.551000000000000000e+03 4.389569854736328125e+01 -4.500767707824707031e+00 -8.411278724670410156e-01 5.357899144291877747e-02 -2.362646758556365967e-01 -3.089170157909393311e-01
2.552000000000000000e+03 6.348622322082519531e+00 1.127648639678955078e+01 6.284955888986587524e-04 -2.654720738064497709e-04 1.089070574380457401e-04 -4.818926390726119280e-04
2.553000000000000000e+03 6.443312168121337891e+00 1.246566390991210938e+01 2.939591358881443739e-04 -4.276768304407596588e-04 -4.011530472780577838e-05 -6.719370721839368343e-04
2.554000000000000000e+03 7.471663665771484375e+01 2.378908872604370117e+00 2.445131912827491760e-02 6.505878448486328125e+00 1.959098935127258301e+00 6.578757762908935547e-01
2.555000000000000000e+03 9.638970375061035156e+00 -4.748948574066162109e+00 5.071023851633071899e-02 -8.426275849342346191e-02 -1.006575487554073334e-02 7.427635043859481812e-02
2.556000000000000000e+03 1.467267704010009766e+01 6.294130802154541016e+00 3.311325563117861748e-04 8.505220466759055853e-05 1.248554326593875885e-04 2.904300636146217585e-04
2.557000000000000000e+03 1.475225734710693359e+01 5.414465904235839844e+00 -4.412359339767135680e-05 1.614961183804553002e-05 -8.392194104089867324e-06 7.072763401083648205e-05
2.558000000000000000e+03 5.713476657867431641e+00 7.848362445831298828e+00 3.711059398483484983e-04 -1.552083995193243027e-05 1.066755285137332976e-04 -1.990508899325504899e-04
2.559000000000000000e+03 5.779777908325195312e+01 -4.757033824920654297e+00 -1.038531661033630371e-01 -5.378085970878601074e-01 -1.924985349178314209e-01 1.807245463132858276e-01
2.560000000000000000e+03 5.644668579101562500e+01 -3.808251142501831055e+00 -4.622532129287719727e-01 -5.757149457931518555e-01 -3.113904595375061035e-01 -3.722970932722091675e-02
2.561000000000000000e+03 2.070497131347656250e+01 -8.340867042541503906e+00 -3.866875171661376953e-01 1.135251671075820923e-01 -8.194869756698608398e-02 -3.521926701068878174e-01
2.562000000000000000e+03 7.617205047607421875e+01 8.790162086486816406e+00 -2.414644807577133179e-01 8.242425918579101562e+00 2.400288581848144531e+00 3.815414905548095703e-01
2.563000000000000000e+03 6.012897109985351562e+01 -2.098595380783081055e+00 -3.653932213783264160e-01 -5.208114385604858398e-01 -2.658613920211791992e-01 -1.022685319185256958e-02
2.564000000000000000e+03 7.092419433593750000e+01 -1.264469528198242188e+01 -5.290880799293518066e-01 4.778465747833251953e+00 1.274813294410705566e+00 6.837977766990661621e-01
2.565000000000000000e+03 7.153952026367187500e+01 -1.430399513244628906e+01 -1.913866549730300903e-01 5.270814418792724609e+00 1.523828268051147461e+00 9.472391605377197266e-01
2.566000000000000000e+03 7.133191680908203125e+01 1.225065708160400391e+01 -4.389864504337310791e-01 2.860817670822143555e+00 7.265493869781494141e-01 3.633832037448883057e-01
2.567000000000000000e+03 7.095883178710937500e+01 9.803662300109863281e+00 -6.319527029991149902e-01 2.742421865463256836e+00 6.331407427787780762e-01 3.515421748161315918e-01
2.568000000000000000e+03 1.003842449188232422e+01 -1.071609878540039062e+01 -3.535909354686737061e-01 -2.485588788986206055e-01 -1.806449443101882935e-01 -5.053691938519477844e-02
2.569000000000000000e+03 1.080656623840332031e+01 -1.155848979949951172e+01 -4.452815651893615723e-01 -3.300758004188537598e-01 -2.326072156429290771e-01 -1.131180599331855774e-01
2.570000000000000000e+03 2.724635887145996094e+01 -9.301116943359375000e+00 -4.648163318634033203e-01 1.235561817884445190e-01 -1.023780405521392822e-01 -4.102735221385955811e-01
2.571000000000000000e+03 5.275473594665527344e+00 8.788231849670410156e+00 1.263145095435902476e-04 -9.196935570798814297e-05 1.030354815156897530e-05 -3.943038755096495152e-04
2.572000000000000000e+03 4.203065490722656250e+01 1.860293006896972656e+01 -1.714205592870712280e-01 3.921979293227195740e-02 -3.966023027896881104e-02 2.291380614042282104e-02
2.573000000000000000e+03 4.255354690551757812e+01 1.544394302368164062e+01 -8.523804694414138794e-02 1.072069257497787476e-02 -2.235520631074905396e-02 3.388870274648070335e-03
2.574000000000000000e+03 4.810450363159179688e+01 -6.471510410308837891e+00 -4.017857015132904053e-01 1.516041578724980354e-03 -1.200809031724929810e-01 -3.271618485450744629e-01
2.575000000000000000e+03 7.360515594482421875e+01 1.015575790405273438e+01 -5.048382282257080078e-01 5.672291755676269531e+00 1.550236105918884277e+00 5.153499841690063477e-01
2.576000000000000000e+03 7.376509857177734375e+01 7.622686862945556641e+00 -2.760821580886840820e-01 5.837557792663574219e+00 1.668442726135253906e+00 6.112747192382812500e-01
2.577000000000000000e+03 5.972490787506103516e+00 -2.545017242431640625e+01 1.304035186767578125e-01 -3.268677592277526855e-01 -5.893927067518234253e-02 -2.126422226428985596e-01
2.578000000000000000e+03 3.134915542602539062e+01 -1.062546348571777344e+01 -2.053249627351760864e-01 3.656615270301699638e-03 -6.050050631165504456e-02 -2.645672857761383057e-01
2.579000000000000000e+03 3.894483184814453125e+01 -8.807218551635742188e+00 -4.977592527866363525e-01 -2.087560594081878662e-01 -2.119545936584472656e-01 -5.236392468214035034e-02
2.580000000000000000e+03 4.473246765136718750e+01 -9.280544281005859375e+00 -2.626444101333618164e-01 -3.118485026061534882e-02 -8.814878016710281372e-02 -1.086664870381355286e-01
2.581000000000000000e+03 4.634818649291992188e+01 -1.160901355743408203e+01 -3.782297670841217041e-02 3.751913458108901978e-02 -9.115360444411635399e-05 -1.890994235873222351e-02
2.582000000000000000e+03 4.619207382202148438e+01 -7.866990089416503906e+00 -3.536409437656402588e-01 -4.044793080538511276e-03 -1.073057204484939575e-01 -1.919384300708770752e-01
2.583000000000000000e+03 3.033592987060546875e+01 -1.079284572601318359e+01 -1.439055055379867554e-01 2.034240774810314178e-02 -3.706892952322959900e-02 -3.466653227806091309e-01
2.584000000000000000e+03 4.738187408447265625e+01 -4.115817070007324219e+00 -7.769190669059753418e-01 8.627871423959732056e-02 -2.071921080350875854e-01 -4.220797717571258545e-01
2.585000000000000000e+03 2.482669067382812500e+01 -1.096328353881835938e+01 -1.719058752059936523e-01 1.535371243953704834e-01 -5.510624032467603683e-03 -3.613942563533782959e-01
2.586000000000000000e+03 7.472334289550781250e+01 2.615618324279785156e+01 -6.503456234931945801e-01 7.033001899719238281e+00 1.914796829223632812e+00 -1.507040858268737793e+00
2.587000000000000000e+03 4.438766860961914062e+01 -1.193763446807861328e+01 -6.137071177363395691e-02 -4.258761554956436157e-02 -3.118749707937240601e-02 -4.959478229284286499e-02
2.588000000000000000e+03 4.170551300048828125e+01 -1.478980445861816406e+01 2.040959596633911133e-01 -1.556168794631958008e-01 1.454372424632310867e-02 -2.032469213008880615e-01
2.589000000000000000e+03 7.213150024414062500e+01 -2.205869293212890625e+01 6.570358872413635254e-01 5.276100158691406250e+00 1.779940843582153320e+00 3.784220516681671143e-01
2.590000000000000000e+03 6.870739746093750000e+01 2.757918357849121094e+01 8.409331738948822021e-02 1.754417300224304199e+00 5.515531897544860840e-01 -7.802255749702453613e-01
2.591000000000000000e+03 9.138481140136718750e+00 -1.138698482513427734e+01 -3.443606495857238770e-01 -2.024355381727218628e-01 -1.640388667583465576e-01 -5.834228172898292542e-02
2.592000000000000000e+03 6.240832901000976562e+01 -1.903549194335937500e+00 -9.634036570787429810e-02 -1.513721793889999390e-01 -7.431376725435256958e-02 7.609824091196060181e-02
2.593000000000000000e+03 6.221943283081054688e+01 2.968399822711944580e-01 -4.229204356670379639e-01 -3.708124756813049316e-01 -2.381198704242706299e-01 -2.817642986774444580e-01
2.594000000000000000e+03 4.719223976135253906e+00 2.618951988220214844e+01 -1.234041643328964710e-03 -6.624087691307067871e-04 -5.689351237379014492e-04 7.436397718265652657e-04
2.595000000000000000e+03 8.712862014770507812e+00 -2.790911483764648438e+01 1.815677732229232788e-01 -1.906531453132629395e-01 -2.725613303482532501e-03 -1.448161005973815918e-01
2.596000000000000000e+03 7.367523956298828125e+01 -2.449225187301635742e+00 8.224412798881530762e-02 5.652318000793457031e+00 1.720368623733520508e+00 6.082254052162170410e-01
2.597000000000000000e+03 7.562812805175781250e+01 -4.978953838348388672e+00 -1.396106649190187454e-02 6.719581127166748047e+00 2.011686086654663086e+00 5.115323066711425781e-01
2.598000000000000000e+03 6.800375366210937500e+01 3.356029272079467773e+00 -1.058006659150123596e-01 1.470840811729431152e+00 4.095120429992675781e-01 2.789699733257293701e-01
2.599000000000000000e+03 4.183784866333007812e+01 -2.579020118713378906e+01 9.845252335071563721e-02 7.978047430515289307e-02 5.346990004181861877e-02 -1.619182527065277100e-01
2.600000000000000000e+03 4.199012756347656250e+01 -2.449094772338867188e+01 1.089269816875457764e-01 7.600136846303939819e-02 5.547850579023361206e-02 -2.281144410371780396e-01
2.601000000000000000e+03 4.522993564605712891e+00 -2.423064994812011719e+01 8.496253937482833862e-02 -3.599124252796173096e-01 -8.248496055603027344e-02 -2.256294637918472290e-01
2.602000000000000000e+03 6.575894355773925781e+00 -2.358193397521972656e+01 1.372752040624618530e-01 -3.004963099956512451e-01 -4.896633699536323547e-02 -2.767198681831359863e-01
2.603000000000000000e+03 1.328945446014404297e+01 -7.083253860473632812e+00 -1.494229733943939209e-01 -2.279379516839981079e-01 -1.132082790136337280e-01 -8.733703196048736572e-02
2.604000000000000000e+03 6.870827198028564453e+00 -1.697065162658691406e+01 -1.623465716838836670e-01 -1.838523596525192261e-01 -1.038596853613853455e-01 -3.484260737895965576e-01
2.605000000000000000e+03 6.648367881774902344e+00 -2.189497947692871094e+01 9.857776761054992676e-02 -2.780731022357940674e-01 -5.384860187768936157e-02 -3.406313359737396240e-01
2.606000000000000000e+03 3.778841018676757812e+01 -1.523675537109375000e+01 5.453454852104187012e-01 -3.180805146694183350e-01 6.817948073148727417e-02 -2.029753625392913818e-01
2.607000000000000000e+03 3.709732437133789062e+01 -1.147202682495117188e+01 -2.781123109161853790e-02 -2.202177941799163818e-01 -7.440870255231857300e-02 -1.601364649832248688e-02
2.608000000000000000e+03 1.282942390441894531e+01 6.170771121978759766e+00 3.726414288394153118e-04 -5.096046606922755018e-06 1.102636160794645548e-04 2.444337296765297651e-04
2.609000000000000000e+03 1.263594627380371094e+01 6.956288814544677734e+00 1.953762402990832925e-04 -2.328039554413408041e-04 -1.122831326938467100e-05 1.200608239741995931e-04
2.610000000000000000e+03 4.025634002685546875e+01 -1.571427154541015625e+01 3.385496735572814941e-01 -2.559019029140472412e-01 2.479432709515094757e-02 -2.867815494537353516e-01
2.611000000000000000e+03 3.840033721923828125e+01 -1.247039604187011719e+01 1.326117068529129028e-01 -2.562651038169860840e-01 -3.709602355957031250e-02 -4.514258354902267456e-02
2.612000000000000000e+03 6.281908035278320312e+01 -7.040428161621093750e+00 2.586340606212615967e-01 -1.333199534565210342e-02 7.359062135219573975e-02 3.796138167381286621e-01
2.613000000000000000e+03 4.180532073974609375e+01 -1.959640502929687500e+01 2.088898420333862305e-01 2.055033668875694275e-02 6.883205473423004150e-02 -4.581715166568756104e-01
2.614000000000000000e+03 7.247322845458984375e+01 -2.310003852844238281e+01 4.963650107383728027e-01 5.165934562683105469e+00 1.698689937591552734e+00 2.729979157447814941e-01
2.615000000000000000e+03 4.144429397583007812e+01 -1.597848224639892578e+01 2.501872181892395020e-01 -1.396881043910980225e-01 3.314973041415214539e-02 -2.844316363334655762e-01
2.616000000000000000e+03 4.416810035705566406e+00 1.767731475830078125e+01 -1.847927924245595932e-04 3.682857786770910025e-04 5.504789805854670703e-05 -1.003362820483744144e-03
2.617000000000000000e+03 1.959375572204589844e+01 -8.373785018920898438e+00 -4.096533954143524170e-01 5.682220309972763062e-02 -1.058493554592132568e-01 -3.493266701698303223e-01
2.618000000000000000e+03 4.047248077392578125e+01 -2.585195350646972656e+01 1.315773837268352509e-02 -1.143206879496574402e-01 -3.034888394176959991e-02 -1.483172476291656494e-01
2.619000000000000000e+03 7.291432189941406250e+01 -4.143235206604003906e+00 2.488429658114910126e-02 5.088032245635986328e+00 1.533874988555908203e+00 5.802925229072570801e-01
2.620000000000000000e+03 4.930376052856445312e+00 2.758248519897460938e+01 -7.350293453782796860e-04 -1.481353770941495895e-03 -6.649149581789970398e-04 1.538924756459891796e-03
2.621000000000000000e+03 7.047779083251953125e+01 -2.802936363220214844e+01 -7.839453965425491333e-02 4.328387260437011719e+00 1.274997830390930176e+00 4.065567255020141602e-01
2.622000000000000000e+03 7.166576385498046875e+01 -2.661316108703613281e+01 -8.522552438080310822e-03 4.809046745300292969e+00 1.440157175064086914e+00 2.460636347532272339e-01
2.623000000000000000e+03 1.256423759460449219e+01 1.527241134643554688e+01 1.380308531224727631e-03 -1.714522484689950943e-03 -1.002641874947585166e-04 4.564019327517598867e-04
2.624000000000000000e+03 1.063896083831787109e+01 1.410919189453125000e+01 7.186417351476848125e-04 -1.291045569814741611e-03 -1.717211562208831310e-04 9.161848538496997207e-06
2.625000000000000000e+03 4.321930313110351562e+01 -2.937153625488281250e+01 1.820007711648941040e-01 1.675031632184982300e-01 1.048511788249015808e-01 -3.695291653275489807e-02
2.626000000000000000e+03 7.411576843261718750e+01 -2.682574272155761719e+01 9.074158966541290283e-03 5.089694976806640625e+00 1.529630780220031738e+00 4.797578230500221252e-02
2.627000000000000000e+03 7.286841583251953125e+01 -2.669894409179687500e+01 2.132784808054566383e-03 4.963372230529785156e+00 1.489651560783386230e+00 1.611316204071044922e-01
2.628000000000000000e+03 7.396990203857421875e+01 2.716454887390136719e+01 -2.980470657348632812e-01 5.841035366058349609e+00 1.662896394729614258e+00 -1.420259594917297363e+00
2.629000000000000000e+03 3.762347412109375000e+01 -9.398447990417480469e+00 -4.212667346000671387e-01 -2.015732973814010620e-01 -1.868520081043243408e-01 -1.967637240886688232e-02
2.630000000000000000e+03 3.603873825073242188e+01 -8.740676879882812500e+00 -6.077911853790283203e-01 -1.937372833490371704e-01 -2.404585331678390503e-01 -6.949619203805923462e-02
2.631000000000000000e+03 7.496804809570312500e+01 -3.156127166748046875e+01 -6.416454166173934937e-02 4.935250759124755859e+00 1.461325883865356445e+00 7.286758720874786377e-02
2.632000000000000000e+03 1.053784370422363281e+01 -2.790884399414062500e+01 2.193242013454437256e-01 -8.934353291988372803e-02 3.899420052766799927e-02 -1.472007781267166138e-01
2.633000000000000000e+03 6.681243133544921875e+01 2.017863035202026367e+00 -4.106753692030906677e-02 1.015104651451110840e+00 2.922111451625823975e-01 2.163097411394119263e-01
2.634000000000000000e+03 6.602738952636718750e+01 3.252676963806152344e+00 -2.735038697719573975e-01 3.657507896423339844e-01 2.767407521605491638e-02 -7.820572704076766968e-02
2.635000000000000000e+03 4.668048381805419922e+00 -2.704655265808105469e+01 7.743854075670242310e-02 -4.163413941860198975e-01 -1.016708537936210632e-01 -1.422615647315979004e-01
2.636000000000000000e+03 7.561617851257324219e+00 -3.244682312011718750e+01 6.542936712503433228e-02 -2.874768376350402832e-01 -6.661424040794372559e-02 -4.572376608848571777e-02
2.637000000000000000e+03 4.101681518554687500e+01 1.962497138977050781e+01 -1.697954535484313965e-01 3.910252824425697327e-02 -3.920787572860717773e-02 4.457259178161621094e-02
2.638000000000000000e+03 7.361455535888671875e+01 -1.289382457733154297e+01 -2.116280347108840942e-01 5.704839706420898438e+00 1.647963523864746094e+00 9.032140374183654785e-01
2.639000000000000000e+03 7.266926574707031250e+01 -1.481794166564941406e+01 -1.061780657619237900e-02 5.468307018280029297e+00 1.637306809425354004e+00 1.006102085113525391e+00
2.640000000000000000e+03 6.680268859863281250e+01 -3.342756652832031250e+01 1.603849381208419800e-01 2.757151365280151367e+00 8.752608895301818848e-01 5.459449887275695801e-01
2.641000000000000000e+03 5.930002593994140625e+01 2.842642402648925781e+01 -2.751620113849639893e-01 -2.753515839576721191e-01 -1.651540845632553101e-01 5.779277682304382324e-01
2.642000000000000000e+03 1.707616424560546875e+01 3.042722702026367188e+01 -4.922354128211736679e-03 -2.291408367455005646e-02 -8.350931107997894287e-03 2.254079654812812805e-02
2.643000000000000000e+03 1.787439346313476562e+01 2.673062515258789062e+01 -1.640248298645019531e-02 -1.209106203168630600e-02 -8.548063226044178009e-03 2.029914595186710358e-02
2.644000000000000000e+03 4.449998092651367188e+01 1.603797531127929688e+01 -9.701612591743469238e-02 5.638132337480783463e-03 -2.741339802742004395e-02 -1.333666685968637466e-02
2.645000000000000000e+03 5.462658309936523438e+01 2.892289733886718750e+01 -2.250426262617111206e-01 -1.592810153961181641e-01 -1.152970939874649048e-01 5.660043358802795410e-01
2.646000000000000000e+03 5.605694580078125000e+01 2.770694351196289062e+01 -4.447974264621734619e-01 -1.745829135179519653e-01 -1.858141124248504639e-01 5.878192782402038574e-01
2.647000000000000000e+03 3.623981094360351562e+01 2.239470291137695312e+01 -1.296875625848770142e-01 -2.719620941206812859e-03 -3.972215577960014343e-02 6.804303824901580811e-02
2.648000000000000000e+03 2.893903541564941406e+01 -9.758078575134277344e+00 -4.224228262901306152e-01 7.947092875838279724e-03 -1.243427246809005737e-01 -4.073246121406555176e-01
2.649000000000000000e+03 1.030293655395507812e+01 -3.061818885803222656e+01 1.563298851251602173e-01 -9.891483187675476074e-02 1.722451485693454742e-02 -8.469530940055847168e-02
2.650000000000000000e+03 4.089396286010742188e+01 -1.829330444335937500e+01 2.618679404258728027e-01 -1.326462030410766602e-01 3.876651823520660400e-02 -4.424709975719451904e-01
2.651000000000000000e+03 7.386238861083984375e+01 5.134926795959472656e+00 -9.244299679994583130e-02 5.902577400207519531e+00 1.743040442466735840e+00 6.904307603836059570e-01
2.652000000000000000e+03 7.153258514404296875e+01 -1.155202007293701172e+01 -4.611608982086181641e-01 4.912956714630126953e+00 1.335538744926452637e+00 6.272398829460144043e-01
2.653000000000000000e+03 7.220450592041015625e+01 -1.059425354003906250e+01 -4.019417166709899902e-01 5.061994552612304688e+00 1.398015737533569336e+00 6.234686970710754395e-01
2.654000000000000000e+03 4.185054016113281250e+01 -3.207880783081054688e+01 2.431351095438003540e-01 -3.444866091012954712e-02 6.260593980550765991e-02 2.977034822106361389e-02
2.655000000000000000e+03 4.055202865600585938e+01 -3.053256225585937500e+01 1.906780600547790527e-01 -1.443308293819427490e-01 1.390416733920574188e-02 2.147133834660053253e-02
2.656000000000000000e+03 7.119197845458984375e+01 8.625555038452148438e+00 -4.836959242820739746e-01 3.270288467407226562e+00 8.359777927398681641e-01 4.662668406963348389e-01
2.657000000000000000e+03 7.315688133239746094e+00 3.221548461914062500e+01 -4.946835906594060361e-05 -8.329751901328563690e-03 -2.513766055926680565e-03 4.691549111157655716e-03
2.658000000000000000e+03 7.485679626464843750e+01 3.706955671310424805e+00 -2.529155462980270386e-02 6.661188125610351562e+00 1.990768909454345703e+00 6.627408266067504883e-01
2.659000000000000000e+03 7.415962219238281250e+01 -1.751667785644531250e+01 3.349350988864898682e-01 5.582258701324462891e+00 1.775158166885375977e+00 8.659924268722534180e-01
2.660000000000000000e+03 1.157751083374023438e+01 1.631591033935546875e+01 6.695873453281819820e-04 -1.780076534487307072e-03 -3.331467451062053442e-04 3.715927596203982830e-05
2.661000000000000000e+03 7.009595489501953125e+01 -3.165429496765136719e+01 -4.812008142471313477e-02 3.871785163879394531e+00 1.147099614143371582e+00 3.952232599258422852e-01
2.662000000000000000e+03 4.120931243896484375e+01 -7.899540424346923828e+00 -5.688798427581787109e-01 -1.615381091833114624e-01 -2.191253900527954102e-01 -1.063862890005111694e-01
2.663000000000000000e+03 4.122664260864257812e+01 -6.688141822814941406e+00 -7.339525222778320312e-01 -1.534576863050460815e-01 -2.662230432033538818e-01 -1.357759833335876465e-01
2.664000000000000000e+03 7.291740417480468750e+01 -6.200384140014648438e+00 -5.803241208195686340e-02 5.179088592529296875e+00 1.536316752433776855e+00 5.629498958587646484e-01
2.665000000000000000e+03 7.283252716064453125e+01 -7.266808509826660156e+00 -1.085785999894142151e-01 5.153233528137207031e+00 1.513396501541137695e+00 5.704219937324523926e-01
2.666000000000000000e+03 6.528369426727294922e+00 1.493879222869873047e+01 2.109603810822591186e-04 -6.195934256538748741e-04 -1.225899031851440668e-04 -8.939029648900032043e-04
2.667000000000000000e+03 6.345423221588134766e+00 -1.079131031036376953e+01 -1.781270802021026611e-01 -4.951916262507438660e-02 -6.829386949539184570e-02 2.000108128413558006e-03
2.668000000000000000e+03 7.214447784423828125e+01 -2.092082977294921875e+01 8.148707747459411621e-01 5.251841068267822266e+00 1.820013523101806641e+00 4.906679987907409668e-01
2.669000000000000000e+03 7.415866088867187500e+01 -1.198552608489990234e+01 -2.452904134988784790e-01 5.876629829406738281e+00 1.689401865005493164e+00 8.419621586799621582e-01
2.670000000000000000e+03 7.335161590576171875e+01 -1.360810995101928711e+00 8.695507794618606567e-02 5.362343311309814453e+00 1.634789466857910156e+00 6.439631581306457520e-01
2.671000000000000000e+03 4.330124664306640625e+01 2.141380310058593750e+01 -2.409253567457199097e-01 6.282763183116912842e-02 -5.342931672930717468e-02 6.798463314771652222e-02
2.672000000000000000e+03 4.525196838378906250e+01 1.982302856445312500e+01 -2.555335164070129395e-01 5.805920809507369995e-02 -5.924229323863983154e-02 6.522860378026962280e-03
2.673000000000000000e+03 7.338518524169921875e+01 -2.388306236267089844e+01 3.308932781219482422e-01 5.161526203155517578e+00 1.647725820541381836e+00 1.328291445970535278e-01
2.674000000000000000e+03 7.232055664062500000e+00 -1.436869812011718750e+01 -2.720471322536468506e-01 -1.326844543218612671e-01 -1.214194744825363159e-01 -2.130670249462127686e-01
2.675000000000000000e+03 6.872859954833984375e+00 -1.213526725769042969e+01 -2.549193203449249268e-01 -8.381247520446777344e-02 -1.016195341944694519e-01 -7.396858930587768555e-02
2.676000000000000000e+03 7.555528259277343750e+01 2.273399734497070312e+01 -2.005038261413574219e+00 1.145521545410156250e+01 2.835052967071533203e+00 -2.440436840057373047e+00
2.677000000000000000e+03 7.597480773925781250e+01 2.252943229675292969e+01 -2.285110473632812500e+00 1.283691120147705078e+01 3.165540218353271484e+00 -1.497839093208312988e+00
2.678000000000000000e+03 7.655186462402343750e+01 2.187453269958496094e+01 -2.181236505508422852e+00 1.521295547485351562e+01 3.909515857696533203e+00 2.634416222572326660e-01
2.679000000000000000e+03 7.383705902099609375e+01 2.248836517333984375e+01 -1.046380177140235901e-01 5.289772510528564453e+00 1.555540442466735840e+00 -3.367586612701416016e+00
2.680000000000000000e+03 7.370654296875000000e+01 1.709510231018066406e+01 9.987655878067016602e-01 4.412804603576660156e+00 1.623471021652221680e+00 2.577331304550170898e+00
2.681000000000000000e+03 7.425090789794921875e+01 1.686787414550781250e+01 3.890986442565917969e-01 6.829428672790527344e+00 2.165558099746704102e+00 3.088099241256713867e+00
2.682000000000000000e+03 7.518933105468750000e+01 1.605961990356445312e+01 -1.300819277763366699e+00 1.023846912384033203e+01 2.681294918060302734e+00 1.771251201629638672e+00
2.683000000000000000e+03 7.516088104248046875e+01 2.271442031860351562e+01 -1.568098664283752441e+00 1.011524105072021484e+01 2.564142704010009766e+00 -2.976430416107177734e+00
2.684000000000000000e+03 7.248687744140625000e+01 1.665110015869140625e+01 7.540341615676879883e-01 2.245895385742187500e+00 8.999788761138916016e-01 9.779852628707885742e-01
2.685000000000000000e+03 7.398331451416015625e+01 1.674060249328613281e+01 5.430276989936828613e-01 5.856293201446533203e+00 1.919796228408813477e+00 2.762280702590942383e+00
2.686000000000000000e+03 7.447050476074218750e+01 1.655627632141113281e+01 -1.589535772800445557e-01 7.755795001983642578e+00 2.279052495956420898e+00 2.747603178024291992e+00
2.687000000000000000e+03 7.483370971679687500e+01 2.261351585388183594e+01 -1.128357768058776855e+00 8.781908035278320312e+00 2.296064853668212891e+00 -3.507291555404663086e+00
2.688000000000000000e+03 7.370789337158203125e+01 2.456092071533203125e+01 -5.384777188301086426e-01 5.685933113098144531e+00 1.544236540794372559e+00 -2.148759841918945312e+00
2.689000000000000000e+03 7.268897247314453125e+01 2.340733909606933594e+01 -9.397677332162857056e-02 3.374967098236083984e+00 9.842971563339233398e-01 -2.089961051940917969e+00
2.690000000000000000e+03 7.172967529296875000e+01 1.584261608123779297e+01 4.468313753604888916e-01 1.868595480918884277e+00 6.946280598640441895e-01 4.467785060405731201e-01
2.691000000000000000e+03 7.654548645019531250e+01 1.725566673278808594e+01 -1.750084400177001953e+00 1.577133846282958984e+01 4.206376075744628906e+00 -1.047393321990966797e+00
2.692000000000000000e+03 7.619268798828125000e+01 1.698496818542480469e+01 -1.957605242729187012e+00 1.431712341308593750e+01 3.707855224609375000e+00 3.786722421646118164e-01
2.693000000000000000e+03 7.203085327148437500e+01 1.610833358764648438e+01 5.630596280097961426e-01 2.034837722778320312e+00 7.793692350387573242e-01 6.813385486602783203e-01
2.694000000000000000e+03 7.233150482177734375e+01 1.633802795410156250e+01 6.689468026161193848e-01 2.310779809951782227e+00 8.939179778099060059e-01 8.775867819786071777e-01
2.695000000000000000e+03 7.409434318542480469e+00 5.334428787231445312e+00 1.524515828350558877e-04 -1.180936960736289620e-04 1.030736621032701805e-05 -5.101696297060698271e-05
2.696000000000000000e+03 7.857507705688476562e+00 6.043896675109863281e+00 2.308101247763261199e-04 -1.132883262471295893e-04 3.525653664837591350e-05 -1.960950467037037015e-04
2.697000000000000000e+03 1.482266807556152344e+01 4.528900623321533203e+00 2.626766217872500420e-04 2.864885573217179626e-05 8.739763870835304260e-05 1.831723493523895741e-04
2.698000000000000000e+03 7.649210357666015625e+01 1.553104972839355469e+01 -1.747801303863525391e+00 1.138969326019287109e+01 2.892567634582519531e+00 -3.631038069725036621e-01
2.699000000000000000e+03 7.561763763427734375e+01 1.513759613037109375e+01 -1.450178146362304688e+00 9.918546676635742188e+00 2.540510654449462891e+00 6.612748503684997559e-01
2.700000000000000000e+03 7.643335723876953125e+01 1.631113624572753906e+01 -2.047842741012573242e+00 1.279858303070068359e+01 3.225222110748291016e+00 -3.824229240417480469e-01
2.701000000000000000e+03 7.615468597412109375e+01 1.591640377044677734e+01 -1.870219111442565918e+00 1.165148735046386719e+01 2.934380531311035156e+00 9.562348574399948120e-02
2.702000000000000000e+03 1.308760738372802734e+01 -7.982112884521484375e+00 -2.037006020545959473e-01 -2.653096914291381836e-01 -1.407030820846557617e-01 -8.930447697639465332e-02
2.703000000000000000e+03 9.309420585632324219e+00 -6.225416183471679688e+00 -3.732915222644805908e-02 -1.105094775557518005e-01 -4.435158893465995789e-02 7.894177734851837158e-02
2.704000000000000000e+03 9.698795318603515625e+00 5.749140739440917969e+00 3.344707365613430738e-04 -3.923106123693287373e-05 8.857190550770610571e-05 4.573844125843606889e-05
2.705000000000000000e+03 9.070068359375000000e+00 5.709693431854248047e+00 1.890071143861860037e-04 -2.210976526839658618e-04 -9.627164217818062752e-06 -1.404721615472226404e-06
2.706000000000000000e+03 1.414542770385742188e+01 -6.115066528320312500e+00 -8.121328055858612061e-02 -1.636722236871719360e-01 -7.346565276384353638e-02 -1.146890893578529358e-01
2.707000000000000000e+03 7.099718475341796875e+01 2.489379692077636719e+01 -2.108458876609802246e-01 2.298146724700927734e+00 6.261902451515197754e-01 -1.100880384445190430e+00
2.708000000000000000e+03 1.732855606079101562e+01 -7.338669300079345703e+00 -2.806497812271118164e-01 -9.567251056432723999e-02 -1.128966808319091797e-01 -3.064011335372924805e-01
2.709000000000000000e+03 1.056390666961669922e+01 5.219279289245605469e+00 3.301263495814055204e-04 -5.050659819971770048e-05 8.388592686969786882e-05 9.261885861633345485e-05
2.710000000000000000e+03 9.854593276977539062e+00 5.146673679351806641e+00 1.883566146716475487e-04 -1.938060158863663673e-04 -1.634819454920943826e-06 -3.036272755707614124e-05
2.711000000000000000e+03 7.165000152587890625e+01 1.478829193115234375e+01 5.416431650519371033e-02 2.300606250762939453e+00 7.064311504364013672e-01 4.547626674175262451e-01
2.712000000000000000e+03 7.568968963623046875e+01 2.324700736999511719e+01 -1.966103792190551758e+00 1.078944396972656250e+01 2.647001981735229492e+00 -1.804004788398742676e+00
2.713000000000000000e+03 7.509783935546875000e+01 2.347446823120117188e+01 -1.465642094612121582e+00 9.200550079345703125e+00 2.320472478866577148e+00 -2.382836580276489258e+00
2.714000000000000000e+03 4.660266494750976562e+01 -4.863110065460205078e+00 -7.094065546989440918e-01 8.420222997665405273e-02 -1.875613033771514893e-01 -3.684390783309936523e-01
2.715000000000000000e+03 4.821160888671875000e+01 -4.959341526031494141e+00 -6.439845561981201172e-01 4.136052355170249939e-02 -1.807872205972671509e-01 -4.181599915027618408e-01
2.716000000000000000e+03 5.606340885162353516e+00 -6.923114299774169922e+00 -3.423764184117317200e-02 -1.715203747153282166e-03 -1.078585349023342133e-02 1.113229691982269287e-01
2.717000000000000000e+03 5.963771343231201172e+00 -7.815963268280029297e+00 -7.178882509469985962e-02 -1.368742901831865311e-02 -2.564287744462490082e-02 9.421563148498535156e-02
2.718000000000000000e+03 6.384593486785888672e+00 7.148797512054443359e+00 1.770225353538990021e-04 -1.282047305721789598e-04 1.464534125261707231e-05 -2.823686809279024601e-04
2.719000000000000000e+03 1.955459785461425781e+01 -7.402367591857910156e+00 -3.308672308921813965e-01 4.915426298975944519e-02 -8.451389521360397339e-02 -3.408809006214141846e-01
2.720000000000000000e+03 6.399796485900878906e+00 9.202579498291015625e+00 5.264055798761546612e-04 -1.234179653692990541e-04 1.208962858072482049e-04 -2.935918746516108513e-04
2.721000000000000000e+03 7.534733581542968750e+01 2.455199623107910156e+01 -1.305052876472473145e+00 8.573754310607910156e+00 2.180610418319702148e+00 -1.561320543289184570e+00
2.722000000000000000e+03 7.398913574218750000e+01 2.567115783691406250e+01 -5.665738582611083984e-01 6.176284313201904297e+00 1.682913184165954590e+00 -1.688566327095031738e+00
2.723000000000000000e+03 7.306338500976562500e+01 2.432907485961914062e+01 -2.555431425571441650e-01 4.460660457611083984e+00 1.261535167694091797e+00 -2.205353021621704102e+00
2.724000000000000000e+03 1.221155166625976562e+01 -6.162901878356933594e+00 -6.113632023334503174e-02 -1.743450462818145752e-01 -7.064440846443176270e-02 -1.701624132692813873e-02
2.725000000000000000e+03 1.786649894714355469e+01 -7.942977905273437500e+00 -3.214316964149475098e-01 -7.200926542282104492e-02 -1.180322915315628052e-01 -3.494237363338470459e-01
2.726000000000000000e+03 7.310157775878906250e+01 -2.223640251159667969e+01 5.588958859443664551e-01 5.215211391448974609e+00 1.732232213020324707e+00 2.692387700080871582e-01
2.727000000000000000e+03 5.232880115509033203e+00 -9.550069808959960938e+00 -9.876494854688644409e-02 1.439150422811508179e-02 -2.531203441321849823e-02 5.200989544391632080e-02
2.728000000000000000e+03 6.669382572174072266e+00 -6.760591506958007812e+00 -4.757411032915115356e-02 -3.684888035058975220e-02 -2.532689645886421204e-02 1.077840775251388550e-01
2.729000000000000000e+03 8.272161483764648438e+00 -6.346555233001708984e+00 -3.469190001487731934e-02 -8.093892037868499756e-02 -3.468924760818481445e-02 9.351380169391632080e-02
2.730000000000000000e+03 1.018551445007324219e+01 -6.356183528900146484e+00 -5.693608522415161133e-02 -1.370214521884918213e-01 -5.818726122379302979e-02 5.381643772125244141e-02
2.731000000000000000e+03 7.412895202636718750e+01 1.224086475372314453e+01 -6.529026031494140625e-01 6.522547245025634766e+00 1.760893344879150391e+00 5.407533645629882812e-01
2.732000000000000000e+03 7.567162322998046875e+01 1.422197246551513672e+01 -1.222526192665100098e+00 9.275686264038085938e+00 2.415948152542114258e+00 3.400675952434539795e-01
2.733000000000000000e+03 2.199318122863769531e+01 -6.639893054962158203e+00 -4.123192131519317627e-01 1.430285274982452393e-01 -8.078720420598983765e-02 -2.826590240001678467e-01
2.734000000000000000e+03 5.710946273803710938e+01 -4.470815658569335938e+00 -2.719766199588775635e-01 -5.077160000801086426e-01 -2.339077889919281006e-01 1.011386588215827942e-01
2.735000000000000000e+03 5.856023406982421875e+01 -3.819456577301025391e+00 -2.202091068029403687e-01 -5.701767206192016602e-01 -2.371157407760620117e-01 1.368957012891769409e-01
2.736000000000000000e+03 2.473830795288085938e+01 -9.895009040832519531e+00 -3.398908674716949463e-01 1.682591885328292847e-01 -5.148950591683387756e-02 -3.679364323616027832e-01
2.737000000000000000e+03 7.291571807861328125e+01 -9.735891342163085938e+00 -3.101984560489654541e-01 5.255904197692871094e+00 1.483711719512939453e+00 6.139586567878723145e-01
2.738000000000000000e+03 4.886592864990234375e+01 -2.977345943450927734e+00 -9.396957755088806152e-01 5.743075162172317505e-02 -2.646794915199279785e-01 -4.684144258499145508e-01
2.739000000000000000e+03 4.416079711914062500e+01 -3.459510564804077148e+00 -9.104721546173095703e-01 1.079786643385887146e-01 -2.407480478286743164e-01 -3.502865731716156006e-01
2.740000000000000000e+03 4.456393432617187500e+01 -4.074168682098388672e+00 -8.344551920890808105e-01 9.661526978015899658e-02 -2.213519811630249023e-01 -3.326681852340698242e-01
2.741000000000000000e+03 7.337078094482421875e+01 1.262205362319946289e+00 7.472523301839828491e-02 5.412366867065429688e+00 1.646127581596374512e+00 6.754603385925292969e-01
2.742000000000000000e+03 7.492995452880859375e+01 5.016989231109619141e+00 -6.274984031915664673e-02 6.799040317535400391e+00 2.020887136459350586e+00 6.453020572662353516e-01
2.743000000000000000e+03 7.381353759765625000e+01 3.900175094604492188e+00 -3.135380521416664124e-02 5.813794612884521484e+00 1.734732270240783691e+00 7.092091441154479980e-01
2.744000000000000000e+03 4.641882324218750000e+01 -6.341285228729248047e+00 -5.308696627616882324e-01 3.497704491019248962e-02 -1.487677842378616333e-01 -2.971814274787902832e-01
2.745000000000000000e+03 4.330006790161132812e+01 -4.004996299743652344e+00 -9.105162024497985840e-01 6.135089322924613953e-02 -2.547495961189270020e-01 -3.104856014251708984e-01
2.746000000000000000e+03 7.494539642333984375e+01 1.203060054779052734e+01 -7.701469659805297852e-01 7.332758426666259766e+00 1.968783497810363770e+00 3.950270116329193115e-01
2.747000000000000000e+03 7.375224304199218750e+01 1.130930614471435547e+01 -5.611349940299987793e-01 5.902401447296142578e+00 1.602379918098449707e+00 4.992567300796508789e-01
2.748000000000000000e+03 7.034357452392578125e+01 2.522301673889160156e+01 -2.678557932376861572e-01 1.912347793579101562e+00 4.933475852012634277e-01 -9.819326400756835938e-01
2.749000000000000000e+03 7.027732849121093750e+01 2.389458656311035156e+01 -5.270022749900817871e-01 1.435797810554504395e+00 2.726386785507202148e-01 -6.576101183891296387e-01
2.750000000000000000e+03 6.095322036743164062e+01 -3.670784711837768555e+00 -1.621776260435581207e-02 -3.448653817176818848e-01 -1.083249449729919434e-01 2.092550247907638550e-01
2.751000000000000000e+03 6.164648437500000000e+01 -3.128661394119262695e+00 -3.665493428707122803e-02 -2.515821754932403564e-01 -8.647113293409347534e-02 1.846763640642166138e-01
2.752000000000000000e+03 7.497163391113281250e+01 1.014050197601318359e+01 -4.580421149730682373e-01 7.237705230712890625e+00 2.033899068832397461e+00 4.024119377136230469e-01
2.753000000000000000e+03 7.524017333984375000e+00 -1.285210895538330078e+01 -2.962539494037628174e-01 -1.225533634424209595e-01 -1.256421953439712524e-01 -1.195790171623229980e-01
2.754000000000000000e+03 7.255928802490234375e+01 -1.223046112060546875e+01 -3.699951171875000000e-01 5.350511074066162109e+00 1.494154810905456543e+00 8.055117130279541016e-01
2.755000000000000000e+03 4.068796157836914062e+01 -1.341096401214599609e+01 1.675174236297607422e-01 -2.220473885536193848e-01 -1.635898649692535400e-02 -1.209539696574211121e-01
2.756000000000000000e+03 6.309510707855224609e+00 1.017218303680419922e+01 2.363359817536547780e-04 -2.650960814207792282e-04 -8.628034265711903572e-06 -4.478510818444192410e-04
2.757000000000000000e+03 6.348794937133789062e+00 -1.498222446441650391e+01 -2.353706955909729004e-01 -1.003557518124580383e-01 -1.007179394364356995e-01 -2.287859469652175903e-01
2.758000000000000000e+03 7.472888183593750000e+01 1.458412742614746094e+01 -9.239138364791870117e-01 7.862507343292236328e+00 2.081578016281127930e+00 1.029870986938476562e+00
2.759000000000000000e+03 7.425090789794921875e+00 9.457616806030273438e+00 2.823254035320132971e-04 -3.794143558479845524e-04 -2.912668787757866085e-05 -2.947589673567563295e-04
2.760000000000000000e+03 1.235133552551269531e+01 7.731084823608398438e+00 4.882264474872499704e-04 -1.061245275195688009e-04 1.146305803558789194e-04 2.806455886457115412e-04
2.761000000000000000e+03 4.373931503295898438e+01 1.990133857727050781e+01 -2.206750661134719849e-01 5.488352105021476746e-02 -4.973746463656425476e-02 3.438007831573486328e-02
2.762000000000000000e+03 1.140668869018554688e+01 -7.696639537811279297e+00 -1.564061492681503296e-01 -2.064080983400344849e-01 -1.088442727923393250e-01 1.018423819914460182e-03
2.763000000000000000e+03 5.482757949829101562e+01 -3.859399080276489258e+00 -6.096799969673156738e-01 -4.602473080158233643e-01 -3.209781944751739502e-01 -1.735453456640243530e-01
2.764000000000000000e+03 5.311317825317382812e+01 -3.375449657440185547e+00 -8.560556769371032715e-01 -3.426898121833801270e-01 -3.596236407756805420e-01 -3.527438640594482422e-01
2.765000000000000000e+03 4.036270904541015625e+01 -2.302744674682617188e+01 5.577815230935811996e-03 -1.590676307678222656e-01 -4.604694247245788574e-02 -3.477639555931091309e-01
2.766000000000000000e+03 4.099966430664062500e+01 -2.400056457519531250e+01 4.756864905357360840e-02 -3.299250826239585876e-02 4.372842144221067429e-03 -2.674760520458221436e-01
2.767000000000000000e+03 1.250272464752197266e+01 -8.767390251159667969e+00 -2.809353470802307129e-01 -3.026299476623535156e-01 -1.750695854425430298e-01 -7.221836596727371216e-02
2.768000000000000000e+03 1.109926509857177734e+01 -8.751214027404785156e+00 -2.399500906467437744e-01 -2.397391796112060547e-01 -1.439067870378494263e-01 -6.105072796344757080e-03
2.769000000000000000e+03 2.189687347412109375e+01 -9.192965507507324219e+00 -3.786836564540863037e-01 1.498524546623229980e-01 -6.864935904741287231e-02 -3.358826041221618652e-01
2.770000000000000000e+03 2.236327743530273438e+01 -1.005180358886718750e+01 -3.692640662193298340e-01 1.679832935333251953e-01 -6.038422882556915283e-02 -3.381683528423309326e-01
2.771000000000000000e+03 7.181335449218750000e+01 1.124296188354492188e+01 -5.373990535736083984e-01 3.665274381637573242e+00 9.383625984191894531e-01 4.126415848731994629e-01
2.772000000000000000e+03 3.582182312011718750e+01 -1.148668670654296875e+01 1.534934248775243759e-02 -1.532441973686218262e-01 -4.136845469474792480e-02 -2.043569833040237427e-02
2.773000000000000000e+03 3.729475784301757812e+01 -1.266370487213134766e+01 2.195338606834411621e-01 -2.378479093313217163e-01 -5.494214128702878952e-03 -3.459880501031875610e-02
2.774000000000000000e+03 6.543136596679687500e+01 -7.840666294097900391e+00 1.790321916341781616e-01 7.842721939086914062e-01 2.889913320541381836e-01 1.757547557353973389e-01
2.775000000000000000e+03 6.303776550292968750e+01 -5.802850723266601562e+00 2.622419595718383789e-01 4.960155859589576721e-02 9.355305880308151245e-02 3.678289949893951416e-01
2.776000000000000000e+03 2.570125961303710938e+01 -8.745935440063476562e+00 -5.191147327423095703e-01 1.871072202920913696e-01 -9.960225224494934082e-02 -3.793018162250518799e-01
2.777000000000000000e+03 6.168962097167968750e+01 -5.212901592254638672e+00 1.915600001811981201e-01 -1.868187934160232544e-01 1.422360539436340332e-03 3.358632028102874756e-01
2.778000000000000000e+03 6.414208221435546875e+01 -7.405784606933593750e+00 2.179129719734191895e-01 2.756299376487731934e-01 1.480628699064254761e-01 3.365715146064758301e-01
2.779000000000000000e+03 1.093493938446044922e+01 -1.007374858856201172e+01 -3.378684520721435547e-01 -2.817170619964599609e-01 -1.858756542205810547e-01 -3.939656168222427368e-02
2.780000000000000000e+03 8.295064926147460938e+00 -1.047478103637695312e+01 -2.604456543922424316e-01 -1.396595984697341919e-01 -1.200315728783607483e-01 -4.870634991675615311e-03
2.781000000000000000e+03 7.272589874267578125e+01 -1.926094818115234375e+01 7.329645752906799316e-01 5.264310836791992188e+00 1.799182653427124023e+00 7.459512948989868164e-01
2.782000000000000000e+03 4.592798233032226562e+01 -1.296582031250000000e+01 1.565876230597496033e-02 6.979090720415115356e-02 2.563490159809589386e-02 -4.094365518540143967e-03
2.783000000000000000e+03 4.099637222290039062e+01 -2.147222518920898438e+01 1.207717582583427429e-01 -5.573065951466560364e-02 1.951232925057411194e-02 -4.354848563671112061e-01
2.784000000000000000e+03 6.991039276123046875e+01 4.424407958984375000e+00 -1.408324837684631348e-01 2.668608427047729492e+00 7.583327889442443848e-01 5.233975052833557129e-01
2.785000000000000000e+03 7.256838226318359375e+01 7.566301822662353516e+00 -3.151209652423858643e-01 4.688041210174560547e+00 1.311876058578491211e+00 5.892269015312194824e-01
2.786000000000000000e+03 4.424396896362304688e+01 -1.027535152435302734e+01 -2.016875743865966797e-01 -5.780424550175666809e-02 -7.784754782915115356e-02 -6.872706115245819092e-02
2.787000000000000000e+03 4.189873886108398438e+01 -1.239704990386962891e+01 1.299362722784280777e-02 -1.468227207660675049e-01 -4.014872759580612183e-02 -8.919648081064224243e-02
2.788000000000000000e+03 4.191047286987304688e+01 -1.355595302581787109e+01 1.123643517494201660e-01 -1.520929634571075439e-01 -1.191858481615781784e-02 -1.276250481605529785e-01
2.789000000000000000e+03 1.383681392669677734e+01 5.381812095642089844e+00 3.212517185602337122e-04 2.062901694444008172e-05 1.025642195600084960e-04 2.248043456347659230e-04
2.790000000000000000e+03 7.036830902099609375e+01 3.319264888763427734e+00 -8.720433339476585388e-03 3.122084617614746094e+00 9.340092539787292480e-01 5.728183388710021973e-01
2.791000000000000000e+03 2.451243972778320312e+01 -8.145690917968750000e+00 -5.290842652320861816e-01 2.089552581310272217e-01 -9.603870660066604614e-02 -3.460197150707244873e-01
2.792000000000000000e+03 3.903052139282226562e+01 -1.540793895721435547e+01 4.231473505496978760e-01 -3.033664822578430176e-01 3.593425452709197998e-02 -2.451899647712707520e-01
2.793000000000000000e+03 6.622089862823486328e+00 1.618850326538085938e+01 4.647168098017573357e-04 -6.303834379650652409e-04 -4.969999645254574716e-05 -9.286098065786063671e-04
2.794000000000000000e+03 6.912170410156250000e+01 3.047351455688476562e+01 4.840763807296752930e-01 2.390683889389038086e+00 8.624280691146850586e-01 -8.424069881439208984e-01
2.795000000000000000e+03 5.925492095947265625e+01 -4.913089275360107422e+00 1.364228688180446625e-02 -4.697830379009246826e-01 -1.368422210216522217e-01 2.650161683559417725e-01
2.796000000000000000e+03 7.450038146972656250e+01 -4.959175109863281250e+00 -8.239739574491977692e-03 6.114000320434570312e+00 1.831728100776672363e+00 5.526653528213500977e-01
2.797000000000000000e+03 1.255856704711914062e+01 1.159037113189697266e+01 7.579379598610103130e-04 -5.296440212987363338e-04 6.848818156868219376e-05 5.465676658786833286e-04
2.798000000000000000e+03 4.479425430297851562e+01 -6.124657154083251953e+00 -6.362279653549194336e-01 3.656490892171859741e-02 -1.798989176750183105e-01 -2.587959468364715576e-01
2.799000000000000000e+03 7.564634799957275391e+00 2.320639991760253906e+01 -1.531262299977242947e-03 -2.229072153568267822e-03 -1.128100324422121048e-03 3.326365549582988024e-04
2.800000000000000000e+03 6.577165603637695312e+00 2.457300758361816406e+01 -1.426632865332067013e-03 -1.697667292319238186e-03 -9.372900822199881077e-04 5.848910077475011349e-04
2.801000000000000000e+03 7.472582817077636719e+00 -2.274461936950683594e+01 1.598128676414489746e-01 -2.661670446395874023e-01 -3.190625458955764771e-02 -3.157318234443664551e-01
2.802000000000000000e+03 7.382693481445312500e+01 6.371324062347412109e+00 -1.800747364759445190e-01 5.873322486877441406e+00 1.707974314689636230e+00 6.399991512298583984e-01
2.803000000000000000e+03 6.106639385223388672e+00 -2.696349525451660156e+01 1.272880285978317261e-01 -3.380897939205169678e-01 -6.324052810668945312e-02 -1.655979454517364502e-01
2.804000000000000000e+03 9.559766769409179688e+00 -2.890208625793457031e+01 1.904620230197906494e-01 -1.433995366096496582e-01 1.411874499171972275e-02 -1.207563653588294983e-01
2.805000000000000000e+03 7.009217071533203125e+01 7.246160984039306641e+00 -4.003031849861145020e-01 2.371501445770263672e+00 5.913594365119934082e-01 3.888751566410064697e-01
2.806000000000000000e+03 7.046975708007812500e+01 5.976576805114746094e+00 -2.692486345767974854e-01 2.894515752792358398e+00 7.875801324844360352e-01 5.166900753974914551e-01
2.807000000000000000e+03 4.229674530029296875e+01 1.980815887451171875e+01 -1.913701444864273071e-01 4.608750343322753906e-02 -4.358479380607604980e-02 3.888193517923355103e-02
2.808000000000000000e+03 4.364290618896484375e+01 -8.583364486694335938e+00 -4.111752808094024658e-01 -6.197839975357055664e-02 -1.419461071491241455e-01 -1.181759759783744812e-01
2.809000000000000000e+03 4.243063354492187500e+01 -8.069278717041015625e+00 -4.911608099937438965e-01 -1.007939130067825317e-01 -1.775864213705062866e-01 -1.059322357177734375e-01
2.810000000000000000e+03 4.000806808471679688e+01 -1.689398574829101562e+01 3.483150005340576172e-01 -2.463538348674774170e-01 3.058834746479988098e-02 -3.757311701774597168e-01
2.811000000000000000e+03 4.052343750000000000e+01 -1.456478214263916016e+01 2.682873010635375977e-01 -2.314890176057815552e-01 1.103948708623647690e-02 -1.941011250019073486e-01
2.812000000000000000e+03 6.804960632324218750e+01 -6.500817775726318359e+00 8.989777415990829468e-02 2.308407783508300781e+00 7.194916605949401855e-01 2.592454552650451660e-01
2.813000000000000000e+03 7.401795959472656250e+01 -2.282954025268554688e+01 4.217016994953155518e-01 5.262418746948242188e+00 1.705236196517944336e+00 2.566805183887481689e-01
2.814000000000000000e+03 1.317564392089843750e+01 2.171707916259765625e+01 -4.521977622061967850e-03 -3.140133107081055641e-03 -2.298633335158228874e-03 1.551744877360761166e-03
2.815000000000000000e+03 7.265077972412109375e+01 -3.201672744750976562e+01 -7.721854001283645630e-02 4.484680652618408203e+00 1.322238683700561523e+00 2.182366251945495605e-01
2.816000000000000000e+03 8.416257858276367188e+00 -2.911035537719726562e+01 1.646774560213088989e-01 -2.053681761026382446e-01 -1.220722030848264694e-02 -1.164045333862304688e-01
2.817000000000000000e+03 4.440962219238281250e+01 -7.671517372131347656e+00 -4.709542393684387207e-01 -2.038970962166786194e-02 -1.474031805992126465e-01 -1.696145534515380859e-01
2.818000000000000000e+03 3.702462005615234375e+01 -7.644353389739990234e+00 -7.932409644126892090e-01 -2.054045945405960083e-01 -2.995936572551727295e-01 -1.063952371478080750e-01
2.819000000000000000e+03 3.227268600463867188e+01 -1.038794136047363281e+01 -2.256488949060440063e-01 -5.892381444573402405e-02 -8.537181466817855835e-02 -2.052688151597976685e-01
2.820000000000000000e+03 7.465557861328125000e+01 -1.106097698211669922e+01 -2.137228995561599731e-01 6.053447246551513672e+00 1.751917362213134766e+00 7.582086920738220215e-01
2.821000000000000000e+03 4.187259292602539062e+01 2.138235473632812500e+01 -2.000046968460083008e-01 4.662923514842987061e-02 -4.601263999938964844e-02 7.274920493364334106e-02
2.822000000000000000e+03 4.214235305786132812e+01 -9.163354873657226562e+00 -3.655580282211303711e-01 -1.284166723489761353e-01 -1.481924057006835938e-01 -8.643636107444763184e-02
2.823000000000000000e+03 7.219659423828125000e+01 -9.078522682189941406e+00 -2.663814425468444824e-01 4.936736583709716797e+00 1.401106476783752441e+00 5.606092214584350586e-01
2.824000000000000000e+03 6.584399414062500000e+01 1.525093913078308105e-01 4.276872053742408752e-02 8.180873394012451172e-01 2.582568228244781494e-01 1.761526018381118774e-01
2.825000000000000000e+03 7.577485656738281250e+01 3.461433792114257812e+01 1.744913160800933838e-01 6.450689792633056641e+00 1.987554311752319336e+00 -6.522889137268066406e-01
2.826000000000000000e+03 7.190772247314453125e+01 -1.785997390747070312e+01 6.481105685234069824e-01 5.339146137237548828e+00 1.796176910400390625e+00 9.304909706115722656e-01
2.827000000000000000e+03 3.848932647705078125e+01 2.587196350097656250e+01 -1.148949787020683289e-01 -6.261901464313268661e-03 -3.634706139564514160e-02 1.254048794507980347e-01
2.828000000000000000e+03 3.620865631103515625e+01 2.648851394653320312e+01 -7.939799875020980835e-02 -2.861756458878517151e-02 -3.240466862916946411e-02 1.122739091515541077e-01
2.829000000000000000e+03 3.162753105163574219e+01 2.735766029357910156e+01 -3.708833828568458557e-02 -5.622177198529243469e-02 -2.799303270876407623e-02 8.107954263687133789e-02
2.830000000000000000e+03 3.254759979248046875e+01 2.538635253906250000e+01 -6.785357743501663208e-02 -4.359751194715499878e-02 -3.343532606959342957e-02 7.947729527950286865e-02
2.831000000000000000e+03 7.276247406005859375e+01 -8.284858703613281250e+00 -1.960642933845520020e-01 5.169184684753417969e+00 1.491936087608337402e+00 5.754134058952331543e-01
2.832000000000000000e+03 7.173386383056640625e+01 -5.946668624877929688e+00 -2.735087648034095764e-02 4.496601581573486328e+00 1.340775251388549805e+00 5.016214251518249512e-01
2.833000000000000000e+03 5.955177688598632812e+01 -4.010422229766845703e+00 -1.191153749823570251e-01 -4.625604450702667236e-01 -1.745027452707290649e-01 2.013345509767532349e-01
2.834000000000000000e+03 7.086212158203125000e+01 -2.926990890502929688e+01 -9.219136089086532593e-02 4.357256412506103516e+00 1.279519557952880859e+00 3.638457655906677246e-01
2.835000000000000000e+03 6.868846893310546875e+01 2.348895072937011719e+00 2.612872608006000519e-02 2.064524650573730469e+00 6.271959543228149414e-01 4.342252016067504883e-01
2.836000000000000000e+03 4.598667526245117188e+01 2.559692764282226562e+01 -2.867724895477294922e-01 5.292004346847534180e-02 -7.015573233366012573e-02 2.232183963060379028e-01
2.837000000000000000e+03 7.053773498535156250e+01 3.325812149047851562e+01 6.002902984619140625e-01 3.463123321533203125e+00 1.219024062156677246e+00 -8.391975760459899902e-01
2.838000000000000000e+03 7.314888000488281250e+01 3.050242805480957031e+01 2.200441956520080566e-01 4.886565685272216797e+00 1.531983017921447754e+00 -1.119850873947143555e+00
2.839000000000000000e+03 6.338045501708984375e+01 -8.384845256805419922e-01 -9.576328098773956299e-02 2.277603745460510254e-02 -2.189617417752742767e-02 9.682853706181049347e-03
2.840000000000000000e+03 7.425320434570312500e+01 -2.552111244201660156e+01 1.214531064033508301e-01 5.158121585845947266e+00 1.583872437477111816e+00 5.849345028400421143e-02
2.841000000000000000e+03 7.216085815429687500e+01 1.267620086669921875e+00 9.514488279819488525e-02 4.550259113311767578e+00 1.393621087074279785e+00 6.940523982048034668e-01
2.842000000000000000e+03 7.498702239990234375e+01 1.662354469299316406e+01 -7.874316573143005371e-01 9.987848281860351562e+00 2.760124921798706055e+00 2.793899774551391602e+00
2.843000000000000000e+03 7.393578338623046875e+01 1.708785820007324219e+01 9.406891465187072754e-01 5.123688220977783203e+00 1.819313168525695801e+00 2.932193040847778320e+00
2.844000000000000000e+03 7.418806457519531250e+01 2.236203956604003906e+01 -3.018155992031097412e-01 6.450285434722900391e+00 1.844540953636169434e+00 -3.765954732894897461e+00
2.845000000000000000e+03 7.580673217773437500e+01 1.617479705810546875e+01 -1.849978089332580566e+00 1.183373451232910156e+01 2.995126724243164062e+00 9.098029136657714844e-01
2.846000000000000000e+03 7.329222869873046875e+01 1.693899345397949219e+01 9.606800079345703125e-01 3.344483852386474609e+00 1.291549205780029297e+00 1.879710078239440918e+00
2.847000000000000000e+03 7.524205017089843750e+01 1.679251480102539062e+01 -1.098214030265808105e+00 1.125999641418457031e+01 3.048534870147705078e+00 2.735312938690185547e+00
2.848000000000000000e+03 7.227681732177734375e+01 1.582881927490234375e+01 4.340927004814147949e-01 2.490233898162841797e+00 8.772979974746704102e-01 7.319287657737731934e-01
2.849000000000000000e+03 7.263786315917968750e+01 1.484733486175537109e+01 -1.441857963800430298e-02 3.919277191162109375e+00 1.171457529067993164e+00 9.301113486289978027e-01
2.850000000000000000e+03 7.676268768310546875e+01 1.499616146087646484e+01 -1.536883115768432617e+00 1.090066051483154297e+01 2.809133052825927734e+00 -6.415086984634399414e-01
2.851000000000000000e+03 7.496363830566406250e+01 1.385999298095703125e+01 -9.510939121246337891e-01 7.962681293487548828e+00 2.103476285934448242e+00 6.416152119636535645e-01
2.852000000000000000e+03 1.197889041900634766e+01 6.087051391601562500e+00 1.816659787436947227e-04 -2.123397280229255557e-04 -9.202125511365011334e-06 7.134687621146440506e-05
2.853000000000000000e+03 7.489802551269531250e+01 2.300317192077636719e+01 -1.314358949661254883e+00 8.998193740844726562e+00 2.305150508880615234e+00 -2.960080623626708984e+00
2.854000000000000000e+03 7.450070953369140625e+01 2.371844673156738281e+01 -9.446626901626586914e-01 7.307420730590820312e+00 1.908827424049377441e+00 -2.542856216430664062e+00
2.855000000000000000e+03 8.612480163574218750e+00 6.719898700714111328e+00 3.739656240213662386e-04 -2.201396710006520152e-04 4.614779027178883553e-05 3.309951580376946367e-06
2.856000000000000000e+03 1.178512382507324219e+01 6.801028728485107422e+00 4.249432240612804890e-04 -5.605211117654107511e-05 1.106673371396027505e-04 2.037131926044821739e-04
2.857000000000000000e+03 7.387232971191406250e+01 2.378054428100585938e+01 -5.592976808547973633e-01 5.986419200897216797e+00 1.628136515617370605e+00 -2.573879718780517578e+00
2.858000000000000000e+03 7.261923980712890625e+01 1.315203762054443359e+01 -4.097059667110443115e-01 4.394062519073486328e+00 1.195307016372680664e+00 6.020943522453308105e-01
2.859000000000000000e+03 7.172850036621093750e+01 1.390564632415771484e+01 -2.122213542461395264e-01 2.893771409988403320e+00 8.044650554656982422e-01 4.786843657493591309e-01
2.860000000000000000e+03 1.026720619201660156e+01 -7.206810474395751953e+00 -1.045563668012619019e-01 -1.545062065124511719e-01 -7.771877199411392212e-02 4.759531095623970032e-02
2.861000000000000000e+03 7.325846099853515625e+01 2.363013648986816406e+01 -2.168975472450256348e-01 4.590969085693359375e+00 1.312221407890319824e+00 -2.431461572647094727e+00
2.862000000000000000e+03 7.337535095214843750e+01 2.535496520996093750e+01 -3.937959969043731689e-01 5.076423168182373047e+00 1.404788136482238770e+00 -1.881923198699951172e+00
2.863000000000000000e+03 7.277280426025390625e+01 1.184420967102050781e+01 -5.039253830909729004e-01 4.698518276214599609e+00 1.258377790451049805e+00 5.058686137199401855e-01
2.864000000000000000e+03 7.521821594238281250e+01 1.282564449310302734e+01 -8.253700137138366699e-01 7.874635219573974609e+00 2.114779472351074219e+00 3.621619045734405518e-01
2.865000000000000000e+03 7.532795715332031250e+01 1.486220169067382812e+01 -1.258194327354431152e+00 9.205626487731933594e+00 2.384229660034179688e+00 8.140293359756469727e-01
2.866000000000000000e+03 7.161936187744140625e+01 2.479713439941406250e+01 -1.654588282108306885e-01 3.078016996383666992e+00 8.737674355506896973e-01 -1.417392969131469727e+00
2.867000000000000000e+03 7.178940582275390625e+01 2.535732984542846680e+00 5.007924512028694153e-02 4.282187938690185547e+00 1.299680233001708984e+00 6.844168305397033691e-01
2.868000000000000000e+03 6.940622329711914062e+00 -7.563586235046386719e+00 -7.208541780710220337e-02 -4.936407878994941711e-02 -3.643484786152839661e-02 9.893704950809478760e-02
2.869000000000000000e+03 1.223396301269531250e+01 -6.968855857849121094e+00 -1.177370026707649231e-01 -2.033150792121887207e-01 -9.631562232971191406e-02 -2.550357021391391754e-02
2.870000000000000000e+03 7.559316635131835938e+00 -6.590937614440917969e+00 -4.066294059157371521e-02 -6.150012835860252380e-02 -3.064892068505287170e-02 1.062296479940414429e-01
2.871000000000000000e+03 9.251428604125976562e+00 -7.608632564544677734e+00 -1.164029091596603394e-01 -1.412732005119323730e-01 -7.730283588171005249e-02 6.147333979606628418e-02
2.872000000000000000e+03 4.010076522827148438e+01 -7.798452854156494141e+00 -6.348870396614074707e-01 -1.910522133111953735e-01 -2.477817684412002563e-01 -9.086255729198455811e-02
2.873000000000000000e+03 7.229825592041015625e+01 -1.442560076713562012e+00 1.157606691122055054e-01 4.726402282714843750e+00 1.452648878097534180e+00 6.330245137214660645e-01
2.874000000000000000e+03 7.353920745849609375e+01 -5.328231811523437500e+00 -1.503596268594264984e-02 5.431372642517089844e+00 1.624901056289672852e+00 5.797172784805297852e-01
2.875000000000000000e+03 7.444834899902343750e+01 1.300941753387451172e+01 -7.827658653259277344e-01 6.999859809875488281e+00 1.865128278732299805e+00 6.588222980499267578e-01
2.876000000000000000e+03 7.085247802734375000e+01 4.799089908599853516e+00 -1.296255439519882202e-01 3.322513818740844727e+00 9.578664898872375488e-01 5.959904193878173828e-01
2.877000000000000000e+03 4.336177062988281250e+01 -5.571742534637451172e+00 -7.800198793411254883e-01 -2.985901846841443330e-05 -2.340149134397506714e-01 -2.422903776168823242e-01
2.878000000000000000e+03 6.368893432617187500e+01 -2.864830970764160156e+00 1.237267777323722839e-01 2.245821356773376465e-01 1.044926717877388000e-01 2.123616337776184082e-01
2.879000000000000000e+03 4.593936157226562500e+01 1.632683753967285156e+01 -1.018002480268478394e-01 2.586305374279618263e-03 -2.976418286561965942e-02 -2.412418648600578308e-02
2.880000000000000000e+03 3.826876068115234375e+01 -1.063487148284912109e+01 -1.826481223106384277e-01 -2.207763791084289551e-01 -1.210273504257202148e-01 -3.100809827446937561e-02
2.881000000000000000e+03 6.895927429199218750e+01 3.947499513626098633e+00 -1.078182682394981384e-01 2.112061023712158203e+00 6.012728214263916016e-01 4.261037707328796387e-01
2.882000000000000000e+03 5.149798870086669922e+00 -1.068077659606933594e+01 -1.302084922790527344e-01 1.574544981122016907e-02 -3.433891013264656067e-02 1.561377663165330887e-02
2.883000000000000000e+03 6.315001964569091797e+00 -8.642725944519042969e+00 -1.070552840828895569e-01 -3.529421612620353699e-02 -4.270485043525695801e-02 7.926040887832641602e-02
2.884000000000000000e+03 7.439466857910156250e+01 2.489634323120117188e+01 -8.289356827735900879e-01 6.878849983215332031e+00 1.814974308013916016e+00 -1.978087544441223145e+00
2.885000000000000000e+03 1.150870323181152344e+01 1.355566501617431641e+01 1.203220104798674583e-03 -1.428839867003262043e-03 -6.768594903405755758e-05 4.659779369831085205e-05
2.886000000000000000e+03 1.214537525177001953e+01 1.037073326110839844e+01 7.613412453792989254e-04 -4.021412460133433342e-04 1.077600027201697230e-04 3.460436419118195772e-04
2.887000000000000000e+03 7.328295135498046875e+01 2.624449729919433594e+01 -2.880843877792358398e-01 5.090340614318847656e+00 1.440676808357238770e+00 -1.609352827072143555e+00
2.888000000000000000e+03 1.078233718872070312e+01 1.531847190856933594e+01 6.556530133821070194e-04 -1.436069724150002003e-03 -2.341250219615176320e-04 -9.366423910250887275e-05
2.889000000000000000e+03 1.179613018035888672e+01 -8.254913330078125000e+00 -2.054654508829116821e-01 -2.508710920810699463e-01 -1.369009613990783691e-01 -2.927267178893089294e-02
2.890000000000000000e+03 4.734108352661132812e+01 -5.653524398803710938e+00 -5.847424864768981934e-01 3.896268084645271301e-02 -1.637339442968368530e-01 -3.722519576549530029e-01
2.891000000000000000e+03 1.355467510223388672e+01 7.089522361755371094e+00 3.990572877228260040e-04 2.849835072993300855e-05 1.282666926272213459e-04 3.281602403149008751e-04
2.892000000000000000e+03 2.182380104064941406e+01 -7.506747245788574219e+00 -3.992712199687957764e-01 1.529723554849624634e-01 -7.388965785503387451e-02 -3.207470774650573730e-01
2.893000000000000000e+03 8.766156196594238281e+00 1.122012901306152344e+01 8.051908225752413273e-04 -6.141477497294545174e-04 5.731291821575723588e-05 -3.200196661055088043e-04
2.894000000000000000e+03 7.449955463409423828e+00 -1.127418518066406250e+01 -2.503331601619720459e-01 -1.027417927980422974e-01 -1.059224903583526611e-01 -2.886477671563625336e-02
2.895000000000000000e+03 7.313883209228515625e+01 -1.130260276794433594e+01 -3.175965845584869385e-01 5.478862762451171875e+00 1.548379898071289062e+00 7.493692040443420410e-01
2.896000000000000000e+03 3.977466964721679688e+01 -1.031450748443603516e+01 -2.034424394369125366e-01 -2.150042951107025146e-01 -1.255340278148651123e-01 -3.857759386301040649e-02
2.897000000000000000e+03 6.158027267456054688e+01 -7.067222118377685547e+00 2.099171429872512817e-01 -2.117318809032440186e-01 -5.444223061203956604e-04 4.180790483951568604e-01
2.898000000000000000e+03 5.457498073577880859e+00 1.624941062927246094e+01 7.151994850573828444e-06 -2.135573740815743804e-04 -6.192161526996642351e-05 -9.993036510422825813e-04
2.899000000000000000e+03 3.951358032226562500e+01 -1.219824504852294922e+01 7.115825265645980835e-02 -2.431671768426895142e-01 -5.160267651081085205e-02 -6.846321374177932739e-02
2.900000000000000000e+03 6.682861328125000000e+01 -5.389394760131835938e+00 2.193018496036529541e-01 1.601647734642028809e+00 5.462848544120788574e-01 3.048177957534790039e-01
2.901000000000000000e+03 6.677530670166015625e+01 -7.974677562713623047e+00 5.226224288344383240e-02 1.543362498283386230e+00 4.786874353885650635e-01 1.017064750194549561e-01
2.902000000000000000e+03 7.180295562744140625e+01 -8.289475440979003906e+00 -2.174117714166641235e-01 4.678530693054199219e+00 1.338335752487182617e+00 5.182633399963378906e-01
2.903000000000000000e+03 6.926448059082031250e+01 -6.304764747619628906e+00 1.110101304948329926e-02 3.053022384643554688e+00 9.192370176315307617e-01 3.515622615814208984e-01
2.904000000000000000e+03 7.827990055084228516e+00 7.214086532592773438e+00 2.571284130681306124e-04 -1.594118512002751231e-04 2.931496783276088536e-05 -2.414812188362702727e-04
2.905000000000000000e+03 5.736824512481689453e+00 -1.584540748596191406e+01 -1.571451276540756226e-01 -9.924598038196563721e-02 -7.691733539104461670e-02 -2.682726383209228516e-01
2.906000000000000000e+03 4.070363235473632812e+01 -1.218322849273681641e+01 2.342637069523334503e-02 -2.110027372837066650e-01 -5.627290904521942139e-02 -7.798224687576293945e-02
2.907000000000000000e+03 9.092597007751464844e+00 1.230609798431396484e+01 5.659075104631483555e-04 -8.821094525046646595e-04 -9.486058115726336837e-05 -2.569641801528632641e-04
2.908000000000000000e+03 7.776533126831054688e+00 1.251538181304931641e+01 8.184252656064927578e-04 -6.775067304261028767e-04 4.227555837132968009e-05 -4.757150891236960888e-04
2.909000000000000000e+03 1.151059150695800781e+01 7.486095905303955078e+00 3.104304778389632702e-04 -3.527180815581232309e-04 -1.268628693651407957e-05 7.345208723563700914e-05
2.910000000000000000e+03 8.954511642456054688e+00 -2.071594429016113281e+01 1.008306965231895447e-01 -2.541886270046234131e-01 -4.600738361477851868e-02 -3.757448196411132812e-01
2.911000000000000000e+03 7.485895156860351562e+00 2.431288909912109375e+01 -2.266664057970046997e-03 -2.422246849164366722e-03 -1.406673341989517212e-03 1.011031912639737129e-03
2.912000000000000000e+03 1.066891479492187500e+01 3.027413558959960938e+01 -2.300381194800138474e-03 -1.125022489577531815e-02 -4.065182060003280640e-03 7.686565164476633072e-03
2.913000000000000000e+03 1.453128623962402344e+01 2.208992767333984375e+01 -6.937626283615827560e-03 -3.024192061275243759e-03 -2.988545456901192665e-03 2.215950982645153999e-03
2.914000000000000000e+03 1.423232650756835938e+01 1.137682247161865234e+01 6.942616892047226429e-04 -1.358176523353904486e-04 1.675332168815657496e-04 7.562990649603307247e-04
2.915000000000000000e+03 4.430514907836914062e+01 -5.268569946289062500e+00 -7.586523890495300293e-01 6.175718083977699280e-02 -2.090685665607452393e-01 -2.806940078735351562e-01
2.916000000000000000e+03 6.986424255371093750e+01 9.252765178680419922e-01 1.092761904001235962e-01 2.996500730514526367e+00 9.317330718040466309e-01 5.538272857666015625e-01
2.917000000000000000e+03 7.101917266845703125e+01 1.085743188858032227e+00 1.019930168986320496e-01 3.756113767623901367e+00 1.157432079315185547e+00 6.662894487380981445e-01
2.918000000000000000e+03 7.511789321899414062e+00 8.766417503356933594e+00 5.757072358392179012e-04 -2.245137584395706654e-04 1.053580490406602621e-04 -2.146231563528999686e-04
2.919000000000000000e+03 6.264671707153320312e+01 -2.963168144226074219e+00 2.834113873541355133e-02 -5.668695643544197083e-02 -8.503745310008525848e-03 1.909826844930648804e-01
2.920000000000000000e+03 7.160744476318359375e+01 -4.498527050018310547e+00 4.609243944287300110e-02 4.358692169189453125e+00 1.321435332298278809e+00 5.338582992553710938e-01
2.921000000000000000e+03 6.500319004058837891e+00 1.369179248809814453e+01 6.542109767906367779e-04 -4.172677872702479362e-04 7.108294812496751547e-05 -7.239984115585684776e-04
2.922000000000000000e+03 6.444219112396240234e+00 -9.665925025939941406e+00 -1.563268899917602539e-01 -4.704464599490165710e-02 -6.101146340370178223e-02 4.431462660431861877e-02
2.923000000000000000e+03 6.361249542236328125e+01 3.121631622314453125e+01 5.146326422691345215e-01 4.671629071235656738e-01 2.945386767387390137e-01 -9.466519579291343689e-03
2.924000000000000000e+03 7.175936126708984375e+01 2.968303298950195312e+01 2.689366638660430908e-01 3.897982358932495117e+00 1.250075697898864746e+00 -1.156182050704956055e+00
2.925000000000000000e+03 4.445220947265625000e+01 2.193131065368652344e+01 -2.684469521045684814e-01 7.007718831300735474e-02 -5.951092764735221863e-02 7.564499974250793457e-02
2.926000000000000000e+03 6.126819610595703125e+01 -2.036339044570922852e+00 -2.307282686233520508e-01 -3.658468425273895264e-01 -1.789725273847579956e-01 3.039174154400825500e-02
2.927000000000000000e+03 7.113306427001953125e+01 -1.501924157142639160e+00 1.560997813940048218e-01 3.924284458160400391e+00 1.224115252494812012e+00 5.972850322723388672e-01
2.928000000000000000e+03 7.286061286926269531e+00 -2.477408409118652344e+01 1.761623620986938477e-01 -2.737757563591003418e-01 -2.928401529788970947e-02 -2.336980551481246948e-01
2.929000000000000000e+03 6.263113021850585938e+00 2.741358375549316406e+01 -1.901697600260376930e-03 -2.911988180130720139e-03 -1.444105757400393486e-03 2.056573284789919853e-03
2.930000000000000000e+03 7.119293212890625000e+01 -3.323979949951171875e+01 -1.544336788356304169e-02 4.084564685821533203e+00 1.220736384391784668e+00 2.872497737407684326e-01
2.931000000000000000e+03 7.382295989990234375e+01 1.614599037170410156e+01 1.453252583742141724e-01 5.719430446624755859e+00 1.759426712989807129e+00 2.156212091445922852e+00
2.932000000000000000e+03 7.414819335937500000e+01 1.633267211914062500e+01 7.041561882942914963e-03 6.699086189270019531e+00 2.011838436126708984e+00 2.429184436798095703e+00
2.933000000000000000e+03 7.548683166503906250e+01 1.552425575256347656e+01 -1.460922598838806152e+00 1.010933971405029297e+01 2.594525098800659180e+00 9.804139733314514160e-01
2.934000000000000000e+03 7.584153747558593750e+01 1.564932537078857422e+01 -1.712154507637023926e+00 1.101431560516357422e+01 2.790648221969604492e+00 4.763191342353820801e-01
2.935000000000000000e+03 7.256250762939453125e+01 1.563628578186035156e+01 2.996151447296142578e-01 3.335585832595825195e+00 1.090560317039489746e+00 1.006193280220031738e+00
2.936000000000000000e+03 7.517680358886718750e+01 1.438249969482421875e+01 -1.096765756607055664e+00 8.608295440673828125e+00 2.253458976745605469e+00 7.134105563163757324e-01
2.937000000000000000e+03 7.427085113525390625e+01 1.475980472564697266e+01 -7.291572093963623047e-01 7.093596458435058594e+00 1.909331798553466797e+00 1.273905515670776367e+00
2.938000000000000000e+03 7.286942291259765625e+01 1.387541580200195312e+01 -3.423229753971099854e-01 4.662879467010498047e+00 1.296166896820068359e+00 8.242710828781127930e-01
2.939000000000000000e+03 7.222498321533203125e+01 1.432597064971923828e+01 -1.315023452043533325e-01 3.406156063079833984e+00 9.823960661888122559e-01 6.230030059814453125e-01
2.940000000000000000e+03 9.323884963989257812e+00 6.254134654998779297e+00 2.573509700596332550e-04 -1.991358876693993807e-04 1.746452835504896939e-05 -9.083203622139990330e-05
2.941000000000000000e+03 7.447308349609375000e+01 2.255920600891113281e+01 -7.125779390335083008e-01 7.566614151000976562e+00 2.056210756301879883e+00 -3.647145271301269531e+00
2.942000000000000000e+03 1.037313556671142578e+01 5.895452976226806641e+00 2.085451415041461587e-04 -2.225487405667081475e-04 -4.201079264021245763e-06 -1.607375088497065008e-05
2.943000000000000000e+03 7.075929164886474609e+00 6.537792682647705078e+00 3.467646602075546980e-04 -1.191093688248656690e-04 6.829658377682790160e-05 -6.667738489340990782e-05
2.944000000000000000e+03 9.699936866760253906e+00 -8.459000587463378906e+00 -1.818352639675140381e-01 -1.691950857639312744e-01 -1.053091064095497131e-01 4.173443838953971863e-02
2.945000000000000000e+03 1.216981887817382812e+01 -7.683539390563964844e+00 -1.711549758911132812e-01 -2.402372956275939941e-01 -1.234176829457283020e-01 -3.534583374857902527e-02
2.946000000000000000e+03 4.574629974365234375e+01 -5.535668373107910156e+00 -6.694116592407226562e-01 6.358777731657028198e-02 -1.817471683025360107e-01 -3.211618661880493164e-01
2.947000000000000000e+03 4.543886947631835938e+01 -6.997744083404541016e+00 -5.287864208221435547e-01 1.875408738851547241e-02 -1.530096977949142456e-01 -2.344824373722076416e-01
2.948000000000000000e+03 1.060119533538818359e+01 -8.012291908264160156e+00 -1.671135425567626953e-01 -2.018184214830398560e-01 -1.106795892119407654e-01 1.901532523334026337e-02
2.949000000000000000e+03 1.020681858062744141e+01 1.805981063842773438e+01 -2.179204602725803852e-04 -2.597168087959289551e-03 -8.445265702903270721e-04 -5.384960677474737167e-04
2.950000000000000000e+03 9.096583366394042969e+00 1.704936408996582031e+01 5.166316259419545531e-05 -1.977237174287438393e-03 -5.776722100563347340e-04 -7.755917613394558430e-04
2.951000000000000000e+03 7.047431182861328125e+01 -6.089519500732421875e+00 1.073123305104672909e-03 3.743705987930297852e+00 1.123433709144592285e+00 4.447019398212432861e-01
2.952000000000000000e+03 7.057065582275390625e+01 -7.395839691162109375e+00 -1.339721381664276123e-01 3.898985147476196289e+00 1.129503965377807617e+00 4.130848944187164307e-01
2.953000000000000000e+03 4.258911514282226562e+01 -1.058097934722900391e+01 -1.737096160650253296e-01 -1.278525441884994507e-01 -9.046865254640579224e-02 -6.792584061622619629e-02
2.954000000000000000e+03 8.726504325866699219e+00 -8.965342521667480469e+00 -1.929194033145904541e-01 -1.438798010349273682e-01 -1.010397672653198242e-01 4.036373272538185120e-02
2.955000000000000000e+03 1.175075244903564453e+01 1.222810077667236328e+01 9.671414154581725597e-04 -9.926223428919911385e-04 -7.644257493666373193e-06 1.414783619111403823e-04
2.956000000000000000e+03 9.532917022705078125e+00 9.274530410766601562e+00 4.696894611697643995e-04 -5.099991685710847378e-04 -1.209291440318338573e-05 1.692781188467051834e-05
2.957000000000000000e+03 7.059236145019531250e+01 2.625924110412597656e+01 -5.260718986392021179e-02 2.518609046936035156e+00 7.398005723953247070e-01 -1.149068236351013184e+00
2.958000000000000000e+03 6.997398376464843750e+01 2.459859848022460938e+01 -3.877587914466857910e-01 1.518417000770568848e+00 3.391974568367004395e-01 -7.404830455780029297e-01
2.959000000000000000e+03 6.524988555908203125e+01 -5.843752622604370117e-01 3.920432180166244507e-02 6.503174901008605957e-01 2.068565487861633301e-01 1.747257411479949951e-01
2.960000000000000000e+03 6.445596313476562500e+01 -8.832297474145889282e-02 -5.962406471371650696e-02 2.834385335445404053e-01 6.714434176683425903e-02 4.132799431681632996e-02
2.961000000000000000e+03 7.282296752929687500e+01 5.180825233459472656e+00 -1.328463703393936157e-01 4.987902164459228516e+00 1.456516742706298828e+00 6.726172566413879395e-01
2.962000000000000000e+03 7.157508850097656250e+01 6.225128173828125000e+00 -2.511364519596099854e-01 3.815036058425903320e+00 1.069169878959655762e+00 5.983163118362426758e-01
2.963000000000000000e+03 6.191922760009765625e+01 -4.135756969451904297e+00 1.376806348562240601e-01 -1.655544489622116089e-01 -8.362142369151115417e-03 2.862730622291564941e-01
2.964000000000000000e+03 7.207389831542968750e+01 4.012435436248779297e+00 -5.508336797356605530e-02 4.309506416320800781e+00 1.276326894760131836e+00 6.707311868667602539e-01
2.965000000000000000e+03 9.798683166503906250e+00 8.138553619384765625e+00 5.004493868909776211e-04 -4.250483179930597544e-04 2.262032285216264427e-05 5.324498124537058175e-05
2.966000000000000000e+03 7.859976291656494141e+00 8.260826110839843750e+00 3.115060681011527777e-04 -2.202202886110171676e-04 2.738572948146611452e-05 -2.798884816002100706e-04
2.967000000000000000e+03 6.378675842285156250e+01 -3.871885061264038086e+00 2.011515945196151733e-01 3.002905547618865967e-01 1.504326462745666504e-01 2.846191823482513428e-01
2.968000000000000000e+03 6.560881805419921875e+01 -6.512888908386230469e+00 2.385589629411697388e-01 9.847879409790039062e-01 3.670040667057037354e-01 2.475459873676300049e-01
2.969000000000000000e+03 1.108527183532714844e+01 8.142641067504882812e+00 5.276278243400156498e-04 -2.496986126061528921e-04 8.337877079611644149e-05 1.766918721841648221e-04
2.970000000000000000e+03 4.095929718017578125e+01 -1.093924236297607422e+01 -1.304458975791931152e-01 -1.886875033378601074e-01 -9.574002027511596680e-02 -6.571222841739654541e-02
2.971000000000000000e+03 7.075244140625000000e+01 2.221935749053955078e+00 4.270257055759429932e-02 3.527960300445556641e+00 1.071198821067810059e+00 6.231064200401306152e-01
2.972000000000000000e+03 8.445029258728027344e+00 9.491830825805664062e+00 6.439312128350138664e-04 -3.453386016190052032e-04 8.957777754403650761e-05 -2.504101139493286610e-04
2.973000000000000000e+03 6.462602996826171875e+01 -5.114960193634033203e+00 2.554138898849487305e-01 5.947501659393310547e-01 2.550492286682128906e-01 3.013912737369537354e-01
2.974000000000000000e+03 4.115452194213867188e+01 -9.090366363525390625e+00 -3.878872990608215332e-01 -1.675808727741241455e-01 -1.666404455900192261e-01 -6.636029481887817383e-02
2.975000000000000000e+03 5.683232307434082031e+00 2.483650970458984375e+01 -1.467148424126207829e-03 -1.126656890846788883e-03 -7.781416061334311962e-04 4.470795392990112305e-04
2.976000000000000000e+03 5.930117607116699219e+00 2.606260871887207031e+01 -1.265267492271959782e-03 -1.844405778683722019e-03 -9.329019812867045403e-04 1.294578425586223602e-03
2.977000000000000000e+03 6.996855163574218750e+01 -3.315646886825561523e+00 1.606871634721755981e-01 3.314579248428344727e+00 1.042579889297485352e+00 5.077763199806213379e-01
2.978000000000000000e+03 7.030554199218750000e+01 -4.730942726135253906e+00 7.356066256761550903e-02 3.583196640014648438e+00 1.097027182579040527e+00 4.746792018413543701e-01
2.979000000000000000e+03 3.818265914916992188e+01 -1.147626304626464844e+01 -2.408674627076834440e-04 -2.339180409908294678e-01 -7.024767249822616577e-02 -3.918311744928359985e-02
2.980000000000000000e+03 3.909745025634765625e+01 -1.118237304687500000e+01 -7.501704990863800049e-02 -2.314409017562866211e-01 -9.193738549947738647e-02 -4.911320656538009644e-02
2.981000000000000000e+03 6.795029449462890625e+01 -5.260505199432373047e+00 1.715000122785568237e-01 2.185347795486450195e+00 7.070543766021728516e-01 3.406355679035186768e-01
2.982000000000000000e+03 6.573213958740234375e+01 -5.326342582702636719e+00 2.674722373485565186e-01 1.018910527229309082e+00 3.859148323535919189e-01 3.049273490905761719e-01
2.983000000000000000e+03 1.080046558380126953e+01 1.275043392181396484e+01 6.977007724344730377e-04 -9.339968673884868622e-04 -7.088884012773633003e-05 1.806346117518842220e-04
2.984000000000000000e+03 4.314891433715820312e+01 -9.644605636596679688e+00 -2.851093411445617676e-01 -9.633985906839370728e-02 -1.144347563385963440e-01 -7.638723403215408325e-02
2.985000000000000000e+03 1.096687698364257812e+01 6.648992538452148438e+00 2.586156770121306181e-04 -3.187471011187881231e-04 -1.803943086997605860e-05 5.933159263804554939e-05
2.986000000000000000e+03 1.115808677673339844e+01 5.993703365325927734e+00 3.877686103805899620e-04 -7.790474774083122611e-05 9.295915515394881368e-05 1.265603204956278205e-04
2.987000000000000000e+03 4.204291915893554688e+01 -1.144149303436279297e+01 -7.278946787118911743e-02 -1.503489911556243896e-01 -6.694153696298599243e-02 -6.880317628383636475e-02
2.988000000000000000e+03 7.014346599578857422e+00 2.578860092163085938e+01 -2.452516462653875351e-03 -2.741061151027679443e-03 -1.558073214255273342e-03 1.720358617603778839e-03
2.989000000000000000e+03 6.350837707519531250e+01 -1.841598868370056152e+00 3.496293444186449051e-03 1.460283100605010986e-01 4.485737904906272888e-02 1.119561865925788879e-01
2.990000000000000000e+03 9.316697120666503906e+00 -9.853345870971679688e+00 -2.598538398742675781e-01 -1.810771524906158447e-01 -1.322793066501617432e-01 1.069834548979997635e-02
2.991000000000000000e+03 1.022772026062011719e+01 1.189798259735107422e+01 9.633003501221537590e-04 -9.498124127276241779e-04 4.046382400701986626e-06 -8.560498827137053013e-05
2.992000000000000000e+03 8.586516380310058594e+00 1.028559970855712891e+01 4.155891947448253632e-04 -5.801582592539489269e-04 -4.937073026667349041e-05 -1.805322972359135747e-04
2.993000000000000000e+03 7.979502677917480469e+00 2.228570938110351562e+01 -1.750295865349471569e-03 -2.076394855976104736e-03 -1.148007228039205074e-03 7.762927998555824161e-05
2.994000000000000000e+03 3.939707183837890625e+01 -1.429470157623291016e+01 3.411727249622344971e-01 -2.894337773323059082e-01 1.552167627960443497e-02 -1.645898520946502686e-01
2.995000000000000000e+03 7.965589046478271484e+00 1.723878097534179688e+01 2.815485058818012476e-04 -1.204481464810669422e-03 -2.768799022305756807e-04 -8.290329133160412312e-04
2.996000000000000000e+03 8.726598739624023438e+00 1.513076686859130859e+01 4.531822924036532640e-04 -1.385034294798970222e-03 -2.795556210912764072e-04 -7.083488162606954575e-04
2.997000000000000000e+03 4.428904724121093750e+01 2.467259407043457031e+01 -2.544122934341430664e-01 5.388156697154045105e-02 -6.015921384096145630e-02 1.626399308443069458e-01
2.998000000000000000e+03 7.026745605468750000e+01 2.869954299926757812e+01 2.649389803409576416e-01 2.837061166763305664e+00 9.305999875068664551e-01 -1.067712903022766113e+00
2.999000000000000000e+03 6.708319187164306641e+00 -1.581581974029541016e+01 -2.095526754856109619e-01 -1.393643021583557129e-01 -1.046750918030738831e-01 -2.940192222595214844e-01
3.000000000000000000e+03 5.029306030273437500e+01 2.806952285766601562e+01 -2.476582527160644531e-01 -4.394606128334999084e-02 -8.748129755258560181e-02 4.560414552688598633e-01
3.001000000000000000e+03 9.261957168579101562e+00 2.900889778137207031e+01 -2.829499542713165283e-03 -7.259830366820096970e-03 -3.026798833161592484e-03 5.305641330778598785e-03
3.002000000000000000e+03 8.047852516174316406e+00 -1.998563385009765625e+01 3.911677002906799316e-02 -2.669680118560791016e-01 -6.835537403821945190e-02 -3.837527930736541748e-01
3.003000000000000000e+03 1.177529716491699219e+01 2.129783248901367188e+01 -3.219271544367074966e-03 -3.211205359548330307e-03 -1.929142978042364120e-03 5.694222636520862579e-04
3.004000000000000000e+03 6.879964447021484375e+01 5.027961730957031250e-01 1.336402446031570435e-01 2.360223531723022461e+00 7.481591701507568359e-01 5.028562545776367188e-01
3.005000000000000000e+03 4.074843215942382812e+01 2.444181442260742188e+01 -1.710212528705596924e-01 2.539966069161891937e-02 -4.368647933006286621e-02 1.229378134012222290e-01
3.006000000000000000e+03 6.679283905029296875e+01 -1.285286664962768555e+00 1.752658784389495850e-01 1.382665753364562988e+00 4.673795104026794434e-01 3.232178390026092529e-01
3.007000000000000000e+03 6.791229248046875000e+01 -1.356542706489562988e-01 1.228069961071014404e-01 1.819519996643066406e+00 5.826981067657470703e-01 4.120642542839050293e-01
3.008000000000000000e+03 7.279513835906982422e+00 -1.925266838073730469e+01 -2.045721560716629028e-02 -2.391590625047683716e-01 -7.788488268852233887e-02 -3.878225386142730713e-01
3.009000000000000000e+03 8.740386962890625000e+00 -1.904802322387695312e+01 -3.607796132564544678e-02 -2.941657304763793945e-01 -9.907310456037521362e-02 -4.198141098022460938e-01
3.010000000000000000e+03 7.562675476074218750e+01 1.645743942260742188e+01 -1.621193051338195801e+00 1.186407470703125000e+01 3.072864294052124023e+00 1.602929472923278809e+00
3.011000000000000000e+03 7.479576873779296875e+01 1.625461006164550781e+01 -7.018177509307861328e-01 8.911643981933593750e+00 2.462947845458984375e+00 2.407038927078247070e+00
3.012000000000000000e+03 7.338504028320312500e+01 1.611883735656738281e+01 3.354627490043640137e-01 4.527846336364746094e+00 1.458992719650268555e+00 1.783216834068298340e+00
3.013000000000000000e+03 7.290235137939453125e+01 1.557652473449707031e+01 2.173746377229690552e-01 3.966940164566040039e+00 1.255294442176818848e+00 1.233727455139160156e+00
3.014000000000000000e+03 7.506544494628906250e+01 1.559949684143066406e+01 -1.175032258033752441e+00 9.307120323181152344e+00 2.439626455307006836e+00 1.448837280273437500e+00
3.015000000000000000e+03 7.352558135986328125e+01 1.536622142791748047e+01 -4.304975643754005432e-02 5.312615394592285156e+00 1.580869674682617188e+00 1.529869556427001953e+00
3.016000000000000000e+03 7.336623382568359375e+01 1.497301483154296875e+01 -1.726553440093994141e-01 5.070438385009765625e+00 1.469334840774536133e+00 1.286890268325805664e+00
3.017000000000000000e+03 7.411675262451171875e+01 1.422693634033203125e+01 -7.172189950942993164e-01 6.797625541687011719e+00 1.824121952056884766e+00 1.008424639701843262e+00
3.018000000000000000e+03 7.871572971343994141e+00 -7.297640800476074219e+00 -8.331028372049331665e-02 -8.287249505519866943e-02 -4.985483363270759583e-02 8.975584059953689575e-02
3.019000000000000000e+03 7.655416011810302734e+00 -9.455304145812988281e+00 -1.788866221904754639e-01 -9.437826275825500488e-02 -8.197946846485137939e-02 4.599592834711074829e-02
3.020000000000000000e+03 7.401289367675781250e+01 1.372243881225585938e+01 -6.388455629348754883e-01 6.565851688385009766e+00 1.778101801872253418e+00 8.929713368415832520e-01
3.021000000000000000e+03 1.004126930236816406e+01 7.172592639923095703e+00 3.166321839671581984e-04 -3.450109215918928385e-04 -8.513625289197079837e-06 5.191845411900430918e-05
3.022000000000000000e+03 7.126171875000000000e+01 3.668645143508911133e+00 -6.158275157213211060e-02 3.769315004348754883e+00 1.112319707870483398e+00 6.561538577079772949e-01
3.023000000000000000e+03 7.189958953857421875e+01 1.325635910034179688e+01 -2.930042743682861328e-01 3.289583921432495117e+00 8.989738821983337402e-01 5.217899680137634277e-01
3.024000000000000000e+03 3.865954208374023438e+01 -9.800892829895019531e+00 -2.950511574745178223e-01 -2.313126027584075928e-01 -1.579091250896453857e-01 -4.125426337122917175e-02
3.025000000000000000e+03 6.693844604492187500e+01 -2.202419757843017578e+00 2.194582670927047729e-01 1.524128675460815430e+00 5.230761170387268066e-01 3.481027483940124512e-01
3.026000000000000000e+03 6.931944274902343750e+01 -4.794297516345977783e-01 1.585296243429183960e-01 2.711666584014892578e+00 8.610588312149047852e-01 5.272336602210998535e-01
3.027000000000000000e+03 1.027398204803466797e+01 1.707978630065917969e+01 1.967966090887784958e-04 -1.749379909597337246e-03 -4.657749668695032597e-04 -3.582644858397543430e-04
3.028000000000000000e+03 9.552889823913574219e+00 1.559124946594238281e+01 4.279016575310379267e-04 -1.423765323124825954e-03 -2.987591142300516367e-04 -5.989079945720732212e-04
3.029000000000000000e+03 1.000409984588623047e+01 1.479101943969726562e+01 8.734531584195792675e-04 -1.832687295973300934e-03 -2.877702354453504086e-04 -3.736461512744426727e-04
3.030000000000000000e+03 7.004572296142578125e+01 -1.225420475006103516e+00 1.766719520092010498e-01 3.255723953247070312e+00 1.029718756675720215e+00 5.749488472938537598e-01
3.031000000000000000e+03 7.016017150878906250e+01 -1.696147024631500244e-01 1.631710976362228394e-01 3.303507089614868164e+00 1.040003418922424316e+00 5.728119015693664551e-01
3.032000000000000000e+03 6.482088470458984375e+01 -2.805182218551635742e+00 1.866255998611450195e-01 6.399859189987182617e-01 2.479834407567977905e-01 2.645769417285919189e-01
3.033000000000000000e+03 7.913850784301757812e+00 2.535214233398437500e+01 -2.248350996524095535e-03 -3.113898914307355881e-03 -1.608674996532499790e-03 1.536760595627129078e-03
3.034000000000000000e+03 9.975816726684570312e+00 2.746669578552246094e+01 -3.869862761348485947e-03 -6.695594172924757004e-03 -3.169636940583586693e-03 4.787252750247716904e-03
3.035000000000000000e+03 6.881015014648437500e+01 -3.772067308425903320e+00 1.629672050476074219e-01 2.609001159667968750e+00 8.315904736518859863e-01 4.498836994171142578e-01
3.036000000000000000e+03 6.677104949951171875e+01 -4.337873935699462891e+00 2.472128421068191528e-01 1.537045598030090332e+00 5.352775454521179199e-01 3.396702408790588379e-01
3.037000000000000000e+03 6.910210418701171875e+01 -5.015617847442626953e+00 1.324548572301864624e-01 2.851517915725708008e+00 8.951918482780456543e-01 4.128570556640625000e-01
3.038000000000000000e+03 9.241132736206054688e+00 7.436815738677978516e+00 3.696537751238793135e-04 -1.740217121550813317e-04 5.868962398380972445e-05 -1.429088151780888438e-04
3.039000000000000000e+03 1.046351051330566406e+01 8.782898902893066406e+00 4.606443690136075020e-04 -3.862036392092704773e-04 2.233222585346084088e-05 -1.855581649579107761e-05
3.040000000000000000e+03 7.139576435089111328e+00 1.863533782958984375e+01 -5.320880882209166884e-05 -1.072132843546569347e-03 -3.376024833414703608e-04 -9.234144818037748337e-04
3.041000000000000000e+03 6.821515083312988281e+00 1.741735458374023438e+01 -1.061257135006599128e-04 -9.421909344382584095e-04 -3.144950023852288723e-04 -9.817351819947361946e-04
3.042000000000000000e+03 1.010416126251220703e+01 6.538699626922607422e+00 4.754255351144820452e-04 -1.483215164626017213e-04 9.813121141633018851e-05 3.859731350530637428e-06
3.043000000000000000e+03 6.931606292724609375e+01 -2.081306934356689453e+00 1.920829117298126221e-01 2.897782802581787109e+00 9.269596934318542480e-01 5.151647329330444336e-01
3.044000000000000000e+03 7.032220840454101562e+00 2.149215507507324219e+01 -1.205518143251538277e-03 -1.422722707502543926e-03 -7.884722435846924782e-04 -3.084161144215613604e-04
3.045000000000000000e+03 9.916249275207519531e+00 2.396619033813476562e+01 -3.549266373738646507e-03 -3.886905964463949203e-03 -2.230851678177714348e-03 1.956977648660540581e-03
3.046000000000000000e+03 9.738474845886230469e+00 2.145507812500000000e+01 -1.794460578821599483e-03 -2.881604945287108421e-03 -1.402819645591080189e-03 1.439905754523351789e-04
3.047000000000000000e+03 1.088663864135742188e+01 1.950356864929199219e+01 -1.217064680531620979e-03 -2.763422671705484390e-03 -1.194146228954195976e-03 -2.857633517123758793e-04
3.048000000000000000e+03 6.962879943847656250e+01 2.524829292297363281e+01 -3.843101859092712402e-01 1.620004534721374512e+00 3.707083165645599365e-01 -7.879511713981628418e-01
3.049000000000000000e+03 1.102690029144287109e+01 1.007863140106201172e+01 4.559283843263983727e-04 -6.458138232119381428e-04 -5.696562584489583969e-05 1.273354864679276943e-04
3.050000000000000000e+03 1.093312358856201172e+01 1.086201286315917969e+01 8.828106219880282879e-04 -6.428038468584418297e-04 7.200201798696070910e-05 9.036147821461781859e-05
3.051000000000000000e+03 1.078249549865722656e+01 7.236287593841552734e+00 4.412343259900808334e-04 -1.006642196443863213e-04 1.021710268105380237e-04 1.223810686497017741e-04
3.052000000000000000e+03 7.092632293701171875e+01 3.128795433044433594e+01 4.570370316505432129e-01 3.501293182373046875e+00 1.187499046325683594e+00 -9.789031147956848145e-01
3.053000000000000000e+03 1.142755985260009766e+01 2.280243110656738281e+01 -4.046793095767498016e-03 -3.583011683076620102e-03 -2.288941526785492897e-03 1.817393000237643719e-03
3.054000000000000000e+03 1.732881164550781250e+01 2.276145553588867188e+01 -1.437448244541883469e-02 -6.839509587734937668e-04 -4.517530091106891632e-03 5.321258679032325745e-03
3.055000000000000000e+03 7.312641143798828125e+01 1.450052356719970703e+01 -2.589619457721710205e-01 4.879840850830078125e+00 1.386263728141784668e+00 1.058015465736389160e+00
3.056000000000000000e+03 7.323039245605468750e+01 1.551374340057373047e+01 1.332465559244155884e-01 4.701156616210937500e+00 1.450320959091186523e+00 1.460537552833557129e+00
3.057000000000000000e+03 7.301092529296875000e+01 1.520543289184570312e+01 3.606523200869560242e-02 4.355895519256591797e+00 1.317588210105895996e+00 1.242104172706604004e+00
3.058000000000000000e+03 7.384780120849609375e+01 1.531018447875976562e+01 -3.226532042026519775e-01 6.222118854522705078e+00 1.769839763641357422e+00 1.620280265808105469e+00
3.059000000000000000e+03 7.415271759033203125e+01 1.550814151763916016e+01 -4.624628722667694092e-01 6.905762195587158203e+00 1.932989835739135742e+00 1.770720481872558594e+00
3.060000000000000000e+03 7.350971984863281250e+01 1.375764083862304688e+01 -5.282841920852661133e-01 5.693990707397460938e+00 1.549712061882019043e+00 8.310331702232360840e-01
3.061000000000000000e+03 7.398500823974609375e+01 1.580500125885009766e+01 -1.181076690554618835e-01 6.235104560852050781e+00 1.835098981857299805e+00 2.067820310592651367e+00
3.062000000000000000e+03 7.464334869384765625e+01 1.579194831848144531e+01 -7.259181737899780273e-01 8.225194931030273438e+00 2.249783039093017578e+00 1.953194022178649902e+00
3.063000000000000000e+03 7.447384643554687500e+01 1.528303432464599609e+01 -7.281855344772338867e-01 7.583524703979492188e+00 2.056601762771606445e+00 1.526860475540161133e+00
3.064000000000000000e+03 7.363414764404296875e+01 1.433587455749511719e+01 -4.963021874427795410e-01 5.797862052917480469e+00 1.590468049049377441e+00 1.051794171333312988e+00
3.065000000000000000e+03 6.586911773681640625e+01 -4.219232082366943359e+00 2.336569130420684814e-01 1.108820438385009766e+00 4.027432203292846680e-01 3.197329938411712646e-01
3.066000000000000000e+03 7.751368999481201172e+00 1.613443183898925781e+01 1.404887298122048378e-04 -1.232883194461464882e-03 -3.277183568570762873e-04 -9.335266659036278725e-04
3.067000000000000000e+03 7.686360359191894531e+00 1.498280525207519531e+01 7.006956147961318493e-04 -9.432539227418601513e-04 -7.276748510776087642e-05 -7.150124874897301197e-04
3.068000000000000000e+03 6.848564147949218750e+01 -1.083345055580139160e+00 1.966734379529953003e-01 2.266566514968872070e+00 7.389720082283020020e-01 4.928826391696929932e-01
3.069000000000000000e+03 9.916815757751464844e+00 1.100037765502929688e+01 5.552542279474437237e-04 -7.571518654003739357e-04 -6.056929123587906361e-05 -1.303638441640941892e-06
3.070000000000000000e+03 1.176557064056396484e+01 1.106024456024169922e+01 6.591252167709171772e-04 -7.558992365375161171e-04 -2.903220774896908551e-05 1.818803721107542515e-04
3.071000000000000000e+03 6.691361236572265625e+01 -2.994235754013061523e-01 1.040726229548454285e-01 1.346787214279174805e+00 4.352579414844512939e-01 3.237321078777313232e-01
3.072000000000000000e+03 6.594409942626953125e+01 -2.549561023712158203e+00 2.134771645069122314e-01 1.102051377296447754e+00 3.946585655212402344e-01 3.292769789695739746e-01
3.073000000000000000e+03 9.282837867736816406e+00 1.804150390625000000e+01 -6.522297917399555445e-05 -1.702439039945602417e-03 -5.302985664457082748e-04 -6.843105657026171684e-04
3.074000000000000000e+03 1.330524444580078125e+01 2.695106124877929688e+01 -8.021388202905654907e-03 -8.142895065248012543e-03 -4.849284887313842773e-03 9.464898146688938141e-03
3.075000000000000000e+03 6.291535854339599609e+00 2.029873085021972656e+01 -4.053139127790927887e-04 -7.178574451245367527e-04 -3.369514015503227711e-04 -8.135774405673146248e-04
3.076000000000000000e+03 1.241950988769531250e+01 2.481469726562500000e+01 -6.612803786993026733e-03 -5.067103076726198196e-03 -3.503971965983510017e-03 4.861674737185239792e-03
3.077000000000000000e+03 1.693784523010253906e+01 2.447031974792480469e+01 -1.677770726382732391e-02 -3.874212736263871193e-03 -6.195575930178165436e-03 1.044442504644393921e-02
3.078000000000000000e+03 6.774305725097656250e+01 -4.112058639526367188e+00 2.148792743682861328e-01 2.023495197296142578e+00 6.715123057365417480e-01 3.882600963115692139e-01
3.079000000000000000e+03 6.833243560791015625e+01 -2.665487289428710938e+00 2.224695980548858643e-01 2.312980413436889648e+00 7.606350183486938477e-01 4.655287563800811768e-01
3.080000000000000000e+03 8.704845428466796875e+00 2.175605964660644531e+01 -2.137735253199934959e-03 -2.421601675450801849e-03 -1.367800985462963581e-03 1.412053243257105350e-04
3.081000000000000000e+03 8.293990135192871094e+00 1.833319091796875000e+01 -3.766754816751927137e-04 -1.754987984895706177e-03 -6.394990487024188042e-04 -7.570648449473083019e-04
3.082000000000000000e+03 7.380382537841796875e+01 1.486392879486083984e+01 -4.450118243694305420e-01 6.145115852355957031e+00 1.710031151771545410e+00 1.344869852066040039e+00
3.083000000000000000e+03 9.273742675781250000e+00 2.046105384826660156e+01 -1.562710036523640156e-03 -2.367071574553847313e-03 -1.178934471681714058e-03 -2.863406843971461058e-04
3.084000000000000000e+03 6.682351684570312500e+01 -6.601299762725830078e+00 1.694246083498001099e-01 1.575442433357238770e+00 5.234600901603698730e-01 2.421797960996627808e-01
3.085000000000000000e+03 6.641799926757812500e+01 -3.478130102157592773e+00 2.342430502176284790e-01 1.320344448089599609e+00 4.663762748241424561e-01 3.205032646656036377e-01
3.086000000000000000e+03 8.837072372436523438e+00 1.941365623474121094e+01 -5.020031239837408066e-04 -1.948894234374165535e-03 -7.352692191489040852e-04 -5.751493154093623161e-04
3.087000000000000000e+03 6.567501831054687500e+01 -1.475557684898376465e+00 1.410573571920394897e-01 8.763177394866943359e-01 3.052125275135040283e-01 2.605984508991241455e-01
3.088000000000000000e+03 1.255290603637695312e+01 1.864455032348632812e+01 -8.037606021389365196e-04 -2.859880216419696808e-03 -1.099092303775250912e-03 -1.134735503001138568e-04
3.089000000000000000e+03 1.507993698120117188e+01 2.566741752624511719e+01 -1.146857813000679016e-02 -6.608719937503337860e-03 -5.423189606517553329e-03 9.807553142309188843e-03
3.090000000000000000e+03 1.372956275939941406e+01 2.524202346801757812e+01 -9.291582740843296051e-03 -5.372423212975263596e-03 -4.399201832711696625e-03 6.411966402083635330e-03
3.091000000000000000e+03 6.824599456787109375e+01 3.276879882812500000e+01 6.905215978622436523e-01 2.280122756958007812e+00 8.911933302879333496e-01 -6.299313902854919434e-01
3.092000000000000000e+03 1.864913940429687500e+01 -3.526757431030273438e+01 1.484802812337875366e-01 1.761901527643203735e-01 9.740112721920013428e-02 -1.026684269309043884e-01
3.093000000000000000e+03 2.060104370117187500e+01 -3.366618347167968750e+01 2.465481162071228027e-01 1.800867170095443726e-01 1.279904544353485107e-01 -1.477771103382110596e-01
3.094000000000000000e+03 1.771641921997070312e+01 -3.332428359985351562e+01 1.925067007541656494e-01 1.832118779420852661e-01 1.127155721187591553e-01 -1.197735518217086792e-01
3.095000000000000000e+03 1.666210174560546875e+01 -3.203347396850585938e+01 2.434686124324798584e-01 1.787967681884765625e-01 1.266796141862869263e-01 -1.214531138539314270e-01
3.096000000000000000e+03 6.923117065429687500e+01 -2.816002464294433594e+01 -5.838760733604431152e-02 3.994044065475463867e+00 1.180696964263916016e+00 6.303439140319824219e-01
3.097000000000000000e+03 1.608723640441894531e+01 -3.607266235351562500e+01 7.895143330097198486e-02 1.234069913625717163e-01 6.070752814412117004e-02 -5.942170321941375732e-02
3.098000000000000000e+03 6.469982147216796875e+01 -3.290962982177734375e+01 2.982818484306335449e-01 2.096862077713012695e+00 7.185431718826293945e-01 6.027224063873291016e-01
3.099000000000000000e+03 5.645218276977539062e+01 2.462685203552246094e+01 -1.370560407638549805e+00 -8.086718618869781494e-02 -4.354282915592193604e-01 4.151297211647033691e-01
3.100000000000000000e+03 3.205547714233398438e+01 -3.402879333496093750e+01 3.043240010738372803e-01 -3.437702357769012451e-01 -1.183387357741594315e-02 -1.903197914361953735e-01
3.101000000000000000e+03 1.580214309692382812e+01 2.788544654846191406e+01 -1.056639570742845535e-02 -1.297880988568067551e-02 -7.063561584800481796e-03 1.628633402287960052e-02
3.102000000000000000e+03 2.559802055358886719e+00 -3.623752975463867188e+01 6.983604747802019119e-03 -6.511955261230468750e-01 -1.932635754346847534e-01 1.847976446151733398e-02
3.103000000000000000e+03 7.627338409423828125e+01 3.819264602661132812e+01 4.285219684243202209e-02 6.816810131072998047e+00 2.057898759841918945e+00 -2.302225977182388306e-01
3.104000000000000000e+03 6.954437255859375000e+01 -3.474979019165039062e+01 7.744605839252471924e-02 3.563749551773071289e+00 1.092358708381652832e+00 3.346312344074249268e-01
3.105000000000000000e+03 5.929330062866210938e+01 3.070211029052734375e+01 2.966423034667968750e-01 -1.353114843368530273e-01 4.839923977851867676e-02 4.754677116870880127e-01
3.106000000000000000e+03 9.711907386779785156e+00 3.418505096435546875e+01 1.400399254634976387e-03 -1.438428275287151337e-02 -3.895164933055639267e-03 7.019427604973316193e-03
3.107000000000000000e+03 4.473293685913085938e+01 2.742692184448242188e+01 -1.842786222696304321e-01 7.753830868750810623e-03 -5.295743420720100403e-02 2.600620985031127930e-01
3.108000000000000000e+03 7.655963134765625000e+01 3.686305618286132812e+01 7.164294272661209106e-02 6.715365886688232422e+00 2.036102533340454102e+00 -3.743419945240020752e-01
3.109000000000000000e+03 4.146206283569335938e+01 2.826193237304687500e+01 -1.015623286366462708e-01 -1.890026405453681946e-02 -3.613877668976783752e-02 1.969723254442214966e-01
3.110000000000000000e+03 3.602801132202148438e+01 2.877301979064941406e+01 -3.555925935506820679e-02 -5.317735299468040466e-02 -2.662098407745361328e-02 1.237627714872360229e-01
3.111000000000000000e+03 4.358872985839843750e+01 -3.152177619934082031e+01 2.345265299081802368e-01 1.513342559337615967e-01 1.157582327723503113e-01 -3.547555953264236450e-02
3.112000000000000000e+03 5.777136993408203125e+01 3.065432929992675781e+01 2.055930048227310181e-01 -1.843043416738510132e-01 6.386599037796258926e-03 5.255181789398193359e-01
3.113000000000000000e+03 1.459097766876220703e+01 2.886629867553710938e+01 -7.191702723503112793e-03 -1.351939328014850616e-02 -6.213328801095485687e-03 1.465419866144657135e-02
3.114000000000000000e+03 3.153977584838867188e+01 2.324672126770019531e+01 -9.000359475612640381e-02 -4.252230748534202576e-02 -3.975776955485343933e-02 6.772440671920776367e-02
3.115000000000000000e+03 1.296166324615478516e+01 2.882651329040527344e+01 -6.559381261467933655e-03 -1.150969043374061584e-02 -5.420721601694822311e-03 1.075142901390790939e-02
3.116000000000000000e+03 4.209425735473632812e+01 4.451392173767089844e+00 -1.135148158937226981e-05 1.432607095921412110e-04 3.957276931032538414e-05 -3.897789283655583858e-04
3.117000000000000000e+03 6.857148742675781250e+01 1.714514541625976562e+01 4.618067666888237000e-02 -5.152744054794311523e-01 -1.407281309366226196e-01 -3.865081369876861572e-01
3.118000000000000000e+03 7.390782928466796875e+01 2.120825767517089844e+01 6.325519680976867676e-01 3.134580135345458984e+00 1.130139589309692383e+00 -3.497862339019775391e+00
3.119000000000000000e+03 7.409710693359375000e+01 2.123366355895996094e+01 7.465566396713256836e-01 4.090311527252197266e+00 1.451060414314270020e+00 -4.084879875183105469e+00
3.120000000000000000e+03 7.461071014404296875e+01 2.168070411682128906e+01 -6.582643836736679077e-02 8.016478538513183594e+00 2.385195732116699219e+00 -4.854695796966552734e+00
3.121000000000000000e+03 7.494994354248046875e+01 2.119911575317382812e+01 2.290283888578414917e-01 1.022002506256103516e+01 3.134716033935546875e+00 -6.044158458709716797e+00
3.122000000000000000e+03 7.533988952636718750e+01 2.119053077697753906e+01 -8.645659685134887695e-01 1.409796714782714844e+01 3.970020532608032227e+00 -5.543943881988525391e+00
3.123000000000000000e+03 7.552947235107421875e+01 2.117505455017089844e+01 -1.336058020591735840e+00 1.607475852966308594e+01 4.421610355377197266e+00 -4.730156421661376953e+00
3.124000000000000000e+03 7.618205261230468750e+01 2.143470382690429688e+01 -1.991948246955871582e+00 1.730840110778808594e+01 4.594935894012451172e+00 -8.722035884857177734e-01
3.125000000000000000e+03 7.731647491455078125e+01 2.087517929077148438e+01 1.801995992660522461e+00 1.449847698211669922e+01 4.890141963958740234e+00 3.359693050384521484e+00
3.126000000000000000e+03 7.716300201416015625e+01 2.118860626220703125e+01 2.678919136524200439e-01 1.511588096618652344e+01 4.615131855010986328e+00 2.801955699920654297e+00
3.127000000000000000e+03 7.740526580810546875e+01 2.059169960021972656e+01 2.918960094451904297e+00 1.406389808654785156e+01 5.094857215881347656e+00 3.514626741409301758e+00
3.128000000000000000e+03 7.646643829345703125e+01 1.765054130554199219e+01 -1.357799291610717773e+00 1.707177352905273438e+01 4.714192390441894531e+00 -9.834911823272705078e-01
3.129000000000000000e+03 7.528317260742187500e+01 1.795910453796386719e+01 7.602912187576293945e-02 1.416422080993652344e+01 4.272075176239013672e+00 5.400350570678710938e+00
3.130000000000000000e+03 7.511487579345703125e+01 1.796379280090332031e+01 7.512038350105285645e-01 1.208318710327148438e+01 3.850317239761352539e+00 5.646223545074462891e+00
3.131000000000000000e+03 7.493954467773437500e+01 1.792987632751464844e+01 1.133400082588195801e+00 1.007806587219238281e+01 3.363439559936523438e+00 5.433189392089843750e+00
3.132000000000000000e+03 7.484951782226562500e+01 1.758031272888183594e+01 4.447428286075592041e-01 9.879179000854492188e+00 3.097176551818847656e+00 4.531846523284912109e+00
3.133000000000000000e+03 7.440515136718750000e+01 1.747529602050781250e+01 9.927725195884704590e-01 6.810657501220703125e+00 2.341028928756713867e+00 3.911511182785034180e+00
3.134000000000000000e+03 7.301496887207031250e+01 1.752327919006347656e+01 1.081390738487243652e+00 1.906772851943969727e+00 8.964490294456481934e-01 1.317492961883544922e+00
3.135000000000000000e+03 7.271862030029296875e+01 1.794923782348632812e+01 5.901027917861938477e-01 9.718298316001892090e-01 4.685797989368438721e-01 5.979575514793395996e-01
3.136000000000000000e+03 7.529733276367187500e+01 4.045936965942382812e+01 2.793242633342742920e-01 6.032511234283447266e+00 1.893550634384155273e+00 -7.711534202098846436e-02
3.137000000000000000e+03 6.730445098876953125e+01 -1.203008460998535156e+01 -8.459246158599853516e-01 2.307127237319946289e+00 4.383608102798461914e-01 -2.338399291038513184e-01
3.138000000000000000e+03 4.346882247924804688e+01 5.186264038085937500e+00 -3.826835018116980791e-05 3.685218107420951128e-04 9.907603816827759147e-05 -3.650865692179650068e-04
3.139000000000000000e+03 2.099495697021484375e+01 1.394545674324035645e+00 -3.690761877805925906e-05 -4.203319258522242308e-05 -2.368224340898450464e-05 1.330983081970771309e-06
3.140000000000000000e+03 4.487864375114440918e-01 2.206858158111572266e+00 -6.820278213126584888e-05 2.737732984314789064e-06 -1.963951399375218898e-05 -1.407453601132147014e-05
3.141000000000000000e+03 4.515102767944335938e+01 6.170237541198730469e+00 2.337105805054306984e-03 -4.663321597035974264e-04 5.612320965155959129e-04 8.580996654927730560e-05
3.142000000000000000e+03 7.297850036621093750e+01 2.241884994506835938e+01 2.577351033687591553e-02 2.912960767745971680e+00 8.816202878952026367e-01 -2.371717691421508789e+00
3.143000000000000000e+03 6.555194091796875000e+01 2.281738662719726562e+01 -2.457023382186889648e+00 -4.787205457687377930e-01 -8.807231783866882324e-01 5.499805808067321777e-01
3.144000000000000000e+03 6.628862762451171875e+01 2.309119033813476562e+01 -2.001817464828491211e+00 -7.382436096668243408e-02 -6.226925253868103027e-01 3.688800632953643799e-01
3.145000000000000000e+03 6.952265739440917969e+00 -3.518837738037109375e+01 3.009416721761226654e-02 -3.340604603290557861e-01 -9.118989109992980957e-02 -1.773897744715213776e-02
3.146000000000000000e+03 7.354464721679687500e+01 2.156544113159179688e+01 3.187620639801025391e-01 2.862079858779907227e+00 9.542525410652160645e-01 -2.954149007797241211e+00
3.147000000000000000e+03 7.334481048583984375e+01 2.198008537292480469e+01 2.211388051509857178e-01 3.189330816268920898e+00 1.023140907287597656e+00 -2.810815095901489258e+00
3.148000000000000000e+03 7.362425231933593750e+01 2.189269065856933594e+01 2.422144114971160889e-01 3.751735448837280273e+00 1.198184967041015625e+00 -3.214146852493286133e+00
3.149000000000000000e+03 1.080005931854248047e+01 -1.840349006652832031e+01 -7.063914090394973755e-02 -4.868546724319458008e-01 -1.672481447458267212e-01 -2.789645195007324219e-01
3.150000000000000000e+03 9.481620788574218750e+00 -1.817687797546386719e+01 -1.188506260514259338e-01 -3.149688243865966797e-01 -1.301458328962326050e-01 -3.666375279426574707e-01
3.151000000000000000e+03 6.420886230468750000e+01 -1.003408527374267578e+01 -1.199387460947036743e-01 5.582451820373535156e-02 -1.923426799476146698e-02 2.816558778285980225e-01
3.152000000000000000e+03 4.446967315673828125e+01 -1.264788746833801270e+00 -7.228001952171325684e-01 8.086974918842315674e-02 -1.925791352987289429e-01 -3.425291776657104492e-01
3.153000000000000000e+03 7.783532714843750000e+01 3.731065368652343750e+01 2.911482937633991241e-02 7.314104557037353516e+00 2.202965736389160156e+00 -2.735704183578491211e-01
3.154000000000000000e+03 7.768032836914062500e+01 3.616375732421875000e+01 3.560060635209083557e-02 7.211479187011718750e+00 2.174123764038085938e+00 -3.386008143424987793e-01
3.155000000000000000e+03 7.368980407714843750e+01 1.747416877746582031e+01 1.366065740585327148e+00 3.514133214950561523e+00 1.464059710502624512e+00 2.587147235870361328e+00
3.156000000000000000e+03 7.524890136718750000e+01 1.747495651245117188e+01 -5.313234329223632812e-01 1.222271060943603516e+01 3.507416009902954102e+00 3.955300092697143555e+00
3.157000000000000000e+03 7.520602416992187500e+01 1.779799270629882812e+01 -3.156332671642303467e-02 1.303378009796142578e+01 3.900665044784545898e+00 4.962160587310791016e+00
3.158000000000000000e+03 7.537593841552734375e+01 1.767301750183105469e+01 -5.827100276947021484e-01 1.400906658172607422e+01 4.027906894683837891e+00 4.193217754364013672e+00
3.159000000000000000e+03 7.553965759277343750e+01 2.183050918579101562e+01 -1.884021639823913574e+00 1.359151458740234375e+01 3.512247800827026367e+00 -3.487340927124023438e+00
3.160000000000000000e+03 7.528674316406250000e+01 2.162172126770019531e+01 -1.264599323272705078e+00 1.271035099029541016e+01 3.433725357055664062e+00 -4.600986003875732422e+00
3.161000000000000000e+03 7.433820343017578125e+01 2.167525100708007812e+01 2.464533001184463501e-01 6.231858253479003906e+00 1.943493485450744629e+00 -4.439710140228271484e+00
3.162000000000000000e+03 7.460758209228515625e+01 2.211210441589355469e+01 -5.543095469474792480e-01 8.181050300598144531e+00 2.288022279739379883e+00 -4.331406593322753906e+00
3.163000000000000000e+03 7.410056304931640625e+01 2.205322647094726562e+01 1.616557873785495758e-02 5.577786922454833984e+00 1.678185701370239258e+00 -3.842186689376831055e+00
3.164000000000000000e+03 7.630031585693359375e+01 2.167868804931640625e+01 -2.169580698013305664e+00 1.627590560913085938e+01 4.231897354125976562e+00 -5.342755317687988281e-01
3.165000000000000000e+03 5.201787185668945312e+01 -2.818409204483032227e+00 -1.004760980606079102e+00 -2.399900406599044800e-01 -3.734253346920013428e-01 -4.510691463947296143e-01
3.166000000000000000e+03 7.775410461425781250e+01 2.059058761596679688e+01 2.642961978912353516e+00 1.209321975708007812e+01 4.420854568481445312e+00 2.998452186584472656e+00
3.167000000000000000e+03 7.754347229003906250e+01 1.905823516845703125e+01 5.478441715240478516e+00 1.260001564025878906e+01 5.423537254333496094e+00 -2.473253011703491211e+00
3.168000000000000000e+03 7.639849853515625000e+01 2.140513992309570312e+01 -1.665349245071411133e+00 1.733883285522460938e+01 4.702045440673828125e+00 2.349520176649093628e-01
3.169000000000000000e+03 7.626476287841796875e+01 1.727964210510253906e+01 -1.751005172729492188e+00 1.548021030426025391e+01 4.118761539459228516e+00 -3.227236866950988770e-02
3.170000000000000000e+03 7.722541809082031250e+01 1.722133064270019531e+01 -1.077302932739257812e+00 1.362402725219726562e+01 3.764017343521118164e+00 -2.594776391983032227e+00
3.171000000000000000e+03 7.724288177490234375e+01 1.801023292541503906e+01 9.015843868255615234e-01 1.507656574249267578e+01 4.793445110321044922e+00 -3.453987598419189453e+00
3.172000000000000000e+03 7.824806976318359375e+01 1.774514579772949219e+01 1.282732784748077393e-01 9.693197250366210938e+00 2.946441173553466797e+00 -3.041091203689575195e+00
3.173000000000000000e+03 6.620722198486328125e+01 2.407245635986328125e+01 -1.463030934333801270e+00 -3.901351243257522583e-02 -4.506133198738098145e-01 1.781977713108062744e-01
3.174000000000000000e+03 5.279042434692382812e+01 2.719912910461425781e+01 -4.501108825206756592e-01 -7.895571738481521606e-02 -1.587199866771697998e-01 5.160697698593139648e-01
3.175000000000000000e+03 5.249110031127929688e+01 2.490411376953125000e+01 -7.451336979866027832e-01 1.189768966287374496e-02 -2.199708074331283569e-01 3.377018868923187256e-01
3.176000000000000000e+03 3.866839599609375000e+01 -2.538049888610839844e+01 -1.219291538000106812e-01 -3.891319334506988525e-01 -1.533183306455612183e-01 -1.609526276588439941e-01
3.177000000000000000e+03 3.380525207519531250e+01 2.181129264831542969e+01 -1.183153614401817322e-01 -2.706555835902690887e-02 -4.361427575349807739e-02 6.022427231073379517e-02
3.178000000000000000e+03 4.246765518188476562e+01 -3.642506122589111328e+00 -9.304952025413513184e-01 -4.074212908744812012e-02 -2.913711965084075928e-01 -3.301931917667388916e-01
3.179000000000000000e+03 6.853817749023437500e+01 -3.282414627075195312e+01 5.145717412233352661e-02 3.333631038665771484e+00 1.015526413917541504e+00 4.774683117866516113e-01
3.180000000000000000e+03 7.383249664306640625e+01 1.729694175720214844e+01 1.205697655677795410e+00 4.426745891571044922e+00 1.689733147621154785e+00 2.860104799270629883e+00
3.181000000000000000e+03 7.551996612548828125e+01 1.715161514282226562e+01 -1.364121556282043457e+00 1.339035224914550781e+01 3.607869386672973633e+00 2.639263629913330078e+00
3.182000000000000000e+03 4.446033477783203125e+01 -2.290273904800415039e+00 -8.280410766601562500e-01 1.015248894691467285e-01 -2.179548442363739014e-01 -3.718433082103729248e-01
3.183000000000000000e+03 4.583674621582031250e+01 -2.242116689682006836e+00 -8.681977391242980957e-01 1.345848441123962402e-01 -2.200838625431060791e-01 -3.594404757022857666e-01
3.184000000000000000e+03 2.481526184082031250e+01 -4.650966644287109375e+00 -4.761705398559570312e-01 1.405850797891616821e-01 -1.006756424903869629e-01 -3.798899427056312561e-02
3.185000000000000000e+03 7.283892059326171875e+01 1.660715484619140625e+01 7.566216588020324707e-01 2.843217849731445312e+00 1.079951882362365723e+00 1.315280914306640625e+00
3.186000000000000000e+03 3.489103698730468750e+01 -3.224092864990234375e+01 2.822870016098022461e-01 -4.911454319953918457e-01 -6.265753507614135742e-02 -9.969425201416015625e-02
3.187000000000000000e+03 7.458795166015625000e+01 3.369239425659179688e+01 2.566139101982116699e-01 5.962640285491943359e+00 1.865776300430297852e+00 -8.193642497062683105e-01
3.188000000000000000e+03 3.013166236877441406e+01 -8.338861465454101562e+00 -7.474521398544311523e-01 -1.153559684753417969e-01 -2.588424384593963623e-01 -3.041627407073974609e-01
3.189000000000000000e+03 1.965895462036132812e+01 -1.010233020782470703e+01 -4.823814630508422852e-01 8.226178586483001709e-02 -1.200359016656875610e-01 -3.158393204212188721e-01
3.190000000000000000e+03 7.577232360839843750e+01 2.212622070312500000e+01 -2.222492933273315430e+00 1.354175758361816406e+01 3.395779371261596680e+00 -2.434096336364746094e+00
3.191000000000000000e+03 7.630950927734375000e+01 2.223466873168945312e+01 -2.426484823226928711e+00 1.406007003784179688e+01 3.490075588226318359e+00 -6.573573350906372070e-01
3.192000000000000000e+03 7.319129943847656250e+01 1.655040550231933594e+01 7.396929264068603516e-01 3.614874124526977539e+00 1.306370139122009277e+00 1.781988024711608887e+00
3.193000000000000000e+03 7.364734649658203125e+01 1.676933670043945312e+01 7.606509327888488770e-01 4.710693836212158203e+00 1.641403436660766602e+00 2.396453142166137695e+00
3.194000000000000000e+03 7.192886352539062500e+01 -1.982859611511230469e+01 8.398534059524536133e-01 5.345746994018554688e+00 1.855680108070373535e+00 7.726932168006896973e-01
3.195000000000000000e+03 7.176241302490234375e+01 -1.885500907897949219e+01 7.299034595489501953e-01 5.485149860382080078e+00 1.864516019821166992e+00 8.617568016052246094e-01
3.196000000000000000e+03 5.152653884887695312e+01 2.657380867004394531e+01 -5.231337547302246094e-01 -7.347917649894952774e-03 -1.591445058584213257e-01 4.446240365505218506e-01
3.197000000000000000e+03 4.995284652709960938e+01 2.638573074340820312e+01 -4.154344499111175537e-01 2.376537211239337921e-02 -1.175007224082946777e-01 3.668030500411987305e-01
3.198000000000000000e+03 3.488296127319335938e+01 -8.329325675964355469e+00 -7.878928780555725098e-01 -1.700163781642913818e-01 -2.873727679252624512e-01 -9.914176166057586670e-02
3.199000000000000000e+03 4.528748321533203125e+01 -8.490343093872070312e+00 -3.572161495685577393e-01 -1.261459756642580032e-02 -1.109492257237434387e-01 -1.440407931804656982e-01
3.200000000000000000e+03 4.042964172363281250e+01 -2.702943801879882812e+01 4.524511471390724182e-02 -1.128545030951499939e-01 -2.028281800448894501e-02 -6.685255467891693115e-02
3.201000000000000000e+03 4.360085678100585938e+01 1.522119522094726562e+01 -7.980010658502578735e-02 6.359870545566082001e-03 -2.203206904232501984e-02 -3.738962346687912941e-03
3.202000000000000000e+03 7.238957977294921875e+01 3.319449234008789062e+01 4.518098533153533936e-01 4.441829204559326172e+00 1.468091726303100586e+00 -8.656520843505859375e-01
3.203000000000000000e+03 2.274751663208007812e+01 3.134078025817871094e+01 3.846847685053944588e-03 -4.900318756699562073e-02 -1.354690268635749817e-02 4.320660978555679321e-02
3.204000000000000000e+03 5.666703414916992188e+01 -5.291637897491455078e+00 -8.728372305631637573e-02 -4.574689567089080811e-01 -1.634258031845092773e-01 1.177052259445190430e-01
3.205000000000000000e+03 6.255313491821289062e+01 -9.292307853698730469e+00 6.614440679550170898e-02 -1.299068778753280640e-01 -1.912873983383178711e-02 4.073834419250488281e-01
3.206000000000000000e+03 4.521773910522460938e+01 7.227221488952636719e+00 3.008329076692461967e-03 -1.967106247320771217e-03 3.123668429907411337e-04 2.050246548606082797e-04
3.207000000000000000e+03 5.171381759643554688e+01 2.902568054199218750e+01 -2.088169902563095093e-01 -9.453350305557250977e-02 -9.100514650344848633e-02 4.978789985179901123e-01
3.208000000000000000e+03 6.635294342041015625e+01 -2.980396842956542969e+01 1.113013997673988342e-01 2.690219163894653320e+00 8.404561877250671387e-01 8.097171187400817871e-01
3.209000000000000000e+03 7.284822082519531250e+01 1.618439483642578125e+01 5.950812101364135742e-01 3.265872955322265625e+00 1.158286213874816895e+00 1.332341432571411133e+00
3.210000000000000000e+03 7.312619781494140625e+01 1.621515083312988281e+01 5.524742007255554199e-01 3.931458473205566406e+00 1.345179796218872070e+00 1.644002795219421387e+00
3.211000000000000000e+03 7.354051208496093750e+01 1.640981864929199219e+01 5.280005931854248047e-01 4.741384029388427734e+00 1.580815434455871582e+00 2.112534999847412109e+00
3.212000000000000000e+03 7.356826019287109375e+01 1.591081333160400391e+01 1.381567865610122681e-01 5.148736953735351562e+00 1.586068034172058105e+00 1.849404335021972656e+00
3.213000000000000000e+03 2.472430419921875000e+01 -6.643367290496826172e+00 -6.042289137840270996e-01 2.055186927318572998e-01 -1.196130663156509399e-01 -2.207097858190536499e-01
3.214000000000000000e+03 4.665585041046142578e+00 -2.838246154785156250e+01 7.155018299818038940e-02 -4.356161952018737793e-01 -1.092198044061660767e-01 -1.079922169446945190e-01
3.215000000000000000e+03 5.933535575866699219e+00 -2.842518615722656250e+01 1.038719788193702698e-01 -3.578088581562042236e-01 -7.618106156587600708e-02 -1.145137399435043335e-01
3.216000000000000000e+03 6.075860595703125000e+01 -8.194568634033203125e+00 1.442602276802062988e-01 -2.940458059310913086e-01 -4.493566974997520447e-02 4.475425183773040771e-01
3.217000000000000000e+03 5.970165252685546875e+01 -7.603805065155029297e+00 1.759730726480484009e-01 -3.490889370441436768e-01 -5.193475633859634399e-02 3.779136836528778076e-01
3.218000000000000000e+03 7.562786865234375000e+01 -6.387218475341796875e+00 -4.515160992741584778e-02 6.647798061370849609e+00 1.980793833732604980e+00 5.252543091773986816e-01
3.219000000000000000e+03 5.578677177429199219e+00 -2.414810180664062500e+01 1.242968440055847168e-01 -3.301497101783752441e-01 -6.175586208701133728e-02 -2.470829784870147705e-01
3.220000000000000000e+03 4.525543212890625000e+01 -3.116762542724609375e+01 2.457186132669448853e-01 2.836626768112182617e-01 1.588143855333328247e-01 -8.262071758508682251e-02
3.221000000000000000e+03 4.420082473754882812e+01 1.441072273254394531e+01 -5.529452487826347351e-02 -4.666605964303016663e-03 -1.798833906650543213e-02 -7.806998677551746368e-03
3.222000000000000000e+03 7.528922271728515625e+01 1.644395256042480469e+01 -1.322376012802124023e+00 1.093325996398925781e+01 2.883265018463134766e+00 2.062870979309082031e+00
3.223000000000000000e+03 7.557705688476562500e+01 1.680824470520019531e+01 -1.546072840690612793e+00 1.249129199981689453e+01 3.283565759658813477e+00 2.106737136840820312e+00
3.224000000000000000e+03 7.519078254699707031e+00 -2.726104164123535156e+01 1.634418219327926636e-01 -2.576967775821685791e-01 -2.827649004757404327e-02 -1.615200191736221313e-01
3.225000000000000000e+03 7.151733398437500000e+01 2.399214744567871094e+01 -1.957620233297348022e-01 2.406378269195556641e+00 6.631848812103271484e-01 -1.316850543022155762e+00
3.226000000000000000e+03 4.464037704467773438e+01 -3.083355665206909180e+00 -8.505320549011230469e-01 1.088240817189216614e-01 -2.225123941898345947e-01 -3.508316576480865479e-01
3.227000000000000000e+03 4.052780151367187500e+01 -2.057431983947753906e+01 1.592355072498321533e-01 -1.561905890703201294e-01 9.134757565334439278e-04 -4.731020033359527588e-01
3.228000000000000000e+03 4.334810256958007812e+01 1.428488349914550781e+01 -5.127095803618431091e-02 8.567774202674627304e-04 -1.512425392866134644e-02 1.035109744407236576e-03
3.229000000000000000e+03 3.436244964599609375e+01 2.614654159545898438e+01 -6.879473477602005005e-02 -3.873096033930778503e-02 -3.225770965218544006e-02 9.512968361377716064e-02
3.230000000000000000e+03 7.405263519287109375e+01 -2.811149406433105469e+01 -4.598512500524520874e-02 5.003215789794921875e+00 1.487169146537780762e+00 7.606956362724304199e-02
3.231000000000000000e+03 1.388790702819824219e+01 1.883287811279296875e+01 -6.899141008034348488e-04 -2.181251300498843193e-03 -8.613496320322155952e-04 3.859295102301985025e-04
3.232000000000000000e+03 5.854030227661132812e+01 -4.729856491088867188e+00 -8.376329392194747925e-02 -4.709740579128265381e-01 -1.664212048053741455e-01 2.171195000410079956e-01
3.233000000000000000e+03 6.288206863403320312e+01 -4.024382114410400391e+00 1.769114881753921509e-01 6.071005482226610184e-03 5.489474534988403320e-02 2.724356651306152344e-01
3.234000000000000000e+03 7.556925201416015625e+01 1.589617061614990234e+01 -1.592653751373291016e+00 1.082919883728027344e+01 2.770963668823242188e+00 1.100722908973693848e+00
3.235000000000000000e+03 6.449964141845703125e+01 2.950342655181884766e+00 -4.498467147350311279e-01 -1.969528347253799438e-01 -1.940398663282394409e-01 -3.643944859504699707e-01
3.236000000000000000e+03 6.519860839843750000e+01 1.549322724342346191e+00 -1.337781101465225220e-01 3.114550113677978516e-01 5.330306664109230042e-02 -4.907565936446189880e-02
3.237000000000000000e+03 7.558859252929687500e+01 -1.442577362060546875e+01 -1.648954115808010101e-02 6.093163013458251953e+00 1.823002099990844727e+00 8.451586961746215820e-01
3.238000000000000000e+03 6.184694290161132812e+00 -1.270639228820800781e+01 -2.203215211629867554e-01 -5.829028412699699402e-02 -8.358354121446609497e-02 -1.012035757303237915e-01
3.239000000000000000e+03 4.384035110473632812e+01 2.335394668579101562e+01 -2.452613711357116699e-01 5.732402950525283813e-02 -5.638120323419570923e-02 1.210379153490066528e-01
3.240000000000000000e+03 2.496990013122558594e+01 -5.804367542266845703e+00 -6.482170820236206055e-01 2.110625207424163818e-01 -1.311463564634323120e-01 -1.395619213581085205e-01
3.241000000000000000e+03 4.990933609008789062e+01 -2.744184494018554688e+00 -9.997195005416870117e-01 -3.713297843933105469e-02 -3.110557496547698975e-01 -5.091099739074707031e-01
3.242000000000000000e+03 7.595299530029296875e+01 -1.547186183929443359e+01 6.406344473361968994e-02 6.065765857696533203e+00 1.838948845863342285e+00 8.115476965904235840e-01
3.243000000000000000e+03 6.738115787506103516e+00 -4.564367771148681641e+00 4.391117766499519348e-02 -2.292329631745815277e-02 6.296364124864339828e-03 1.117913573980331421e-01
3.244000000000000000e+03 7.204101562500000000e+01 1.555544090270996094e+01 3.753681778907775879e-01 2.360525608062744141e+00 8.207681179046630859e-01 6.813443303108215332e-01
3.245000000000000000e+03 7.254507446289062500e+01 1.604323387145996094e+01 5.064072012901306152e-01 2.957397460937500000e+00 1.039141416549682617e+00 1.047745823860168457e+00
3.246000000000000000e+03 7.302697753906250000e+01 1.593279552459716797e+01 2.974684834480285645e-01 3.898518800735473633e+00 1.258796095848083496e+00 1.350573182106018066e+00
3.247000000000000000e+03 4.619909286499023438e+01 -2.932434463500976562e+01 2.561325430870056152e-01 4.264923036098480225e-01 2.047874480485916138e-01 -1.503873616456985474e-01
3.248000000000000000e+03 6.643221378326416016e+00 4.656233787536621094e+00 8.590657671447843313e-05 -1.546622479509096593e-05 2.113210575771518052e-05 -1.080577058019116521e-04
3.249000000000000000e+03 1.032431888580322266e+01 -4.819443702697753906e+00 4.488287866115570068e-02 -9.619257599115371704e-02 -1.539290882647037506e-02 5.443477630615234375e-02
3.250000000000000000e+03 7.427793884277343750e+01 1.589754486083984375e+01 -3.751032054424285889e-01 7.259046077728271484e+00 2.065182685852050781e+00 2.070358991622924805e+00
3.251000000000000000e+03 6.055829238891601562e+01 -4.568913936614990234e+00 5.068022012710571289e-02 -4.094615280628204346e-01 -1.076343879103660583e-01 2.817148268222808838e-01
3.252000000000000000e+03 7.655955505371093750e+01 1.679919052124023438e+01 -1.947481036186218262e+00 1.405495548248291016e+01 3.632242441177368164e+00 -7.528365850448608398e-01
3.253000000000000000e+03 2.256386756896972656e+01 -8.594397544860839844e+00 -4.006885290145874023e-01 1.860501915216445923e-01 -6.439150124788284302e-02 -3.542144894599914551e-01
3.254000000000000000e+03 7.591954040527343750e+01 2.382638931274414062e+01 -1.770752429962158203e+00 1.017662811279296875e+01 2.521762847900390625e+00 -1.177623391151428223e+00
3.255000000000000000e+03 7.187150573730468750e+01 1.521824550628662109e+01 2.151838392019271851e-01 2.437694311141967773e+00 7.958634495735168457e-01 5.335054397583007812e-01
3.256000000000000000e+03 7.479331207275390625e+01 2.429161071777343750e+01 -1.081513285636901855e+00 7.773344039916992188e+00 2.007549285888671875e+00 -2.105922698974609375e+00
3.257000000000000000e+03 7.371914672851562500e+01 1.563066387176513672e+01 -2.622666954994201660e-02 5.716236114501953125e+00 1.707002878189086914e+00 1.848222970962524414e+00
3.258000000000000000e+03 4.513890457153320312e+01 -4.779155254364013672e+00 -7.662258148193359375e-01 8.604421466588973999e-02 -2.040544897317886353e-01 -3.251819014549255371e-01
3.259000000000000000e+03 7.491582489013671875e+01 1.509104251861572266e+01 -1.057058334350585938e+00 8.536113739013671875e+00 2.243716716766357422e+00 1.189170598983764648e+00
3.260000000000000000e+03 7.417677879333496094e+00 -5.261522769927978516e+00 1.858018897473812103e-02 -4.359257966279983521e-02 -7.503716740757226944e-03 1.099003404378890991e-01
3.261000000000000000e+03 7.176012516021728516e+00 7.755427360534667969e+00 4.412373527884483337e-04 -1.748950016917660832e-04 7.990270387381315231e-05 -1.159974053734913468e-04
3.262000000000000000e+03 1.115921497344970703e+01 1.154700565338134766e+01 6.283649709075689316e-04 -7.033097790554165840e-04 -2.248343116661999375e-05 2.638703153934329748e-04
3.263000000000000000e+03 7.619017028808593750e+01 1.344594478607177734e+01 -1.033717513084411621e+00 9.305912971496582031e+00 2.481658697128295898e+00 -7.707460969686508179e-02
3.264000000000000000e+03 6.352131652832031250e+01 -4.779730319976806641e+00 2.703664898872375488e-01 2.045570313930511475e-01 1.424770653247833252e-01 3.191101253032684326e-01
3.265000000000000000e+03 7.270138549804687500e+01 6.352862358093261719e+00 -2.105048745870590210e-01 4.866062164306640625e+00 1.396667242050170898e+00 6.443446278572082520e-01
3.266000000000000000e+03 1.295542430877685547e+01 8.785557746887207031e+00 5.626757629215717316e-04 -1.572978944750502706e-04 1.216133605339564383e-04 3.686210257001221180e-04
3.267000000000000000e+03 7.501659393310546875e+01 -1.012066936492919922e+01 -1.964040547609329224e-01 6.226918697357177734e+00 1.809154391288757324e+00 6.739155054092407227e-01
3.268000000000000000e+03 7.334363555908203125e+01 1.265923213958740234e+01 -5.383523106575012207e-01 5.566583156585693359e+00 1.508469343185424805e+00 6.548030376434326172e-01
3.269000000000000000e+03 7.377453613281250000e+01 1.326362991333007812e+01 -6.337161660194396973e-01 6.088318347930908203e+00 1.636380672454833984e+00 7.785648107528686523e-01
3.270000000000000000e+03 7.269341278076171875e+01 2.511257743835449219e+01 -2.569804191589355469e-01 4.296759605407714844e+00 1.211933732032775879e+00 -1.880527377128601074e+00
3.271000000000000000e+03 7.330551910400390625e+01 1.584267711639404297e+01 1.875531822443008423e-01 4.651160717010498047e+00 1.451614141464233398e+00 1.580188751220703125e+00
3.272000000000000000e+03 1.194242191314697266e+01 8.498799324035644531e+00 3.489247465040534735e-04 -3.698101209010928869e-04 -6.265614956646459177e-06 1.415285369148477912e-04
3.273000000000000000e+03 6.459635162353515625e+01 -1.751105189323425293e+00 8.898416906595230103e-02 4.673990607261657715e-01 1.669149696826934814e-01 1.857100874185562134e-01
3.274000000000000000e+03 1.025664329528808594e+01 -9.282814025878906250e+00 -2.563520967960357666e-01 -2.243620604276657104e-01 -1.442142575979232788e-01 -1.578215043991804123e-03
3.275000000000000000e+03 2.022983741760253906e+01 3.057356262207031250e+01 -2.150534885004162788e-03 -3.537012636661529541e-02 -1.125619746744632721e-02 3.309983015060424805e-02
3.276000000000000000e+03 8.105210304260253906e+00 -5.836095333099365234e+00 -8.768735453486442566e-03 -6.536127626895904541e-02 -2.223900333046913147e-02 1.030906513333320618e-01
3.277000000000000000e+03 7.289571285247802734e+00 -8.439694404602050781e+00 -1.244187876582145691e-01 -6.970314681529998779e-02 -5.823658034205436707e-02 7.210955768823623657e-02
3.278000000000000000e+03 8.271118164062500000e+00 -8.091717720031738281e+00 -1.239764317870140076e-01 -1.050363034009933472e-01 -6.870382279157638550e-02 7.620578259229660034e-02
3.279000000000000000e+03 3.738707351684570312e+01 2.395526695251464844e+01 -1.347378641366958618e-01 3.543031634762883186e-03 -3.935844823718070984e-02 8.968659490346908569e-02
3.280000000000000000e+03 8.470612525939941406e+00 2.460843849182128906e+01 -2.622575266286730766e-03 -3.320798976346850395e-03 -1.783012296073138714e-03 1.453177421353757381e-03
3.281000000000000000e+03 7.227822113037109375e+01 2.614044189453125000e+01 -1.095172986388206482e-01 4.058700084686279297e+00 1.184754848480224609e+00 -1.568065524101257324e+00
3.282000000000000000e+03 7.288259887695312500e+01 4.090697765350341797e+00 -3.290957957506179810e-02 5.102047920227050781e+00 1.520741462707519531e+00 6.917211413383483887e-01
3.283000000000000000e+03 6.630891418457031250e+01 1.073769092559814453e+00 7.087658625096082687e-03 9.549160599708557129e-01 2.886011004447937012e-01 2.026798725128173828e-01
3.284000000000000000e+03 7.453621673583984375e+01 1.361753654479980469e+01 -7.751291394233703613e-01 7.271326541900634766e+00 1.948859333992004395e+00 7.491875290870666504e-01
3.285000000000000000e+03 8.931758880615234375e+00 2.262782859802246094e+01 -2.017930615693330765e-03 -2.921480219811201096e-03 -1.481823273934423923e-03 5.806058179587125778e-04
3.286000000000000000e+03 1.008642101287841797e+01 2.262565422058105469e+01 -3.293166169896721840e-03 -3.359711496159434319e-03 -1.995863392949104309e-03 1.004677149467170238e-03
3.287000000000000000e+03 7.456895446777343750e+01 1.410261058807373047e+01 -8.643581271171569824e-01 7.479829788208007812e+00 1.984641551971435547e+00 9.788784980773925781e-01
3.288000000000000000e+03 7.383396148681640625e+01 -6.985310077667236328e+00 -8.701923489570617676e-02 5.770402431488037109e+00 1.705014944076538086e+00 5.904121398925781250e-01
3.289000000000000000e+03 6.945974731445312500e+01 2.963434696197509766e+00 -9.027985855937004089e-03 2.497151374816894531e+00 7.464370131492614746e-01 5.236213207244873047e-01
3.290000000000000000e+03 9.043334960937500000e+00 1.415102481842041016e+01 7.491958094760775566e-04 -1.079959678463637829e-03 -9.922917524818331003e-05 -4.200963012408465147e-04
3.291000000000000000e+03 7.446471405029296875e+01 -6.072771549224853516e+00 -5.074943974614143372e-02 6.057423591613769531e+00 1.802002310752868652e+00 5.449762940406799316e-01
3.292000000000000000e+03 6.770965576171875000e+01 -1.731568336486816406e+00 2.101538330316543579e-01 1.873183250427246094e+00 6.250011324882507324e-01 4.373353123664855957e-01
3.293000000000000000e+03 1.042059135437011719e+01 7.718781948089599609e+00 3.937054716516286135e-04 -2.952566719613969326e-04 2.953463808808010072e-05 -2.221638533228542656e-05
3.294000000000000000e+03 6.969051361083984375e+01 2.001101016998291016e+00 4.322547093033790588e-02 2.764263391494750977e+00 8.422466516494750977e-01 5.464888811111450195e-01
3.295000000000000000e+03 9.799112319946289062e+00 1.010034465789794922e+01 7.614114438183605671e-04 -4.725499020423740149e-04 8.665846689837053418e-05 -1.325509219896048307e-04
3.296000000000000000e+03 8.490048408508300781e+00 7.852157592773437500e+00 4.343379114288836718e-04 -3.135020087938755751e-04 3.625077806646004319e-05 -3.113183993264101446e-05
3.297000000000000000e+03 8.265151023864746094e+00 8.809054374694824219e+00 3.913664841093122959e-04 -3.990901750512421131e-04 -2.317103735549608245e-06 -9.553276322549208999e-05
3.298000000000000000e+03 9.043921470642089844e+00 8.533655166625976562e+00 4.600097017828375101e-04 -2.606588241178542376e-04 5.980526475468650460e-05 -1.972981117432937026e-04
3.299000000000000000e+03 8.746628761291503906e+00 -6.882768154144287109e+00 -7.074038684368133545e-02 -1.035213693976402283e-01 -5.227852612733840942e-02 8.472473174333572388e-02
3.300000000000000000e+03 8.676630020141601562e+00 -5.922909259796142578e+00 -2.086344733834266663e-02 -8.627496659755706787e-02 -3.214152529835700989e-02 9.098756313323974609e-02
3.301000000000000000e+03 4.816661834716796875e+01 2.860905408859252930e+00 -6.057617138139903545e-04 -3.958066808991134167e-04 -3.004705067723989487e-04 -7.852987619116902351e-05
3.302000000000000000e+03 4.884421157836914062e+01 2.272418737411499023e+00 -1.867620630946476012e-05 1.962365204235538840e-04 5.326809696271084249e-05 6.614697213080944493e-06
3.303000000000000000e+03 4.734590530395507812e+01 2.888893842697143555e+00 3.788108870139694773e-06 1.742633903631940484e-04 5.341545329429209232e-05 6.105725788074778393e-06
3.304000000000000000e+03 4.729567718505859375e+01 2.148694038391113281e+00 -1.003022480290383101e-04 2.949325134977698326e-04 5.838907964061945677e-05 -1.317528804065659642e-04
3.305000000000000000e+03 4.813059616088867188e+01 2.117087602615356445e+00 1.460924249840900302e-04 -3.861848381347954273e-04 -7.202772394521161914e-05 1.498074652772629634e-05
3.306000000000000000e+03 4.574391174316406250e+01 2.291988372802734375e+00 -3.190427087247371674e-04 1.238586846739053726e-04 -5.855520794284529984e-05 -2.403766848146915436e-05
3.307000000000000000e+03 4.508349609375000000e+01 3.115487337112426758e+00 -4.088735149707645178e-04 7.691788050578907132e-05 -9.958668670151382685e-05 -1.598443923285230994e-04
3.308000000000000000e+03 4.654520034790039062e+01 2.946180820465087891e+00 -2.108536427840590477e-04 2.972981565108057112e-05 -5.433714977698400617e-05 -1.461900828871876001e-04
3.309000000000000000e+03 4.435177612304687500e+01 3.206143379211425781e+00 2.944575971923768520e-04 2.829417462635319680e-05 9.682553354650735855e-05 3.736995859071612358e-04
3.310000000000000000e+03 4.426314163208007812e+01 2.471468925476074219e+00 -3.600163327064365149e-04 -1.877219183370471001e-04 -1.643214782234281301e-04 -1.156535363406874239e-04
3.311000000000000000e+03 4.500381088256835938e+01 2.379753112792968750e+00 -1.610155886737629771e-04 -1.158973759629589040e-06 -4.865236769546754658e-05 1.111486053559929132e-04
3.312000000000000000e+03 4.581465530395507812e+01 3.028782367706298828e+00 1.474065065849572420e-04 2.539356682973448187e-05 5.184002293390221894e-05 4.191852349322289228e-05
3.313000000000000000e+03 4.648339843750000000e+01 2.208327293395996094e+00 -1.400649198330938816e-04 -1.833906426327303052e-04 -9.703667456051334739e-05 1.930590588017366827e-05
3.314000000000000000e+03 4.252347946166992188e+01 2.680981159210205078e+00 -3.703823313117027283e-04 -5.341831711120903492e-04 -2.713696449063718319e-04 -2.581322332844138145e-04
3.315000000000000000e+03 4.351091384887695312e+01 3.309151887893676758e+00 -1.632409112062305212e-04 -1.378926481265807524e-05 -5.310905180522240698e-05 -1.491583097958937287e-04
3.316000000000000000e+03 4.341752243041992188e+01 2.575045585632324219e+00 -5.947014869889244437e-05 3.298420924693346024e-04 8.111158240353688598e-05 2.444011915940791368e-04
3.317000000000000000e+03 4.205744171142578125e+01 3.310378789901733398e+00 2.432420442346483469e-04 2.875180798582732677e-04 1.592280314071103930e-04 4.222682036925107241e-04
3.318000000000000000e+03 4.261743545532226562e+01 3.415010452270507812e+00 1.679211563896387815e-04 -3.786711022257804871e-05 3.901621676050126553e-05 1.624622382223606110e-04
3.319000000000000000e+03 4.345193862915039062e+01 9.467082619667053223e-01 -2.270434349775314331e-01 -3.384871408343315125e-02 -7.826764881610870361e-02 -1.358588933944702148e-01
3.320000000000000000e+03 4.217771530151367188e+01 1.240924596786499023e+00 -2.784873545169830322e-02 -7.219777256250381470e-02 -3.001395054161548615e-02 -5.400085449218750000e-02
3.321000000000000000e+03 4.329924774169921875e+01 1.814638257026672363e+00 -6.722988188266754150e-02 -1.425527408719062805e-02 -2.444554679095745087e-02 -2.924381382763385773e-02
3.322000000000000000e+03 4.298704147338867188e+01 9.238630533218383789e-01 -1.887144744396209717e-01 -6.852053105831146240e-02 -7.717049866914749146e-02 -1.310178488492965698e-01
3.323000000000000000e+03 4.261388397216796875e+01 1.074863910675048828e+00 -1.472446173429489136e-01 -1.092705316841602325e-02 -4.745150357484817505e-02 -7.927856594324111938e-02
3.324000000000000000e+03 4.240362930297851562e+01 1.957117438316345215e+00 -5.099485628306865692e-03 1.701981876976788044e-03 -1.019251067191362381e-03 -3.273438895121216774e-03
3.325000000000000000e+03 4.180619812011718750e+01 1.473482251167297363e+00 2.876285091042518616e-02 4.127587005496025085e-02 2.101161517202854156e-02 3.617037832736968994e-02
3.326000000000000000e+03 4.315832901000976562e+01 1.278418898582458496e+00 -1.668668240308761597e-01 -3.213144093751907349e-02 -5.969947949051856995e-02 -9.882420301437377930e-02
3.327000000000000000e+03 4.559793090820312500e+01 7.826830744743347168e-01 -5.551794171333312988e-01 4.220272228121757507e-02 -1.538930088281631470e-01 -1.214515566825866699e-01
3.328000000000000000e+03 4.566867446899414062e+01 1.519477009773254395e+00 -4.614944756031036377e-01 4.537769127637147903e-03 -1.370870023965835571e-01 -1.795821078121662140e-02
3.329000000000000000e+03 4.641819000244140625e+01 1.431636214256286621e+00 -6.014226675033569336e-01 1.633168198168277740e-02 -1.755273044109344482e-01 1.769232330843806267e-03
3.330000000000000000e+03 4.491914367675781250e+01 1.608290433883666992e+00 -3.221333920955657959e-01 1.317940000444650650e-02 -9.268619865179061890e-02 -2.965878322720527649e-02
3.331000000000000000e+03 4.416964721679687500e+01 1.698033809661865234e+00 -1.883130520582199097e-01 1.058937329798936844e-02 -5.331710353493690491e-02 -4.475922510027885437e-02
3.332000000000000000e+03 4.408101654052734375e+01 9.633592367172241211e-01 -3.367082476615905762e-01 1.907903514802455902e-02 -9.528876841068267822e-02 -1.379040181636810303e-01
3.333000000000000000e+03 4.635638427734375000e+01 6.937649250030517578e-01 -6.440541148185729980e-01 3.621449694037437439e-02 -1.823518723249435425e-01 -1.059553995728492737e-01
3.334000000000000000e+03 4.483945465087890625e+01 8.725561499595642090e-01 -4.484566152095794678e-01 3.552512824535369873e-02 -1.238794401288032532e-01 -1.441715657711029053e-01
3.335000000000000000e+03 1.771456718444824219e+01 -1.730482935905456543e+00 2.526280581951141357e-01 1.827590353786945343e-02 8.127119392156600952e-02 -6.676149368286132812e-02
3.336000000000000000e+03 1.610380172729492188e+01 -2.246368169784545898e+00 2.422068417072296143e-01 9.533685632050037384e-03 7.552216202020645142e-02 -9.767221659421920776e-02
3.337000000000000000e+03 1.839386558532714844e+01 -2.573463201522827148e+00 8.815474063158035278e-02 2.694335021078586578e-02 3.452942892909049988e-02 -1.139918714761734009e-01
3.338000000000000000e+03 1.696483802795410156e+01 -1.623387813568115234e+00 3.111944198608398438e-01 6.674257107079029083e-03 9.536059945821762085e-02 -7.305318117141723633e-02
3.339000000000000000e+03 1.846432685852050781e+01 -1.836017131805419922e+00 1.863816976547241211e-01 5.547989159822463989e-03 5.757890641689300537e-02 -6.266836822032928467e-02
3.340000000000000000e+03 1.763043975830078125e+01 -2.465977191925048828e+00 1.505025625228881836e-01 1.369622349739074707e-02 4.925963655114173889e-02 -1.130222678184509277e-01
3.341000000000000000e+03 1.621526145935058594e+01 -1.514777898788452148e+00 3.629072308540344238e-01 1.797146350145339966e-02 1.142636090517044067e-01 -7.500948011875152588e-02
3.342000000000000000e+03 1.686704444885253906e+01 -2.356930017471313477e+00 2.029387354850769043e-01 1.904237270355224609e-02 6.659433245658874512e-02 -1.042206361889839172e-01
3.343000000000000000e+03 1.922108840942382812e+01 -1.901556968688964844e+00 1.046918183565139771e-01 1.741160638630390167e-02 3.663102909922599792e-02 -4.905483871698379517e-02
3.344000000000000000e+03 2.075429344177246094e+01 -2.688717842102050781e+00 -9.437559545040130615e-02 5.855612456798553467e-03 -2.655599638819694519e-02 -9.713356941938400269e-02
3.345000000000000000e+03 1.917129516601562500e+01 -2.640394687652587891e+00 2.695014700293540955e-02 1.373697351664304733e-02 1.220613624900579453e-02 -1.194804683327674866e-01
3.346000000000000000e+03 2.154723358154296875e+01 -2.711827993392944336e+00 -1.445925086736679077e-01 1.946259476244449615e-02 -3.753897547721862793e-02 -8.070735633373260498e-02
3.347000000000000000e+03 2.151402282714843750e+01 -1.970406651496887207e+00 -1.292194873094558716e-01 -1.135165523737668991e-02 -4.217134416103363037e-02 -3.111558780074119568e-02
3.348000000000000000e+03 1.998429870605468750e+01 -1.925167441368103027e+00 1.833516731858253479e-02 -5.750245414674282074e-03 3.775476245209574699e-03 -4.107038676738739014e-02
3.349000000000000000e+03 1.996217155456542969e+01 -2.664836645126342773e+00 -3.304379805922508240e-02 2.303453534841537476e-02 -3.002778394147753716e-03 -1.068014129996299744e-01
3.350000000000000000e+03 2.074875450134277344e+01 -1.948217391967773438e+00 -5.845888704061508179e-02 1.507655531167984009e-02 -1.301469933241605759e-02 -3.380622714757919312e-02
3.351000000000000000e+03 2.611742591857910156e+01 -1.812861442565917969e+00 -3.854573518037796021e-02 -1.748411171138286591e-02 -1.680895313620567322e-02 2.659558877348899841e-02
3.352000000000000000e+03 2.535475349426269531e+01 -1.400197505950927734e+00 -3.563350811600685120e-02 2.840889617800712585e-03 -9.837785735726356506e-03 1.044793520122766495e-02
3.353000000000000000e+03 2.464254951477050781e+01 -1.533933281898498535e+00 -8.835770934820175171e-02 -3.031131345778703690e-03 -2.741665206849575043e-02 1.700114458799362183e-02
3.354000000000000000e+03 2.386987686157226562e+01 -1.667217731475830078e+00 -1.359422206878662109e-01 1.956243813037872314e-02 -3.491393476724624634e-02 -3.318248782306909561e-03
3.355000000000000000e+03 2.308257675170898438e+01 -1.796454071998596191e+00 -1.630775630474090576e-01 -5.187226925045251846e-03 -5.047943443059921265e-02 -1.668636687099933624e-02
3.356000000000000000e+03 2.229188537597656250e+01 -1.919883370399475098e+00 -1.679670959711074829e-01 9.077495895326137543e-03 -4.766688123345375061e-02 -3.055613674223423004e-02
3.357000000000000000e+03 2.236002731323242188e+01 -2.659403562545776367e+00 -1.786731034517288208e-01 7.624204736202955246e-03 -5.131467059254646301e-02 -4.879706725478172302e-02
3.358000000000000000e+03 2.559163856506347656e+01 -2.120468139648437500e+00 -1.482550799846649170e-01 -1.761730946600437164e-02 -4.976171627640724182e-02 7.214710116386413574e-02
3.359000000000000000e+03 2.483724784851074219e+01 -2.259016275405883789e+00 -1.908267140388488770e-01 3.629802167415618896e-02 -4.635860398411750793e-02 3.547939285635948181e-02
3.360000000000000000e+03 2.402239036560058594e+01 -2.397113323211669922e+00 -2.040415108203887939e-01 2.570062689483165741e-02 -5.350226536393165588e-02 1.352495513856410980e-02
3.361000000000000000e+03 2.319290542602539062e+01 -2.531162023544311523e+00 -2.033151239156723022e-01 3.443436324596405029e-02 -5.066422745585441589e-02 -1.910180412232875824e-02
3.362000000000000000e+03 2.371628379821777344e+01 -9.129138588905334473e-01 -1.141598659160081297e-05 -2.357007906539365649e-05 -1.049581987899728119e-05 -1.327780978499504272e-06
3.363000000000000000e+03 2.216311264038085938e+01 -4.021605253219604492e-01 1.277020419365726411e-05 3.163812652928754687e-05 1.332249848928768188e-05 -8.282662747660651803e-06
3.364000000000000000e+03 2.297673416137695312e+01 -1.029608249664306641e+00 3.087462800976936705e-07 3.177803591825067997e-05 9.626034625398460776e-06 1.568105062688118778e-06
3.365000000000000000e+03 2.288781547546386719e+01 -2.915260493755340576e-01 1.482180095990770496e-06 -4.898263432551175356e-05 -1.425013670086627826e-05 -9.982597930502379313e-07
3.366000000000000000e+03 2.359944915771484375e+01 -1.773885339498519897e-01 1.281000186281744391e-05 4.419021934154443443e-05 1.710006654320750386e-05 2.519956979085691273e-05
3.367000000000000000e+03 2.222411346435546875e+01 -1.142714738845825195e+00 -5.439976121124345809e-06 -3.473869583103805780e-05 -1.205360149469925091e-05 1.947329110407736152e-06
3.368000000000000000e+03 2.425791740417480469e+01 -6.540381163358688354e-02 -3.954702333430759609e-05 -3.660221182144596241e-06 -1.296217396884458140e-05 -2.634189695527311414e-05
3.369000000000000000e+03 2.440266609191894531e+01 -7.983722686767578125e-01 9.978972229873761535e-06 2.023852903221268207e-05 9.065250196726992726e-06 -8.360025276488158852e-06
3.370000000000000000e+03 2.494900894165039062e+01 -5.251957774162292480e-01 -2.339403863516054116e-06 -1.467559650336625054e-05 -5.104500360175734386e-06 2.640227876327116974e-06
3.371000000000000000e+03 2.074404335021972656e+01 -1.171212673187255859e+00 -1.506308126408839598e-05 -2.709684486035257578e-05 -1.264797811018070206e-05 -2.335436647626920603e-06
3.372000000000000000e+03 2.073850631713867188e+01 -4.307121932506561279e-01 2.117609437846112996e-05 3.254159673815593123e-05 1.611530751688405871e-05 5.201746375860238913e-07
3.373000000000000000e+03 2.144596099853515625e+01 -4.485336542129516602e-01 -2.493623105692677200e-05 -3.132861820631660521e-05 -1.687945405137725174e-05 1.047792892450161162e-07
3.374000000000000000e+03 1.932354164123535156e+01 -3.847304880619049072e-01 9.272489478462375700e-06 3.913581895176321268e-05 1.452249216526979581e-05 1.048941521730739623e-05
3.375000000000000000e+03 2.000878715515136719e+01 -1.149096250534057617e+00 -3.578405994630884379e-06 2.988474989251699299e-05 7.891902896517422050e-06 3.796114242504700087e-06
3.376000000000000000e+03 1.927374839782714844e+01 -1.123568177223205566e+00 -1.963601971510797739e-05 -3.570002809283323586e-05 -1.660081397858448327e-05 -7.972328603500500321e-06
3.377000000000000000e+03 2.147916603088378906e+01 -1.189865589141845703e+00 3.130160166620044038e-06 3.086922151851467788e-05 1.019981482386356220e-05 -4.851552603213349357e-06
3.378000000000000000e+03 2.003091430664062500e+01 -4.094271957874298096e-01 -2.678869532246608287e-05 -3.488182483124546707e-05 -1.850115586421452463e-05 -1.614436587260570377e-05
3.379000000000000000e+03 1.706781387329101562e+01 -8.498843908309936523e-01 -1.365728985547320917e-05 2.981994475703686476e-05 4.848796834266977385e-06 1.461266947444528341e-06
3.380000000000000000e+03 1.780313491821289062e+01 -9.543285965919494629e-01 -2.082902028632815927e-05 -3.865703547489829361e-05 -1.784581763786263764e-05 -2.744688174516340951e-07
3.381000000000000000e+03 1.633273124694824219e+01 -7.435764670372009277e-01 -1.629867438168730587e-05 -1.500538564869202673e-05 -9.391217645315919071e-06 9.849843081610742956e-06
3.382000000000000000e+03 1.853857803344726562e+01 -1.058050036430358887e+00 -1.149778745457297191e-05 4.113710747333243489e-05 8.891795914678368717e-06 6.833695351815549657e-06
3.383000000000000000e+03 1.860903930664062500e+01 -3.206039965152740479e-01 -1.717559644021093845e-05 -3.168417606502771378e-05 -1.465793138777371496e-05 -8.774974048719741404e-06
3.384000000000000000e+03 1.644419097900390625e+01 -1.198618113994598389e-02 1.613651329535059631e-05 1.608022466825786978e-05 9.665021025284659117e-06 -1.108780179492896423e-05
3.385000000000000000e+03 1.788726234436035156e+01 -2.188344895839691162e-01 5.026412850384076592e-07 3.482999454718083143e-05 1.059979058481985703e-05 7.226591236531021423e-08
3.386000000000000000e+03 1.716560745239257812e+01 -1.163421869277954102e-01 -6.069566097721690312e-06 -2.383171522524207830e-05 -8.970384442363865674e-06 1.694645834504626691e-05
3.387000000000000000e+03 1.425216674804687500e+01 3.718594610691070557e-01 1.848105421231593937e-05 1.081828759197378531e-05 8.789802450337447226e-06 2.316770951438229531e-05
3.388000000000000000e+03 1.486107063293457031e+01 -4.904564023017883301e-01 -3.710666760525782593e-07 1.258425345440628007e-05 3.663956022137426771e-06 1.197481196868466213e-05
3.389000000000000000e+03 1.338883495330810547e+01 -2.235203832387924194e-01 3.026589729415718466e-05 2.357202174607664347e-05 1.615137625776696950e-05 6.863841463200515136e-06
3.390000000000000000e+03 1.498471641540527344e+01 2.391885817050933838e-01 4.505663673626258969e-05 -8.736854397284332663e-06 1.089593479264294729e-05 1.743025450196000747e-06
3.391000000000000000e+03 1.559718132019042969e+01 -6.234676241874694824e-01 -1.184410734822449740e-06 -1.456655240872350987e-06 -7.923197813397564460e-07 -1.662926933931885287e-06
3.392000000000000000e+03 1.571725749969482422e+01 1.068236008286476135e-01 -3.188545633747708052e-06 -1.937735760293435305e-06 -1.537884372737607919e-06 2.851064527931157500e-05
3.393000000000000000e+03 1.351961708068847656e+01 5.048320889472961426e-01 7.953641761559993029e-05 -2.196859168179798871e-05 1.727034941723104566e-05 1.637737659621052444e-05
3.394000000000000000e+03 1.412495326995849609e+01 -3.571392297744750977e-01 2.494141335773747414e-05 -2.314854100404772907e-05 5.378617515816586092e-07 -9.890402452583657578e-07
3.395000000000000000e+03 1.115447902679443359e+01 1.927391290664672852e-01 1.120676388381980360e-04 -1.731639531499240547e-05 2.842537287506274879e-05 -3.987488071288680658e-06
3.396000000000000000e+03 1.124617767333984375e+01 9.282501339912414551e-01 9.119587048189714551e-05 2.960196297863149084e-06 2.824682087521068752e-05 2.385835159657290205e-06
3.397000000000000000e+03 1.040858840942382812e+01 3.243718445301055908e-01 1.266657782252877951e-04 1.157424230768810958e-05 4.147200525039806962e-05 -1.134671401814557612e-05
3.398000000000000000e+03 1.190096187591552734e+01 5.598175525665283203e-02 7.316040137084200978e-05 1.988832445931620896e-05 2.791461702145170420e-05 -2.564002670624176972e-06
3.399000000000000000e+03 1.277217197418212891e+01 6.438671946525573730e-01 5.082539064460434020e-05 1.117294232244603336e-05 1.859949952631723136e-05 1.455855999665800482e-05
3.400000000000000000e+03 1.264777946472167969e+01 -8.565847575664520264e-02 6.452020897995680571e-05 -2.569295611465349793e-05 1.164817695098463446e-05 -1.221383627125760540e-06
3.401000000000000000e+03 1.048394012451171875e+01 1.062875509262084961e+00 1.456727186450734735e-04 -9.074659828911535442e-06 4.097941564396023750e-05 2.322748696315102279e-05
3.402000000000000000e+03 1.200900745391845703e+01 7.885000705718994141e-01 1.203612482640892267e-04 -2.313620461791288108e-05 2.916751327575184405e-05 2.433478766761254519e-05
3.403000000000000000e+03 9.734361648559570312e+00 1.127145886421203613e+00 1.095054176403209567e-04 -4.503061063587665558e-06 3.150070551782846451e-05 -1.717363556963391602e-05
3.404000000000000000e+03 8.896935462951660156e+00 3.830009996891021729e-01 1.311195519519969821e-04 -1.114640326704829931e-05 3.599194678827188909e-05 -1.075696309271734208e-05
3.405000000000000000e+03 8.138064384460449219e+00 3.806286156177520752e-01 1.359302696073427796e-04 1.651385173317976296e-05 4.573323531076312065e-05 1.291698140448716003e-06
3.406000000000000000e+03 7.379830837249755859e+00 3.796389997005462646e-01 1.058738562278449535e-04 -2.251602381875272840e-05 2.500734990462660789e-05 -1.428543964721029624e-05
3.407000000000000000e+03 5.863903999328613281e+00 3.757120370864868164e-01 6.920302985236048698e-05 -1.749750299495644867e-05 1.551165769342333078e-05 -1.146569684351561591e-05
3.408000000000000000e+03 5.320739269256591797e+00 1.112017512321472168e+00 6.098732410464435816e-05 -6.377764748322078958e-06 1.638286812521982938e-05 -1.904032251331955194e-05
3.409000000000000000e+03 4.347909450531005859e+00 3.707045614719390869e-01 3.334726716275326908e-05 5.459694421006133780e-06 1.164208879345096648e-05 3.948780999962764326e-07
3.410000000000000000e+03 2.832280635833740234e+00 3.607113361358642578e-01 3.213220452380483039e-06 3.607699909480288625e-05 1.178706588689237833e-05 1.443189103156328201e-05
3.411000000000000000e+03 2.076677560806274414e+00 3.580510318279266357e-01 6.820576345489826053e-06 -3.652438681456260383e-05 -8.911142685974482447e-06 -1.599289134901482612e-05
3.412000000000000000e+03 2.381986141204833984e+00 1.098051071166992188e+00 -1.694037928245961666e-05 4.055238969158381224e-05 7.083603577484609559e-06 5.782871539850020781e-06
3.413000000000000000e+03 1.333416581153869629e+00 3.665323555469512939e-01 1.393742650179774500e-06 3.528200250002555549e-05 1.100272402254631743e-05 1.519641591585241258e-05
3.414000000000000000e+03 1.661404132843017578e+00 1.106532335281372070e+00 3.260159428464248776e-05 -3.236583506804890931e-05 7.072809893315934460e-08 -5.398042048909701407e-06
3.415000000000000000e+03 6.549507379531860352e-01 3.948049247264862061e-01 -7.854239083826541901e-05 -6.089829184929840267e-05 -4.183220517006702721e-05 -6.516665598610416055e-05
3.416000000000000000e+03 3.114910125732421875e+00 1.100711345672607422e+00 4.162194090895354748e-05 -1.084250561689259484e-05 9.233830496668815613e-06 -3.781619670917280018e-05
3.417000000000000000e+03 3.589553356170654297e+00 3.676617443561553955e-01 1.589826024428475648e-05 -2.041532570729032159e-05 -1.355119707113772165e-06 -2.341207255085464567e-05
3.418000000000000000e+03 5.106146812438964844e+00 3.720174431800842285e-01 5.787492045783437788e-05 8.427388820564374328e-06 1.989069278351962566e-05 -1.224729930981993675e-05
3.419000000000000000e+03 6.055817127227783203e+00 1.115712046623229980e+00 1.005182493827305734e-04 9.779464562598150223e-06 3.308931263745762408e-05 -3.067735087824985385e-05
3.420000000000000000e+03 6.621888637542724609e+00 3.785927593708038330e-01 1.018510156427510083e-04 2.134137321263551712e-05 3.695771738421171904e-05 -4.173684828856494278e-06
3.421000000000000000e+03 8.261940002441406250e+00 1.120628595352172852e+00 1.089568540919572115e-04 -1.458587576053105295e-05 2.831129313562996686e-05 -2.771611616481095552e-05
3.422000000000000000e+03 8.998131752014160156e+00 1.123000979423522949e+00 1.554786867927759886e-04 1.609145442671433557e-06 4.712634836323559284e-05 4.823082235816400498e-06
3.423000000000000000e+03 9.655843734741210938e+00 3.871458470821380615e-01 1.546035491628572345e-04 2.565154090916621499e-06 4.715061368187889457e-05 2.153476089006289840e-06
3.424000000000000000e+03 7.526385784149169922e+00 1.119639039039611816e+00 1.361787290079519153e-04 7.099139565980294719e-06 4.298335989005863667e-05 -1.276653802051441744e-05
3.425000000000000000e+03 6.791122913360595703e+00 1.118592739105224609e+00 8.896431972971186042e-05 -1.555226663185749203e-05 2.202361611125525087e-05 -2.953552575490903109e-05
3.426000000000000000e+03 4.585180759429931641e+00 1.110704541206359863e+00 6.168190157040953636e-05 3.191329824403510429e-06 1.946196789504028857e-05 -4.139531665714457631e-05
3.427000000000000000e+03 3.849503755569458008e+00 1.107661724090576172e+00 3.071882383665069938e-05 8.728014108783099800e-06 1.183405129268066958e-05 -4.108172106498386711e-06
3.428000000000000000e+03 1.005617380142211914e+00 1.134804964065551758e+00 5.966336539131589234e-05 -1.520442310720682144e-05 1.333768250333378091e-05 -4.545232059172121808e-06
3.429000000000000000e+03 3.521488606929779053e-01 9.576021432876586914e-01 7.996978820301592350e-05 4.861468551098369062e-05 3.857534102280624211e-05 3.499915692373178899e-05
3.430000000000000000e+03 1.473077964782714844e+01 -1.259489893913269043e+00 4.071889221668243408e-01 1.480829901993274689e-02 1.265991628170013428e-01 -7.728075236082077026e-02
3.431000000000000000e+03 1.399090099334716797e+01 -1.125491499900817871e+00 4.109016060829162598e-01 8.511913940310478210e-03 1.258240640163421631e-01 -7.414304465055465698e-02
3.432000000000000000e+03 1.312020874023437500e+01 -1.719582676887512207e+00 3.153499066829681396e-01 -6.359225604683160782e-03 9.269721060991287231e-02 -4.550245404243469238e-02
3.433000000000000000e+03 1.535054302215576172e+01 -2.123512268066406250e+00 2.769079804420471191e-01 1.095885317772626877e-02 8.636005222797393799e-02 -8.073545992374420166e-02
3.434000000000000000e+03 1.547062015533447266e+01 -1.393221139907836914e+00 3.943399190902709961e-01 1.136868819594383240e-02 1.217125803232192993e-01 -8.017398416996002197e-02
3.435000000000000000e+03 1.460713481903076172e+01 -1.989134907722473145e+00 3.008843064308166504e-01 8.157201955327764153e-05 9.028976410627365112e-02 -7.049059122800827026e-02
3.436000000000000000e+03 1.325099086761474609e+01 -9.912301898002624512e-01 4.058656394481658936e-01 1.112330239266157150e-02 1.250966787338256836e-01 -6.761617213487625122e-02
3.437000000000000000e+03 1.386368751525878906e+01 -1.854490160942077637e+00 3.129922747611999512e-01 8.897305815480649471e-04 9.416460245847702026e-02 -5.645743384957313538e-02
3.438000000000000000e+03 4.878850173950195312e+01 1.049355626106262207e+00 -6.633851528167724609e-01 1.517784744501113892e-01 -1.534820199012756348e-01 1.181191951036453247e-01
3.439000000000000000e+03 5.012623596191406250e+01 9.023151993751525879e-01 -9.759872555732727051e-01 -2.726927399635314941e-01 -3.746040165424346924e-01 3.539760708808898926e-01
3.440000000000000000e+03 4.808418273925781250e+01 1.328896045684814453e+00 -6.565154790878295898e-01 4.520868137478828430e-02 -1.833920329809188843e-01 5.779535695910453796e-02
3.441000000000000000e+03 4.723052215576171875e+01 1.373414754867553711e+00 -6.938621997833251953e-01 -1.177545357495546341e-02 -2.116912901401519775e-01 2.048109425231814384e-03
3.442000000000000000e+03 4.713285446166992188e+01 6.349517107009887695e-01 -7.105779051780700684e-01 4.302200302481651306e-02 -2.002667784690856934e-01 -4.141454026103019714e-02
3.443000000000000000e+03 4.976459503173828125e+01 6.056182384490966797e-01 -1.313591957092285156e+00 -9.727799333631992340e-03 -3.969959318637847900e-01 1.296334266662597656e-01
3.444000000000000000e+03 4.861405944824218750e+01 4.997989833354949951e-01 -9.827345609664916992e-01 1.584590375423431396e-01 -2.472826540470123291e-01 5.815640464425086975e-02
3.445000000000000000e+03 4.930008697509765625e+01 1.340341091156005859e+00 -3.896748423576354980e-01 -1.097773388028144836e-02 -1.201957762241363525e-01 2.783897221088409424e-01
3.446000000000000000e+03 4.923085403442382812e+01 4.904414713382720947e-01 -1.055081486701965332e+00 1.142837479710578918e-01 -2.822393476963043213e-01 5.363699048757553101e-02
3.447000000000000000e+03 4.790584564208984375e+01 5.903443694114685059e-01 -8.225584626197814941e-01 9.529104083776473999e-02 -2.181802242994308472e-01 3.016130626201629639e-02
3.448000000000000000e+03 1.105858802795410156e+01 -5.865809917449951172e-01 3.370135128498077393e-01 1.744379289448261261e-03 1.016273647546768188e-01 -4.371159151196479797e-02
3.449000000000000000e+03 1.167972469329833984e+01 -1.452614903450012207e+00 3.012267649173736572e-01 -1.347308699041604996e-02 8.632609993219375610e-02 -1.976799033582210541e-02
3.450000000000000000e+03 1.025387477874755859e+01 -1.193646550178527832e+00 2.757619321346282959e-01 -2.579173631966114044e-02 7.499105483293533325e-02 3.500743769109249115e-03
3.451000000000000000e+03 1.239226341247558594e+01 -1.585148334503173828e+00 3.122608959674835205e-01 -7.568808738142251968e-03 9.140762686729431152e-02 -3.083818405866622925e-02
3.452000000000000000e+03 1.251665687561035156e+01 -8.556226491928100586e-01 3.911761045455932617e-01 6.214300170540809631e-03 1.192171201109886169e-01 -6.210273131728172302e-02
3.453000000000000000e+03 1.178777027130126953e+01 -7.200965881347656250e-01 3.685438930988311768e-01 6.098174024373292923e-03 1.123926192522048950e-01 -5.321623384952545166e-02
3.454000000000000000e+03 1.096688938140869141e+01 -1.322091937065124512e+00 2.861979901790618896e-01 -1.847524754703044891e-02 8.031682670116424561e-02 -4.640126600861549377e-03
3.455000000000000000e+03 1.032922649383544922e+01 -4.551429152488708496e-01 2.937986254692077637e-01 -6.514511071145534515e-03 8.618523180484771729e-02 -2.685140073299407959e-02
3.456000000000000000e+03 8.732760429382324219e+00 -1.120617032051086426e+00 2.271544933319091797e-01 -1.363363768905401230e-02 6.405625492334365845e-02 2.250164188444614410e-02
3.457000000000000000e+03 8.744119644165039062e+00 -3.806170821189880371e-01 2.735136151313781738e-01 -2.031982643529772758e-03 8.144448697566986084e-02 7.412243168801069260e-03
3.458000000000000000e+03 9.557686805725097656e+00 -3.860147297382354736e-01 2.750410139560699463e-01 -8.999720215797424316e-03 7.981239259243011475e-02 -5.517290905117988586e-03
3.459000000000000000e+03 7.929113388061523438e+00 -3.783791959285736084e-01 2.510404288768768311e-01 -1.772103714756667614e-03 7.478050142526626587e-02 1.186173502355813980e-02
3.460000000000000000e+03 6.294783592224121094e+00 -3.763209879398345947e-01 1.841020584106445312e-01 -3.291471221018582582e-04 5.513187125325202942e-02 1.596698909997940063e-02
3.461000000000000000e+03 5.471644878387451172e+00 -3.752553761005401611e-01 1.454971879720687866e-01 -5.803712410852313042e-04 4.347504302859306335e-02 1.703949272632598877e-02
3.462000000000000000e+03 4.613348007202148438e+00 -3.803671598434448242e-01 1.054695695638656616e-01 5.298285395838320255e-04 3.179981932044029236e-02 1.696620695292949677e-02
3.463000000000000000e+03 3.732568025588989258e+00 -3.332802653312683105e-01 7.089303433895111084e-02 2.392511582002043724e-03 2.198566496372222900e-02 1.358812116086483002e-02
3.464000000000000000e+03 3.565870285034179688e+00 -8.610453605651855469e-01 6.585568934679031372e-02 3.409148659557104111e-03 2.077945135533809662e-02 3.251455724239349365e-02
3.465000000000000000e+03 2.136041402816772461e+00 -7.255376577377319336e-01 2.394396066665649414e-02 4.605747293680906296e-03 8.564912714064121246e-03 1.537050865590572357e-02
3.466000000000000000e+03 1.105533838272094727e+00 -3.810451924800872803e-01 2.081688260659575462e-03 1.760114217177033424e-03 1.152540789917111397e-03 1.883576507680118084e-03
3.467000000000000000e+03 3.938522040843963623e-01 -5.564679503440856934e-01 -9.347139712190255523e-05 -3.594522131606936455e-04 -1.358770823571830988e-04 -2.081111160805448890e-04
3.468000000000000000e+03 6.703363060951232910e-01 -1.121045231819152832e+00 4.385004751384258270e-03 4.379183519631624222e-03 2.629256574437022209e-03 4.293351434171199799e-03
3.469000000000000000e+03 9.509115219116210938e+00 -1.126014709472656250e+00 2.553552985191345215e-01 -2.165261097252368927e-02 7.011080533266067505e-02 9.154979139566421509e-03
3.470000000000000000e+03 7.954967498779296875e+00 -1.118379235267639160e+00 2.089003622531890869e-01 -6.495818495750427246e-03 6.072136387228965759e-02 3.503220155835151672e-02
3.471000000000000000e+03 7.175180912017822266e+00 -1.117205142974853516e+00 1.850827932357788086e-01 -4.842781461775302887e-03 5.407200008630752563e-02 4.137786105275154114e-02
3.472000000000000000e+03 6.395063877105712891e+00 -1.116320967674255371e+00 1.593388319015502930e-01 -2.055428456515073776e-03 4.718502238392829895e-02 4.573170468211174011e-02
3.473000000000000000e+03 5.609138011932373047e+00 -1.115255355834960938e+00 1.320683360099792480e-01 -7.247088360600173473e-04 3.940309211611747742e-02 4.642185568809509277e-02
3.474000000000000000e+03 4.788054466247558594e+00 -1.120367169380187988e+00 1.030021384358406067e-01 1.423914683982729912e-03 3.132781386375427246e-02 4.553311690688133240e-02
3.475000000000000000e+03 4.061712265014648438e+00 -1.217836499214172363e+00 7.696574926376342773e-02 5.355420056730508804e-03 2.469635009765625000e-02 4.509247094392776489e-02
3.476000000000000000e+03 3.415162801742553711e+00 -1.287765026092529297e+00 5.601519718766212463e-02 7.642296142876148224e-03 1.909724809229373932e-02 4.466219618916511536e-02
3.477000000000000000e+03 2.701009988784790039e+00 -1.257357716560363770e+00 4.102646559476852417e-02 9.725214913487434387e-03 1.522550359368324280e-02 3.713790327310562134e-02
3.478000000000000000e+03 1.974916696548461914e+00 -1.234486579895019531e+00 2.267204970121383667e-02 1.254607178270816803e-02 1.056543644517660141e-02 2.473977021872997284e-02
3.479000000000000000e+03 7.112113475799560547e+00 -3.772051930427551270e-01 2.201088964939117432e-01 -7.522551459260284901e-04 6.580699235200881958e-02 1.470704842358827591e-02
3.480000000000000000e+03 2.813032150268554688e+00 -7.646003365516662598e-01 4.162857308983802795e-02 3.845037892460823059e-03 1.364208292216062546e-02 2.317168191075325012e-02
3.481000000000000000e+03 2.897913694381713867e+00 -2.672426402568817139e-01 3.604301437735557556e-02 1.316323992796242237e-03 1.120780128985643387e-02 7.558099459856748581e-03
3.482000000000000000e+03 1.625427722930908203e+00 -5.587234497070312500e-01 1.019977312535047531e-02 2.704697195440530777e-03 3.871341003105044365e-03 6.055898964405059814e-03
3.483000000000000000e+03 1.293549656867980957e+00 -1.184639215469360352e+00 8.884960785508155823e-03 9.633020497858524323e-03 5.555394571274518967e-03 1.212204806506633759e-02
3.484000000000000000e+03 2.151047229766845703e+00 -2.510510981082916260e-01 1.412958372384309769e-02 1.568648876855149865e-04 4.285934381186962128e-03 4.888175055384635925e-03
3.485000000000000000e+03 7.551218414306640625e+01 1.954405403137207031e+01 3.158148956298828125e+01 5.841158390045166016e+00 1.122679424285888672e+01 1.157230949401855469e+01
3.486000000000000000e+03 7.551577758789062500e+01 1.952491950988769531e+01 2.919868659973144531e+01 1.777741050720214844e+01 1.409282970428466797e+01 2.284374427795410156e+01
3.487000000000000000e+03 7.552302551269531250e+01 1.950685119628906250e+01 2.692303085327148438e+01 2.951962852478027344e+01 1.693279838562011719e+01 2.688863754272460938e+01
3.488000000000000000e+03 7.553365325927734375e+01 1.949053955078125000e+01 2.308376121520996094e+01 4.179160690307617188e+01 1.946261024475097656e+01 2.821562385559082031e+01
3.489000000000000000e+03 7.554725646972656250e+01 1.947661018371582031e+01 1.964646148681640625e+01 5.314498138427734375e+01 2.183743286132812500e+01 2.651254844665527344e+01
3.490000000000000000e+03 7.556330871582031250e+01 1.946559333801269531e+01 1.617694473266601562e+01 6.283916091918945312e+01 2.370483207702636719e+01 2.235202407836914062e+01
3.491000000000000000e+03 7.558119964599609375e+01 1.945791244506835938e+01 1.443436527252197266e+01 7.006358337402343750e+01 2.534938430786132812e+01 1.627232170104980469e+01
3.492000000000000000e+03 7.560023498535156250e+01 1.945386123657226562e+01 1.412084197998046875e+01 7.411914825439453125e+01 2.647199630737304688e+01 9.080681800842285156e+00
3.493000000000000000e+03 7.561970520019531250e+01 1.945359611511230469e+01 1.609751510620117188e+01 7.504848480224609375e+01 2.734379959106445312e+01 1.926705002784729004e+00
3.494000000000000000e+03 7.563884735107421875e+01 1.945712471008300781e+01 1.970047378540039062e+01 7.299889373779296875e+01 2.780981063842773438e+01 -4.330205440521240234e+00
3.495000000000000000e+03 7.565694427490234375e+01 1.946431350708007812e+01 2.470194244384765625e+01 6.890689086914062500e+01 2.808265113830566406e+01 -8.788093566894531250e+00
3.496000000000000000e+03 7.567329406738281250e+01 1.947488784790039062e+01 3.023314285278320312e+01 6.351655960083007812e+01 2.812491035461425781e+01 -1.116695308685302734e+01
3.497000000000000000e+03 7.568726348876953125e+01 1.948844146728515625e+01 3.552336502075195312e+01 5.801100540161132812e+01 2.806031227111816406e+01 -1.135118675231933594e+01
3.498000000000000000e+03 7.569833374023437500e+01 1.950445556640625000e+01 4.011778640747070312e+01 5.310169219970703125e+01 2.796584320068359375e+01 -9.607527732849121094e+00
3.499000000000000000e+03 7.570607757568359375e+01 1.952231979370117188e+01 4.332013702392578125e+01 4.941147613525390625e+01 2.781948280334472656e+01 -6.497312068939208984e+00
3.500000000000000000e+03 7.571018981933593750e+01 1.954134750366210938e+01 4.514855575561523438e+01 4.752347183227539062e+01 2.780160903930664062e+01 -2.408735513687133789e+00
3.501000000000000000e+03 7.571051788330078125e+01 1.956081390380859375e+01 4.525617218017578125e+01 4.730704116821289062e+01 2.776896476745605469e+01 1.979508042335510254e+00
3.502000000000000000e+03 7.570705413818359375e+01 1.957997131347656250e+01 4.374640655517578125e+01 4.900865173339843750e+01 2.782651901245117188e+01 6.135894298553466797e+00
3.503000000000000000e+03 7.569992828369140625e+01 1.959808731079101562e+01 4.074774932861328125e+01 5.256884765625000000e+01 2.799497985839843750e+01 9.479271888732910156e+00
3.504000000000000000e+03 7.568940734863281250e+01 1.961446952819824219e+01 3.619041824340820312e+01 5.722592163085937500e+01 2.802490234375000000e+01 1.155853652954101562e+01
3.505000000000000000e+03 7.567589569091796875e+01 1.962849044799804688e+01 3.105241966247558594e+01 6.283272171020507812e+01 2.816554260253906250e+01 1.166622066497802734e+01
3.506000000000000000e+03 7.565991973876953125e+01 1.963961219787597656e+01 2.525162696838378906e+01 6.831736755371093750e+01 2.807069778442382812e+01 9.660896301269531250e+00
3.507000000000000000e+03 7.564208221435546875e+01 1.964741134643554688e+01 2.011682891845703125e+01 7.271191406250000000e+01 2.784862327575683594e+01 5.505699634552001953e+00
3.508000000000000000e+03 7.562306976318359375e+01 1.965158843994140625e+01 1.606666374206542969e+01 7.513014221191406250e+01 2.735904121398925781e+01 -5.583639144897460938e-01
3.509000000000000000e+03 7.560360717773437500e+01 1.965198326110839844e+01 1.378012657165527344e+01 7.471217346191406250e+01 2.654769134521484375e+01 -7.635883331298828125e+00
3.510000000000000000e+03 7.558443450927734375e+01 1.964858245849609375e+01 1.364774703979492188e+01 7.111696624755859375e+01 2.542941284179687500e+01 -1.496296882629394531e+01
3.511000000000000000e+03 7.556629943847656250e+01 1.964151382446289062e+01 1.511631107330322266e+01 6.434133911132812500e+01 2.383729553222656250e+01 -2.129939079284667969e+01
3.512000000000000000e+03 7.554988098144531250e+01 1.963104820251464844e+01 1.839718437194824219e+01 5.494377517700195312e+01 2.200228691101074219e+01 -2.586269187927246094e+01
3.513000000000000000e+03 7.553581237792968750e+01 1.961758804321289062e+01 2.189681625366210938e+01 4.373365402221679688e+01 1.968914222717285156e+01 -2.799765396118164062e+01
3.514000000000000000e+03 7.552463531494140625e+01 1.960164642333984375e+01 2.596501731872558594e+01 3.135065841674804688e+01 1.719470405578613281e+01 -2.712849617004394531e+01
3.515000000000000000e+03 7.551678466796875000e+01 1.958383560180664062e+01 2.860590362548828125e+01 1.930038452148437500e+01 1.437188625335693359e+01 -2.344578933715820312e+01
3.516000000000000000e+03 7.551254272460937500e+01 1.956483459472656250e+01 3.180516624450683594e+01 6.684466838836669922e+00 1.154688930511474609e+01 -1.251339721679687500e+01
