# el_label, x, y, sXX, sYY, sZZ, sXY
1.000000000000000000e+00 1.771456718444824219e+01 -1.730482935905456543e+00 -8.031442165374755859e-01 -9.434985928237438202e-03 -2.437737733125686646e-01 8.509150892496109009e-02
2.000000000000000000e+00 1.610380172729492188e+01 -2.246368169784545898e+00 -6.200273633003234863e-01 -4.959406214766204357e-04 -1.861569881439208984e-01 2.011689357459545135e-02
3.000000000000000000e+00 1.839386558532714844e+01 -2.573463201522827148e+00 -7.251426577568054199e-01 -1.915267482399940491e-02 -2.232885956764221191e-01 1.668565906584262848e-02
4.000000000000000000e+00 1.696483802795410156e+01 -1.623387813568115234e+00 -7.494617700576782227e-01 -9.782635606825351715e-03 -2.277733236551284790e-01 8.076206594705581665e-02
5.000000000000000000e+00 1.846432685852050781e+01 -1.836017131805419922e+00 -8.830890059471130371e-01 -2.219196222722530365e-02 -2.715842723846435547e-01 7.476314902305603027e-02
6.000000000000000000e+00 1.763043975830078125e+01 -2.465977191925048828e+00 -7.116791605949401855e-01 -5.176445469260215759e-03 -2.150566875934600830e-01 1.910125464200973511e-02
7.000000000000000000e+00 1.621526145935058594e+01 -1.514777898788452148e+00 -7.040139436721801758e-01 -1.237518712878227234e-02 -2.149167358875274658e-01 7.980968803167343140e-02
8.000000000000000000e+00 1.686704444885253906e+01 -2.356930017471313477e+00 -6.664703488349914551e-01 1.169078168459236622e-03 -1.995903700590133667e-01 2.617106959223747253e-02
9.000000000000000000e+00 1.922108840942382812e+01 -1.901556968688964844e+00 -9.143766164779663086e-01 -1.710888557136058807e-02 -2.794456481933593750e-01 4.753720387816429138e-02
1.000000000000000000e+01 2.075429344177246094e+01 -2.688717842102050781e+00 -7.668538093566894531e-01 -8.445612154901027679e-03 -2.325898408889770508e-01 2.547424845397472382e-02
1.100000000000000000e+01 1.917129516601562500e+01 -2.640394687652587891e+00 -7.432884573936462402e-01 -2.421177178621292114e-02 -2.302500605583190918e-01 3.086089156568050385e-02
1.200000000000000000e+01 2.154723358154296875e+01 -2.711827993392944336e+00 -7.176411151885986328e-01 -1.830312237143516541e-02 -2.207832634449005127e-01 4.182021319866180420e-02
1.300000000000000000e+01 2.151402282714843750e+01 -1.970406651496887207e+00 -8.914548158645629883e-01 -2.213297039270401001e-02 -2.740763425827026367e-01 9.332862682640552521e-03
1.400000000000000000e+01 1.998429870605468750e+01 -1.925167441368103027e+00 -8.891891837120056152e-01 -3.078044857829809189e-03 -2.676801681518554688e-01 3.019173629581928253e-02
1.500000000000000000e+01 1.996217155456542969e+01 -2.664836645126342773e+00 -7.691718339920043945e-01 -6.922967266291379929e-03 -2.328284531831741333e-01 3.794461861252784729e-02
1.600000000000000000e+01 2.074875450134277344e+01 -1.948217391967773438e+00 -8.804033398628234863e-01 4.576091014314442873e-04 -2.639837265014648438e-01 2.931507490575313568e-02
1.700000000000000000e+01 2.552613067626953125e+01 -1.254248261451721191e+00 -8.794832974672317505e-02 -4.951984155923128128e-03 -2.787009440362453461e-02 2.083319611847400665e-02
1.800000000000000000e+01 2.486811637878417969e+01 -2.438827276229858398e+00 -4.799921810626983643e-01 5.864175781607627869e-02 -1.264051347970962524e-01 1.667662411928176880e-01
1.900000000000000000e+01 2.633314704895019531e+01 -2.082635641098022461e+00 -2.156100124120712280e-01 -7.818441092967987061e-02 -8.813832700252532959e-02 1.464868932962417603e-01
2.000000000000000000e+01 2.591798210144042969e+01 -1.668418526649475098e+00 -1.564676016569137573e-01 -2.848154120147228241e-02 -5.548474192619323730e-02 8.201585710048675537e-02
2.100000000000000000e+01 2.476816749572753906e+01 -1.403512597084045410e+00 -2.427764683961868286e-01 7.588715292513370514e-03 -7.055632770061492920e-02 1.548933610320091248e-02
2.200000000000000000e+01 2.399421691894531250e+01 -1.599835872650146484e+00 -4.398793876171112061e-01 4.403364378958940506e-03 -1.306428015232086182e-01 4.831081721931695938e-03
2.300000000000000000e+01 2.315209579467773438e+01 -1.788395404815673828e+00 -5.969744324684143066e-01 1.107958424836397171e-02 -1.757684499025344849e-01 -1.726796664297580719e-02
2.400000000000000000e+01 2.230164718627929688e+01 -1.918599963188171387e+00 -7.920272946357727051e-01 -1.033540256321430206e-02 -2.407088130712509155e-01 -2.073294483125209808e-02
2.500000000000000000e+01 2.236979103088378906e+01 -2.658120155334472656e+00 -6.847795844078063965e-01 6.351599004119634628e-03 -2.035284042358398438e-01 7.733131945133209229e-02
2.600000000000000000e+01 2.561520767211914062e+01 -2.275553464889526367e+00 -3.667204678058624268e-01 3.194121178239583969e-03 -1.090579032897949219e-01 1.669029891490936279e-01
2.700000000000000000e+01 2.519680976867675781e+01 -1.850942730903625488e+00 -3.089708983898162842e-01 2.400481887161731720e-02 -8.548982441425323486e-02 9.580357372760772705e-02
2.800000000000000000e+01 2.448720169067382812e+01 -2.080481290817260742e+00 -4.517011344432830811e-01 4.287269338965415955e-02 -1.226485297083854675e-01 1.059620529413223267e-01
2.900000000000000000e+01 2.411594200134277344e+01 -2.486561775207519531e+00 -5.447832345962524414e-01 6.598054617643356323e-02 -1.436408162117004395e-01 1.161549538373947144e-01
3.000000000000000000e+01 2.326242446899414062e+01 -2.523103237152099609e+00 -6.316189765930175781e-01 4.216185957193374634e-02 -1.768371313810348511e-01 9.120941907167434692e-02
3.100000000000000000e+01 2.371790504455566406e+01 -1.034671902656555176e+00 1.839404831116553396e-05 2.959120138257276267e-05 1.439557490812148899e-05 -1.521418562333565205e-05
3.200000000000000000e+01 2.290892219543457031e+01 -6.703678965568542480e-01 1.002099306788295507e-04 5.230456736171618104e-06 3.163211658829823136e-05 2.869993068088660948e-06
3.300000000000000000e+01 2.298636245727539062e+01 -1.157077312469482422e+00 -7.253797230077907443e-05 -2.715350819926243275e-05 -2.990744542330503464e-05 -1.002485623757820576e-05
3.400000000000000000e+01 2.215120697021484375e+01 -2.782337963581085205e-01 1.662970171310007572e-04 9.568061068421229720e-05 7.859328616177663207e-05 5.309931657393462956e-05
3.500000000000000000e+01 2.285778617858886719e+01 -1.678856164216995239e-01 -1.713063538772985339e-04 -7.219574035843834281e-05 -7.305062899831682444e-05 -1.066278418875299394e-04
3.600000000000000000e+01 2.223422813415527344e+01 -1.267460227012634277e+00 -1.935750515258405358e-05 1.735715886752586812e-05 -6.001037036185152829e-07 -8.776934009802062064e-06
3.700000000000000000e+01 2.441259956359863281e+01 -8.827990293502807617e-01 -1.189532213174970821e-05 -3.366903547430410981e-05 -1.366930700896773487e-05 -3.250718918934580870e-06
3.800000000000000000e+01 2.508922004699707031e+01 -7.265188694000244141e-01 1.933744169946294278e-05 1.180756589747034013e-05 9.343501915282104164e-06 8.052722478169016540e-06
3.900000000000000000e+01 2.403816604614257812e+01 -3.114027678966522217e-01 -2.105407929775537923e-06 2.200158087362069637e-05 5.968851837678812444e-06 1.303693534282501787e-05
4.000000000000000000e+01 2.219160270690917969e+01 -7.758987545967102051e-01 -1.242577418452128768e-04 -3.191793803125619888e-05 -4.685270323534496129e-05 -5.255757059785537422e-05
4.100000000000000000e+01 2.350941085815429688e+01 -6.317926198244094849e-02 2.289593830937519670e-04 -1.985248854907695204e-05 6.273206963669508696e-05 5.149234857526607811e-05
4.200000000000000000e+01 2.455981826782226562e+01 -5.247147381305694580e-02 -6.412056973204016685e-05 -1.652290666243061423e-05 -2.419304291834123433e-05 -3.324133285786956549e-05
4.300000000000000000e+01 2.355069923400878906e+01 -5.585414767265319824e-01 -1.019403789541684091e-04 -1.300321946473559365e-05 -3.448308052611537278e-05 -1.961867019417695701e-05
4.400000000000000000e+01 2.060691452026367188e+01 -8.924546837806701660e-01 -1.359580055577680469e-04 4.726294719148427248e-06 -3.936951543437317014e-05 -2.370267065998632461e-05
4.500000000000000000e+01 2.141465187072753906e+01 -8.284914493560791016e-01 7.328022911678999662e-05 3.631123399827629328e-05 3.287743675173260272e-05 1.796333926051829621e-08
4.600000000000000000e+01 2.010277366638183594e+01 -1.234057188034057617e+00 -7.933663437142968178e-05 -2.277289240737445652e-05 -3.063285839743912220e-05 1.421778415533481166e-05
4.700000000000000000e+01 2.134324264526367188e+01 -3.273400664329528809e-01 -1.217307944898493588e-04 -6.263290561037138104e-05 -5.530911221285350621e-05 -3.713276964845135808e-05
4.800000000000000000e+01 1.946084213256835938e+01 -3.835231065750122070e-01 3.204296444891951978e-05 -2.742061224125791341e-05 1.386706230732670520e-06 1.074157771654427052e-04
4.900000000000000000e+01 1.935324859619140625e+01 -1.120623826980590820e+00 1.345513965134159662e-06 1.184226402983767912e-05 3.956333330279449001e-06 2.954408228106331080e-05
5.000000000000000000e+01 2.075156402587890625e+01 -1.323369979858398438e+00 -6.060753730707801878e-05 3.346692028571851552e-05 -8.142185834003612399e-06 2.474551183695439249e-05
5.100000000000000000e+01 2.147612190246582031e+01 -1.315930008888244629e+00 -1.174963545054197311e-04 -1.455286565033020452e-05 -3.961476613767445087e-05 -1.699989661574363708e-05
5.200000000000000000e+01 2.042321777343750000e+01 -3.587145507335662842e-01 1.287796912947669625e-04 1.244103332282975316e-04 7.595701026730239391e-05 3.046474375878460705e-05
5.300000000000000000e+01 1.716560935974121094e+01 -1.157682687044143677e-01 6.855942774564027786e-04 -1.675544626777991652e-05 2.006516442634165287e-04 2.847576688509434462e-04
5.400000000000000000e+01 1.780312156677246094e+01 -9.543458819389343262e-01 2.515665837563574314e-04 -3.908911821781657636e-05 6.374323857016861439e-05 5.345954923541285098e-05
5.500000000000000000e+01 1.633273887634277344e+01 -7.434402108192443848e-01 7.844199426472187042e-04 -9.493782999925315380e-05 2.068446337943896651e-04 3.592810389818623662e-05
5.600000000000000000e+01 1.860903167724609375e+01 -3.210589289665222168e-01 2.786146360449492931e-04 9.322049299953505397e-05 1.115505438065156341e-04 1.449775008950382471e-04
5.700000000000000000e+01 1.853856849670410156e+01 -1.058504939079284668e+00 5.849845547345466912e-05 1.629008147574495524e-05 2.243656126665882766e-05 5.657290967064909637e-05
5.800000000000000000e+01 1.644419670104980469e+01 -1.184990257024765015e-02 8.648494258522987366e-04 -3.040447518287692219e-05 2.503334835637360811e-04 3.655200707726180553e-04
5.900000000000000000e+01 1.788724899291992188e+01 -2.188517749309539795e-01 3.569129912648350000e-04 -1.040424285747576505e-05 1.039526177919469774e-04 2.564232854638248682e-04
6.000000000000000000e+01 1.706781578063964844e+01 -8.493104577064514160e-01 4.554836195893585682e-04 4.526385600911453366e-05 1.502242375863716006e-04 7.945496327010914683e-05
6.100000000000000000e+01 1.425216674804687500e+01 3.718594610691070557e-01 2.147510182112455368e-03 -2.182406024076044559e-04 5.787808331660926342e-04 4.029062401968985796e-04
6.200000000000000000e+01 1.486107063293457031e+01 -4.904564023017883301e-01 1.631597755476832390e-03 -1.179941609734669328e-04 4.540810768958181143e-04 -5.467877417686395347e-05
6.300000000000000000e+01 1.338883495330810547e+01 -2.235203832387924194e-01 2.703794743865728378e-03 -1.005039957817643881e-04 7.809872622601687908e-04 -2.047800808213651180e-04
6.400000000000000000e+01 1.498471641540527344e+01 2.391885817050933838e-01 1.594710280187427998e-03 -8.294285362353548408e-05 4.535302286967635155e-04 4.055359750054776669e-04
6.500000000000000000e+01 1.559718132019042969e+01 -6.234676241874694824e-01 1.130560296587646008e-03 6.155845039756968617e-05 3.576356393750756979e-04 2.650179339980240911e-05
6.600000000000000000e+01 1.571725749969482422e+01 1.068236008286476135e-01 1.327518839389085770e-03 -1.362643961329013109e-04 3.573763242457062006e-04 3.828009939752519131e-04
6.700000000000000000e+01 1.351961708068847656e+01 5.048320889472961426e-01 2.460263902321457863e-03 -1.342901086900383234e-04 6.977921584621071815e-04 3.224067913834005594e-04
6.800000000000000000e+01 1.412495326995849609e+01 -3.571392297744750977e-01 2.114426111802458763e-03 7.629042374901473522e-05 6.572150159627199173e-04 -1.042213843902572989e-04
6.900000000000000000e+01 1.115447902679443359e+01 1.927391290664672852e-01 4.417728167027235031e-03 8.249871461885049939e-05 1.350068021565675735e-03 -5.108990590088069439e-04
7.000000000000000000e+01 1.124617767333984375e+01 9.282501339912414551e-01 3.901986405253410339e-03 -1.572410255903378129e-04 1.123423571698367596e-03 1.728665374685078859e-04
7.100000000000000000e+01 1.040858840942382812e+01 3.243718445301055908e-01 5.236653145402669907e-03 1.254853559657931328e-04 1.608641468919813633e-03 -4.633095231838524342e-04
7.200000000000000000e+01 1.190096187591552734e+01 5.598175525665283203e-02 3.863333957269787788e-03 -4.025801536045037210e-05 1.146922702901065350e-03 -3.929463564418256283e-04
7.300000000000000000e+01 1.277217197418212891e+01 6.438671946525573730e-01 3.044306300580501556e-03 -2.454981149639934301e-04 8.396424818783998489e-04 3.043062461074441671e-04
7.400000000000000000e+01 1.264777946472167969e+01 -8.565847575664520264e-02 3.239372512325644493e-03 7.919722702354192734e-05 9.955709101632237434e-04 -2.996158436872065067e-04
7.500000000000000000e+01 1.048394012451171875e+01 1.062875509262084961e+00 3.840674646198749542e-03 5.075056469650007784e-05 1.167427632026374340e-03 2.872869117709342390e-06
7.600000000000000000e+01 1.200900745391845703e+01 7.885000705718994141e-01 3.345265984535217285e-03 -1.549619191791862249e-04 9.570912225171923637e-04 1.445564848836511374e-04
7.700000000000000000e+01 8.878479003906250000e+00 3.908094167709350586e-01 5.022003315389156342e-03 -1.792828879843000323e-05 1.501222606748342514e-03 -1.477384357713162899e-04
7.800000000000000000e+01 9.649624824523925781e+00 3.904530405998229980e-01 5.426549818366765976e-03 1.473093725508078933e-04 1.672157784923911095e-03 -2.818789507728070021e-04
7.900000000000000000e+01 7.383328437805175781e+00 1.131017208099365234e+00 3.486401634290814400e-03 -1.172928896266967058e-04 1.010732608847320080e-03 -6.842354196123778820e-04
8.000000000000000000e+01 7.334236621856689453e+00 3.910171389579772949e-01 4.189640749245882034e-03 9.289944500778801739e-06 1.259679323993623257e-03 -2.208980586146935821e-04
8.100000000000000000e+01 5.016752243041992188e+00 3.915317654609680176e-01 2.411202527582645416e-03 -5.079834227217361331e-05 7.081212243065237999e-04 -3.210157447028905153e-04
8.200000000000000000e+01 2.718189001083374023e+00 1.131889939308166504e+00 7.916592294350266457e-04 9.720770322019234300e-05 2.666600921656936407e-04 -6.398315308615565300e-04
8.300000000000000000e+01 3.472350120544433594e+00 3.917863070964813232e-01 1.180154038593173027e-03 -2.683702223293948919e-05 3.459950967226177454e-04 -2.804454416036605835e-04
8.400000000000000000e+01 2.700102567672729492e+00 3.918899297714233398e-01 6.827600882388651371e-04 7.047714461805298924e-05 2.259711618535220623e-04 -2.194606495322659612e-04
8.500000000000000000e+01 1.941753506660461426e+00 1.131839513778686523e+00 4.868076066486537457e-04 2.164051984436810017e-04 2.109638298861682415e-04 -4.395755822770297527e-04
8.600000000000000000e+01 1.928834557533264160e+00 3.918395042419433594e-01 2.859373635146766901e-04 1.191085993923479691e-05 8.935446385294198990e-05 -1.489437127020210028e-04
8.700000000000000000e+01 1.157405972480773926e+00 3.914729654788970947e-01 8.749769767746329308e-05 6.072820542613044381e-05 4.446777165867388248e-05 -5.963338844594545662e-05
8.800000000000000000e+01 3.884848952293395996e-01 1.130593895912170410e+00 6.662154191872105002e-05 7.909019041107967496e-05 4.371352042653597891e-05 -5.909064930165186524e-05
8.900000000000000000e+01 3.859011232852935791e-01 3.905938863754272461e-01 1.445241764486127067e-06 1.840555228227458429e-06 9.857391205514431931e-07 -8.690200957062188536e-06
9.000000000000000000e+01 4.244657516479492188e+00 3.916697502136230469e-01 1.794527051970362663e-03 5.782028165413066745e-05 5.557042313739657402e-04 -2.957229444291442633e-04
9.100000000000000000e+01 3.495604276657104492e+00 1.131786346435546875e+00 1.255770795978605747e-03 1.324085751548409462e-04 4.164538404438644648e-04 -7.482329383492469788e-04
9.200000000000000000e+01 4.273078918457031250e+00 1.131669759750366211e+00 1.675876439549028873e-03 -1.150967091234633699e-05 4.993100301362574100e-04 -8.572841761633753777e-04
9.300000000000000000e+01 5.789580821990966797e+00 3.914089500904083252e-01 3.063563955947756767e-03 3.635788016254082322e-05 9.299765224568545818e-04 -2.876180224120616913e-04
9.400000000000000000e+01 5.828337669372558594e+00 1.131408929824829102e+00 2.643468324095010757e-03 -8.903033449314534664e-05 7.663313881494104862e-04 -8.510010084137320518e-04
9.500000000000000000e+01 6.606027126312255859e+00 1.131122112274169922e+00 3.156427061185240746e-03 -4.155485657975077629e-05 9.344616555608808994e-04 -7.080815266817808151e-04
9.600000000000000000e+01 6.562102794647216797e+00 3.911220729351043701e-01 3.635658649727702141e-03 -5.532681097975000739e-05 1.074099563993513584e-03 -2.872835029847919941e-04
9.700000000000000000e+01 8.106598854064941406e+00 3.909416198730468750e-01 4.615344107151031494e-03 -3.175440724589861929e-05 1.375076943077147007e-03 -2.147742343368008733e-04
9.800000000000000000e+01 8.937906265258789062e+00 1.130809426307678223e+00 4.051840864121913910e-03 -3.099440073128789663e-05 1.206253888085484505e-03 -4.890505806542932987e-04
9.900000000000000000e+01 9.714219093322753906e+00 1.130452990531921387e+00 4.004608839750289917e-03 7.671823550481349230e-05 1.224398030899465084e-03 -2.165401820093393326e-04
1.000000000000000000e+02 8.160858154296875000e+00 1.130941629409790039e+00 3.880810691043734550e-03 -8.751454879529774189e-05 1.137988874688744545e-03 -4.720850265584886074e-04
1.010000000000000000e+02 5.050341606140136719e+00 1.131531715393066406e+00 2.217081841081380844e-03 3.793592986767180264e-05 6.765053840354084969e-04 -8.266677614301443100e-04
1.020000000000000000e+02 1.165157318115234375e+00 1.131472945213317871e+00 1.765935739967972040e-04 1.687396579654887319e-04 1.035999666783027351e-04 -2.278642641613259912e-04
1.030000000000000000e+02 1.473077964782714844e+01 -1.259489893913269043e+00 -5.792686939239501953e-01 -8.792993612587451935e-03 -1.764185130596160889e-01 7.385621964931488037e-02
1.040000000000000000e+02 1.399090099334716797e+01 -1.125491499900817871e+00 -5.209192037582397461e-01 -7.081279531121253967e-03 -1.584001332521438599e-01 6.493946909904479980e-02
1.050000000000000000e+02 1.312020874023437500e+01 -1.719582676887512207e+00 -4.369522333145141602e-01 1.194058451801538467e-02 -1.275034844875335693e-01 -1.555244525661692023e-04
1.060000000000000000e+02 1.535054302215576172e+01 -2.123512268066406250e+00 -5.758378505706787109e-01 3.890421707183122635e-03 -1.715842336416244507e-01 1.327867247164249420e-02
1.070000000000000000e+02 1.547062015533447266e+01 -1.393221139907836914e+00 -6.464056372642517090e-01 -1.273485925048589706e-02 -1.977421641349792480e-01 7.928226888179779053e-02
1.080000000000000000e+02 1.460713481903076172e+01 -1.989134907722473145e+00 -5.333736538887023926e-01 8.191285654902458191e-03 -1.575547158718109131e-01 9.633312933146953583e-03
1.090000000000000000e+02 1.325099086761474609e+01 -9.912301898002624512e-01 -4.654889404773712158e-01 -5.975915119051933289e-03 -1.414394527673721313e-01 5.628008022904396057e-02
1.100000000000000000e+02 1.386368751525878906e+01 -1.854490160942077637e+00 -4.840549230575561523e-01 1.094895694404840469e-02 -1.419317871332168579e-01 6.230675149708986282e-03
1.110000000000000000e+02 8.588401794433593750e+00 -1.854303598403930664e+00 -2.029604017734527588e-01 1.371981576085090637e-02 -5.677217617630958557e-02 -6.173960119485855103e-02
1.120000000000000000e+02 5.321979999542236328e+00 -1.892285108566284180e+00 -9.298887103796005249e-02 -7.840285077691078186e-03 -3.024874627590179443e-02 -6.183562800288200378e-02
1.130000000000000000e+02 3.524871468544006348e-01 -9.129760742187500000e+00 -1.144189227488823235e-04 -2.906979024410247803e-01 -8.724369108676910400e-02 -2.206419222056865692e-02
1.140000000000000000e+02 1.294810771942138672e+01 -1.358810615539550781e+01 1.286259293556213379e-01 1.905222684144973755e-01 9.574446082115173340e-02 9.047017991542816162e-02
1.150000000000000000e+02 1.508179187774658203e+01 -1.272964668273925781e+01 3.453204333782196045e-01 7.076156884431838989e-02 1.248245984315872192e-01 1.273489147424697876e-01
1.160000000000000000e+02 1.703020286560058594e+01 -1.119351673126220703e+01 3.822653591632843018e-01 1.864186674356460571e-01 1.706051975488662720e-01 -1.201310232281684875e-01
1.170000000000000000e+02 1.753486061096191406e+01 -3.168023824691772461e+00 -6.046521663665771484e-01 -1.401668268954381347e-04 -1.814377158880233765e-01 -1.800520718097686768e-02
1.180000000000000000e+02 1.522228050231933594e+01 -2.816862344741821289e+00 -5.152606368064880371e-01 1.724594831466674805e-02 -1.494044065475463867e-01 -3.423566743731498718e-02
1.190000000000000000e+02 1.155397033691406250e+01 -2.160194396972656250e+00 -3.328559994697570801e-01 2.783629484474658966e-02 -9.150591492652893066e-02 -5.438543856143951416e-02
1.200000000000000000e+02 1.084713745117187500e+01 -2.040493249893188477e+00 -3.017892241477966309e-01 2.875020727515220642e-02 -8.191169798374176025e-02 -5.581551045179367065e-02
1.210000000000000000e+02 1.350585365295410156e+01 -1.257048606872558594e+01 1.873144209384918213e-01 1.118789613246917725e-01 8.975801616907119751e-02 4.238680377602577209e-02
1.220000000000000000e+02 1.284363555908203125e+01 -1.439909267425537109e+01 1.056222841143608093e-01 2.505463361740112305e-01 1.068505868315696716e-01 1.339524537324905396e-01
1.230000000000000000e+02 1.045700907707214355e+00 -1.072223567962646484e+01 -1.368985511362552643e-03 -3.620416522026062012e-01 -1.090231910347938538e-01 -6.767040491104125977e-02
1.240000000000000000e+02 3.544966876506805420e-01 -1.635982131958007812e+01 4.129470326006412506e-04 -7.805919051170349121e-01 -2.340536862611770630e-01 -2.100684680044651031e-02
1.250000000000000000e+02 1.185953617095947266e+01 -1.910084915161132812e+01 4.503438994288444519e-02 9.971196055412292480e-01 3.126462101936340332e-01 -1.235169619321823120e-01
1.260000000000000000e+02 1.178894615173339844e+01 -1.745187759399414062e+01 3.238531574606895447e-02 8.302768468856811523e-01 2.587986290454864502e-01 9.139844216406345367e-03
1.270000000000000000e+02 1.214103984832763672e+01 -1.582036781311035156e+01 7.813562452793121338e-02 5.540795922279357910e-01 1.896645575761795044e-01 1.413513273000717163e-01
1.280000000000000000e+02 1.069045066833496094e+00 -1.794950675964355469e+01 5.238534417003393173e-03 -7.658267617225646973e-01 -2.281764745712280273e-01 -5.088741704821586609e-02
1.290000000000000000e+02 3.570485711097717285e-01 -2.279471397399902344e+01 7.575901108793914318e-04 -1.005138278007507324e+00 -3.013142049312591553e-01 -1.224845647811889648e-03
1.300000000000000000e+02 1.172818470001220703e+01 -2.181260681152343750e+01 3.006166219711303711e-01 8.336536288261413574e-01 3.402810692787170410e-01 -3.220407068729400635e-01
1.310000000000000000e+02 1.835700225830078125e+01 -2.812331008911132812e+01 3.064970970153808594e-01 2.408083826303482056e-01 1.641916483640670776e-01 -2.614870071411132812e-01
1.320000000000000000e+02 1.482512187957763672e+01 -2.477180290222167969e+01 4.058075249195098877e-01 4.607115387916564941e-01 2.599557042121887207e-01 -4.301160275936126709e-01
1.330000000000000000e+02 1.106956720352172852e+00 -2.679418182373046875e+01 1.705603091977536678e-03 -8.655836582183837891e-01 -2.591634094715118408e-01 2.039880864322185516e-02
1.340000000000000000e+02 3.867809176445007324e-01 -3.002789878845214844e+01 2.242878545075654984e-04 -8.917377591133117676e-01 -2.674540281295776367e-01 9.458028711378574371e-03
1.350000000000000000e+02 8.450868606567382812e+00 -3.606301498413085938e+01 -2.514318004250526428e-02 -1.695027649402618408e-01 -5.839378386735916138e-02 -1.325962599366903305e-02
1.360000000000000000e+02 1.803459548950195312e+01 -3.719563674926757812e+01 1.183972805738449097e-01 2.491809725761413574e-01 1.102734729647636414e-01 -1.476320624351501465e-01
1.370000000000000000e+02 1.814516830444335938e+01 -3.936822128295898438e+01 1.488511115312576294e-01 2.491670697927474976e-01 1.194054558873176575e-01 -9.110213816165924072e-02
1.380000000000000000e+02 2.222438240051269531e+01 -3.948176956176757812e+01 2.458204478025436401e-01 4.775154888629913330e-01 2.170007824897766113e-01 -3.657132387161254883e-02
1.390000000000000000e+02 2.395863151550292969e+01 -3.509187698364257812e+01 2.224175035953521729e-01 3.435125648975372314e-01 1.697790175676345825e-01 1.955631934106349945e-02
1.400000000000000000e+02 2.703483009338378906e+01 -3.038905334472656250e+01 -3.925717175006866455e-01 3.632354363799095154e-02 -1.068744510412216187e-01 5.811509862542152405e-02
1.410000000000000000e+02 2.273187065124511719e+01 -3.102914047241210938e+01 -1.631377041339874268e-01 7.606530934572219849e-02 -2.612171694636344910e-02 -1.071926355361938477e-01
1.420000000000000000e+02 2.211357116699218750e+01 -2.981242752075195312e+01 -2.113642841577529907e-01 2.542262710630893707e-02 -5.578250065445899963e-02 -1.427286583930253983e-02
1.430000000000000000e+02 1.721970176696777344e+01 -2.831259727478027344e+01 2.105281502008438110e-01 3.216309547424316406e-01 1.596477329730987549e-01 -2.543380856513977051e-01
1.440000000000000000e+02 6.356251716613769531e+00 -2.908937072753906250e+01 6.417844444513320923e-03 -2.355598956346511841e-01 -6.874261796474456787e-02 3.418005257844924927e-02
1.450000000000000000e+02 1.139531230926513672e+01 -2.756193733215332031e+01 6.117698177695274353e-02 2.899041771888732910e-01 1.053243428468704224e-01 -1.125890016555786133e-01
1.460000000000000000e+02 1.221105813980102539e+00 -3.487248611450195312e+01 -6.889658397994935513e-04 -7.366788983345031738e-01 -2.212103605270385742e-01 1.277379225939512253e-02
1.470000000000000000e+02 3.815402388572692871e-01 -3.645515060424804688e+01 -1.798418816179037094e-04 -7.854576110839843750e-01 -2.356912344694137573e-01 4.424818325787782669e-03
1.480000000000000000e+02 6.141191959381103516e+00 -3.983745574951171875e+01 -1.409649103879928589e-02 -3.413076698780059814e-01 -1.066212430596351624e-01 8.074436336755752563e-03
1.490000000000000000e+02 1.897480368614196777e+00 -4.095908737182617188e+01 -1.549130422063171864e-03 -6.800279021263122559e-01 -2.044731080532073975e-01 -2.357130637392401695e-03
1.500000000000000000e+02 3.026059150695800781e+01 -3.476240158081054688e+01 1.410971879959106445e-01 1.667822480201721191e+00 5.426759123802185059e-01 8.749234676361083984e-01
1.510000000000000000e+02 3.373479843139648438e+01 -2.757826232910156250e+01 2.491923809051513672e+00 3.652745962142944336e+00 1.843400955200195312e+00 2.891918897628784180e+00
1.520000000000000000e+02 3.033880615234375000e+01 -2.987676239013671875e+01 8.574502468109130859e-01 4.631824195384979248e-01 3.961898088455200195e-01 6.411854624748229980e-01
1.530000000000000000e+02 3.624962997436523438e+01 -3.747779846191406250e+01 -8.356214165687561035e-01 3.941511392593383789e+00 9.317670464515686035e-01 5.217046737670898438e-01
1.540000000000000000e+02 3.409194946289062500e+01 -3.632064056396484375e+01 -5.073369145393371582e-01 3.328781366348266602e+00 8.464332818984985352e-01 7.299008369445800781e-01
1.550000000000000000e+02 4.450287628173828125e+01 -2.833657264709472656e+01 -2.205963283777236938e-01 6.124894142150878906e+00 1.771289229393005371e+00 -2.373436540365219116e-01
1.560000000000000000e+02 4.697067260742187500e+01 -2.298783683776855469e+01 1.606241106986999512e+00 1.202412128448486328e+01 4.089108943939208984e+00 -3.424226045608520508e+00
1.570000000000000000e+02 4.596102142333984375e+01 -1.724004745483398438e+01 4.803057610988616943e-01 1.333619308471679688e+01 4.144949913024902344e+00 1.321043372154235840e+00
1.580000000000000000e+02 4.668881225585937500e+01 -1.309042167663574219e+01 1.107689976692199707e+00 1.107883930206298828e+01 3.655958652496337891e+00 2.303639411926269531e+00
1.590000000000000000e+02 4.212886047363281250e+01 -2.646375596523284912e-01 2.461768150329589844e+00 1.537090682983398438e+01 5.349802494049072266e+00 4.373282909393310547e+00
1.600000000000000000e+02 4.152054214477539062e+01 9.601625442504882812e+00 2.574290990829467773e+00 1.274256134033203125e+01 4.595055580139160156e+00 -5.032724857330322266e+00
1.610000000000000000e+02 4.220878982543945312e+01 7.214695453643798828e+00 7.803591489791870117e-01 1.949979019165039062e+01 6.084044456481933594e+00 -2.075739383697509766e+00
1.620000000000000000e+02 4.665612792968750000e+01 -3.900298309326171875e+01 -7.955192327499389648e-01 3.467438220977783203e+00 8.015756607055664062e-01 -4.492155611515045166e-01
1.630000000000000000e+02 4.292634201049804688e+01 -3.866454696655273438e+01 -1.099108576774597168e+00 4.210033416748046875e+00 9.332774281501770020e-01 -1.511062979698181152e-01
1.640000000000000000e+02 5.109141540527343750e+01 -2.802683258056640625e+01 6.373072862625122070e-01 1.268589496612548828e+00 5.717690587043762207e-01 -9.447411298751831055e-01
1.650000000000000000e+02 4.870849609375000000e+01 -2.807897186279296875e+01 2.314294129610061646e-01 3.746569156646728516e+00 1.193399548530578613e+00 -1.616332888603210449e+00
1.660000000000000000e+02 4.823791885375976562e+01 -2.510991287231445312e+01 2.395146369934082031e+00 4.592903137207031250e+00 2.096414804458618164e+00 -3.175998926162719727e+00
1.670000000000000000e+02 4.612860870361328125e+01 -2.232375907897949219e+01 1.270392894744873047e+00 1.174812221527099609e+01 3.905554533004760742e+00 -1.673433899879455566e+00
1.680000000000000000e+02 4.677670288085937500e+01 -1.570521354675292969e+01 6.966934800148010254e-01 1.498920440673828125e+01 4.705769062042236328e+00 2.326270341873168945e+00
1.690000000000000000e+02 4.765004348754882812e+01 -1.255894851684570312e+01 1.671280622482299805e+00 1.049946308135986328e+01 3.651223182678222656e+00 3.774340391159057617e+00
1.700000000000000000e+02 4.802375411987304688e+01 -1.180873107910156250e+01 1.585291624069213867e+00 8.165231704711914062e+00 2.925156831741333008e+00 3.395961761474609375e+00
1.710000000000000000e+02 4.847085189819335938e+01 -1.108830833435058594e+01 1.173550128936767578e+00 5.675835132598876953e+00 2.054815530776977539e+00 2.564327478408813477e+00
1.720000000000000000e+02 5.029174041748046875e+01 -9.388818740844726562e+00 -2.019018173217773438e+00 4.489083960652351379e-02 -5.922381877899169922e-01 -8.119753599166870117e-01
1.730000000000000000e+02 5.165153121948242188e+01 -8.492910385131835938e+00 -5.910400867462158203e+00 -1.178043127059936523e+00 -2.126533269882202148e+00 -2.026177167892456055e+00
1.740000000000000000e+02 5.318596267700195312e+01 -8.101863861083984375e+00 -5.432719707489013672e+00 -4.196801185607910156e-01 -1.755719900131225586e+00 -2.234291285276412964e-01
1.750000000000000000e+02 5.289226531982421875e+01 -7.266463756561279297e+00 -2.642526865005493164e+00 -8.715693950653076172e-01 -1.054228901863098145e+00 -9.632852077484130859e-01
1.760000000000000000e+02 5.642560958862304688e+01 -9.568523406982421875e+00 -9.781545400619506836e-01 -2.552082836627960205e-01 -3.700088262557983398e-01 5.145371556282043457e-01
1.770000000000000000e+02 5.708705902099609375e+01 -9.986682891845703125e+00 -7.481192350387573242e-01 -1.806430369615554810e-01 -2.786286771297454834e-01 3.732385635375976562e-01
1.780000000000000000e+02 6.072957992553710938e+01 -1.135049343109130859e+01 -6.086835265159606934e-01 -5.235875491052865982e-03 -1.841758191585540771e-01 1.110103130340576172e-01
1.790000000000000000e+02 6.303472137451171875e+01 -1.182260799407958984e+01 -8.368349075317382812e-02 1.211626976728439331e-01 1.124376244843006134e-02 -1.701519787311553955e-01
1.800000000000000000e+02 7.234637451171875000e+01 -3.337436437606811523e+00 -5.613756775856018066e-01 7.115190505981445312e+00 1.966144442558288574e+00 1.467030793428421021e-01
1.810000000000000000e+02 7.964511108398437500e+01 1.257927775382995605e+00 -4.984603729099035263e-03 8.829042434692382812e+00 2.647217273712158203e+00 -3.114106133580207825e-02
1.820000000000000000e+02 7.894116210937500000e+01 4.568459510803222656e+00 -2.487740665674209595e-02 8.181593894958496094e+00 2.447014808654785156e+00 -2.239116430282592773e-01
1.830000000000000000e+02 7.964421081542968750e+01 8.469135284423828125e+00 2.450092928484082222e-03 7.199047565460205078e+00 2.160449266433715820e+00 -1.303038001060485840e-01
1.840000000000000000e+02 7.892898559570312500e+01 1.176405048370361328e+01 1.950664445757865906e-02 6.361532211303710938e+00 1.914311647415161133e+00 -3.167762756347656250e-01
1.850000000000000000e+02 7.963969421386718750e+01 1.567901325225830078e+01 3.687748685479164124e-03 5.278648853302001953e+00 1.584701061248779297e+00 -1.519544143229722977e-02
1.860000000000000000e+02 6.754207611083984375e+01 2.006020164489746094e+01 3.034409046173095703e+00 9.434208869934082031e+00 3.740585327148437500e+00 -4.717049598693847656e+00
1.870000000000000000e+02 6.826345825195312500e+01 1.812384796142578125e+01 9.583615660667419434e-01 1.587169551849365234e+01 5.049016952514648438e+00 -1.195962786674499512e+00
1.880000000000000000e+02 6.816693115234375000e+01 1.740243148803710938e+01 -8.814683556556701660e-02 1.441914081573486328e+01 4.299298286437988281e+00 -8.333130180835723877e-02
1.890000000000000000e+02 6.732712554931640625e+01 1.200345993041992188e+01 1.685991764068603516e+00 1.082470130920410156e+01 3.753207921981811523e+00 3.514776945114135742e+00
1.900000000000000000e+02 6.710306549072265625e+01 1.022261047363281250e+01 9.032675027847290039e-01 7.200005054473876953e+00 2.430981874465942383e+00 2.319743871688842773e+00
1.910000000000000000e+02 6.602737426757812500e+01 9.926900863647460938e+00 1.673235893249511719e+00 4.371536254882812500e+00 1.813431739807128906e+00 2.602655649185180664e+00
1.920000000000000000e+02 6.381234741210937500e+01 7.635171890258789062e+00 3.612100780010223389e-01 8.268113136291503906e-01 3.564064204692840576e-01 5.933997035026550293e-01
1.930000000000000000e+02 6.197045898437500000e+01 5.079686164855957031e+00 -2.596371173858642578e-01 3.961219787597656250e-01 4.094545170664787292e-02 4.575205221772193909e-02
1.940000000000000000e+02 5.693944931030273438e+01 -1.158077642321586609e-01 1.446395516395568848e+00 -4.455176591873168945e-01 3.002633750438690186e-01 -3.823806047439575195e-01
1.950000000000000000e+02 5.576466751098632812e+01 -9.142169952392578125e+00 -1.515562534332275391e+00 -3.355292379856109619e-01 -5.553275346755981445e-01 5.956495404243469238e-01
1.960000000000000000e+02 5.151930236816406250e+01 -4.118083953857421875e+01 1.850796118378639221e-02 1.974233269691467285e+00 5.978223681449890137e-01 -1.943397670984268188e-01
1.970000000000000000e+02 5.241251373291015625e+01 -3.537253189086914062e+01 -2.665038704872131348e-01 1.588227391242980957e+00 3.965170383453369141e-01 -1.061518430709838867e+00
1.980000000000000000e+02 5.498709106445312500e+01 -2.947181129455566406e+01 -2.845202922821044922e+00 -9.165143221616744995e-02 -8.810563087463378906e-01 4.624360427260398865e-02
1.990000000000000000e+02 5.332669830322265625e+01 -2.910932159423828125e+01 -1.569968700408935547e+00 1.044020354747772217e-01 -4.396699965000152588e-01 2.182296290993690491e-02
2.000000000000000000e+02 5.630846786499023438e+01 -3.613832473754882812e+01 2.832513451576232910e-01 7.105075120925903320e-01 2.981276512145996094e-01 -5.334814190864562988e-01
2.010000000000000000e+02 5.843752670288085938e+01 -3.858201980590820312e+01 6.053157448768615723e-01 1.074733018875122070e+00 5.040146112442016602e-01 -1.261822134256362915e-01
2.020000000000000000e+02 5.582925796508789062e+01 -2.954831886291503906e+01 -3.227811336517333984e+00 -8.324132114648818970e-02 -9.933158159255981445e-01 -9.357438981533050537e-02
2.030000000000000000e+02 5.666919708251953125e+01 -2.956440353393554688e+01 -3.539480686187744141e+00 -1.235681250691413879e-01 -1.098914623260498047e+00 -2.550420463085174561e-01
2.040000000000000000e+02 5.790085220336914062e+01 -4.116458129882812500e+01 7.012210488319396973e-01 1.209019780158996582e+00 5.730722546577453613e-01 -5.459175258874893188e-02
2.050000000000000000e+02 7.286459350585937500e+01 -2.922460365295410156e+01 -8.165742158889770508e-01 8.028865814208984375e+00 2.163687467575073242e+00 -5.769942402839660645e-01
2.060000000000000000e+02 6.823926544189453125e+01 -2.213093948364257812e+01 8.349993824958801270e-01 1.132348251342773438e+01 3.647544384002685547e+00 1.419383645057678223e+00
2.070000000000000000e+02 6.757746124267578125e+01 -2.279773902893066406e+01 6.056334972381591797e-01 8.560003280639648438e+00 2.749691247940063477e+00 2.830670595169067383e+00
2.080000000000000000e+02 6.587541198730468750e+01 -2.458198928833007812e+01 2.654382884502410889e-01 3.264015913009643555e+00 1.058836221694946289e+00 1.457866072654724121e+00
2.090000000000000000e+02 6.239144134521484375e+01 -2.798656463623046875e+01 -1.408703804016113281e+00 3.639957606792449951e-01 -3.134123980998992920e-01 -3.095687627792358398e-01
2.100000000000000000e+02 5.914191055297851562e+01 -2.913206863403320312e+01 -3.742619276046752930e+00 -6.188537478446960449e-01 -1.308441877365112305e+00 -1.185987234115600586e+00
2.110000000000000000e+02 5.990341949462890625e+01 -2.876988220214843750e+01 -3.119240283966064453e+00 -7.077065110206604004e-01 -1.148084044456481934e+00 -1.294114232063293457e+00
2.120000000000000000e+02 6.240400695800781250e+01 -2.930427169799804688e+01 -1.482796311378479004e+00 8.989304900169372559e-01 -1.751597374677658081e-01 1.666715890169143677e-01
2.130000000000000000e+02 6.849035644531250000e+01 -3.705353927612304688e+01 -1.222673580050468445e-01 4.937446594238281250e+00 1.444553732872009277e+00 2.523621916770935059e-01
2.140000000000000000e+02 7.140550231933593750e+01 -3.838181686401367188e+01 -6.186620146036148071e-02 6.678228855133056641e+00 1.984908699989318848e+00 2.035441547632217407e-01
2.150000000000000000e+02 7.959156036376953125e+01 -3.402116012573242188e+01 -9.620416909456253052e-03 1.027668571472167969e+01 3.080119609832763672e+00 -4.296449199318885803e-02
2.160000000000000000e+02 7.883302307128906250e+01 -3.072667121887207031e+01 -3.744324669241905212e-02 9.519029617309570312e+00 2.844475746154785156e+00 -2.502499818801879883e-01
2.170000000000000000e+02 7.962377929687500000e+01 -2.681720733642578125e+01 -5.592849105596542358e-03 8.612471580505371094e+00 2.582063674926757812e+00 -1.769907027482986450e-01
2.180000000000000000e+02 7.890163421630859375e+01 -2.350646018981933594e+01 1.333517022430896759e-02 7.269154071807861328e+00 2.184746742248535156e+00 -5.211926102638244629e-01
2.190000000000000000e+02 7.964199066162109375e+01 -2.039696693420410156e+01 9.613627567887306213e-03 5.693083763122558594e+00 1.710809230804443359e+00 -1.290788948535919189e-01
2.200000000000000000e+02 6.778217315673828125e+01 -1.580869960784912109e+01 2.002844095230102539e+00 1.701418495178222656e+01 5.705108642578125000e+00 -4.467833518981933594e+00
2.210000000000000000e+02 6.808328247070312500e+01 -1.903160667419433594e+01 2.403936237096786499e-01 1.623959922790527344e+01 4.943997859954833984e+00 1.124337539076805115e-01
2.220000000000000000e+02 6.862612915039062500e+01 -1.723810005187988281e+01 1.321016907691955566e+00 1.562142848968505859e+01 5.082733631134033203e+00 -1.632294416427612305e+00
2.230000000000000000e+02 6.808747100830078125e+01 -1.986353874206542969e+01 4.396494626998901367e-01 1.751371574401855469e+01 5.386009216308593750e+00 9.471036791801452637e-01
2.240000000000000000e+02 6.763850402832031250e+01 -2.156649208068847656e+01 3.120610475540161133e+00 1.165168190002441406e+01 4.431687831878662109e+00 4.326731204986572266e+00
2.250000000000000000e+02 6.704772186279296875e+01 -2.223560142517089844e+01 2.156537055969238281e+00 5.634922027587890625e+00 2.337437629699707031e+00 3.671192884445190430e+00
2.260000000000000000e+02 7.875559997558593750e+01 -3.710090637207031250e+01 -2.752937143668532372e-03 1.000072288513183594e+01 2.999390840530395508e+00 -4.674998298287391663e-02
2.270000000000000000e+02 7.877485656738281250e+01 -3.788270568847656250e+01 -3.555346280336380005e-02 1.002345752716064453e+01 2.996371269226074219e+00 -2.291060052812099457e-02
2.280000000000000000e+02 7.893070983886718750e+01 -1.628369712829589844e+01 5.922529846429824829e-02 5.720366477966308594e+00 1.733877539634704590e+00 8.563163876533508301e-02
2.290000000000000000e+02 7.964435577392578125e+01 -1.317771530151367188e+01 9.088491089642047882e-03 5.860845088958740234e+00 1.760980129241943359e+00 1.170401945710182190e-01
2.300000000000000000e+02 7.331626892089843750e+01 -2.157090902328491211e+00 -5.053480267524719238e-01 7.273030281066894531e+00 2.030304670333862305e+00 1.132061257958412170e-01
2.310000000000000000e+02 6.766068267822265625e+01 -1.381792545318603516e+01 2.069628238677978516e+00 1.025412273406982422e+01 3.697125434875488281e+00 -3.131224632263183594e+00
2.320000000000000000e+02 6.658667755126953125e+01 -1.361812210083007812e+01 3.718521833419799805e+00 7.104687690734863281e+00 3.246962785720825195e+00 -4.740382671356201172e+00
2.330000000000000000e+02 6.326934814453125000e+01 -1.122828292846679688e+01 5.012286901473999023e-01 4.998661875724792480e-01 3.003284633159637451e-01 -7.383104562759399414e-01
2.340000000000000000e+02 7.893196868896484375e+01 -9.054812431335449219e+00 -1.266882475465536118e-02 7.390929222106933594e+00 2.213478088378906250e+00 3.469896614551544189e-01
2.350000000000000000e+02 7.964434051513671875e+01 -5.958784580230712891e+00 -8.055835030972957611e-03 8.257286071777343750e+00 2.474768877029418945e+00 8.618759363889694214e-02
2.360000000000000000e+02 7.893426513671875000e+01 -2.638158082962036133e+00 -2.536732517182826996e-02 8.557731628417968750e+00 2.559709310531616211e+00 8.976440131664276123e-02
2.370000000000000000e+02 7.896238708496093750e+01 1.896159553527832031e+01 4.211072251200675964e-02 5.962108135223388672e+00 1.801265597343444824e+00 2.234637141227722168e-01
2.380000000000000000e+02 7.963478851318359375e+01 2.209529113769531250e+01 4.935367964208126068e-03 6.520809173583984375e+00 1.957723379135131836e+00 1.321315169334411621e-01
2.390000000000000000e+02 7.453099822998046875e+01 3.122949218750000000e+01 -2.358216941356658936e-01 7.120956420898437500e+00 2.065540313720703125e+00 -7.653649151325225830e-02
2.400000000000000000e+02 6.218033981323242188e+01 4.092260360717773438e+01 5.273957252502441406e-01 3.693322896957397461e+00 1.266215562820434570e+00 6.793267093598842621e-04
2.410000000000000000e+02 5.720903396606445312e+01 4.097258758544921875e+01 3.963236212730407715e-01 3.249347209930419922e+00 1.093701243400573730e+00 1.022749766707420349e-01
2.420000000000000000e+02 5.603933334350585938e+01 3.798377609252929688e+01 2.949153482913970947e-01 3.181840896606445312e+00 1.043026804924011230e+00 3.244249224662780762e-01
2.430000000000000000e+02 5.235844039916992188e+01 4.119715499877929688e+01 1.240168325603008270e-02 3.256551980972290039e+00 9.806860685348510742e-01 1.047293469309806824e-01
2.440000000000000000e+02 5.148309326171875000e+01 3.584439468383789062e+01 -1.723371297121047974e-01 3.391087532043457031e+00 9.656251072883605957e-01 5.751122832298278809e-01
2.450000000000000000e+02 5.329885482788085938e+01 2.281994819641113281e+01 -9.291343390941619873e-02 3.689077615737915039e+00 1.078849315643310547e+00 2.134971141815185547e+00
2.460000000000000000e+02 5.116324234008789062e+01 1.738011741638183594e+01 1.922912478446960449e+00 9.413091659545898438e+00 3.400801181793212891e+00 3.877375125885009766e+00
2.470000000000000000e+02 5.276087570190429688e+01 2.011103439331054688e+01 3.296676397323608398e+00 5.047276973724365234e+00 2.503185987472534180e+00 3.580673217773437500e+00
2.480000000000000000e+02 5.288321304321289062e+01 2.082022857666015625e+01 2.169290781021118164e+00 4.439718246459960938e+00 1.982702612876892090e+00 2.777816295623779297e+00
2.490000000000000000e+02 5.367341613769531250e+01 2.091150093078613281e+01 2.387072563171386719e+00 2.565126419067382812e+00 1.485659718513488770e+00 2.298310518264770508e+00
2.500000000000000000e+02 5.441449356079101562e+01 2.115216445922851562e+01 1.196350097656250000e+00 9.529422521591186523e-01 6.447877287864685059e-01 1.226136565208435059e+00
2.510000000000000000e+02 5.594916534423828125e+01 2.156373023986816406e+01 -7.114980220794677734e-01 2.366536557674407959e-01 -1.424533128738403320e-01 2.361591756343841553e-01
2.520000000000000000e+02 5.820000457763671875e+01 2.293199729919433594e+01 -1.777867555618286133e+00 2.265999466180801392e-01 -4.653802812099456787e-01 3.975377082824707031e-01
2.530000000000000000e+02 6.075632476806640625e+01 2.318491744995117188e+01 -2.373878002166748047e+00 -2.515995800495147705e-01 -7.876432538032531738e-01 1.437226086854934692e-01
2.540000000000000000e+02 6.543666076660156250e+01 2.143438911437988281e+01 -7.261893749237060547e-01 6.511576175689697266e-01 -2.250953949987888336e-02 -5.007326006889343262e-01
2.550000000000000000e+02 6.636453247070312500e+01 2.197313499450683594e+01 -3.565827012062072754e-01 4.025899410247802734e+00 1.100794911384582520e+00 -2.268326997756958008e+00
2.560000000000000000e+02 6.566365814208984375e+01 2.334674453735351562e+01 -8.638305664062500000e-01 2.977332353591918945e+00 6.340505480766296387e-01 -1.925581812858581543e+00
2.570000000000000000e+02 7.887838745117187500e+01 2.701402473449707031e+01 -3.494843840599060059e-02 7.771492481231689453e+00 2.320963144302368164e+00 2.009123265743255615e-01
2.580000000000000000e+02 7.963475036621093750e+01 2.930534744262695312e+01 -8.972292765974998474e-03 8.205623626708984375e+00 2.458995342254638672e+00 4.063019156455993652e-02
2.590000000000000000e+02 7.347561645507812500e+01 3.824358367919921875e+01 7.844060659408569336e-02 6.494119644165039062e+00 1.971768140792846680e+00 -6.976730376482009888e-02
2.600000000000000000e+02 6.602078247070312500e+01 3.796746444702148438e+01 3.960599601268768311e-01 4.516302585601806641e+00 1.473708748817443848e+00 -1.903337240219116211e-01
2.610000000000000000e+02 7.881293487548828125e+01 3.331734085083007812e+01 -1.676213555037975311e-02 8.075150489807128906e+00 2.417516469955444336e+00 -1.666249521076679230e-02
2.620000000000000000e+02 7.959769439697265625e+01 3.650608062744140625e+01 5.805628024972975254e-04 8.189319610595703125e+00 2.456970214843750000e+00 -1.462556049227714539e-02
2.630000000000000000e+02 7.505410003662109375e+01 3.790197372436523438e+01 1.626799628138542175e-02 7.044449329376220703e+00 2.118215322494506836e+00 -9.547425806522369385e-02
2.640000000000000000e+02 7.898792266845703125e+01 3.797667312622070312e+01 9.615058079361915588e-03 7.994804859161376953e+00 2.401325941085815430e+00 -2.431429363787174225e-02
2.650000000000000000e+02 3.696971130371093750e+01 3.710671615600585938e+01 -3.417939841747283936e-01 2.555590391159057617e+00 6.641389727592468262e-01 -2.338347882032394409e-01
2.660000000000000000e+02 4.380295562744140625e+01 3.773205184936523438e+01 -4.935831129550933838e-01 3.285708904266357422e+00 8.376377224922180176e-01 2.546606585383415222e-02
2.670000000000000000e+02 4.658994674682617188e+01 3.121198081970214844e+01 -7.194210886955261230e-01 4.096581459045410156e+00 1.013148188591003418e+00 3.544490635395050049e-01
2.680000000000000000e+02 4.642201995849609375e+01 2.358671569824218750e+01 -5.656659603118896484e-01 5.678843498229980469e+00 1.533953309059143066e+00 2.246970385313034058e-01
2.690000000000000000e+02 3.989648818969726562e+01 1.440936851501464844e+01 1.222468018531799316e+00 4.969608783721923828e+00 1.857623100280761719e+00 -2.251494646072387695e+00
2.700000000000000000e+02 3.919304275512695312e+01 1.295480537414550781e+01 2.193600654602050781e+00 3.715987682342529297e+00 1.772876501083374023e+00 -2.791595697402954102e+00
2.710000000000000000e+02 4.067481613159179688e+01 1.102192687988281250e+01 2.452901363372802734e+00 7.621693611145019531e+00 3.022378444671630859e+00 -4.131614208221435547e+00
2.720000000000000000e+02 4.871781158447265625e+01 9.022687911987304688e+00 4.762749373912811279e-01 1.159385967254638672e+01 3.621040344238281250e+00 2.021864891052246094e+00
2.730000000000000000e+02 4.887556076049804688e+01 9.805494308471679688e+00 5.597894787788391113e-01 1.140947628021240234e+01 3.590779781341552734e+00 2.245697021484375000e+00
2.740000000000000000e+02 4.960740280151367188e+01 1.289168739318847656e+01 1.050780415534973145e+00 1.142226696014404297e+01 3.741914272308349609e+00 3.084641933441162109e+00
2.750000000000000000e+02 4.998696517944335938e+01 1.603688430786132812e+01 1.216672658920288086e+00 9.409301757812500000e+00 3.187792301177978516e+00 3.152796506881713867e+00
2.760000000000000000e+02 4.061120223999023438e+01 1.718254661560058594e+01 4.664461016654968262e-01 5.161291122436523438e+00 1.688321113586425781e+00 -1.501992583274841309e+00
2.770000000000000000e+02 3.758374023437500000e+01 4.069371032714843750e+01 -3.487779200077056885e-01 2.598481416702270508e+00 6.749110817909240723e-01 -7.273207604885101318e-02
2.780000000000000000e+02 4.084471893310546875e+01 3.559057617187500000e+01 -5.008286833763122559e-01 3.141164779663085938e+00 7.921008467674255371e-01 -1.548114269971847534e-01
2.790000000000000000e+02 3.717846298217773438e+01 2.874601554870605469e+01 -3.043733239173889160e-01 2.776333570480346680e+00 7.415880560874938965e-01 -7.218358516693115234e-01
2.800000000000000000e+02 3.493330764770507812e+01 2.092458724975585938e+01 2.921280562877655029e-01 1.725725889205932617e+00 6.053561568260192871e-01 -1.038831710815429688e+00
2.810000000000000000e+02 3.314712524414062500e+01 1.827332687377929688e+01 5.511605143547058105e-01 4.554833173751831055e-01 3.019931614398956299e-01 -4.984447956085205078e-01
2.820000000000000000e+02 3.380345916748046875e+01 1.779389190673828125e+01 6.864050030708312988e-01 5.670770406723022461e-01 3.760446012020111084e-01 -6.264749169349670410e-01
2.830000000000000000e+02 3.571035003662109375e+01 1.629140663146972656e+01 1.115196466445922852e+00 1.091172814369201660e+00 6.619107723236083984e-01 -1.089929103851318359e+00
2.840000000000000000e+02 3.632149124145507812e+01 1.576445293426513672e+01 1.263038277626037598e+00 1.281846523284912109e+00 7.634654641151428223e-01 -1.265839338302612305e+00
2.850000000000000000e+02 3.254808044433593750e+01 4.097697067260742188e+01 -1.170224249362945557e-01 1.812150597572326660e+00 5.085384249687194824e-01 -7.664316892623901367e-02
2.860000000000000000e+02 2.815897178649902344e+01 3.809236907958984375e+01 7.034882158041000366e-02 1.147040128707885742e+00 3.652167022228240967e-01 -1.440338641405105591e-01
2.870000000000000000e+02 2.943738937377929688e+01 2.972487640380859375e+01 6.618095189332962036e-02 1.041032195091247559e+00 3.321639299392700195e-01 -4.707615077495574951e-01
2.880000000000000000e+02 2.917681503295898438e+01 2.252934265136718750e+01 -1.372105479240417480e-01 3.172756135463714600e-01 5.401952192187309265e-02 -3.159567713737487793e-01
2.890000000000000000e+02 2.477777671813964844e+01 2.133829116821289062e+01 -7.904277443885803223e-01 -3.747296053916215897e-03 -2.382525056600570679e-01 1.169224306941032410e-01
2.900000000000000000e+02 2.955409431457519531e+01 2.026763725280761719e+01 -3.619264662265777588e-01 3.515304997563362122e-02 -9.803202748298645020e-02 -2.336092293262481689e-04
2.910000000000000000e+02 3.032850837707519531e+01 1.996714973449707031e+01 -1.984956562519073486e-01 8.230988681316375732e-02 -3.485573083162307739e-02 -5.743699148297309875e-02
2.920000000000000000e+02 1.855610466003417969e+01 4.068502044677734375e+01 1.885686218738555908e-01 2.705452740192413330e-01 1.377341598272323608e-01 7.451933808624744415e-03
2.930000000000000000e+02 2.300902938842773438e+01 4.093903732299804688e+01 1.806144714355468750e-01 5.947035551071166992e-01 2.325953990221023560e-01 -2.040882594883441925e-02
2.940000000000000000e+02 2.220479202270507812e+01 2.842493629455566406e+01 6.201536580920219421e-02 1.542549282312393188e-01 6.488108634948730469e-02 5.653564818203449249e-03
2.950000000000000000e+02 2.187611198425292969e+01 2.154910278320312500e+01 -9.369052052497863770e-01 -1.126778125762939453e-01 -3.148748874664306641e-01 -1.328667998313903809e-01
2.960000000000000000e+02 2.395889472961425781e+01 2.397316741943359375e+01 -3.140981793403625488e-01 -2.256526239216327667e-02 -1.009990274906158447e-01 -1.618080213665962219e-02
2.970000000000000000e+02 1.846767044067382812e+01 3.417420959472656250e+01 1.546176075935363770e-01 2.039903998374938965e-01 1.075824052095413208e-01 6.153979897499084473e-02
2.980000000000000000e+02 1.810353851318359375e+01 3.010040092468261719e+01 5.720448121428489685e-02 1.116346269845962524e-01 5.065173283219337463e-02 1.165403425693511963e-01
2.990000000000000000e+02 1.728803825378417969e+01 2.061045265197753906e+01 -2.452383786439895630e-01 4.990208894014358521e-02 -5.860088765621185303e-02 -2.799112349748611450e-02
3.000000000000000000e+02 1.868108940124511719e+01 1.623060989379882812e+01 -4.676739219576120377e-03 1.719052158296108246e-02 3.754134988412261009e-03 -2.051297808066010475e-03
3.010000000000000000e+02 1.944589996337890625e+01 1.939528846740722656e+01 -1.210847944021224976e-01 -1.217921823263168335e-01 -7.286309450864791870e-02 -1.085503771901130676e-01
3.020000000000000000e+02 1.887184715270996094e+01 1.785348892211914062e+01 -1.718798093497753143e-02 -2.833892777562141418e-02 -1.365807279944419861e-02 -2.142676338553428650e-02
3.030000000000000000e+02 1.987375831604003906e+01 2.012047195434570312e+01 -2.575961053371429443e-01 -1.524091064929962158e-01 -1.230015605688095093e-01 -1.778854280710220337e-01
3.040000000000000000e+02 1.199557781219482422e+01 4.115119552612304688e+01 1.258376389741897583e-01 2.245271578431129456e-02 4.448710381984710693e-02 1.914257928729057312e-02
3.050000000000000000e+02 1.106272697448730469e+01 3.867480087280273438e+01 1.020301058888435364e-01 -1.482400204986333847e-02 2.616183087229728699e-02 5.538089573383331299e-02
3.060000000000000000e+02 7.166721343994140625e+00 3.139586067199707031e+01 1.004327740520238876e-02 -7.958829402923583984e-02 -2.086350508034229279e-02 1.064030528068542480e-01
3.070000000000000000e+02 6.897520542144775391e+00 2.282816123962402344e+01 -3.855476528406143188e-02 -1.461732108145952225e-02 -1.595162600278854370e-02 6.844117492437362671e-02
3.080000000000000000e+02 1.380255603790283203e+01 1.651094055175781250e+01 -4.928168654441833496e-02 3.498688107356429100e-03 -1.373489946126937866e-02 -1.268281787633895874e-02
3.090000000000000000e+02 8.775156974792480469e+00 6.646942615509033203e+00 4.797496076207607985e-04 -3.048593644052743912e-03 -7.706531905569136143e-04 -1.011777087114751339e-03
3.100000000000000000e+02 6.599012374877929688e+00 1.847281098365783691e+00 2.630881965160369873e-03 -1.874769368441775441e-04 7.330215303227305412e-04 -1.157359918579459190e-03
3.110000000000000000e+02 1.130972480773925781e+01 1.610608458518981934e+00 3.054996952414512634e-03 -2.485472650732845068e-04 8.419349323958158493e-04 3.691795573104172945e-04
3.120000000000000000e+02 1.208315181732177734e+01 1.478076219558715820e+00 3.130843862891197205e-03 -4.055440949741750956e-04 8.175899274647235870e-04 6.657951162196695805e-04
3.130000000000000000e+02 1.434174346923828125e+01 1.080258369445800781e+00 1.850098022259771824e-03 -2.113673981511965394e-04 4.916191683150827885e-04 7.760118460282683372e-04
3.140000000000000000e+02 2.034791564941406250e+01 5.778028488159179688e+00 9.288437431678175926e-04 1.822585472837090492e-03 8.254287531599402428e-04 6.878619751660153270e-05
3.150000000000000000e+02 2.135304832458496094e+01 4.423117637634277344e+00 6.726750871166586876e-04 6.525573553517460823e-04 3.975697327405214310e-04 5.649142549373209476e-04
3.160000000000000000e+02 2.368196678161621094e+01 1.310497283935546875e+00 -2.433360205031931400e-04 -1.130010787164792418e-04 -1.069011341314762831e-04 -9.115405555348843336e-05
3.170000000000000000e+02 1.420900344848632812e+00 3.717859649658203125e+01 1.818224904127418995e-03 -3.059772551059722900e-01 -9.124770760536193848e-02 1.859792321920394897e-02
3.180000000000000000e+02 1.069823980331420898e+00 3.939165878295898438e+01 1.423565903678536415e-03 -3.431312739849090576e-01 -1.025123149156570435e-01 4.522781353443861008e-03
3.190000000000000000e+02 2.192448616027832031e+00 3.616687393188476562e+01 1.985650975257158279e-03 -2.565865516662597656e-01 -7.638026773929595947e-02 3.442281112074851990e-02
3.200000000000000000e+02 1.164458870887756348e+00 2.906573867797851562e+01 -5.817476776428520679e-04 -1.589990407228469849e-01 -4.787423834204673767e-02 2.691416256129741669e-02
3.210000000000000000e+02 3.562751710414886475e-01 2.032433319091796875e+01 -2.403907710686326027e-04 -1.347419619560241699e-02 -4.114376381039619446e-03 3.338700858876109123e-03
3.220000000000000000e+02 1.059025168418884277e+00 1.536303424835205078e+01 -7.142693502828478813e-04 6.816619541496038437e-03 1.830705092288553715e-03 1.561978599056601524e-03
3.230000000000000000e+02 3.438201248645782471e-01 6.669659137725830078e+00 -5.264516585157252848e-05 4.734574351459741592e-03 1.404578681103885174e-03 -4.437974712345749140e-04
3.240000000000000000e+02 1.044954538345336914e+00 8.939274787902832031e+00 -9.093997505260631442e-05 6.272840779274702072e-03 1.854570349678397179e-03 -1.335213775746524334e-03
3.250000000000000000e+02 4.969213008880615234e+00 2.562520980834960938e+00 1.729060197249054909e-03 -2.995537215610966086e-06 5.178194260224699974e-04 -1.536304596811532974e-03
3.260000000000000000e+02 1.662618446350097656e+01 2.103020668029785156e+00 1.059362082742154598e-03 2.382139791734516621e-04 3.892728127539157867e-04 1.124174799770116806e-03
3.270000000000000000e+02 1.723720550537109375e+01 5.953716039657592773e-01 5.865937564522027969e-04 1.792026978364447132e-06 1.765157358022406697e-04 5.756717873737215996e-04
3.280000000000000000e+02 1.926098442077636719e+01 8.943010330200195312e+00 1.784497289918363094e-03 8.105246350169181824e-03 2.966922940686345100e-03 -9.230459108948707581e-04
3.290000000000000000e+02 1.816788291931152344e+01 1.133730411529541016e+01 1.826682128012180328e-03 1.205109059810638428e-02 4.163331817835569382e-03 1.334339962340891361e-03
3.300000000000000000e+02 1.873380470275878906e+01 1.216058731079101562e+01 2.460036193951964378e-03 1.855916902422904968e-02 6.305761635303497314e-03 -7.733523962087929249e-04
3.310000000000000000e+02 1.875003814697265625e+01 1.704300498962402344e+01 3.744577988982200623e-04 3.501814091578125954e-03 1.162881497293710709e-03 -7.835119962692260742e-03
3.320000000000000000e+02 1.386424160003662109e+01 1.738591003417968750e+01 -7.069282233715057373e-02 1.157209742814302444e-02 -1.773621700704097748e-02 -1.359799597412347794e-02
3.330000000000000000e+02 4.155081558227539062e+01 -3.782162815332412720e-02 2.248683929443359375e+00 1.686879730224609375e+01 5.735244274139404297e+00 5.599784374237060547e+00
3.340000000000000000e+02 4.084075927734375000e+01 -2.675557613372802734e+00 1.764357805252075195e+00 9.732029914855957031e+00 3.448916435241699219e+00 3.808300256729125977e+00
3.350000000000000000e+02 4.083740615844726562e+01 -1.533396482467651367e+00 4.686330318450927734e+00 1.254357051849365234e+01 5.168970108032226562e+00 6.754556179046630859e+00
3.360000000000000000e+02 3.893232727050781250e+01 -3.189596414566040039e+00 1.857861280441284180e+00 2.097466230392456055e+00 1.186598300933837891e+00 2.062079191207885742e+00
3.370000000000000000e+02 3.738165283203125000e+01 -3.767096281051635742e+00 -1.137313246726989746e+00 2.430666834115982056e-01 -2.682739496231079102e-01 1.133735328912734985e-01
3.380000000000000000e+02 3.660126876831054688e+01 -3.984538316726684570e+00 -1.741974115371704102e+00 7.171860337257385254e-02 -5.010766386985778809e-01 -2.467901855707168579e-01
3.390000000000000000e+02 3.189184379577636719e+01 -5.152925968170166016e+00 -3.039427995681762695e+00 -9.083131700754165649e-02 -9.390777945518493652e-01 -3.168164193630218506e-01
3.400000000000000000e+02 3.020103836059570312e+01 -5.159638881683349609e+00 -2.997498750686645508e+00 -2.965714037418365479e-01 -9.882210493087768555e-01 3.389436006546020508e-01
3.410000000000000000e+02 2.865814399719238281e+01 -4.441558361053466797e+00 -1.330669283866882324e+00 -4.998897612094879150e-01 -5.491676926612854004e-01 7.098882198333740234e-01
3.420000000000000000e+02 2.801128005981445312e+01 -3.904099225997924805e+00 -7.490051388740539551e-01 -3.422598838806152344e-01 -3.273794949054718018e-01 5.107406973838806152e-01
3.430000000000000000e+02 2.734277153015136719e+01 -3.341686248779296875e+00 -5.193362832069396973e-01 -2.126789093017578125e-01 -2.196045666933059692e-01 3.494449257850646973e-01
3.440000000000000000e+02 2.938073539733886719e+01 -4.892589092254638672e+00 -2.303101062774658203e+00 -4.668037593364715576e-01 -8.309714198112487793e-01 7.164233922958374023e-01
3.450000000000000000e+02 2.677403640747070312e+01 -4.099062442779541016e+00 -7.947996854782104492e-01 -2.613241225481033325e-02 -2.462796270847320557e-01 3.043668270111083984e-01
3.460000000000000000e+02 2.148882102966308594e+01 -4.121654987335205078e+00 -5.884721279144287109e-01 3.491008654236793518e-02 -1.660685986280441284e-01 5.960556492209434509e-02
3.470000000000000000e+02 2.154471588134765625e+01 -3.416508436203002930e+00 -6.502674221992492676e-01 1.184342801570892334e-02 -1.915271878242492676e-01 6.763891130685806274e-02
3.480000000000000000e+02 6.705835723876953125e+01 -1.306678962707519531e+01 1.907490849494934082e+00 8.156994819641113281e+00 3.019345521926879883e+00 -3.234328985214233398e+00
3.490000000000000000e+02 1.656510734558105469e+01 -1.223582077026367188e+01 8.524605631828308105e-01 1.342658996582031250e-01 2.960179448127746582e-01 -1.102234497666358948e-01
3.500000000000000000e+02 1.841774559020996094e+01 -1.289743041992187500e+01 5.797724723815917969e-01 1.441645771265029907e-01 2.171811163425445557e-01 -2.956170141696929932e-01
3.510000000000000000e+02 1.906199645996093750e+01 -1.330156421661376953e+01 5.365036129951477051e-01 1.307745873928070068e-01 2.001834660768508911e-01 -2.648814022541046143e-01
3.520000000000000000e+02 2.078092193603515625e+01 -1.331410121917724609e+01 5.125727057456970215e-01 3.010788932442665100e-02 1.628041863441467285e-01 -2.139461487531661987e-01
3.530000000000000000e+02 2.171973228454589844e+01 -1.280340099334716797e+01 4.927157163619995117e-01 7.181731984019279480e-03 1.499692350625991821e-01 -2.183815538883209229e-01
3.540000000000000000e+02 2.824485206604003906e+01 -1.503718280792236328e+01 1.120289921760559082e+00 1.456293743103742599e-02 3.404558598995208740e-01 -1.111089065670967102e-01
3.550000000000000000e+02 3.372227478027343750e+01 -1.632380294799804688e+01 3.281212151050567627e-01 3.660691976547241211e-01 2.082571238279342651e-01 -2.674102783203125000e-01
3.560000000000000000e+02 3.436229705810546875e+01 -1.686918258666992188e+01 2.964630424976348877e-01 8.119254708290100098e-01 3.325165510177612305e-01 -4.300366938114166260e-01
3.570000000000000000e+02 3.564857482910156250e+01 -6.501935482025146484e+00 -8.680796623229980469e-01 9.210473299026489258e-01 1.589029468595981598e-02 5.166564583778381348e-01
3.580000000000000000e+02 3.484818267822265625e+01 -6.793031215667724609e+00 -8.990761041641235352e-01 5.541233420372009277e-01 -1.034858375787734985e-01 2.897739112377166748e-01
3.590000000000000000e+02 2.855179595947265625e+01 -1.356471538543701172e+01 8.239495754241943359e-01 -4.193229973316192627e-02 2.346051782369613647e-01 -8.303967118263244629e-02
3.600000000000000000e+02 2.910257911682128906e+01 -5.563299179077148438e+00 -1.736725687980651855e+00 -2.994591295719146729e-01 -6.108554601669311523e-01 7.122495770454406738e-02
3.610000000000000000e+02 2.507619285583496094e+01 -1.472310638427734375e+01 9.725497364997863770e-01 2.034200355410575867e-02 2.978675067424774170e-01 -1.268647462129592896e-01
3.620000000000000000e+02 3.493033218383789062e+01 -1.750251579284667969e+01 3.810403645038604736e-01 1.456732749938964844e+00 5.513319373130798340e-01 -7.265397906303405762e-01
3.630000000000000000e+02 3.634808349609375000e+01 -1.883251762390136719e+01 5.528378486633300781e-01 4.520228385925292969e+00 1.521919846534729004e+00 -7.398182153701782227e-02
3.640000000000000000e+02 3.569466400146484375e+01 -1.901522827148437500e+01 4.200969338417053223e-01 4.842992305755615234e+00 1.578926801681518555e+00 -5.540947914123535156e-01
3.650000000000000000e+02 3.566305923461914062e+01 -2.395977210998535156e+01 9.379045963287353516e-01 8.850494384765625000e+00 2.936519622802734375e+00 1.884557604789733887e+00
3.660000000000000000e+02 3.475544357299804688e+01 -2.627216339111328125e+01 2.444167375564575195e+00 6.593781471252441406e+00 2.711384534835815430e+00 3.505788326263427734e+00
3.670000000000000000e+02 3.315480804443359375e+01 -2.816992568969726562e+01 2.416377782821655273e+00 2.902643680572509766e+00 1.595706462860107422e+00 2.493412971496582031e+00
3.680000000000000000e+02 3.496623992919921875e+01 -2.863838005065917969e+01 1.119297742843627930e+00 4.766403675079345703e+00 1.765710473060607910e+00 1.883884787559509277e+00
3.690000000000000000e+02 2.830447196960449219e+01 -3.246906661987304688e+01 2.996964156627655029e-01 5.450423955917358398e-01 2.534216344356536865e-01 5.913140773773193359e-01
3.700000000000000000e+02 2.787139701843261719e+01 -3.033928680419921875e+01 -2.382711023092269897e-01 5.212844908237457275e-02 -5.584279820322990417e-02 1.168271601200103760e-01
3.710000000000000000e+02 1.380167198181152344e+01 -2.587710952758789062e+01 2.285536080598831177e-01 4.745090007781982422e-01 2.109187841415405273e-01 -3.141442835330963135e-01
3.720000000000000000e+02 1.234161090850830078e+01 -2.151984214782714844e+01 2.450362443923950195e-01 1.191469669342041016e+00 4.309517741203308105e-01 -4.329527020454406738e-01
3.730000000000000000e+02 6.022442626953125000e+01 4.538756370544433594e+00 -5.092577338218688965e-01 -3.062420785427093506e-01 -2.446499466896057129e-01 -4.175873398780822754e-01
3.740000000000000000e+02 5.788035202026367188e+01 2.398363828659057617e+00 -3.253562450408935547e-01 -4.197840988636016846e-01 -2.235421091318130493e-01 -3.870055675506591797e-01
3.750000000000000000e+02 5.471982574462890625e+01 -4.536363184452056885e-01 2.363573074340820312e+00 -1.144452169537544250e-01 6.747383475303649902e-01 -3.594540655612945557e-01
3.760000000000000000e+02 5.108102416992187500e+01 1.599127948284149170e-01 5.695697784423828125e+00 1.404499530792236328e+00 2.130059242248535156e+00 -1.898405551910400391e+00
3.770000000000000000e+02 5.036145019531250000e+01 3.995564579963684082e-01 4.908194065093994141e+00 3.014731645584106445e+00 2.376877784729003906e+00 -2.988351821899414062e+00
3.780000000000000000e+02 5.067422866821289062e+01 -6.619343280792236328e+00 -1.636359810829162598e+00 1.747342824935913086e+00 3.329488635063171387e-02 3.890391588211059570e-01
3.790000000000000000e+02 4.832557678222656250e+01 3.407226562500000000e+00 1.341014981269836426e+00 1.368412494659423828e+01 4.507542133331298828e+00 -1.899898171424865723e+00
3.800000000000000000e+02 4.360366058349609375e+01 4.578894138336181641e+00 9.850572347640991211e-01 1.667686462402343750e+01 5.298576831817626953e+00 3.834369480609893799e-01
3.810000000000000000e+02 4.228091812133789062e+01 4.761756896972656250e+00 4.395613074302673340e-02 1.828028297424316406e+01 5.497272014617919922e+00 8.707615733146667480e-02
3.820000000000000000e+02 4.834586715698242188e+01 5.056233406066894531e+00 3.432633876800537109e-01 1.251886653900146484e+01 3.858639001846313477e+00 3.300139605998992920e-01
3.830000000000000000e+02 2.349570274353027344e+01 -1.457463073730468750e+01 7.935200333595275879e-01 8.835733868181705475e-03 2.407067269086837769e-01 -1.129565238952636719e-01
3.840000000000000000e+02 5.187818908691406250e+01 5.072949081659317017e-02 5.165358543395996094e+00 4.961910247802734375e-01 1.698464870452880859e+00 -5.631201863288879395e-01
3.850000000000000000e+02 5.027835845947265625e+01 -5.275443196296691895e-01 3.647165775299072266e+00 3.571382761001586914e+00 2.165564537048339844e+00 -1.766654968261718750e+00
3.860000000000000000e+02 5.951876831054687500e+01 -1.910467028617858887e+00 1.047478079795837402e+00 2.149185240268707275e-01 3.787190020084381104e-01 -6.511596441268920898e-01
3.870000000000000000e+02 5.870777130126953125e+01 -4.062937259674072266e+00 8.297032713890075684e-01 1.497015804052352905e-01 2.938214540481567383e-01 -9.937566518783569336e-01
3.880000000000000000e+02 2.840659523010253906e+01 -1.430785846710205078e+01 9.433544874191284180e-01 -6.060972344130277634e-03 2.811880409717559814e-01 -8.670315891504287720e-02
3.890000000000000000e+02 4.783812332153320312e+01 -1.057832813262939453e+01 -7.676715254783630371e-01 7.187452316284179688e+00 1.925934195518493652e+00 1.440150380134582520e+00
3.900000000000000000e+02 7.388980102539062500e+01 -3.182521820068359375e+01 -5.262114405632019043e-01 8.033307075500488281e+00 2.252128601074218750e+00 -3.461661934852600098e-01
3.910000000000000000e+02 6.820086669921875000e+01 7.239287853240966797e+00 -5.650522708892822266e-01 6.483670234680175781e+00 1.775585293769836426e+00 6.473041176795959473e-01
3.920000000000000000e+02 6.595717620849609375e+01 5.880781650543212891e+00 -3.868067860603332520e-01 4.038258075714111328e+00 1.095435261726379395e+00 9.537850022315979004e-01
3.930000000000000000e+02 6.264815139770507812e+01 6.561139583587646484e+00 -1.251626759767532349e-01 2.512656152248382568e-01 3.783087804913520813e-02 6.808712333440780640e-02
3.940000000000000000e+02 5.437742614746093750e+01 3.305726349353790283e-01 2.694839000701904297e+00 1.167735457420349121e-01 8.434837460517883301e-01 3.159341812133789062e-01
3.950000000000000000e+02 5.725389480590820312e+01 1.891541004180908203e+00 -7.683787494897842407e-02 -2.976645827293395996e-01 -1.123507320880889893e-01 -2.422742545604705811e-01
3.960000000000000000e+02 6.231963729858398438e+01 2.218530273437500000e+01 -3.422912597656250000e+00 -3.103258647024631500e-02 -1.036183595657348633e+00 4.409614205360412598e-01
3.970000000000000000e+02 6.289060592651367188e+01 2.846354866027832031e+01 2.392148971557617188e-01 2.256494760513305664e+00 7.487128973007202148e-01 -5.602003335952758789e-01
3.980000000000000000e+02 5.480510330200195312e+01 2.987364578247070312e+01 -1.155379116535186768e-01 2.900118827819824219e+00 8.353742957115173340e-01 1.299205303192138672e+00
3.990000000000000000e+02 5.350923538208007812e+01 3.275985336303710938e+01 -1.138950660824775696e-01 3.228348493576049805e+00 9.343360066413879395e-01 9.438924789428710938e-01
4.000000000000000000e+02 4.941157150268554688e+01 2.152036476135253906e+01 1.089718788862228394e-01 6.375909805297851562e+00 1.945464491844177246e+00 1.171318769454956055e+00
4.010000000000000000e+02 4.334981918334960938e+01 2.171177101135253906e+01 -2.563069462776184082e-01 5.477119922637939453e+00 1.566243886947631836e+00 -5.653124451637268066e-01
4.020000000000000000e+02 3.431958007812500000e+01 2.151554870605468750e+01 2.269463241100311279e-01 1.547367691993713379e+00 5.322942137718200684e-01 -9.505413174629211426e-01
4.030000000000000000e+02 2.914316940307617188e+01 2.150944709777832031e+01 -2.309506088495254517e-01 1.902189701795578003e-01 -1.221949048340320587e-02 -1.827513277530670166e-01
4.040000000000000000e+02 2.400305175781250000e+01 2.155237770080566406e+01 -8.922379612922668457e-01 -2.684612758457660675e-02 -2.757252156734466553e-01 1.302736848592758179e-01
4.050000000000000000e+02 1.936744308471679688e+01 2.193484687805175781e+01 -4.370797276496887207e-01 2.271364070475101471e-02 -1.243098229169845581e-01 1.688984036445617676e-02
4.060000000000000000e+02 6.152123928070068359e+00 2.529098129272460938e+01 -2.477348409593105316e-02 -4.080191999673843384e-02 -1.967262104153633118e-02 8.417781442403793335e-02
4.070000000000000000e+02 1.082799196243286133e+00 2.341003227233886719e+01 -1.375830848701298237e-03 -5.449201911687850952e-02 -1.676035486161708832e-02 1.684093475341796875e-02
4.080000000000000000e+02 7.386183929443359375e+01 3.207956314086914062e+01 -2.018941938877105713e-01 6.903353214263916016e+00 2.010437726974487305e+00 -1.661729663610458374e-01
4.090000000000000000e+02 4.614973831176757812e+01 3.309619140625000000e+01 -6.487343907356262207e-01 3.866832494735717773e+00 9.654294252395629883e-01 2.670287191867828369e-01
4.100000000000000000e+02 3.773926162719726562e+01 3.200603485107421875e+01 -3.854062855243682861e-01 2.800030946731567383e+00 7.243874073028564453e-01 -4.874196946620941162e-01
4.110000000000000000e+02 2.725446701049804688e+01 2.943840599060058594e+01 1.048897430300712585e-01 6.726348400115966797e-01 2.332573831081390381e-01 -3.176919817924499512e-01
4.120000000000000000e+02 2.429060935974121094e+01 2.928554344177246094e+01 1.088017448782920837e-01 3.676965534687042236e-01 1.429494917392730713e-01 -1.397788822650909424e-01
4.130000000000000000e+02 1.489720058441162109e+01 3.207980728149414062e+01 7.616447657346725464e-02 5.985487252473831177e-02 4.080580547451972961e-02 1.291140019893646240e-01
4.140000000000000000e+02 6.019536495208740234e+00 3.167770957946777344e+01 8.732752874493598938e-03 -1.057033911347389221e-01 -2.909119054675102234e-02 9.581313282251358032e-02
4.150000000000000000e+02 1.184779047966003418e+00 3.070415306091308594e+01 -1.474775490351021290e-04 -1.936442106962203979e-01 -5.813750624656677246e-02 2.775399014353752136e-02
4.160000000000000000e+02 9.641718864440917969e+00 7.309536457061767578e+00 -1.310877451032865793e-05 -3.736349986866116524e-03 -1.124837668612599373e-03 -4.585742426570504904e-04
4.170000000000000000e+02 1.060419678688049316e+00 1.616821670532226562e+01 -6.881593144498765469e-04 5.031762178987264633e-03 1.303080818615853786e-03 2.572142286226153374e-03
4.180000000000000000e+02 3.544345474243164062e+01 -2.475842094421386719e+01 1.362108945846557617e+00 8.213836669921875000e+00 2.872783660888671875e+00 2.820556163787841797e+00
4.190000000000000000e+02 4.728974533081054688e+01 -2.375762748718261719e+01 2.482707262039184570e+00 9.900386810302734375e+00 3.714928150177001953e+00 -4.146607398986816406e+00
4.200000000000000000e+02 4.660593414306640625e+01 -1.731581687927246094e+01 1.524369716644287109e-01 1.417493915557861328e+01 4.298213005065917969e+00 1.035564184188842773e+00
4.210000000000000000e+02 8.510107994079589844e+00 -2.559587240219116211e+00 -1.953337192535400391e-01 1.549296826124191284e-02 -5.395222455263137817e-02 -8.973938971757888794e-02
4.220000000000000000e+02 6.961460113525390625e+00 -1.863972425460815430e+00 -1.438528448343276978e-01 6.200654752319678664e-05 -4.313725233078002930e-02 -6.805724650621414185e-02
4.230000000000000000e+02 7.777478218078613281e+00 -1.855207443237304688e+00 -1.711430400609970093e-01 5.997195839881896973e-03 -4.954375326633453369e-02 -6.558617949485778809e-02
4.240000000000000000e+02 4.502460002899169922e+00 -1.899137258529663086e+00 -7.037485390901565552e-02 -1.116321235895156860e-02 -2.446142025291919708e-02 -5.459570139646530151e-02
4.250000000000000000e+02 1.093565940856933594e+00 -6.706732273101806641e+00 -3.770129987969994545e-03 -1.499590724706649780e-01 -4.611875861883163452e-02 -5.314348265528678894e-02
4.260000000000000000e+02 1.114334344863891602e+00 -5.896533489227294922e+00 -4.813406616449356079e-03 -1.160179525613784790e-01 -3.624941036105155945e-02 -4.834852367639541626e-02
4.270000000000000000e+02 1.814907312393188477e+00 -6.725557327270507812e+00 -9.857119061052799225e-03 -1.444825828075408936e-01 -4.630191251635551453e-02 -8.324480801820755005e-02
4.280000000000000000e+02 3.989204466342926025e-01 -2.696813583374023438e+00 -1.620105933398008347e-03 -1.151757966727018356e-02 -3.941305913031101227e-03 -6.146565545350313187e-03
4.290000000000000000e+02 4.067735671997070312e-01 -1.898509860038757324e+00 -1.670186407864093781e-03 -2.452871063724160194e-03 -1.236917218193411827e-03 -2.853047801181674004e-03
4.300000000000000000e+02 4.564666748046875000e-01 -4.204231643676757812e+01 3.317318623885512352e-04 -7.516541481018066406e-01 -2.253967225551605225e-01 -4.314321267884224653e-04
4.310000000000000000e+02 5.806455612182617188e-01 -4.118228530883789062e+01 -8.988155052065849304e-03 -7.532115578651428223e-01 -2.286599129438400269e-01 3.940810449421405792e-03
4.320000000000000000e+02 5.898224115371704102e-01 -4.037592697143554688e+01 9.011187590658664703e-03 -7.601764202117919922e-01 -2.253495752811431885e-01 7.298809010535478592e-03
4.330000000000000000e+02 5.294399857521057129e-01 -3.877273559570312500e+01 -2.530591096729040146e-03 -7.656078934669494629e-01 -2.304415404796600342e-01 4.176748625468462706e-04
4.340000000000000000e+02 5.781663060188293457e-01 -3.956475448608398438e+01 2.259783286717720330e-05 -7.661634683609008789e-01 -2.298422604799270630e-01 -8.048259769566357136e-04
4.350000000000000000e+02 3.805682659149169922e-01 -3.723516845703125000e+01 1.332065730821341276e-04 -7.762014269828796387e-01 -2.328204661607742310e-01 4.429089836776256561e-03
4.360000000000000000e+02 3.935478925704956055e-01 -3.566367340087890625e+01 3.936768189305439591e-05 -7.945997714996337891e-01 -2.383681088685989380e-01 4.606949631124734879e-03
4.370000000000000000e+02 4.018817543983459473e-01 -3.486305618286132812e+01 -3.412176738493144512e-04 -8.038774132728576660e-01 -2.412655949592590332e-01 4.877312108874320984e-03
4.380000000000000000e+02 4.048876166343688965e-01 -3.405790328979492188e+01 -2.859637024812400341e-04 -8.139487504959106445e-01 -2.442704141139984131e-01 5.531934555619955063e-03
4.390000000000000000e+02 4.033670723438262939e-01 -3.325056457519531250e+01 -6.365487934090197086e-04 -8.254562616348266602e-01 -2.478278428316116333e-01 6.409693975001573563e-03
4.400000000000000000e+02 3.992152810096740723e-01 -3.244292831420898438e+01 -8.744221413508057594e-04 -8.394492864608764648e-01 -2.520971298217773438e-01 7.948955520987510681e-03
4.410000000000000000e+02 1.213949441909790039e+00 -3.324245834350585938e+01 -3.271776018664240837e-03 -7.534064054489135742e-01 -2.270034551620483398e-01 1.892927847802639008e-02
4.420000000000000000e+02 3.946765959262847900e-01 -3.163678741455078125e+01 2.664029307197779417e-04 -8.557296991348266602e-01 -2.566389739513397217e-01 8.555555716156959534e-03
4.430000000000000000e+02 3.823774456977844238e-01 -2.922399139404296875e+01 -2.218946319771930575e-04 -9.109190106391906738e-01 -2.733422517776489258e-01 9.465439245104789734e-03
4.440000000000000000e+02 3.777630329132080078e-01 -2.842048835754394531e+01 4.246505268383771181e-04 -9.300317168235778809e-01 -2.788821160793304443e-01 9.236166253685951233e-03
4.450000000000000000e+02 3.732516467571258545e-01 -2.761726570129394531e+01 -1.440954074496403337e-04 -9.487466812133789062e-01 -2.846672534942626953e-01 8.940692059695720673e-03
4.460000000000000000e+02 3.690847456455230713e-01 -2.681377792358398438e+01 9.887318592518568039e-04 -9.663082957267761230e-01 -2.895958721637725830e-01 8.023601025342941284e-03
4.470000000000000000e+02 3.653889298439025879e-01 -2.600999259948730469e+01 1.189302201964892447e-04 -9.816327095031738281e-01 -2.944541275501251221e-01 6.806010846048593521e-03
4.480000000000000000e+02 3.622890412807464600e-01 -2.520620155334472656e+01 1.255223993211984634e-03 -9.940096735954284668e-01 -2.978263497352600098e-01 5.289475433528423309e-03
4.490000000000000000e+02 1.094233393669128418e+00 -2.599152946472167969e+01 3.436568891629576683e-03 -8.772155642509460449e-01 -2.621337175369262695e-01 1.692608557641506195e-02
4.500000000000000000e+02 3.598492443561553955e-01 -2.440230751037597656e+01 4.912204458378255367e-04 -1.002522110939025879e+00 -3.006092607975006104e-01 3.341938601806759834e-03
4.510000000000000000e+02 3.559925258159637451e-01 -2.198995971679687500e+01 1.493740361183881760e-03 -9.981818199157714844e-01 -2.990064322948455811e-01 -3.754223464056849480e-03
4.520000000000000000e+02 3.548249900341033936e-01 -2.118613433837890625e+01 8.213573601096868515e-04 -9.852810502052307129e-01 -2.953379154205322266e-01 -6.366300396621227264e-03
4.530000000000000000e+02 3.542779684066772461e-01 -2.038260841369628906e+01 1.751388539560139179e-03 -9.660681486129760742e-01 -2.892950177192687988e-01 -9.259496815502643585e-03
4.540000000000000000e+02 3.544178009033203125e-01 -1.957832717895507812e+01 6.901342421770095825e-04 -9.403385519981384277e-01 -2.818945348262786865e-01 -1.202489901334047318e-02
4.550000000000000000e+02 3.549534082412719727e-01 -1.877352905273437500e+01 1.743132481351494789e-03 -9.084348678588867188e-01 -2.720075249671936035e-01 -1.473716180771589279e-02
4.560000000000000000e+02 1.066555857658386230e+00 -1.875778198242187500e+01 5.287223961204290390e-03 -7.988921403884887695e-01 -2.380814701318740845e-01 -4.408022016286849976e-02
4.570000000000000000e+02 3.553828597068786621e-01 -1.796862030029296875e+01 5.323468940332531929e-04 -8.705706596374511719e-01 -2.610115110874176025e-01 -1.730811595916748047e-02
4.580000000000000000e+02 3.532934784889221191e-01 -1.555539608001708984e+01 6.533948471769690514e-04 -7.299908399581909180e-01 -2.188012301921844482e-01 -2.216758206486701965e-02
4.590000000000000000e+02 3.523164987564086914e-01 -1.475129413604736328e+01 2.595336700323969126e-04 -6.768302917480468750e-01 -2.029712200164794922e-01 -2.316467463970184326e-02
4.600000000000000000e+02 3.513205051422119141e-01 -1.394753646850585938e+01 3.535670985002070665e-04 -6.217300891876220703e-01 -1.864129602909088135e-01 -2.381155639886856079e-02
4.610000000000000000e+02 3.504489064216613770e-01 -1.314415359497070312e+01 -6.071996540413238108e-05 -5.654636025428771973e-01 -1.696572899818420410e-01 -2.409963682293891907e-02
4.620000000000000000e+02 3.498931825160980225e-01 -1.234102249145507812e+01 1.539955119369551539e-04 -5.088121294975280762e-01 -1.525974273681640625e-01 -2.414410375058650970e-02
4.630000000000000000e+02 3.495790958404541016e-01 -1.153829765319824219e+01 -3.441567241679877043e-04 -4.524426162242889404e-01 -1.358360350131988525e-01 -2.387816831469535828e-02
4.640000000000000000e+02 1.734963059425354004e+00 -1.230540084838867188e+01 -2.936653909273445606e-04 -4.072411060333251953e-01 -1.222604289650917053e-01 -1.082251965999603271e-01
4.650000000000000000e+02 3.496581315994262695e-01 -1.073569393157958984e+01 1.500041707913624123e-05 -3.969852626323699951e-01 -1.190910786390304565e-01 -2.343227900564670563e-02
4.660000000000000000e+02 3.556792438030242920e-01 -8.325042724609375000e+00 -6.633033044636249542e-04 -2.409631609916687012e-01 -7.248793542385101318e-02 -2.113867737352848053e-02
4.670000000000000000e+02 3.598303496837615967e-01 -7.520628452301025391e+00 -3.709158627316355705e-04 -1.942288428544998169e-01 -5.837992951273918152e-02 -1.991622895002365112e-02
4.680000000000000000e+02 3.654752373695373535e-01 -6.715254306793212891e+00 -8.262944174930453300e-04 -1.510953605175018311e-01 -4.557649418711662292e-02 -1.855280064046382904e-02
4.690000000000000000e+02 3.719938695430755615e-01 -5.909286975860595703e+00 -7.792474934831261635e-04 -1.122315153479576111e-01 -3.390322998166084290e-02 -1.675622910261154175e-02
4.700000000000000000e+02 3.787993192672729492e-01 -5.104031562805175781e+00 -1.133614568971097469e-03 -7.826434820890426636e-02 -2.381938882172107697e-02 -1.468420960009098053e-02
4.710000000000000000e+02 3.854859471321105957e-01 -4.299816131591796875e+00 -1.236521638929843903e-03 -4.979693889617919922e-02 -1.531003788113594055e-02 -1.216228026896715164e-02
4.720000000000000000e+02 3.920128941535949707e-01 -3.497325897216796875e+00 -1.491837669163942337e-03 -2.738525904715061188e-02 -8.663129061460494995e-03 -9.326946921646595001e-03
4.730000000000000000e+02 7.951699066162109375e+01 -4.200704574584960938e+01 -3.662648377940058708e-03 1.037523841857910156e+01 3.111472606658935547e+00 -4.840227309614419937e-03
4.740000000000000000e+02 7.940074920654296875e+01 -4.112177658081054688e+01 3.342419862747192383e-02 1.037323474884033203e+01 3.121997833251953125e+00 3.854992799460887909e-03
4.750000000000000000e+02 7.539064788818359375e+01 -3.912323379516601562e+01 -1.115888357162475586e-02 8.123489379882812500e+00 2.433699131011962891e+00 7.350498810410499573e-03
4.760000000000000000e+02 5.229584503173828125e+01 -3.790751266479492188e+01 -7.289282232522964478e-02 1.793667316436767578e+00 5.162323713302612305e-01 -7.042291164398193359e-01
4.770000000000000000e+02 1.186128902435302734e+01 -3.820685195922851562e+01 8.386511355638504028e-03 2.914524450898170471e-02 1.125952694565057755e-02 -5.583747848868370056e-02
4.780000000000000000e+02 1.810486555099487305e+00 -4.012998962402343750e+01 3.411882324144244194e-03 -6.634348034858703613e-01 -1.980068683624267578e-01 -2.338395919650793076e-03
4.790000000000000000e+02 1.580432176589965820e+00 -4.195478439331054688e+01 -1.983228372409939766e-03 -6.999189853668212891e-01 -2.105706632137298584e-01 3.820655867457389832e-03
4.800000000000000000e+02 7.957016754150390625e+01 4.204710388183593750e+01 1.112793106585741043e-02 8.060704231262207031e+00 2.421549797058105469e+00 -1.269884128123521805e-02
4.810000000000000000e+02 7.949139404296875000e+01 4.118718338012695312e+01 -2.048668079078197479e-02 8.081168174743652344e+00 2.418204545974731445e+00 -1.183462981134653091e-02
4.820000000000000000e+02 7.798921203613281250e+01 3.899228668212890625e+01 2.177073992788791656e-02 7.682088375091552734e+00 2.311157703399658203e+00 -6.144257634878158569e-02
4.830000000000000000e+02 7.576162719726562500e+01 3.938994979858398438e+01 6.094121187925338745e-02 7.199335575103759766e+00 2.178082942962646484e+00 -1.161279529333114624e-01
4.840000000000000000e+02 7.957810211181640625e+01 3.960383224487304688e+01 1.991475000977516174e-03 8.087162971496582031e+00 2.426746368408203125e+00 -1.303911209106445312e-03
4.850000000000000000e+02 7.965718841552734375e+01 3.805078125000000000e+01 3.633153392001986504e-03 8.118240356445312500e+00 2.436562061309814453e+00 -1.022186875343322754e-02
4.860000000000000000e+02 7.963361358642578125e+01 3.728049087524414062e+01 -3.794591466430574656e-04 8.153399467468261719e+00 2.445905923843383789e+00 -1.422141958028078079e-02
4.870000000000000000e+02 7.959143066406250000e+01 3.490192794799804688e+01 4.818385932594537735e-03 8.248071670532226562e+00 2.475867033004760742e+00 -1.032109651714563370e-02
4.880000000000000000e+02 7.959714508056640625e+01 3.409726333618164062e+01 -4.906593356281518936e-03 8.277622222900390625e+00 2.481814622879028320e+00 -9.689353406429290771e-03
4.890000000000000000e+02 7.960618591308593750e+01 3.329438018798828125e+01 -6.395713426172733307e-04 8.302326202392578125e+00 2.490505933761596680e+00 -4.398590419441461563e-03
4.900000000000000000e+02 7.962653350830078125e+01 3.169493865966796875e+01 -1.107914838939905167e-03 8.315500259399414062e+00 2.494317770004272461e+00 1.051798835396766663e-02
4.910000000000000000e+02 7.963243865966796875e+01 3.089863777160644531e+01 -6.616089493036270142e-03 8.298747062683105469e+00 2.487639188766479492e+00 1.939248852431774139e-02
4.920000000000000000e+02 7.890251159667968750e+01 3.016171264648437500e+01 -2.362472377717494965e-02 8.062333106994628906e+00 2.411612510681152344e+00 6.501664966344833374e-02
4.930000000000000000e+02 7.962949371337890625e+01 2.771185493469238281e+01 -1.185520738363265991e-02 8.015090942382812500e+00 2.400970697402954102e+00 6.656631827354431152e-02
4.940000000000000000e+02 7.962741088867187500e+01 2.691269111633300781e+01 -6.196204776642844081e-05 7.878340244293212891e+00 2.363483428955078125e+00 7.805426418781280518e-02
4.950000000000000000e+02 7.962651062011718750e+01 2.611172294616699219e+01 -1.339881122112274170e-02 7.712454319000244141e+00 2.309716701507568359e+00 9.461885690689086914e-02
4.960000000000000000e+02 7.962664794921875000e+01 2.530934906005859375e+01 1.418158411979675293e-03 7.516947746276855469e+00 2.255509853363037109e+00 1.057902574539184570e-01
4.970000000000000000e+02 7.962757873535156250e+01 2.450621032714843750e+01 -1.192114781588315964e-02 7.295015335083007812e+00 2.184928178787231445e+00 1.191754564642906189e-01
4.980000000000000000e+02 7.887664794921875000e+01 2.540930557250976562e+01 -3.343078494071960449e-02 7.496850967407226562e+00 2.239026069641113281e+00 2.765671908855438232e-01
4.990000000000000000e+02 7.963135528564453125e+01 2.289896583557128906e+01 -6.684785708785057068e-03 6.790076732635498047e+00 2.035017728805541992e+00 1.311421841382980347e-01
5.000000000000000000e+02 7.964541625976562500e+01 2.048953628540039062e+01 5.478248931467533112e-03 5.996089935302734375e+00 1.800470471382141113e+00 1.184644028544425964e-01
5.010000000000000000e+02 7.965036773681640625e+01 1.968711090087890625e+01 8.552690967917442322e-03 5.760373115539550781e+00 1.730677723884582520e+00 1.021385937929153442e-01
5.020000000000000000e+02 7.965287780761718750e+01 1.888467407226562500e+01 6.556427571922540665e-03 5.557780742645263672e+00 1.669301033020019531e+00 8.527489751577377319e-02
5.030000000000000000e+02 7.965168762207031250e+01 1.808221817016601562e+01 1.492928899824619293e-02 5.402897834777832031e+00 1.625348210334777832e+00 5.933019146323204041e-02
5.040000000000000000e+02 7.964247131347656250e+01 1.647896957397460938e+01 1.753236353397369385e-02 5.263928890228271484e+00 1.584438323974609375e+00 6.782535929232835770e-03
5.050000000000000000e+02 7.964212799072265625e+01 1.407804012298583984e+01 5.858813528902828693e-04 5.469156265258789062e+00 1.640922546386718750e+00 -6.404306739568710327e-02
5.060000000000000000e+02 7.964345550537109375e+01 1.327629947662353516e+01 1.809809170663356781e-02 5.637955188751220703e+00 1.696816086769104004e+00 -8.730226010084152222e-02
5.070000000000000000e+02 7.964412689208984375e+01 1.247502899169921875e+01 -2.068042987957596779e-03 5.848653316497802734e+00 1.753975510597229004e+00 -1.027075350284576416e-01
5.080000000000000000e+02 7.964398193359375000e+01 1.167364597320556641e+01 1.293671317398548126e-02 6.089811801910400391e+00 1.830824613571166992e+00 -1.168009713292121887e-01
5.090000000000000000e+02 7.964357757568359375e+01 1.087203884124755859e+01 -3.167192684486508369e-03 6.354698181152343750e+00 1.905459284782409668e+00 -1.255762279033660889e-01
5.100000000000000000e+02 7.964345550537109375e+01 1.007086658477783203e+01 7.349621038883924484e-03 6.632940292358398438e+00 1.992087006568908691e+00 -1.313991844654083252e-01
5.110000000000000000e+02 7.892742156982421875e+01 1.016306209564208984e+01 3.528216853737831116e-03 6.786937713623046875e+00 2.037139654159545898e+00 -3.574075698852539062e-01
5.120000000000000000e+02 7.964516448974609375e+01 6.867012023925781250e+00 -1.378428074531257153e-03 7.728732585906982422e+00 2.318206310272216797e+00 -1.168939396739006042e-01
5.130000000000000000e+02 7.964583587646484375e+01 6.065326690673828125e+00 -6.535103078931570053e-03 7.965895175933837891e+00 2.387808084487915039e+00 -1.070977151393890381e-01
5.140000000000000000e+02 7.964625549316406250e+01 5.263887405395507812e+00 -3.978742286562919617e-03 8.178322792053222656e+00 2.452303171157836914e+00 -9.517553448677062988e-02
5.150000000000000000e+02 7.964627838134765625e+01 4.462817192077636719e+00 -6.246488541364669800e-03 8.364879608154296875e+00 2.507589817047119141e+00 -8.321610838174819946e-02
5.160000000000000000e+02 7.964601135253906250e+01 3.661745071411132812e+00 -5.366545170545578003e-03 8.522979736328125000e+00 2.555284023284912109e+00 -6.985178589820861816e-02
5.170000000000000000e+02 7.964530181884765625e+01 2.059127330780029297e+00 -6.304942071437835693e-03 8.755074501037597656e+00 2.624630689620971680e+00 -4.361106082797050476e-02
5.180000000000000000e+02 7.964450836181640625e+01 -3.461477458477020264e-01 -4.528237972408533096e-03 8.893352508544921875e+00 2.666647195816040039e+00 -5.140198860317468643e-03
5.190000000000000000e+02 7.964447784423828125e+01 -1.147751927375793457e+00 -7.067182566970586777e-03 8.884313583374023438e+00 2.663173913955688477e+00 8.562059141695499420e-03
5.200000000000000000e+02 7.964444732666015625e+01 -1.949663281440734863e+00 -4.093311727046966553e-03 8.848526954650878906e+00 2.653330326080322266e+00 2.056733332574367523e-02
5.210000000000000000e+02 7.964448547363281250e+01 -2.751561880111694336e+00 -7.397063542157411575e-03 8.785361289978027344e+00 2.633389472961425781e+00 3.426633775234222412e-02
5.220000000000000000e+02 7.964450073242187500e+01 -3.553282499313354492e+00 -3.854525042697787285e-03 8.695116043090820312e+00 2.607378482818603516e+00 4.630923271179199219e-02
5.230000000000000000e+02 7.964443969726562500e+01 -5.157003402709960938e+00 -3.495866665616631508e-03 8.431309700012207031e+00 2.528344154357910156e+00 7.217255234718322754e-02
5.240000000000000000e+02 7.964436340332031250e+01 -7.563274383544921875e+00 -7.747130934149026871e-03 7.828560829162597656e+00 2.346244096755981445e+00 1.100680679082870483e-01
5.250000000000000000e+02 7.964437866210937500e+01 -8.365015029907226562e+00 -9.789465693756937981e-04 7.577087402343750000e+00 2.272832632064819336e+00 1.189032569527626038e-01
5.260000000000000000e+02 7.964414978027343750e+01 -9.167006492614746094e+00 -6.326427217572927475e-03 7.305164337158203125e+00 2.189651250839233398e+00 1.282584816217422485e-01
5.270000000000000000e+02 7.964383697509765625e+01 -9.969309806823730469e+00 1.488697365857660770e-03 7.018058776855468750e+00 2.105864286422729492e+00 1.325670927762985229e-01
5.280000000000000000e+02 7.964373016357421875e+01 -1.077170372009277344e+01 -3.660036949440836906e-03 6.721944808959960938e+00 2.015485286712646484e+00 1.360391676425933838e-01
5.290000000000000000e+02 7.893069458007812500e+01 -9.858638763427734375e+00 -1.206247787922620773e-02 7.165600776672363281e+00 2.146061420440673828e+00 3.647218048572540283e-01
5.300000000000000000e+02 7.964414978027343750e+01 -1.237568569183349609e+01 -3.240795922465622425e-05 6.134026527404785156e+00 1.840198278427124023e+00 1.286492645740509033e-01
5.310000000000000000e+02 7.964434051513671875e+01 -1.478201675415039062e+01 1.404242869466543198e-02 5.409456253051757812e+00 1.627049565315246582e+00 8.086223155260086060e-02
5.320000000000000000e+02 7.964404296875000000e+01 -1.558438491821289062e+01 7.922787219285964966e-03 5.253920555114746094e+00 1.578553080558776855e+00 5.691330134868621826e-02
5.330000000000000000e+02 7.964353942871093750e+01 -1.638678169250488281e+01 1.740646921098232269e-02 5.157635688781738281e+00 1.552512645721435547e+00 2.690221741795539856e-02
5.340000000000000000e+02 7.964316558837890625e+01 -1.718930053710937500e+01 1.026998646557331085e-02 5.127019405364990234e+00 1.541186809539794922e+00 -3.294595284387469292e-03
5.350000000000000000e+02 7.964310455322265625e+01 -1.799143791198730469e+01 1.805312372744083405e-02 5.164875984191894531e+00 1.554878711700439453e+00 -3.621625900268554688e-02
5.360000000000000000e+02 7.892945861816406250e+01 -1.708840560913085938e+01 7.026549428701400757e-02 5.696730613708496094e+00 1.730098843574523926e+00 5.143191083334386349e-04
5.370000000000000000e+02 7.964260864257812500e+01 -1.959486389160156250e+01 1.675467751920223236e-02 5.451175212860107422e+00 1.640378952026367188e+00 -1.007662713527679443e-01
5.380000000000000000e+02 7.963945007324218750e+01 -2.200157356262207031e+01 4.801411181688308716e-03 6.335654735565185547e+00 1.902136802673339844e+00 -1.745208501815795898e-01
5.390000000000000000e+02 7.963732147216796875e+01 -2.280380249023437500e+01 8.741506375372409821e-03 6.711383342742919922e+00 2.016037464141845703e+00 -1.892162561416625977e-01
5.400000000000000000e+02 7.963432312011718750e+01 -2.360651206970214844e+01 2.574210520833730698e-04 7.105284214019775391e+00 2.131662368774414062e+00 -1.972684264183044434e-01
5.410000000000000000e+02 7.963105010986328125e+01 -2.440976524353027344e+01 2.141814911738038063e-03 7.502620697021484375e+00 2.251428842544555664e+00 -1.990835815668106079e-01
5.420000000000000000e+02 7.962570190429687500e+01 -2.601540184020996094e+01 -3.710462711751461029e-03 8.264950752258300781e+00 2.478371858596801758e+00 -1.878483295440673828e-01
5.430000000000000000e+02 7.962075805664062500e+01 -2.841886329650878906e+01 -7.623527199029922485e-03 9.215638160705566406e+00 2.762404203414916992e+00 -1.468208432197570801e-01
5.440000000000000000e+02 7.961793518066406250e+01 -2.922052955627441406e+01 -6.938586942851543427e-03 9.465430259704589844e+00 2.837547540664672852e+00 -1.307905316352844238e-01
5.450000000000000000e+02 7.961434936523437500e+01 -3.002231979370117188e+01 -7.947857491672039032e-03 9.680263519287109375e+00 2.901694774627685547e+00 -1.147565171122550964e-01
5.460000000000000000e+02 7.961005401611328125e+01 -3.082398223876953125e+01 -8.454734459519386292e-03 9.859512329101562500e+00 2.955317258834838867e+00 -9.713034331798553467e-02
5.470000000000000000e+02 7.960526275634765625e+01 -3.162534713745117188e+01 -5.106873810291290283e-03 1.000650596618652344e+01 3.000419855117797852e+00 -8.350617438554763794e-02
5.480000000000000000e+02 7.959540557861328125e+01 -3.322394180297851562e+01 -9.108674712479114532e-04 1.020966625213623047e+01 3.062626838684082031e+00 -5.482794344425201416e-02
5.490000000000000000e+02 7.959020996093750000e+01 -3.561947631835937500e+01 -7.762057706713676453e-03 1.037743663787841797e+01 3.110902547836303711e+00 -3.299064561724662781e-02
5.500000000000000000e+02 7.959046173095703125e+01 -3.642254638671875000e+01 -5.235031712800264359e-04 1.041326141357421875e+01 3.123821496963500977e+00 -2.601684257388114929e-02
5.510000000000000000e+02 7.959243011474609375e+01 -3.722318649291992188e+01 -4.687570966780185699e-03 1.044015121459960938e+01 3.130639076232910156e+00 -2.014728635549545288e-02
5.520000000000000000e+02 7.959475708007812500e+01 -3.801873397827148438e+01 -3.962053451687097549e-03 1.045461750030517578e+01 3.135196685791015625e+00 -1.175141241401433945e-02
5.530000000000000000e+02 7.958594512939453125e+01 -3.881004714965820312e+01 -1.737136021256446838e-02 1.043786811828613281e+01 3.126148939132690430e+00 1.208315789699554443e-02
5.540000000000000000e+02 7.946939086914062500e+01 -4.035498809814453125e+01 -3.401641175150871277e-02 1.039001178741455078e+01 3.106798410415649414e+00 2.257181890308856964e-02
5.550000000000000000e+02 4.722213447093963623e-01 4.199860000610351562e+01 1.597668160684406757e-03 -3.778091073036193848e-01 -1.128634363412857056e-01 1.856292947195470333e-03
5.560000000000000000e+02 5.303721427917480469e-01 4.111260986328125000e+01 -8.842734387144446373e-04 -3.748328387737274170e-01 -1.127151399850845337e-01 3.164064604789018631e-03
5.570000000000000000e+02 5.969363212585449219e+00 3.581326675415039062e+01 2.933541312813758850e-02 -1.422973126173019409e-01 -3.388857096433639526e-02 7.255094498395919800e-02
5.580000000000000000e+02 2.771968650817871094e+01 4.104920959472656250e+01 8.240657299757003784e-02 1.099675893783569336e+00 3.546247482299804688e-01 -3.969279676675796509e-02
5.590000000000000000e+02 4.787861633300781250e+01 3.849740219116210938e+01 -3.604127466678619385e-01 3.406513214111328125e+00 9.138301610946655273e-01 2.199010252952575684e-01
5.600000000000000000e+02 6.706700134277343750e+01 4.094659042358398438e+01 4.066023230552673340e-01 4.777245044708251953e+00 1.555154323577880859e+00 -6.262540072202682495e-02
5.610000000000000000e+02 7.874131011962890625e+01 3.936623382568359375e+01 1.659358292818069458e-02 7.869617938995361328e+00 2.365863561630249023e+00 -1.964935846626758575e-02
5.620000000000000000e+02 7.852268981933593750e+01 4.194509887695312500e+01 6.069420836865901947e-03 7.865781307220458984e+00 2.361555099487304688e+00 2.092705667018890381e-02
5.630000000000000000e+02 3.821554481983184814e-01 1.894442677497863770e+00 4.500981958699412644e-06 2.693964925128966570e-04 8.216924470616504550e-05 -1.411741104675456882e-04
5.640000000000000000e+02 1.149786710739135742e+00 1.881946206092834473e+00 2.353065210627391934e-04 4.503483069129288197e-04 2.056964440271258354e-04 -4.389203968457877636e-04
5.650000000000000000e+02 3.410280704498291016e+00 2.587460279464721680e+00 1.060071983374655247e-03 3.805298765655606985e-04 4.321805317886173725e-04 -1.431498327292501926e-03
5.660000000000000000e+02 4.187484741210937500e+00 2.574006080627441406e+00 1.307672937400639057e-03 1.342994073638692498e-04 4.325916816014796495e-04 -1.617220463231205940e-03
5.670000000000000000e+02 3.530283868312835693e-01 4.276969432830810547e+00 7.975963671924546361e-05 1.959645189344882965e-03 6.118214805610477924e-04 -3.398820117581635714e-04
5.680000000000000000e+02 1.052830696105957031e+00 4.988879203796386719e+00 1.479233178542926908e-04 2.422999124974012375e-03 7.712767692282795906e-04 -1.053105806931853294e-03
5.690000000000000000e+02 3.450021743774414062e-01 5.871137619018554688e+00 7.607656880281865597e-05 3.731049830093979836e-03 1.142137916758656502e-03 -4.187609010841697454e-04
5.700000000000000000e+02 3.457145988941192627e-01 8.269430160522460938e+00 -6.337767990771681070e-05 6.922675762325525284e-03 2.057789359241724014e-03 -4.773798282258212566e-04
5.710000000000000000e+02 3.475415706634521484e-01 9.071074485778808594e+00 6.891204975545406342e-05 8.058513514697551727e-03 2.438227646052837372e-03 -4.909770796075463295e-04
5.720000000000000000e+02 3.491603434085845947e-01 9.873418807983398438e+00 -8.200509182643145323e-05 9.151117876172065735e-03 2.720733871683478355e-03 -4.649376787710934877e-04
5.730000000000000000e+02 3.503335118293762207e-01 1.067638111114501953e+01 5.560311183216981590e-05 1.020071655511856079e-02 3.076895838603377342e-03 -4.435807350091636181e-04
5.740000000000000000e+02 3.510803282260894775e-01 1.147959518432617188e+01 -1.065539036062546074e-04 1.111719571053981781e-02 3.303192555904388428e-03 -3.716209321282804012e-04
5.750000000000000000e+02 1.053709149360656738e+00 1.134215354919433594e+01 -6.918321741977706552e-05 8.294519037008285522e-03 2.467600861564278603e-03 -9.818704565986990929e-04
5.760000000000000000e+02 3.519821166992187500e-01 1.308703136444091797e+01 -1.351298706140369177e-04 1.234609261155128479e-02 3.663288895040750504e-03 -1.539531804155558348e-04
5.770000000000000000e+02 3.532264530658721924e-01 1.549954128265380859e+01 -7.807610381860285997e-05 1.122941542416810989e-02 3.345401957631111145e-03 5.217749858275055885e-04
5.780000000000000000e+02 3.536625206470489502e-01 1.630383682250976562e+01 -2.049497561529278755e-04 9.605142287909984589e-03 2.820057794451713562e-03 8.497688104398548603e-04
5.790000000000000000e+02 3.540361821651458740e-01 1.710803604125976562e+01 -1.429547992302104831e-04 7.145243696868419647e-03 2.100686775520443916e-03 1.252453075721859932e-03
5.800000000000000000e+02 3.544368743896484375e-01 1.791202735900878906e+01 -2.426536957500502467e-04 3.719243919476866722e-03 1.042977091856300831e-03 1.690997276455163956e-03
5.810000000000000000e+02 3.549468517303466797e-01 1.871599006652832031e+01 -1.991949393413960934e-04 -7.904533413238823414e-04 -2.968944900203496218e-04 2.203253097832202911e-03
5.820000000000000000e+02 3.577710688114166260e-01 2.193241310119628906e+01 -2.654086565598845482e-04 -3.151974827051162720e-02 -9.535547345876693726e-03 4.587313160300254822e-03
5.830000000000000000e+02 3.589551448822021484e-01 2.273648452758789062e+01 -2.992156078107655048e-04 -4.264531284570693970e-02 -1.288335770368576050e-02 5.211120471358299255e-03
5.840000000000000000e+02 3.606654405593872070e-01 2.354097747802734375e+01 -2.885250432882457972e-04 -5.519228056073188782e-02 -1.664424128830432892e-02 5.886543542146682739e-03
5.850000000000000000e+02 3.627234399318695068e-01 2.434566497802734375e+01 -2.497428795322775841e-04 -6.904463469982147217e-02 -2.078831382095813751e-02 6.462568417191505432e-03
5.860000000000000000e+02 3.651714920997619629e-01 2.515028190612792969e+01 -3.109707031399011612e-04 -8.419228345155715942e-02 -2.535097487270832062e-02 7.113495375961065292e-03
5.870000000000000000e+02 1.089289546012878418e+00 2.421641731262207031e+01 -1.262669800780713558e-03 -6.692635267972946167e-02 -2.045670524239540100e-02 1.874690502882003784e-02
5.880000000000000000e+02 3.727008104324340820e-01 2.676059150695800781e+01 -3.070695383939892054e-04 -1.176912039518356323e-01 -3.539948165416717529e-02 8.161446079611778259e-03
5.890000000000000000e+02 3.870663344860076904e-01 2.917740631103515625e+01 1.863497163867577910e-05 -1.734868437051773071e-01 -5.204046517610549927e-02 9.221340529620647430e-03
5.900000000000000000e+02 3.924048840999603271e-01 2.998473930358886719e+01 -2.660719910636544228e-04 -1.929347813129425049e-01 -5.796025693416595459e-02 9.534033015370368958e-03
5.910000000000000000e+02 3.955988585948944092e-01 3.079360961914062500e+01 3.018375136889517307e-04 -2.122552543878555298e-01 -6.358602643013000488e-02 9.413955733180046082e-03
5.920000000000000000e+02 3.944417834281921387e-01 3.160206031799316406e+01 -5.887968582101166248e-04 -2.318912893533706665e-01 -6.974402815103530884e-02 9.823689237236976624e-03
5.930000000000000000e+02 1.181124329566955566e+00 3.152737998962402344e+01 3.472859098110347986e-04 -2.103959172964096069e-01 -6.301458925008773804e-02 2.679125219583511353e-02
5.940000000000000000e+02 3.819770514965057373e-01 3.320923995971679688e+01 -1.158243394456803799e-03 -2.701963484287261963e-01 -8.140637725591659546e-02 9.188639931380748749e-03
5.950000000000000000e+02 4.183692336082458496e-01 3.561592102050781250e+01 1.209644018672406673e-03 -3.212850689888000488e-01 -9.602262824773788452e-02 8.298018947243690491e-03
5.960000000000000000e+02 4.466741681098937988e-01 3.643032836914062500e+01 8.515301742590963840e-04 -3.348025381565093994e-01 -1.001853048801422119e-01 6.408209912478923798e-03
5.970000000000000000e+02 4.575394093990325928e-01 3.723830413818359375e+01 -4.538869543466717005e-04 -3.457983732223510742e-01 -1.038756817579269409e-01 6.175003480166196823e-03
5.980000000000000000e+02 4.271115660667419434e-01 3.804034042358398438e+01 4.195482761133462191e-04 -3.567204773426055908e-01 -1.068902760744094849e-01 6.117959506809711456e-03
5.990000000000000000e+02 3.753533661365509033e-01 3.882901382446289062e+01 2.788761397823691368e-03 -3.652773499488830566e-01 -1.087465807795524597e-01 2.673529554158449173e-03
6.000000000000000000e+02 4.264113008975982666e-01 4.035205459594726562e+01 -1.038224785588681698e-03 -3.702069520950317383e-01 -1.113735511898994446e-01 1.569545129314064980e-03
6.010000000000000000e+02 9.742260932922363281e+00 1.808054804801940918e+00 3.246848238632082939e-03 -1.834514696383848786e-04 9.190190467052161694e-04 -2.242000628029927611e-04
6.020000000000000000e+02 8.952411651611328125e+00 1.826452970504760742e+00 3.324614604935050011e-03 -1.974609040189534426e-04 9.381461422890424728e-04 -4.095708136446774006e-04
6.030000000000000000e+02 8.166503906250000000e+00 1.836507916450500488e+00 3.158950712531805038e-03 -2.321449574083089828e-04 8.780417265370488167e-04 -8.241269388236105442e-04
6.040000000000000000e+02 7.382311820983886719e+00 1.842716336250305176e+00 3.018648130819201469e-03 -2.305536909261718392e-04 8.364283130504190922e-04 -8.640548912808299065e-04
6.050000000000000000e+02 5.816306591033935547e+00 1.851150274276733398e+00 2.362272469326853752e-03 -9.829666669247671962e-05 6.791927153244614601e-04 -1.163093373179435730e-03
6.060000000000000000e+02 5.034613132476806641e+00 1.854643225669860840e+00 1.904021133668720722e-03 -3.448875213507562876e-05 5.608596839010715485e-04 -1.304946606978774071e-03
6.070000000000000000e+02 4.254095554351806641e+00 1.858184337615966797e+00 1.581066055223345757e-03 1.048882913892157376e-04 5.057863309048116207e-04 -1.214643707498908043e-03
6.080000000000000000e+02 3.475018739700317383e+00 1.862183213233947754e+00 1.126702642068266869e-03 1.855501759564504027e-04 3.936758439522236586e-04 -1.170882955193519592e-03
6.090000000000000000e+02 2.697819232940673828e+00 1.867173075675964355e+00 8.263527997769415379e-04 3.376095555722713470e-04 3.491887182462960482e-04 -9.559900499880313873e-04
6.100000000000000000e+02 1.922490954399108887e+00 1.873485207557678223e+00 4.387573280837386847e-04 4.009918484371155500e-04 2.519247645977884531e-04 -7.343809702433645725e-04
6.110000000000000000e+02 1.285254573822021484e+01 1.343482613563537598e+00 2.563964109867811203e-03 -3.142189525533467531e-04 6.749235908500850201e-04 6.437737029045820236e-04
6.120000000000000000e+02 1.360558414459228516e+01 1.211015582084655762e+00 2.453241730108857155e-03 -3.627017722465097904e-04 6.271619931794703007e-04 8.232771651819348335e-04
6.130000000000000000e+02 1.507409954071044922e+01 9.500932097434997559e-01 1.731295720674097538e-03 -2.097696415148675442e-04 4.564578412100672722e-04 8.003940456546843052e-04
6.140000000000000000e+02 1.580291748046875000e+01 8.216913938522338867e-01 1.147784409113228321e-03 -8.060000982368364930e-05 3.201552899554371834e-04 7.356407586485147476e-04
6.150000000000000000e+02 1.652363014221191406e+01 7.035403251647949219e-01 1.071902806870639324e-03 -1.673970473348163068e-05 3.165489179082214832e-04 6.212980952113866806e-04
6.160000000000000000e+02 1.866380882263183594e+01 3.798775076866149902e-01 1.972988393390551209e-04 -6.149223736429121345e-06 5.734488149755634367e-05 3.449777723290026188e-04
6.170000000000000000e+02 1.943758010864257812e+01 9.426742792129516602e-01 5.273204806144349277e-05 7.206226291600614786e-05 3.743829438462853432e-05 2.872140903491526842e-04
6.180000000000000000e+02 1.794924163818359375e+01 4.875185787677764893e-01 5.642080795951187611e-04 1.668581098783761263e-04 2.193198597524315119e-04 3.716773062478750944e-04
6.190000000000000000e+02 2.270646476745605469e+01 1.814856290817260742e+00 -1.939945213962346315e-04 -3.167169052176177502e-04 -1.532134192530065775e-04 -1.496417535236105323e-04
6.200000000000000000e+02 2.269751167297363281e+01 4.055255055427551270e-01 1.772100076777860522e-04 9.891947411233559251e-05 8.283884380944073200e-05 4.901959619019180536e-05
6.210000000000000000e+02 2.407771873474121094e+01 6.416015028953552246e-01 1.591545151313766837e-04 9.531130672257859260e-06 5.060569310444407165e-05 6.389343616319820285e-05
6.220000000000000000e+02 2.339565277099609375e+01 5.184708833694458008e-01 -1.758909929776564240e-04 -1.056007167790085077e-04 -8.444751438219100237e-05 -9.536170546198263764e-05
6.230000000000000000e+02 2.240014266967773438e+01 1.050936460494995117e+00 -1.309451909037306905e-04 -1.988709846045821905e-04 -9.894485265249386430e-05 -9.777570085134357214e-05
6.240000000000000000e+02 2.198886489868164062e+01 3.029922246932983398e-01 -1.050900755217298865e-04 -1.180029721581377089e-04 -6.692791794193908572e-05 -6.684366962872445583e-05
6.250000000000000000e+02 2.120322418212890625e+01 2.530716061592102051e-01 1.592403859831392765e-04 1.615663786651566625e-04 9.624203084968030453e-05 1.396334391756681725e-05
6.260000000000000000e+02 2.032916831970214844e+01 4.649695396423339844e+00 1.316862617386505008e-04 1.280453056097030640e-03 4.236417880747467279e-04 4.998960648663341999e-04
6.270000000000000000e+02 1.799030685424804688e+01 1.160963416099548340e+00 3.187326947227120399e-04 8.689516107551753521e-05 1.216883538290858269e-04 6.717010983265936375e-04
6.280000000000000000e+02 1.972616577148437500e+01 7.361233234405517578e+00 1.070473343133926392e-03 4.047620110213756561e-03 1.535427989438176155e-03 -3.625369572546333075e-04
6.290000000000000000e+02 1.907410049438476562e+01 9.739082336425781250e+00 -1.448574243113398552e-03 1.087889540940523148e-02 2.829096512869000435e-03 -1.444668276235461235e-03
6.300000000000000000e+02 1.892563247680664062e+01 1.054263019561767578e+01 2.295768586918711662e-03 1.375065091997385025e-02 4.813925828784704208e-03 -7.866659434512257576e-04
6.310000000000000000e+02 1.866208267211914062e+01 1.297296905517578125e+01 -2.041799249127507210e-03 2.194559201598167419e-02 5.971137899905443192e-03 -1.962295500561594963e-04
6.320000000000000000e+02 1.863675308227539062e+01 1.460513591766357422e+01 -3.199880011379718781e-03 2.320379018783569336e-02 6.001173052936792374e-03 1.299743016716092825e-04
6.330000000000000000e+02 1.864527511596679688e+01 1.541802692413330078e+01 2.871055854484438896e-03 2.234339900314807892e-02 7.564336527138948441e-03 -1.062019262462854385e-03
6.340000000000000000e+02 1.910035324096679688e+01 1.864483261108398438e+01 -4.467701166868209839e-02 -7.782936841249465942e-02 -3.675191476941108704e-02 -5.978983640670776367e-02
6.350000000000000000e+02 2.046894645690917969e+01 2.074963951110839844e+01 -5.080648660659790039e-01 -1.706024557352066040e-01 -2.036001980304718018e-01 -2.329548150300979614e-01
6.360000000000000000e+02 2.238404083251953125e+01 2.227944564819335938e+01 -7.766271829605102539e-01 -1.381279677152633667e-01 -2.744265496730804443e-01 -1.870683627203106880e-03
6.370000000000000000e+02 2.431866645812988281e+01 2.257547378540039062e+01 -6.420985460281372070e-01 -1.830840855836868286e-02 -1.981220990419387817e-01 -3.378149121999740601e-02
6.380000000000000000e+02 2.635330009460449219e+01 2.105088996887207031e+01 -8.195517063140869141e-01 -4.587334021925926208e-02 -2.596275210380554199e-01 1.234201267361640930e-01
6.390000000000000000e+02 2.714315795898437500e+01 2.085702514648437500e+01 -6.792669296264648438e-01 -1.698022522032260895e-02 -2.088741511106491089e-01 1.282585561275482178e-01
6.400000000000000000e+02 2.793917083740234375e+01 2.065892601013183594e+01 -5.531429648399353027e-01 1.973050413653254509e-03 -1.653509736061096191e-01 8.968593180179595947e-02
6.410000000000000000e+02 2.875074386596679688e+01 2.047947120666503906e+01 -4.618768990039825439e-01 2.203089743852615356e-02 -1.319538056850433350e-01 4.785668849945068359e-02
6.420000000000000000e+02 3.106780433654785156e+01 1.958708381652832031e+01 1.027063652873039246e-02 1.458545476198196411e-01 4.683755710721015930e-02 -1.433909088373184204e-01
6.430000000000000000e+02 3.177816963195800781e+01 1.916868782043457031e+01 2.117480486631393433e-01 2.239933013916015625e-01 1.307224035263061523e-01 -2.469884157180786133e-01
6.440000000000000000e+02 3.445154571533203125e+01 1.730912971496582031e+01 8.512256741523742676e-01 7.243137359619140625e-01 4.726618230342864990e-01 -7.725954651832580566e-01
6.450000000000000000e+02 3.692736434936523438e+01 1.523458957672119141e+01 1.472806453704833984e+00 1.557725191116333008e+00 9.091594815254211426e-01 -1.492264389991760254e+00
6.460000000000000000e+02 3.810467147827148438e+01 1.413758277893066406e+01 1.899815678596496582e+00 2.526422023773193359e+00 1.327871322631835938e+00 -2.108817815780639648e+00
6.470000000000000000e+02 3.865768051147460938e+01 1.355359268188476562e+01 1.999711871147155762e+00 3.056698083877563477e+00 1.516922950744628906e+00 -2.413479566574096680e+00
6.480000000000000000e+02 3.971663665771484375e+01 1.234135055541992188e+01 2.471938371658325195e+00 4.832193374633789062e+00 2.191239356994628906e+00 -3.294032812118530273e+00
6.490000000000000000e+02 4.021203231811523438e+01 1.169742774963378906e+01 2.538618564605712891e+00 6.223040103912353516e+00 2.628497600555419922e+00 -3.736950874328613281e+00
6.500000000000000000e+02 4.111534118652343750e+01 1.032527065277099609e+01 2.543039321899414062e+00 9.617936134338378906e+00 3.648292779922485352e+00 -4.632481575012207031e+00
6.510000000000000000e+02 4.787327575683593750e+01 1.174643230438232422e+01 9.093663096427917480e-01 1.087688446044921875e+01 3.535875320434570312e+00 2.294687032699584961e+00
6.520000000000000000e+02 4.207440567016601562e+01 8.033654212951660156e+00 1.360231280326843262e+00 1.867251968383789062e+01 6.009825229644775391e+00 -3.481209278106689453e+00
6.530000000000000000e+02 4.184964370727539062e+01 8.836508750915527344e+00 2.192952394485473633e+00 1.636180686950683594e+01 5.566427707672119141e+00 -4.685207843780517578e+00
6.540000000000000000e+02 4.227525711059570312e+01 6.393761634826660156e+00 4.441284239292144775e-01 1.945318984985351562e+01 5.969195365905761719e+00 -9.073953628540039062e-01
6.550000000000000000e+02 4.226883316040039062e+01 3.949853181838989258e+00 2.417705953121185303e-01 1.909911918640136719e+01 5.802267074584960938e+00 4.224282205104827881e-01
6.560000000000000000e+02 4.768566513061523438e+01 5.935027599334716797e+00 4.045024216175079346e-01 1.260380840301513672e+01 3.902493476867675781e+00 4.042964577674865723e-01
6.570000000000000000e+02 4.551955795288085938e+01 4.208002090454101562e+00 1.843282580375671387e+00 1.366232872009277344e+01 4.651683330535888672e+00 8.068608492612838745e-02
6.580000000000000000e+02 4.216177749633789062e+01 2.331119775772094727e+00 9.051280021667480469e-01 2.036526679992675781e+01 6.381118297576904297e+00 2.693178653717041016e+00
6.590000000000000000e+02 4.201643753051757812e+01 1.527687191963195801e+00 1.371322989463806152e+00 1.965572547912597656e+01 6.308115005493164062e+00 3.996268033981323242e+00
6.600000000000000000e+02 4.124077606201171875e+01 -8.011118173599243164e-01 3.428164958953857422e+00 1.574053859710693359e+01 5.750611305236816406e+00 6.433396816253662109e+00
6.610000000000000000e+02 4.275721740722656250e+01 -4.977255165576934814e-01 2.334328651428222656e+00 1.391119575500488281e+01 4.873657226562500000e+00 2.985904932022094727e+00
6.620000000000000000e+02 3.758944320678710938e+01 -4.407573699951171875e+00 -5.882053971290588379e-01 1.126473903656005859e+00 1.614805459976196289e-01 1.005506277084350586e+00
6.630000000000000000e+02 3.523984527587890625e+01 -5.141409873962402344e+00 -1.774040699005126953e+00 1.816869825124740601e-01 -4.777061045169830322e-01 -1.760546714067459106e-01
6.640000000000000000e+02 3.428594207763671875e+01 -4.677511215209960938e+00 -2.673882246017456055e+00 -2.140627652406692505e-01 -8.663835525512695312e-01 -7.340891361236572266e-01
6.650000000000000000e+02 3.350719833374023438e+01 -4.897640228271484375e+00 -3.081273794174194336e+00 -2.571790218353271484e-01 -1.001535892486572266e+00 -6.968989968299865723e-01
6.660000000000000000e+02 3.105551719665527344e+01 -5.214960098266601562e+00 -3.082350730895996094e+00 -1.449285596609115601e-01 -9.681837558746337891e-01 -8.168765157461166382e-02
6.670000000000000000e+02 2.676833724975585938e+01 -2.674516201019287109e+00 -3.996723890304565430e-01 -1.551616489887237549e-01 -1.664502173662185669e-01 2.446165829896926880e-01
6.680000000000000000e+02 2.587019157409667969e+01 -3.842706918716430664e+00 -6.867845058441162109e-01 5.888290703296661377e-02 -1.883704811334609985e-01 2.329469174146652222e-01
6.690000000000000000e+02 2.323127365112304688e+01 -3.264551877975463867e+00 -6.322745084762573242e-01 6.629591435194015503e-02 -1.697935760021209717e-01 1.307905912399291992e-01
6.700000000000000000e+02 2.238101577758789062e+01 -3.373117446899414062e+00 -6.398240327835083008e-01 3.405033051967620850e-02 -1.817321181297302246e-01 9.628554433584213257e-02
6.710000000000000000e+02 1.911100769042968750e+01 -3.332791805267333984e+00 -6.413942575454711914e-01 -7.000823039561510086e-03 -1.945185214281082153e-01 6.824994925409555435e-03
6.720000000000000000e+02 1.991851043701171875e+01 -3.366311311721801758e+00 -6.553471088409423828e-01 -6.901632528752088547e-03 -1.986746191978454590e-01 1.938766613602638245e-02
6.730000000000000000e+02 2.072844886779785156e+01 -3.396319150924682617e+00 -6.530013680458068848e-01 -2.699910895898938179e-03 -1.967103928327560425e-01 4.008311778306961060e-02
6.740000000000000000e+02 1.675802421569824219e+01 -3.057501316070556641e+00 -5.845385193824768066e-01 9.120071306824684143e-03 -1.726255416870117188e-01 -2.392189577221870422e-02
6.750000000000000000e+02 1.598448657989501953e+01 -2.942137241363525391e+00 -5.492091774940490723e-01 1.490206271409988403e-02 -1.602921336889266968e-01 -2.746150270104408264e-02
6.760000000000000000e+02 1.226218128204345703e+01 -2.284305095672607422e+00 -3.682780563831329346e-01 2.630852349102497101e-02 -1.025908589363098145e-01 -5.053693428635597229e-02
6.770000000000000000e+02 1.298675918579101562e+01 -2.413133144378662109e+00 -4.046706557273864746e-01 2.567530982196331024e-02 -1.136986017227172852e-01 -4.614619910717010498e-02
6.780000000000000000e+02 1.372816944122314453e+01 -2.546733617782592773e+00 -4.438048005104064941e-01 2.386108227074146271e-02 -1.259831190109252930e-01 -4.303272441029548645e-02
6.790000000000000000e+02 1.000359344482421875e+01 -2.638664484024047852e+00 -2.540580630302429199e-01 2.959548681974411011e-02 -6.733877211809158325e-02 -8.861093968152999878e-02
6.800000000000000000e+02 1.013937187194824219e+01 -1.928849101066589355e+00 -2.677978277206420898e-01 2.588281780481338501e-02 -7.257450371980667114e-02 -5.561023950576782227e-02
6.810000000000000000e+02 5.446396636962890625e+01 -8.363297462463378906e+00 -3.459651231765747070e+00 -3.607831597328186035e-01 -1.146130323410034180e+00 4.653896391391754150e-01
6.820000000000000000e+02 5.510385131835937500e+01 -8.737671852111816406e+00 -2.124438524246215820e+00 -2.865691781044006348e-01 -7.233023047447204590e-01 7.215571403503417969e-01
6.830000000000000000e+02 5.776852798461914062e+01 -1.035425949096679688e+01 -6.447848081588745117e-01 -9.851150959730148315e-02 -2.229888886213302612e-01 3.013234734535217285e-01
6.840000000000000000e+02 5.922230911254882812e+01 -1.090725517272949219e+01 -6.753662824630737305e-01 -5.586224049329757690e-02 -2.193685621023178101e-01 2.058451771736145020e-01
6.850000000000000000e+02 5.751604843139648438e+01 -9.394596099853515625e+00 -7.707417011260986328e-01 1.577271334826946259e-02 -2.264906913042068481e-01 2.184425592422485352e-01
6.860000000000000000e+02 5.997305679321289062e+01 -1.114234638214111328e+01 -6.468064785003662109e-01 -1.465168595314025879e-02 -1.984374523162841797e-01 1.723102927207946777e-01
6.870000000000000000e+02 6.252465438842773438e+01 -1.103924655914306641e+01 1.583691239356994629e-01 3.305880427360534668e-01 1.466871500015258789e-01 -4.234190881252288818e-01
6.880000000000000000e+02 6.381451797485351562e+01 -1.196555519104003906e+01 6.538113951683044434e-01 2.547875642776489258e-01 2.725796699523925781e-01 -5.234207510948181152e-01
6.890000000000000000e+02 6.428440093994140625e+01 -1.087494564056396484e+01 8.534585833549499512e-01 1.873764753341674805e+00 8.181669712066650391e-01 -1.655786514282226562e+00
6.900000000000000000e+02 6.458626556396484375e+01 -1.220100307464599609e+01 1.958884835243225098e+00 1.061581015586853027e+00 9.061397314071655273e-01 -1.343662142753601074e+00
6.910000000000000000e+02 6.749791717529296875e+01 -1.502460098266601562e+01 2.816220998764038086e+00 1.378135871887207031e+01 4.979273796081542969e+00 -5.376379013061523438e+00
6.920000000000000000e+02 6.795895385742187500e+01 -1.661073493957519531e+01 1.148892045021057129e+00 1.866585922241210938e+01 5.944425582885742188e+00 -2.632493019104003906e+00
6.930000000000000000e+02 6.806703186035156250e+01 -1.822180175781250000e+01 6.978353857994079590e-02 1.636919975280761719e+01 4.931694984436035156e+00 -3.034610450267791748e-01
6.940000000000000000e+02 6.486580657958984375e+01 -2.461865806579589844e+01 4.592882990837097168e-01 1.342416405677795410e+00 5.405114293098449707e-01 8.858641386032104492e-01
6.950000000000000000e+02 6.429952239990234375e+01 -2.518669128417968750e+01 8.954367786645889282e-02 8.397860527038574219e-01 2.787989079952239990e-01 4.106693565845489502e-01
6.960000000000000000e+02 6.371114349365234375e+01 -2.573450088500976562e+01 -3.442178666591644287e-01 3.198353350162506104e-01 -7.314759772270917892e-03 4.401331394910812378e-02
6.970000000000000000e+02 6.188092803955078125e+01 -2.731001853942871094e+01 -1.298472046852111816e+00 -4.553176462650299072e-01 -5.261369347572326660e-01 -8.276011943817138672e-01
6.980000000000000000e+02 6.126996612548828125e+01 -2.784295272827148438e+01 -1.843763589859008789e+00 -7.077242136001586914e-01 -7.654463648796081543e-01 -1.073571801185607910e+00
6.990000000000000000e+02 6.061514282226562500e+01 -2.833760070800781250e+01 -2.504987001419067383e+00 -7.686139941215515137e-01 -9.820802807807922363e-01 -1.249458551406860352e+00
7.000000000000000000e+02 5.833492279052734375e+01 -2.938789939880371094e+01 -4.068759441375732422e+00 -4.646071493625640869e-01 -1.360009908676147461e+00 -8.587651848793029785e-01
7.010000000000000000e+02 5.414907455444335938e+01 -2.932084083557128906e+01 -2.245652675628662109e+00 4.160959739238023758e-03 -6.724475026130676270e-01 1.108711734414100647e-01
7.020000000000000000e+02 5.252736282348632812e+01 -2.886133575439453125e+01 -9.267049431800842285e-01 2.391780912876129150e-01 -2.062580585479736328e-01 -1.924840807914733887e-01
7.030000000000000000e+02 5.176903533935546875e+01 -2.851602935791015625e+01 -8.218005299568176270e-02 6.938242912292480469e-01 1.834932714700698853e-01 -5.499288439750671387e-01
7.040000000000000000e+02 4.990281295776367188e+01 -2.689551925659179688e+01 1.313439130783081055e+00 2.094886064529418945e+00 1.022497534751892090e+00 -1.654866814613342285e+00
7.050000000000000000e+02 4.933584976196289062e+01 -2.631361770629882812e+01 1.624121785163879395e+00 2.648694276809692383e+00 1.281844854354858398e+00 -2.055011987686157227e+00
7.060000000000000000e+02 4.772529983520507812e+01 -2.446532440185546875e+01 2.735325098037719727e+00 6.844404220581054688e+00 2.873918771743774414e+00 -3.921819210052490234e+00
7.070000000000000000e+02 4.659864807128906250e+01 -2.137537193298339844e+01 7.203540205955505371e-01 1.422457313537597656e+01 4.483478069305419922e+00 -1.760136008262634277e+00
7.080000000000000000e+02 4.675326919555664062e+01 -2.218628120422363281e+01 8.218314051628112793e-01 1.287211132049560547e+01 4.108182907104492188e+00 -2.592089414596557617e+00
7.090000000000000000e+02 4.650342941284179688e+01 -1.974271965026855469e+01 1.098488047719001770e-01 1.410486602783203125e+01 4.264414310455322266e+00 2.341957390308380127e-02
7.100000000000000000e+02 4.651989364624023438e+01 -2.055887603759765625e+01 4.443024098873138428e-01 1.461379432678222656e+01 4.517428874969482422e+00 -6.555706858634948730e-01
7.110000000000000000e+02 4.651245880126953125e+01 -1.892987632751464844e+01 2.651830613613128662e-01 1.425710868835449219e+01 4.356687545776367188e+00 4.686033427715301514e-01
7.120000000000000000e+02 4.667018508911132812e+01 -1.651012611389160156e+01 4.557067155838012695e-01 1.502434730529785156e+01 4.644016265869140625e+00 1.545838594436645508e+00
7.130000000000000000e+02 4.692924499511718750e+01 -1.490552997589111328e+01 8.165748715400695801e-01 1.422242641448974609e+01 4.511700630187988281e+00 2.902700901031494141e+00
7.140000000000000000e+02 4.711740112304687500e+01 -1.411128425598144531e+01 1.102598428726196289e+00 1.347819900512695312e+01 4.374239444732666016e+00 3.319856643676757812e+00
7.150000000000000000e+02 4.901498031616210938e+01 -1.044454002380371094e+01 2.891181707382202148e-01 3.292218208312988281e+00 1.074400901794433594e+00 1.490281462669372559e+00
7.160000000000000000e+02 5.094943237304687500e+01 -8.908701896667480469e+00 -3.574807643890380859e+00 -7.949212789535522461e-01 -1.310918688774108887e+00 -1.759741067886352539e+00
7.170000000000000000e+02 5.241678237915039062e+01 -8.221690177917480469e+00 -6.714281082153320312e+00 -6.680309772491455078e-01 -2.214693546295166016e+00 -1.203580737113952637e+00
7.180000000000000000e+02 2.044704055786132812e+01 -1.396352481842041016e+01 5.258096456527709961e-01 6.445101648569107056e-02 1.770782023668289185e-01 -2.017469853162765503e-01
7.190000000000000000e+02 2.118182563781738281e+01 -1.420168113708496094e+01 5.450885891914367676e-01 3.126687556505203247e-02 1.729066371917724609e-01 -1.771574467420578003e-01
7.200000000000000000e+02 2.193664360046386719e+01 -1.437839126586914062e+01 5.942518115043640137e-01 1.040029432624578476e-02 1.813956350088119507e-01 -1.421894431114196777e-01
7.210000000000000000e+02 2.295308113098144531e+01 -1.374155235290527344e+01 6.316182017326354980e-01 6.057430058717727661e-03 1.913026869297027588e-01 -1.887431591749191284e-01
7.220000000000000000e+02 2.372010421752929688e+01 -1.383319091796875000e+01 6.909337639808654785e-01 1.242704782634973526e-02 2.110082358121871948e-01 -1.816310286521911621e-01
7.230000000000000000e+02 2.586628532409667969e+01 -1.481066036224365234e+01 1.004942655563354492e+00 7.112877443432807922e-03 3.036166727542877197e-01 -1.286681443452835083e-01
7.240000000000000000e+02 2.665658569335937500e+01 -1.489170265197753906e+01 1.050730228424072266e+00 5.685192067176103592e-03 3.169246315956115723e-01 -1.159310117363929749e-01
7.250000000000000000e+02 2.744963073730468750e+01 -1.496230888366699219e+01 1.105663895606994629e+00 8.270856924355030060e-03 3.341804444789886475e-01 -1.103356555104255676e-01
7.260000000000000000e+02 2.904086303710937500e+01 -1.513035297393798828e+01 1.074532151222229004e+00 1.239804737269878387e-02 3.260790407657623291e-01 -1.117539107799530029e-01
7.270000000000000000e+02 2.920540809631347656e+01 -1.439241695404052734e+01 9.359981417655944824e-01 -1.690162718296051025e-02 2.757289707660675049e-01 -4.607760533690452576e-02
7.280000000000000000e+02 3.063331222534179688e+01 -1.536851882934570312e+01 8.399992585182189941e-01 -1.210616063326597214e-02 2.483679354190826416e-01 -5.754256248474121094e-02
7.290000000000000000e+02 3.142881393432617188e+01 -1.547959327697753906e+01 7.691910862922668457e-01 7.172422017902135849e-03 2.329090684652328491e-01 -3.626075387001037598e-02
7.300000000000000000e+02 3.222491455078125000e+01 -1.562796592712402344e+01 6.790105700492858887e-01 4.608082398772239685e-02 2.175274044275283813e-01 -7.197213917970657349e-02
7.310000000000000000e+02 3.540544128417968750e+01 -1.821832275390625000e+01 5.513936281204223633e-01 3.209620475769042969e+00 1.128304243087768555e+00 -9.503338932991027832e-01
7.320000000000000000e+02 3.579271697998046875e+01 -1.985008049011230469e+01 1.116948276758193970e-01 4.955261707305908203e+00 1.520087003707885742e+00 -5.400646105408668518e-02
7.330000000000000000e+02 3.580807113647460938e+01 -2.150567436218261719e+01 5.283017456531524658e-02 5.516168594360351562e+00 1.670699715614318848e+00 2.691195607185363770e-01
7.340000000000000000e+02 3.579230117797851562e+01 -2.232415008544921875e+01 8.490420877933502197e-02 6.274638175964355469e+00 1.907862663269042969e+00 4.219089746475219727e-01
7.350000000000000000e+02 3.576032638549804688e+01 -2.314185142517089844e+01 2.926629781723022461e-01 7.623635292053222656e+00 2.374889373779296875e+00 8.370742797851562500e-01
7.360000000000000000e+02 3.513332366943359375e+01 -2.553004837036132812e+01 1.688606262207031250e+00 7.306066989898681641e+00 2.698401927947998047e+00 3.221552848815917969e+00
7.370000000000000000e+02 3.252717590332031250e+01 -2.871080207824707031e+01 2.274699211120605469e+00 2.125137329101562500e+00 1.319950938224792480e+00 2.031816244125366211e+00
7.380000000000000000e+02 3.111258506774902344e+01 -2.956284141540527344e+01 1.367433905601501465e+00 8.243542313575744629e-01 6.575364470481872559e-01 1.020422101020812988e+00
7.390000000000000000e+02 2.953211975097656250e+01 -3.010681152343750000e+01 3.823741972446441650e-01 2.315407842397689819e-01 1.841744929552078247e-01 3.760697841644287109e-01
7.400000000000000000e+02 2.870620155334472656e+01 -3.025410079956054688e+01 1.007932610809803009e-02 1.100395396351814270e-01 3.603566065430641174e-02 2.092506140470504761e-01
7.410000000000000000e+02 2.536739921569824219e+01 -3.038901519775390625e+01 -5.160591006278991699e-01 6.524851545691490173e-03 -1.528602689504623413e-01 2.217885293066501617e-02
7.420000000000000000e+02 2.454262924194335938e+01 -3.032449722290039062e+01 -4.923973083496093750e-01 -1.303184591233730316e-02 -1.516287475824356079e-01 2.407920919358730316e-02
7.430000000000000000e+02 2.372733497619628906e+01 -3.019348907470703125e+01 -4.119047224521636963e-01 2.118766075000166893e-03 -1.229357868432998657e-01 2.692767977714538574e-02
7.440000000000000000e+02 2.131714820861816406e+01 -2.957892799377441406e+01 -1.072705760598182678e-01 3.749281913042068481e-02 -2.093332633376121521e-02 -4.620531946420669556e-02
7.450000000000000000e+02 1.905297279357910156e+01 -2.856887435913085938e+01 2.283164262771606445e-01 1.616745740175247192e-01 1.169973015785217285e-01 -1.933174431324005127e-01
7.460000000000000000e+02 1.771481704711914062e+01 -2.761182785034179688e+01 3.335023224353790283e-01 3.112115859985351562e-01 1.934141665697097778e-01 -3.069734871387481689e-01
7.470000000000000000e+02 1.711520957946777344e+01 -2.705944633483886719e+01 3.324404656887054443e-01 3.435111641883850098e-01 2.027854919433593750e-01 -3.338083624839782715e-01
7.480000000000000000e+02 1.596567630767822266e+01 -2.591836547851562500e+01 3.568145334720611572e-01 3.901381790637969971e-01 2.240858078002929688e-01 -3.740692138671875000e-01
7.490000000000000000e+02 1.425200271606445312e+01 -2.419601821899414062e+01 4.363724887371063232e-01 5.265415310859680176e-01 2.888742089271545410e-01 -4.688713252544403076e-01
7.500000000000000000e+02 1.368028163909912109e+01 -2.360870170593261719e+01 4.605017602443695068e-01 6.433411836624145508e-01 3.311528861522674561e-01 -5.194972753524780273e-01
7.510000000000000000e+02 1.313296890258789062e+01 -2.298762130737304688e+01 4.554646015167236328e-01 8.354119658470153809e-01 3.872629702091217041e-01 -5.616509318351745605e-01
7.520000000000000000e+02 1.267064571380615234e+01 -2.229139328002929688e+01 3.843418061733245850e-01 1.060786962509155273e+00 4.335386157035827637e-01 -5.485315918922424316e-01
7.530000000000000000e+02 1.197126007080078125e+01 -1.991311645507812500e+01 6.487190723419189453e-02 1.056940913200378418e+00 3.365438282489776611e-01 -2.017653733491897583e-01
7.540000000000000000e+02 1.189231777191162109e+01 -1.662109375000000000e+01 5.438327416777610779e-02 7.358898520469665527e-01 2.370819449424743652e-01 8.338835835456848145e-02
7.550000000000000000e+02 1.438501834869384766e+01 -1.309021663665771484e+01 2.373835444450378418e-01 8.086922019720077515e-02 9.547583013772964478e-02 1.219083964824676514e-01
7.560000000000000000e+02 1.581537151336669922e+01 -1.240672111511230469e+01 6.337784528732299805e-01 6.314832717180252075e-02 2.090780436992645264e-01 9.928826242685317993e-02
7.570000000000000000e+02 6.070805740356445312e+01 2.237644767761230469e+01 -4.197349548339843750e+00 -1.984433382749557495e-01 -1.318737864494323730e+00 8.223207294940948486e-02
7.580000000000000000e+02 6.163345336914062500e+01 2.313418197631835938e+01 -2.425812244415283203e+00 -9.746746718883514404e-02 -7.569838762283325195e-01 -6.015937775373458862e-02
7.590000000000000000e+02 6.389012908935546875e+01 2.186682319641113281e+01 -2.639719247817993164e+00 4.692107439041137695e-02 -7.778394222259521484e-01 2.743804454803466797e-01
7.600000000000000000e+02 6.466904449462890625e+01 2.166796302795410156e+01 -1.831180095672607422e+00 1.485194563865661621e-01 -5.047981739044189453e-01 2.009298279881477356e-02
7.610000000000000000e+02 6.621794891357421875e+01 2.115462875366210938e+01 8.640928864479064941e-01 2.639361381530761719e+00 1.051036238670349121e+00 -1.805194973945617676e+00
7.620000000000000000e+02 6.953701782226562500e+01 1.831017112731933594e+01 1.758404254913330078e+00 1.129660606384277344e+01 3.916502952575683594e+00 -7.261223196983337402e-01
7.630000000000000000e+02 6.866139984130859375e+01 1.880171775817871094e+01 2.426660060882568359e+00 1.425158023834228516e+01 5.003471851348876953e+00 -1.787862896919250488e+00
7.640000000000000000e+02 6.805633544921875000e+01 1.588653850555419922e+01 2.026707492768764496e-02 1.463577556610107422e+01 4.396812915802001953e+00 2.418016493320465088e-01
7.650000000000000000e+02 6.775749969482421875e+01 1.355582523345947266e+01 9.108565449714660645e-01 1.311914348602294922e+01 4.209000110626220703e+00 2.956455707550048828e+00
7.660000000000000000e+02 6.756097412109375000e+01 1.278184127807617188e+01 9.702207446098327637e-01 1.169904422760009766e+01 3.800779342651367188e+00 3.111630916595458984e+00
7.670000000000000000e+02 6.764333343505859375e+01 1.096567058563232422e+01 1.122599601745605469e+00 8.746565818786621094e+00 2.960749387741088867e+00 1.971161484718322754e+00
7.680000000000000000e+02 6.698023223876953125e+01 1.125795173645019531e+01 2.175873756408691406e+00 8.672778129577636719e+00 3.254595756530761719e+00 3.727926015853881836e+00
7.690000000000000000e+02 6.551628875732421875e+01 9.304450035095214844e+00 1.491277933120727539e+00 3.228709459304809570e+00 1.415996193885803223e+00 2.097664117813110352e+00
7.700000000000000000e+02 6.439501190185546875e+01 8.169413566589355469e+00 7.252368330955505371e-01 1.316071629524230957e+00 6.123925447463989258e-01 9.962968230247497559e-01
7.710000000000000000e+02 6.323384857177734375e+01 7.096154212951660156e+00 1.027509644627571106e-01 5.162360668182373047e-01 1.856961101293563843e-01 3.023806214332580566e-01
7.720000000000000000e+02 6.137231445312500000e+01 4.570847034454345703e+00 -2.871779799461364746e-01 2.072684168815612793e-01 -2.397286891937255859e-02 -7.876627147197723389e-02
7.730000000000000000e+02 6.018438339233398438e+01 3.543529272079467773e+00 -2.571967244148254395e-01 -6.718844175338745117e-02 -9.731554985046386719e-02 -2.328230589628219604e-01
7.740000000000000000e+02 5.905478286743164062e+01 3.479691267013549805e+00 -4.702133536338806152e-01 -4.365669786930084229e-01 -2.720341086387634277e-01 -4.703480601310729980e-01
7.750000000000000000e+02 5.847534942626953125e+01 2.935009956359863281e+00 -4.261065721511840820e-01 -4.607624113559722900e-01 -2.660607099533081055e-01 -4.566531777381896973e-01
7.760000000000000000e+02 5.589175796508789062e+01 1.008357882499694824e+00 9.974861741065979004e-01 -3.011689335107803345e-02 2.902107834815979004e-01 1.516580432653427124e-01
7.770000000000000000e+02 5.516261672973632812e+01 6.277744174003601074e-01 1.791889071464538574e+00 5.057244747877120972e-02 5.527384281158447266e-01 3.020280301570892334e-01
7.780000000000000000e+02 5.354208755493164062e+01 1.525349318981170654e-01 3.364828109741210938e+00 1.148284822702407837e-01 1.043896913528442383e+00 1.988517194986343384e-01
7.790000000000000000e+02 5.270471191406250000e+01 6.719584017992019653e-02 3.960686445236206055e+00 6.982114166021347046e-02 1.209152221679687500e+00 6.112235412001609802e-02
7.800000000000000000e+02 4.958313369750976562e+01 4.211350381374359131e-01 3.851800918579101562e+00 4.861117362976074219e+00 2.613875627517700195e+00 -2.922578334808349609e+00
7.810000000000000000e+02 4.941025543212890625e+01 1.237429380416870117e+00 3.657945394515991211e+00 5.607417583465576172e+00 2.779608964920043945e+00 -3.843943119049072266e+00
7.820000000000000000e+02 4.839196777343750000e+01 5.851847171783447266e+00 4.986950382590293884e-02 1.155745792388916016e+01 3.482198238372802734e+00 7.177329659461975098e-01
7.830000000000000000e+02 4.843119812011718750e+01 6.646608352661132812e+00 1.626640856266021729e-01 1.158071231842041016e+01 3.523013114929199219e+00 8.281372785568237305e-01
7.840000000000000000e+02 4.847990036010742188e+01 7.442691326141357422e+00 3.837805688381195068e-01 1.211233901977539062e+01 3.748836040496826172e+00 1.233365297317504883e+00
7.850000000000000000e+02 4.904608917236328125e+01 1.058229923248291016e+01 5.840083360671997070e-01 1.120338821411132812e+01 3.536218881607055664e+00 2.411776781082153320e+00
7.860000000000000000e+02 4.855261230468750000e+01 1.153760910034179688e+01 7.632872462272644043e-01 1.111997032165527344e+01 3.564977169036865234e+00 2.528920173645019531e+00
7.870000000000000000e+02 4.922402572631835938e+01 1.135451984405517578e+01 5.843231678009033203e-01 1.111312770843505859e+01 3.509235382080078125e+00 2.497786998748779297e+00
7.880000000000000000e+02 4.940497970581054688e+01 1.212577342987060547e+01 7.749568223953247070e-01 1.143098163604736328e+01 3.661781549453735352e+00 2.716371774673461914e+00
7.890000000000000000e+02 4.984082794189453125e+01 1.364716434478759766e+01 1.105678677558898926e+00 1.081338691711425781e+01 3.575719833374023438e+00 3.301570415496826172e+00
7.900000000000000000e+02 5.009059906005859375e+01 1.439508724212646484e+01 1.192946553230285645e+00 1.029738903045654297e+01 3.447100639343261719e+00 3.359065532684326172e+00
7.910000000000000000e+02 5.061407852172851562e+01 1.588037109375000000e+01 1.183957815170288086e+00 9.549853324890136719e+00 3.220143318176269531e+00 3.335389375686645508e+00
7.920000000000000000e+02 5.087668609619140625e+01 1.663009643554687500e+01 1.432454705238342285e+00 9.659547805786132812e+00 3.327600717544555664e+00 3.526450157165527344e+00
7.930000000000000000e+02 5.186701965332031250e+01 1.884112167358398438e+01 2.427330017089843750e+00 7.309586524963378906e+00 2.921074867248535156e+00 3.956225872039794922e+00
7.940000000000000000e+02 5.228266525268554688e+01 1.953342247009277344e+01 2.863203048706054688e+00 6.430855751037597656e+00 2.788217782974243164e+00 3.906188249588012695e+00
7.950000000000000000e+02 5.518152618408203125e+01 2.135721206665039062e+01 1.038468703627586365e-01 4.475117325782775879e-01 1.654075831174850464e-01 5.904197692871093750e-01
7.960000000000000000e+02 5.672231674194335938e+01 2.176172256469726562e+01 -1.417421817779541016e+00 9.556032717227935791e-02 -3.965584635734558105e-01 3.101559169590473175e-02
7.970000000000000000e+02 5.829805755615234375e+01 2.208140182495117188e+01 -2.523747920989990234e+00 -6.600834429264068604e-03 -7.591046094894409180e-01 -1.802561879158020020e-01
7.980000000000000000e+02 5.909505081176757812e+01 2.221000862121582031e+01 -2.992776870727539062e+00 2.769209677353501320e-03 -8.970022797584533691e-01 -2.432649582624435425e-01
7.990000000000000000e+02 5.989597320556640625e+01 2.232515335083007812e+01 -3.683245897293090820e+00 -1.184984743595123291e-01 -1.140523314476013184e+00 -2.035432010889053345e-01
8.000000000000000000e+02 9.388638496398925781e+00 -1.865828514099121094e+00 -2.356558442115783691e-01 2.115271240472793579e-02 -6.435094028711318970e-02 -5.847001075744628906e-02
8.010000000000000000e+02 1.059641170501708984e+01 -3.392713785171508789e+00 -2.622529268264770508e-01 3.635125607252120972e-02 -6.777050346136093140e-02 -1.162973195314407349e-01
8.020000000000000000e+02 1.071191596984863281e+01 -2.725144863128662109e+00 -2.818862199783325195e-01 3.292806074023246765e-02 -7.468744367361068726e-02 -8.788946270942687988e-02
8.030000000000000000e+02 1.141829109191894531e+01 -2.829804658889770508e+00 -3.122066855430603027e-01 3.530581295490264893e-02 -8.307026326656341553e-02 -8.743393421173095703e-02
8.040000000000000000e+02 1.447304534912109375e+01 -2.682145595550537109e+00 -4.789280295372009277e-01 2.101099304854869843e-02 -1.373751163482666016e-01 -3.868631273508071899e-02
8.050000000000000000e+02 1.945879745483398438e+01 3.012652397155761719e-01 2.758886839728802443e-04 2.170281077269464731e-04 1.478750345995649695e-04 1.437231694580987096e-04
8.060000000000000000e+02 2.082871437072753906e+01 5.071045398712158203e+00 -7.003756472840905190e-04 4.566156712826341391e-04 -7.312799425562843680e-05 -7.223236607387661934e-04
8.070000000000000000e+02 1.728526496887207031e+01 1.281846642494201660e+00 8.314548758789896965e-04 2.153347013518214226e-04 3.140368789900094271e-04 6.981460610404610634e-04
8.080000000000000000e+02 2.210077476501464844e+01 1.696010589599609375e+00 2.008407900575548410e-04 2.940225240308791399e-04 1.484589884057641029e-04 6.306591967586427927e-05
8.090000000000000000e+02 2.326601600646972656e+01 1.970814585685729980e+00 3.284945560153573751e-04 1.024410303216427565e-04 1.292806700803339481e-04 2.186405617976561189e-04
8.100000000000000000e+02 2.171615028381347656e+01 9.611889719963073730e-01 2.020690590143203735e-04 2.359706559218466282e-04 1.314119144808501005e-04 3.628100603236816823e-05
8.110000000000000000e+02 2.236156463623046875e+01 3.227652072906494141e+00 5.188246723264455795e-04 4.243289586156606674e-04 2.829460718203336000e-04 5.557344411499798298e-04
8.120000000000000000e+02 1.438778114318847656e+01 1.767311930656433105e+00 2.002823865041136742e-03 -3.263803664594888687e-04 5.029330495744943619e-04 1.187010901048779488e-03
8.130000000000000000e+02 1.585319137573242188e+01 1.521339416503906250e+00 1.383240334689617157e-03 -4.622384949470870197e-05 4.011049459222704172e-04 1.029287115670740604e-03
8.140000000000000000e+02 1.512443065643310547e+01 1.643156886100769043e+00 1.325873541645705700e-03 -1.747802016325294971e-04 3.453280078247189522e-04 1.103968708775937557e-03
8.150000000000000000e+02 1.663760185241699219e+01 -3.730315208435058594e+00 -5.040661692619323730e-01 2.111366763710975647e-02 -1.448857486248016357e-01 -5.727206543087959290e-02
8.160000000000000000e+02 1.212835025787353516e+01 -2.945900440216064453e+00 -3.403218090534210205e-01 3.548932075500488281e-02 -9.144974499940872192e-02 -8.595711737871170044e-02
8.170000000000000000e+02 1.432775115966796875e+01 -3.337532043457031250e+00 -4.299658238887786865e-01 3.230104222893714905e-02 -1.192994341254234314e-01 -7.716568559408187866e-02
8.180000000000000000e+02 1.284963321685791016e+01 -3.070052385330200195e+00 -3.712666630744934082e-01 3.522730618715286255e-02 -1.008118018507957458e-01 -8.381263911724090576e-02
8.190000000000000000e+02 1.358371353149414062e+01 -3.201769828796386719e+00 -3.997471928596496582e-01 3.398882970213890076e-02 -1.097275093197822571e-01 -8.048932999372482300e-02
8.200000000000000000e+02 1.743171691894531250e+01 -3.845418930053710938e+00 -5.254614949226379395e-01 1.404640637338161469e-02 -1.534245312213897705e-01 -4.562275856733322144e-02
8.210000000000000000e+02 1.831616973876953125e+01 -3.268598079681396484e+00 -6.259874105453491211e-01 -6.710724905133247375e-03 -1.898094415664672852e-01 -7.915624417364597321e-03
8.220000000000000000e+02 1.508382797241210938e+01 -3.472602844238281250e+00 -4.561501145362854004e-01 2.955931052565574646e-02 -1.279772371053695679e-01 -7.129567861557006836e-02
8.230000000000000000e+02 1.585456943511962891e+01 -3.604125499725341797e+00 -4.841123819351196289e-01 2.638777345418930054e-02 -1.373173743486404419e-01 -6.604839116334915161e-02
8.240000000000000000e+02 1.823490905761718750e+01 -3.934852838516235352e+00 -5.384565591812133789e-01 7.461942266672849655e-03 -1.592983752489089966e-01 -3.118191845715045929e-02
8.250000000000000000e+02 8.903524398803710938e+00 3.150207519531250000e+00 2.493105828762054443e-03 -7.770672091282904148e-04 5.148115451447665691e-04 -4.723193414974957705e-04
8.260000000000000000e+02 1.053997993469238281e+01 2.365416288375854492e+00 2.697253599762916565e-03 -5.031487671658396721e-04 6.582314963452517986e-04 1.797498844098299742e-04
8.270000000000000000e+02 8.927054405212402344e+00 2.483178615570068359e+00 2.722519449889659882e-03 -4.922012449242174625e-04 6.690954323858022690e-04 -6.175985326990485191e-04
8.280000000000000000e+02 8.127978324890136719e+00 2.510000467300415039e+00 2.749940380454063416e-03 -4.384656494949012995e-04 6.934424163773655891e-04 -7.794564589858055115e-04
8.290000000000000000e+02 7.334006309509277344e+00 2.527328729629516602e+00 2.465737285092473030e-03 -4.285073955543339252e-04 6.111689144745469093e-04 -1.240111654624342918e-03
8.300000000000000000e+02 6.543343067169189453e+00 2.540200471878051758e+00 2.337107434868812561e-03 -2.975320385303348303e-04 6.118726450949907303e-04 -1.292223692871630192e-03
8.310000000000000000e+02 1.037811636924743652e+00 7.348982334136962891e+00 -3.441023727646097541e-05 4.658543504774570465e-03 1.387240015901625156e-03 -1.307350234128534794e-03
8.320000000000000000e+02 1.798728346824645996e+00 4.144882202148437500e+00 3.264822589699178934e-04 1.505201798863708973e-03 5.495052319020032883e-04 -1.394087332300841808e-03
8.330000000000000000e+02 2.638714551925659180e+00 2.603948831558227539e+00 6.580614717677235603e-04 5.328778061084449291e-04 3.572817659005522728e-04 -1.290677697397768497e-03
8.340000000000000000e+02 1.873000621795654297e+00 2.624534368515014648e+00 4.442865320015698671e-04 7.332261302508413792e-04 3.532537957653403282e-04 -9.710961603559553623e-04
8.350000000000000000e+02 3.691938519477844238e-01 2.685939788818359375e+00 8.232160325860604644e-05 6.745444261468946934e-04 2.270598051836714149e-04 -2.225597418146207929e-04
8.360000000000000000e+02 6.800704956054687500e+01 1.940408897399902344e+01 3.015359640121459961e+00 1.527021408081054688e+01 5.485672473907470703e+00 -3.767592191696166992e+00
8.370000000000000000e+02 1.133496761322021484e+01 2.261723756790161133e+00 2.913459436967968941e-03 -5.568790948018431664e-04 7.069740677252411842e-04 6.823369767516851425e-04
8.380000000000000000e+02 1.053012084960937500e+01 1.735954165458679199e+00 3.385438350960612297e-03 -2.596620179247111082e-04 9.377328678965568542e-04 2.248513337690383196e-04
8.390000000000000000e+02 1.364241886138916016e+01 1.893642544746398926e+00 1.951815444044768810e-03 -4.025427915621548891e-04 4.647817986551672220e-04 1.056955545209348202e-03
8.400000000000000000e+02 1.288446807861328125e+01 2.019184589385986328e+00 2.584303729236125946e-03 -5.328652914613485336e-04 6.154315778985619545e-04 1.097188214771449566e-03
8.410000000000000000e+02 5.105017852783203125e+01 -7.289075374603271484e+00 -2.508975744247436523e+00 7.381098866462707520e-01 -5.312597751617431641e-01 2.089963406324386597e-01
8.420000000000000000e+02 5.346065521240234375e+01 2.189177131652832031e+01 2.891332209110260010e-01 3.649682044982910156e+00 1.181644558906555176e+00 2.295431613922119141e+00
8.430000000000000000e+02 1.780292892456054688e+01 -1.249126529693603516e+01 6.999447941780090332e-01 1.577167212963104248e-01 2.572984397411346436e-01 -2.683351039886474609e-01
8.440000000000000000e+02 1.632362937927246094e+01 -1.152930259704589844e+01 4.240193665027618408e-01 1.803742349147796631e-01 1.813180744647979736e-01 -1.440276503562927246e-01
8.450000000000000000e+02 6.489039611816406250e+01 2.241782188415527344e+01 -1.087657928466796875e+00 1.147853493690490723e+00 1.805866695940494537e-02 -1.107248067855834961e+00
8.460000000000000000e+02 6.694069671630859375e+01 2.069044876098632812e+01 1.989889144897460938e+00 4.926536083221435547e+00 2.074927568435668945e+00 -3.120913505554199219e+00
8.470000000000000000e+02 4.854668045043945312e+01 2.586261272430419922e+00 2.713278293609619141e+00 1.209019184112548828e+01 4.441040992736816406e+00 -3.584506750106811523e+00
8.480000000000000000e+02 4.832097625732421875e+01 4.249926090240478516e+00 2.720628380775451660e-01 1.315849304199218750e+01 4.029166698455810547e+00 -3.596564531326293945e-01
8.490000000000000000e+02 6.152221679687500000e+01 2.231661415100097656e+01 -3.915311336517333984e+00 -1.563451141119003296e-01 -1.221496939659118652e+00 3.818618357181549072e-01
8.500000000000000000e+02 6.310601425170898438e+01 2.203663444519042969e+01 -3.123053789138793945e+00 -5.169166252017021179e-02 -9.524236917495727539e-01 3.774367868900299072e-01
8.510000000000000000e+02 6.651963043212890625e+01 1.057402610778808594e+01 1.922686576843261719e+00 5.938294887542724609e+00 2.358294486999511719e+00 3.237167835235595703e+00
8.520000000000000000e+02 6.887564849853515625e+01 1.260664558410644531e+01 1.071890354156494141e+00 1.072482776641845703e+01 3.539015293121337891e+00 1.219373941421508789e+00
8.530000000000000000e+02 5.276628875732421875e+01 -7.500916123390197754e-01 3.617407083511352539e+00 3.896765708923339844e-01 1.202125072479248047e+00 -6.330814957618713379e-01
8.540000000000000000e+02 5.635904312133789062e+01 4.274298846721649170e-01 1.330786466598510742e+00 -3.402286469936370850e-01 2.971673607826232910e-01 -1.746431738138198853e-01
8.550000000000000000e+02 6.801519012451171875e+01 1.511090278625488281e+01 5.889468789100646973e-01 1.582575893402099609e+01 4.924411773681640625e+00 9.565874338150024414e-01
8.560000000000000000e+02 6.792051696777343750e+01 1.433054924011230469e+01 8.224552869796752930e-01 1.528295135498046875e+01 4.831622123718261719e+00 2.347450733184814453e+00
8.570000000000000000e+02 6.847239685058593750e+01 1.422672557830810547e+01 1.226799130439758301e+00 1.322457504272460938e+01 4.335412025451660156e+00 1.244723439216613770e+00
8.580000000000000000e+02 4.898229598999023438e+01 1.871845960617065430e+00 3.015318870544433594e+00 8.021417617797851562e+00 3.311020851135253906e+00 -4.347932338714599609e+00
8.590000000000000000e+02 4.877108383178710938e+01 2.355082780122756958e-01 2.810870885848999023e+00 6.801476955413818359e+00 2.883704423904418945e+00 -2.328786134719848633e+00
8.600000000000000000e+02 5.658982086181640625e+01 1.429636120796203613e+00 3.711697757244110107e-01 -1.476592421531677246e-01 6.705315411090850830e-02 -4.458940401673316956e-02
8.610000000000000000e+02 5.836571502685546875e+01 1.956073880195617676e+00 9.819847345352172852e-02 -3.396824002265930176e-01 -7.244518399238586426e-02 -2.252673506736755371e-01
8.620000000000000000e+02 5.149399185180664062e+01 1.811787414550781250e+01 2.242795228958129883e+00 8.430439949035644531e+00 3.201970577239990234e+00 4.041810512542724609e+00
8.630000000000000000e+02 4.832059097290039062e+01 1.558821439743041992e+00 2.460630893707275391e+00 9.601061820983886719e+00 3.618507862091064453e+00 -2.588367938995361328e+00
8.640000000000000000e+02 4.289626312255859375e+01 3.852664709091186523e+00 7.858789563179016113e-01 1.789535903930664062e+01 5.604371070861816406e+00 9.986047744750976562e-01
8.650000000000000000e+02 6.247763824462890625e+01 2.299954605102539062e+01 -2.317443370819091797e+00 9.796524047851562500e-02 -6.658434271812438965e-01 -9.480579197406768799e-02
8.660000000000000000e+02 6.496971130371093750e+01 8.719079017639160156e+00 1.155987501144409180e+00 2.132658243179321289e+00 9.865937232971191406e-01 1.530502676963806152e+00
8.670000000000000000e+02 6.657066345214843750e+01 9.554748535156250000e+00 9.299243688583374023e-01 5.501851081848144531e+00 1.929532647132873535e+00 2.208813905715942383e+00
8.680000000000000000e+02 4.772099685668945312e+01 7.564619064331054688e+00 7.365123033523559570e-01 1.199875354766845703e+01 3.820579767227172852e+00 1.301420569419860840e+00
8.690000000000000000e+02 6.810006713867187500e+01 1.665186691284179688e+01 1.866299062967300415e-01 1.424050521850585938e+01 4.328140735626220703e+00 -5.602581053972244263e-02
8.700000000000000000e+02 6.918935394287109375e+01 1.772233200073242188e+01 1.359074711799621582e+00 1.237713718414306641e+01 4.120863437652587891e+00 -1.244807124137878418e+00
8.710000000000000000e+02 4.936056900024414062e+01 1.619430923461914062e+01 1.210413217544555664e+00 9.088954925537109375e+00 3.089810371398925781e+00 2.730638504028320312e+00
8.720000000000000000e+02 5.111226272583007812e+01 1.916394042968750000e+01 1.860854864120483398e+00 7.275753498077392578e+00 2.740982532501220703e+00 2.957854270935058594e+00
8.730000000000000000e+02 5.705542755126953125e+01 9.276771545410156250e-01 8.243929147720336914e-01 -3.698613941669464111e-01 1.363594681024551392e-01 -1.685358285903930664e-01
8.740000000000000000e+02 5.585582733154296875e+01 -7.192151546478271484e+00 -1.169404983520507812e+00 -3.898550197482109070e-02 -3.625171482563018799e-01 -7.383586168289184570e-01
8.750000000000000000e+02 6.204416656494140625e+01 6.047816753387451172e+00 -3.145948350429534912e-01 3.518264368176460266e-02 -8.382365852594375610e-02 -1.247843727469444275e-01
8.760000000000000000e+02 6.429472351074218750e+01 6.207881450653076172e+00 -8.126051723957061768e-02 2.108386516571044922e+00 6.081378459930419922e-01 8.162715435028076172e-01
8.770000000000000000e+02 6.547927093505859375e+01 8.320471763610839844e+00 5.620927810668945312e-01 3.313229560852050781e+00 1.162596702575683594e+00 1.533840656280517578e+00
8.780000000000000000e+02 4.897857666015625000e+01 1.307189464569091797e+01 1.086814403533935547e+00 1.067609214782714844e+01 3.528871774673461914e+00 2.681998491287231445e+00
8.790000000000000000e+02 5.959012603759765625e+01 3.019012212753295898e+00 -1.992934048175811768e-01 -1.718650609254837036e-01 -1.113475412130355835e-01 -2.608550488948822021e-01
8.800000000000000000e+02 6.268519973754882812e+01 2.386498641967773438e+01 -1.306163668632507324e+00 3.739940524101257324e-01 -2.796508967876434326e-01 -5.182292461395263672e-01
8.810000000000000000e+02 4.769278335571289062e+01 6.742333412170410156e+00 4.977648556232452393e-01 1.231712532043457031e+01 3.844467163085937500e+00 1.040850400924682617e+00
8.820000000000000000e+02 5.422879028320312500e+01 2.204998397827148438e+01 4.670642018318176270e-01 2.332460641860961914e+00 8.398574590682983398e-01 2.121467351913452148e+00
8.830000000000000000e+02 5.500233078002929688e+01 2.222746658325195312e+01 7.540991157293319702e-02 1.304867506027221680e+00 4.140832424163818359e-01 1.488402009010314941e+00
8.840000000000000000e+02 6.434172058105468750e+01 7.194470405578613281e+00 2.002146989107131958e-01 1.808560848236083984e+00 6.026326417922973633e-01 9.157726764678955078e-01
8.850000000000000000e+02 5.750606155395507812e+01 2.193383216857910156e+01 -2.015920877456665039e+00 4.627473652362823486e-02 -5.908938646316528320e-01 -1.025602221488952637e-01
8.860000000000000000e+02 5.737486648559570312e+01 2.278453636169433594e+01 -1.380845904350280762e+00 3.309476077556610107e-01 -3.149694800376892090e-01 5.659018158912658691e-01
8.870000000000000000e+02 6.758757019042968750e+01 2.137483215332031250e+01 -1.701886653900146484e-01 7.661248683929443359e+00 2.247318029403686523e+00 -2.490554809570312500e+00
8.880000000000000000e+02 5.024759674072265625e+01 1.678996658325195312e+01 1.540833234786987305e+00 8.981327056884765625e+00 3.156647920608520508e+00 3.206566810607910156e+00
8.890000000000000000e+02 6.564475250244140625e+01 2.214947509765625000e+01 -4.788013100624084473e-01 1.991511464118957520e+00 4.538130462169647217e-01 -1.711465597152709961e+00
8.900000000000000000e+02 6.407103729248046875e+01 2.260439682006835938e+01 -1.649491429328918457e+00 5.120596289634704590e-01 -3.412295579910278320e-01 -5.183439850807189941e-01
8.910000000000000000e+02 6.327889633178710938e+01 2.281005096435546875e+01 -2.007071256637573242e+00 2.742064893245697021e-01 -5.198594331741333008e-01 -2.081066668033599854e-01
8.920000000000000000e+02 6.834465789794921875e+01 1.345325088500976562e+01 8.700119853019714355e-01 1.253304481506347656e+01 4.020916938781738281e+00 1.766156435012817383e+00
8.930000000000000000e+02 5.963475799560546875e+01 4.016524314880371094e+00 -4.949586689472198486e-01 -3.770936429500579834e-01 -2.616156935691833496e-01 -4.555426239967346191e-01
8.940000000000000000e+02 6.072076034545898438e+01 3.076354742050170898e+00 -6.450659781694412231e-02 2.572025358676910400e-01 5.780878290534019470e-02 -6.081775948405265808e-02
8.950000000000000000e+02 5.903784561157226562e+01 2.305487251281738281e+01 -2.178534269332885742e+00 8.831195533275604248e-02 -6.270666718482971191e-01 3.371810317039489746e-01
8.960000000000000000e+02 6.879428863525390625e+01 1.643441390991210938e+01 2.900932729244232178e-01 1.357989120483398438e+01 4.160995483398437500e+00 1.820589601993560791e-01
8.970000000000000000e+02 6.896215820312500000e+01 1.710535430908203125e+01 5.969685316085815430e-01 1.388726425170898438e+01 4.345269680023193359e+00 -7.002782821655273438e-01
8.980000000000000000e+02 5.577767181396484375e+01 2.242117500305175781e+01 -4.577947854995727539e-01 8.360308408737182617e-01 1.134708076715469360e-01 1.074486374855041504e+00
8.990000000000000000e+02 5.035126495361328125e+01 1.513767528533935547e+01 1.186542630195617676e+00 9.804473876953125000e+00 3.297304868698120117e+00 3.357720136642456055e+00
9.000000000000000000e+02 6.879152679443359375e+01 -1.974438667297363281e+01 1.510719537734985352e+00 1.495146846771240234e+01 4.938656330108642578e+00 1.317286252975463867e+00
9.010000000000000000e+02 6.801583099365234375e+01 -2.074716377258300781e+01 2.505233287811279297e+00 1.707326889038085938e+01 5.873550891876220703e+00 3.296373844146728516e+00
9.020000000000000000e+02 4.809331512451171875e+01 1.251974678039550781e+01 9.743068814277648926e-01 1.061808490753173828e+01 3.477717638015747070e+00 2.376190662384033203e+00
9.030000000000000000e+02 6.143236923217773438e+01 5.548675537109375000e+00 -4.339380562305450439e-01 -1.125994548201560974e-01 -1.639612615108489990e-01 -2.619337439537048340e-01
9.040000000000000000e+02 6.082444381713867188e+01 5.048089504241943359e+00 -4.916048943996429443e-01 -2.196017801761627197e-01 -2.133620083332061768e-01 -3.569331169128417969e-01
9.050000000000000000e+02 4.946867370605468750e+01 1.456566333770751953e+01 1.077045559883117676e+00 1.006906318664550781e+01 3.343832492828369141e+00 2.932224988937377930e+00
9.060000000000000000e+02 6.491406250000000000e+01 7.746702671051025391e+00 3.614109456539154053e-01 2.470917463302612305e+00 8.496985435485839844e-01 1.232510089874267578e+00
9.070000000000000000e+02 5.896889495849609375e+01 2.391235923767089844e+01 -1.325065612792968750e+00 2.595435380935668945e-01 -3.196566104888916016e-01 6.717752218246459961e-01
9.080000000000000000e+02 4.836191940307617188e+01 1.076393222808837891e+01 6.893306970596313477e-01 1.123983478546142578e+01 3.578749656677246094e+00 2.287432670593261719e+00
9.090000000000000000e+02 6.077716064453125000e+01 4.060053825378417969e+00 -2.826476991176605225e-01 5.766615644097328186e-02 -6.749445945024490356e-02 -1.722887754440307617e-01
9.100000000000000000e+02 5.898676300048828125e+01 2.487598896026611328e+00 -9.460398554801940918e-02 -2.654704749584197998e-01 -1.080223396420478821e-01 -2.546244561672210693e-01
9.110000000000000000e+02 6.819313049316406250e+01 1.266043758392333984e+01 1.073365330696105957e+00 1.139649486541748047e+01 3.740958213806152344e+00 2.223629236221313477e+00
9.120000000000000000e+02 4.799643707275390625e+01 9.188569068908691406e+00 7.174264788627624512e-01 1.173110008239746094e+01 3.734558105468750000e+00 1.856453061103820801e+00
9.130000000000000000e+02 4.857868957519531250e+01 8.235354423522949219e+00 4.565986096858978271e-01 1.195031642913818359e+01 3.722074270248413086e+00 1.709166765213012695e+00
9.140000000000000000e+02 5.148415756225585938e+01 2.001560211181640625e+01 1.710958480834960938e+00 6.305714607238769531e+00 2.405001878738403320e+00 2.548289775848388672e+00
9.150000000000000000e+02 6.968303680419921875e+01 1.676252746582031250e+01 1.173445105552673340e+00 1.175140857696533203e+01 3.877456188201904297e+00 -3.529549837112426758e-01
9.160000000000000000e+02 6.376125717163085938e+01 6.652266502380371094e+00 3.534432128071784973e-02 1.320575118064880371e+00 4.067758321762084961e-01 6.267639398574829102e-01
9.170000000000000000e+02 4.972705078125000000e+01 1.530107975006103516e+01 1.095514416694641113e+00 9.731879234313964844e+00 3.248218059539794922e+00 3.005570411682128906e+00
9.180000000000000000e+02 4.921746826171875000e+01 1.382346630096435547e+01 1.082817435264587402e+00 1.049054431915283203e+01 3.472008466720581055e+00 2.809534549713134766e+00
9.190000000000000000e+02 5.000683975219726562e+01 -2.933367919921875000e+01 -3.039068877696990967e-01 2.694967985153198242e+00 7.173183560371398926e-01 -1.339688181877136230e+00
9.200000000000000000e+02 4.862507247924804688e+01 -1.393801569938659668e+00 1.935752391815185547e+00 6.191607952117919922e+00 2.438208103179931641e+00 -1.097180724143981934e+00
9.210000000000000000e+02 5.138028717041015625e+01 -7.921798706054687500e+00 -3.836301088333129883e+00 -2.072656601667404175e-01 -1.213070034980773926e+00 -3.702912032604217529e-01
9.220000000000000000e+02 3.484990692138671875e+01 -1.629487419128417969e+01 4.092073142528533936e-01 1.620604872703552246e+00 6.089436411857604980e-01 -5.791632533073425293e-01
9.230000000000000000e+02 6.531206512451171875e+01 -1.257434272766113281e+01 2.988557815551757812e+00 2.522286176681518555e+00 1.653253197669982910e+00 -2.567697525024414062e+00
9.240000000000000000e+02 3.651103591918945312e+01 -1.976029586791992188e+01 4.082227647304534912e-01 5.153652191162109375e+00 1.668562412261962891e+00 6.484355777502059937e-02
9.250000000000000000e+02 6.649919891357421875e+01 -2.284989929199218750e+01 1.700723648071289062e+00 4.242282390594482422e+00 1.782901763916015625e+00 2.506685256958007812e+00
9.260000000000000000e+02 6.806638336181640625e+01 -2.340921211242675781e+01 -2.476304024457931519e-01 8.799859046936035156e+00 2.565668582916259766e+00 1.289593458175659180e+00
9.270000000000000000e+02 6.597662353515625000e+01 -1.305756187438964844e+01 3.456598997116088867e+00 4.464951038360595703e+00 2.376465082168579102e+00 -3.642329692840576172e+00
9.280000000000000000e+02 6.557582855224609375e+01 -1.208693218231201172e+01 1.862987637519836426e+00 3.741617918014526367e+00 1.681381583213806152e+00 -2.543205261230468750e+00
9.290000000000000000e+02 6.803668975830078125e+01 -1.741741943359375000e+01 4.886814057826995850e-01 1.758171844482421875e+01 5.421120166778564453e+00 -9.229154586791992188e-01
9.300000000000000000e+02 4.713098907470703125e+01 -2.483782577514648438e+01 1.466436743736267090e+00 7.598361968994140625e+00 2.719439506530761719e+00 -2.445994138717651367e+00
9.310000000000000000e+02 4.669556045532226562e+01 -2.404330444335937500e+01 1.786687374114990234e+00 9.095599174499511719e+00 3.264685869216918945e+00 -2.224785566329956055e+00
9.320000000000000000e+02 6.031009292602539062e+01 -1.045183849334716797e+01 -3.311215937137603760e-01 9.854162484407424927e-02 -6.977399438619613647e-02 -1.394084375351667404e-02
9.330000000000000000e+02 5.750481033325195312e+01 -2.952092933654785156e+01 -3.889867067337036133e+00 -2.317773401737213135e-01 -1.236493349075317383e+00 -4.969873428344726562e-01
9.340000000000000000e+02 5.767011260986328125e+01 -3.056225013732910156e+01 -2.308092832565307617e+00 -4.446383118629455566e-01 -8.258193135261535645e-01 -5.275753736495971680e-01
9.350000000000000000e+02 6.710520935058593750e+01 -1.427728271484375000e+01 3.624338626861572266e+00 1.049998283386230469e+01 4.237296581268310547e+00 -5.386288166046142578e+00
9.360000000000000000e+02 6.739965820312500000e+01 -1.230224990844726562e+01 9.320629239082336426e-01 8.007442474365234375e+00 2.681851387023925781e+00 -2.269702672958374023e+00
9.370000000000000000e+02 4.547245788574218750e+01 -2.246035003662109375e+01 1.555608749389648438e+00 1.040335178375244141e+01 3.587688207626342773e+00 -8.071560859680175781e-01
9.380000000000000000e+02 3.627388381958007812e+01 -2.412031173706054688e+01 1.468698143959045410e+00 7.117960453033447266e+00 2.575997591018676758e+00 1.848429083824157715e+00
9.390000000000000000e+02 3.647756576538085938e+01 -2.240374755859375000e+01 3.934299051761627197e-01 6.546298503875732422e+00 2.081918478012084961e+00 1.122376680374145508e+00
9.400000000000000000e+02 6.350939559936523438e+01 -2.800873756408691406e+01 -1.127751588821411133e+00 1.428699851036071777e+00 9.028447419404983521e-02 2.476287484169006348e-01
9.410000000000000000e+02 6.850621795654296875e+01 -1.641152954101562500e+01 2.102977514266967773e+00 1.526124668121337891e+01 5.209267139434814453e+00 -2.129453182220458984e+00
9.420000000000000000e+02 6.804552459716796875e+01 -1.471044158935546875e+01 2.364376544952392578e+00 1.262602615356445312e+01 4.497120857238769531e+00 -3.147797584533691406e+00
9.430000000000000000e+02 3.300308609008789062e+01 -1.589834022521972656e+01 4.928063452243804932e-01 1.176298484206199646e-01 1.831308603286743164e-01 -1.565223187208175659e-01
9.440000000000000000e+02 4.763973617553710938e+01 -2.556007003784179688e+01 1.285284638404846191e+00 5.955302715301513672e+00 2.172176122665405273e+00 -2.519008636474609375e+00
9.450000000000000000e+02 4.597182846069335938e+01 -2.145599365234375000e+01 1.151665329933166504e+00 1.231980228424072266e+01 4.041440010070800781e+00 -9.289988875389099121e-01
9.460000000000000000e+02 5.848259735107421875e+01 -1.065422630310058594e+01 -6.604575514793395996e-01 -6.132477894425392151e-02 -2.165347039699554443e-01 2.406208515167236328e-01
9.470000000000000000e+02 5.048458099365234375e+01 -2.746631050109863281e+01 9.722715020179748535e-01 1.644092679023742676e+00 7.849092483520507812e-01 -1.306057095527648926e+00
9.480000000000000000e+02 4.992500686645507812e+01 -2.807102012634277344e+01 4.741774499416351318e-01 2.464145421981811523e+00 8.814969062805175781e-01 -1.407455086708068848e+00
9.490000000000000000e+02 4.964028549194335938e+01 -9.891182899475097656e+00 -8.583833575248718262e-01 1.338356137275695801e+00 1.439918279647827148e-01 2.423910796642303467e-01
9.500000000000000000e+02 6.149443435668945312e+01 -1.152159309387207031e+01 -5.511012077331542969e-01 3.573403507471084595e-02 -1.546101421117782593e-01 5.441928654909133911e-02
9.510000000000000000e+02 5.886952209472656250e+01 -9.976556777954101562e+00 -4.950082004070281982e-01 2.882001921534538269e-02 -1.398564577102661133e-01 1.303949505090713501e-01
9.520000000000000000e+02 2.271942329406738281e+01 2.340959358215332031e+01 -4.022031426429748535e-01 -1.099508553743362427e-01 -1.536462008953094482e-01 4.170380532741546631e-02
9.530000000000000000e+02 2.322885322570800781e+01 2.176511764526367188e+01 -1.004690766334533691e+00 -1.147042810916900635e-01 -3.358184993267059326e-01 3.141971305012702942e-02
9.540000000000000000e+02 6.631746673583984375e+01 -1.253366756439208984e+01 2.070646047592163086e+00 5.606970310211181641e+00 2.303284883499145508e+00 -3.139773130416870117e+00
9.550000000000000000e+02 5.300100708007812500e+01 -3.001161575317382812e+01 -1.190165281295776367e+00 5.869072675704956055e-01 -1.809774190187454224e-01 -7.079271078109741211e-01
9.560000000000000000e+02 5.673740768432617188e+01 -3.061139869689941406e+01 -2.264097213745117188e+00 -2.594209015369415283e-01 -7.570554018020629883e-01 -5.104011893272399902e-01
9.570000000000000000e+02 4.588597488403320312e+01 -2.059301185607910156e+01 9.531798362731933594e-01 1.272849464416503906e+01 4.104502201080322266e+00 -6.069071292877197266e-01
9.580000000000000000e+02 5.568369674682617188e+01 -8.174056053161621094e+00 -2.064122200012207031e+00 5.671095103025436401e-02 -6.022233366966247559e-01 -3.802297636866569519e-02
9.590000000000000000e+02 5.518965530395507812e+01 -7.703908920288085938e+00 -2.050724744796752930e+00 5.630711093544960022e-02 -5.983253121376037598e-01 -6.420829296112060547e-01
9.600000000000000000e+02 5.397899246215820312e+01 -7.745268821716308594e+00 -3.509423971176147461e+00 -4.247113466262817383e-01 -1.180240631103515625e+00 -3.428532481193542480e-01
9.610000000000000000e+02 4.738958740234375000e+01 -1.143984508514404297e+01 2.319864183664321899e-01 8.709162712097167969e+00 2.682344913482666016e+00 1.891269803047180176e+00
9.620000000000000000e+02 4.590169525146484375e+01 -1.806443977355957031e+01 4.013743996620178223e-01 1.320754528045654297e+01 4.082675933837890625e+00 7.684181928634643555e-01
9.630000000000000000e+02 6.298104858398437500e+01 -2.741221237182617188e+01 -1.057715058326721191e+00 6.084954738616943359e-01 -1.347658783197402954e-01 -1.567361652851104736e-01
9.640000000000000000e+02 5.058031082153320312e+01 -2.866081237792968750e+01 2.349735610187053680e-02 2.019899129867553711e+00 6.130189299583435059e-01 -1.142609953880310059e+00
9.650000000000000000e+02 5.212288284301757812e+01 -2.968434333801269531e+01 -8.166833519935607910e-01 9.942609667778015137e-01 5.327329039573669434e-02 -9.069200158119201660e-01
9.660000000000000000e+02 5.856483078002929688e+01 -9.056797981262207031e+00 -4.756042659282684326e-01 1.456346660852432251e-01 -9.899087995290756226e-02 -3.743360191583633423e-02
9.670000000000000000e+02 5.686692810058593750e+01 -9.031047821044921875e+00 -1.085958957672119141e+00 -3.695812076330184937e-03 -3.268964290618896484e-01 2.014186829328536987e-01
9.680000000000000000e+02 5.624900436401367188e+01 -8.618689537048339844e+00 -1.382230520248413086e+00 -5.456109065562486649e-03 -4.163059890270233154e-01 1.840769350528717041e-01
9.690000000000000000e+02 4.615644454956054688e+01 -1.558851146697998047e+01 9.851279258728027344e-01 1.316050910949707031e+01 4.243690967559814453e+00 1.817512750625610352e+00
9.700000000000000000e+02 4.921845245361328125e+01 -9.290398597717285156e+00 -1.958616137504577637e+00 3.451899290084838867e+00 4.479849636554718018e-01 7.002915143966674805e-01
9.710000000000000000e+02 4.699451065063476562e+01 -1.226503753662109375e+01 7.778028249740600586e-01 1.006628608703613281e+01 3.253226757049560547e+00 2.162894964218139648e+00
9.720000000000000000e+02 4.734967041015625000e+01 -1.332655715942382812e+01 1.460147857666015625e+00 1.238892650604248047e+01 4.154722213745117188e+00 3.705255746841430664e+00
9.730000000000000000e+02 6.226287841796875000e+01 -1.168168544769287109e+01 -3.969129920005798340e-01 3.599409759044647217e-02 -1.082756742835044861e-01 -3.525390475988388062e-02
9.740000000000000000e+02 6.596466827392578125e+01 -2.345295524597167969e+01 1.255520582199096680e+00 2.929232120513916016e+00 1.255425810813903809e+00 1.988649606704711914e+00
9.750000000000000000e+02 6.643319702148437500e+01 -2.400077056884765625e+01 4.891138970851898193e-01 4.464785575866699219e+00 1.486169815063476562e+00 1.844527482986450195e+00
9.760000000000000000e+02 4.630104064941406250e+01 -1.475779151916503906e+01 1.011343717575073242e+00 1.282166004180908203e+01 4.149900913238525391e+00 2.155463218688964844e+00
9.770000000000000000e+02 6.541941833496093750e+01 -2.404083251953125000e+01 8.819769620895385742e-01 2.128464937210083008e+00 9.031325578689575195e-01 1.336848497390747070e+00
9.780000000000000000e+02 6.034127044677734375e+01 -2.959936904907226562e+01 -2.294527530670166016e+00 -1.890369802713394165e-01 -7.450693249702453613e-01 -4.000580608844757080e-01
9.790000000000000000e+02 6.110279464721679688e+01 -2.910561370849609375e+01 -2.046499252319335938e+00 -2.547637000679969788e-02 -6.215927004814147949e-01 -3.867388069629669189e-01
9.800000000000000000e+02 6.178278732299804688e+01 -1.085361766815185547e+01 -6.060121580958366394e-02 1.954904049634933472e-01 4.046675562858581543e-02 -2.289740890264511108e-01
9.810000000000000000e+02 5.393370819091796875e+01 -3.024791717529296875e+01 -1.553323030471801758e+00 2.559088468551635742e-01 -3.892242610454559326e-01 -5.867900848388671875e-01
9.820000000000000000e+02 5.487296676635742188e+01 -3.043660354614257812e+01 -1.844448208808898926e+00 -1.512459665536880493e-02 -5.578718781471252441e-01 -5.009887814521789551e-01
9.830000000000000000e+02 6.248818206787109375e+01 -2.678037834167480469e+01 -9.899473190307617188e-01 -2.539372146129608154e-01 -3.731653392314910889e-01 -5.526592135429382324e-01
9.840000000000000000e+02 6.357316970825195312e+01 -2.684820365905761719e+01 -7.968717813491821289e-01 8.853528499603271484e-01 2.654432132840156555e-02 1.278180927038192749e-01
9.850000000000000000e+02 6.690229034423828125e+01 -2.455988883972167969e+01 -1.379567086696624756e-01 5.353707313537597656e+00 1.564725160598754883e+00 1.603208661079406738e+00
9.860000000000000000e+02 6.178162002563476562e+01 -2.856047630310058594e+01 -1.759492874145507812e+00 2.185136228799819946e-01 -4.622937738895416260e-01 -3.675161898136138916e-01
9.870000000000000000e+02 4.586563873291015625e+01 -1.889801406860351562e+01 4.896873831748962402e-01 1.297920036315917969e+01 4.040666103363037109e+00 4.748964309692382812e-01
9.880000000000000000e+02 3.405701065063476562e+01 -1.577315902709960938e+01 5.847927331924438477e-01 7.605636715888977051e-01 4.036069214344024658e-01 -3.998048901557922363e-01
9.890000000000000000e+02 4.878195190429687500e+01 -2.571837234497070312e+01 1.957945823669433594e+00 3.350522279739379883e+00 1.592540383338928223e+00 -2.521757841110229492e+00
9.900000000000000000e+02 6.310317230224609375e+01 -2.626125526428222656e+01 -6.971838474273681641e-01 1.734042726457118988e-02 -2.039530277252197266e-01 -3.088709712028503418e-01
9.910000000000000000e+02 5.064237594604492188e+01 -8.340582847595214844e+00 -3.519398927688598633e+00 8.391077518463134766e-01 -8.040873408317565918e-01 -2.988967597484588623e-01
9.920000000000000000e+02 4.993406677246093750e+01 -8.799050331115722656e+00 -2.614731788635253906e+00 1.957037329673767090e+00 -1.973083466291427612e-01 2.184881828725337982e-02
9.930000000000000000e+02 4.647444534301757812e+01 -1.392525005340576172e+01 1.105296850204467773e+00 1.204798984527587891e+01 3.945986032485961914e+00 2.386387586593627930e+00
9.940000000000000000e+02 6.943657684326171875e+01 -1.867665290832519531e+01 1.275878429412841797e+00 1.384682369232177734e+01 4.536810874938964844e+00 -6.072222813963890076e-02
9.950000000000000000e+02 5.580517578125000000e+01 -3.056196784973144531e+01 -2.093486309051513672e+00 -1.590334624052047729e-01 -6.757559180259704590e-01 -4.720998108386993408e-01
9.960000000000000000e+02 4.931990051269531250e+01 -2.747477912902832031e+01 7.277677059173583984e-01 3.000778913497924805e+00 1.118564009666442871e+00 -1.692174911499023438e+00
9.970000000000000000e+02 4.585748672485351562e+01 -1.974030303955078125e+01 6.001647710800170898e-01 1.314154052734375000e+01 4.122511863708496094e+00 3.327971557155251503e-03
9.980000000000000000e+02 4.655258178710937500e+01 -1.812094497680664062e+01 1.148455739021301270e-01 1.398617649078369141e+01 4.230306625366210938e+00 8.506212234497070312e-01
9.990000000000000000e+02 4.818167495727539062e+01 -2.622602844238281250e+01 1.155880093574523926e+00 4.613234043121337891e+00 1.730734348297119141e+00 -2.326171398162841797e+00
1.000000000000000000e+03 4.874104690551757812e+01 -2.686180496215820312e+01 9.744528532028198242e-01 3.658640861511230469e+00 1.389928102493286133e+00 -1.990472555160522461e+00
1.001000000000000000e+03 6.531414794921875000e+01 -2.515481567382812500e+01 1.133656781166791916e-02 2.548521757125854492e+00 7.679575085639953613e-01 1.027789831161499023e+00
1.002000000000000000e+03 6.474401092529296875e+01 -2.572416877746582031e+01 -2.711200714111328125e-01 1.801627874374389648e+00 4.591523408889770508e-01 6.954222321510314941e-01
1.003000000000000000e+03 6.875294494628906250e+01 -1.888249588012695312e+01 5.602042675018310547e-01 1.535123729705810547e+01 4.773432254791259766e+00 8.491979539394378662e-02
1.004000000000000000e+03 6.870186614990234375e+01 -1.805534553527832031e+01 7.237500548362731934e-01 1.552551746368408203e+01 4.874780178070068359e+00 -6.926717758178710938e-01
1.005000000000000000e+03 3.427994918823242188e+01 -2.695417594909667969e+01 2.682780981063842773e+00 4.976424217224121094e+00 2.297761678695678711e+00 3.367023468017578125e+00
1.006000000000000000e+03 1.264389038085937500e+01 -2.471485519409179688e+01 2.362170964479446411e-01 5.744831562042236328e-01 2.432100772857666016e-01 -2.914506793022155762e-01
1.007000000000000000e+03 1.373614215850830078e+01 -1.346305942535400391e+01 1.760629862546920776e-01 1.406156122684478760e-01 9.500357508659362793e-02 1.220285445451736450e-01
1.008000000000000000e+03 3.108375167846679688e+01 -5.952458381652832031e+00 -2.109817504882812500e+00 -3.218553364276885986e-01 -7.295018434524536133e-01 -1.152129396796226501e-01
1.009000000000000000e+03 1.170946788787841797e+01 -1.492631626129150391e+01 4.766170307993888855e-02 3.912159204483032227e-01 1.316632926464080811e-01 3.046598844230175018e-02
1.010000000000000000e+03 1.099099922180175781e+01 -1.753251075744628906e+01 7.539214938879013062e-02 6.285700798034667969e-01 2.111886739730834961e-01 -7.733312249183654785e-02
1.011000000000000000e+03 1.314880371093750000e+01 -2.414198112487792969e+01 3.186000585556030273e-01 6.338284015655517578e-01 2.857285439968109131e-01 -3.912084400653839111e-01
1.012000000000000000e+03 1.978883743286132812e+01 -2.894556808471679688e+01 1.177952513098716736e-01 9.718497097492218018e-02 6.449406594038009644e-02 -1.318023800849914551e-01
1.013000000000000000e+03 2.292064857482910156e+01 -3.000788879394531250e+01 -3.038267493247985840e-01 1.114503201097249985e-02 -8.780451118946075439e-02 1.090159267187118530e-02
1.014000000000000000e+03 1.280828285217285156e+01 -1.268498992919921875e+01 1.346786320209503174e-01 1.423595249652862549e-01 8.311145007610321045e-02 1.568027772009372711e-02
1.015000000000000000e+03 2.271060752868652344e+01 -1.449212837219238281e+01 6.880855560302734375e-01 6.329619325697422028e-03 2.083245664834976196e-01 -1.210010796785354614e-01
1.016000000000000000e+03 2.012519454956054688e+01 -1.306456947326660156e+01 5.162645578384399414e-01 5.253579095005989075e-02 1.706400960683822632e-01 -2.203967869281768799e-01
1.017000000000000000e+03 1.788146781921386719e+01 -2.886687660217285156e+01 1.544539630413055420e-01 2.995450496673583984e-01 1.361996978521347046e-01 -2.322220653295516968e-01
1.018000000000000000e+03 1.804689979553222656e+01 -3.024046897888183594e+01 3.533043712377548218e-02 2.981471419334411621e-01 1.000432744622230530e-01 -2.342686653137207031e-01
1.019000000000000000e+03 3.435997009277343750e+01 -2.934226226806640625e+01 9.153007268905639648e-01 4.116420745849609375e+00 1.509516358375549316e+00 1.831994891166687012e+00
1.020000000000000000e+03 2.251819801330566406e+01 -3.207790756225585938e+01 -2.453050389885902405e-02 1.235975101590156555e-01 2.972010336816310883e-02 -1.608701348304748535e-01
1.021000000000000000e+03 1.193896865844726562e+01 -1.420501899719238281e+01 5.888395756483078003e-02 2.994595170021057129e-01 1.075030416250228882e-01 3.425309807062149048e-02
1.022000000000000000e+03 1.248042678833007812e+01 -1.507975959777832031e+01 8.603557199239730835e-02 3.676010072231292725e-01 1.360909789800643921e-01 1.486515551805496216e-01
1.023000000000000000e+03 1.374363899230957031e+01 -2.474296951293945312e+01 3.188065886497497559e-01 5.479093194007873535e-01 2.600147724151611328e-01 -3.939538896083831787e-01
1.024000000000000000e+03 1.973683357238769531e+01 -1.366677188873291016e+01 5.034804344177246094e-01 8.374258875846862793e-02 1.761669069528579712e-01 -2.383407503366470337e-01
1.025000000000000000e+03 2.900415229797363281e+01 -3.124830627441406250e+01 3.259013891220092773e-01 4.306991696357727051e-01 2.269801646471023560e-01 6.063203215599060059e-01
1.026000000000000000e+03 2.990494728088378906e+01 -3.103653335571289062e+01 5.128593444824218750e-01 7.271013855934143066e-01 3.719882071018218994e-01 8.478972911834716797e-01
1.027000000000000000e+03 1.179840755462646484e+01 -1.827991294860839844e+01 2.524438872933387756e-02 9.007423520088195801e-01 2.777960300445556641e-01 -5.444931238889694214e-02
1.028000000000000000e+03 1.109105777740478516e+01 -1.842605590820312500e+01 7.877802103757858276e-02 7.310813665390014648e-01 2.429578155279159546e-01 -1.203290298581123352e-01
1.029000000000000000e+03 3.488883590698242188e+01 -2.741171455383300781e+01 1.740357279777526855e+00 5.348187923431396484e+00 2.126563549041748047e+00 2.414055585861206055e+00
1.030000000000000000e+03 1.110199928283691406e+01 -1.659607315063476562e+01 7.505210489034652710e-02 5.500132441520690918e-01 1.875196099281311035e-01 -4.775396734476089478e-02
1.031000000000000000e+03 3.605805206298828125e+01 -2.498259162902832031e+01 1.542823553085327148e+00 7.240197658538818359e+00 2.634906291961669922e+00 2.115888595581054688e+00
1.032000000000000000e+03 3.161007881164550781e+01 -3.035893630981445312e+01 9.183017015457153320e-01 1.692137479782104492e+00 7.831317782402038574e-01 1.384833931922912598e+00
1.033000000000000000e+03 3.184376716613769531e+01 -2.917454338073730469e+01 1.870236396789550781e+00 1.350003361701965332e+00 9.660719037055969238e-01 1.503331303596496582e+00
1.034000000000000000e+03 3.433758926391601562e+01 -2.810948371887207031e+01 1.698393464088439941e+00 4.430674076080322266e+00 1.838720321655273438e+00 2.418588399887084961e+00
1.035000000000000000e+03 3.373768234252929688e+01 -2.876243400573730469e+01 1.599476218223571777e+00 3.544940948486328125e+00 1.543325066566467285e+00 2.127913475036621094e+00
1.036000000000000000e+03 3.238210678100585938e+01 -2.991204643249511719e+01 1.104710459709167480e+00 2.335510492324829102e+00 1.032066226005554199e+00 1.641299962997436523e+00
1.037000000000000000e+03 1.417474460601806641e+01 -1.235886859893798828e+01 2.664534449577331543e-01 7.585340738296508789e-02 1.026920527219772339e-01 4.995011165738105774e-02
1.038000000000000000e+03 1.487685394287109375e+01 -1.209297180175781250e+01 3.904477357864379883e-01 3.709975630044937134e-02 1.282642483711242676e-01 1.960759423673152924e-02
1.039000000000000000e+03 1.660322380065917969e+01 -2.773180198669433594e+01 2.467309236526489258e-01 3.468308448791503906e-01 1.780685335397720337e-01 -2.827218472957611084e-01
1.040000000000000000e+03 2.147839355468750000e+01 -1.349721717834472656e+01 5.487128496170043945e-01 8.789174258708953857e-03 1.672506034374237061e-01 -1.947551816701889038e-01
1.041000000000000000e+03 2.983741569519042969e+01 -1.524764251708984375e+01 9.578958749771118164e-01 -1.179107115603983402e-03 2.870150208473205566e-01 -9.275829046964645386e-02
1.042000000000000000e+03 3.001457786560058594e+01 -1.450353622436523438e+01 9.302702546119689941e-01 -4.692507535219192505e-02 2.650035619735717773e-01 -1.458453573286533356e-02
1.043000000000000000e+03 3.603022384643554688e+01 -1.571037292480468750e+01 3.516941368579864502e-01 2.967345476150512695e+00 9.957118630409240723e-01 -3.928806781768798828e-01
1.044000000000000000e+03 2.619916725158691406e+01 -3.040823936462402344e+01 -4.841359853744506836e-01 4.772039595991373062e-03 -1.438091844320297241e-01 3.193474933505058289e-02
1.045000000000000000e+03 2.808465576171875000e+01 -3.136894607543945312e+01 1.530964821577072144e-01 2.553995549678802490e-01 1.225488036870956421e-01 3.890955448150634766e-01
1.046000000000000000e+03 1.811657524108886719e+01 -1.132293796539306641e+01 3.811516165733337402e-01 1.431450098752975464e-01 1.572889834642410278e-01 -1.381233930587768555e-01
1.047000000000000000e+03 1.734967231750488281e+01 -1.190891742706298828e+01 6.463946700096130371e-01 1.720107495784759521e-01 2.455216199159622192e-01 -1.710077077150344849e-01
1.048000000000000000e+03 1.134751796722412109e+01 -2.011965560913085938e+01 1.290863901376724243e-01 8.557049632072448730e-01 2.954373955726623535e-01 -2.218498140573501587e-01
1.049000000000000000e+03 1.212723445892333984e+01 -2.071935653686523438e+01 1.121663302183151245e-01 1.130144238471984863e+00 3.726931512355804443e-01 -2.923995852470397949e-01
1.050000000000000000e+03 2.360539436340332031e+01 -3.121235847473144531e+01 -1.769670099020004272e-01 4.055380448698997498e-02 -4.092396050691604614e-02 -8.438270539045333862e-02
1.051000000000000000e+03 2.716476249694824219e+01 -3.142238807678222656e+01 7.382697891443967819e-03 1.446829140186309814e-01 4.561968520283699036e-02 2.330751419067382812e-01
1.052000000000000000e+03 2.428530120849609375e+01 -1.464683914184570312e+01 8.954081535339355469e-01 1.345762051641941071e-02 2.726597189903259277e-01 -1.160781532526016235e-01
1.053000000000000000e+03 2.935868835449218750e+01 -1.364315319061279297e+01 8.565763831138610840e-01 -6.749653816223144531e-02 2.367239445447921753e-01 -4.084282368421554565e-02
1.054000000000000000e+03 3.581148147583007812e+01 -2.068117523193359375e+01 6.562110036611557007e-02 5.058677196502685547e+00 1.537289500236511230e+00 1.390529721975326538e-01
1.055000000000000000e+03 2.016901397705078125e+01 -3.022162246704101562e+01 -2.056651376187801361e-02 1.625298261642456055e-01 4.258899390697479248e-02 -1.868328303098678589e-01
1.056000000000000000e+03 2.100073051452636719e+01 -3.054682731628417969e+01 -7.010801881551742554e-02 1.288001090288162231e-01 1.760762557387351990e-02 -1.622630953788757324e-01
1.057000000000000000e+03 2.556083106994628906e+01 2.119367599487304688e+01 -8.185000419616699219e-01 -1.472547464072704315e-02 -2.499676644802093506e-01 1.061936393380165100e-01
1.058000000000000000e+03 1.953748130798339844e+01 -1.271862411499023438e+01 5.081227421760559082e-01 6.102376431226730347e-02 1.707439571619033813e-01 -2.257155627012252808e-01
1.059000000000000000e+03 1.901010704040527344e+01 -1.229561614990234375e+01 5.384215712547302246e-01 7.974676042795181274e-02 1.854504942893981934e-01 -2.031590789556503296e-01
1.060000000000000000e+03 1.432150650024414062e+01 -2.533608055114746094e+01 3.105116486549377441e-01 4.795730412006378174e-01 2.370254099369049072e-01 -3.756337761878967285e-01
1.061000000000000000e+03 1.151592350006103516e+01 -2.095796775817871094e+01 2.097431123256683350e-01 8.788806200027465820e-01 3.265871107578277588e-01 -2.959683537483215332e-01
1.062000000000000000e+03 1.936912727355957031e+01 -2.983528900146484375e+01 3.749619424343109131e-02 2.106598466634750366e-01 7.444681227207183838e-02 -2.057878077030181885e-01
1.063000000000000000e+03 2.054459571838378906e+01 -2.927960586547851562e+01 9.317279793322086334e-03 6.903029978275299072e-02 2.350427582859992981e-02 -8.039028942584991455e-02
1.064000000000000000e+03 2.605423545837402344e+01 -1.407983589172363281e+01 8.622007369995117188e-01 5.059367045760154724e-03 2.601780295372009277e-01 -1.489326953887939453e-01
1.065000000000000000e+03 3.552411270141601562e+01 -1.702346801757812500e+01 2.115423083305358887e-01 2.743919372558593750e+00 8.866384625434875488e-01 -6.100936532020568848e-01
1.066000000000000000e+03 3.600576400756835938e+01 -1.791761589050292969e+01 2.988827526569366455e-01 3.846299171447753906e+00 1.243554592132568359e+00 -2.510876655578613281e-01
1.067000000000000000e+03 3.536846160888671875e+01 -2.664413261413574219e+01 1.937665104866027832e+00 5.932229042053222656e+00 2.360968112945556641e+00 2.446605682373046875e+00
1.068000000000000000e+03 2.761519050598144531e+01 -1.424077510833740234e+01 9.316376447677612305e-01 -2.246126765385270119e-03 2.788174450397491455e-01 -1.202491372823715210e-01
1.069000000000000000e+03 3.082854270935058594e+01 -1.462892246246337891e+01 9.102411866188049316e-01 -3.074126690626144409e-02 2.638499736785888672e-01 -1.070953439921140671e-03
1.070000000000000000e+03 1.488979530334472656e+01 -2.593185806274414062e+01 2.948046922683715820e-01 4.327709376811981201e-01 2.182726860046386719e-01 -3.550223112106323242e-01
1.071000000000000000e+03 1.653601264953613281e+01 -2.649092864990234375e+01 3.411488533020019531e-01 3.685660064220428467e-01 2.129144519567489624e-01 -3.509129881858825684e-01
1.072000000000000000e+03 1.601647567749023438e+01 -2.713362503051757812e+01 2.636548280715942383e-01 3.700296878814697266e-01 1.901053637266159058e-01 -3.112355768680572510e-01
1.073000000000000000e+03 2.527466773986816406e+01 -1.399431991577148438e+01 8.036459684371948242e-01 1.570446416735649109e-02 2.458051294088363647e-01 -1.574898064136505127e-01
1.074000000000000000e+03 2.535670280456542969e+01 -3.140457344055175781e+01 -1.498901098966598511e-01 3.645886108279228210e-02 -3.402937203645706177e-02 2.504203096032142639e-02
1.075000000000000000e+03 2.625283813476562500e+01 -3.143132209777832031e+01 -9.431258589029312134e-02 8.817914128303527832e-02 -1.840033568441867828e-03 1.102579832077026367e-01
1.076000000000000000e+03 3.651952362060546875e+01 -2.154808998107910156e+01 2.534107267856597900e-01 5.994353771209716797e+00 1.874329328536987305e+00 7.365579605102539062e-01
1.077000000000000000e+03 3.640559387207031250e+01 -2.325712203979492188e+01 9.237169027328491211e-01 6.990136623382568359e+00 2.374155998229980469e+00 1.632207512855529785e+00
1.078000000000000000e+03 1.539675712585449219e+01 -2.534516143798828125e+01 3.805574476718902588e-01 4.211797416210174561e-01 2.405211627483367920e-01 -3.974777758121490479e-01
1.079000000000000000e+03 1.545062923431396484e+01 -2.653130912780761719e+01 2.804252505302429199e-01 3.989163339138031006e-01 2.038024663925170898e-01 -3.317377269268035889e-01
1.080000000000000000e+03 2.828306579589843750e+01 -5.065126895904541016e+00 -1.447505354881286621e+00 -1.291641891002655029e-01 -4.730008542537689209e-01 2.705809473991394043e-01
1.081000000000000000e+03 4.031281661987304688e+01 -2.201315402984619141e+00 4.686059951782226562e+00 8.035220146179199219e+00 3.816383838653564453e+00 5.651693820953369141e+00
1.082000000000000000e+03 3.966536331176757812e+01 -2.757769107818603516e+00 3.576891660690307617e+00 4.545859813690185547e+00 2.436825275421142578e+00 3.852619647979736328e+00
1.083000000000000000e+03 4.038158416748046875e+01 -4.074667453765869141e+00 -3.038031458854675293e-01 7.684752464294433594e+00 2.214284896850585938e+00 2.983541727066040039e+00
1.084000000000000000e+03 4.817865753173828125e+01 9.982179641723632812e+00 6.962340474128723145e-01 1.142729473114013672e+01 3.637058734893798828e+00 2.115698337554931641e+00
1.085000000000000000e+03 3.816438293457031250e+01 -3.520009279251098633e+00 7.499647140502929688e-02 7.609247565269470215e-01 2.507763803005218506e-01 8.031130433082580566e-01
1.086000000000000000e+03 3.270825576782226562e+01 -5.052404880523681641e+00 -3.154991388320922852e+00 -1.690243631601333618e-01 -9.972047805786132812e-01 -4.991400837898254395e-01
1.087000000000000000e+03 4.009394073486328125e+01 -3.340220451354980469e+00 1.062182784080505371e+00 6.987473487854003906e+00 2.414896965026855469e+00 3.538353681564331055e+00
1.088000000000000000e+03 3.839525985717773438e+01 -4.122552871704101562e+00 -2.551238751038908958e-03 2.181891441345214844e+00 6.538020968437194824e-01 1.856221795082092285e+00
1.089000000000000000e+03 3.922337722778320312e+01 -3.778743267059326172e+00 5.988143086433410645e-01 4.013148307800292969e+00 1.383588671684265137e+00 2.778623819351196289e+00
1.090000000000000000e+03 4.273809051513671875e+01 8.117499351501464844e+00 1.864998459815979004e+00 1.620602226257324219e+01 5.421306610107421875e+00 -2.016320705413818359e+00
1.091000000000000000e+03 4.078364944458007812e+01 1.205621528625488281e+01 1.834652662277221680e+00 7.155294418334960938e+00 2.696984052658081055e+00 -3.125053405761718750e+00
1.092000000000000000e+03 4.224059677124023438e+01 3.139221668243408203e+00 5.706946253776550293e-01 2.018415832519531250e+01 6.226456165313720703e+00 1.355893850326538086e+00
1.093000000000000000e+03 2.355630302429199219e+01 2.292576217651367188e+01 -4.765982031822204590e-01 -9.975752234458923340e-02 -1.729067116975784302e-01 -2.749013714492321014e-02
1.094000000000000000e+03 4.180839538574218750e+01 7.376762032508850098e-01 1.796145319938659668e+00 1.819229316711425781e+01 5.996531486511230469e+00 4.943903923034667969e+00
1.095000000000000000e+03 4.278224945068359375e+01 2.193291187286376953e+00 1.691943287849426270e+00 1.779117774963378906e+01 5.844936370849609375e+00 2.257680177688598633e+00
1.096000000000000000e+03 4.229000091552734375e+01 5.575298786163330078e+00 1.711789667606353760e-01 1.863585281372070312e+01 5.642109870910644531e+00 -1.849710047245025635e-01
1.097000000000000000e+03 4.295020294189453125e+01 6.380216121673583984e+00 1.031208395957946777e+00 1.743470001220703125e+01 5.539772510528564453e+00 -9.520036578178405762e-01
1.098000000000000000e+03 4.029154205322265625e+01 1.272546768188476562e+01 1.743488907814025879e+00 5.972916126251220703e+00 2.314921617507934570e+00 -2.887466430664062500e+00
1.099000000000000000e+03 3.247233581542968750e+01 1.873372077941894531e+01 3.982087373733520508e-01 3.343339860439300537e-01 2.197628170251846313e-01 -3.714524805545806885e-01
1.100000000000000000e+03 4.287736129760742188e+01 7.243977069854736328e+00 1.454580426216125488e+00 1.716164779663085938e+01 5.584868431091308594e+00 -1.478287100791931152e+00
1.101000000000000000e+03 3.582761001586914062e+01 -4.210654735565185547e+00 -2.132641792297363281e+00 -4.994603246450424194e-02 -6.547763347625732422e-01 -4.651893675327301025e-01
1.102000000000000000e+03 3.680083847045898438e+01 -4.660332202911376953e+00 -1.109978199005126953e+00 6.423256397247314453e-01 -1.402957737445831299e-01 4.327328205108642578e-01
1.103000000000000000e+03 3.283287048339843750e+01 -5.727400779724121094e+00 -2.226349353790283203e+00 -2.421064823865890503e-01 -7.405366897583007812e-01 -3.689458966255187988e-01
1.104000000000000000e+03 4.240053939819335938e+01 5.387737751007080078e-01 2.003619432449340820e+00 1.647407150268554688e+01 5.543307304382324219e+00 3.674635648727416992e+00
1.105000000000000000e+03 2.740687751770019531e+01 2.170795249938964844e+01 -4.907377958297729492e-01 4.853029549121856689e-02 -1.326622515916824341e-01 -4.259806498885154724e-02
1.106000000000000000e+03 2.583479881286621094e+01 2.207000732421875000e+01 -5.783054828643798828e-01 -6.186588201671838760e-03 -1.753476113080978394e-01 4.314953088760375977e-02
1.107000000000000000e+03 3.505558013916015625e+01 -4.439411163330078125e+00 -2.360052585601806641e+00 -1.128301694989204407e-01 -7.418648600578308105e-01 -6.242951154708862305e-01
1.108000000000000000e+03 3.105291366577148438e+01 2.396994972229003906e+01 4.009515792131423950e-02 8.593298792839050293e-01 2.698275148868560791e-01 -6.320590972900390625e-01
1.109000000000000000e+03 2.823169136047363281e+01 2.157250595092773438e+01 -3.871775269508361816e-01 1.043120548129081726e-01 -8.485964685678482056e-02 -7.876246422529220581e-02
1.110000000000000000e+03 3.502725219726562500e+01 1.780853462219238281e+01 7.815694212913513184e-01 1.160140872001647949e+00 5.825130939483642578e-01 -9.677683115005493164e-01
1.111000000000000000e+03 3.508872985839843750e+01 1.680983734130859375e+01 9.961249232292175293e-01 9.128308296203613281e-01 5.726867318153381348e-01 -9.353320002555847168e-01
1.112000000000000000e+03 3.370684051513671875e+01 1.880415153503417969e+01 5.261900424957275391e-01 7.978230714797973633e-01 3.972039520740509033e-01 -6.960738897323608398e-01
1.113000000000000000e+03 2.589527511596679688e+01 -2.943898439407348633e+00 -5.160425305366516113e-01 7.413899060338735580e-03 -1.525885760784149170e-01 2.240481823682785034e-01
1.114000000000000000e+03 2.495977783203125000e+01 -3.034233093261718750e+00 -5.679438710212707520e-01 8.734421432018280029e-02 -1.441798955202102661e-01 1.787247359752655029e-01
1.115000000000000000e+03 4.217321777343750000e+01 9.840970993041992188e+00 1.671433568000793457e+00 1.305552577972412109e+01 4.418087959289550781e+00 -2.821573734283447266e+00
1.116000000000000000e+03 4.126343536376953125e+01 1.135545635223388672e+01 1.763717532157897949e+00 8.749029159545898438e+00 3.153823852539062500e+00 -3.351602554321289062e+00
1.117000000000000000e+03 3.752515411376953125e+01 1.469643878936767578e+01 1.711552858352661133e+00 1.979880690574645996e+00 1.107430100440979004e+00 -1.789947986602783203e+00
1.118000000000000000e+03 3.875645446777343750e+01 1.560017681121826172e+01 1.144254088401794434e+00 3.574725389480590820e+00 1.415693879127502441e+00 -1.927662134170532227e+00
1.119000000000000000e+03 3.567265701293945312e+01 1.729697990417480469e+01 9.164546728134155273e-01 1.367894887924194336e+00 6.853048801422119141e-01 -1.114489436149597168e+00
1.120000000000000000e+03 3.437282562255859375e+01 1.830817985534667969e+01 6.631729006767272949e-01 9.661753773689270020e-01 4.888044893741607666e-01 -8.308010101318359375e-01
1.121000000000000000e+03 3.445336151123046875e+01 -5.371899127960205078e+00 -2.013053417205810547e+00 7.309993728995323181e-03 -6.017230153083801270e-01 -2.641221880912780762e-01
1.122000000000000000e+03 2.754313087463378906e+01 -4.571737289428710938e+00 -1.069289922714233398e+00 -7.078259438276290894e-02 -3.420217633247375488e-01 3.524299263954162598e-01
1.123000000000000000e+03 3.198814392089843750e+01 -5.840662956237792969e+00 -2.287715911865234375e+00 -2.200629115104675293e-01 -7.523336410522460938e-01 -2.859598994255065918e-01
1.124000000000000000e+03 3.925910949707031250e+01 1.397391605377197266e+01 1.646352887153625488e+00 4.038352966308593750e+00 1.705411672592163086e+00 -2.431509256362915039e+00
1.125000000000000000e+03 4.294071578979492188e+01 4.683011531829833984e+00 4.219137430191040039e-01 1.785132980346679688e+01 5.481973171234130859e+00 2.456734627485275269e-01
1.126000000000000000e+03 4.296930313110351562e+01 5.523702621459960938e+00 5.537962913513183594e-01 1.769089698791503906e+01 5.473407745361328125e+00 -4.304684102535247803e-01
1.127000000000000000e+03 4.179142379760742188e+01 -1.061986327171325684e+00 3.065086841583251953e+00 1.376425075531005859e+01 5.048801422119140625e+00 4.493264198303222656e+00
1.128000000000000000e+03 3.630687713623046875e+01 1.677199745178222656e+01 1.047291159629821777e+00 1.611002206802368164e+00 7.974879741668701172e-01 -1.295660257339477539e+00
1.129000000000000000e+03 3.978490829467773438e+01 1.336209678649902344e+01 1.687204003334045410e+00 4.929632663726806641e+00 1.985051035881042480e+00 -2.704525232315063477e+00
1.130000000000000000e+03 3.233100509643554688e+01 1.978487968444824219e+01 2.332632988691329956e-01 5.508940219879150391e-01 2.352472096681594849e-01 -4.887203872203826904e-01
1.131000000000000000e+03 3.692768859863281250e+01 1.623823165893554688e+01 1.167377591133117676e+00 1.929496049880981445e+00 9.290620684623718262e-01 -1.494655251502990723e+00
1.132000000000000000e+03 3.753583908081054688e+01 1.569631099700927734e+01 1.284903168678283691e+00 2.338518619537353516e+00 1.087026596069335938e+00 -1.706577777862548828e+00
1.133000000000000000e+03 7.963201141357421875e+01 3.882659530639648438e+01 1.282003591768443584e-03 8.096517562866210938e+00 2.429339885711669922e+00 -4.664292559027671814e-03
1.134000000000000000e+03 7.958933258056640625e+01 3.570930099487304688e+01 -4.970511421561241150e-03 8.220205307006835938e+00 2.464570522308349609e+00 -9.797092527151107788e-03
1.135000000000000000e+03 7.876732635498046875e+01 3.493679046630859375e+01 -1.085753086954355240e-03 8.027334213256835938e+00 2.407874584197998047e+00 -4.152683913707733154e-02
1.136000000000000000e+03 7.815032196044921875e+01 3.097800254821777344e+01 -4.588330909609794617e-02 7.896286010742187500e+00 2.355120897293090820e+00 5.064956098794937134e-02
1.137000000000000000e+03 7.961698913574218750e+01 3.249333190917968750e+01 -6.223617587238550186e-03 8.316229820251464844e+00 2.493001937866210938e+00 3.045860212296247482e-03
1.138000000000000000e+03 7.891323852539062500e+01 1.496472358703613281e+01 4.828260466456413269e-02 5.802176952362060547e+00 1.755137920379638672e+00 -1.100313887000083923e-01
1.139000000000000000e+03 7.964019012451171875e+01 1.487899684906005859e+01 1.994275115430355072e-02 5.347498893737792969e+00 1.610232472419738770e+00 -4.358191415667533875e-02
1.140000000000000000e+03 7.893712615966796875e+01 2.056413841247558594e+01 2.095077745616436005e-02 6.309528827667236328e+00 1.899143934249877930e+00 3.095746338367462158e-01
1.141000000000000000e+03 7.963968658447265625e+01 2.129210853576660156e+01 1.184718566946685314e-03 6.254007816314697266e+00 1.876557826995849609e+00 1.259888410568237305e-01
1.142000000000000000e+03 7.889373016357421875e+01 2.859563255310058594e+01 -3.019786998629570007e-02 7.957454204559326172e+00 2.378176927566528320e+00 1.277039349079132080e-01
1.143000000000000000e+03 7.963249969482421875e+01 2.850907707214355469e+01 -1.120960223488509655e-03 8.123663902282714844e+00 2.436762809753417969e+00 5.091206356883049011e-02
1.144000000000000000e+03 7.963481140136718750e+01 3.010213088989257812e+01 -1.667345641180872917e-03 8.263211250305175781e+00 2.478463172912597656e+00 2.806082367897033691e-02
1.145000000000000000e+03 7.887715148925781250e+01 3.172641372680664062e+01 -1.938544772565364838e-02 8.095852851867675781e+00 2.422940254211425781e+00 1.811021938920021057e-02
1.146000000000000000e+03 7.890140533447265625e+01 2.937814140319824219e+01 -2.223296277225017548e-02 8.020135879516601562e+00 2.399370908737182617e+00 9.126503765583038330e-02
1.147000000000000000e+03 7.888454437255859375e+01 2.780862808227539062e+01 -2.524413727223873138e-02 7.874108314514160156e+00 2.354659318923950195e+00 1.595965176820755005e-01
1.148000000000000000e+03 7.740946197509765625e+01 2.230138397216796875e+01 -2.642077859491109848e-03 7.103603363037109375e+00 2.130288362503051758e+00 6.476315855979919434e-01
1.149000000000000000e+03 7.887628936767578125e+01 2.621345901489257812e+01 -2.647205069661140442e-02 7.644359111785888672e+00 2.285366058349609375e+00 2.371283471584320068e-01
1.150000000000000000e+03 7.888333892822265625e+01 2.379445266723632812e+01 -2.156388573348522186e-02 7.138920783996582031e+00 2.135207176208496094e+00 3.327826857566833496e-01
1.151000000000000000e+03 7.887929534912109375e+01 2.460276222229003906e+01 -1.901448890566825867e-02 7.324907779693603516e+00 2.191767930984497070e+00 3.078055679798126221e-01
1.152000000000000000e+03 7.962905883789062500e+01 2.370257377624511719e+01 3.757425118237733841e-03 7.049556732177734375e+00 2.115994215011596680e+00 1.263893842697143555e-01
1.153000000000000000e+03 7.890181732177734375e+01 2.217648887634277344e+01 -1.714633312076330185e-03 6.726284027099609375e+00 2.017370700836181641e+00 3.465672731399536133e-01
1.154000000000000000e+03 7.751000213623046875e+01 2.064299201965332031e+01 8.571965247392654419e-02 6.824016571044921875e+00 2.072920799255371094e+00 5.742517113685607910e-01
1.155000000000000000e+03 7.828034973144531250e+01 1.903042602539062500e+01 9.219998121261596680e-02 6.301428318023681641e+00 1.918088436126708984e+00 3.400940299034118652e-01
1.156000000000000000e+03 7.893969726562500000e+01 1.736116600036621094e+01 5.910277366638183594e-02 5.768579959869384766e+00 1.748304843902587891e+00 9.545399248600006104e-02
1.157000000000000000e+03 7.895703887939453125e+01 1.816157341003417969e+01 4.806424304842948914e-02 5.841385841369628906e+00 1.766834974288940430e+00 1.687755733728408813e-01
1.158000000000000000e+03 7.964736175537109375e+01 1.728002357482910156e+01 6.751490756869316101e-03 5.303988456726074219e+00 1.593221902847290039e+00 3.558997064828872681e-02
1.159000000000000000e+03 7.890976715087890625e+01 1.576391983032226562e+01 5.991036072373390198e-02 5.753903388977050781e+00 1.744144082069396973e+00 -4.620594531297683716e-02
1.160000000000000000e+03 7.891982269287109375e+01 1.656198692321777344e+01 5.125244334340095520e-02 5.740741729736328125e+00 1.737598299980163574e+00 2.934403531253337860e-02
1.161000000000000000e+03 7.819027709960937500e+01 1.424034404754638672e+01 1.129637807607650757e-01 6.269023895263671875e+00 1.914596199989318848e+00 -2.593025267124176025e-01
1.162000000000000000e+03 7.892169189453125000e+01 1.416449642181396484e+01 5.568912997841835022e-02 5.887586116790771484e+00 1.782982587814331055e+00 -1.794368326663970947e-01
1.163000000000000000e+03 7.747280120849609375e+01 1.192932510375976562e+01 1.175566390156745911e-01 6.860314846038818359e+00 2.093361377716064453e+00 -5.870809555053710938e-01
1.164000000000000000e+03 7.892864990234375000e+01 9.364127159118652344e+00 3.767714370042085648e-03 7.009451866149902344e+00 2.103965997695922852e+00 -3.593841791152954102e-01
1.165000000000000000e+03 7.893439483642578125e+01 -2.329116314649581909e-01 -2.761159837245941162e-02 8.635460853576660156e+00 2.582354784011840820e+00 -1.289834920316934586e-02
1.166000000000000000e+03 7.964472198486328125e+01 4.559039473533630371e-01 -6.731827743351459503e-03 8.874730110168457031e+00 2.660399436950683594e+00 -1.738686859607696533e-02
1.167000000000000000e+03 7.893497467041015625e+01 7.767065048217773438e+00 -1.034594792872667313e-02 7.451056480407714844e+00 2.232213258743286133e+00 -3.378818035125732422e-01
1.168000000000000000e+03 7.964470672607421875e+01 7.668313980102539062e+00 -6.003811955451965332e-03 7.472134590148925781e+00 2.239839315414428711e+00 -1.249582692980766296e-01
1.169000000000000000e+03 7.788957977294921875e+01 -3.536588287353515625e+01 -3.786074370145797729e-02 9.529733657836914062e+00 2.847561836242675781e+00 -9.092934429645538330e-02
1.170000000000000000e+03 7.959037017822265625e+01 -3.481918334960937500e+01 3.585222410038113594e-03 1.033046245574951172e+01 3.100214242935180664e+00 -3.903369978070259094e-02
1.171000000000000000e+03 7.886189270019531250e+01 -2.832526016235351562e+01 -3.757396340370178223e-02 8.985796928405761719e+00 2.684466838836669922e+00 -3.822672963142395020e-01
1.172000000000000000e+03 7.962253570556640625e+01 -2.761797332763671875e+01 -6.775490473955869675e-03 8.930853843688964844e+00 2.677223443984985352e+00 -1.627445518970489502e-01
1.173000000000000000e+03 7.820476531982421875e+01 -2.179261207580566406e+01 8.583623915910720825e-02 6.945263385772705078e+00 2.109329938888549805e+00 -6.831689476966857910e-01
1.174000000000000000e+03 7.964089965820312500e+01 -2.119933319091796875e+01 1.391735207289457321e-02 5.991785526275634766e+00 1.801710844039916992e+00 -1.554399281740188599e-01
1.175000000000000000e+03 7.822820281982421875e+01 -1.457312679290771484e+01 1.121915131807327271e-01 6.342078685760498047e+00 1.936280965805053711e+00 3.499115109443664551e-01
1.176000000000000000e+03 7.964443206787109375e+01 -1.397981071472167969e+01 4.112886730581521988e-03 5.615320205688476562e+00 1.685829997062683105e+00 1.029189601540565491e-01
1.177000000000000000e+03 7.893325042724609375e+01 -7.450456619262695312e+00 -2.097214199602603912e-02 7.802618026733398438e+00 2.334493875503540039e+00 2.953053116798400879e-01
1.178000000000000000e+03 7.964426422119140625e+01 -6.761181354522705078e+00 -2.589073963463306427e-03 8.056152343750000000e+00 2.416068792343139648e+00 9.732805192470550537e-02
1.179000000000000000e+03 7.875912475585937500e+01 3.575817871093750000e+01 -2.737523056566715240e-03 7.986850738525390625e+00 2.395234107971191406e+00 -4.554924741387367249e-02
1.180000000000000000e+03 7.951820373535156250e+01 4.038675689697265625e+01 5.382353905588388443e-03 8.090641975402832031e+00 2.428807497024536133e+00 6.158700212836265564e-03
1.181000000000000000e+03 7.887081146240234375e+01 3.732748794555664062e+01 7.197679020464420319e-03 7.977898597717285156e+00 2.395528793334960938e+00 -4.206290468573570251e-02
1.182000000000000000e+03 7.873564147949218750e+01 3.658784866333007812e+01 -6.109033711254596710e-03 7.965400218963623047e+00 2.387787342071533203e+00 -4.352411255240440369e-02
1.183000000000000000e+03 7.878324890136718750e+01 3.412491607666015625e+01 -8.411630988121032715e-03 8.055556297302246094e+00 2.414143323898315430e+00 -3.186116367578506470e-02
1.184000000000000000e+03 7.738661193847656250e+01 3.100349998474121094e+01 -7.286497205495834351e-02 7.724590301513671875e+00 2.295517683029174805e+00 5.454373732209205627e-02
1.185000000000000000e+03 7.964365386962890625e+01 9.269958496093750000e+00 -4.873581230640411377e-03 6.917628765106201172e+00 2.073826551437377930e+00 -1.323885470628738403e-01
1.186000000000000000e+03 7.892758941650390625e+01 1.096287250518798828e+01 2.136812917888164520e-02 6.566785812377929688e+00 1.976446270942687988e+00 -3.410645127296447754e-01
1.187000000000000000e+03 7.893159484863281250e+01 8.565559387207031250e+00 -1.061858050525188446e-02 7.234572887420654297e+00 2.167186260223388672e+00 -3.546161949634552002e-01
1.188000000000000000e+03 7.823741149902343750e+01 7.060516357421875000e+00 -4.146655648946762085e-02 7.625685214996337891e+00 2.275265455245971680e+00 -4.762172698974609375e-01
1.189000000000000000e+03 7.893797302246093750e+01 6.967176437377929688e+00 -2.054732292890548706e-02 7.660416603088378906e+00 2.291960716247558594e+00 -3.177544772624969482e-01
1.190000000000000000e+03 7.755303192138671875e+01 4.778154850006103516e+00 -1.094022765755653381e-01 7.933949947357177734e+00 2.347364425659179688e+00 -4.369821846485137939e-01
1.191000000000000000e+03 7.893824005126953125e+01 2.970176219940185547e+00 -2.684595435857772827e-02 8.424037933349609375e+00 2.519157648086547852e+00 -1.540606915950775146e-01
1.192000000000000000e+03 7.894024658203125000e+01 3.769867181777954102e+00 -2.729859948158264160e-02 8.315008163452148438e+00 2.486312866210937500e+00 -1.910545229911804199e-01
1.193000000000000000e+03 7.964555358886718750e+01 2.860340118408203125e+00 -5.588577594608068466e-03 8.653470039367675781e+00 2.594364404678344727e+00 -5.745249986648559570e-02
1.194000000000000000e+03 7.893711090087890625e+01 2.170753240585327148e+00 -2.721350267529487610e-02 8.511666297912597656e+00 2.545335769653320312e+00 -1.202178969979286194e-01
1.195000000000000000e+03 7.822819519042968750e+01 -1.136539280414581299e-01 -6.486339122056961060e-02 8.414415359497070312e+00 2.504865646362304688e+00 -2.833228930830955505e-02
1.196000000000000000e+03 7.752771759033203125e+01 -2.398637533187866211e+00 -1.145559623837471008e-01 8.190677642822265625e+00 2.422836542129516602e+00 1.511410027742385864e-01
1.197000000000000000e+03 7.893427276611328125e+01 -4.241433143615722656e+00 -2.539851516485214233e-02 8.394223213195800781e+00 2.510647296905517578e+00 1.595671027898788452e-01
1.198000000000000000e+03 7.893444824218750000e+01 -3.439376592636108398e+00 -2.818225324153900146e-02 8.486996650695800781e+00 2.537644386291503906e+00 1.259346008300781250e-01
1.199000000000000000e+03 7.964443969726562500e+01 -4.355235099792480469e+00 -7.731718942523002625e-03 8.576990127563476562e+00 2.570777416229248047e+00 6.022656708955764771e-02
1.200000000000000000e+03 7.893418121337890625e+01 -5.042925834655761719e+00 -2.869249135255813599e-02 8.278646469116210938e+00 2.474986076354980469e+00 1.964638829231262207e-01
1.201000000000000000e+03 7.893385314941406250e+01 -5.844721317291259766e+00 -2.445574663579463959e-02 8.141454696655273438e+00 2.435099601745605469e+00 2.295094430446624756e-01
1.202000000000000000e+03 7.821461486816406250e+01 -1.135925483703613281e+01 1.503738947212696075e-02 6.951050758361816406e+00 2.089826345443725586e+00 5.507226586341857910e-01
1.203000000000000000e+03 7.893060302734375000e+01 -1.146617412567138672e+01 3.193217795342206955e-03 6.700842380523681641e+00 2.011210680007934570e+00 3.692619204521179199e-01
1.204000000000000000e+03 7.893005371093750000e+01 -1.066298198699951172e+01 5.678208544850349426e-04 6.933116436004638672e+00 2.080105304718017578e+00 3.708198964595794678e-01
1.205000000000000000e+03 7.964389038085937500e+01 -1.157378292083740234e+01 4.967832472175359726e-03 6.424383640289306641e+00 1.928805470466613770e+00 1.333045810461044312e-01
1.206000000000000000e+03 7.893185424804687500e+01 -1.226860427856445312e+01 1.842880994081497192e-02 6.474084377288818359e+00 1.947753906250000000e+00 3.532795310020446777e-01
1.207000000000000000e+03 7.893313598632812500e+01 -1.307100963592529297e+01 2.244164049625396729e-02 6.261993408203125000e+00 1.885330438613891602e+00 3.269473314285278320e-01
1.208000000000000000e+03 7.893389892578125000e+01 -1.467614650726318359e+01 4.369475692510604858e-02 5.913115024566650391e+00 1.787042975425720215e+00 2.316951602697372437e-01
1.209000000000000000e+03 7.893036651611328125e+01 -1.869145584106445312e+01 7.158837467432022095e-02 5.813054561614990234e+00 1.765392899513244629e+00 -1.754003614187240601e-01
1.210000000000000000e+03 7.892975616455078125e+01 -1.789112663269042969e+01 6.493719667196273804e-02 5.728014945983886719e+00 1.737885594367980957e+00 -8.731957525014877319e-02
1.211000000000000000e+03 7.964295196533203125e+01 -1.879312896728515625e+01 1.152403932064771652e-02 5.273404598236083984e+00 1.585478544235229492e+00 -6.852094829082489014e-02
1.212000000000000000e+03 7.893013763427734375e+01 -1.949184608459472656e+01 6.128831952810287476e-02 5.952097892761230469e+00 1.804015994071960449e+00 -2.604540586471557617e-01
1.213000000000000000e+03 7.892851257324218750e+01 -2.029389953613281250e+01 6.157896295189857483e-02 6.143758296966552734e+00 1.861601114273071289e+00 -3.401138782501220703e-01
1.214000000000000000e+03 7.891927337646484375e+01 -2.189879226684570312e+01 4.023344814777374268e-02 6.653519153594970703e+00 2.008125782012939453e+00 -4.624868035316467285e-01
1.215000000000000000e+03 7.743789672851562500e+01 -2.329093933105468750e+01 5.836378037929534912e-02 7.611552238464355469e+00 2.300974845886230469e+00 -9.787089228630065918e-01
1.216000000000000000e+03 7.888071441650390625e+01 -2.512017440795898438e+01 -1.163643412292003632e-02 7.906856536865234375e+00 2.368566036224365234e+00 -5.177999138832092285e-01
1.217000000000000000e+03 7.889035797119140625e+01 -2.431359100341796875e+01 -3.949532750993967056e-03 7.591534614562988281e+00 2.276275396347045898e+00 -5.293353199958801270e-01
1.218000000000000000e+03 7.962815093994140625e+01 -2.521283721923828125e+01 -3.246679203584790230e-03 7.892463207244873047e+00 2.366765022277832031e+00 -1.964439898729324341e-01
1.219000000000000000e+03 7.887258148193359375e+01 -2.592494583129882812e+01 -2.318685501813888550e-02 8.209305763244628906e+00 2.455835580825805664e+00 -4.978803098201751709e-01
1.220000000000000000e+03 7.810427093505859375e+01 -2.824389266967773438e+01 -8.931362628936767578e-02 8.815399169921875000e+00 2.617825746536254883e+00 -5.769267678260803223e-01
1.221000000000000000e+03 7.730801391601562500e+01 -3.054091453552246094e+01 -1.560649424791336060e-01 9.006028175354003906e+00 2.654989004135131836e+00 -4.713187217712402344e-01
1.222000000000000000e+03 7.879616546630859375e+01 -3.232116317749023438e+01 -3.228254988789558411e-02 9.733729362487792969e+00 2.910434246063232422e+00 -1.700951009988784790e-01
1.223000000000000000e+03 7.881632995605468750e+01 -3.152543449401855469e+01 -3.754873946309089661e-02 9.638333320617675781e+00 2.880235433578491211e+00 -2.034910917282104492e-01
1.224000000000000000e+03 7.960022735595703125e+01 -3.242563247680664062e+01 -1.130919996649026871e-02 1.012192249298095703e+01 3.033184051513671875e+00 -6.573139131069183350e-02
1.225000000000000000e+03 7.877528381347656250e+01 -3.311186218261718750e+01 -3.360721096396446228e-02 9.809638023376464844e+00 2.932809114456176758e+00 -1.313031762838363647e-01
1.226000000000000000e+03 7.875521087646484375e+01 -3.549069976806640625e+01 -4.866322502493858337e-03 9.938176155090332031e+00 2.979993104934692383e+00 -7.107483595609664917e-02
1.227000000000000000e+03 7.876776885986328125e+01 -3.864043807983398438e+01 -2.274371869862079620e-02 1.005037403106689453e+01 3.008288860321044922e+00 -1.141139771789312363e-02
1.228000000000000000e+03 7.954942321777343750e+01 -3.959241104125976562e+01 2.217266894876956940e-02 1.041925430297851562e+01 3.132427930831909180e+00 -7.740961154922842979e-04
1.229000000000000000e+03 7.869998931884765625e+01 -3.935202407836914062e+01 8.856671862304210663e-03 1.002025794982910156e+01 3.008734226226806641e+00 1.892450498417019844e-03
1.230000000000000000e+03 7.791616058349609375e+01 -3.926420974731445312e+01 -3.576339408755302429e-02 9.651450157165527344e+00 2.884706258773803711e+00 -4.359590634703636169e-02
1.231000000000000000e+03 7.827699279785156250e+01 -4.181850814819335938e+01 1.036485936492681503e-02 9.838750839233398438e+00 2.954734802246093750e+00 3.532608970999717712e-02
1.232000000000000000e+03 3.932662308216094971e-01 3.480970001220703125e+01 -1.824285252951085567e-03 -3.048854470252990723e-01 -9.201291948556900024e-02 8.079566992819309235e-03
1.233000000000000000e+03 3.815898895263671875e-01 3.400949859619140625e+01 2.068621106445789337e-03 -2.881022393703460693e-01 -8.581008762121200562e-02 7.823696359992027283e-03
1.234000000000000000e+03 3.824162781238555908e-01 2.837210273742675781e+01 -2.883069973904639482e-04 -1.543497443199157715e-01 -4.639141634106636047e-02 8.996644988656044006e-03
1.235000000000000000e+03 3.778093755245208740e-01 2.756656837463378906e+01 -9.430127829546108842e-05 -1.356977522373199463e-01 -4.073761776089668274e-02 8.544253185391426086e-03
1.236000000000000000e+03 4.341291785240173340e-01 -3.800503921508789062e+01 -8.367049158550798893e-04 -7.681733369827270508e-01 -2.307030111551284790e-01 3.523724619299173355e-03
1.237000000000000000e+03 1.113239526748657227e+00 -3.716212463378906250e+01 -2.815559273585677147e-03 -7.301008701324462891e-01 -2.198749333620071411e-01 8.059938438236713409e-03
1.238000000000000000e+03 3.570175468921661377e-01 2.112857627868652344e+01 -2.979742712341248989e-04 -2.179618924856185913e-02 -6.628249306231737137e-03 3.939281217753887177e-03
1.239000000000000000e+03 1.074041724205017090e+00 2.180048370361328125e+01 -1.410531229339540005e-03 -3.328514844179153442e-02 -1.040870323777198792e-02 1.317206118255853653e-02
1.240000000000000000e+03 1.096916913986206055e+00 2.502214813232421875e+01 -1.200167578645050526e-03 -8.029264956712722778e-02 -2.444784529507160187e-02 2.033571340143680573e-02
1.241000000000000000e+03 1.120183706283569336e+00 2.663656044006347656e+01 -8.656706777401268482e-04 -1.099641323089599609e-01 -3.324894234538078308e-02 2.342667989432811737e-02
1.242000000000000000e+03 1.107129454612731934e+00 2.582844161987304688e+01 -1.092780847102403641e-03 -9.474923461675643921e-02 -2.875260449945926666e-02 2.208158001303672791e-02
1.243000000000000000e+03 3.684558868408203125e-01 2.595516586303710938e+01 -1.693202211754396558e-04 -1.004449948668479919e-01 -3.018429502844810486e-02 7.601235527545213699e-03
1.244000000000000000e+03 1.135789155960083008e+00 2.744646263122558594e+01 -8.208600920625030994e-04 -1.259493529796600342e-01 -3.803106769919395447e-02 2.484847232699394226e-02
1.245000000000000000e+03 1.151142597198486328e+00 2.825647735595703125e+01 -5.656446446664631367e-04 -1.422438919544219971e-01 -4.284286126494407654e-02 2.582055516541004181e-02
1.246000000000000000e+03 1.177145361900329590e+00 2.988145065307617188e+01 9.082286851480603218e-05 -1.759501397609710693e-01 -5.275779590010643005e-02 2.726412191987037659e-02
1.247000000000000000e+03 2.717543125152587891e+00 3.059838104248046875e+01 4.503494128584861755e-04 -1.590763777494430542e-01 -4.758780822157859802e-02 5.701532959938049316e-02
1.248000000000000000e+03 1.160957217216491699e+00 3.234031677246093750e+01 -1.921849980135448277e-05 -2.281228005886077881e-01 -6.844260543584823608e-02 2.725323662161827087e-02
1.249000000000000000e+03 3.885473608970642090e-01 3.240755844116210938e+01 1.218980061821639538e-03 -2.511014044284820557e-01 -7.496472448110580444e-02 8.974807336926460266e-03
1.250000000000000000e+03 1.131024718284606934e+00 3.391925048828125000e+01 3.617889306042343378e-04 -2.609623670578002930e-01 -7.818017154932022095e-02 2.424436435103416443e-02
1.251000000000000000e+03 1.136035203933715820e+00 3.313531875610351562e+01 1.940262038260698318e-03 -2.450619339942932129e-01 -7.293649762868881226e-02 2.462809160351753235e-02
1.252000000000000000e+03 1.232494115829467773e+00 3.549646759033203125e+01 -8.916359511204063892e-04 -2.832677364349365234e-01 -8.524780720472335815e-02 2.231951430439949036e-02
1.253000000000000000e+03 3.073016166687011719e+00 3.896019363403320312e+01 1.250108424574136734e-02 -2.590154409408569336e-01 -7.395430654287338257e-02 2.394647896289825439e-02
1.254000000000000000e+03 1.328091025352478027e+00 3.802378463745117188e+01 2.636194927617907524e-03 -3.165460228919982910e-01 -9.417295455932617188e-02 1.428160350769758224e-02
1.255000000000000000e+03 3.685639500617980957e-01 3.959574890136718750e+01 -7.087168341968208551e-05 -3.680220544338226318e-01 -1.104278787970542908e-01 1.092435049940831959e-04
1.256000000000000000e+03 1.548048138618469238e+00 4.046815109252929688e+01 -1.077487133443355560e-03 -3.232302069664001465e-01 -9.729231148958206177e-02 7.166820578277111053e-03
1.257000000000000000e+03 2.531349658966064453e+00 4.141313934326171875e+01 2.143640536814928055e-03 -2.819463610649108887e-01 -8.394081145524978638e-02 5.394401960074901581e-03
1.258000000000000000e+03 1.785540580749511719e+00 -7.533216476440429688e+00 -7.827865891158580780e-03 -1.772911846637725830e-01 -5.553571507334709167e-02 -8.921840041875839233e-02
1.259000000000000000e+03 1.061469674110412598e+00 -1.553041172027587891e+01 2.284783171489834785e-03 -6.455820798873901367e-01 -1.929891854524612427e-01 -6.502435356378555298e-02
1.260000000000000000e+03 1.067696213722229004e+00 -2.197512626647949219e+01 5.394058767706155777e-03 -8.821524977684020996e-01 -2.630275189876556396e-01 -1.301761996001005173e-02
1.261000000000000000e+03 1.150884747505187988e+00 -2.920053672790527344e+01 2.427369763609021902e-04 -8.229655027389526367e-01 -2.468168288469314575e-01 2.467487379908561707e-02
1.262000000000000000e+03 1.204035997390747070e+00 -3.567560958862304688e+01 -4.249544144840911031e-05 -7.331913113594055176e-01 -2.199701368808746338e-01 1.223304681479930878e-02
1.263000000000000000e+03 3.555484712123870850e-01 1.952004432678222656e+01 -2.777963818516582251e-04 -6.490545812994241714e-03 -2.030502539128065109e-03 2.740347990766167641e-03
1.264000000000000000e+03 3.527667820453643799e-01 1.469540882110595703e+01 -1.688385382294654846e-04 1.214352156966924667e-02 3.592405002564191818e-03 2.393194445176050067e-04
1.265000000000000000e+03 3.523477315902709961e-01 1.389122200012207031e+01 -1.757025711413007230e-05 1.247930247336626053e-02 3.738519502803683281e-03 1.573096960783004761e-05
1.266000000000000000e+03 3.442509770393371582e-01 7.468991279602050781e+00 7.366202771663665771e-05 5.821468308568000793e-03 1.768539077602326870e-03 -4.722755111288279295e-04
1.267000000000000000e+03 1.798362493515014648e+00 -3.929429626464843750e+01 1.068626297637820244e-03 -6.605445146560668945e-01 -1.978427618741989136e-01 7.780735380947589874e-03
1.268000000000000000e+03 1.782447576522827148e+00 -3.729920959472656250e+01 -3.455067053437232971e-03 -6.811752915382385254e-01 -2.053891122341156006e-01 1.060441322624683380e-02
1.269000000000000000e+03 1.656590342521667480e+00 -3.845817184448242188e+01 -7.422050926834344864e-03 -6.798198223114013672e-01 -2.061725556850433350e-01 5.338191986083984375e-03
1.270000000000000000e+03 1.250029683113098145e+00 -3.778622055053710938e+01 -7.114960462786257267e-04 -7.126405835151672363e-01 -2.140056192874908447e-01 7.623712532222270966e-03
1.271000000000000000e+03 1.954236149787902832e+00 -2.997997474670410156e+01 -6.844431045465171337e-04 -7.220659255981445312e-01 -2.168251127004623413e-01 3.578050434589385986e-02
1.272000000000000000e+03 1.184578418731689453e+00 -3.161574172973632812e+01 -2.184193814173340797e-03 -7.789869904518127441e-01 -2.343513518571853638e-01 2.292749099433422089e-02
1.273000000000000000e+03 1.198324680328369141e+00 -3.242586517333984375e+01 -1.628896221518516541e-03 -7.661786079406738281e-01 -2.303422540426254272e-01 2.051280438899993896e-02
1.274000000000000000e+03 3.906913399696350098e-01 -3.083196449279785156e+01 -6.878788117319345474e-04 -8.732194900512695312e-01 -2.621722221374511719e-01 8.986916393041610718e-03
1.275000000000000000e+03 1.173945069313049316e+00 -3.080892944335937500e+01 -5.725043592974543571e-04 -7.937431931495666504e-01 -2.382947057485580444e-01 2.454563230276107788e-02
1.276000000000000000e+03 1.164013743400573730e+00 -3.000455284118652344e+01 -6.643261294811964035e-04 -8.085489273071289062e-01 -2.427639663219451904e-01 2.463706210255622864e-02
1.277000000000000000e+03 1.136404514312744141e+00 -2.839756584167480469e+01 8.444606646662577987e-05 -8.381251096725463867e-01 -2.514121830463409424e-01 2.446372434496879578e-02
1.278000000000000000e+03 1.843162536621093750e+00 -2.677099037170410156e+01 5.934359040111303329e-03 -7.686063647270202637e-01 -2.288016080856323242e-01 2.827033214271068573e-02
1.279000000000000000e+03 1.077056407928466797e+00 -2.438619232177734375e+01 4.687279928475618362e-03 -8.913981318473815918e-01 -2.660132646560668945e-01 7.171397097408771515e-03
1.280000000000000000e+03 3.581205606460571289e-01 -2.359883117675781250e+01 1.413353718817234039e-03 -1.006447792053222656e+00 -3.015103340148925781e-01 1.211789203807711601e-03
1.281000000000000000e+03 1.072684049606323242e+00 -2.358438301086425781e+01 4.667195025831460953e-03 -8.928694128990173340e-01 -2.664606571197509766e-01 9.740504319779574871e-04
1.282000000000000000e+03 1.070106625556945801e+00 -2.278111648559570312e+01 5.608704406768083572e-03 -8.897970318794250488e-01 -2.652564942836761475e-01 -5.761086475104093552e-03
1.283000000000000000e+03 1.064787387847900391e+00 -2.117145347595214844e+01 6.218220107257366180e-03 -8.693806529045104980e-01 -2.589487433433532715e-01 -2.085720002651214600e-02
1.284000000000000000e+03 1.063959240913391113e+00 -1.956479644775390625e+01 6.306826137006282806e-03 -8.279265165328979492e-01 -2.464859038591384888e-01 -3.641635552048683167e-02
1.285000000000000000e+03 3.553427159786224365e-01 -1.716408920288085938e+01 1.196007360704243183e-03 -8.276913762092590332e-01 -2.479486167430877686e-01 -1.920908503234386444e-02
1.286000000000000000e+03 1.069558262825012207e+00 -1.714190101623535156e+01 3.793299663811922073e-03 -7.285434007644653320e-01 -2.174250334501266479e-01 -5.711596831679344177e-02
1.287000000000000000e+03 1.056758999824523926e+00 -1.472585582733154297e+01 1.962151145562529564e-03 -6.001937389373779297e-01 -1.794694662094116211e-01 -6.752335280179977417e-02
1.288000000000000000e+03 1.761690974235534668e+00 -1.470141601562500000e+01 4.220058675855398178e-03 -5.267168879508972168e-01 -1.567490547895431519e-01 -1.054502651095390320e-01
1.289000000000000000e+03 1.052502036094665527e+00 -1.392273044586181641e+01 9.084347402676939964e-04 -5.534337162971496582e-01 -1.657575964927673340e-01 -6.912198662757873535e-02
1.290000000000000000e+03 1.045325040817260742e+00 -1.152110195159912109e+01 -4.390038957353681326e-04 -4.095385968685150146e-01 -1.229932755231857300e-01 -6.902994215488433838e-02
1.291000000000000000e+03 1.046489834785461426e+00 -1.232042121887207031e+01 -4.507737467065453529e-04 -4.573681354522705078e-01 -1.373456716537475586e-01 -6.973984092473983765e-02
1.292000000000000000e+03 3.504099845886230469e-01 -9.933280944824218750e+00 -4.980732337571680546e-04 -3.429037630558013916e-01 -1.030205488204956055e-01 -2.282934449613094330e-02
1.293000000000000000e+03 1.048270821571350098e+00 -9.923931121826171875e+00 -1.345471129752695560e-03 -3.158884942531585693e-01 -9.517019242048263550e-02 -6.580025702714920044e-02
1.294000000000000000e+03 1.063566565513610840e+00 -8.318818092346191406e+00 -2.366976579651236534e-03 -2.279004752635955811e-01 -6.908024102449417114e-02 -6.062940135598182678e-02
1.295000000000000000e+03 4.471185684204101562e+00 -2.719440221786499023e+00 -7.103887200355529785e-02 -2.058277279138565063e-02 -2.748649381101131439e-02 -7.528490573167800903e-02
1.296000000000000000e+03 3.681667327880859375e+00 -1.897914290428161621e+00 -5.048056691884994507e-02 -1.397836767137050629e-02 -1.933768019080162048e-02 -4.531108587980270386e-02
1.297000000000000000e+03 2.823703289031982422e+00 -2.688940763473510742e+00 -3.353149071335792542e-02 -2.914621680974960327e-02 -1.880331151187419891e-02 -4.902307689189910889e-02
1.298000000000000000e+03 2.859525680541992188e+00 -1.894017338752746582e+00 -3.290990740060806274e-02 -1.611854322254657745e-02 -1.470853574573993683e-02 -3.415117040276527405e-02
1.299000000000000000e+03 2.585573673248291016e+00 -5.964301109313964844e+00 -2.114153839647769928e-02 -1.089076623320579529e-01 -3.901476040482521057e-02 -1.004067510366439819e-01
1.300000000000000000e+03 1.221841454505920410e+00 -1.893513083457946777e+00 -7.834858261048793793e-03 -1.305694598704576492e-02 -6.267541088163852692e-03 -1.099890284240245819e-02
1.301000000000000000e+03 1.200767755508422852e+00 -2.684452056884765625e+00 -7.912344299256801605e-03 -2.479990571737289429e-02 -9.813674725592136383e-03 -1.951953023672103882e-02
1.302000000000000000e+03 3.481266498565673828e-01 5.073704719543457031e+00 -4.463314326130785048e-05 2.784226089715957642e-03 8.218778530135750771e-04 -3.826981992460787296e-04
1.303000000000000000e+03 4.848835468292236328e+00 3.975202322006225586e+00 1.293001929298043251e-03 -8.415803677053190768e-06 3.853758389595896006e-04 -2.019484527409076691e-03
1.304000000000000000e+03 1.037890434265136719e+00 6.559300899505615234e+00 1.215080992551520467e-04 3.891036612913012505e-03 1.203763415105640888e-03 -1.227053930051624775e-03
1.305000000000000000e+03 1.051821947097778320e+00 1.054017734527587891e+01 -1.802622718969359994e-04 7.721661124378442764e-03 2.262419555336236954e-03 -1.181042985990643501e-03
1.306000000000000000e+03 1.048948764801025391e+00 9.738642692565917969e+00 3.023709905392024666e-05 7.054026704281568527e-03 2.125279279425740242e-03 -1.272660563699901104e-03
1.307000000000000000e+03 1.055637478828430176e+00 1.294903373718261719e+01 -2.226092910859733820e-04 8.798017166554927826e-03 2.572622383013367653e-03 -3.324559947941452265e-04
1.308000000000000000e+03 1.054864525794982910e+00 1.214506626129150391e+01 -3.116827574558556080e-04 8.665094152092933655e-03 2.506023505702614784e-03 -7.363887852989137173e-04
1.309000000000000000e+03 3.515917360782623291e-01 1.228312873840332031e+01 2.797598426695913076e-05 1.186775136739015579e-02 3.568718209862709045e-03 -2.901830011978745461e-04
1.310000000000000000e+03 1.056469798088073730e+00 1.375367259979248047e+01 -4.918898921459913254e-04 8.593640290200710297e-03 2.430525142699480057e-03 1.311757951043546200e-04
1.311000000000000000e+03 1.057597637176513672e+00 1.455846309661865234e+01 -4.363929911050945520e-04 7.964531891047954559e-03 2.258441876620054245e-03 8.138442062772810459e-04
1.312000000000000000e+03 2.465604543685913086e+00 1.590997505187988281e+01 -3.298032097518444061e-03 -7.930579013191163540e-04 -1.227326923981308937e-03 5.701389629393815994e-03
1.313000000000000000e+03 1.061670899391174316e+00 1.697323036193847656e+01 -9.503300534561276436e-04 2.517506945878267288e-03 4.701530851889401674e-04 3.641512943431735039e-03
1.314000000000000000e+03 1.063020706176757812e+00 1.777745056152343750e+01 -9.392817737534642220e-04 -8.391886949539184570e-04 -5.335411406122148037e-04 4.974918905645608902e-03
1.315000000000000000e+03 1.064644217491149902e+00 1.858159637451171875e+01 -1.164369517937302589e-03 -5.134961567819118500e-03 -1.889799255877733231e-03 6.354205310344696045e-03
1.316000000000000000e+03 1.066559553146362305e+00 1.938607406616210938e+01 -1.150590949691832066e-03 -1.046820543706417084e-02 -3.485638881102204323e-03 7.967265322804450989e-03
1.317000000000000000e+03 1.077682256698608398e+00 2.260463905334472656e+01 -1.328265527263283730e-03 -4.332678020000457764e-02 -1.339651364833116531e-02 1.507973577827215195e-02
1.318000000000000000e+03 1.814523506164550781e+01 1.714593505859375000e+01 -1.879891939461231232e-02 -1.355813443660736084e-02 -9.707115590572357178e-03 -2.396546490490436554e-02
1.319000000000000000e+03 1.874728393554687500e+01 1.961169815063476562e+01 -1.777275949716567993e-01 -5.412415415048599243e-02 -6.955552846193313599e-02 -1.114250719547271729e-01
1.320000000000000000e+03 1.849155616760253906e+01 1.879994583129882812e+01 -9.580098092555999756e-02 -4.527970403432846069e-02 -4.232420399785041809e-02 -7.650445401668548584e-02
1.321000000000000000e+03 1.871579742431640625e+01 1.699088811874389648e+00 1.151766409748233855e-04 1.841091871028766036e-04 8.978575351648032665e-05 6.505641504190862179e-04
1.322000000000000000e+03 1.998945236206054688e+01 6.555788516998291016e+00 -7.679337868466973305e-04 2.694549970328807831e-03 5.779849016107618809e-04 -7.453889702446758747e-04
1.323000000000000000e+03 1.882631874084472656e+01 1.135238933563232422e+01 -2.149104839190840721e-03 1.560167036950588226e-02 4.035769496113061905e-03 -8.195044356398284435e-04
1.324000000000000000e+03 1.947830772399902344e+01 8.152598381042480469e+00 -1.044980832375586033e-03 5.857880227267742157e-03 1.443869783543050289e-03 -1.319912262260913849e-03
1.325000000000000000e+03 1.902340698242187500e+01 2.042255592346191406e+01 -3.174837827682495117e-01 -2.426344528794288635e-02 -1.025241687893867493e-01 -1.123373061418533325e-01
1.326000000000000000e+03 2.065897750854492188e+01 -4.085775375366210938e+00 -5.760598778724670410e-01 1.813395880162715912e-02 -1.673777848482131958e-01 3.257293626666069031e-02
1.327000000000000000e+03 1.903828811645507812e+01 -3.990739583969116211e+00 -5.573636889457702637e-01 8.420357480645179749e-03 -1.646829992532730103e-01 -1.384560111910104752e-02
1.328000000000000000e+03 1.984467124938964844e+01 -4.036261081695556641e+00 -5.660511851310729980e-01 8.448961190879344940e-03 -1.672806590795516968e-01 9.337945841252803802e-03
1.329000000000000000e+03 2.401863098144531250e+01 -4.674795150756835938e+00 -6.599307656288146973e-01 1.330968886613845825e-01 -1.580501645803451538e-01 1.190994307398796082e-01
1.330000000000000000e+03 1.863879203796386719e+01 1.379030704498291016e+01 2.651082351803779602e-03 2.290897630155086517e-02 7.668017409741878510e-03 1.387793454341590405e-04
1.331000000000000000e+03 1.861107444763183594e+01 8.875530242919921875e+00 -1.734687131829559803e-03 7.375687826424837112e-03 1.692300196737051010e-03 3.405372262932360172e-04
1.332000000000000000e+03 1.925122833251953125e+01 6.292578697204589844e+00 7.665886660106480122e-04 3.092687111347913742e-03 1.157782739028334618e-03 8.411282324232161045e-04
1.333000000000000000e+03 1.589997768402099609e+01 2.225113153457641602e+00 8.304120856337249279e-04 -5.015079295844770968e-06 2.476190857123583555e-04 1.348967896774411201e-03
1.334000000000000000e+03 2.305852317810058594e+01 1.167450070381164551e+00 2.272229903610423207e-04 1.142541295848786831e-04 1.024431330733932555e-04 1.231216156156733632e-04
1.335000000000000000e+03 2.282262229919433594e+01 2.607945203781127930e+00 -4.909398849122226238e-04 -4.185317957308143377e-04 -2.728415129240602255e-04 -2.555839892011135817e-04
1.336000000000000000e+03 2.150630378723144531e+01 2.297584724426269531e+01 -4.439581930637359619e-01 -9.827135503292083740e-02 -1.626688688993453979e-01 5.872677266597747803e-02
1.337000000000000000e+03 2.119079017639160156e+01 2.120237159729003906e+01 -7.522990107536315918e-01 -1.342184245586395264e-01 -2.659552395343780518e-01 -2.451378852128982544e-01
1.338000000000000000e+03 1.797029876708984375e+01 1.466370201110839844e+01 1.172286807559430599e-03 1.116733904927968979e-02 3.701887791976332664e-03 -1.259581302292644978e-03
1.339000000000000000e+03 1.800864982604980469e+01 1.299278926849365234e+01 2.462819917127490044e-03 1.322634797543287277e-02 4.706750623881816864e-03 1.266960054636001587e-03
1.340000000000000000e+03 1.807504081726074219e+01 1.216118431091308594e+01 -1.998430350795388222e-03 1.320832967758178711e-02 3.362969728186726570e-03 1.460265717469155788e-03
1.341000000000000000e+03 1.880580711364746094e+01 8.057673454284667969e+00 1.168796676211059093e-03 5.555008538067340851e-03 2.017141552641987801e-03 9.543268824927508831e-04
1.342000000000000000e+03 1.799467468261718750e+01 1.549045085906982422e+01 -5.588903557509183884e-03 7.041554898023605347e-03 4.357953730504959822e-04 -4.682085476815700531e-03
1.343000000000000000e+03 1.828605270385742188e+01 1.051192760467529297e+01 -1.635290915146470070e-03 1.034347992390394211e-02 2.612456679344177246e-03 8.081289124675095081e-04
1.344000000000000000e+03 1.843540191650390625e+01 9.690420150756835938e+00 1.701784669421613216e-03 8.867166005074977875e-03 3.170685144141316414e-03 1.265593571588397026e-03
1.345000000000000000e+03 2.187336349487304688e+01 3.822717189788818359e+00 -7.105435943230986595e-04 -5.383277311921119690e-04 -3.746613801922649145e-04 -5.804991233162581921e-04
1.346000000000000000e+03 2.033456230163574219e+01 2.640666663646697998e-01 -3.504249616526067257e-05 -2.101886639138683677e-05 -1.681840876699425280e-05 7.011114939814433455e-05
1.347000000000000000e+03 1.805083656311035156e+01 1.631835937500000000e+01 -3.685658564791083336e-03 -9.428157354705035686e-04 -1.388542237691581249e-03 -1.159539166837930679e-02
1.348000000000000000e+03 1.797430038452148438e+01 1.383127689361572266e+01 -2.761906478554010391e-03 1.317336969077587128e-02 3.123438684269785881e-03 8.189957588911056519e-05
1.349000000000000000e+03 1.878410148620605469e+01 3.449882984161376953e+00 -4.961088416166603565e-04 1.027301186695694923e-03 1.593577035237103701e-04 1.008972292765974998e-03
1.350000000000000000e+03 9.273670196533203125e+00 -2.581588506698608398e+00 -2.251257002353668213e-01 2.348511852324008942e-02 -6.049217283725738525e-02 -8.837717771530151367e-02
1.351000000000000000e+03 6.142300605773925781e+00 -1.878172159194946289e+00 -1.172363981604576111e-01 -4.038501065224409103e-03 -3.638247027993202209e-02 -6.590210646390914917e-02
1.352000000000000000e+03 6.925369262695312500e+00 -2.592917203903198242e+00 -1.400092542171478271e-01 -6.456776754930615425e-04 -4.219648241996765137e-02 -9.092766791582107544e-02
1.353000000000000000e+03 7.724304199218750000e+00 -2.565439462661743164e+00 -1.671546697616577148e-01 7.203930988907814026e-03 -4.798522219061851501e-02 -9.086127579212188721e-02
1.354000000000000000e+03 6.114733695983886719e+00 -2.639775276184082031e+00 -1.149081736803054810e-01 -8.440176956355571747e-03 -3.700450435280799866e-02 -8.966723829507827759e-02
1.355000000000000000e+03 2.039455652236938477e+00 -1.892101049423217773e+00 -1.853671483695507050e-02 -1.636829227209091187e-02 -1.047150231897830963e-02 -2.214403823018074036e-02
1.356000000000000000e+03 1.159496903419494629e+00 -4.281977653503417969e+00 -6.486033089458942413e-03 -6.119348481297492981e-02 -2.030385471880435944e-02 -3.565454110503196716e-02
1.357000000000000000e+03 1.180615186691284180e+00 -3.480834484100341797e+00 -7.278313394635915756e-03 -4.068250581622123718e-02 -1.438824553042650223e-02 -2.787964418530464172e-02
1.358000000000000000e+03 2.408587837219238281e+01 -3.145965814590454102e+00 -6.159690618515014648e-01 8.983978629112243652e-02 -1.578387916088104248e-01 1.512715518474578857e-01
1.359000000000000000e+03 2.492384529113769531e+01 -3.842240810394287109e+00 -6.664407849311828613e-01 1.140348240733146667e-01 -1.657217890024185181e-01 1.833174079656600952e-01
1.360000000000000000e+03 2.233593368530273438e+01 -4.114226818084716797e+00 -6.064106225967407227e-01 6.276381015777587891e-02 -1.630940437316894531e-01 9.524682164192199707e-02
1.361000000000000000e+03 2.318824768066406250e+01 -4.036743164062500000e+00 -6.244837045669555664e-01 8.847760409116744995e-02 -1.608018428087234497e-01 1.215278059244155884e-01
1.362000000000000000e+03 2.404490089416503906e+01 -3.923292875289916992e+00 -6.417955160140991211e-01 1.130442693829536438e-01 -1.586253643035888672e-01 1.543952673673629761e-01
1.363000000000000000e+03 2.095503234863281250e+01 3.985943555831909180e+00 -2.182499447371810675e-04 2.207175130024552345e-04 7.402691721836163197e-07 -3.209579735994338989e-04
1.364000000000000000e+03 2.234734725952148438e+01 2.444318056106567383e+00 1.658190012676641345e-04 3.988578973803669214e-04 1.694030652288347483e-04 1.738628052407875657e-04
1.365000000000000000e+03 5.103941726684570312e+01 -6.040022969245910645e-01 3.991420030593872070e+00 2.272247076034545898e+00 1.879100084304809570e+00 -1.531926512718200684e+00
1.366000000000000000e+03 3.640192985534667969e+00 -4.185308456420898438e+01 -3.820708487182855606e-03 -5.580234527587890625e-01 -1.685532480478286743e-01 -2.187805715948343277e-03
1.367000000000000000e+03 2.111230468750000000e+01 2.231276321411132812e+01 -5.468509793281555176e-01 -8.808418363332748413e-02 -1.904805451631546021e-01 5.275695398449897766e-02
1.368000000000000000e+03 9.897770881652832031e+00 -3.317733526229858398e+00 -2.365187853574752808e-01 3.084999509155750275e-02 -6.170063465833663940e-02 -1.154458150267601013e-01
1.369000000000000000e+03 2.199964904785156250e+01 3.030365228652954102e+00 -3.706460847752168775e-05 -5.955662345513701439e-04 -1.897892652777954936e-04 -1.370415702695026994e-04
1.370000000000000000e+03 1.657297897338867188e+01 1.401113033294677734e+00 7.417199085466563702e-04 2.314439734618645161e-05 2.294592995895072818e-04 9.516151621937751770e-04
1.371000000000000000e+03 5.818322372436523438e+01 -9.705585479736328125e+00 -6.366029977798461914e-01 2.961274050176143646e-02 -1.820970773696899414e-01 1.665589064359664917e-01
1.372000000000000000e+03 5.790317153930664062e+01 -8.803951263427734375e+00 -7.181709408760070801e-01 1.500022411346435547e-01 -1.704506129026412964e-01 -4.989341273903846741e-02
1.373000000000000000e+03 2.104635429382324219e+01 -1.268591403961181641e+01 4.902007579803466797e-01 1.507483422756195068e-02 1.515826731920242310e-01 -2.062020152807235718e-01
1.374000000000000000e+03 2.220406913757324219e+01 -1.363420009613037109e+01 5.860476493835449219e-01 4.738055577035993338e-04 1.759564280509948730e-01 -1.958410143852233887e-01
1.375000000000000000e+03 1.129421424865722656e+01 -3.489205360412597656e+00 -2.856836020946502686e-01 3.940366581082344055e-02 -7.388398051261901855e-02 -1.162928044795989990e-01
1.376000000000000000e+03 9.186465263366699219e+00 -3.269338607788085938e+00 -2.113298028707504272e-01 2.397764101624488831e-02 -5.620564520359039307e-02 -1.153077781200408936e-01
1.377000000000000000e+03 5.958024978637695312e+01 -1.022303104400634766e+01 -4.175480306148529053e-01 6.640624254941940308e-02 -1.053425371646881104e-01 5.774982273578643799e-02
1.378000000000000000e+03 1.869364547729492188e+01 1.040188312530517578e+00 4.308829084038734436e-04 3.722029214259237051e-04 2.409257576800882816e-04 3.481722960714250803e-04
1.379000000000000000e+03 1.970058631896972656e+01 5.401652336120605469e+00 -7.895791204646229744e-04 1.992014702409505844e-03 3.607306862249970436e-04 -2.281122287968173623e-04
1.380000000000000000e+03 1.975474929809570312e+01 2.964683771133422852e+00 -3.903334436472505331e-04 6.054797559045255184e-04 6.454390677390620112e-05 4.497479822020977736e-04
1.381000000000000000e+03 6.239180755615234375e+01 -9.531031608581542969e+00 4.107069969177246094e-01 9.069530367851257324e-01 3.952980041503906250e-01 -8.453741669654846191e-01
1.382000000000000000e+03 6.064299011230468750e+01 -9.768387794494628906e+00 -6.478820741176605225e-02 2.926765978336334229e-01 6.836652010679244995e-02 -2.453157603740692139e-01
1.383000000000000000e+03 6.104464721679687500e+01 -1.066143512725830078e+01 -2.224598973989486694e-01 1.581342071294784546e-01 -1.929770596325397491e-02 -9.796852618455886841e-02
1.384000000000000000e+03 5.924203872680664062e+01 -9.294806480407714844e+00 -3.540420234203338623e-01 1.882988959550857544e-01 -4.972293972969055176e-02 -9.244774281978607178e-02
1.385000000000000000e+03 2.393832588195800781e+01 -1.309281730651855469e+01 5.801091194152832031e-01 1.379639934748411179e-02 1.781716644763946533e-01 -2.155462056398391724e-01
1.386000000000000000e+03 2.318108177185058594e+01 -1.299258136749267578e+01 5.459318161010742188e-01 6.102191284298896790e-03 1.656102091073989868e-01 -2.194265425205230713e-01
1.387000000000000000e+03 1.516330528259277344e+01 2.339625120162963867e+00 1.615425455383956432e-03 -1.620693365111947060e-04 4.360068414825946093e-04 1.444799243472516537e-03
1.388000000000000000e+03 1.880091667175292969e+01 4.165327072143554688e+00 3.094251733273267746e-04 1.427209819667041302e-03 5.209904629737138748e-04 6.075765122659504414e-04
1.389000000000000000e+03 1.441992473602294922e+01 2.454952478408813477e+00 1.400842797011137009e-03 -3.550817782524973154e-04 3.137283201795071363e-04 1.403378089889883995e-03
1.390000000000000000e+03 4.698532104492187500e+01 6.005685806274414062e+00 8.547154068946838379e-01 1.283199596405029297e+01 4.106013774871826172e+00 4.197523593902587891e-01
1.391000000000000000e+03 2.022152519226074219e+01 8.967754840850830078e-01 2.406008134130388498e-04 3.116480947937816381e-04 1.656746753724291921e-04 1.146175272879190743e-04
1.392000000000000000e+03 2.099174308776855469e+01 9.055092334747314453e-01 -8.950156188802793622e-05 -5.231604882283136249e-05 -4.254528539604507387e-05 2.512085666239727288e-05
1.393000000000000000e+03 2.001925849914550781e+01 -1.221690368652343750e+01 4.647201299667358398e-01 4.540782049298286438e-02 1.530383825302124023e-01 -1.978983581066131592e-01
1.394000000000000000e+03 2.507542800903320312e+01 2.229269790649414062e+01 -6.446012854576110840e-01 2.018252760171890259e-02 -1.873256266117095947e-01 4.135857895016670227e-02
1.395000000000000000e+03 2.171578979492187500e+01 2.397712516784667969e+01 -3.328146338462829590e-01 -8.480667322874069214e-02 -1.252863854169845581e-01 8.057084679603576660e-02
1.396000000000000000e+03 2.628985595703125000e+01 -3.249416732788085938e+01 1.336872875690460205e-01 2.274951785802841187e-01 1.083547398447990417e-01 1.996527314186096191e-01
1.397000000000000000e+03 2.186000251770019531e+01 -3.081134414672851562e+01 -1.178384944796562195e-01 9.406849741935729980e-02 -7.130998186767101288e-03 -1.355434805154800415e-01
1.398000000000000000e+03 1.418018627166748047e+01 -3.988305807113647461e+00 -3.786781132221221924e-01 4.187447205185890198e-02 -1.010410860180854797e-01 -1.082689166069030762e-01
1.399000000000000000e+03 1.199714183807373047e+01 -3.600949525833129883e+00 -3.112314939498901367e-01 4.189066961407661438e-02 -8.080224692821502686e-02 -1.160055175423622131e-01
1.400000000000000000e+03 1.271026611328125000e+01 -3.723205089569091797e+00 -3.336276710033416748e-01 4.246852546930313110e-02 -8.734773844480514526e-02 -1.143913716077804565e-01
1.401000000000000000e+03 3.543250274658203125e+01 -5.830701828002929688e+00 -1.248836278915405273e+00 5.330083370208740234e-01 -2.147483974695205688e-01 2.370770275592803955e-01
1.402000000000000000e+03 3.700714492797851562e+01 -5.317421436309814453e+00 -7.956460714340209961e-01 1.334370136260986328e+00 1.616172045469284058e-01 9.425931572914123535e-01
1.403000000000000000e+03 1.211503314971923828e+01 2.143310546875000000e+00 2.450779313221573830e-03 -5.197474965825676918e-04 5.793095333501696587e-04 7.736426196061074734e-04
1.404000000000000000e+03 1.750867080688476562e+01 1.131066131591796875e+01 -1.745234592817723751e-03 7.878056727349758148e-03 1.839846605435013771e-03 2.253422047942876816e-03
1.405000000000000000e+03 6.854388427734375000e+01 -2.404951858520507812e+01 -5.388215780258178711e-01 8.522753715515136719e+00 2.395179510116577148e+00 7.001590728759765625e-01
1.406000000000000000e+03 6.699230194091796875e+01 -2.340908050537109375e+01 7.443425655364990234e-01 5.582060337066650391e+00 1.897920846939086914e+00 2.381659269332885742e+00
1.407000000000000000e+03 3.100863838195800781e+01 -1.390888214111328125e+01 9.007621407508850098e-01 -3.037645667791366577e-02 2.611157000064849854e-01 5.983863025903701782e-03
1.408000000000000000e+03 3.069133949279785156e+01 -7.092550277709960938e+00 -1.137327909469604492e+00 -4.279539287090301514e-01 -4.695845246315002441e-01 -2.106244266033172607e-01
1.409000000000000000e+03 6.349636459350585938e+01 2.359626388549804688e+01 -1.255857586860656738e+00 7.478334307670593262e-01 -1.524072289466857910e-01 -7.128909230232238770e-01
1.410000000000000000e+03 6.257067871093750000e+01 5.592860221862792969e+00 -2.036186158657073975e-01 6.417551636695861816e-01 1.314409524202346802e-01 2.060766071081161499e-01
1.411000000000000000e+03 6.487660217285156250e+01 6.758465290069580078e+00 -2.717630565166473389e-02 2.688701152801513672e+00 7.984575033187866211e-01 1.037740588188171387e+00
1.412000000000000000e+03 6.064297103881835938e+01 2.095119476318359375e+00 1.912136226892471313e-01 3.698649704456329346e-01 1.683235764503479004e-01 -2.301458083093166351e-02
1.413000000000000000e+03 6.208264923095703125e+01 -1.019176769256591797e+01 2.473015189170837402e-01 5.306150913238525391e-01 2.333749979734420776e-01 -5.604110360145568848e-01
1.414000000000000000e+03 3.164211654663085938e+01 -1.477688980102539062e+01 8.670086264610290527e-01 2.727225609123706818e-02 2.682842612266540527e-01 -1.630259305238723755e-02
1.415000000000000000e+03 3.344382476806640625e+01 -1.303416442871093750e+01 8.215219378471374512e-01 6.910529136657714844e-01 4.537724554538726807e-01 -7.645764201879501343e-02
1.416000000000000000e+03 3.780209732055664062e+01 -5.048089981079101562e+00 -5.556269288063049316e-01 2.088521480560302734e+00 4.598684012889862061e-01 1.549970507621765137e+00
1.417000000000000000e+03 6.011652755737304688e+01 2.557443141937255859e+00 2.627796865999698639e-02 8.687575906515121460e-02 3.394611924886703491e-02 -1.137445345520973206e-01
1.418000000000000000e+03 2.643264961242675781e+01 -4.884906291961669922e+00 -9.227224588394165039e-01 1.010345742106437683e-01 -2.465063631534576416e-01 1.696989685297012329e-01
1.419000000000000000e+03 4.604369735717773438e+01 -1.641709327697753906e+01 8.613433241844177246e-01 1.320397377014160156e+01 4.219594955444335938e+00 1.630632162094116211e+00
1.420000000000000000e+03 4.466544342041015625e+01 -1.711888504028320312e+01 9.748291373252868652e-01 1.114041042327880859e+01 3.634572029113769531e+00 1.094410777091979980e+00
1.421000000000000000e+03 5.131523513793945312e+01 -2.921931266784667969e+01 -4.644283652305603027e-01 1.553189516067504883e+00 3.266283571720123291e-01 -1.018285036087036133e+00
1.422000000000000000e+03 6.131890869140625000e+01 3.590801954269409180e+00 -1.249732002615928650e-01 4.448618590831756592e-01 9.596659243106842041e-02 2.116964757442474365e-02
1.423000000000000000e+03 5.482178497314453125e+01 2.309893035888671875e+01 -2.132639586925506592e-01 2.094840288162231445e+00 5.644729137420654297e-01 1.931582450866699219e+00
1.424000000000000000e+03 6.867276763916015625e+01 1.572433090209960938e+01 6.953003406524658203e-01 1.385483646392822266e+01 4.365040779113769531e+00 6.017516255378723145e-01
1.425000000000000000e+03 7.033964538574218750e+01 1.641037559509277344e+01 1.280639886856079102e+00 1.115487480163574219e+01 3.730654478073120117e+00 3.748996183276176453e-02
1.426000000000000000e+03 6.191506195068359375e+01 4.103481769561767578e+00 -1.579918712377548218e-01 6.650668978691101074e-01 1.521225124597549438e-01 1.307493299245834351e-01
1.427000000000000000e+03 5.051490402221679688e+01 1.756420516967773438e+01 1.783039689064025879e+00 8.544881820678710938e+00 3.098376512527465820e+00 3.121691465377807617e+00
1.428000000000000000e+03 1.651564598083496094e+01 -4.400675296783447266e+00 -4.354164898395538330e-01 3.571517020463943481e-02 -1.199103966355323792e-01 -8.541303873062133789e-02
1.429000000000000000e+03 1.733360862731933594e+01 -4.530964851379394531e+00 -4.469677805900573730e-01 3.124043531715869904e-02 -1.247182041406631470e-01 -7.044667750597000122e-02
1.430000000000000000e+03 1.571947956085205078e+01 -4.262174129486083984e+00 -4.177938699722290039e-01 3.777724131941795349e-02 -1.140049844980239868e-01 -9.491340070962905884e-02
1.431000000000000000e+03 5.988714218139648438e+01 2.314889907836914062e+01 -2.359245300292968750e+00 -9.413642436265945435e-02 -7.360144853591918945e-01 3.288129568099975586e-01
1.432000000000000000e+03 5.722812652587890625e+01 2.365410423278808594e+01 -9.128261208534240723e-01 6.895200610160827637e-01 -6.699182093143463135e-02 1.023228764533996582e+00
1.433000000000000000e+03 4.565154647827148438e+01 -1.464143085479736328e+01 1.064392685890197754e+00 1.157994747161865234e+01 3.793302059173583984e+00 1.592486023902893066e+00
1.434000000000000000e+03 9.733424186706542969e+00 2.439512729644775391e+00 2.927927765995264053e-03 -4.832431732211261988e-04 7.334054098464548588e-04 -4.900038766209036112e-05
1.435000000000000000e+03 7.287265300750732422e+00 3.212783813476562500e+00 2.218903973698616028e-03 -6.016842671670019627e-04 4.851659468840807676e-04 -1.227230532094836235e-03
1.436000000000000000e+03 6.489217281341552734e+00 3.232146978378295898e+00 1.888555008918046951e-03 -5.176221602596342564e-04 4.112798487767577171e-04 -1.676789601333439350e-03
1.437000000000000000e+03 5.695521354675292969e+00 3.250146150588989258e+00 1.773749361746013165e-03 -2.463489945512264967e-04 4.582201072480529547e-04 -1.694225706160068512e-03
1.438000000000000000e+03 5.754673480987548828e+00 2.551712036132812500e+00 1.947802375070750713e-03 -2.097554242936894298e-04 5.214140983298420906e-04 -1.583681558258831501e-03
1.439000000000000000e+03 5.638510704040527344e+00 3.950268268585205078e+00 1.391222001984715462e-03 -4.327906644903123379e-04 2.875294012483209372e-04 -2.066792221739888191e-03
1.440000000000000000e+03 4.125233173370361328e+00 3.289531946182250977e+00 1.214209129102528095e-03 2.702272322494536638e-04 4.453308938536792994e-04 -1.799309044145047665e-03
1.441000000000000000e+03 4.907044887542724609e+00 3.268609285354614258e+00 1.392195001244544983e-03 -6.951297109480947256e-05 3.968046221416443586e-04 -1.925221644341945648e-03
1.442000000000000000e+03 2.543227434158325195e+00 4.091312885284423828e+00 4.347777285147458315e-04 1.092467806302011013e-03 4.581736866384744644e-04 -1.794737647287547588e-03
1.443000000000000000e+03 9.721759796142578125e+00 3.096473932266235352e+00 2.329329028725624084e-03 -8.634036639705300331e-04 4.397775919642299414e-04 -2.345370594412088394e-04
1.444000000000000000e+03 1.901535606384277344e+01 7.213844776153564453e+00 -1.678509172052145004e-03 4.293177742511034012e-03 7.844005594961345196e-04 5.900271935388445854e-05
1.445000000000000000e+03 1.834934043884277344e+01 5.318902969360351562e+00 7.805149652995169163e-04 2.116696676239371300e-03 8.691635448485612869e-04 1.070866477675735950e-03
1.446000000000000000e+03 6.930841827392578125e+01 1.942195129394531250e+01 2.352577686309814453e+00 1.070784282684326172e+01 3.918126106262207031e+00 -6.373472809791564941e-01
1.447000000000000000e+03 6.816070556640625000e+01 2.065771675109863281e+01 2.800724506378173828e-01 1.049537944793701172e+01 3.232635498046875000e+00 -1.633476018905639648e+00
1.448000000000000000e+03 1.213317203521728516e+01 2.814720392227172852e+00 2.515052678063511848e-03 -7.831817492842674255e-04 5.195612902753055096e-04 1.140412176027894020e-03
1.449000000000000000e+03 1.134507083892822266e+01 2.925469636917114258e+00 2.229239093139767647e-03 -8.392668678425252438e-04 4.169916792307049036e-04 6.222696974873542786e-04
1.450000000000000000e+03 1.366857242584228516e+01 2.575090646743774414e+00 2.151701133698225021e-03 -5.400772206485271454e-04 4.834872088395059109e-04 1.477446290664374828e-03
1.451000000000000000e+03 1.290619564056396484e+01 2.696134805679321289e+00 1.915063126944005489e-03 -6.767699378542602062e-04 3.714879567269235849e-04 1.182020176202058792e-03
1.452000000000000000e+03 5.728588867187500000e+01 -8.497924804687500000e+00 -8.877906203269958496e-01 1.371740251779556274e-01 -2.251849770545959473e-01 -7.210828363895416260e-02
1.453000000000000000e+03 4.875666427612304688e+01 1.230819320678710938e+01 9.981499314308166504e-01 1.086055946350097656e+01 3.557612657546997070e+00 2.667201519012451172e+00
1.454000000000000000e+03 4.183639144897460938e+01 1.170181655883789062e+01 1.227642536163330078e+00 9.403043746948242188e+00 3.189205884933471680e+00 -2.455341815948486328e+00
1.455000000000000000e+03 6.710856628417968750e+01 9.162455558776855469e+00 2.878986299037933350e-01 6.310528278350830078e+00 1.979528069496154785e+00 1.667011380195617676e+00
1.456000000000000000e+03 4.251591873168945312e+01 8.996379852294921875e+00 1.930862069129943848e+00 1.473778152465820312e+01 5.000593185424804688e+00 -2.373317003250122070e+00
1.457000000000000000e+03 2.683177185058593750e+01 -1.416648769378662109e+01 9.049515128135681152e-01 -6.038001738488674164e-03 2.696740627288818359e-01 -1.449405103921890259e-01
1.458000000000000000e+03 6.995861816406250000e+01 1.731792640686035156e+01 1.360698342323303223e+00 1.146111679077148438e+01 3.846544504165649414e+00 -2.153615504503250122e-01
1.459000000000000000e+03 4.761767959594726562e+01 4.333708286285400391e+00 1.068412899971008301e+00 1.301857852935791016e+01 4.226097106933593750e+00 -7.476305961608886719e-01
1.460000000000000000e+03 4.773796463012695312e+01 1.231814146041870117e+00 2.419165372848510742e+00 9.539896965026855469e+00 3.587718725204467773e+00 -1.389652609825134277e+00
1.461000000000000000e+03 6.316980743408203125e+01 6.116874694824218750e+00 -1.047107353806495667e-01 9.505228996276855469e-01 2.537436485290527344e-01 3.913904726505279541e-01
1.462000000000000000e+03 2.449523162841796875e+01 -1.391489028930664062e+01 7.502534985542297363e-01 2.167117409408092499e-02 2.315774112939834595e-01 -1.733405292034149170e-01
1.463000000000000000e+03 2.338904571533203125e+01 -1.223760223388671875e+01 4.357556998729705811e-01 1.357391476631164551e-02 1.347988843917846680e-01 -2.343198060989379883e-01
1.464000000000000000e+03 3.602040863037109375e+01 -4.902517795562744141e+00 -1.455626249313354492e+00 3.696472048759460449e-01 -3.257937431335449219e-01 5.994597449898719788e-02
1.465000000000000000e+03 3.622111892700195312e+01 -5.574798583984375000e+00 -1.059430122375488281e+00 8.671088814735412598e-01 -5.769636109471321106e-02 5.101349949836730957e-01
1.466000000000000000e+03 1.860189437866210938e+01 -2.938103675842285156e+01 9.112571924924850464e-02 2.577495872974395752e-01 1.046625897288322449e-01 -2.233870178461074829e-01
1.467000000000000000e+03 1.972508239746093750e+01 -3.123646736145019531e+01 -1.754055172204971313e-02 2.287719994783401489e-01 6.336943060159683228e-02 -2.358900755643844604e-01
1.468000000000000000e+03 1.494088077545166016e+01 -4.124396800994873047e+00 -4.014737308025360107e-01 4.122200608253479004e-02 -1.080755218863487244e-01 -1.031597331166267395e-01
1.469000000000000000e+03 4.367367553710937500e+01 5.457548618316650391e+00 1.025051355361938477e+00 1.641939353942871094e+01 5.233333110809326172e+00 -1.924550086259841919e-01
1.470000000000000000e+03 5.808892440795898438e+01 2.379066658020019531e+01 -1.168497800827026367e+00 4.366534054279327393e-01 -2.195533215999603271e-01 8.464375734329223633e-01
1.471000000000000000e+03 5.629438400268554688e+01 -7.202298045158386230e-01 1.786492109298706055e+00 -4.207753241062164307e-01 4.097150266170501709e-01 -5.761772990226745605e-01
1.472000000000000000e+03 5.363008117675781250e+01 -6.914765357971191406e+00 -2.066404342651367188e+00 -4.987298548221588135e-01 -7.695402503013610840e-01 -1.147421002388000488e+00
1.473000000000000000e+03 6.946556854248046875e+01 1.616464042663574219e+01 9.374310374259948730e-01 1.264444160461425781e+01 4.074561595916748047e+00 2.919941954314708710e-02
1.474000000000000000e+03 5.079893112182617188e+01 1.835296058654785156e+01 1.827028036117553711e+00 8.029513359069824219e+00 2.956962347030639648e+00 3.038733243942260742e+00
1.475000000000000000e+03 4.960924148559570312e+01 1.693632316589355469e+01 1.380804538726806641e+00 8.673968315124511719e+00 3.016431808471679688e+00 2.726940870285034180e+00
1.476000000000000000e+03 6.416247558593750000e+01 -2.628864479064941406e+01 -5.377712249755859375e-01 1.331736326217651367e+00 2.381895333528518677e-01 3.847768008708953857e-01
1.477000000000000000e+03 6.801428222656250000e+01 1.180993270874023438e+01 1.347983479499816895e+00 9.850378990173339844e+00 3.359508752822875977e+00 2.121687889099121094e+00
1.478000000000000000e+03 3.726686477661132812e+01 -2.069992256164550781e+01 5.159780383110046387e-01 5.871665954589843750e+00 1.916293263435363770e+00 7.113120555877685547e-01
1.479000000000000000e+03 3.653938674926757812e+01 -2.066994285583496094e+01 2.431859076023101807e-01 5.586972236633300781e+00 1.749047398567199707e+00 4.307349026203155518e-01
1.480000000000000000e+03 5.076764678955078125e+01 -2.998226356506347656e+01 -5.628929138183593750e-01 2.162304401397705078e+00 4.798234403133392334e-01 -1.289001703262329102e+00
1.481000000000000000e+03 4.958876800537109375e+01 -8.167101860046386719e+00 -2.753814935684204102e+00 3.289509773254394531e+00 1.607084423303604126e-01 6.344079375267028809e-01
1.482000000000000000e+03 4.498860168457031250e+01 4.427998065948486328e+00 1.681237339973449707e+00 1.441794204711914062e+01 4.829753875732421875e+00 2.192988246679306030e-01
1.483000000000000000e+03 4.846557617187500000e+01 -9.839826583862304688e+00 -1.482695341110229492e+00 5.565938949584960938e+00 1.224973082542419434e+00 1.154978871345520020e+00
1.484000000000000000e+03 3.245553207397460938e+01 -1.500291442871093750e+01 8.165591955184936523e-01 1.191221997141838074e-01 2.807044088840484619e-01 -5.596468225121498108e-02
1.485000000000000000e+03 1.730707359313964844e+01 1.385595893859863281e+01 2.068106696242466569e-04 5.096292588859796524e-03 1.590931089594960213e-03 -6.203453522175550461e-04
1.486000000000000000e+03 4.883689117431640625e+01 1.475271320343017578e+01 1.027612447738647461e+00 9.822743415832519531e+00 3.255106925964355469e+00 2.546363115310668945e+00
1.487000000000000000e+03 3.463175201416015625e+01 -6.080977916717529297e+00 -1.361209154129028320e+00 2.324038445949554443e-01 -3.386415839195251465e-01 4.957379400730133057e-02
1.488000000000000000e+03 1.435046482086181641e+01 -2.648845863342285156e+01 2.209054380655288696e-01 4.310592710971832275e-01 1.955894082784652710e-01 -3.021116256713867188e-01
1.489000000000000000e+03 3.435352325439453125e+01 -1.512529754638671875e+01 6.889742612838745117e-01 1.102214217185974121e+00 5.373565554618835449e-01 -4.034010469913482666e-01
1.490000000000000000e+03 7.027457427978515625e+01 -1.922113990783691406e+01 1.748763680458068848e+00 1.181393432617187500e+01 4.068809509277343750e+00 -3.030235469341278076e-01
1.491000000000000000e+03 4.755124282836914062e+01 -2.675418281555175781e+01 5.038806796073913574e-01 5.370569705963134766e+00 1.762335062026977539e+00 -1.814438581466674805e+00
1.492000000000000000e+03 3.721742248535156250e+01 -2.162427711486816406e+01 5.329320430755615234e-01 6.189877986907958984e+00 2.016842842102050781e+00 1.084531068801879883e+00
1.493000000000000000e+03 1.488858318328857422e+01 -2.711764144897460938e+01 2.050854563713073730e-01 3.983233273029327393e-01 1.810226440429687500e-01 -2.876250743865966797e-01
1.494000000000000000e+03 3.753540039062500000e+01 1.671460914611816406e+01 9.966963529586791992e-01 2.559620857238769531e+00 1.066895127296447754e+00 -1.606844544410705566e+00
1.495000000000000000e+03 6.953007507324218750e+01 -1.951655769348144531e+01 1.826652765274047852e+00 1.288580799102783203e+01 4.413738250732421875e+00 2.908869981765747070e-01
1.496000000000000000e+03 3.162109565734863281e+01 2.027696228027343750e+01 9.300215542316436768e-02 4.480851590633392334e-01 1.623262017965316772e-01 -4.137341082096099854e-01
1.497000000000000000e+03 3.078197288513183594e+01 2.222585678100585938e+01 -1.366590004181489348e-04 5.660970211029052734e-01 1.697881072759628296e-01 -5.016879439353942871e-01
1.498000000000000000e+03 7.837536621093750000e+01 4.093878173828125000e+01 -2.796426706481724977e-04 7.758527755737304688e+00 2.327474355697631836e+00 1.356042921543121338e-02
1.499000000000000000e+03 7.895426940917968750e+01 1.976212501525878906e+01 3.048331849277019501e-02 6.121297836303710938e+00 1.845534443855285645e+00 2.772383689880371094e-01
1.500000000000000000e+03 7.826798248291015625e+01 1.824360656738281250e+01 1.180445700883865356e-01 6.213084697723388672e+00 1.899338722229003906e+00 2.525727748870849609e-01
1.501000000000000000e+03 7.754978942871093750e+01 3.836262130737304688e+01 2.022393234074115753e-02 7.613351821899414062e+00 2.290072679519653320e+00 -7.825081050395965576e-02
1.502000000000000000e+03 7.751889801025390625e+01 3.744826889038085938e+01 1.097011286765336990e-02 7.650490760803222656e+00 2.298438310623168945e+00 -7.053935527801513672e-02
1.503000000000000000e+03 7.889502716064453125e+01 3.094423294067382812e+01 -1.657800935208797455e-02 8.087866783142089844e+00 2.421386718750000000e+00 3.915159404277801514e-02
1.504000000000000000e+03 7.816006469726562500e+01 2.945221138000488281e+01 -6.207360327243804932e-02 7.860465526580810547e+00 2.339517593383789062e+00 1.316846013069152832e-01
1.505000000000000000e+03 7.891773986816406250e+01 2.136885833740234375e+01 1.337637659162282944e-02 6.513007640838623047e+00 1.957915306091308594e+00 3.406714797019958496e-01
1.506000000000000000e+03 7.822811126708984375e+01 2.061847496032714844e+01 4.990279674530029297e-02 6.581704139709472656e+00 1.989482045173645020e+00 4.699012935161590576e-01
1.507000000000000000e+03 7.812778472900390625e+01 2.791448020935058594e+01 -7.318794727325439453e-02 7.765298366546630859e+00 2.307633161544799805e+00 2.290498763322830200e-01
1.508000000000000000e+03 7.736257934570312500e+01 2.479712677001953125e+01 -1.127751693129539490e-01 7.432004451751708984e+00 2.195768833160400391e+00 5.455386638641357422e-01
1.509000000000000000e+03 7.816081237792968750e+01 2.224524116516113281e+01 5.620409268885850906e-03 6.911256790161132812e+00 2.075063228607177734e+00 5.223881602287292480e-01
1.510000000000000000e+03 7.889044189453125000e+01 2.298568534851074219e+01 -3.312366781756281853e-03 6.933349609375000000e+00 2.079011201858520508e+00 3.491344749927520752e-01
1.511000000000000000e+03 7.735135650634765625e+01 1.593305683135986328e+01 2.737767398357391357e-01 6.566051006317138672e+00 2.051948308944702148e+00 -6.206529214978218079e-02
1.512000000000000000e+03 7.807223510742187500e+01 3.251806640625000000e+01 -3.979242965579032898e-02 7.881469249725341797e+00 2.352503061294555664e+00 -4.755814559757709503e-03
1.513000000000000000e+03 7.815286254882812500e+01 1.585052013397216797e+01 1.354138404130935669e-01 6.171713829040527344e+00 1.892138361930847168e+00 -5.142108723521232605e-02
1.514000000000000000e+03 7.892920684814453125e+01 1.256400775909423828e+01 3.881366550922393799e-02 6.173193931579589844e+00 1.863602280616760254e+00 -2.781974077224731445e-01
1.515000000000000000e+03 7.820325469970703125e+01 1.104781436920166016e+01 3.904706239700317383e-02 6.777507305145263672e+00 2.044966459274291992e+00 -5.118614435195922852e-01
1.516000000000000000e+03 7.820190429687500000e+01 1.344231510162353516e+01 1.030553355813026428e-01 6.350490570068359375e+00 1.936063766479492188e+00 -3.401776850223541260e-01
1.517000000000000000e+03 7.892677307128906250e+01 1.336336612701416016e+01 3.342025354504585266e-02 6.018301010131835938e+00 1.815516352653503418e+00 -2.333371490240097046e-01
1.518000000000000000e+03 7.820365142822265625e+01 1.024887847900390625e+01 2.372171729803085327e-02 6.944357872009277344e+00 2.090423822402954102e+00 -5.331120491027832031e-01
1.519000000000000000e+03 7.884752655029296875e+01 3.251697540283203125e+01 -1.274179760366678238e-02 8.088703155517578125e+00 2.422788381576538086e+00 -4.792771069332957268e-04
1.520000000000000000e+03 7.894169616699218750e+01 5.366852760314941406e+00 -2.574226073920726776e-02 8.028628349304199219e+00 2.400865793228149414e+00 -2.588577568531036377e-01
1.521000000000000000e+03 7.823996734619140625e+01 3.880197763442993164e+00 -6.386314332485198975e-02 8.147377014160156250e+00 2.425054311752319336e+00 -2.908810377120971680e-01
1.522000000000000000e+03 7.884651184082031250e+01 -2.992691993713378906e+01 -3.784116357564926147e-02 9.368816375732421875e+00 2.799292564392089844e+00 -2.908303439617156982e-01
1.523000000000000000e+03 7.705399322509765625e+01 -3.283777618408203125e+01 -1.292703896760940552e-01 9.079504013061523438e+00 2.685070037841796875e+00 -2.670516967773437500e-01
1.524000000000000000e+03 7.891162109375000000e+01 -2.270167350769042969e+01 2.058267220854759216e-02 6.954383850097656250e+00 2.092489957809448242e+00 -5.004841685295104980e-01
1.525000000000000000e+03 7.814545440673828125e+01 -2.421572494506835938e+01 -1.974508631974458694e-03 7.702153682708740234e+00 2.310053586959838867e+00 -7.912151217460632324e-01
1.526000000000000000e+03 7.793127441406250000e+01 -3.781305313110351562e+01 -2.385427430272102356e-02 9.548062324523925781e+00 2.857262372970581055e+00 -4.984468966722488403e-02
1.527000000000000000e+03 7.875514984130859375e+01 -3.629895782470703125e+01 -2.219082228839397430e-02 9.969412803649902344e+00 2.984166383743286133e+00 -5.817127600312232971e-02
1.528000000000000000e+03 7.893266296386718750e+01 -1.547941112518310547e+01 5.944653227925300598e-02 5.792665958404541016e+00 1.755633711814880371e+00 1.623125672340393066e-01
1.529000000000000000e+03 7.751358032226562500e+01 -1.850881004333496094e+01 3.003308475017547607e-01 6.672996997833251953e+00 2.091998338699340820e+00 -3.077890574932098389e-01
1.530000000000000000e+03 7.893300628662109375e+01 -8.252241134643554688e+00 -2.242980338633060455e-02 7.604952812194824219e+00 2.274756908416748047e+00 3.253684043884277344e-01
1.531000000000000000e+03 7.749650573730468750e+01 -1.044324398040771484e+01 -1.544299721717834473e-02 7.312397003173828125e+00 2.189086198806762695e+00 6.907990574836730957e-01
1.532000000000000000e+03 7.893425750732421875e+01 -1.836239218711853027e+00 -2.763318456709384918e-02 8.605784416198730469e+00 2.573445320129394531e+00 5.659242346882820129e-02
1.533000000000000000e+03 7.822774505615234375e+01 -2.518887042999267578e+00 -6.534653902053833008e-02 8.361585617065429688e+00 2.488871812820434570e+00 1.302618235349655151e-01
1.534000000000000000e+03 7.812102508544921875e+01 2.712080764770507812e+01 -7.398530095815658569e-02 7.692743301391601562e+00 2.285627365112304688e+00 2.820505201816558838e-01
1.535000000000000000e+03 7.794477081298828125e+01 3.414043426513671875e+01 -2.416997775435447693e-02 7.828980445861816406e+00 2.341443300247192383e+00 -4.163000360131263733e-02
1.536000000000000000e+03 7.800495910644531250e+01 3.331960678100585938e+01 -2.843366749584674835e-02 7.852295398712158203e+00 2.347158670425415039e+00 -2.867513708770275116e-02
1.537000000000000000e+03 7.811975097656250000e+01 2.631768989562988281e+01 -7.926071435213088989e-02 7.606389522552490234e+00 2.258138656616210938e+00 3.437283635139465332e-01
1.538000000000000000e+03 7.826433563232421875e+01 1.982041931152343750e+01 7.565976679325103760e-02 6.427019596099853516e+00 1.950803875923156738e+00 4.045280814170837402e-01
1.539000000000000000e+03 7.820745849609375000e+01 9.451497077941894531e+00 -2.298791892826557159e-03 7.120399475097656250e+00 2.135430335998535156e+00 -5.424892306327819824e-01
1.540000000000000000e+03 7.893659210205078125e+01 1.371100664138793945e+00 -2.748367004096508026e-02 8.575424194335937500e+00 2.564382314682006836e+00 -8.319900929927825928e-02
1.541000000000000000e+03 7.821404266357421875e+01 -1.055277061462402344e+01 -9.789196774363517761e-03 7.130478858947753906e+00 2.136206865310668945e+00 5.553085803985595703e-01
1.542000000000000000e+03 7.821827697753906250e+01 -1.779720306396484375e+01 1.697674095630645752e-01 6.204911708831787109e+00 1.912403821945190430e+00 -1.217583343386650085e-01
1.543000000000000000e+03 7.886680603027343750e+01 -2.672728729248046875e+01 -2.865124307572841644e-02 8.492165565490722656e+00 2.539054393768310547e+00 -4.640372097492218018e-01
1.544000000000000000e+03 7.876016235351562500e+01 -3.390091705322265625e+01 -1.812917739152908325e-02 9.864850044250488281e+00 2.954016208648681641e+00 -1.061851903796195984e-01
1.545000000000000000e+03 7.852617645263671875e+01 4.010401535034179688e+01 1.457877829670906067e-02 7.770369529724121094e+00 2.335484504699707031e+00 -1.222465932369232178e-02
1.546000000000000000e+03 7.702824401855468750e+01 4.045857620239257812e+01 4.250273853540420532e-02 7.386658191680908203e+00 2.228748321533203125e+00 -5.633957684040069580e-02
1.547000000000000000e+03 7.791718292236328125e+01 3.497190093994140625e+01 -1.458023581653833389e-02 7.818548202514648438e+00 2.341190338134765625e+00 -6.111315265297889709e-02
1.548000000000000000e+03 7.816450500488281250e+01 3.021560668945312500e+01 -5.153496190905570984e-02 7.889047622680664062e+00 2.351253747940063477e+00 8.509783446788787842e-02
1.549000000000000000e+03 7.814257049560546875e+01 2.869033241271972656e+01 -6.363845616579055786e-02 7.818477630615234375e+00 2.326451778411865234e+00 1.737809181213378906e-01
1.550000000000000000e+03 7.812397003173828125e+01 2.469888877868652344e+01 -6.418404728174209595e-02 7.377101421356201172e+00 2.193875074386596680e+00 4.487107694149017334e-01
1.551000000000000000e+03 7.822730255126953125e+01 1.745334815979003906e+01 1.343863904476165771e-01 6.165936946868896484e+00 1.890097022056579590e+00 1.606729626655578613e-01
1.552000000000000000e+03 7.893524932861328125e+01 5.692448019981384277e-01 -2.639463543891906738e-02 8.617212295532226562e+00 2.577245473861694336e+00 -4.933415353298187256e-02
1.553000000000000000e+03 7.822776031494140625e+01 -9.153861999511718750e-01 -6.551724672317504883e-02 8.413912773132324219e+00 2.504518508911132812e+00 2.607558481395244598e-02
1.554000000000000000e+03 7.824395751953125000e+01 6.262633800506591797e+00 -5.414639413356781006e-02 7.781100273132324219e+00 2.318086147308349609e+00 -4.388214349746704102e-01
1.555000000000000000e+03 7.875568389892578125e+01 -3.469269561767578125e+01 -1.865434460341930389e-02 9.908884048461914062e+00 2.967068910598754883e+00 -8.294863998889923096e-02
1.556000000000000000e+03 7.789933013916015625e+01 -3.618067169189453125e+01 -2.056770399212837219e-02 9.528209686279296875e+00 2.852292537689208984e+00 -7.424686849117279053e-02
1.557000000000000000e+03 7.886460113525390625e+01 -2.752629852294921875e+01 -3.332953155040740967e-02 8.750250816345214844e+00 2.615076303482055664e+00 -4.259568154811859131e-01
1.558000000000000000e+03 7.810292816162109375e+01 -2.904139900207519531e+01 -9.576902538537979126e-02 8.982294082641601562e+00 2.665957689285278320e+00 -5.062782764434814453e-01
1.559000000000000000e+03 7.892481994628906250e+01 -2.109640312194824219e+01 4.580490663647651672e-02 6.380557060241699219e+00 1.927908539772033691e+00 -4.073119461536407471e-01
1.560000000000000000e+03 7.818808746337890625e+01 -2.259502792358398438e+01 6.245055049657821655e-02 7.183835029602050781e+00 2.173885583877563477e+00 -7.427566647529602051e-01
1.561000000000000000e+03 7.893396759033203125e+01 -1.387345504760742188e+01 3.888671100139617920e-02 6.072233676910400391e+00 1.833335995674133301e+00 2.847285866737365723e-01
1.562000000000000000e+03 7.822628021240234375e+01 -1.537697696685791016e+01 1.320945173501968384e-01 6.250457763671875000e+00 1.914765715599060059e+00 2.532754242420196533e-01
1.563000000000000000e+03 7.893333435058593750e+01 -6.648144721984863281e+00 -2.745648846030235291e-02 7.982041835784912109e+00 2.386375665664672852e+00 2.653203308582305908e-01
1.564000000000000000e+03 7.822354125976562500e+01 -7.331088542938232422e+00 -5.922637879848480225e-02 7.793786525726318359e+00 2.320368051528930664e+00 4.382418394088745117e-01
1.565000000000000000e+03 7.777871704101562500e+01 3.654883956909179688e+01 -4.590542986989021301e-03 7.718712806701660156e+00 2.314236640930175781e+00 -7.842630892992019653e-02
1.566000000000000000e+03 7.821597290039062500e+01 8.654825210571289062e+00 -1.391154993325471878e-02 7.291116714477539062e+00 2.183161497116088867e+00 -5.307995080947875977e-01
1.567000000000000000e+03 7.894081115722656250e+01 6.166410446166992188e+00 -2.002831920981407166e-02 7.852553367614746094e+00 2.349757671356201172e+00 -2.881980836391448975e-01
1.568000000000000000e+03 7.823512268066406250e+01 3.083877801895141602e+00 -6.654784083366394043e-02 8.237013816833496094e+00 2.451139688491821289e+00 -2.413305044174194336e-01
1.569000000000000000e+03 7.824327087402343750e+01 4.674244880676269531e+00 -6.341080367565155029e-02 8.042731285095214844e+00 2.393796205520629883e+00 -3.446225821971893311e-01
1.570000000000000000e+03 7.823174285888671875e+01 1.489121913909912109e+00 -6.607390940189361572e-02 8.361753463745117188e+00 2.488703727722167969e+00 -1.345658153295516968e-01
1.571000000000000000e+03 7.823264312744140625e+01 2.286827564239501953e+00 -6.623137742280960083e-02 8.307338714599609375e+00 2.472332239151000977e+00 -1.856089979410171509e-01
1.572000000000000000e+03 7.893434906005859375e+01 -1.034169912338256836e+00 -2.576317451894283295e-02 8.632288932800292969e+00 2.581957578659057617e+00 2.049581520259380341e-02
1.573000000000000000e+03 7.822789001464843750e+01 -3.319742679595947266e+00 -6.395716220140457153e-02 8.309895515441894531e+00 2.473781585693359375e+00 1.802548021078109741e-01
1.574000000000000000e+03 7.822760009765625000e+01 -4.121343135833740234e+00 -6.663706153631210327e-02 8.239974975585937500e+00 2.452001333236694336e+00 2.347961366176605225e-01
1.575000000000000000e+03 7.822623443603515625e+01 -5.724332809448242188e+00 -6.564501672983169556e-02 8.049749374389648438e+00 2.395231246948242188e+00 3.394914269447326660e-01
1.576000000000000000e+03 7.822456359863281250e+01 -6.528306007385253906e+00 -6.049823015928268433e-02 7.929340839385986328e+00 2.360652685165405273e+00 3.880122303962707520e-01
1.577000000000000000e+03 7.822252655029296875e+01 -8.133356094360351562e+00 -4.802756756544113159e-02 7.643260955810546875e+00 2.278569936752319336e+00 4.790160059928894043e-01
1.578000000000000000e+03 7.822254943847656250e+01 -1.296764087677001953e+01 6.263854354619979858e-02 6.611934661865234375e+00 2.002372026443481445e+00 4.898671209812164307e-01
1.579000000000000000e+03 7.821653747558593750e+01 -9.744096755981445312e+00 -2.254181168973445892e-02 7.307912826538085938e+00 2.185611248016357422e+00 5.409376025199890137e-01
1.580000000000000000e+03 7.751470184326171875e+01 -1.287566852569580078e+01 1.022495850920677185e-01 6.921584606170654297e+00 2.107150316238403320e+00 6.179319620132446289e-01
1.581000000000000000e+03 7.752592468261718750e+01 -1.609244155883789062e+01 2.685896754264831543e-01 6.601207733154296875e+00 2.060939311981201172e+00 1.827718913555145264e-01
1.582000000000000000e+03 7.821862030029296875e+01 -1.699330520629882812e+01 1.584337949752807617e-01 6.181137084960937500e+00 1.901871323585510254e+00 9.188655763864517212e-03
1.583000000000000000e+03 7.822202301025390625e+01 -2.019214630126953125e+01 1.381100118160247803e-01 6.532539844512939453e+00 2.001194953918457031e+00 -4.965137839317321777e-01
1.584000000000000000e+03 7.752247619628906250e+01 -1.930223083496093750e+01 2.780592739582061768e-01 6.755840301513671875e+00 2.110169887542724609e+00 -4.689836800098419189e-01
1.585000000000000000e+03 7.812512969970703125e+01 -2.502916908264160156e+01 -3.410223126411437988e-02 7.958325862884521484e+00 2.377267122268676758e+00 -7.840791344642639160e-01
1.586000000000000000e+03 7.816783905029296875e+01 -2.340223503112792969e+01 2.379612252116203308e-02 7.442616462707519531e+00 2.239923715591430664e+00 -7.819194197654724121e-01
1.587000000000000000e+03 7.809826660156250000e+01 -2.664474868774414062e+01 -7.329508662223815918e-02 8.423692703247070312e+00 2.505119323730468750e+00 -7.038195133209228516e-01
1.588000000000000000e+03 7.810796356201171875e+01 -2.583868026733398438e+01 -5.516164004802703857e-02 8.200606346130371094e+00 2.443633317947387695e+00 -7.486471533775329590e-01
1.589000000000000000e+03 7.885623931884765625e+01 -2.912617874145507812e+01 -3.767253831028938293e-02 9.192770957946777344e+00 2.746529579162597656e+00 -3.365900218486785889e-01
1.590000000000000000e+03 7.793088531494140625e+01 -3.298853683471679688e+01 -7.407271116971969604e-02 9.429763793945312500e+00 2.806707382202148438e+00 -2.113867700099945068e-01
1.591000000000000000e+03 7.798514556884765625e+01 -3.220685958862304688e+01 -8.391805738210678101e-02 9.389003753662109375e+00 2.791525840759277344e+00 -2.528342008590698242e-01
1.592000000000000000e+03 7.789346313476562500e+01 -3.377412796020507812e+01 -6.529396772384643555e-02 9.471295356750488281e+00 2.821800470352172852e+00 -1.636103838682174683e-01
1.593000000000000000e+03 7.788144683837890625e+01 -3.456728363037109375e+01 -4.190552979707717896e-02 9.505990028381347656e+00 2.839225292205810547e+00 -1.274854540824890137e-01
1.594000000000000000e+03 7.784853363037109375e+01 -3.701784515380859375e+01 -3.850910440087318420e-02 9.513586044311523438e+00 2.842523097991943359e+00 -5.440442264080047607e-02
1.595000000000000000e+03 7.801270294189453125e+01 -4.067420578002929688e+01 -1.818988285958766937e-02 9.743926048278808594e+00 2.917720794677734375e+00 2.592635154724121094e-02
1.596000000000000000e+03 7.842070007324218750e+01 -3.995199203491210938e+01 -2.547008357942104340e-02 9.855707168579101562e+00 2.949070930480957031e+00 6.384212523698806763e-03
1.597000000000000000e+03 4.660337066650390625e+01 9.682458877563476562e+00 1.040774226188659668e+00 1.176237487792968750e+01 3.840944766998291016e+00 1.531475782394409180e+00
1.598000000000000000e+03 6.577822875976562500e+01 -2.569456291198730469e+01 -3.970530629158020020e-01 3.443736076354980469e+00 9.140048623085021973e-01 1.099747061729431152e+00
1.599000000000000000e+03 4.812022018432617188e+01 -2.742963981628417969e+01 3.905891180038452148e-01 4.467288970947265625e+00 1.457363486289978027e+00 -1.758951902389526367e+00
1.600000000000000000e+03 1.543789291381835938e+01 -2.776315689086914062e+01 1.863077133893966675e-01 3.726447224617004395e-01 1.676857322454452515e-01 -2.667458057403564453e-01
1.601000000000000000e+03 6.934741973876953125e+01 -1.784920883178710938e+01 1.385312795639038086e+00 1.394506168365478516e+01 4.599112510681152344e+00 -9.009573459625244141e-01
1.602000000000000000e+03 3.599063754081726074e-01 3.480857849121093750e+00 -2.947121356555726379e-05 1.233347109518945217e-03 3.611627907957881689e-04 -2.890728937927633524e-04
1.603000000000000000e+03 1.339399456977844238e+00 3.633348464965820312e+01 5.342883989214897156e-03 -2.940428555011749268e-01 -8.660998940467834473e-02 2.299036271870136261e-02
1.604000000000000000e+03 1.681867480278015137e+00 3.900624084472656250e+01 8.989612571895122528e-03 -3.124695718288421631e-01 -9.104398638010025024e-02 1.478216052055358887e-02
1.605000000000000000e+03 3.208119392395019531e+00 4.020247650146484375e+01 1.524810772389173508e-02 -2.593362331390380859e-01 -7.322643697261810303e-02 2.003430016338825226e-02
1.606000000000000000e+03 1.104678988456726074e+00 3.878060913085937500e+01 8.244322612881660461e-03 -3.316233754158020020e-01 -9.701371192932128906e-02 9.095097891986370087e-03
1.607000000000000000e+03 1.159867882728576660e+00 3.469866180419921875e+01 2.295908983796834946e-03 -2.748276293277740479e-01 -8.175951242446899414e-02 2.261270582675933838e-02
1.608000000000000000e+03 1.960806250572204590e+00 2.979407310485839844e+01 -5.874239723198115826e-04 -1.598806679248809814e-01 -4.814042896032333374e-02 4.335058107972145081e-02
1.609000000000000000e+03 2.563311576843261719e+00 2.479595184326171875e+01 -5.700288340449333191e-03 -6.975381076335906982e-02 -2.263622917234897614e-02 4.231571778655052185e-02
1.610000000000000000e+03 2.694546461105346680e+00 3.240051269531250000e+01 2.304047811776399612e-03 -1.895305067300796509e-01 -5.616793781518936157e-02 5.435623973608016968e-02
1.611000000000000000e+03 1.224226593971252441e+00 -3.406006622314453125e+01 -2.685115672647953033e-03 -7.426226139068603516e-01 -2.235923111438751221e-01 1.487601548433303833e-02
1.612000000000000000e+03 1.978241801261901855e+00 -3.159545898437500000e+01 -3.160539316013455391e-03 -7.021176815032958984e-01 -2.115834802389144897e-01 3.445835411548614502e-02
1.613000000000000000e+03 1.847946286201477051e+00 2.570869064331054688e+01 -2.739451359957456589e-03 -8.815276622772216797e-02 -2.726766467094421387e-02 3.454791381955146790e-02
1.614000000000000000e+03 1.166288495063781738e+00 -3.645195388793945312e+01 -6.939398590475320816e-04 -7.312532067298889160e-01 -2.195841521024703979e-01 1.151456404477357864e-02
1.615000000000000000e+03 1.071435332298278809e+00 2.099648475646972656e+01 -1.285897451452910900e-03 -2.452129684388637543e-02 -7.742158137261867523e-03 1.140937302261590958e-02
1.616000000000000000e+03 1.797664523124694824e+00 2.248091316223144531e+01 -3.511028829962015152e-03 -4.245271161198616028e-02 -1.378912199288606644e-02 2.361943945288658142e-02
1.617000000000000000e+03 2.529776334762573242e+00 2.317843818664550781e+01 -6.366354878991842270e-03 -4.936428740620613098e-02 -1.671919226646423340e-02 3.500235453248023987e-02
1.618000000000000000e+03 1.830674767494201660e+00 2.490232467651367188e+01 -2.941145794466137886e-03 -7.553100585937500000e-02 -2.354164607822895050e-02 3.220951184630393982e-02
1.619000000000000000e+03 1.948685765266418457e+00 2.896677017211914062e+01 -1.078556291759014130e-03 -1.446384638547897339e-01 -4.371510818600654602e-02 4.200043901801109314e-02
1.620000000000000000e+03 1.926460146903991699e+00 2.814857864379882812e+01 -1.526361331343650818e-03 -1.303005516529083252e-01 -3.954807296395301819e-02 4.099228605628013611e-02
1.621000000000000000e+03 1.898205637931823730e+00 2.733236694335937500e+01 -1.856025890447199345e-03 -1.156750768423080444e-01 -3.525933250784873962e-02 3.908091783523559570e-02
1.622000000000000000e+03 1.981286644935607910e+00 3.533775329589843750e+01 4.208766389638185501e-03 -2.568223774433135986e-01 -7.578407973051071167e-02 3.265573829412460327e-02
1.623000000000000000e+03 1.965216159820556641e+00 3.063831710815429688e+01 5.514151998795568943e-04 -1.752472668886184692e-01 -5.240875855088233948e-02 4.308951273560523987e-02
1.624000000000000000e+03 1.862276673316955566e+00 3.310944747924804688e+01 2.096728887408971786e-03 -2.223469465970993042e-01 -6.607506424188613892e-02 4.042444005608558655e-02
1.625000000000000000e+03 1.884585618972778320e+00 3.458348083496093750e+01 2.828950760886073112e-03 -2.476162612438201904e-01 -7.343619316816329956e-02 3.558446839451789856e-02
1.626000000000000000e+03 1.224650979042053223e+00 3.997354125976562500e+01 -2.296933671459555626e-03 -3.427380025386810303e-01 -1.035104840993881226e-01 6.366077810525894165e-03
1.627000000000000000e+03 2.936338901519775391e+00 -3.673630905151367188e+01 -8.464135229587554932e-03 -5.790485143661499023e-01 -1.762537956237792969e-01 1.024280022829771042e-02
1.628000000000000000e+03 2.056373834609985352e+00 -3.572721862792968750e+01 -1.556832576170563698e-03 -6.592460274696350098e-01 -1.982408463954925537e-01 1.389376353472471237e-02
1.629000000000000000e+03 1.068886995315551758e+00 2.019121170043945312e+01 -1.327552832663059235e-03 -1.690433360636234283e-02 -5.469566211104393005e-03 9.597588330507278442e-03
1.630000000000000000e+03 1.791692018508911133e+00 2.167634963989257812e+01 -3.346340265125036240e-03 -3.356847912073135376e-02 -1.107444521039724350e-02 2.083121612668037415e-02
1.631000000000000000e+03 2.411990404129028320e+00 -1.229368114471435547e+01 -1.233153510838747025e-03 -3.580064177513122559e-01 -1.077718734741210938e-01 -1.400928646326065063e-01
1.632000000000000000e+03 2.490895032882690430e+00 -2.038726806640625000e+01 2.656339481472969055e-02 -6.438958644866943359e-01 -1.851997375488281250e-01 -6.245956569910049438e-02
1.633000000000000000e+03 1.788235664367675781e+00 -1.631547737121582031e+01 7.784005720168352127e-03 -6.000387072563171387e-01 -1.776764243841171265e-01 -9.690021723508834839e-02
1.634000000000000000e+03 1.121572375297546387e+00 -2.759607124328613281e+01 1.849583932198584080e-03 -8.526030778884887695e-01 -2.552260458469390869e-01 2.263493277132511139e-02
1.635000000000000000e+03 1.797286987304687500e+00 -2.517477607727050781e+01 9.491803124547004700e-03 -7.842611074447631836e-01 -2.324307858943939209e-01 1.639868505299091339e-02
1.636000000000000000e+03 1.762631297111511230e+00 1.523065853118896484e+01 -1.475834520533680916e-03 3.427321091294288635e-03 5.854459595866501331e-04 2.724316203966736794e-03
1.637000000000000000e+03 1.040671944618225098e+00 8.142337799072265625e+00 8.836295455694198608e-05 5.496776197105646133e-03 1.675541745498776436e-03 -1.321413670666515827e-03
1.638000000000000000e+03 1.757752895355224609e+00 1.201124954223632812e+01 -4.606284783221781254e-04 5.974470637738704681e-03 1.654152525588870049e-03 -8.957698591984808445e-04
1.639000000000000000e+03 1.770765900611877441e+00 1.764805793762207031e+01 -2.573551610112190247e-03 -3.990695811808109283e-03 -1.969274366274476051e-03 7.855132222175598145e-03
1.640000000000000000e+03 1.076390147209167480e+00 -7.514363765716552734e+00 -3.331044688820838928e-03 -1.874226182699203491e-01 -5.722609907388687134e-02 -5.735233798623085022e-02
1.641000000000000000e+03 2.529028415679931641e+00 -6.776473999023437500e+00 -1.727605238556861877e-02 -1.357217282056808472e-01 -4.589933529496192932e-02 -1.092065200209617615e-01
1.642000000000000000e+03 2.458240747451782227e+00 -8.376836776733398438e+00 -1.161620486527681351e-02 -1.946447342634201050e-01 -6.187828257679939270e-02 -1.233417764306068420e-01
1.643000000000000000e+03 1.137014627456665039e+00 -5.088111877441406250e+00 -5.519285798072814941e-03 -8.633631467819213867e-02 -2.755668014287948608e-02 -4.238250106573104858e-02
1.644000000000000000e+03 1.780694365501403809e+00 -2.277883720397949219e+01 1.321994513273239136e-02 -7.824943661689758301e-01 -2.307823300361633301e-01 -1.125580165535211563e-02
1.645000000000000000e+03 1.084093928337097168e+00 -2.518907928466796875e+01 3.332204185426235199e-03 -8.859413266181945801e-01 -2.647827565670013428e-01 1.236814074218273163e-02
1.646000000000000000e+03 1.063367247581481934e+00 -2.036951637268066406e+01 5.648515652865171432e-03 -8.512510061264038086e-01 -2.536807656288146973e-01 -2.835736796259880066e-02
1.647000000000000000e+03 1.775238633155822754e+00 -1.956696891784667969e+01 1.435218285769224167e-02 -7.230684161186218262e-01 -2.126148641109466553e-01 -5.792488530278205872e-02
1.648000000000000000e+03 1.048635244369506836e+00 -1.312115287780761719e+01 6.147235399112105370e-04 -5.056618452072143555e-01 -1.515141427516937256e-01 -6.994880735874176025e-02
1.649000000000000000e+03 1.732330679893493652e+00 -1.151218986511230469e+01 -1.997734885662794113e-03 -3.667015433311462402e-01 -1.106097847223281860e-01 -1.070401668548583984e-01
1.650000000000000000e+03 1.743194937705993652e+00 8.019097328186035156e+00 -4.928945418214425445e-05 4.108319990336894989e-03 1.217709155753254890e-03 -1.961063360795378685e-03
1.651000000000000000e+03 1.042635440826416016e+00 5.772592067718505859e+00 6.570475761691341177e-06 3.099600551649928093e-03 9.318512747995555401e-04 -1.175521058030426502e-03
1.652000000000000000e+03 1.741902351379394531e+00 7.233317375183105469e+00 1.628552126931026578e-04 3.592304652556777000e-03 1.126547926105558872e-03 -1.881686854176223278e-03
1.653000000000000000e+03 1.115013599395751953e+00 2.650962114334106445e+00 1.283581805182620883e-04 7.685652235522866249e-04 2.690770197659730911e-04 -6.479464354924857616e-04
1.654000000000000000e+03 1.053968071937561035e+00 -9.123473167419433594e+00 -2.269179560244083405e-03 -2.709138989448547363e-01 -8.195492625236511230e-02 -6.348223239183425903e-02
1.655000000000000000e+03 1.066745400428771973e+00 -1.633612442016601562e+01 3.373235464096069336e-03 -6.883397102355957031e-01 -2.054899483919143677e-01 -6.134926900267601013e-02
1.656000000000000000e+03 1.740488886833190918e+00 -1.310120582580566406e+01 4.750013467855751514e-04 -4.473375082015991211e-01 -1.340587586164474487e-01 -1.083838343620300293e-01
1.657000000000000000e+03 1.776224017143249512e+00 -2.116966819763183594e+01 1.447401847690343857e-02 -7.615318298339843750e-01 -2.241173535585403442e-01 -3.434575721621513367e-02
1.658000000000000000e+03 1.905469655990600586e+00 -2.836942481994628906e+01 2.253553597256541252e-03 -7.459976077079772949e-01 -2.231232225894927979e-01 3.421436995267868042e-02
1.659000000000000000e+03 2.533923625946044922e+00 -3.776042938232421875e+01 -6.613383535295724869e-03 -6.173188090324401855e-01 -1.871796548366546631e-01 5.380728282034397125e-03
1.660000000000000000e+03 2.001024007797241211e+00 -3.240597152709960938e+01 -6.361991167068481445e-03 -6.884723901748657227e-01 -2.084503173828125000e-01 3.157562017440795898e-02
1.661000000000000000e+03 2.766238212585449219e+00 -3.077249145507812500e+01 -1.477845711633563042e-03 -6.275124549865722656e-01 -1.886970847845077515e-01 4.281772300601005554e-02
1.662000000000000000e+03 1.932865738868713379e+00 -2.917372322082519531e+01 -4.236927197780460119e-04 -7.345512509346008301e-01 -2.204924821853637695e-01 3.602517768740653992e-02
1.663000000000000000e+03 1.875063419342041016e+00 -2.756911277770996094e+01 2.963072853162884712e-03 -7.571237087249755859e-01 -2.262481898069381714e-01 3.220233321189880371e-02
1.664000000000000000e+03 1.786476373672485352e+00 -2.437656021118164062e+01 1.047946605831384659e-02 -7.873449921607971191e-01 -2.330596596002578735e-01 8.086272515356540680e-03
1.665000000000000000e+03 2.483279943466186523e+00 -2.358763122558593750e+01 2.160085365176200867e-02 -6.875541806221008301e-01 -1.997860074043273926e-01 -3.991591278463602066e-03
1.666000000000000000e+03 1.779390335083007812e+00 -2.197286796569824219e+01 1.443845499306917191e-02 -7.738060355186462402e-01 -2.278102785348892212e-01 -2.283770591020584106e-02
1.667000000000000000e+03 1.774057865142822266e+00 -2.037009429931640625e+01 1.486947573721408844e-02 -7.448193430900573730e-01 -2.189849615097045898e-01 -4.645699635148048401e-02
1.668000000000000000e+03 1.781244635581970215e+00 -1.875772094726562500e+01 1.417563203722238541e-02 -6.975062489509582520e-01 -2.049991935491561890e-01 -6.974095106124877930e-02
1.669000000000000000e+03 1.775367259979248047e+00 -1.550688457489013672e+01 6.193961948156356812e-03 -5.640597343444824219e-01 -1.673597246408462524e-01 -1.017530485987663269e-01
1.670000000000000000e+03 1.749895095825195312e+00 -1.389954948425292969e+01 2.787476871162652969e-03 -4.872924685478210449e-01 -1.453514993190765381e-01 -1.078904271125793457e-01
1.671000000000000000e+03 1.748161315917968750e+00 -9.135414123535156250e+00 -5.014216993004083633e-03 -2.494183182716369629e-01 -7.632976025342941284e-02 -9.872245043516159058e-02
1.672000000000000000e+03 1.733483552932739258e+00 -1.072021389007568359e+01 -2.674074610695242882e-03 -3.268755674362182617e-01 -9.886489063501358032e-02 -1.050668880343437195e-01
1.673000000000000000e+03 1.763859748840332031e+00 -8.335339546203613281e+00 -6.679784972220659256e-03 -2.121991664171218872e-01 -6.566368043422698975e-02 -9.453734755516052246e-02
1.674000000000000000e+03 1.751374840736389160e+00 9.607864379882812500e+00 -2.217199362348765135e-04 5.141371861100196838e-03 1.475895522162318230e-03 -1.850015134550631046e-03
1.675000000000000000e+03 1.756810426712036133e+00 1.120880222320556641e+01 -4.885749076493084431e-04 5.846779327839612961e-03 1.607461366802453995e-03 -1.378079061396420002e-03
1.676000000000000000e+03 2.458205223083496094e+00 1.349146842956542969e+01 -1.955223036929965019e-03 2.982859732583165169e-03 3.082910552620887756e-04 7.566151325590908527e-04
1.677000000000000000e+03 1.758102893829345703e+00 1.281531906127929688e+01 -8.714577998034656048e-04 5.866863299161195755e-03 1.498621655628085136e-03 -3.663857933133840561e-04
1.678000000000000000e+03 1.760424494743347168e+00 1.442518711090087891e+01 -1.383026014082133770e-03 4.682830534875392914e-03 9.899414144456386566e-04 1.400054316036403179e-03
1.679000000000000000e+03 1.758828401565551758e+00 1.362017726898193359e+01 -9.037212003022432327e-04 5.457230843603610992e-03 1.366052892990410328e-03 4.844294744543731213e-04
1.680000000000000000e+03 1.767780780792236328e+00 1.684329795837402344e+01 -2.100521000102162361e-03 -8.161770529113709927e-04 -8.750094566494226456e-04 5.963057745248079300e-03
1.681000000000000000e+03 1.773961067199707031e+00 1.845285606384277344e+01 -2.677778713405132294e-03 -7.986723445355892181e-03 -3.199350787326693535e-03 1.017337571829557419e-02
1.682000000000000000e+03 1.777598381042480469e+00 1.925827217102050781e+01 -3.079399000853300095e-03 -1.287861168384552002e-02 -4.787403158843517303e-03 1.252140477299690247e-02
1.683000000000000000e+03 1.787087559700012207e+00 2.087177658081054688e+01 -3.412806894630193710e-03 -2.563204243779182434e-02 -8.713454939424991608e-03 1.790837384760379791e-02
1.684000000000000000e+03 2.008974075317382812e+00 -2.681905269622802734e+00 -1.905836723744869232e-02 -2.936547994613647461e-02 -1.452715415507555008e-02 -3.401739150285720825e-02
1.685000000000000000e+03 2.033870935440063477e+00 -3.323271942138671875e+01 -5.762952379882335663e-03 -6.783571243286132812e-01 -2.052360326051712036e-01 2.627786807715892792e-02
1.686000000000000000e+03 2.069347143173217773e+00 -3.406934738159179688e+01 -6.659342907369136810e-03 -6.693628430366516113e-01 -2.028066664934158325e-01 2.431690692901611328e-02
1.687000000000000000e+03 1.994695305824279785e+00 -3.654974746704101562e+01 -3.748243208974599838e-03 -6.672993898391723633e-01 -2.013142853975296021e-01 1.089112740010023117e-02
1.688000000000000000e+03 6.176282501220703125e+01 2.402714347839355469e+01 -1.339745521545410156e+00 1.813851296901702881e-01 -3.475081324577331543e-01 -2.175589501857757568e-01
1.689000000000000000e+03 3.561288833618164062e+01 1.830806732177734375e+01 7.132559418678283691e-01 1.584072232246398926e+00 6.891984343528747559e-01 -1.123160839080810547e+00
1.690000000000000000e+03 3.495612335205078125e+01 1.881786918640136719e+01 5.967354178428649902e-01 1.362400889396667480e+00 5.877408981323242188e-01 -9.908971786499023438e-01
1.691000000000000000e+03 1.252175998687744141e+01 -2.350219345092773438e+01 3.101922869682312012e-01 7.172691822052001953e-01 3.082384467124938965e-01 -3.501408994197845459e-01
1.692000000000000000e+03 1.323492431640625000e+01 -2.528630447387695312e+01 2.348725795745849609e-01 5.222395062446594238e-01 2.271336317062377930e-01 -3.116703927516937256e-01
1.693000000000000000e+03 4.909946060180664062e+01 1.547593116760253906e+01 1.070645689964294434e+00 9.469096183776855469e+00 3.161922693252563477e+00 2.667864561080932617e+00
1.694000000000000000e+03 2.055389976501464844e+01 -4.795300006866455078e+00 -5.041790008544921875e-01 3.460051864385604858e-02 -1.408735513687133789e-01 1.402773708105087280e-02
1.695000000000000000e+03 4.233168411254882812e+01 1.094600582122802734e+01 1.180091261863708496e+00 1.100178050994873047e+01 3.654561519622802734e+00 -2.097255706787109375e+00
1.696000000000000000e+03 4.173293304443359375e+01 1.062249183654785156e+01 1.583824157714843750e+00 1.083115863800048828e+01 3.724494934082031250e+00 -3.294389247894287109e+00
1.697000000000000000e+03 3.715965270996093750e+01 -2.250958633422851562e+01 8.153311610221862793e-01 6.424574375152587891e+00 2.171971559524536133e+00 1.476008772850036621e+00
1.698000000000000000e+03 3.302560424804687500e+01 1.929665565490722656e+01 3.788343667984008789e-01 6.708981394767761230e-01 3.149197697639465332e-01 -5.786523222923278809e-01
1.699000000000000000e+03 5.656604385375976562e+01 2.261244773864746094e+01 -9.437159299850463867e-01 5.378138422966003418e-01 -1.217706128954887390e-01 7.736439704895019531e-01
1.700000000000000000e+03 6.310509872436523438e+01 -9.759974479675292969e+00 5.261754393577575684e-01 1.279481530189514160e+00 5.416970849037170410e-01 -1.127873063087463379e+00
1.701000000000000000e+03 1.812955093383789062e+01 7.999228477478027344e+00 -1.895661349408328533e-03 5.042853299528360367e-03 9.441576548852026463e-04 1.461821491830050945e-03
1.702000000000000000e+03 3.005971908569335938e+01 2.126532173156738281e+01 -1.160328090190887451e-01 2.735548615455627441e-01 4.725661873817443848e-02 -2.794260084629058838e-01
1.703000000000000000e+03 2.763212203979492188e+01 2.256189918518066406e+01 -2.985664904117584229e-01 1.410741358995437622e-01 -4.724770784378051758e-02 -1.452659666538238525e-01
1.704000000000000000e+03 1.733350563049316406e+01 1.555205821990966797e+01 -5.938899237662553787e-03 -2.481059404090046883e-03 -2.525987569242715836e-03 -9.925926104187965393e-03
1.705000000000000000e+03 3.692568206787109375e+01 -2.429440879821777344e+01 1.538753747940063477e+00 6.586940288543701172e+00 2.437708377838134766e+00 1.816993951797485352e+00
1.706000000000000000e+03 3.575699996948242188e+01 -2.582632827758789062e+01 1.809216499328613281e+00 6.728858947753906250e+00 2.561422586441040039e+00 2.532531261444091797e+00
1.707000000000000000e+03 2.155279159545898438e+01 3.489504814147949219e+00 -1.487923000240698457e-04 5.353492451831698418e-04 1.159670719061978161e-04 2.983022131957113743e-04
1.708000000000000000e+03 3.812994384765625000e+01 1.514175128936767578e+01 1.410512208938598633e+00 2.830772161483764648e+00 1.272385358810424805e+00 -1.908218502998352051e+00
1.709000000000000000e+03 6.297311019897460938e+01 -2.864361763000488281e+01 -1.320762157440185547e+00 1.183823704719543457e+00 -4.108156263828277588e-02 1.397077590227127075e-01
1.710000000000000000e+03 4.088985824584960938e+01 1.311800765991210938e+01 1.283055543899536133e+00 6.772564411163330078e+00 2.416686058044433594e+00 -2.464192390441894531e+00
1.711000000000000000e+03 1.120766735076904297e+01 -1.928011322021484375e+01 1.019946113228797913e-01 7.936583757400512695e-01 2.686958909034729004e-01 -1.656372696161270142e-01
1.712000000000000000e+03 1.069205188751220703e+01 -2.034855461120605469e+01 1.885184496641159058e-01 6.506692767143249512e-01 2.517563104629516602e-01 -2.257769852876663208e-01
1.713000000000000000e+03 4.884067535400390625e+01 -8.621841430664062500e+00 -2.505238056182861328e+00 4.803256988525390625e+00 6.894056797027587891e-01 8.465441465377807617e-01
1.714000000000000000e+03 4.857893753051757812e+01 1.402132129669189453e+01 1.052648186683654785e+00 1.006414794921875000e+01 3.335038661956787109e+00 2.454441070556640625e+00
1.715000000000000000e+03 4.766394424438476562e+01 5.137301921844482422e+00 6.091498136520385742e-01 1.258154296875000000e+01 3.957207918167114258e+00 -2.712413482367992401e-02
1.716000000000000000e+03 4.694423294067382812e+01 6.810279369354248047e+00 9.035797119140625000e-01 1.270006465911865234e+01 4.081093311309814453e+00 7.345997095108032227e-01
1.717000000000000000e+03 1.202341842651367188e+01 -2.270701408386230469e+01 3.221802711486816406e-01 7.769222855567932129e-01 3.297307789325714111e-01 -3.157236278057098389e-01
1.718000000000000000e+03 4.932704162597656250e+01 -2.870429801940917969e+01 -3.281392902135848999e-02 3.204711675643920898e+00 9.515693187713623047e-01 -1.447191357612609863e+00
1.719000000000000000e+03 1.962435531616210938e+01 -1.176817417144775391e+01 4.090897440910339355e-01 5.743006989359855652e-02 1.399559378623962402e-01 -1.637461930513381958e-01
1.720000000000000000e+03 1.853299522399902344e+01 -1.183932781219482422e+01 4.746672511100769043e-01 9.680333733558654785e-02 1.714411675930023193e-01 -1.473532021045684814e-01
1.721000000000000000e+03 4.521821212768554688e+01 -1.887015533447265625e+01 7.321209311485290527e-01 1.209944915771484375e+01 3.849471092224121094e+00 4.850632548332214355e-01
1.722000000000000000e+03 5.207063293457031250e+01 2.065983390808105469e+01 1.333534479141235352e+00 5.798736095428466797e+00 2.139681100845336914e+00 2.399392843246459961e+00
1.723000000000000000e+03 5.027810287475585938e+01 1.939762687683105469e+01 1.388693451881408691e+00 7.146395683288574219e+00 2.560526609420776367e+00 2.170660734176635742e+00
1.724000000000000000e+03 3.225829315185546875e+01 2.094039344787597656e+01 1.513871848583221436e-01 7.488289475440979004e-01 2.700648307800292969e-01 -6.183223128318786621e-01
1.725000000000000000e+03 1.940221023559570312e+01 1.589740514755249023e+00 2.755305613391101360e-04 5.558931152336299419e-04 2.494271029718220234e-04 3.070166276302188635e-04
1.726000000000000000e+03 1.730242729187011719e+01 1.470760345458984375e+01 -6.203437689691781998e-03 2.347823232412338257e-03 -1.156684360466897488e-03 -4.441285040229558945e-03
1.727000000000000000e+03 1.877832412719726562e+01 2.356569528579711914e+00 2.178620197810232639e-04 9.016357362270355225e-04 3.358493268024176359e-04 5.411600577645003796e-04
1.728000000000000000e+03 2.180263137817382812e+01 2.334347009658813477e+00 -1.705339236650615931e-04 -2.322427317267283797e-04 -1.208329922519624233e-04 -8.999954843602608889e-06
1.729000000000000000e+03 5.950131607055664062e+01 2.032562971115112305e+00 1.715743392705917358e-01 -7.034396380186080933e-02 3.036911040544509888e-02 -1.440589874982833862e-01
1.730000000000000000e+03 5.574182128906250000e+01 -3.163995170593261719e+01 -1.245192766189575195e+00 -6.123096123337745667e-02 -3.919271230697631836e-01 -6.906666755676269531e-01
1.731000000000000000e+03 5.678295135498046875e+01 -3.175868225097656250e+01 -1.211268067359924316e+00 -2.261284440755844116e-01 -4.312189817428588867e-01 -5.762352943420410156e-01
1.732000000000000000e+03 3.690526199340820312e+01 1.725555038452148438e+01 9.128671288490295410e-01 2.168260097503662109e+00 9.243382215499877930e-01 -1.434450507164001465e+00
1.733000000000000000e+03 6.370307540893554688e+01 5.668745517730712891e+00 -1.340406090021133423e-01 1.631359815597534180e+00 4.491957724094390869e-01 6.104192733764648438e-01
1.734000000000000000e+03 6.925811290740966797e+00 -3.317773580551147461e+00 -1.353792101144790649e-01 -3.224728628993034363e-03 -4.158117994666099548e-02 -1.132985576987266541e-01
1.735000000000000000e+03 5.294145107269287109e+00 -2.694764614105224609e+00 -9.112137556076049805e-02 -1.509901043027639389e-02 -3.186611458659172058e-02 -8.350702375173568726e-02
1.736000000000000000e+03 3.646776914596557617e+00 -2.706189393997192383e+00 -5.114194378256797791e-02 -2.586289681494235992e-02 -2.310145273804664612e-02 -6.349029392004013062e-02
1.737000000000000000e+03 6.138747215270996094e+00 -3.400261163711547852e+00 -1.125285327434539795e-01 -1.242057234048843384e-02 -3.748473152518272400e-02 -1.108677461743354797e-01
1.738000000000000000e+03 1.852629303932189941e+00 -5.912518501281738281e+00 -1.163866464048624039e-02 -1.144660040736198425e-01 -3.783139958977699280e-02 -7.571319490671157837e-02
1.739000000000000000e+03 3.602079629898071289e+00 -3.540013313293457031e+00 -4.789602756500244141e-02 -4.109693691134452820e-02 -2.669788897037506104e-02 -8.085411041975021362e-02
1.740000000000000000e+03 1.896219015121459961e+00 -5.099387168884277344e+00 -1.392840035259723663e-02 -8.789683878421783447e-02 -3.054757229983806610e-02 -6.724099814891815186e-02
1.741000000000000000e+03 4.449949264526367188e+00 -3.600272178649902344e+00 -6.759214401245117188e-02 -3.389452397823333740e-02 -3.044600039720535278e-02 -9.718858450651168823e-02
1.742000000000000000e+03 8.452387809753417969e+00 -3.252744674682617188e+00 -1.857272535562515259e-01 1.568127423524856567e-02 -5.101379379630088806e-02 -1.148047372698783875e-01
1.743000000000000000e+03 6.857579803466796875e+01 1.498667144775390625e+01 1.068454384803771973e+00 1.354132938385009766e+01 4.382935047149658203e+00 1.125451207160949707e+00
1.744000000000000000e+03 6.737485504150390625e+01 -2.513181686401367188e+01 -6.657909750938415527e-01 6.240442752838134766e+00 1.672395586967468262e+00 1.295580267906188965e+00
1.745000000000000000e+03 5.266322708129882812e+01 -3.097743606567382812e+01 -9.231657385826110840e-01 1.055049657821655273e+00 3.956517204642295837e-02 -1.128797888755798340e+00
1.746000000000000000e+03 2.447923660278320312e+01 -3.133886909484863281e+01 -1.718755066394805908e-01 3.549716621637344360e-02 -4.091349989175796509e-02 -3.618170693516731262e-02
1.747000000000000000e+03 2.243777847290039062e+01 -1.289554882049560547e+01 5.187438130378723145e-01 5.103803239762783051e-03 1.571542769670486450e-01 -2.165657430887222290e-01
1.748000000000000000e+03 3.308911132812500000e+01 -2.937546920776367188e+01 1.331440687179565430e+00 2.926255226135253906e+00 1.277308702468872070e+00 1.865563988685607910e+00
1.749000000000000000e+03 3.132425880432128906e+01 -6.696855068206787109e+00 -1.427229046821594238e+00 -3.793234527111053467e-01 -5.419657826423645020e-01 -1.975822895765304565e-01
1.750000000000000000e+03 4.261951828002929688e+01 1.359382271766662598e+00 1.882466435432434082e+00 1.724668121337890625e+01 5.738744258880615234e+00 2.961892366409301758e+00
1.751000000000000000e+03 6.633962249755859375e+01 -2.512862968444824219e+01 -2.687484025955200195e-01 4.417272567749023438e+00 1.244557380676269531e+00 1.362582802772521973e+00
1.752000000000000000e+03 3.372023391723632812e+01 -3.006089210510253906e+01 7.527975440025329590e-01 3.478646755218505859e+00 1.269433259963989258e+00 1.683426141738891602e+00
1.753000000000000000e+03 6.603249359130859375e+01 8.923017501831054688e+00 7.725997567176818848e-01 4.284553050994873047e+00 1.517145752906799316e+00 1.847103714942932129e+00
1.754000000000000000e+03 5.638973236083984375e+01 2.348977851867675781e+01 -6.601319313049316406e-01 1.010926008224487305e+00 1.052382290363311768e-01 1.299727797508239746e+00
1.755000000000000000e+03 6.251110839843750000e+01 4.617970466613769531e+00 -1.747397631406784058e-01 9.287917613983154297e-01 2.262155860662460327e-01 2.692414522171020508e-01
1.756000000000000000e+03 6.310733795166015625e+01 5.138843536376953125e+00 -1.655049622058868408e-01 1.249109029769897461e+00 3.250811994075775146e-01 4.251919388771057129e-01
1.757000000000000000e+03 6.407584381103515625e+01 -2.741878700256347656e+01 -9.096980690956115723e-01 1.740543723106384277e+00 2.492537051439285278e-01 4.150294959545135498e-01
1.758000000000000000e+03 6.464668273925781250e+01 -2.684424018859863281e+01 -7.275326251983642578e-01 2.143173456192016602e+00 4.246922731399536133e-01 6.090927720069885254e-01
1.759000000000000000e+03 6.879310607910156250e+01 1.179698562622070312e+01 9.398673176765441895e-01 9.812964439392089844e+00 3.225849390029907227e+00 1.096059560775756836e+00
1.760000000000000000e+03 4.540586853027343750e+01 -1.633500862121582031e+01 9.567226171493530273e-01 1.207705688476562500e+01 3.910133838653564453e+00 1.424428224563598633e+00
1.761000000000000000e+03 6.425028228759765625e+01 2.333318138122558594e+01 -1.058461666107177734e+00 1.175355076789855957e+00 3.506800159811973572e-02 -1.100823044776916504e+00
1.762000000000000000e+03 4.782616043090820312e+01 8.384048461914062500e+00 7.449921369552612305e-01 1.192625904083251953e+01 3.801375389099121094e+00 1.522325515747070312e+00
1.763000000000000000e+03 3.017824935913085938e+01 -1.377701568603515625e+01 8.806894421577453613e-01 -6.283491849899291992e-02 2.453563660383224487e-01 -6.508324760943651199e-03
1.764000000000000000e+03 3.214810943603515625e+01 -6.533850669860839844e+00 -1.559787631034851074e+00 -2.675034403800964355e-01 -5.481873154640197754e-01 -2.145708650350570679e-01
1.765000000000000000e+03 4.602854919433593750e+01 -2.434809684753417969e+01 1.337657332420349121e+00 8.551124572753906250e+00 2.966634750366210938e+00 -1.216509342193603516e+00
1.766000000000000000e+03 3.362021255493164062e+01 1.985090255737304688e+01 3.704692423343658447e-01 1.000848650932312012e+00 4.113953709602355957e-01 -7.686171531677246094e-01
1.767000000000000000e+03 1.880722808837890625e+01 -1.078039264678955078e+01 2.993411719799041748e-01 1.030566692352294922e-01 1.207193508744239807e-01 -1.379234194755554199e-01
1.768000000000000000e+03 3.297783660888671875e+01 -6.443986892700195312e+00 -1.523073911666870117e+00 -1.706518083810806274e-01 -5.081177353858947754e-01 -1.704171299934387207e-01
1.769000000000000000e+03 1.729897117614746094e+01 -2.965564537048339844e+01 7.221073657274246216e-02 3.233748376369476318e-01 1.186756715178489685e-01 -2.315230220556259155e-01
1.770000000000000000e+03 4.365302276611328125e+01 6.366631507873535156e+00 1.295982718467712402e+00 1.611215972900390625e+01 5.222443103790283203e+00 -6.588144898414611816e-01
1.771000000000000000e+03 6.903643035888671875e+01 -2.156267166137695312e+01 1.641477346420288086e+00 1.159288311004638672e+01 3.970308303833007812e+00 1.899320334196090698e-01
1.772000000000000000e+03 3.626288986206054688e+01 1.778775978088378906e+01 8.156678676605224609e-01 1.845568656921386719e+00 7.983709573745727539e-01 -1.272503018379211426e+00
1.773000000000000000e+03 4.136087799072265625e+01 1.242387580871582031e+01 1.276228070259094238e+00 7.961354732513427734e+00 2.771274805068969727e+00 -2.511122703552246094e+00
1.774000000000000000e+03 5.561645889282226562e+01 -8.623123168945312500e-02 1.921131014823913574e+00 -2.843579947948455811e-01 4.910319149494171143e-01 -2.803920805454254150e-01
1.775000000000000000e+03 5.772274780273437500e+01 1.434161186218261719e+00 4.032423496246337891e-01 -3.795229792594909668e-01 7.115812972187995911e-03 -1.899228543043136597e-01
1.776000000000000000e+03 4.525474548339843750e+01 -1.801565170288085938e+01 7.071784734725952148e-01 1.213692188262939453e+01 3.853230237960815430e+00 9.086276292800903320e-01
1.777000000000000000e+03 5.860042190551757812e+01 -3.036805152893066406e+01 -2.312035799026489258e+00 -5.039705634117126465e-01 -8.448019623756408691e-01 -4.419529438018798828e-01
1.778000000000000000e+03 5.399841308593750000e+01 -1.438338518142700195e+00 2.623768329620361328e+00 2.181188203394412994e-02 7.936740517616271973e-01 -7.722191214561462402e-01
1.779000000000000000e+03 5.627931213378906250e+01 -7.673537254333496094e+00 -1.234238624572753906e+00 1.273145675659179688e-01 -3.320772051811218262e-01 -5.654389858245849609e-01
1.780000000000000000e+03 1.741345787048339844e+01 1.215048980712890625e+01 1.642855699174106121e-03 7.628167979419231415e-03 2.781307091936469078e-03 2.322761574760079384e-03
1.781000000000000000e+03 1.763399887084960938e+01 1.047284603118896484e+01 1.483233179897069931e-03 7.405801210552453995e-03 2.666710410267114639e-03 2.636663150042295456e-03
1.782000000000000000e+03 6.403096008300781250e+01 -1.144087696075439453e+01 9.441305994987487793e-01 1.065239071846008301e+00 6.028109192848205566e-01 -1.274076342582702637e+00
1.783000000000000000e+03 6.353673171997070312e+01 -1.062411308288574219e+01 6.629364490509033203e-01 1.162861943244934082e+00 5.477395057678222656e-01 -1.201701879501342773e+00
1.784000000000000000e+03 1.012315177917480469e+01 -1.783512687683105469e+01 1.051569581031799316e-01 4.719786345958709717e-01 1.731406748294830322e-01 -1.483937799930572510e-01
1.785000000000000000e+03 1.034351539611816406e+01 -1.867639160156250000e+01 1.224623695015907288e-01 5.583744049072265625e-01 2.042510360479354858e-01 -1.591543257236480713e-01
1.786000000000000000e+03 6.656211090087890625e+01 8.527021408081054688e+00 2.478796988725662231e-01 5.155840396881103516e+00 1.621115922927856445e+00 1.586396336555480957e+00
1.787000000000000000e+03 4.286282348632812500e+01 3.024359464645385742e+00 1.328226923942565918e+00 1.791650009155273438e+01 5.773417949676513672e+00 1.612653493881225586e+00
1.788000000000000000e+03 4.752944946289062500e+01 3.501785993576049805e+00 2.085002899169921875e+00 1.227863502502441406e+01 4.309091567993164062e+00 -1.343122601509094238e+00
1.789000000000000000e+03 1.734600257873535156e+01 1.299908542633056641e+01 -2.534307073801755905e-03 7.043707650154829025e-03 1.352820196188986301e-03 9.183246293105185032e-04
1.790000000000000000e+03 2.440742874145507812e+01 -3.244525909423828125e+01 3.787730634212493896e-02 1.024955734610557556e-01 4.211186245083808899e-02 -3.425217792391777039e-02
1.791000000000000000e+03 2.728101730346679688e+01 -3.250952529907226562e+01 2.132253944873809814e-01 3.555700778961181641e-01 1.706386357545852661e-01 3.720307350158691406e-01
1.792000000000000000e+03 1.739908599853515625e+01 1.639597511291503906e+01 -1.865861751139163971e-02 -8.484124206006526947e-03 -8.142822422087192535e-03 -1.987065188586711884e-02
1.793000000000000000e+03 2.064484405517578125e+01 -3.157465934753417969e+01 -3.025545366108417511e-02 1.870967745780944824e-01 4.705239459872245789e-02 -2.193586528301239014e-01
1.794000000000000000e+03 4.293347549438476562e+01 1.243496227264404297e+01 7.252250313758850098e-01 9.742278099060058594e+00 3.140250921249389648e+00 -1.055329680442810059e+00
1.795000000000000000e+03 6.898245239257812500e+01 1.337398529052734375e+01 1.151782393455505371e+00 1.151716804504394531e+01 3.800684928894042969e+00 1.001139760017395020e+00
1.796000000000000000e+03 5.674695587158203125e+01 -8.114950180053710938e+00 -1.249273657798767090e+00 1.670428663492202759e-01 -3.246692419052124023e-01 -2.216216176748275757e-01
1.797000000000000000e+03 6.766082763671875000e+01 9.825588226318359375e+00 4.146581888198852539e-01 7.504774570465087891e+00 2.375829935073852539e+00 1.489076137542724609e+00
1.798000000000000000e+03 4.390872955322265625e+01 9.823259115219116211e-01 2.293473482131958008e+00 1.402882480621337891e+01 4.896689414978027344e+00 1.607437610626220703e+00
1.799000000000000000e+03 4.700033950805664062e+01 -2.603510475158691406e+01 6.382904052734375000e-01 6.460223674774169922e+00 2.129554271697998047e+00 -1.743087172508239746e+00
1.800000000000000000e+03 4.636357879638671875e+01 -2.319277191162109375e+01 1.745571255683898926e+00 1.037919807434082031e+01 3.637430906295776367e+00 -2.153939008712768555e+00
1.801000000000000000e+03 6.600873565673828125e+01 7.914441108703613281e+00 1.365105211734771729e-01 4.204839229583740234e+00 1.302404880523681641e+00 1.423330783843994141e+00
1.802000000000000000e+03 3.429137802124023438e+01 1.932887840270996094e+01 4.890440702438354492e-01 1.169030666351318359e+00 4.974224269390106201e-01 -8.695952892303466797e-01
1.803000000000000000e+03 5.005233764648437500e+01 1.853079032897949219e+01 1.517696619033813477e+00 7.708043575286865234e+00 2.767722129821777344e+00 2.427591323852539062e+00
1.804000000000000000e+03 4.551899337768554688e+01 -1.549088859558105469e+01 1.081127643585205078e+00 1.187530136108398438e+01 3.886928558349609375e+00 1.544394016265869141e+00
1.805000000000000000e+03 1.216926193237304688e+01 -2.529757499694824219e+01 1.771913170814514160e-01 4.893666505813598633e-01 1.999673843383789062e-01 -2.118047028779983521e-01
1.806000000000000000e+03 4.137087631225585938e+01 -1.860297560691833496e+00 2.861690998077392578e+00 1.206295108795166016e+01 4.477392673492431641e+00 4.137708663940429688e+00
1.807000000000000000e+03 4.240499496459960938e+01 -1.322744846343994141e+00 2.221710205078125000e+00 1.288712406158447266e+01 4.532650470733642578e+00 3.000415563583374023e+00
1.808000000000000000e+03 5.887347030639648438e+01 1.503066420555114746e+00 3.869977295398712158e-01 -2.164626270532608032e-01 5.116052925586700439e-02 -1.664501130580902100e-01
1.809000000000000000e+03 4.325634765625000000e+01 1.179626703262329102e+00 2.162741899490356445e+00 1.539452266693115234e+01 5.267179489135742188e+00 2.226245164871215820e+00
1.810000000000000000e+03 4.488266372680664062e+01 -1.206435203552246094e+01 -3.214643001556396484e-01 9.464833259582519531e+00 2.743010759353637695e+00 5.648862719535827637e-01
1.811000000000000000e+03 4.579183959960937500e+01 -1.378157234191894531e+01 9.527613520622253418e-01 1.104555416107177734e+01 3.599494457244873047e+00 1.568652272224426270e+00
1.812000000000000000e+03 4.799613952636718750e+01 6.969002485275268555e-01 2.315844297409057617e+00 8.777072906494140625e+00 3.327875137329101562e+00 -1.706266641616821289e+00
1.813000000000000000e+03 4.863420867919921875e+01 9.316768646240234375e-01 2.757460117340087891e+00 7.684229850769042969e+00 3.132507085800170898e+00 -2.790393829345703125e+00
1.814000000000000000e+03 6.660546112060546875e+01 -1.189764404296875000e+01 1.049618721008300781e+00 6.270011425018310547e+00 2.195888996124267578e+00 -2.597656250000000000e+00
1.815000000000000000e+03 5.406372070312500000e+01 2.294567871093750000e+01 -2.271058708429336548e-01 2.954333305358886719e+00 8.181682825088500977e-01 2.082544088363647461e+00
1.816000000000000000e+03 5.759029769897460938e+01 4.369756877422332764e-01 1.044880867004394531e+00 -4.126950204372406006e-01 1.896557658910751343e-01 -2.702178657054901123e-01
1.817000000000000000e+03 5.473239135742187500e+01 -3.142611885070800781e+01 -1.220047473907470703e+00 1.815594732761383057e-01 -3.115463852882385254e-01 -8.105635046958923340e-01
1.818000000000000000e+03 4.358679962158203125e+01 7.265586853027343750e+00 1.690304756164550781e+00 1.557410717010498047e+01 5.179323673248291016e+00 -8.706489205360412598e-01
1.819000000000000000e+03 4.303345108032226562e+01 3.331654071807861328e-01 2.206057548522949219e+00 1.479862785339355469e+01 5.101405620574951172e+00 2.727181673049926758e+00
1.820000000000000000e+03 4.350013351440429688e+01 3.757936000823974609e+00 1.245323777198791504e+00 1.672378921508789062e+01 5.390733718872070312e+00 9.178863763809204102e-01
1.821000000000000000e+03 5.950332260131835938e+01 -3.002979660034179688e+01 -2.365542888641357422e+00 -3.722200095653533936e-01 -8.213288784027099609e-01 -3.638757169246673584e-01
1.822000000000000000e+03 6.323290252685546875e+01 -3.006548690795898438e+01 -1.190786242485046387e+00 1.772238969802856445e+00 1.744357943534851074e-01 5.353992581367492676e-01
1.823000000000000000e+03 4.344553375244140625e+01 8.179874420166015625e+00 1.840132832527160645e+00 1.486613750457763672e+01 5.011880874633789062e+00 -9.314808249473571777e-01
1.824000000000000000e+03 1.268638706207275391e+01 -1.188043498992919922e+01 1.288369894027709961e-01 1.113816127181053162e-01 7.206558436155319214e-02 -4.465418308973312378e-02
1.825000000000000000e+03 2.484145736694335938e+01 -4.596271991729736328e+00 -7.099032402038574219e-01 1.376256644725799561e-01 -1.716832816600799561e-01 1.484629809856414795e-01
1.826000000000000000e+03 2.406914901733398438e+01 -5.363317489624023438e+00 -6.444538235664367676e-01 1.443430930376052856e-01 -1.500332206487655640e-01 7.583013921976089478e-02
1.827000000000000000e+03 3.077792167663574219e+01 -3.073408889770507812e+01 7.092826366424560547e-01 1.156518936157226562e+00 5.597404837608337402e-01 1.112916350364685059e+00
1.828000000000000000e+03 3.214744567871093750e+01 -3.120080947875976562e+01 5.269434452056884766e-01 2.376740455627441406e+00 8.711051940917968750e-01 1.455705285072326660e+00
1.829000000000000000e+03 3.365248489379882812e+01 -5.574741363525390625e+00 -2.113157987594604492e+00 -1.891281604766845703e-01 -6.906858682632446289e-01 -3.148132860660552979e-01
1.830000000000000000e+03 2.565899467468261719e+01 -4.653933048248291016e+00 -8.053976893424987793e-01 1.192082688212394714e-01 -2.058568298816680908e-01 1.746622174978256226e-01
1.831000000000000000e+03 5.996014404296875000e+01 -3.097524452209472656e+01 -1.476243257522583008e+00 9.298101998865604401e-03 -4.400835335254669189e-01 1.025640685111284256e-02
1.832000000000000000e+03 2.715633583068847656e+01 -5.259222030639648438e+00 -1.088341116905212402e+00 5.023118481040000916e-02 -3.114329874515533447e-01 1.287969201803207397e-01
1.833000000000000000e+03 1.816537284851074219e+01 -4.626432895660400391e+00 -4.638839066028594971e-01 2.488273382186889648e-02 -1.317003518342971802e-01 -5.168952792882919312e-02
1.834000000000000000e+03 5.687437057495117188e+01 -7.220631599426269531e+00 -7.815084457397460938e-01 1.264972388744354248e-01 -1.965033710002899170e-01 -6.387192010879516602e-01
1.835000000000000000e+03 1.052210712432861328e+01 -1.951227569580078125e+01 1.406593322753906250e-01 6.191197037696838379e-01 2.279337048530578613e-01 -1.886710524559020996e-01
1.836000000000000000e+03 5.288392639160156250e+01 -5.410307407379150391e+00 -3.254857659339904785e-02 -1.826443150639533997e-02 -1.524390280246734619e-02 -9.730402231216430664e-01
1.837000000000000000e+03 5.476445007324218750e+01 -7.145156860351562500e+00 -1.626152992248535156e+00 -2.068601548671722412e-01 -5.499039292335510254e-01 -9.353086352348327637e-01
1.838000000000000000e+03 1.795255470275878906e+01 8.821808815002441406e+00 1.229644170962274075e-03 5.747701507061719894e-03 2.093203831464052200e-03 2.345200860872864723e-03
1.839000000000000000e+03 3.032433700561523438e+01 -3.201606750488281250e+01 4.136292934417724609e-01 1.234656214714050293e+00 4.944856464862823486e-01 1.060895562171936035e+00
1.840000000000000000e+03 1.204817962646484375e+01 -1.347450160980224609e+01 7.004626840353012085e-02 2.325300425291061401e-01 9.077288955450057983e-02 1.551523059606552124e-02
1.841000000000000000e+03 1.122806167602539062e+01 -1.337871837615966797e+01 4.367609322071075439e-02 2.270782887935638428e-01 8.122631162405014038e-02 -5.604897066950798035e-02
1.842000000000000000e+03 6.831780242919921875e+01 -1.556846714019775391e+01 2.242725610733032227e+00 1.440731048583984375e+01 4.995010852813720703e+00 -2.726160764694213867e+00
1.843000000000000000e+03 6.676683044433593750e+01 2.312375450134277344e+01 -1.000487923622131348e+00 4.941660881042480469e+00 1.182351946830749512e+00 -2.050561666488647461e+00
1.844000000000000000e+03 5.373003768920898438e+01 -3.116973304748535156e+01 -1.112124085426330566e+00 4.838791489601135254e-01 -1.884734630584716797e-01 -9.196248650550842285e-01
1.845000000000000000e+03 2.933683204650878906e+01 -3.231266403198242188e+01 3.665192723274230957e-01 8.484201431274414062e-01 3.644818365573883057e-01 8.198292255401611328e-01
1.846000000000000000e+03 6.864747619628906250e+01 -1.444021320343017578e+01 1.914388179779052734e+00 1.164522933959960938e+01 4.067885398864746094e+00 -1.790629267692565918e+00
1.847000000000000000e+03 1.601548385620117188e+01 -2.841533279418945312e+01 1.551347821950912476e-01 3.541899323463439941e-01 1.527974158525466919e-01 -2.484410703182220459e-01
1.848000000000000000e+03 1.662804222106933594e+01 -2.905026817321777344e+01 1.157582253217697144e-01 3.430989682674407959e-01 1.376571655273437500e-01 -2.338479459285736084e-01
1.849000000000000000e+03 1.828779029846191406e+01 1.797393226623535156e+01 -3.783567249774932861e-02 -3.126094862818717957e-02 -2.072898484766483307e-02 -4.819354787468910217e-02
1.850000000000000000e+03 1.662840080261230469e+01 1.473360252380371094e+01 -6.314453668892383575e-03 -3.206548979505896568e-03 -2.856300678104162216e-03 -6.920515093952417374e-03
1.851000000000000000e+03 1.560485172271728516e+01 -1.180551719665527344e+01 4.897650480270385742e-01 8.160097151994705200e-02 1.714098006486892700e-01 -9.474613517522811890e-02
1.852000000000000000e+03 1.467765331268310547e+01 -1.142766571044921875e+01 3.088418543338775635e-01 6.800698488950729370e-02 1.130546480417251587e-01 -8.987634629011154175e-02
1.853000000000000000e+03 3.381178283691406250e+01 -6.301329135894775391e+00 -1.456233263015747070e+00 -1.394740771502256393e-02 -4.410541951656341553e-01 -8.360776305198669434e-02
1.854000000000000000e+03 6.406500244140625000e+01 -2.855083465576171875e+01 -1.125634193420410156e+00 2.103852272033691406e+00 2.934654355049133301e-01 5.176731348037719727e-01
1.855000000000000000e+03 5.787190628051757812e+01 -3.175728797912597656e+01 -1.190024852752685547e+00 -2.520444691181182861e-01 -4.326207935810089111e-01 -3.758771419525146484e-01
1.856000000000000000e+03 5.895774841308593750e+01 -3.146697235107421875e+01 -1.291800498962402344e+00 -1.963884383440017700e-01 -4.464567005634307861e-01 -1.629358828067779541e-01
1.857000000000000000e+03 3.602936172485351562e+01 -2.702045822143554688e+01 1.503507733345031738e+00 5.834072589874267578e+00 2.201274156570434570e+00 1.924419879913330078e+00
1.858000000000000000e+03 2.346580314636230469e+01 -3.229391479492187500e+01 1.197358826175332069e-03 1.164299622178077698e-01 3.528819605708122253e-02 -9.932512789964675903e-02
1.859000000000000000e+03 6.480903625488281250e+01 -1.171971416473388672e+01 1.413847327232360840e+00 2.147149085998535156e+00 1.068298935890197754e+00 -1.929514408111572266e+00
1.860000000000000000e+03 1.885418891906738281e+01 -3.079013442993164062e+01 9.853378869593143463e-04 2.634437978267669678e-01 7.932873815298080444e-02 -2.415923625230789185e-01
1.861000000000000000e+03 3.445365524291992188e+01 -3.072294425964355469e+01 3.317886292934417725e-01 3.988354444503784180e+00 1.296042919158935547e+00 1.504833221435546875e+00
1.862000000000000000e+03 1.804025650024414062e+01 1.841727495193481445e+00 5.941444542258977890e-04 5.041930126026272774e-04 3.295012284070253372e-04 6.454115500673651695e-04
1.863000000000000000e+03 3.815548324584960938e+01 -1.983035469055175781e+01 7.553852796554565430e-01 5.835097789764404297e+00 1.977144956588745117e+00 7.646106481552124023e-01
1.864000000000000000e+03 4.767349243164062500e+01 1.096957397460937500e+01 8.229127526283264160e-01 1.118701839447021484e+01 3.602979183197021484e+00 2.162083625793457031e+00
1.865000000000000000e+03 1.335029792785644531e+01 -1.178850460052490234e+01 1.828967332839965820e-01 8.905262500047683716e-02 8.158481121063232422e-02 -3.604676201939582825e-02
1.866000000000000000e+03 1.125196838378906250e+01 -1.265896797180175781e+01 4.679016768932342529e-02 1.803074777126312256e-01 6.812929362058639526e-02 -7.691372185945510864e-02
1.867000000000000000e+03 6.908324432373046875e+01 1.411663055419921875e+01 1.226363897323608398e+00 1.193325805664062500e+01 3.947886466979980469e+00 8.713390231132507324e-01
1.868000000000000000e+03 6.918156433105468750e+01 1.483105468750000000e+01 1.270567178726196289e+00 1.233397102355957031e+01 4.081361293792724609e+00 6.192939877510070801e-01
1.869000000000000000e+03 1.043887329101562500e+01 -2.309757804870605469e+01 2.354686409235000610e-01 4.223837554454803467e-01 1.973557174205780029e-01 -1.507545113563537598e-01
1.870000000000000000e+03 6.834492492675781250e+01 -1.349149131774902344e+01 1.342066764831542969e+00 1.023993110656738281e+01 3.474599361419677734e+00 -1.844488739967346191e+00
1.871000000000000000e+03 6.820779418945312500e+01 -1.250268077850341797e+01 7.057688832283020020e-01 9.058249473571777344e+00 2.929205417633056641e+00 -1.673224210739135742e+00
1.872000000000000000e+03 1.053872585296630859e+01 3.021407127380371094e+00 2.605523215606808662e-03 -8.338270126841962337e-04 5.315088201314210892e-04 4.245000018272548914e-04
1.873000000000000000e+03 3.861748123168945312e+01 -4.753664970397949219e+00 -3.443464338779449463e-01 3.335536718368530273e+00 8.973571062088012695e-01 2.212561130523681641e+00
1.874000000000000000e+03 3.946610641479492188e+01 -4.428393363952636719e+00 -2.377529144287109375e-01 5.197627544403076172e+00 1.487962484359741211e+00 2.869867086410522461e+00
1.875000000000000000e+03 1.204192829132080078e+01 -1.269925117492675781e+01 8.687178790569305420e-02 1.700503379106521606e-01 7.707663625478744507e-02 -2.116782404482364655e-02
1.876000000000000000e+03 1.141562938690185547e+01 -1.571140861511230469e+01 5.438197776675224304e-02 4.789941012859344482e-01 1.600128263235092163e-01 -5.697763524949550629e-03
1.877000000000000000e+03 4.455068969726562500e+01 1.085768604278564453e+01 1.029561996459960938e+00 1.147771930694580078e+01 3.752184391021728516e+00 4.186585843563079834e-01
1.878000000000000000e+03 4.347866821289062500e+01 1.057419300079345703e+01 1.154365301132202148e+00 1.191593551635742188e+01 3.921090126037597656e+00 -6.108726263046264648e-01
1.879000000000000000e+03 4.522516250610351562e+01 -2.062816429138183594e+01 1.201848745346069336e+00 1.152076053619384766e+01 3.816782712936401367e+00 -1.467913687229156494e-01
1.880000000000000000e+03 3.669767379760742188e+01 -1.761462402343750000e+01 3.457162082195281982e-01 4.239275932312011719e+00 1.375497579574584961e+00 -4.339754581451416016e-02
1.881000000000000000e+03 3.518360137939453125e+01 -1.554051017761230469e+01 4.869249165058135986e-01 2.041405677795410156e+00 7.584992051124572754e-01 -4.916660785675048828e-01
1.882000000000000000e+03 1.114486026763916016e+01 -1.408495330810546875e+01 3.566466644406318665e-02 2.878296673297882080e-01 9.704829752445220947e-02 -4.928440973162651062e-02
1.883000000000000000e+03 4.131575393676757812e+01 -3.911385536193847656e+00 -5.104563236236572266e-01 9.435062408447265625e+00 2.677381992340087891e+00 2.545178413391113281e+00
1.884000000000000000e+03 3.707094955444335938e+01 -2.339412498474121094e+01 1.240914463996887207e+00 6.502664566040039062e+00 2.323073625564575195e+00 1.711127877235412598e+00
1.885000000000000000e+03 4.633085632324218750e+01 -2.655847167968750000e+01 2.771500647068023682e-01 6.478619098663330078e+00 2.026730775833129883e+00 -1.147339701652526855e+00
1.886000000000000000e+03 4.799769973754882812e+01 -4.407478272914886475e-01 2.119313955307006836e+00 7.629582881927490234e+00 2.924669027328491211e+00 -1.288153171539306641e+00
1.887000000000000000e+03 4.951615905761718750e+01 -5.215647220611572266e-01 3.173465728759765625e+00 4.702933311462402344e+00 2.362919569015502930e+00 -1.782397389411926270e+00
1.888000000000000000e+03 4.594067001342773438e+01 -1.287330627441406250e+01 5.647572875022888184e-01 1.036518764495849609e+01 3.278983592987060547e+00 1.361034154891967773e+00
1.889000000000000000e+03 6.923805999755859375e+01 -1.702486991882324219e+01 1.891465306282043457e+00 1.375373935699462891e+01 4.693561553955078125e+00 -1.268981337547302246e+00
1.890000000000000000e+03 6.909188079833984375e+01 -1.618829917907714844e+01 2.207618236541748047e+00 1.336725330352783203e+01 4.672461509704589844e+00 -1.550007462501525879e+00
1.891000000000000000e+03 3.554179763793945312e+01 -2.788492584228515625e+01 1.321774363517761230e+00 5.293251037597656250e+00 1.984507679939270020e+00 1.905131936073303223e+00
1.892000000000000000e+03 2.041294670104980469e+01 2.960094213485717773e+00 1.196062585222534835e-04 9.055644040927290916e-04 3.075512067880481482e-04 2.985761057061608881e-05
1.893000000000000000e+03 2.010134506225585938e+01 1.555020809173583984e+00 -7.936551992315798998e-05 9.126646909862756729e-05 3.570283297449350357e-06 1.811717374948784709e-04
1.894000000000000000e+03 5.677350997924804688e+01 -5.920993328094482422e+00 -1.308652460575103760e-01 1.231364160776138306e-02 -3.556548058986663818e-02 -1.086570024490356445e+00
1.895000000000000000e+03 5.372317886352539062e+01 -6.720913052558898926e-01 2.972681760787963867e+00 9.994062781333923340e-02 9.217866659164428711e-01 -3.496786355972290039e-01
1.896000000000000000e+03 4.155819702148437500e+01 -3.020224332809448242e+00 5.258951783180236816e-01 1.044590568542480469e+01 3.291540384292602539e+00 2.721691370010375977e+00
1.897000000000000000e+03 6.825303649902343750e+01 1.052572917938232422e+01 6.244596838951110840e-01 8.499150276184082031e+00 2.737082958221435547e+00 1.223492264747619629e+00
1.898000000000000000e+03 1.831809878349304199e+00 3.382424592971801758e+00 2.880704996641725302e-04 1.051152590662240982e-03 4.017669125460088253e-04 -1.241091522388160229e-03
1.899000000000000000e+03 1.088377475738525391e+00 3.427403211593627930e+00 1.849544059950858355e-04 1.241853227838873863e-03 4.280422872398048639e-04 -7.992348982952535152e-04
1.900000000000000000e+03 1.992135238647460938e+01 2.137248039245605469e+01 -4.792110323905944824e-01 -2.946349978446960449e-02 -1.526023596525192261e-01 -7.123427093029022217e-02
1.901000000000000000e+03 1.912145423889160156e+01 2.125320243835449219e+01 -3.961776793003082275e-01 8.620083332061767578e-03 -1.162672787904739380e-01 -4.923660308122634888e-02
1.902000000000000000e+03 4.570767211914062500e+01 -2.340242385864257812e+01 1.543617606163024902e+00 9.574855804443359375e+00 3.335542201995849609e+00 -1.054793715476989746e+00
1.903000000000000000e+03 4.345977783203125000e+01 -7.344012260437011719e-01 1.976014614105224609e+00 1.272738265991210938e+01 4.411019325256347656e+00 1.901064753532409668e+00
1.904000000000000000e+03 1.798003768920898438e+01 1.972439384460449219e+01 -2.067900002002716064e-01 2.559510758146643639e-03 -6.126914545893669128e-02 -8.419285714626312256e-02
1.905000000000000000e+03 1.780265045166015625e+01 1.890286064147949219e+01 -1.178900152444839478e-01 -1.883957721292972565e-02 -4.101887717843055725e-02 -7.696356624364852905e-02
1.906000000000000000e+03 1.668295478820800781e+01 2.813285827636718750e+00 3.731074684765189886e-04 2.587531344033777714e-04 1.895581808639690280e-04 1.541351317428052425e-03
1.907000000000000000e+03 1.734206199645996094e+01 1.973868846893310547e+00 3.560934856068342924e-04 2.121976722264662385e-04 1.704873429844155908e-04 1.057844841852784157e-03
1.908000000000000000e+03 5.246864318847656250e+01 2.272536087036132812e+01 -1.700344532728195190e-01 4.657521724700927734e+00 1.346246123313903809e+00 2.091376066207885742e+00
1.909000000000000000e+03 3.007730674743652344e+01 -5.911751747131347656e+00 -1.881753921508789062e+00 -4.453657269477844238e-01 -6.981359124183654785e-01 -4.525193572044372559e-02
1.910000000000000000e+03 3.185852813720703125e+01 -1.253880310058593750e+01 8.173303008079528809e-01 1.236199513077735901e-01 2.822850942611694336e-01 -2.873241901397705078e-02
1.911000000000000000e+03 1.086379814147949219e+01 -2.119459152221679688e+01 2.442602068185806274e-01 6.474599838256835938e-01 2.675160467624664307e-01 -2.422893643379211426e-01
1.912000000000000000e+03 1.104899787902832031e+01 -2.206294631958007812e+01 2.859784364700317383e-01 6.297832727432250977e-01 2.747285068035125732e-01 -2.363783121109008789e-01
1.913000000000000000e+03 9.698957443237304688e+00 -1.713799667358398438e+01 9.533565491437911987e-02 3.672665655612945557e-01 1.387806683778762817e-01 -1.557012051343917847e-01
1.914000000000000000e+03 6.280749893188476562e+01 -1.040078544616699219e+01 4.545218050479888916e-01 7.351761460304260254e-01 3.569093644618988037e-01 -8.198978900909423828e-01
1.915000000000000000e+03 3.641490936279296875e+01 -2.611546707153320312e+01 1.671123504638671875e+00 6.233739376068115234e+00 2.371458768844604492e+00 1.883983731269836426e+00
1.916000000000000000e+03 3.670960235595703125e+01 -2.520506477355957031e+01 1.716593265533447266e+00 6.479042053222656250e+00 2.458690643310546875e+00 1.905099749565124512e+00
1.917000000000000000e+03 5.214752960205078125e+01 -7.566801071166992188e+00 -3.437504053115844727e+00 -8.815795779228210449e-01 -1.295725107192993164e+00 -5.730311870574951172e-01
1.918000000000000000e+03 5.025748825073242188e+01 -1.346523046493530273e+00 2.803913116455078125e+00 3.573561668395996094e+00 1.913242459297180176e+00 -1.313961386680603027e+00
1.919000000000000000e+03 6.500028991699218750e+01 2.315046691894531250e+01 -8.403642177581787109e-01 1.872930526733398438e+00 3.097698688507080078e-01 -1.593914031982421875e+00
1.920000000000000000e+03 6.583163452148437500e+01 -1.151589107513427734e+01 1.090596437454223633e+00 4.508482456207275391e+00 1.679723739624023438e+00 -2.453275918960571289e+00
1.921000000000000000e+03 4.626350784301757812e+01 -1.197336387634277344e+01 7.043039798736572266e-02 9.729465484619140625e+00 2.939968824386596680e+00 1.183501720428466797e+00
1.922000000000000000e+03 1.750035858154296875e+01 1.723564147949218750e+01 -3.064126148819923401e-02 -1.633005961775779724e-02 -1.409139577299356461e-02 -3.551048040390014648e-02
1.923000000000000000e+03 1.977225780487060547e+00 -3.480847597122192383e+00 -1.780776306986808777e-02 -4.561626911163330078e-02 -1.902721077203750610e-02 -4.606744274497032166e-02
1.924000000000000000e+03 5.057169342041015625e+01 2.148838806152343750e+01 3.235254287719726562e-01 6.141664505004882812e+00 1.939556956291198730e+00 1.611708164215087891e+00
1.925000000000000000e+03 2.138113975524902344e+01 -4.883798599243164062e+00 -5.206057429313659668e-01 5.921118706464767456e-02 -1.384183615446090698e-01 3.697393462061882019e-02
1.926000000000000000e+03 5.088986206054687500e+01 -3.154023361206054688e+01 -7.502649426460266113e-01 2.159653902053833008e+00 4.228166937828063965e-01 -1.395340919494628906e+00
1.927000000000000000e+03 3.355416107177734375e+01 -1.471386528015136719e+01 8.247630596160888672e-01 6.002050042152404785e-01 4.274904131889343262e-01 -2.247597724199295044e-01
1.928000000000000000e+03 4.868798446655273438e+01 -5.711404681205749512e-01 2.479733467102050781e+00 6.389898777008056641e+00 2.660889625549316406e+00 -1.657250761985778809e+00
1.929000000000000000e+03 1.695147705078125000e+01 -9.543937683105468750e+00 9.891929477453231812e-02 1.529221236705780029e-01 7.555242627859115601e-02 -1.561218053102493286e-01
1.930000000000000000e+03 2.788036537170410156e+01 -5.716724395751953125e+00 -1.271330237388610840e+00 -4.242657497525215149e-02 -3.941270411014556885e-01 8.865378797054290771e-03
1.931000000000000000e+03 7.002190399169921875e+01 1.889533615112304688e+01 2.076912164688110352e+00 1.072099304199218750e+01 3.839371442794799805e+00 -3.656133711338043213e-01
1.932000000000000000e+03 2.950943183898925781e+01 -1.286027145385742188e+01 7.514211535453796387e-01 -1.000710651278495789e-01 1.954050362110137939e-01 -6.492616236209869385e-02
1.933000000000000000e+03 5.051536941528320312e+01 2.037100601196289062e+01 9.138455390930175781e-01 6.593602180480957031e+00 2.252234458923339844e+00 1.852291703224182129e+00
1.934000000000000000e+03 2.687801933288574219e+01 2.271855354309082031e+01 -3.567248582839965820e-01 8.528630435466766357e-02 -8.143156021833419800e-02 -9.809504449367523193e-02
1.935000000000000000e+03 2.613742637634277344e+01 2.293214607238769531e+01 -3.962346315383911133e-01 6.460826843976974487e-02 -9.948790818452835083e-02 -8.058766275644302368e-02
1.936000000000000000e+03 5.492020416259765625e+01 -1.247805833816528320e+00 2.273558139801025391e+00 -2.444620281457901001e-01 6.087288856506347656e-01 -6.811833977699279785e-01
1.937000000000000000e+03 5.186722183227539062e+01 -6.819759607315063477e-01 3.939247608184814453e+00 1.153701186180114746e+00 1.527884602546691895e+00 -1.091273665428161621e+00
1.938000000000000000e+03 6.943435668945312500e+01 -2.233380317687988281e+01 5.601414442062377930e-01 1.054838657379150391e+01 3.332558393478393555e+00 -1.583059877157211304e-01
1.939000000000000000e+03 3.731043624877929688e+01 -1.967855262756347656e+01 6.037462949752807617e-01 5.417805194854736328e+00 1.806465506553649902e+00 4.592207074165344238e-01
1.940000000000000000e+03 3.712293243408203125e+01 -1.861368179321289062e+01 5.357009172439575195e-01 4.949461936950683594e+00 1.645548820495605469e+00 2.632986605167388916e-01
1.941000000000000000e+03 2.073778724670410156e+01 2.335663604736328125e+01 -3.847098052501678467e-01 -5.435656756162643433e-02 -1.317199021577835083e-01 8.684504032135009766e-02
1.942000000000000000e+03 1.825031280517578125e+01 2.132289123535156250e+01 -3.269172310829162598e-01 4.659660905599594116e-02 -8.409618586301803589e-02 -1.932895928621292114e-02
1.943000000000000000e+03 2.838318824768066406e+01 2.243481636047363281e+01 -2.517928183078765869e-01 1.631398350000381470e-01 -2.659589797258377075e-02 -2.029500156641006470e-01
1.944000000000000000e+03 1.603399467468261719e+01 -1.087566757202148438e+01 3.000850081443786621e-01 1.441833078861236572e-01 1.332805007696151733e-01 -1.466491669416427612e-01
1.945000000000000000e+03 3.870672225952148438e+01 1.456782436370849609e+01 1.536248564720153809e+00 3.369515895843505859e+00 1.471729278564453125e+00 -2.137807846069335938e+00
1.946000000000000000e+03 3.939213562011718750e+01 1.608359718322753906e+01 8.841304779052734375e-01 4.238377094268798828e+00 1.536752223968505859e+00 -1.847438335418701172e+00
1.947000000000000000e+03 1.049255084991455078e+01 -4.047561168670654297e+00 -2.384220957756042480e-01 3.752938285470008850e-02 -6.026780977845191956e-02 -1.402974277734756470e-01
1.948000000000000000e+03 9.811895370483398438e+00 -3.977148532867431641e+00 -2.181058079004287720e-01 3.128502890467643738e-02 -5.604623630642890930e-02 -1.393764019012451172e-01
1.949000000000000000e+03 5.821454620361328125e+01 -8.214973449707031250e+00 -5.195519328117370605e-01 2.196059226989746094e-01 -8.998379856348037720e-02 -2.843307256698608398e-01
1.950000000000000000e+03 2.187307167053222656e+01 -1.212060356140136719e+01 4.201580584049224854e-01 1.300482824444770813e-02 1.299488693475723267e-01 -2.131056189537048340e-01
1.951000000000000000e+03 1.987490844726562500e+01 4.141749382019042969e+00 -1.710069773253053427e-04 1.061147893778979778e-03 2.670422836672514677e-04 1.143865956692025065e-04
1.952000000000000000e+03 4.531692886352539062e+01 -1.717245864868164062e+01 8.202341794967651367e-01 1.214851951599121094e+01 3.890625953674316406e+00 1.181206464767456055e+00
1.953000000000000000e+03 2.057017326354980469e+01 -1.202363109588623047e+01 4.285740852355957031e-01 2.683888375759124756e-02 1.366238892078399658e-01 -1.875273287296295166e-01
1.954000000000000000e+03 1.843676757812500000e+01 6.220384597778320312e+00 -1.655790139921009541e-03 2.795805688947439194e-03 3.420046705286949873e-04 1.320234383456408978e-03
1.955000000000000000e+03 6.097824859619140625e+01 -9.087240219116210938e+00 1.407085210084915161e-01 5.200547575950622559e-01 1.982289850711822510e-01 -4.873923957347869873e-01
1.956000000000000000e+03 5.960543441772460938e+01 -8.576827049255371094e+00 -1.218856498599052429e-01 3.375752866268157959e-01 6.470689177513122559e-02 -3.442495763301849365e-01
1.957000000000000000e+03 4.947859573364257812e+01 -1.341853737831115723e+00 2.422477483749389648e+00 4.813081741333007812e+00 2.170667886734008789e+00 -1.311724901199340820e+00
1.958000000000000000e+03 2.045083045959472656e+01 -1.252770328521728516e+01 4.736270308494567871e-01 3.253171592950820923e-02 1.518476307392120361e-01 -2.108789533376693726e-01
1.959000000000000000e+03 2.119989585876464844e+01 -1.207998752593994141e+01 4.128847420215606689e-01 2.248486876487731934e-02 1.306108832359313965e-01 -2.079986482858657837e-01
1.960000000000000000e+03 6.101055145263671875e+01 -7.503311157226562500e+00 2.931901216506958008e-01 8.942192196846008301e-01 3.562228083610534668e-01 -8.083090782165527344e-01
1.961000000000000000e+03 6.136075592041015625e+01 -9.984829902648925781e+00 8.400391787290573120e-02 3.690523505210876465e-01 1.359168887138366699e-01 -3.708596527576446533e-01
1.962000000000000000e+03 1.117564392089843750e+01 -4.142258644104003906e+00 -2.596340179443359375e-01 4.273613542318344116e-02 -6.506936252117156982e-02 -1.411066800355911255e-01
1.963000000000000000e+03 7.696940898895263672e+00 -3.269503831863403320e+00 -1.597778499126434326e-01 6.272914819419384003e-03 -4.605147987604141235e-02 -1.145650967955589294e-01
1.964000000000000000e+03 9.124526977539062500e+00 -3.935617446899414062e+00 -1.961283385753631592e-01 2.351232804358005524e-02 -5.178480222821235657e-02 -1.380252540111541748e-01
1.965000000000000000e+03 1.579939460754394531e+01 4.884540557861328125e+00 -2.059820253634825349e-04 4.156974027864634991e-04 6.291460886131972075e-05 2.110731322318315506e-03
1.966000000000000000e+03 1.912977027893066406e+01 2.783238887786865234e+00 3.450324002187699080e-04 6.711706519126892090e-04 3.048609069082885981e-04 6.315576029010117054e-04
1.967000000000000000e+03 1.343723678588867188e+01 -3.853516817092895508e+00 -3.579607009887695312e-01 4.284337162971496582e-02 -9.453520178794860840e-02 -1.123626306653022766e-01
1.968000000000000000e+03 1.721310424804687500e+01 1.977356529235839844e+01 -1.869218498468399048e-01 2.415486238896846771e-02 -4.883009940385818481e-02 -5.473697558045387268e-02
1.969000000000000000e+03 1.813571739196777344e+01 2.052842330932617188e+01 -2.789127230644226074e-01 2.686971612274646759e-02 -7.561290264129638672e-02 -5.763027071952819824e-02
1.970000000000000000e+03 2.151366996765136719e+01 -7.301418304443359375e+00 -2.921618223190307617e-01 9.900692105293273926e-02 -5.794647336006164551e-02 -7.008606195449829102e-02
1.971000000000000000e+03 3.230907440185546875e+01 -7.205979824066162109e+00 -9.701453447341918945e-01 -2.265599370002746582e-01 -3.590115904808044434e-01 -1.388995200395584106e-01
1.972000000000000000e+03 1.443481540679931641e+01 3.138864994049072266e+00 1.781387487426400185e-03 -4.044469969812780619e-04 4.130821325816214085e-04 1.793381874449551105e-03
1.973000000000000000e+03 6.131843566894531250e+01 -8.403285980224609375e+00 2.696298062801361084e-01 8.091717362403869629e-01 3.236404657363891602e-01 -7.258042097091674805e-01
1.974000000000000000e+03 6.028506469726562500e+01 -8.844612121582031250e+00 7.428254466503858566e-04 4.228208363056182861e-01 1.270691007375717163e-01 -3.968991041183471680e-01
1.975000000000000000e+03 5.993222427368164062e+01 -9.536248207092285156e+00 -1.935765445232391357e-01 2.203305065631866455e-01 8.026190102100372314e-03 -1.497136205434799194e-01
1.976000000000000000e+03 1.368214511871337891e+01 3.253584623336791992e+00 1.402716268785297871e-03 -6.765238940715789795e-04 2.178577124141156673e-04 1.562363468110561371e-03
1.977000000000000000e+03 6.125131225585937500e+01 2.612485647201538086e+00 6.909781694412231445e-02 5.962695479393005371e-01 1.996102035045623779e-01 5.557127669453620911e-02
1.978000000000000000e+03 1.740822982788085938e+01 2.667861700057983398e+00 7.033842266537249088e-04 6.612889119423925877e-04 4.094019532203674316e-04 1.094792736694216728e-03
1.979000000000000000e+03 6.541537475585937500e+01 6.322478771209716797e+00 -2.206481248140335083e-01 3.429435014724731445e+00 9.626361131668090820e-01 1.028730392456054688e+00
1.980000000000000000e+03 1.186541366577148438e+01 -4.254394531250000000e+00 -2.773284018039703369e-01 4.565173014998435974e-02 -6.950300186872482300e-02 -1.411998122930526733e-01
1.981000000000000000e+03 1.256674385070800781e+01 -4.377163887023925781e+00 -2.971031665802001953e-01 4.876341298222541809e-02 -7.450193166732788086e-02 -1.406550109386444092e-01
1.982000000000000000e+03 5.558916854858398438e+01 2.329756164550781250e+01 -4.078420400619506836e-01 1.425491571426391602e+00 3.052948713302612305e-01 1.577427268028259277e+00
1.983000000000000000e+03 5.391292190551757812e+01 2.386134338378906250e+01 -3.925915360450744629e-01 3.204353094100952148e+00 8.435284495353698730e-01 2.067770719528198242e+00
1.984000000000000000e+03 3.589900588989257812e+01 -7.140491008758544922e+00 -6.232351064682006836e-01 1.372486352920532227e+00 2.247754037380218506e-01 7.011206746101379395e-01
1.985000000000000000e+03 3.643325424194335938e+01 -6.229073047637939453e+00 -7.949066758155822754e-01 1.403089642524719238e+00 1.824548989534378052e-01 8.341597914695739746e-01
1.986000000000000000e+03 3.721605682373046875e+01 -5.965980052947998047e+00 -7.093280553817749023e-01 2.016398191452026367e+00 3.921210169792175293e-01 1.259338140487670898e+00
1.987000000000000000e+03 6.185313415527343750e+01 3.126593351364135742e+00 -1.961927115917205811e-02 8.472202420234680176e-01 2.482802867889404297e-01 1.534976661205291748e-01
1.988000000000000000e+03 2.478076934814453125e+01 -5.268970489501953125e+00 -7.212270498275756836e-01 1.508683562278747559e-01 -1.711076050996780396e-01 8.504025638103485107e-02
1.989000000000000000e+03 1.328632259368896484e+01 -4.505067825317382812e+00 -3.131125867366790771e-01 4.972793906927108765e-02 -7.901538908481597900e-02 -1.379956007003784180e-01
1.990000000000000000e+03 2.013713645935058594e+01 -1.130504608154296875e+01 3.442038595676422119e-01 6.042752787470817566e-02 1.213894113898277283e-01 -1.787119656801223755e-01
1.991000000000000000e+03 1.919212150573730469e+01 -1.129517555236816406e+01 3.556656837463378906e-01 9.389251470565795898e-02 1.348674595355987549e-01 -1.591184139251708984e-01
1.992000000000000000e+03 1.897107887268066406e+01 -4.661688804626464844e+00 -4.753037393093109131e-01 2.580585889518260956e-02 -1.348493695259094238e-01 -3.109555318951606750e-02
1.993000000000000000e+03 4.440078353881835938e+01 6.348466396331787109e+00 1.466907501220703125e+00 1.497268581390380859e+01 4.931878089904785156e+00 -2.291483581066131592e-01
1.994000000000000000e+03 4.631999588012695312e+01 5.325707435607910156e+00 1.341425538063049316e+00 1.318006992340087891e+01 4.356448650360107422e+00 1.061228476464748383e-02
1.995000000000000000e+03 2.157804489135742188e+01 -3.184367179870605469e+01 -3.485967591404914856e-02 1.559624969959259033e-01 3.633084893226623535e-02 -1.921599805355072021e-01
1.996000000000000000e+03 2.535402870178222656e+01 -3.367107772827148438e+01 2.144042998552322388e-01 2.745146751403808594e-01 1.466756910085678101e-01 1.025184616446495056e-01
1.997000000000000000e+03 6.170035552978515625e+01 -2.992716598510742188e+01 -1.571468114852905273e+00 6.665863394737243652e-01 -2.714645266532897949e-01 1.547016799449920654e-01
1.998000000000000000e+03 6.369507217407226562e+01 -2.922692108154296875e+01 -1.170045971870422363e+00 1.968473672866821289e+00 2.395283281803131104e-01 5.060800909996032715e-01
1.999000000000000000e+03 2.586739778518676758e+00 3.345369577407836914e+00 6.364558357745409012e-04 8.467160514555871487e-04 4.449515545275062323e-04 -1.497340854257345200e-03
2.000000000000000000e+03 8.877510070800781250e+00 3.829218626022338867e+00 1.941503724083304405e-03 -1.228088862262666225e-03 2.140244469046592712e-04 -7.525995024479925632e-04
2.001000000000000000e+03 7.980489730834960938e+00 5.266787052154541016e+00 1.465141540393233299e-03 -1.733645331114530563e-03 -8.055114449234679341e-05 -1.156463404186069965e-03
2.002000000000000000e+03 6.301984405517578125e+01 2.482903480529785156e+01 -6.371220350265502930e-01 9.837976098060607910e-01 1.040026694536209106e-01 -8.429255485534667969e-01
2.003000000000000000e+03 6.079857254028320312e+01 2.407494354248046875e+01 -1.368553400039672852e+00 6.778031587600708008e-02 -3.902319073677062988e-01 1.448038816452026367e-01
2.004000000000000000e+03 2.457757711410522461e+00 7.126665115356445312e+00 7.315241964533925056e-05 2.490571467205882072e-03 7.691172068007290363e-04 -2.355173695832490921e-03
2.005000000000000000e+03 7.240717887878417969e+00 3.902677774429321289e+00 1.745399553328752518e-03 -9.518043952994048595e-04 2.380785299465060234e-04 -1.578422030434012413e-03
2.006000000000000000e+03 8.091542243957519531e+00 3.187344551086425781e+00 2.216658554971218109e-03 -7.781342137604951859e-04 4.315572732593864202e-04 -1.086709205992519855e-03
2.007000000000000000e+03 8.054437637329101562e+00 3.871774673461914062e+00 2.061136765405535698e-03 -1.022213487885892391e-03 3.116769366897642612e-04 -9.760946268215775490e-04
2.008000000000000000e+03 1.773544669151306152e+00 4.911168098449707031e+00 1.623194402782246470e-04 1.927833771333098412e-03 6.270459271036088467e-04 -1.611921354196965694e-03
2.009000000000000000e+03 2.484204292297363281e+00 5.597887992858886719e+00 2.521637943573296070e-04 1.762549742124974728e-03 6.044140318408608437e-04 -2.154070418328046799e-03
2.010000000000000000e+03 4.021022319793701172e+00 4.727902412414550781e+00 8.839524816721677780e-04 4.555978812277317047e-04 4.018651088699698448e-04 -2.233728999271988869e-03
2.011000000000000000e+03 3.351439476013183594e+00 3.314897060394287109e+00 8.219179580919444561e-04 5.052078631706535816e-04 3.981377521995455027e-04 -1.782655599527060986e-03
2.012000000000000000e+03 7.063910675048828125e+01 1.691422653198242188e+01 1.381128907203674316e+00 1.058104801177978516e+01 3.588653087615966797e+00 -2.560820281505584717e-01
2.013000000000000000e+03 1.572429180145263672e+01 -1.024111080169677734e+01 1.802506297826766968e-01 1.346120983362197876e-01 9.445881843566894531e-02 -1.689024418592453003e-01
2.014000000000000000e+03 4.896426391601562500e+01 1.706312751770019531e+01 1.214203119277954102e+00 8.418081283569335938e+00 2.889685153961181641e+00 2.264526844024658203e+00
2.015000000000000000e+03 4.873237228393554688e+01 1.636073112487792969e+01 1.102064013481140137e+00 8.836795806884765625e+00 2.981657981872558594e+00 2.313108921051025391e+00
2.016000000000000000e+03 2.470254707336425781e+01 -1.317623710632324219e+01 6.212984919548034668e-01 1.061984244734048843e-02 1.895754933357238770e-01 -2.047993391752243042e-01
2.017000000000000000e+03 2.414175987243652344e+01 -1.237301445007324219e+01 4.702098071575164795e-01 6.579717155545949936e-03 1.430368572473526001e-01 -2.336544841527938843e-01
2.018000000000000000e+03 5.986650466918945312e+01 2.402583312988281250e+01 -1.365556597709655762e+00 5.822005495429039001e-02 -3.922009468078613281e-01 4.266363978385925293e-01
2.019000000000000000e+03 5.871450424194335938e+01 2.557184982299804688e+01 -4.028747677803039551e-01 7.726371884346008301e-01 1.109287366271018982e-01 9.137011766433715820e-01
2.020000000000000000e+03 4.288311004638671875e+01 1.132937049865722656e+01 9.746773242950439453e-01 1.091633129119873047e+01 3.567302465438842773e+00 -1.287600278854370117e+00
2.021000000000000000e+03 1.402917385101318359e+01 -4.635712146759033203e+00 -3.308449387550354004e-01 5.087878182530403137e-02 -8.398984372615814209e-02 -1.344742029905319214e-01
2.022000000000000000e+03 1.479423046112060547e+01 -4.769822597503662109e+00 -3.444986641407012939e-01 5.081098154187202454e-02 -8.810630440711975098e-02 -1.286215037107467651e-01
2.023000000000000000e+03 6.831581115722656250e+01 2.191208457946777344e+01 -9.350149631500244141e-01 8.641982078552246094e+00 2.312090158462524414e+00 -1.237143278121948242e+00
2.024000000000000000e+03 6.870284271240234375e+01 2.000774574279785156e+01 1.529570698738098145e+00 1.069772434234619141e+01 3.668188333511352539e+00 -4.260034561157226562e-01
2.025000000000000000e+03 1.761257743835449219e+01 6.352956295013427734e+00 7.372226100414991379e-04 2.640456426888704300e-03 1.013303757645189762e-03 2.182358643040060997e-03
2.026000000000000000e+03 1.829959487915039062e+01 7.148721694946289062e+00 9.870699141174554825e-04 3.812917042523622513e-03 1.439996063709259033e-03 1.626967568881809711e-03
2.027000000000000000e+03 4.689321517944335938e+01 7.686057567596435547e+00 9.645903706550598145e-01 1.242774581909179688e+01 4.017700672149658203e+00 1.121491551399230957e+00
2.028000000000000000e+03 4.702061843872070312e+01 8.576403617858886719e+00 1.008547306060791016e+00 1.207676124572753906e+01 3.925592660903930664e+00 1.392479777336120605e+00
2.029000000000000000e+03 4.787281036376953125e+01 2.219511747360229492e+00 2.464202642440795898e+00 1.089498615264892578e+01 4.007756710052490234e+00 -1.603908181190490723e+00
2.030000000000000000e+03 3.120359230041503906e+01 -7.691118717193603516e+00 -7.491118311882019043e-01 -3.533608913421630859e-01 -3.307418227195739746e-01 -2.075398266315460205e-01
2.031000000000000000e+03 6.963850402832031250e+01 -2.424180984497070312e+01 -5.948841571807861328e-01 8.959905624389648438e+00 2.509506464004516602e+00 -1.833529174327850342e-01
2.032000000000000000e+03 6.747124481201171875e+01 -2.398616600036621094e+01 -1.895432919263839722e-01 7.029416084289550781e+00 2.051961898803710938e+00 1.855427384376525879e+00
2.033000000000000000e+03 1.291833114624023438e+01 3.372838020324707031e+00 2.170783933252096176e-03 -8.776276372373104095e-04 3.879469004459679127e-04 1.577875344082713127e-03
2.034000000000000000e+03 3.187481880187988281e+01 -1.403378677368164062e+01 9.120049476623535156e-01 9.183371812105178833e-02 3.011516034603118896e-01 -1.074310019612312317e-02
2.035000000000000000e+03 1.684261322021484375e+01 1.127432632446289062e+01 1.079694251529872417e-03 4.053198732435703278e-03 1.539867836982011795e-03 3.056105459108948708e-03
2.036000000000000000e+03 7.100630950927734375e+01 1.741325378417968750e+01 1.510775923728942871e+00 9.922931671142578125e+00 3.430112361907958984e+00 -5.806965753436088562e-02
2.037000000000000000e+03 7.030970001220703125e+01 1.785877037048339844e+01 1.534002542495727539e+00 1.090314006805419922e+01 3.731142759323120117e+00 -4.005004465579986572e-01
2.038000000000000000e+03 1.975625228881835938e+01 -4.704474925994873047e+00 -4.917527735233306885e-01 3.065612912178039551e-02 -1.383289992809295654e-01 -7.368403021246194839e-03
2.039000000000000000e+03 2.225794792175292969e+01 -4.951307773590087891e+00 -5.541896224021911621e-01 8.666702359914779663e-02 -1.402567774057388306e-01 6.029824167490005493e-02
2.040000000000000000e+03 3.326496505737304688e+01 -1.534019851684570312e+01 7.289766669273376465e-01 3.159732520580291748e-01 3.134849965572357178e-01 -2.028839886188507080e-01
2.041000000000000000e+03 3.273931884765625000e+01 -1.430533218383789062e+01 8.996329307556152344e-01 2.694900929927825928e-01 3.507368862628936768e-01 -8.915343135595321655e-02
2.042000000000000000e+03 3.799858856201171875e+01 -2.082406616210937500e+01 7.613844275474548340e-01 6.050967693328857422e+00 2.043705701828002930e+00 9.885977506637573242e-01
2.043000000000000000e+03 6.424124908447265625e+01 5.218109130859375000e+00 -2.004726827144622803e-01 2.285853147506713867e+00 6.256141066551208496e-01 7.200929522514343262e-01
2.044000000000000000e+03 1.375945472717285156e+01 -2.701309776306152344e+01 1.547856926918029785e-01 4.163663685321807861e-01 1.713456213474273682e-01 -2.510136961936950684e-01
2.045000000000000000e+03 3.815295028686523438e+01 1.616403961181640625e+01 1.070295095443725586e+00 3.033107757568359375e+00 1.231020808219909668e+00 -1.765459418296813965e+00
2.046000000000000000e+03 5.163536834716796875e+01 -3.061230087280273438e+01 -7.899989485740661621e-01 1.618527889251708984e+00 2.485586702823638916e-01 -1.243429064750671387e+00
2.047000000000000000e+03 4.460364913940429688e+01 -1.797402954101562500e+01 9.356975555419921875e-01 1.117590045928955078e+01 3.633479356765747070e+00 8.607625365257263184e-01
2.048000000000000000e+03 1.557853794097900391e+01 -4.911218643188476562e+00 -3.599645793437957764e-01 5.187604203820228577e-02 -9.242656081914901733e-02 -1.194242313504219055e-01
2.049000000000000000e+03 6.917792510986328125e+01 -2.354164695739746094e+01 -3.680944740772247314e-01 9.405489921569824219e+00 2.711218595504760742e+00 1.074176877737045288e-01
2.050000000000000000e+03 6.871759033203125000e+01 -2.284293556213378906e+01 1.878779977560043335e-01 9.896063804626464844e+00 3.025182485580444336e+00 5.734613537788391113e-01
2.051000000000000000e+03 7.715763092041015625e+01 3.598190307617187500e+01 -6.151432637125253677e-03 7.593998432159423828e+00 2.276354074478149414e+00 -8.363616466522216797e-02
2.052000000000000000e+03 7.835990905761718750e+01 3.773260879516601562e+01 1.257187314331531525e-02 7.849570274353027344e+00 2.358642578125000000e+00 -6.466587632894515991e-02
2.053000000000000000e+03 7.794111633300781250e+01 3.577403259277343750e+01 -3.103689756244421005e-03 7.809621334075927734e+00 2.341955184936523438e+00 -7.154561579227447510e-02
2.054000000000000000e+03 7.812226104736328125e+01 3.173922920227050781e+01 -3.712369874119758606e-02 7.894198894500732422e+00 2.357122659683227539e+00 2.328790351748466492e-02
2.055000000000000000e+03 7.736503601074218750e+01 2.880182075500488281e+01 -1.163901463150978088e-01 7.701515674591064453e+00 2.275537729263305664e+00 2.014096975326538086e-01
2.056000000000000000e+03 7.816825866699218750e+01 1.504180717468261719e+01 1.436469107866287231e-01 6.202083587646484375e+00 1.903719067573547363e+00 -1.671836674213409424e-01
2.057000000000000000e+03 7.746353149414062500e+01 1.350952434539794922e+01 1.848519593477249146e-01 6.668148994445800781e+00 2.055900335311889648e+00 -4.263718724250793457e-01
2.058000000000000000e+03 7.735247039794921875e+01 2.803071784973144531e+01 -1.306668370962142944e-01 7.672396659851074219e+00 2.262518882751464844e+00 2.602274715900421143e-01
2.059000000000000000e+03 7.819013214111328125e+01 2.142785263061523438e+01 2.369284257292747498e-02 6.748121261596679688e+00 2.031544208526611328e+00 4.965569674968719482e-01
2.060000000000000000e+03 7.749370574951171875e+01 8.730957031250000000e+00 -2.947928011417388916e-02 7.370949745178222656e+00 2.202441215515136719e+00 -6.746863722801208496e-01
2.061000000000000000e+03 7.820597839355468750e+01 1.264726734161376953e+01 7.994598150253295898e-02 6.475142955780029297e+00 1.966526627540588379e+00 -4.145363867282867432e-01
2.062000000000000000e+03 7.694712066650390625e+01 -3.678579330444335938e+01 -3.231548517942428589e-02 9.097621917724609375e+00 2.719591856002807617e+00 -6.619313359260559082e-02
2.063000000000000000e+03 7.821627044677734375e+01 -2.099224281311035156e+01 1.228096187114715576e-01 6.722747802734375000e+00 2.053667306900024414e+00 -6.015537381172180176e-01
2.064000000000000000e+03 7.822676086425781250e+01 -1.377069854736328125e+01 8.300037682056427002e-02 6.464768886566162109e+00 1.964330673217773438e+00 4.304531216621398926e-01
2.065000000000000000e+03 7.822076416015625000e+01 -1.859426498413085938e+01 1.617263853549957275e-01 6.271721839904785156e+00 1.930034518241882324e+00 -2.530551254749298096e-01
2.066000000000000000e+03 7.822740936279296875e+01 7.858417510986328125e+00 -3.380119055509567261e-02 7.463793277740478516e+00 2.228997707366943359e+00 -5.120735168457031250e-01
2.067000000000000000e+03 7.754637908935546875e+01 7.138434410095214844e+00 -7.812047004699707031e-02 7.622826576232910156e+00 2.263411760330200195e+00 -6.047323942184448242e-01
2.068000000000000000e+03 7.822980499267578125e+01 6.884810328483581543e-01 -6.597980111837387085e-02 8.396332740783691406e+00 2.499105930328369141e+00 -7.924601435661315918e-02
2.069000000000000000e+03 7.752944946289062500e+01 4.937678575515747070e-03 -1.171456277370452881e-01 8.222119331359863281e+00 2.431492090225219727e+00 -4.272589087486267090e-02
2.070000000000000000e+03 7.809966278076171875e+01 -2.744604110717773438e+01 -8.367542177438735962e-02 8.630800247192382812e+00 2.564137458801269531e+00 -6.413628458976745605e-01
2.071000000000000000e+03 7.735473632812500000e+01 -2.819198226928710938e+01 -1.629978120326995850e-01 8.699990272521972656e+00 2.561097621917724609e+00 -7.219553589820861816e-01
2.072000000000000000e+03 7.824526214599609375e+01 5.467499256134033203e+00 -5.718096345663070679e-02 7.918352127075195312e+00 2.358351230621337891e+00 -3.903476893901824951e-01
2.073000000000000000e+03 7.822769927978515625e+01 -1.717418074607849121e+00 -6.386985629796981812e-02 8.396954536437988281e+00 2.499925374984741211e+00 7.637411355972290039e-02
2.074000000000000000e+03 7.717792510986328125e+01 -3.207144927978515625e+01 -1.590903252363204956e-01 9.075931549072265625e+00 2.675052404403686523e+00 -3.274124562740325928e-01
2.075000000000000000e+03 7.808964538574218750e+01 -2.983835220336914062e+01 -9.135819226503372192e-02 9.123899459838867188e+00 2.709762334823608398e+00 -4.377956390380859375e-01
2.076000000000000000e+03 7.821789550781250000e+01 -1.216370582580566406e+01 3.304365649819374084e-02 6.777204036712646484e+00 2.043074369430541992e+00 5.313132405281066895e-01
2.077000000000000000e+03 7.752674865722656250e+01 -1.367993831634521484e+01 1.517414450645446777e-01 6.804869651794433594e+00 2.086983203887939453e+00 5.421842932701110840e-01
2.078000000000000000e+03 7.822736358642578125e+01 -4.922270774841308594e+00 -6.413052976131439209e-02 8.153820037841796875e+00 2.426906824111938477e+00 2.851535379886627197e-01
2.079000000000000000e+03 7.751977539062500000e+01 -6.404235363006591797e+00 -1.120414212346076965e-01 7.888867855072021484e+00 2.333047866821289062e+00 4.775707423686981201e-01
2.080000000000000000e+03 7.685726928710937500e+01 -1.441119289398193359e+01 2.880324721336364746e-01 7.028316497802734375e+00 2.194904804229736328e+00 5.142250657081604004e-01
2.081000000000000000e+03 7.822009277343750000e+01 -8.937015533447265625e+00 -4.102829843759536743e-02 7.481125831604003906e+00 2.232029199600219727e+00 5.169648528099060059e-01
2.082000000000000000e+03 7.679810333251953125e+01 -9.510631561279296875e+00 -7.704488188028335571e-02 7.567932605743408203e+00 2.247266292572021484e+00 7.617681026458740234e-01
2.083000000000000000e+03 7.683785247802734375e+01 -1.489459753036499023e+00 -1.755796223878860474e-01 8.050888061523437500e+00 2.362592697143554688e+00 8.799690008163452148e-02
2.084000000000000000e+03 7.752853393554687500e+01 -3.199004888534545898e+00 -1.162396445870399475e-01 8.154793739318847656e+00 2.411566257476806641e+00 2.181448340415954590e-01
2.085000000000000000e+03 7.752832794189453125e+01 -3.998673677444458008e+00 -1.160405576229095459e-01 8.107567787170410156e+00 2.397458314895629883e+00 2.808773815631866455e-01
2.086000000000000000e+03 7.752671813964843750e+01 -4.798049449920654297e+00 -1.174084246158599854e-01 8.046904563903808594e+00 2.378848791122436523e+00 3.486855328083038330e-01
2.087000000000000000e+03 7.755921173095703125e+01 5.562629222869873047e+00 -1.040844097733497620e-01 7.843051433563232422e+00 2.321690082550048828e+00 -4.996466934680938721e-01
2.088000000000000000e+03 7.752800750732421875e+01 -1.598291158676147461e+00 -1.160413697361946106e-01 8.213486671447753906e+00 2.429233551025390625e+00 8.886589854955673218e-02
2.089000000000000000e+03 7.750408935546875000e+01 -9.627353668212890625e+00 -4.950994625687599182e-02 7.443996429443359375e+00 2.218345880508422852e+00 6.740121245384216309e-01
2.090000000000000000e+03 7.751552581787109375e+01 -8.010712623596191406e+00 -9.338867664337158203e-02 7.686971664428710938e+00 2.278074979782104492e+00 5.927582383155822754e-01
2.091000000000000000e+03 7.746684265136718750e+01 1.032583332061767578e+01 3.794965893030166626e-02 7.112493038177490234e+00 2.145132780075073242e+00 -6.734033226966857910e-01
2.092000000000000000e+03 7.752187347412109375e+01 7.934569835662841797e+00 -5.346542969346046448e-02 7.495981693267822266e+00 2.232754707336425781e+00 -6.424261331558227539e-01
2.093000000000000000e+03 7.754582977294921875e+01 3.989742040634155273e+00 -1.164661273360252380e-01 8.016163825988769531e+00 2.369909524917602539e+00 -3.779357373714447021e-01
2.094000000000000000e+03 7.753125762939453125e+01 1.607668399810791016e+00 -1.187526807188987732e-01 8.178089141845703125e+00 2.417800903320312500e+00 -1.760990768671035767e-01
2.095000000000000000e+03 7.688134765625000000e+01 5.649399280548095703e+00 -1.522912830114364624e-01 7.786509037017822266e+00 2.290265321731567383e+00 -5.758476853370666504e-01
2.096000000000000000e+03 7.753288269042968750e+01 2.403470039367675781e+00 -1.195005103945732117e-01 8.137325286865234375e+00 2.405347347259521484e+00 -2.459499090909957886e-01
2.097000000000000000e+03 7.751172637939453125e+01 -8.815816879272460938e+00 -7.129543274641036987e-02 7.568602561950683594e+00 2.249191999435424805e+00 6.370617747306823730e-01
2.098000000000000000e+03 7.820552825927734375e+01 1.184935760498046875e+01 6.525118649005889893e-02 6.615584373474121094e+00 2.004250764846801758e+00 -4.680121243000030518e-01
2.099000000000000000e+03 7.747051239013671875e+01 1.272362995147705078e+01 1.518228948116302490e-01 6.750666141510009766e+00 2.070746660232543945e+00 -5.106517672538757324e-01
2.100000000000000000e+03 7.822296905517578125e+01 -1.939154243469238281e+01 1.597384959459304810e-01 6.382520675659179688e+00 1.962677717208862305e+00 -3.792792260646820068e-01
2.101000000000000000e+03 7.751992034912109375e+01 -2.089241409301757812e+01 2.098757773637771606e-01 7.030400276184082031e+00 2.172082901000976562e+00 -7.442244291305541992e-01
2.102000000000000000e+03 7.618004608154296875e+01 -1.920861053466796875e+01 5.896008014678955078e-01 7.400637626647949219e+00 2.397071599960327148e+00 -5.958446860313415527e-01
2.103000000000000000e+03 7.751612091064453125e+01 -1.690771293640136719e+01 2.921467721462249756e-01 6.591746330261230469e+00 2.065167903900146484e+00 1.684704050421714783e-02
2.104000000000000000e+03 7.822227478027343750e+01 -1.618437957763671875e+01 1.545402258634567261e-01 6.193370342254638672e+00 1.904373168945312500e+00 1.351659297943115234e-01
2.105000000000000000e+03 7.753333282470703125e+01 -1.528379440307617188e+01 2.335757613182067871e-01 6.641105175018310547e+00 2.062404394149780273e+00 3.238359689712524414e-01
2.106000000000000000e+03 7.817474365234375000e+01 1.665652847290039062e+01 1.429442167282104492e-01 6.159757614135742188e+00 1.890810608863830566e+00 4.741848632693290710e-02
2.107000000000000000e+03 7.740848541259765625e+01 1.509516906738281250e+01 2.460829913616180420e-01 6.575400352478027344e+00 2.046445131301879883e+00 -2.004885822534561157e-01
2.108000000000000000e+03 7.758665466308593750e+01 1.833503341674804688e+01 1.898694336414337158e-01 6.530572414398193359e+00 2.016132593154907227e+00 3.354050815105438232e-01
2.109000000000000000e+03 7.744641876220703125e+01 1.429844570159912109e+01 2.126954346895217896e-01 6.591252803802490234e+00 2.041184425354003906e+00 -3.173349797725677490e-01
2.110000000000000000e+03 7.751559448242187500e+01 1.757671546936035156e+01 2.462713122367858887e-01 6.512842655181884766e+00 2.027734279632568359e+00 2.127735912799835205e-01
2.111000000000000000e+03 7.757875061035156250e+01 1.985180473327636719e+01 1.317195743322372437e-01 6.699785709381103516e+00 2.049451589584350586e+00 5.200104117393493652e-01
2.112000000000000000e+03 7.760729217529296875e+01 1.908945846557617188e+01 1.681815832853317261e-01 6.591091156005859375e+00 2.027781724929809570e+00 4.180268049240112305e-01
2.113000000000000000e+03 7.814049530029296875e+01 2.306526374816894531e+01 -2.625950239598751068e-02 7.083150863647460938e+00 2.117067337036132812e+00 5.126200318336486816e-01
2.114000000000000000e+03 7.745229339599609375e+01 2.146544837951660156e+01 5.097359046339988708e-02 6.956442356109619141e+00 2.102224826812744141e+00 6.356688737869262695e-01
2.115000000000000000e+03 7.655980682373046875e+01 -2.738498497009277344e+01 -2.402191460132598877e-01 8.517731666564941406e+00 2.483253717422485352e+00 -9.324340820312500000e-01
2.116000000000000000e+03 7.812902832031250000e+01 2.388363075256347656e+01 -4.169459640979766846e-02 7.231632709503173828e+00 2.156981468200683594e+00 4.900309741497039795e-01
2.117000000000000000e+03 7.812065124511718750e+01 2.551015090942382812e+01 -6.824450194835662842e-02 7.496979713439941406e+00 2.228620529174804688e+00 3.974263966083526611e-01
2.118000000000000000e+03 7.659823608398437500e+01 2.571717262268066406e+01 -2.027748227119445801e-01 7.537440299987792969e+00 2.200399637222290039e+00 5.175084471702575684e-01
2.119000000000000000e+03 7.740244293212890625e+01 -2.411351776123046875e+01 -4.343692678958177567e-03 7.828934192657470703e+00 2.347377061843872070e+00 -1.007416844367980957e+00
2.120000000000000000e+03 7.736210632324218750e+01 -2.493886756896972656e+01 -5.690337345004081726e-02 8.038137435913085938e+00 2.394370317459106445e+00 -9.902337789535522461e-01
2.121000000000000000e+03 7.731372070312500000e+01 -2.657745742797851562e+01 -1.325355619192123413e-01 8.398855209350585938e+00 2.479896068572998047e+00 -8.901133537292480469e-01
2.122000000000000000e+03 7.732916259765625000e+01 -2.739110755920410156e+01 -1.530606597661972046e-01 8.555014610290527344e+00 2.520586252212524414e+00 -8.148569464683532715e-01
2.123000000000000000e+03 7.747000122070312500e+01 -2.248186874389648438e+01 1.043206751346588135e-01 7.411265373229980469e+00 2.254675865173339844e+00 -9.327766299247741699e-01
2.124000000000000000e+03 7.736096954345703125e+01 2.561252784729003906e+01 -1.331716030836105347e-01 7.520561695098876953e+00 2.216217041015625000e+00 4.787697494029998779e-01
2.125000000000000000e+03 7.735575103759765625e+01 2.723002433776855469e+01 -1.394423097372055054e-01 7.635724544525146484e+00 2.248884677886962891e+00 3.366450369358062744e-01
2.126000000000000000e+03 7.697132110595703125e+01 -3.527104568481445312e+01 -5.421201512217521667e-02 9.126646995544433594e+00 2.721730709075927734e+00 -1.242180392146110535e-01
2.127000000000000000e+03 7.735950469970703125e+01 2.642267990112304688e+01 -1.356062293052673340e-01 7.580310344696044922e+00 2.233411073684692383e+00 4.045549035072326660e-01
2.128000000000000000e+03 7.698020172119140625e+01 -3.363406753540039062e+01 -1.266892552375793457e-01 9.081374168395996094e+00 2.686405420303344727e+00 -2.220713347196578979e-01
2.129000000000000000e+03 7.803195190429687500e+01 -3.142072105407714844e+01 -9.106387197971343994e-02 9.325271606445312500e+00 2.770262241363525391e+00 -3.165358901023864746e-01
2.130000000000000000e+03 7.726074981689453125e+01 -3.130870819091796875e+01 -1.610216498374938965e-01 9.053177833557128906e+00 2.667646884918212891e+00 -3.970551192760467529e-01
2.131000000000000000e+03 7.806510925292968750e+01 -3.063180732727050781e+01 -8.988690376281738281e-02 9.232851028442382812e+00 2.742889165878295898e+00 -3.723749816417694092e-01
2.132000000000000000e+03 7.702996826171875000e+01 3.504892349243164062e+01 -3.253189101815223694e-02 7.569788932800292969e+00 2.261177062988281250e+00 -6.909621506929397583e-02
2.133000000000000000e+03 7.735884857177734375e+01 3.173767089843750000e+01 -7.551205903291702271e-02 7.713258266448974609e+00 2.291323900222778320e+00 1.844186894595623016e-02
2.134000000000000000e+03 7.735266113281250000e+01 -2.976225090026855469e+01 -1.696348041296005249e-01 8.923313140869140625e+00 2.626103401184082031e+00 -5.500395894050598145e-01
2.135000000000000000e+03 7.730028533935546875e+01 3.249086761474609375e+01 -6.215781345963478088e-02 7.674711227416992188e+00 2.283766031265258789e+00 -1.692520454525947571e-02
2.136000000000000000e+03 7.718287658691406250e+01 3.328935241699218750e+01 -4.733810946345329285e-02 7.637081146240234375e+00 2.276922941207885742e+00 -3.552950546145439148e-02
2.137000000000000000e+03 7.707152557373046875e+01 3.414181518554687500e+01 -3.844286873936653137e-02 7.597070693969726562e+00 2.267588376998901367e+00 -5.632925033569335938e-02
2.138000000000000000e+03 3.785293960571289062e+01 -2.263438034057617188e+01 1.092978954315185547e+00 6.314632415771484375e+00 2.222283363342285156e+00 1.564741373062133789e+00
2.139000000000000000e+03 7.698157501220703125e+01 -3.897255325317382812e+01 -3.981670364737510681e-02 9.156956672668457031e+00 2.735141992568969727e+00 -5.285091698169708252e-02
2.140000000000000000e+03 7.799758911132812500e+01 -3.851145553588867188e+01 -3.997645154595375061e-02 9.611247062683105469e+00 2.871381044387817383e+00 -6.297317892313003540e-02
2.141000000000000000e+03 7.753246307373046875e+01 3.959392929077148438e+01 4.221147671341896057e-02 7.566887378692626953e+00 2.282729625701904297e+00 -5.805351957678794861e-02
2.142000000000000000e+03 4.325690460205078125e+01 9.154629707336425781e+00 1.703515410423278809e+00 1.375178813934326172e+01 4.636590957641601562e+00 -1.011270403861999512e+00
2.143000000000000000e+03 1.425847911834716797e+01 -2.767136001586914062e+01 1.401375681161880493e-01 3.883496820926666260e-01 1.585461795330047607e-01 -2.390416860580444336e-01
2.144000000000000000e+03 3.411043167114257812e+00 3.651663970947265625e+01 1.358221936970949173e-02 -2.201433479785919189e-01 -6.196833774447441101e-02 4.571713879704475403e-02
2.145000000000000000e+03 2.655594587326049805e+00 -5.146314144134521484e+00 -2.477540448307991028e-02 -8.471410721540451050e-02 -3.284685313701629639e-02 -8.956846594810485840e-02
2.146000000000000000e+03 2.466986417770385742e+00 -1.467144584655761719e+01 8.115541189908981323e-03 -4.544589519500732422e-01 -1.339030265808105469e-01 -1.382340937852859497e-01
2.147000000000000000e+03 3.997878551483154297e+00 -3.703033065795898438e+01 -1.173662301152944565e-02 -4.929232001304626465e-01 -1.513979434967041016e-01 1.855758577585220337e-02
2.148000000000000000e+03 2.493036031723022461e+00 -2.118428802490234375e+01 2.713713422417640686e-02 -6.595361232757568359e-01 -1.897196918725967407e-01 -4.766402021050453186e-02
2.149000000000000000e+03 2.692765951156616211e+00 -2.832545089721679688e+01 3.480813931673765182e-03 -6.527053117752075195e-01 -1.947673559188842773e-01 4.077850654721260071e-02
2.150000000000000000e+03 2.525323629379272461e+00 -2.594720458984375000e+01 1.389997359365224838e-02 -6.836435794830322266e-01 -2.009230703115463257e-01 2.638882212340831757e-02
2.151000000000000000e+03 2.422077894210815430e+00 -1.308058452606201172e+01 1.578844734467566013e-03 -3.911435604095458984e-01 -1.168694198131561279e-01 -1.404826343059539795e-01
2.152000000000000000e+03 2.070348501205444336e+00 -3.489881515502929688e+01 -4.638166632503271103e-03 -6.604246497154235840e-01 -1.995188444852828979e-01 1.884438842535018921e-02
2.153000000000000000e+03 2.422597885131835938e+00 -9.950165748596191406e+00 -7.163320668041706085e-03 -2.584095895290374756e-01 -7.967186719179153442e-02 -1.331280320882797241e-01
2.154000000000000000e+03 2.412204742431640625e+00 -1.073088645935058594e+01 -5.466946866363286972e-03 -2.911899387836456299e-01 -8.899706602096557617e-02 -1.364862918853759766e-01
2.155000000000000000e+03 1.738607883453369141e+00 -9.929087638854980469e+00 -4.276017192751169205e-03 -2.874439954757690430e-01 -8.751600980758666992e-02 -1.023136600852012634e-01
2.156000000000000000e+03 3.151882886886596680e+00 -8.440020561218261719e+00 -1.802902668714523315e-02 -1.745730191469192505e-01 -5.778061598539352417e-02 -1.485554128885269165e-01
2.157000000000000000e+03 1.789337873458862305e+00 -1.794274711608886719e+01 1.206401269882917404e-02 -6.666691303253173828e-01 -1.963815391063690186e-01 -8.089324831962585449e-02
2.158000000000000000e+03 2.524739742279052734e+00 -1.629709243774414062e+01 1.439062412828207016e-02 -5.134224891662597656e-01 -1.497095674276351929e-01 -1.270299553871154785e-01
2.159000000000000000e+03 3.241995096206665039e+00 -1.798415374755859375e+01 3.549900278449058533e-02 -4.810523092746734619e-01 -1.336659938097000122e-01 -1.281704306602478027e-01
2.160000000000000000e+03 2.505221843719482422e+00 2.075616836547851562e+01 -6.086034234613180161e-03 -2.546232566237449646e-02 -9.464507922530174255e-03 2.378633245825767517e-02
2.161000000000000000e+03 1.754729628562927246e+00 1.040770149230957031e+01 -1.529670116724446416e-04 5.573869217187166214e-03 1.626270590350031853e-03 -1.625561504624783993e-03
2.162000000000000000e+03 2.458896875381469727e+00 1.028216838836669922e+01 -5.679870955646038055e-04 3.670573234558105469e-03 9.307758882641792297e-04 -1.958308042958378792e-03
2.163000000000000000e+03 2.459186077117919922e+00 1.188409328460693359e+01 -1.149075222201645374e-03 3.726602066308259964e-03 7.732580997981131077e-04 -1.007897546514868736e-03
2.164000000000000000e+03 3.837269783020019531e+00 1.405136680603027344e+01 -4.733083769679069519e-03 -1.160949002951383591e-03 -1.768209855072200298e-03 3.242867067456245422e-03
2.165000000000000000e+03 2.529819488525390625e+00 -1.712232589721679688e+01 1.813356950879096985e-02 -5.428218245506286621e-01 -1.574064642190933228e-01 -1.188243180513381958e-01
2.166000000000000000e+03 2.498595476150512695e+00 -1.547980022430419922e+01 1.115940976887941360e-02 -4.852466285228729248e-01 -1.422261595726013184e-01 -1.335579305887222290e-01
2.167000000000000000e+03 1.793405175209045410e+00 -1.712702941894531250e+01 1.018158160150051117e-02 -6.341776251792907715e-01 -1.871988177299499512e-01 -8.953494578599929810e-02
2.168000000000000000e+03 1.747044801712036133e+00 8.811073303222656250e+00 4.451347558642737567e-05 4.683001432567834854e-03 1.418254571035504341e-03 -1.900466973893344402e-03
2.169000000000000000e+03 2.458288192749023438e+00 1.268736648559570312e+01 -1.270555309019982815e-03 3.472147276625037193e-03 6.604776135645806789e-04 -1.494210737291723490e-04
2.170000000000000000e+03 2.489681959152221680e+00 1.913761901855468750e+01 -5.418412387371063232e-03 -1.400693878531455994e-02 -5.827605724334716797e-03 1.668170839548110962e-02
2.171000000000000000e+03 2.476694583892822266e+00 1.752390670776367188e+01 -4.435422364622354507e-03 -5.969697609543800354e-03 -3.121535992249846458e-03 1.057871710509061813e-02
2.172000000000000000e+03 1.782155752182006836e+00 2.006489944458007812e+01 -3.122525056824088097e-03 -1.876408793032169342e-02 -6.565983872860670090e-03 1.523336861282587051e-02
2.173000000000000000e+03 2.497080564498901367e+00 1.994639968872070312e+01 -5.996976979076862335e-03 -1.926904357969760895e-02 -7.579805795103311539e-03 2.000845968723297119e-02
2.174000000000000000e+03 3.216867208480834961e+00 1.983395767211914062e+01 -9.193662554025650024e-03 -1.866003312170505524e-02 -8.356108330190181732e-03 2.438425458967685699e-02
2.175000000000000000e+03 2.456852674484252930e+00 9.484258651733398438e+00 -1.514211180619895458e-04 3.497958881780505180e-03 1.003961311653256416e-03 -2.141566947102546692e-03
2.176000000000000000e+03 2.470546007156372070e+00 1.671739196777343750e+01 -4.109810106456279755e-03 -3.054613247513771057e-03 -2.149326959624886513e-03 7.828582078218460083e-03
2.177000000000000000e+03 1.765069007873535156e+00 1.603717803955078125e+01 -1.979564316570758820e-03 1.634944463148713112e-03 -1.033859443850815296e-04 4.119490738958120346e-03
2.178000000000000000e+03 2.461733102798461914e+00 1.510250854492187500e+01 -2.982600824907422066e-03 9.313856135122478008e-04 -6.153645226731896400e-04 3.629816463217139244e-03
2.179000000000000000e+03 2.454804182052612305e+00 8.690855026245117188e+00 -1.770608650986105204e-04 3.180023282766342163e-03 9.008886991068720818e-04 -2.338299294933676720e-03
2.180000000000000000e+03 1.745318531990051270e+00 6.454027175903320312e+00 6.336896331049501896e-05 2.984240883961319923e-03 9.142829803749918938e-04 -1.854453701525926590e-03
2.181000000000000000e+03 1.870754837989807129e+00 2.651882743835449219e+01 -2.333526965230703354e-03 -1.016805619001388550e-01 -3.120422735810279846e-02 3.714977949857711792e-02
2.182000000000000000e+03 2.705818891525268555e+00 2.805134773254394531e+01 -2.723106881603598595e-03 -1.178120747208595276e-01 -3.616055473685264587e-02 5.419008061289787292e-02
2.183000000000000000e+03 3.519291162490844727e+00 -4.389340877532958984e+00 -4.338235780596733093e-02 -5.791977420449256897e-02 -3.039063885807991028e-02 -9.614779055118560791e-02
2.184000000000000000e+03 3.227491140365600586e+00 5.524718761444091797e+00 5.503325373865664005e-04 1.170149305835366249e-03 5.161445587873458862e-04 -2.308954019099473953e-03
2.185000000000000000e+03 1.755730032920837402e+00 5.680630683898925781e+00 2.417730429442599416e-04 2.486937446519732475e-03 8.186131017282605171e-04 -1.695516170002520084e-03
2.186000000000000000e+03 4.069010734558105469e+00 4.006334781646728516e+00 9.240127401426434517e-04 2.873367920983582735e-04 3.634048625826835632e-04 -2.150620799511671066e-03
2.187000000000000000e+03 2.489096879959106445e+00 -2.279150772094726562e+01 2.466446906328201294e-02 -6.808153390884399414e-01 -1.968452483415603638e-01 -1.730332709848880768e-02
2.188000000000000000e+03 3.419162988662719727e+00 2.713009643554687500e+01 -5.998116917908191681e-03 -9.454365074634552002e-02 -3.016253001987934113e-02 6.260889768600463867e-02
2.189000000000000000e+03 2.544637918472290039e+00 2.398859214782714844e+01 -5.899369716644287109e-03 -5.931485444307327271e-02 -1.956426724791526794e-02 3.894469514489173889e-02
2.190000000000000000e+03 2.661323547363281250e+00 2.722653007507324219e+01 -3.598814364522695541e-03 -1.051603332161903381e-01 -3.262774273753166199e-02 5.198531597852706909e-02
2.191000000000000000e+03 2.587718963623046875e+00 2.560159683227539062e+01 -4.934679716825485229e-03 -8.115241676568984985e-02 -2.582612819969654083e-02 4.592863097786903381e-02
2.192000000000000000e+03 2.620705604553222656e+00 2.641146850585937500e+01 -4.478066228330135345e-03 -9.286761283874511719e-02 -2.920370362699031830e-02 4.876343160867691040e-02
2.193000000000000000e+03 4.326424598693847656e+00 -4.506337642669677734e+00 -6.003762409090995789e-02 -5.043119564652442932e-02 -3.314064815640449524e-02 -1.153122782707214355e-01
2.194000000000000000e+03 2.782219409942626953e+00 -3.498923301696777344e+00 -3.170356899499893188e-02 -4.480081796646118164e-02 -2.295131608843803406e-02 -6.358773261308670044e-02
2.195000000000000000e+03 2.726037263870239258e+00 -4.321683883666992188e+00 -2.858447656035423279e-02 -6.342997401952743530e-02 -2.760433405637741089e-02 -7.757116109132766724e-02
2.196000000000000000e+03 1.939668178558349609e+00 -4.287355899810791016e+00 -1.590088754892349243e-02 -6.493058800697326660e-02 -2.424944192171096802e-02 -5.708894878625869751e-02
2.197000000000000000e+03 1.817483663558959961e+00 2.409600067138671875e+01 -3.295555710792541504e-03 -6.350085884332656860e-02 -2.003892324864864349e-02 2.933780103921890259e-02
2.198000000000000000e+03 3.177639245986938477e+00 -2.361299324035644531e+01 3.348091617226600647e-02 -5.927079319953918457e-01 -1.677681058645248413e-01 -7.322771009057760239e-03
2.199000000000000000e+03 1.816074967384338379e+00 -2.597295379638671875e+01 6.996774114668369293e-03 -7.774461507797241211e-01 -2.311348170042037964e-01 2.292208187282085419e-02
2.200000000000000000e+03 2.493250608444213867e+00 -2.198679924011230469e+01 2.615142241120338440e-02 -6.719157099723815918e-01 -1.937292963266372681e-01 -3.193180635571479797e-02
2.201000000000000000e+03 1.781739711761474609e+00 -2.357940101623535156e+01 1.225655153393745422e-02 -7.866726517677307129e-01 -2.323248386383056641e-01 -8.727053645998239517e-04
2.202000000000000000e+03 1.806363463401794434e+00 2.328791618347167969e+01 -3.305427497252821922e-03 -5.256201699376106262e-02 -1.676023378968238831e-02 2.664368413388729095e-02
2.203000000000000000e+03 2.519350290298461914e+00 2.236981773376464844e+01 -6.269122939556837082e-03 -4.053803160786628723e-02 -1.404214650392532349e-02 3.133311122655868530e-02
2.204000000000000000e+03 2.635530471801757812e+00 -2.752425765991210938e+01 6.967925466597080231e-03 -6.635389924049377441e-01 -1.969713270664215088e-01 3.708689287304878235e-02
2.205000000000000000e+03 2.574894905090332031e+00 -2.673347091674804688e+01 9.480271488428115845e-03 -6.734840869903564453e-01 -1.992011517286300659e-01 3.277550637722015381e-02
2.206000000000000000e+03 2.770207881927490234e+00 -2.995734214782714844e+01 -2.546355128288269043e-03 -6.352747082710266113e-01 -1.913463175296783447e-01 4.331603273749351501e-02
2.207000000000000000e+03 1.849874258041381836e+00 3.385474014282226562e+01 3.504421096295118332e-03 -2.377135753631591797e-01 -7.026274502277374268e-02 3.675013035535812378e-02
2.208000000000000000e+03 2.640067100524902344e+00 3.513847351074218750e+01 6.961391307413578033e-03 -2.322028875350952148e-01 -6.757244467735290527e-02 4.488151147961616516e-02
2.209000000000000000e+03 3.566803455352783203e+00 -3.079036521911621094e+01 -3.884206293150782585e-03 -5.425526499748229980e-01 -1.639310568571090698e-01 4.753164947032928467e-02
2.210000000000000000e+03 2.741136074066162109e+00 -2.913812637329101562e+01 1.637263689190149307e-03 -6.425086259841918945e-01 -1.922614127397537231e-01 4.259217903017997742e-02
2.211000000000000000e+03 1.965024709701538086e+00 -3.078695106506347656e+01 -1.858860137872397900e-03 -7.124050259590148926e-01 -2.142791599035263062e-01 3.491067141294479370e-02
2.212000000000000000e+03 2.848850011825561523e+00 -3.320829772949218750e+01 -9.633058682084083557e-03 -6.028873920440673828e-01 -1.837561279535293579e-01 3.573258966207504272e-02
2.213000000000000000e+03 1.925212621688842773e+00 3.232471466064453125e+01 8.774318848736584187e-04 -2.066423594951629639e-01 -6.172947585582733154e-02 4.035047069191932678e-02
2.214000000000000000e+03 3.176655530929565430e+00 3.476782989501953125e+01 8.770413696765899658e-03 -2.104855328798294067e-01 -6.051453202962875366e-02 5.309243500232696533e-02
2.215000000000000000e+03 3.415706157684326172e+00 3.142072296142578125e+01 3.336138091981410980e-03 -1.589177548885345459e-01 -4.667448624968528748e-02 6.730221211910247803e-02
2.216000000000000000e+03 2.556025981903076172e+00 3.382242202758789062e+01 5.213793832808732986e-03 -2.135430723428726196e-01 -6.249878183007240295e-02 5.011201277375221252e-02
2.217000000000000000e+03 2.536371707916259766e+00 3.315948867797851562e+01 3.068386344239115715e-03 -2.039002925157546997e-01 -6.024957075715065002e-02 4.898834973573684692e-02
2.218000000000000000e+03 3.727213382720947266e+00 -3.538286209106445312e+01 -1.549310982227325439e-02 -5.165773630142211914e-01 -1.596211493015289307e-01 2.562958560883998871e-02
2.219000000000000000e+03 2.741073369979858398e+00 2.973685264587402344e+01 -1.028885482810437679e-03 -1.442430615425109863e-01 -4.358158260583877563e-02 5.625154450535774231e-02
2.220000000000000000e+03 2.969218730926513672e+00 -3.408445358276367188e+01 -1.156183518469333649e-02 -5.867707133293151855e-01 -1.794997751712799072e-01 2.933160401880741119e-02
2.221000000000000000e+03 1.963206648826599121e+00 3.149208068847656250e+01 5.204661283642053604e-04 -1.922678947448730469e-01 -5.752423033118247986e-02 4.290880635380744934e-02
2.222000000000000000e+03 7.100292968750000000e+01 -1.889506530761718750e+01 1.851894378662109375e+00 1.083597087860107422e+01 3.806359529495239258e+00 -5.350850224494934082e-01
2.223000000000000000e+03 1.663449668884277344e+01 1.386490058898925781e+01 -5.845108535140752792e-03 -1.612302294233813882e-04 -1.801901613362133503e-03 -2.793638035655021667e-03
2.224000000000000000e+03 1.067962884902954102e+00 4.207130908966064453e+00 5.494803190231323242e-05 1.760027487762272358e-03 5.444926791824400425e-04 -9.655838366597890854e-04
2.225000000000000000e+03 3.087681770324707031e+01 2.077665328979492188e+01 -2.024367079138755798e-02 3.625240623950958252e-01 1.026841104030609131e-01 -3.558051586151123047e-01
2.226000000000000000e+03 7.013428497314453125e+01 -1.841684150695800781e+01 1.780689239501953125e+00 1.224586963653564453e+01 4.207967758178710938e+00 -4.482196569442749023e-01
2.227000000000000000e+03 1.325105094909667969e+01 -2.639289093017578125e+01 1.678773164749145508e-01 4.441246092319488525e-01 1.836005747318267822e-01 -2.506142258644104004e-01
2.228000000000000000e+03 4.724135971069335938e+01 2.746603965759277344e+00 2.530304431915283203e+00 1.147660064697265625e+01 4.202071666717529297e+00 -1.024544000625610352e+00
2.229000000000000000e+03 4.733966445922851562e+01 1.725597858428955078e+00 2.527799844741821289e+00 1.042369556427001953e+01 3.885448694229125977e+00 -1.084861993789672852e+00
2.230000000000000000e+03 3.791722869873046875e+01 -2.174244499206542969e+01 8.516024351119995117e-01 6.258212566375732422e+00 2.132944583892822266e+00 1.298691391944885254e+00
2.231000000000000000e+03 4.520405578613281250e+01 -1.973928260803222656e+01 9.844464063644409180e-01 1.178369808197021484e+01 3.830443143844604492e+00 1.128559857606887817e-01
2.232000000000000000e+03 6.992061614990234375e+01 1.529870223999023438e+01 1.279999971389770508e+00 1.147663688659667969e+01 3.826991081237792969e+00 1.752657890319824219e-01
2.233000000000000000e+03 3.556051635742187500e+01 1.932633972167968750e+01 5.315390825271606445e-01 1.756840944290161133e+00 6.865140199661254883e-01 -1.121300816535949707e+00
2.234000000000000000e+03 3.490721893310546875e+01 1.984858322143554688e+01 4.319498240947723389e-01 1.542750954627990723e+00 5.924102663993835449e-01 -1.013891696929931641e+00
2.235000000000000000e+03 3.155097389221191406e+01 2.154398918151855469e+01 7.311780750751495361e-02 6.508099436759948730e-01 2.171783298254013062e-01 -5.576376318931579590e-01
2.236000000000000000e+03 1.964239883422851562e+01 -5.347346782684326172e+00 -4.250024259090423584e-01 4.364277422428131104e-02 -1.144078969955444336e-01 -2.870427444577217102e-02
2.237000000000000000e+03 3.876845550537109375e+01 1.664844131469726562e+01 8.534854054450988770e-01 3.645114898681640625e+00 1.349580049514770508e+00 -1.748696208000183105e+00
2.238000000000000000e+03 5.534941101074218750e+01 2.420659065246582031e+01 -4.183618724346160889e-01 2.004804134368896484e+00 4.759326577186584473e-01 1.851528167724609375e+00
2.239000000000000000e+03 5.031396484375000000e+01 -7.718314647674560547e+00 -2.789032936096191406e+00 1.939343094825744629e+00 -2.549069821834564209e-01 4.580795764923095703e-01
2.240000000000000000e+03 4.851098251342773438e+01 -7.914030075073242188e+00 -2.626317977905273438e+00 5.655047893524169922e+00 9.086189866065979004e-01 9.464458227157592773e-01
2.241000000000000000e+03 5.886265182495117188e+01 2.476610755920410156e+01 -7.454260587692260742e-01 4.872649908065795898e-01 -7.744831591844558716e-02 8.363927602767944336e-01
2.242000000000000000e+03 5.796229553222656250e+01 2.466000366210937500e+01 -6.912257671356201172e-01 7.111149430274963379e-01 5.966745316982269287e-03 1.081142663955688477e+00
2.243000000000000000e+03 6.598973083496093750e+01 6.900539875030517578e+00 -2.168281823396682739e-01 4.130540370941162109e+00 1.174113631248474121e+00 1.152492284774780273e+00
2.244000000000000000e+03 6.544721984863281250e+01 7.325492858886718750e+00 4.842795059084892273e-02 3.391506671905517578e+00 1.031980395317077637e+00 1.239651560783386230e+00
2.245000000000000000e+03 4.819546508789062500e+01 1.496511459350585938e+01 9.864135384559631348e-01 9.471584320068359375e+00 3.137399196624755859e+00 2.192211389541625977e+00
2.246000000000000000e+03 4.680051040649414062e+01 -2.866240501403808594e+01 -3.315455615520477295e-01 5.289686679840087891e+00 1.487442374229431152e+00 -1.142553210258483887e+00
2.247000000000000000e+03 2.624916839599609375e+01 -1.334335803985595703e+01 7.169635891914367676e-01 -5.105842370539903641e-03 2.135573327541351318e-01 -1.755335330963134766e-01
2.248000000000000000e+03 2.261678123474121094e+01 -1.214054870605468750e+01 4.153604805469512939e-01 1.175821945071220398e-02 1.281356066465377808e-01 -2.280687391757965088e-01
2.249000000000000000e+03 4.804623794555664062e+01 -2.872243881225585938e+01 -2.115578204393386841e-01 4.293415546417236328e+00 1.224557399749755859e+00 -1.441019892692565918e+00
2.250000000000000000e+03 1.536091804504394531e+01 -1.116747379302978516e+01 3.068525791168212891e-01 1.095118075609207153e-01 1.249093189835548401e-01 -1.297048032283782959e-01
2.251000000000000000e+03 4.436416625976562500e+01 7.275920391082763672e+00 1.632967829704284668e+00 1.447225570678710938e+01 4.831566810607910156e+00 -2.562898993492126465e-01
2.252000000000000000e+03 4.748545455932617188e+01 1.019042301177978516e+01 8.328357934951782227e-01 1.146041107177734375e+01 3.687974214553833008e+00 1.936886429786682129e+00
2.253000000000000000e+03 6.002657699584960938e+01 1.572188735008239746e+00 3.538539409637451172e-01 1.568085253238677979e-01 1.531987339258193970e-01 -8.898098021745681763e-02
2.254000000000000000e+03 3.750092315673828125e+01 1.774417495727539062e+01 7.594780325889587402e-01 2.688340187072753906e+00 1.034345507621765137e+00 -1.504693865776062012e+00
2.255000000000000000e+03 4.850711345672607422e+00 -5.556379795074462891e+00 -6.252735108137130737e-02 -6.066362932324409485e-02 -3.695729374885559082e-02 -1.453026682138442993e-01
2.256000000000000000e+03 5.311788082122802734e+00 -3.542156457901000977e+00 -8.896136283874511719e-02 -2.394821494817733765e-02 -3.387287259101867676e-02 -1.072061657905578613e-01
2.257000000000000000e+03 6.234630107879638672e+00 -4.136796951293945312e+00 -1.077727377414703369e-01 -1.832070946693420410e-02 -3.782803565263748169e-02 -1.304193139076232910e-01
2.258000000000000000e+03 6.969918251037597656e+00 -4.028487205505371094e+00 -1.289678364992141724e-01 -6.796786561608314514e-03 -4.072938486933708191e-02 -1.344247758388519287e-01
2.259000000000000000e+03 7.702896595001220703e+00 -3.957870006561279297e+00 -1.517003327608108521e-01 4.585753660649061203e-03 -4.413437470793724060e-02 -1.360320746898651123e-01
2.260000000000000000e+03 4.746506118774414062e+01 -2.803061676025390625e+01 -3.494219854474067688e-02 5.004817485809326172e+00 1.490962505340576172e+00 -1.413028717041015625e+00
2.261000000000000000e+03 1.200000572204589844e+01 -2.416558837890625000e+01 2.406601309776306152e-01 5.839640498161315918e-01 2.473872601985931396e-01 -2.420198023319244385e-01
2.262000000000000000e+03 1.271995639801025391e+01 -2.581841087341308594e+01 1.706267595291137695e-01 4.764319360256195068e-01 1.941176056861877441e-01 -2.404742389917373657e-01
2.263000000000000000e+03 4.620184326171875000e+01 6.797839164733886719e+00 1.201676249504089355e+00 1.307593631744384766e+01 4.283283710479736328e+00 5.553143024444580078e-01
2.264000000000000000e+03 4.833036804199218750e+01 1.327960109710693359e+01 1.048508167266845703e+00 1.034647369384765625e+01 3.418494462966918945e+00 2.427939414978027344e+00
2.265000000000000000e+03 2.055167961120605469e+01 3.531486272811889648e+00 -6.051471791579388082e-05 7.008872344158589840e-04 1.921117655001580715e-04 3.451220109127461910e-04
2.266000000000000000e+03 6.521440124511718750e+01 -2.626712036132812500e+01 -5.681959986686706543e-01 2.813746929168701172e+00 6.736652851104736328e-01 8.315280675888061523e-01
2.267000000000000000e+03 2.146149826049804688e+01 1.614322543144226074e+00 -1.415589358657598495e-04 -1.131975732278078794e-04 -7.642694981768727303e-05 1.051236722560133785e-06
2.268000000000000000e+03 2.153101158142089844e+01 2.976343393325805664e+00 2.677348966244608164e-04 4.585807037074118853e-04 2.178946888307109475e-04 -3.506230859784409404e-05
2.269000000000000000e+03 4.531013488769531250e+01 -2.153598022460937500e+01 1.387059450149536133e+00 1.106827926635742188e+01 3.736601591110229492e+00 -5.454502105712890625e-01
2.270000000000000000e+03 6.245169830322265625e+01 3.640850782394409180e+00 -9.015220403671264648e-02 1.128216862678527832e+00 3.114194273948669434e-01 2.740148305892944336e-01
2.271000000000000000e+03 6.304872131347656250e+01 4.158816814422607422e+00 -1.405455172061920166e-01 1.455664753913879395e+00 3.945357799530029297e-01 4.085976183414459229e-01
2.272000000000000000e+03 6.384577560424804688e+01 2.437288475036621094e+01 -7.113520503044128418e-01 1.389214992523193359e+00 2.033589035272598267e-01 -1.114672064781188965e+00
2.273000000000000000e+03 6.626001739501953125e+01 -2.623264884948730469e+01 -7.309108972549438477e-01 4.362695217132568359e+00 1.089535355567932129e+00 1.053708314895629883e+00
2.274000000000000000e+03 2.733946609497070312e+01 -3.370508575439453125e+01 2.755541503429412842e-01 5.812754034996032715e-01 2.570488750934600830e-01 4.487830400466918945e-01
2.275000000000000000e+03 4.718433380126953125e+01 1.198074340820312500e+01 9.136399626731872559e-01 1.073890113830566406e+01 3.495762348175048828e+00 2.003841638565063477e+00
2.276000000000000000e+03 6.957240295410156250e+01 1.192105102539062500e+01 8.037263154983520508e-01 9.666996002197265625e+00 3.141216754913330078e+00 4.161113798618316650e-01
2.277000000000000000e+03 6.960919189453125000e+01 1.260260009765625000e+01 1.027047395706176758e+00 1.014139938354492188e+01 3.350534200668334961e+00 4.170733094215393066e-01
2.278000000000000000e+03 1.674506568908691406e+01 1.212870121002197266e+01 -2.329349750652909279e-03 3.329244442284107208e-03 2.999684365931898355e-04 1.728738658130168915e-03
2.279000000000000000e+03 5.706870651245117188e+01 2.455317878723144531e+01 -5.831489562988281250e-01 1.029903650283813477e+00 1.340263932943344116e-01 1.339518308639526367e+00
2.280000000000000000e+03 1.355737590789794922e+01 -2.818075370788574219e+01 8.714307844638824463e-02 3.652178943157196045e-01 1.357082873582839966e-01 -1.974375844001770020e-01
2.281000000000000000e+03 4.352217102050781250e+01 2.925523519515991211e+00 1.747238755226135254e+00 1.623196029663085938e+01 5.393759727478027344e+00 1.401548385620117188e+00
2.282000000000000000e+03 4.626026535034179688e+01 4.641432762145996094e+00 1.600987672805786133e+00 1.318364906311035156e+01 4.435390949249267578e+00 -1.407890021800994873e-01
2.283000000000000000e+03 6.710141754150390625e+01 8.115840911865234375e+00 -1.531267017126083374e-01 5.793656349182128906e+00 1.692158818244934082e+00 1.261314034461975098e+00
2.284000000000000000e+03 6.819632720947265625e+01 9.380116462707519531e+00 4.603501409292221069e-02 7.597315311431884766e+00 2.293005228042602539e+00 9.624548554420471191e-01
2.285000000000000000e+03 2.612782287597656250e+01 -5.574919223785400391e+00 -8.913148045539855957e-01 1.260605603456497192e-01 -2.295762747526168823e-01 5.308372154831886292e-02
2.286000000000000000e+03 3.620910644531250000e+01 1.880973625183105469e+01 6.100968122482299805e-01 2.013356447219848633e+00 7.870359420776367188e-01 -1.238258481025695801e+00
2.287000000000000000e+03 5.253990936279296875e+01 -6.521078109741210938e+00 -1.376481294631958008e+00 -4.051689505577087402e-01 -5.344950556755065918e-01 -7.615054845809936523e-01
2.288000000000000000e+03 6.607919311523437500e+01 2.270342254638671875e+01 -7.907922267913818359e-01 3.678352832794189453e+00 8.662682175636291504e-01 -2.063120126724243164e+00
2.289000000000000000e+03 1.921377182006835938e+01 -3.238750839233398438e+01 5.983687005937099457e-03 2.548558413982391357e-01 7.825186103582382202e-02 -2.511502206325531006e-01
2.290000000000000000e+03 4.803105926513671875e+01 -9.069427490234375000e+00 -2.317283630371093750e+00 6.497777938842773438e+00 1.254148244857788086e+00 9.525386095046997070e-01
2.291000000000000000e+03 4.716313934326171875e+01 -9.296454429626464844e+00 -2.252231121063232422e+00 7.828094005584716797e+00 1.672758817672729492e+00 8.472760319709777832e-01
2.292000000000000000e+03 9.079981803894042969e+00 -4.585611820220947266e+00 -1.800050139427185059e-01 2.228243276476860046e-02 -4.731677100062370300e-02 -1.578169763088226318e-01
2.293000000000000000e+03 6.988755798339843750e+01 -2.114560508728027344e+01 1.798156261444091797e+00 1.111395549774169922e+01 3.873633623123168945e+00 -2.939432859420776367e-01
2.294000000000000000e+03 6.882576751708984375e+01 -2.067463302612304688e+01 2.581208229064941406e+00 1.301941394805908203e+01 4.680186748504638672e+00 1.100127816200256348e+00
2.295000000000000000e+03 6.705565643310546875e+01 2.452492523193359375e+01 -1.017448425292968750e+00 5.122595310211181641e+00 1.231544137001037598e+00 -1.783085107803344727e+00
2.296000000000000000e+03 6.713697814941406250e+01 2.222340965270996094e+01 -6.761201024055480957e-01 5.883385181427001953e+00 1.562179565429687500e+00 -2.254568576812744141e+00
2.297000000000000000e+03 4.983560562133789062e+01 1.771648979187011719e+01 1.519178748130798340e+00 8.200023651123046875e+00 2.915760517120361328e+00 2.599720001220703125e+00
2.298000000000000000e+03 4.912638473510742188e+01 1.782017517089843750e+01 1.262859582901000977e+00 7.999378681182861328e+00 2.778671503067016602e+00 2.141013622283935547e+00
2.299000000000000000e+03 6.841156005859375000e+01 -2.518493270874023438e+01 -9.228278994560241699e-01 7.560713291168212891e+00 1.991365551948547363e+00 6.750295758247375488e-01
2.300000000000000000e+03 6.894463348388671875e+01 1.106136608123779297e+01 6.905060410499572754e-01 9.160170555114746094e+00 2.955203056335449219e+00 8.098714351654052734e-01
2.301000000000000000e+03 3.800814056396484375e+01 -5.697988986968994141e+00 -6.537061929702758789e-01 2.932012796401977539e+00 6.834919452667236328e-01 1.761639952659606934e+00
2.302000000000000000e+03 3.372790527343750000e+01 2.213640975952148438e+01 1.662225425243377686e-01 1.390938162803649902e+00 4.671481847763061523e-01 -8.977445960044860840e-01
2.303000000000000000e+03 3.294187164306640625e+01 2.038346672058105469e+01 2.540284693241119385e-01 8.705086708068847656e-01 3.373611271381378174e-01 -6.805538535118103027e-01
2.304000000000000000e+03 2.776291656494140625e+01 -1.353151416778564453e+01 7.957663536071777344e-01 -3.914258629083633423e-02 2.269871234893798828e-01 -1.279516071081161499e-01
2.305000000000000000e+03 1.948373413085937500e+01 -1.029805850982666016e+01 1.941947638988494873e-01 9.445878118276596069e-02 8.659606426954269409e-02 -1.381728649139404297e-01
2.306000000000000000e+03 1.659696960449218750e+01 -3.047757911682128906e+01 2.747290395200252533e-02 3.309890925884246826e-01 1.075385957956314087e-01 -2.234339565038681030e-01
2.307000000000000000e+03 3.576870346069335938e+01 -3.008277511596679688e+01 3.360105156898498535e-01 4.768028736114501953e+00 1.531211733818054199e+00 1.363990783691406250e+00
2.308000000000000000e+03 4.937032318115234375e+01 1.949961090087890625e+01 9.495588541030883789e-01 7.120534420013427734e+00 2.421028137207031250e+00 1.631821632385253906e+00
2.309000000000000000e+03 3.685564041137695312e+01 1.828244400024414062e+01 6.914282441139221191e-01 2.323323726654052734e+00 9.044256210327148438e-01 -1.369444370269775391e+00
2.310000000000000000e+03 4.456780624389648438e+01 -1.883753585815429688e+01 1.008876204490661621e+00 1.104127883911132812e+01 3.615046501159667969e+00 6.057251691818237305e-01
2.311000000000000000e+03 1.672305107116699219e+01 1.645263481140136719e+01 -2.546297386288642883e-02 -9.835105389356613159e-03 -1.058942358940839767e-02 -2.457539737224578857e-02
2.312000000000000000e+03 1.722796630859375000e+01 -5.217939376831054688e+00 -3.763452768325805664e-01 5.068251118063926697e-02 -9.769883006811141968e-02 -9.251874685287475586e-02
2.313000000000000000e+03 1.813011741638183594e+01 -5.365569114685058594e+00 -3.821030557155609131e-01 4.536617547273635864e-02 -1.010210663080215454e-01 -7.047615945339202881e-02
2.314000000000000000e+03 4.066762161254882812e+01 1.602456855773925781e+01 6.435250639915466309e-01 5.474482536315917969e+00 1.835402250289916992e+00 -1.658913612365722656e+00
2.315000000000000000e+03 4.040901565551757812e+01 1.377940273284912109e+01 1.247340917587280273e+00 5.820518493652343750e+00 2.120357751846313477e+00 -2.365069389343261719e+00
2.316000000000000000e+03 4.287069702148437500e+01 1.011157321929931641e+01 1.357083320617675781e+00 1.255757522583007812e+01 4.174397468566894531e+00 -1.405982017517089844e+00
2.317000000000000000e+03 3.425631332397460938e+01 2.039358520507812500e+01 3.434007167816162109e-01 1.356251120567321777e+00 5.098955631256103516e-01 -9.121483564376831055e-01
2.318000000000000000e+03 5.264089202880859375e+01 -1.553096532821655273e+00 2.948770046234130859e+00 7.451756596565246582e-01 1.108183741569519043e+00 -9.144536852836608887e-01
2.319000000000000000e+03 6.447493743896484375e+01 2.401780509948730469e+01 -7.931953072547912598e-01 1.841452836990356445e+00 3.144772350788116455e-01 -1.456089854240417480e+00
2.320000000000000000e+03 4.792515182495117188e+01 1.424885845184326172e+01 9.796015620231628418e-01 9.790227890014648438e+00 3.230948925018310547e+00 2.129509687423706055e+00
2.321000000000000000e+03 4.766457366943359375e+01 1.352044868469238281e+01 9.624521732330322266e-01 1.006921482086181641e+01 3.309500217437744141e+00 2.084219694137573242e+00
2.322000000000000000e+03 4.687767791748046875e+01 -2.733201599121093750e+01 7.976893335580825806e-02 5.789602756500244141e+00 1.760811567306518555e+00 -1.352271437644958496e+00
2.323000000000000000e+03 4.647133636474609375e+01 -2.523809623718261719e+01 9.467023015022277832e-01 7.595392704010009766e+00 2.562628507614135742e+00 -1.459248781204223633e+00
2.324000000000000000e+03 2.315843772888183594e+01 -4.860616207122802734e+00 -6.000425815582275391e-01 1.135362014174461365e-01 -1.459519118070602417e-01 8.958636969327926636e-02
2.325000000000000000e+03 5.673752593994140625e+01 -3.305870819091796875e+01 -5.332089066505432129e-01 4.816916771233081818e-03 -1.585175991058349609e-01 -5.565127134323120117e-01
2.326000000000000000e+03 4.698213195800781250e+01 5.233952045440673828e+00 9.637510776519775391e-01 1.308410739898681641e+01 4.214357376098632812e+00 -1.285253316164016724e-01
2.327000000000000000e+03 4.503860473632812500e+01 5.490558147430419922e+00 1.528823137283325195e+00 1.432802963256835938e+01 4.757055759429931641e+00 -1.700710691511631012e-02
2.328000000000000000e+03 6.681511688232421875e+01 -2.568124580383300781e+01 -6.702259778976440430e-01 5.126947879791259766e+00 1.337016582489013672e+00 1.176342606544494629e+00
2.329000000000000000e+03 2.533597373962402344e+01 -3.248839187622070312e+01 7.157818228006362915e-02 1.545190066099166870e-01 6.782915443181991577e-02 5.590047314763069153e-02
2.330000000000000000e+03 2.629544830322265625e+01 -3.357117462158203125e+01 2.315553426742553711e-01 4.092453122138977051e-01 1.922401934862136841e-01 2.488191276788711548e-01
2.331000000000000000e+03 1.219480514526367188e+01 -2.630245971679687500e+01 1.315938830375671387e-01 4.143280386924743652e-01 1.637765765190124512e-01 -1.811883151531219482e-01
2.332000000000000000e+03 6.461198425292968750e+01 -2.799723052978515625e+01 -1.028032541275024414e+00 2.437238454818725586e+00 4.227617681026458740e-01 5.866913199424743652e-01
2.333000000000000000e+03 6.570988464355468750e+01 -2.680755424499511719e+01 -8.028321862220764160e-01 3.570253372192382812e+00 8.302263617515563965e-01 8.953152894973754883e-01
2.334000000000000000e+03 1.994271087646484375e+01 2.241391944885253906e+01 -4.249988496303558350e-01 -3.587661776691675186e-03 -1.285759508609771729e-01 7.100681215524673462e-02
2.335000000000000000e+03 1.799276924133300781e+01 2.202558326721191406e+01 -3.294099569320678711e-01 6.241074204444885254e-02 -8.009976893663406372e-02 3.558186441659927368e-02
2.336000000000000000e+03 1.778441429138183594e+01 9.642697334289550781e+00 -1.595692127011716366e-03 6.751204375177621841e-03 1.546653686091303825e-03 1.980114495381712914e-03
2.337000000000000000e+03 1.756948471069335938e+01 7.164298534393310547e+00 -1.539682154543697834e-03 3.154677571728825569e-03 4.844986542593687773e-04 2.206005854532122612e-03
2.338000000000000000e+03 2.204819679260253906e+01 -5.827807426452636719e+00 -4.696826934814453125e-01 1.007803604006767273e-01 -1.106707006692886353e-01 1.350861229002475739e-02
2.339000000000000000e+03 1.744255828857421875e+01 7.973094463348388672e+00 9.577522869221866131e-04 3.663428360596299171e-03 1.386354211717844009e-03 2.742599695920944214e-03
2.340000000000000000e+03 4.372684860229492188e+01 1.347261369228363037e-01 2.187035799026489258e+00 1.332233238220214844e+01 4.652810573577880859e+00 1.797300577163696289e+00
2.341000000000000000e+03 5.263413238525390625e+01 2.176281356811523438e+01 4.068083167076110840e-01 4.620796203613281250e+00 1.508281350135803223e+00 2.086704254150390625e+00
2.342000000000000000e+03 7.000861358642578125e+01 -1.760580444335937500e+01 1.823320269584655762e+00 1.247709178924560547e+01 4.290123462677001953e+00 -6.861568093299865723e-01
2.343000000000000000e+03 3.360729598999023438e+01 2.095893478393554688e+01 2.535607516765594482e-01 1.192269682884216309e+00 4.337491393089294434e-01 -8.419976830482482910e-01
2.344000000000000000e+03 5.709586334228515625e+01 -1.208496332168579102e+00 1.575045704841613770e+00 -4.222592711448669434e-01 3.458359241485595703e-01 -7.026673555374145508e-01
2.345000000000000000e+03 5.760615921020507812e+01 -6.044366359710693359e-01 1.409541130065917969e+00 -4.049266576766967773e-01 3.013843297958374023e-01 -5.174100995063781738e-01
2.346000000000000000e+03 9.298922538757324219e+00 -1.831096649169921875e+01 1.298328936100006104e-01 3.223611116409301758e-01 1.356582045555114746e-01 -1.824280917644500732e-01
2.347000000000000000e+03 4.346618270874023438e+01 2.051738500595092773e+00 2.094125509262084961e+00 1.578484344482421875e+01 5.363690853118896484e+00 1.741129875183105469e+00
2.348000000000000000e+03 9.999198913574218750e+00 -2.059805488586425781e+01 2.098879814147949219e-01 4.658553004264831543e-01 2.027229815721511841e-01 -1.996846050024032593e-01
2.349000000000000000e+03 4.408526229858398438e+01 -2.271755409240722656e+01 1.554929733276367188e+00 8.778094291687011719e+00 3.099907398223876953e+00 2.628055512905120850e-01
2.350000000000000000e+03 5.823612594604492188e+01 9.714161753654479980e-01 6.870645284652709961e-01 -3.357286155223846436e-01 1.054007634520530701e-01 -2.023729383945465088e-01
2.351000000000000000e+03 5.878875350952148438e+01 5.089123845100402832e-01 8.343529105186462402e-01 -2.031558305025100708e-01 1.893591284751892090e-01 -2.396229654550552368e-01
2.352000000000000000e+03 4.475307846069335938e+01 -1.627080345153808594e+01 1.043302416801452637e+00 1.104371356964111328e+01 3.626104831695556641e+00 1.193214178085327148e+00
2.353000000000000000e+03 1.712151527404785156e+01 9.594141960144042969e+00 1.136542530730366707e-03 4.418243188410997391e-03 1.666435622610151768e-03 3.295270958915352821e-03
2.354000000000000000e+03 6.655120086669921875e+01 7.499002933502197266e+00 -1.818609386682510376e-01 4.917837142944335938e+00 1.420792818069458008e+00 1.231250047683715820e+00
2.355000000000000000e+03 3.856490707397460938e+01 -1.893495559692382812e+01 7.746280431747436523e-01 5.836325168609619141e+00 1.983286023139953613e+00 6.766913533210754395e-01
2.356000000000000000e+03 5.557705307006835938e+01 -3.280932617187500000e+01 -6.269923448562622070e-01 1.767080873250961304e-01 -1.350852847099304199e-01 -7.990248203277587891e-01
2.357000000000000000e+03 4.567963790893554688e+01 6.043301582336425781e+00 1.353551506996154785e+00 1.358923530578613281e+01 4.482835769653320312e+00 2.002148479223251343e-01
2.358000000000000000e+03 1.773446273803710938e+01 -1.073921680450439453e+01 3.107396662235260010e-01 1.712510138750076294e-01 1.445972025394439697e-01 -1.336949318647384644e-01
2.359000000000000000e+03 1.735145568847656250e+01 -1.013851737976074219e+01 1.807982027530670166e-01 1.668553948402404785e-01 1.042960807681083679e-01 -1.374652832746505737e-01
2.360000000000000000e+03 4.775350952148437500e+01 -8.237729072570800781e+00 -2.633775234222412109e+00 6.906541824340820312e+00 1.281829953193664551e+00 8.519567251205444336e-01
2.361000000000000000e+03 4.239122390747070312e+01 1.206464290618896484e+01 9.197869300842285156e-01 9.658928871154785156e+00 3.173614740371704102e+00 -1.682440519332885742e+00
2.362000000000000000e+03 4.194471359252929688e+01 1.279303550720214844e+01 9.105852246284484863e-01 8.479379653930664062e+00 2.816989421844482422e+00 -1.883983373641967773e+00
2.363000000000000000e+03 2.269267845153808594e+01 2.636103630065917969e+01 -5.773358419537544250e-02 5.832248553633689880e-02 1.766702480381354690e-04 7.557942532002925873e-03
2.364000000000000000e+03 1.763664817810058594e+01 1.807048797607421875e+01 -6.920160353183746338e-02 -1.937556453049182892e-02 -2.657314948737621307e-02 -5.519893020391464233e-02
2.365000000000000000e+03 1.602330780029296875e+01 1.648646926879882812e+01 -3.901696205139160156e-02 -6.347842980176210403e-03 -1.360944099724292755e-02 -2.556512877345085144e-02
2.366000000000000000e+03 3.125360679626464844e+01 -3.161892700195312500e+01 4.770246744155883789e-01 1.720563530921936035e+00 6.592764258384704590e-01 1.262158751487731934e+00
2.367000000000000000e+03 2.547041702270507812e+01 -5.337889194488525391e+00 -7.970799207687377930e-01 1.480263322591781616e-01 -1.947160661220550537e-01 7.937915623188018799e-02
2.368000000000000000e+03 4.486037063598632812e+01 -1.541946411132812500e+01 1.067368745803833008e+00 1.087402248382568359e+01 3.582417249679565430e+00 1.242914915084838867e+00
2.369000000000000000e+03 4.677975845336914062e+01 3.754751920700073242e+00 2.011278390884399414e+00 1.245002651214599609e+01 4.338391780853271484e+00 -4.987392723560333252e-01
2.370000000000000000e+03 9.688061714172363281e+00 4.457271575927734375e+00 1.650901860557496548e-03 -1.729147741571068764e-03 -2.347377449041232467e-05 -2.945363812614232302e-04
2.371000000000000000e+03 1.916488456726074219e+01 4.841463565826416016e+00 -5.794449243694543839e-04 1.720304833725094795e-03 3.422579611651599407e-04 1.088873599655926228e-03
2.372000000000000000e+03 1.935678482055664062e+01 2.211323976516723633e+00 -5.353851520339958370e-05 2.910450275521725416e-04 7.125195406842976809e-05 3.682405804283916950e-04
2.373000000000000000e+03 1.134662437438964844e+01 3.599572658538818359e+00 2.319974824786186218e-03 -1.148548908531665802e-03 3.514277632348239422e-04 9.342209086753427982e-04
2.374000000000000000e+03 4.692101669311523438e+01 4.481689453125000000e+00 1.553188443183898926e+00 1.268937969207763672e+01 4.272770404815673828e+00 -5.383089780807495117e-01
2.375000000000000000e+03 3.625914764404296875e+01 -1.665479278564453125e+01 2.703717648983001709e-01 3.448742866516113281e+00 1.115734338760375977e+00 -3.028376102447509766e-01
2.376000000000000000e+03 3.604954147338867188e+01 -1.485903072357177734e+01 4.751754105091094971e-01 2.794721364974975586e+00 9.809690713882446289e-01 -2.887265086174011230e-01
2.377000000000000000e+03 1.518284511566162109e+01 3.712509155273437500e+00 1.463168649934232235e-03 -1.351416140096262097e-04 3.984080976806581020e-04 2.040236024186015129e-03
2.378000000000000000e+03 1.805881500244140625e+01 4.523009300231933594e+00 -7.277519907802343369e-04 1.418917439877986908e-03 2.073496289085596800e-04 1.722161774523556232e-03
2.379000000000000000e+03 5.355699157714843750e+01 -3.204872131347656250e+01 -7.998839616775512695e-01 7.118933796882629395e-01 -2.639715932309627533e-02 -1.100637793540954590e+00
2.380000000000000000e+03 9.581335067749023438e+00 -1.902250289916992188e+01 1.484826058149337769e-01 3.923550546169281006e-01 1.622512936592102051e-01 -1.817336380481719971e-01
2.381000000000000000e+03 1.667522430419921875e+01 1.299308681488037109e+01 -3.521168546285480261e-04 1.764523447491228580e-03 4.237219982314854860e-04 5.995277897454798222e-04
2.382000000000000000e+03 6.190480804443359375e+01 2.500034332275390625e+01 -6.270760297775268555e-01 6.541075110435485840e-01 8.109450340270996094e-03 -3.597147762775421143e-01
2.383000000000000000e+03 1.697038269042968750e+01 1.042735004425048828e+01 -1.476524979807436466e-03 4.501045681536197662e-03 9.073561523109674454e-04 2.845462644472718239e-03
2.384000000000000000e+03 4.453974151611328125e+01 -1.972353363037109375e+01 1.155303239822387695e+00 1.081323242187500000e+01 3.590560674667358398e+00 3.634209930896759033e-01
2.385000000000000000e+03 4.452934265136718750e+01 -2.064904022216796875e+01 1.391646027565002441e+00 1.042142009735107422e+01 3.543919801712036133e+00 1.261461079120635986e-01
2.386000000000000000e+03 4.444749450683593750e+01 1.212020218372344971e-01 2.093509197235107422e+00 1.237416839599609375e+01 4.340303421020507812e+00 1.105887055397033691e+00
2.387000000000000000e+03 4.417406845092773438e+01 1.799112677574157715e+00 2.280963182449340820e+00 1.426774692535400391e+01 4.964612960815429688e+00 1.289555907249450684e+00
2.388000000000000000e+03 2.128619384765625000e+01 -3.292585372924804688e+01 3.045664727687835693e-02 2.069476991891860962e-01 7.122130692005157471e-02 -2.087452113628387451e-01
2.389000000000000000e+03 2.227046203613281250e+01 -3.315142822265625000e+01 6.869603693485260010e-02 1.831272542476654053e-01 7.554698735475540161e-02 -1.547386050224304199e-01
2.390000000000000000e+03 3.872605895996093750e+01 1.770088386535644531e+01 6.317006945610046387e-01 3.628667116165161133e+00 1.278110384941101074e+00 -1.603468656539916992e+00
2.391000000000000000e+03 5.724443435668945312e+01 -7.661285877227783203e+00 -7.470856904983520508e-01 1.927446126937866211e-01 -1.663023233413696289e-01 -5.281570553779602051e-01
2.392000000000000000e+03 1.477581214904785156e+01 -2.836558914184570312e+01 1.164393946528434753e-01 3.659529089927673340e-01 1.447176933288574219e-01 -2.287679165601730347e-01
2.393000000000000000e+03 3.739355850219726562e+01 -2.542388343811035156e+01 1.630140900611877441e+00 6.156605243682861328e+00 2.336023807525634766e+00 1.676041603088378906e+00
2.394000000000000000e+03 4.419398880004882812e+01 8.201678276062011719e+00 1.742010951042175293e+00 1.393419075012207031e+01 4.702860355377197266e+00 -2.436868101358413696e-01
2.395000000000000000e+03 3.298529815673828125e+01 -3.070715332031250000e+01 6.132509112358093262e-01 2.917796611785888672e+00 1.059314250946044922e+00 1.594062805175781250e+00
2.396000000000000000e+03 3.500357437133789062e+01 -2.986274337768554688e+01 5.402179360389709473e-01 4.401875019073486328e+00 1.482627868652343750e+00 1.556345939636230469e+00
2.397000000000000000e+03 7.667313385009765625e+01 4.173537445068359375e+01 2.875706925988197327e-02 7.346545219421386719e+00 2.212590694427490234e+00 -2.272481098771095276e-02
2.398000000000000000e+03 4.671157836914062500e+01 -1.111887931823730469e+01 -6.429792046546936035e-01 8.975706100463867188e+00 2.499817848205566406e+00 1.071887373924255371e+00
2.399000000000000000e+03 4.559114837646484375e+01 -1.155710220336914062e+01 -5.583733916282653809e-01 9.483074188232421875e+00 2.677410364151000977e+00 6.633771061897277832e-01
2.400000000000000000e+03 7.010020446777343750e+01 1.587756347656250000e+01 1.338382005691528320e+00 1.110237789154052734e+01 3.732228040695190430e+00 2.789180353283882141e-02
2.401000000000000000e+03 6.930179595947265625e+01 1.551636409759521484e+01 1.063007354736328125e+00 1.235316467285156250e+01 4.024851799011230469e+00 5.393111705780029297e-01
2.402000000000000000e+03 4.697586822509765625e+01 1.119572830200195312e+01 9.189698100090026855e-01 1.108459663391113281e+01 3.601069927215576172e+00 1.880466699600219727e+00
2.403000000000000000e+03 6.087391281127929688e+01 -3.048045349121093750e+01 -1.566353321075439453e+00 2.921462059020996094e-01 -3.822621405124664307e-01 1.331229060888290405e-01
2.404000000000000000e+03 4.460808181762695312e+01 -2.160969352722167969e+01 1.538302183151245117e+00 1.002932643890380859e+01 3.470288753509521484e+00 -2.038032561540603638e-02
2.405000000000000000e+03 6.423375701904296875e+01 -3.099922180175781250e+01 -9.455384612083435059e-01 2.573956251144409180e+00 4.885253310203552246e-01 7.098567485809326172e-01
2.406000000000000000e+03 2.328301239013671875e+01 -3.342693710327148438e+01 1.178879439830780029e-01 1.853967458009719849e-01 9.098540991544723511e-02 -9.929044544696807861e-02
2.407000000000000000e+03 5.646599960327148438e+01 -6.764375209808349609e+00 -7.100052833557128906e-01 9.733486175537109375e-02 -1.838011294603347778e-01 -9.340474009513854980e-01
2.408000000000000000e+03 5.547435760498046875e+01 -6.645753383636474609e+00 -1.029761314392089844e+00 -7.179684191942214966e-02 -3.304674625396728516e-01 -1.036484837532043457e+00
2.409000000000000000e+03 1.031623935699462891e+01 -1.638994216918945312e+01 7.344202697277069092e-02 4.145235121250152588e-01 1.463896632194519043e-01 -1.186034902930259705e-01
2.410000000000000000e+03 2.037038421630859375e+01 -5.529551982879638672e+00 -4.322780370712280273e-01 5.836528539657592773e-02 -1.121738180518150330e-01 -1.119654998183250427e-02
2.411000000000000000e+03 2.118146324157714844e+01 -5.681171417236328125e+00 -4.451082348823547363e-01 7.210586220026016235e-02 -1.119007095694541931e-01 4.659016150981187820e-03
2.412000000000000000e+03 2.029010772705078125e+01 -3.268510055541992188e+01 1.663186959922313690e-02 2.314038872718811035e-01 7.441072911024093628e-02 -2.400507628917694092e-01
2.413000000000000000e+03 5.450612258911132812e+01 -3.243894577026367188e+01 -7.327628135681152344e-01 4.155535101890563965e-01 -9.516279399394989014e-02 -9.653918147087097168e-01
2.414000000000000000e+03 5.167567062377929688e+01 2.158185958862304688e+01 5.767160654067993164e-01 5.598871231079101562e+00 1.852676153182983398e+00 1.942712664604187012e+00
2.415000000000000000e+03 4.944378280639648438e+01 2.045458984375000000e+01 5.464414358139038086e-01 6.724276065826416016e+00 2.181215286254882812e+00 1.384591221809387207e+00
2.416000000000000000e+03 3.399970245361328125e+01 -7.095205783843994141e+00 -8.670691251754760742e-01 2.233418971300125122e-01 -1.931181699037551880e-01 1.170594245195388794e-01
2.417000000000000000e+03 1.322519969940185547e+01 -1.107073211669921875e+01 1.456887871026992798e-01 8.050026744604110718e-02 6.785671412944793701e-02 -9.489943087100982666e-02
2.418000000000000000e+03 1.400561523437500000e+01 -1.163860797882080078e+01 2.467260956764221191e-01 6.509964913129806519e-02 9.354772418737411499e-02 -4.125930368900299072e-02
2.419000000000000000e+03 6.840000915527343750e+01 -1.073141765594482422e+01 -1.665481477975845337e-01 7.791712284088134766e+00 2.287549257278442383e+00 -1.095994830131530762e+00
2.420000000000000000e+03 6.757020568847656250e+01 -1.142110633850097656e+01 2.409559190273284912e-01 7.528613090515136719e+00 2.330870628356933594e+00 -1.736315846443176270e+00
2.421000000000000000e+03 4.995256042480468750e+01 -7.057654857635498047e+00 -2.173896789550781250e+00 2.896412849426269531e+00 2.167548388242721558e-01 6.981257200241088867e-01
2.422000000000000000e+03 3.267734527587890625e+01 -3.213954162597656250e+01 1.957753747701644897e-01 2.776597023010253906e+00 8.917117118835449219e-01 1.351871967315673828e+00
2.423000000000000000e+03 4.506894302368164062e+01 -1.372363662719726562e+01 7.710895538330078125e-01 1.030408477783203125e+01 3.322552442550659180e+00 1.052885770797729492e+00
2.424000000000000000e+03 2.973642730712890625e+01 -3.347975921630859375e+01 2.893922626972198486e-01 1.270974040031433105e+00 4.681099057197570801e-01 9.198561310768127441e-01
2.425000000000000000e+03 5.438273620605468750e+01 -6.467856407165527344e+00 -1.232120513916015625e+00 -3.930225670337677002e-01 -4.875429272651672363e-01 -1.164719343185424805e+00
2.426000000000000000e+03 1.124923801422119141e+01 -2.297611808776855469e+01 2.732113003730773926e-01 5.869584679603576660e-01 2.580509483814239502e-01 -2.168763875961303711e-01
2.427000000000000000e+03 1.656629753112792969e+01 -3.195744895935058594e+01 -1.997492276132106781e-03 3.036224544048309326e-01 9.048748761415481567e-02 -2.223234325647354126e-01
2.428000000000000000e+03 6.975640106201171875e+01 1.401375675201416016e+01 1.288190841674804688e+00 1.103723430633544922e+01 3.697627544403076172e+00 3.633050024509429932e-01
2.429000000000000000e+03 3.559548187255859375e+01 -2.921236610412597656e+01 6.970742344856262207e-01 4.879220485687255859e+00 1.672888398170471191e+00 1.552947163581848145e+00
2.430000000000000000e+03 3.624113082885742188e+01 -2.842695236206054688e+01 8.844923973083496094e-01 5.329188346862792969e+00 1.864104270935058594e+00 1.516338825225830078e+00
2.431000000000000000e+03 1.316530227661132812e+01 -1.039787387847900391e+01 1.004012599587440491e-01 8.107835799455642700e-02 5.444388464093208313e-02 -1.443800032138824463e-01
2.432000000000000000e+03 6.828151702880859375e+01 -1.157555675506591797e+01 1.631003618240356445e-01 8.233031272888183594e+00 2.518839597702026367e+00 -1.310491442680358887e+00
2.433000000000000000e+03 4.405968856811523438e+01 9.145206451416015625e+00 1.562074899673461914e+00 1.319065666198730469e+01 4.425819396972656250e+00 -1.580367088317871094e-01
2.434000000000000000e+03 2.995741653442382812e+01 -6.675472259521484375e+00 -1.310003638267517090e+00 -3.916118741035461426e-01 -5.104846358299255371e-01 -2.011006176471710205e-01
2.435000000000000000e+03 3.710219955444335938e+01 -2.638923645019531250e+01 1.509024620056152344e+00 5.987876415252685547e+00 2.249070405960083008e+00 1.622987031936645508e+00
2.436000000000000000e+03 3.084585189819335938e+01 -3.304062652587890625e+01 2.746467888355255127e-01 1.710831880569458008e+00 5.956436395645141602e-01 1.111438512802124023e+00
2.437000000000000000e+03 6.966491699218750000e+01 -2.035553359985351562e+01 1.875894665718078613e+00 1.193599414825439453e+01 4.143566608428955078e+00 7.293732464313507080e-02
2.438000000000000000e+03 5.432614135742187500e+01 -2.033062458038330078e+00 2.179123163223266602e+00 -8.250588178634643555e-02 6.289852261543273926e-01 -9.753515720367431641e-01
2.439000000000000000e+03 4.561822509765625000e+01 -2.713408660888671875e+01 4.153801500797271729e-02 6.480614185333251953e+00 1.956645607948303223e+00 -6.843111515045166016e-01
2.440000000000000000e+03 1.532246112823486328e+01 -2.909637069702148438e+01 8.546662330627441406e-02 3.508856594562530518e-01 1.309056878089904785e-01 -2.193304747343063354e-01
2.441000000000000000e+03 1.820274543762207031e+01 -3.185292434692382812e+01 -6.351289339363574982e-04 2.829530835151672363e-01 8.469538390636444092e-02 -2.438575327396392822e-01
2.442000000000000000e+03 3.881646728515625000e+01 -5.418270111083984375e+00 -6.820452809333801270e-01 4.175075531005859375e+00 1.047909140586853027e+00 2.286811351776123047e+00
2.443000000000000000e+03 3.672820663452148438e+01 -3.014897346496582031e+01 2.001758962869644165e-01 5.038022994995117188e+00 1.571459650993347168e+00 1.169033408164978027e+00
2.444000000000000000e+03 1.002062702178955078e+01 -1.533574485778808594e+01 4.980171471834182739e-02 3.069979846477508545e-01 1.070399060845375061e-01 -1.382674723863601685e-01
2.445000000000000000e+03 6.889666748046875000e+01 -1.532899093627929688e+01 2.266433477401733398e+00 1.267793750762939453e+01 4.483311176300048828e+00 -1.663633346557617188e+00
2.446000000000000000e+03 6.909642028808593750e+01 -1.333791828155517578e+01 9.927765727043151855e-01 1.009028148651123047e+01 3.324917554855346680e+00 -9.056897759437561035e-01
2.447000000000000000e+03 6.505438232421875000e+01 -1.117116641998291016e+01 9.962146878242492676e-01 3.037187337875366211e+00 1.210020542144775391e+00 -2.112546920776367188e+00
2.448000000000000000e+03 4.200022888183593750e+01 -2.152481794357299805e+00 1.691002726554870605e+00 1.175132656097412109e+01 4.032698631286621094e+00 2.830497980117797852e+00
2.449000000000000000e+03 4.307711029052734375e+01 -1.581106066703796387e+00 1.589623808860778809e+00 1.207562255859375000e+01 4.099574089050292969e+00 1.961058139801025391e+00
2.450000000000000000e+03 6.876632690429687500e+01 9.984715461730957031e+00 1.995956450700759888e-01 8.272255897521972656e+00 2.541555404663085938e+00 6.401993632316589355e-01
2.451000000000000000e+03 2.353029632568359375e+01 -9.537377357482910156e+00 -3.048815391957759857e-02 5.502910166978836060e-02 7.362284697592258453e-03 -2.074791789054870605e-01
2.452000000000000000e+03 4.478762435913085938e+01 -2.258923530578613281e+01 1.555889368057250977e+00 9.523170471191406250e+00 3.323718070983886719e+00 -2.118232101202011108e-01
2.453000000000000000e+03 4.501573944091796875e+01 -2.359085845947265625e+01 1.457923173904418945e+00 8.876683235168457031e+00 3.100381851196289062e+00 -3.240998983383178711e-01
2.454000000000000000e+03 7.075309753417968750e+01 1.841208076477050781e+01 1.584229469299316406e+00 9.855763435363769531e+00 3.431997776031494141e+00 -1.283361613750457764e-01
2.455000000000000000e+03 3.964610671997070312e+01 -5.138241767883300781e+00 -8.589311838150024414e-01 5.925783634185791016e+00 1.520055770874023438e+00 2.621226072311401367e+00
2.456000000000000000e+03 4.339202880859375000e+01 1.176189041137695312e+01 8.261498212814331055e-01 1.069345092773437500e+01 3.455880165100097656e+00 -6.258062720298767090e-01
2.457000000000000000e+03 1.258434295654296875e+01 -1.111775875091552734e+01 1.071277707815170288e-01 9.274570643901824951e-02 5.996204540133476257e-02 -1.033364683389663696e-01
2.458000000000000000e+03 1.198227310180664062e+01 -1.192437171936035156e+01 8.405961841344833374e-02 1.296333074569702148e-01 6.410787999629974365e-02 -7.158778607845306396e-02
2.459000000000000000e+03 4.131823348999023438e+01 -4.750756263732910156e+00 -1.296130776405334473e+00 8.803457260131835938e+00 2.252197742462158203e+00 2.255848646163940430e+00
2.460000000000000000e+03 4.049315261840820312e+01 -4.893994808197021484e+00 -1.099933505058288574e+00 7.592715740203857422e+00 1.947834610939025879e+00 2.529216051101684570e+00
2.461000000000000000e+03 4.866035461425781250e+01 -2.938650131225585938e+01 -3.642114102840423584e-01 3.785866975784301758e+00 1.026496648788452148e+00 -1.437276005744934082e+00
2.462000000000000000e+03 4.936268615722656250e+01 -3.002625274658203125e+01 -5.155510902404785156e-01 3.276308536529541016e+00 8.282272219657897949e-01 -1.394420742988586426e+00
2.463000000000000000e+03 6.987219238281250000e+01 -1.678690338134765625e+01 2.056351661682128906e+00 1.230174255371093750e+01 4.307428359985351562e+00 -9.313927292823791504e-01
2.464000000000000000e+03 6.550876617431640625e+01 2.452503967285156250e+01 -7.557040452957153320e-01 3.171096801757812500e+00 7.246177792549133301e-01 -1.728520750999450684e+00
2.465000000000000000e+03 6.897425079345703125e+01 -1.246728229522705078e+01 5.206974148750305176e-01 9.436211585998535156e+00 2.987072467803955078e+00 -8.946111202239990234e-01
2.466000000000000000e+03 6.930332946777343750e+01 -1.422134494781494141e+01 1.587497353553771973e+00 1.087075328826904297e+01 3.737475156784057617e+00 -8.892165422439575195e-01
2.467000000000000000e+03 6.149981307983398438e+01 -3.144598197937011719e+01 -1.043267726898193359e+00 8.745056986808776855e-01 -5.062860250473022461e-02 4.183931648731231689e-01
2.468000000000000000e+03 1.669397926330566406e+01 -1.054172515869140625e+01 2.462559938430786133e-01 1.711522340774536133e-01 1.252224743366241455e-01 -1.582042872905731201e-01
2.469000000000000000e+03 1.812783241271972656e+01 2.555396080017089844e+00 -2.070695336442440748e-05 4.344547342043370008e-04 1.241243298863992095e-04 1.014820183627307415e-03
2.470000000000000000e+03 2.121534347534179688e+01 2.272323846817016602e+00 2.526064345147460699e-04 4.712994850706309080e-04 2.171717787859961390e-04 4.138573785894550383e-05
2.471000000000000000e+03 2.714490890502929688e+01 2.353480339050292969e+01 -2.273587286472320557e-01 1.828428804874420166e-01 -1.335475500673055649e-02 -1.921522170305252075e-01
2.472000000000000000e+03 1.016838645935058594e+01 -2.142326736450195312e+01 2.448637187480926514e-01 4.675933420658111572e-01 2.137371301651000977e-01 -1.967643201351165771e-01
2.473000000000000000e+03 1.032158279418945312e+01 -2.226304435729980469e+01 2.571889460086822510e-01 4.501297473907470703e-01 2.121956050395965576e-01 -1.763108372688293457e-01
2.474000000000000000e+03 5.979131698608398438e+01 2.495792579650878906e+01 -6.949710249900817871e-01 4.243995547294616699e-01 -8.117143809795379639e-02 5.015196800231933594e-01
2.475000000000000000e+03 2.547454452514648438e+01 -1.325191020965576172e+01 6.723893284797668457e-01 3.182326443493366241e-03 2.026714980602264404e-01 -1.923026889562606812e-01
2.476000000000000000e+03 5.793963623046875000e+01 -3.313953018188476562e+01 -4.500783979892730713e-01 2.636739052832126617e-02 -1.271132975816726685e-01 -3.092548251152038574e-01
2.477000000000000000e+03 5.952851867675781250e+01 -3.242130661010742188e+01 -7.178086638450622559e-01 2.085420638322830200e-01 -1.527799814939498901e-01 4.727698862552642822e-02
2.478000000000000000e+03 4.216643524169921875e+01 -3.979481458663940430e+00 -8.074386119842529297e-01 1.026298332214355469e+01 2.836663484573364258e+00 1.864361405372619629e+00
2.479000000000000000e+03 1.125776004791259766e+01 -2.386362648010253906e+01 2.338203489780426025e-01 5.212250351905822754e-01 2.265136241912841797e-01 -1.858730167150497437e-01
2.480000000000000000e+03 4.511070632934570312e+01 -1.284654903411865234e+01 2.824747562408447266e-01 9.843685150146484375e+00 3.037847995758056641e+00 8.359462022781372070e-01
2.481000000000000000e+03 4.497374343872070312e+01 -1.457008457183837891e+01 9.702376127243041992e-01 1.062705802917480469e+01 3.479188680648803711e+00 1.197353601455688477e+00
2.482000000000000000e+03 1.069517707824707031e+01 -1.555905246734619141e+01 5.320954322814941406e-02 3.968978226184844971e-01 1.350322067737579346e-01 -8.137267827987670898e-02
2.483000000000000000e+03 8.929047584533691406e+00 -1.769278144836425781e+01 1.141453310847282410e-01 2.567624449729919434e-01 1.112723276019096375e-01 -1.889773607254028320e-01
2.484000000000000000e+03 1.042963504791259766e+01 -1.330521965026855469e+01 2.480241097509860992e-02 2.017846554517745972e-01 6.797611713409423828e-02 -1.181897670030593872e-01
2.485000000000000000e+03 9.378458976745605469e+00 -1.507373619079589844e+01 4.647900909185409546e-02 2.185810655355453491e-01 7.951802015304565430e-02 -1.699439287185668945e-01
2.486000000000000000e+03 2.868924903869628906e+01 -7.408354282379150391e+00 -7.935752868652343750e-01 -2.183523178100585938e-01 -3.035782873630523682e-01 -3.128585815429687500e-01
2.487000000000000000e+03 4.528516769409179688e+01 -2.466281890869140625e+01 1.047184824943542480e+00 8.150343894958496094e+00 2.759258747100830078e+00 -4.643651545047760010e-01
2.488000000000000000e+03 4.132177352905273438e+01 -2.202832031250000000e+01 1.485744476318359375e+00 7.191600322723388672e+00 2.603203535079956055e+00 1.205041408538818359e+00
2.489000000000000000e+03 5.152877426147460938e+01 2.268630027770996094e+01 -3.018813133239746094e-01 5.334660053253173828e+00 1.509833693504333496e+00 1.736856222152709961e+00
2.490000000000000000e+03 3.514125823974609375e+01 -7.493055820465087891e+00 -5.632662773132324219e-01 9.076456427574157715e-01 1.033138036727905273e-01 4.749002456665039062e-01
2.491000000000000000e+03 3.033631134033203125e+01 -1.308434867858886719e+01 8.266311883926391602e-01 -8.529975265264511108e-02 2.223994284868240356e-01 -2.284593880176544189e-02
2.492000000000000000e+03 2.785454177856445312e+01 -1.287597179412841797e+01 6.819473505020141602e-01 -5.999504029750823975e-02 1.865856945514678955e-01 -1.459483206272125244e-01
2.493000000000000000e+03 1.707221031188964844e+01 1.896107673645019531e+01 -1.383818238973617554e-01 6.881733424961566925e-03 -3.945002704858779907e-02 -6.273761391639709473e-02
2.494000000000000000e+03 6.382175064086914062e+01 -1.000616836547851562e+01 6.225318312644958496e-01 1.799817919731140137e+00 7.267048954963684082e-01 -1.453261613845825195e+00
2.495000000000000000e+03 2.311314201354980469e+01 2.453030967712402344e+01 -2.475559562444686890e-01 -3.981081023812294006e-02 -8.621002733707427979e-02 -2.831017598509788513e-03
2.496000000000000000e+03 2.205801963806152344e+01 2.514111518859863281e+01 -1.697374880313873291e-01 -2.562190406024456024e-02 -5.860781669616699219e-02 6.236017867922782898e-02
2.497000000000000000e+03 2.864386940002441406e+01 -6.240210056304931641e+00 -1.297365903854370117e+00 -2.002519965171813965e-01 -4.492853581905364990e-01 -1.422745287418365479e-01
2.498000000000000000e+03 2.920034790039062500e+01 -1.158261966705322266e+01 5.314511060714721680e-01 -1.557775735855102539e-01 1.127020642161369324e-01 -1.549084931612014771e-01
2.499000000000000000e+03 5.262973403930664062e+01 -3.196539497375488281e+01 -7.780982851982116699e-01 1.238586544990539551e+00 1.381464600563049316e-01 -1.234237313270568848e+00
2.500000000000000000e+03 2.807567787170410156e+01 -6.867458343505859375e+00 -9.415572881698608398e-01 -1.064216196537017822e-01 -3.143936693668365479e-01 -2.389858365058898926e-01
2.501000000000000000e+03 3.683122634887695312e+01 -1.556191444396972656e+01 3.382613360881805420e-01 3.747698545455932617e+00 1.225787997245788574e+00 -1.776822209358215332e-01
2.502000000000000000e+03 2.863627624511718750e+01 2.325460243225097656e+01 -1.046615093946456909e-01 3.155871331691741943e-01 6.327769160270690918e-02 -3.344088494777679443e-01
2.503000000000000000e+03 1.869157409667968750e+01 2.254910087585449219e+01 -3.423861563205718994e-01 4.363675042986869812e-02 -8.962482213973999023e-02 6.677307933568954468e-02
2.504000000000000000e+03 2.046365165710449219e+01 2.282545852661132812e+01 -4.292319416999816895e-01 -5.026152357459068298e-02 -1.438480317592620850e-01 6.390471011400222778e-02
2.505000000000000000e+03 5.326969528198242188e+01 -6.151202201843261719e+00 -8.508630394935607910e-01 -4.515581130981445312e-01 -3.907263576984405518e-01 -1.066445231437683105e+00
2.506000000000000000e+03 3.010203599929809570e+00 -3.951361465454101562e+01 -7.073410786688327789e-03 -5.602266788482666016e-01 -1.701900362968444824e-01 2.355749486014246941e-03
2.507000000000000000e+03 7.663803100585937500e+01 -3.988508605957031250e+01 -5.464457720518112183e-02 8.994478225708007812e+00 2.681950092315673828e+00 -1.339004188776016235e-01
2.508000000000000000e+03 7.729282379150390625e+01 -3.815575408935546875e+01 -2.360837534070014954e-02 9.267727851867675781e+00 2.773235797882080078e+00 -4.290375486016273499e-02
2.509000000000000000e+03 4.946962356567382812e+00 3.807708740234375000e+01 3.048423491418361664e-02 -1.824092715978622437e-01 -4.557751119136810303e-02 4.345529153943061829e-02
2.510000000000000000e+03 2.548833847045898438e+00 3.711172103881835938e+01 1.282198075205087662e-02 -2.553091645240783691e-01 -7.274615019559860229e-02 3.331623598933219910e-02
2.511000000000000000e+03 3.530062198638916016e+00 3.552362060546875000e+01 1.242332067340612411e-02 -2.004385888576507568e-01 -5.640457943081855774e-02 5.558280274271965027e-02
2.512000000000000000e+03 9.736071586608886719e+00 -4.623966217041015625e+00 -1.973156183958053589e-01 3.057989291846752167e-02 -5.002071708440780640e-02 -1.593293398618698120e-01
2.513000000000000000e+03 1.039166736602783203e+01 -4.694481849670410156e+00 -2.146656364202499390e-01 3.808827698230743408e-02 -5.297320708632469177e-02 -1.610097289085388184e-01
2.514000000000000000e+03 5.902712249755859375e+01 -7.746767997741699219e+00 -1.396974474191665649e-01 3.364627659320831299e-01 5.902959778904914856e-02 -5.015567541122436523e-01
2.515000000000000000e+03 5.889812088012695312e+01 -8.375603675842285156e+00 -3.363150656223297119e-01 2.962595522403717041e-01 -1.201665867120027542e-02 -3.233418762683868408e-01
2.516000000000000000e+03 3.300376653671264648e+00 4.045481681823730469e+00 7.885656668804585934e-04 7.566588465124368668e-04 4.635673540178686380e-04 -1.933862338773906231e-03
2.517000000000000000e+03 2.120970344543457031e+01 -1.090472698211669922e+01 2.537956237792968750e-01 4.813008382916450500e-02 9.057770669460296631e-02 -1.870840787887573242e-01
2.518000000000000000e+03 2.062277603149414062e+01 -1.151140308380126953e+01 3.521496057510375977e-01 4.251463338732719421e-02 1.183992698788642883e-01 -1.874517202377319336e-01
2.519000000000000000e+03 7.020100402832031250e+01 -2.188376426696777344e+01 1.098658323287963867e+00 1.042117786407470703e+01 3.455950975418090820e+00 -7.664145827293395996e-01
2.520000000000000000e+03 1.751994705200195312e+01 5.591027736663818359e+00 -1.238185213878750801e-03 1.843144069425761700e-03 1.814876450225710869e-04 1.894819433800876141e-03
2.521000000000000000e+03 1.105420398712158203e+01 -4.793908119201660156e+00 -2.292997241020202637e-01 4.424609243869781494e-02 -5.551608651876449585e-02 -1.622115373611450195e-01
2.522000000000000000e+03 6.003719329833984375e+01 -7.870342731475830078e+00 5.763485655188560486e-02 5.202726721763610840e-01 1.733722686767578125e-01 -5.764255523681640625e-01
2.523000000000000000e+03 6.168151092529296875e+01 -9.310772895812988281e+00 2.697653770446777344e-01 6.909275650978088379e-01 2.882078886032104492e-01 -6.476002335548400879e-01
2.524000000000000000e+03 2.042732620239257812e+01 -1.050926017761230469e+01 2.096526473760604858e-01 6.907397508621215820e-02 8.361798524856567383e-02 -1.621861159801483154e-01
2.525000000000000000e+03 1.980492401123046875e+01 -1.083905029296875000e+01 2.863983809947967529e-01 6.601312756538391113e-02 1.057234480977058411e-01 -1.497038155794143677e-01
2.526000000000000000e+03 1.596528625488281250e+01 3.661417245864868164e+00 2.603874891065061092e-04 2.815326442942023277e-04 1.625760487513616681e-04 1.843651174567639828e-03
2.527000000000000000e+03 1.593956661224365234e+01 2.935978889465332031e+00 1.280189491808414459e-03 1.247351465281099081e-04 4.214773944113403559e-04 1.575876493006944656e-03
2.528000000000000000e+03 1.842284393310546875e+01 -1.022725582122802734e+01 1.974595934152603149e-01 1.278123110532760620e-01 9.758157283067703247e-02 -1.239875629544258118e-01
2.529000000000000000e+03 1.708304786682128906e+01 -5.888885021209716797e+00 -3.099209070205688477e-01 6.448818743228912354e-02 -7.362981885671615601e-02 -1.117337420582771301e-01
2.530000000000000000e+03 6.271370697021484375e+01 -8.858958244323730469e+00 4.420202672481536865e-01 1.368856906890869141e+00 5.432631969451904297e-01 -1.060930609703063965e+00
2.531000000000000000e+03 6.200856018066406250e+01 -8.627248764038085938e+00 3.761042654514312744e-01 1.015417337417602539e+00 4.174564778804779053e-01 -8.581655025482177734e-01
2.532000000000000000e+03 6.056386184692382812e+01 1.105052590370178223e+00 4.644449651241302490e-01 4.263367950916290283e-01 2.672345340251922607e-01 -7.033129781484603882e-02
2.533000000000000000e+03 6.177972793579101562e+01 2.147754430770874023e+00 1.527089327573776245e-01 9.552280306816101074e-01 3.323810696601867676e-01 1.210624724626541138e-01
2.534000000000000000e+03 1.443453216552734375e+01 3.810157775878906250e+00 8.842156967148184776e-04 -4.865139198955148458e-04 1.193105345009826124e-04 1.880986150354146957e-03
2.535000000000000000e+03 1.518547630310058594e+01 3.034281969070434570e+00 8.603085298091173172e-04 -1.433816796634346247e-04 2.150780637748539448e-04 1.673654420301318169e-03
2.536000000000000000e+03 6.164995193481445312e+01 -7.688841819763183594e+00 3.571742177009582520e-01 1.060484170913696289e+00 4.252974987030029297e-01 -8.776644468307495117e-01
2.537000000000000000e+03 2.489002990722656250e+01 -1.244628524780273438e+01 5.020261406898498535e-01 5.017681047320365906e-03 1.521131396293640137e-01 -2.275005578994750977e-01
2.538000000000000000e+03 2.642555618286132812e+01 -7.593859672546386719e+00 -5.740123391151428223e-01 2.924221754074096680e-02 -1.634310483932495117e-01 -2.246782630681991577e-01
2.539000000000000000e+03 1.939706611633300781e+01 3.679968833923339844e+00 9.405019955011084676e-05 1.058672554790973663e-03 3.458168357610702515e-04 4.674044030252844095e-04
2.540000000000000000e+03 6.238191604614257812e+01 2.662518978118896484e+00 3.585319593548774719e-02 1.252807378768920898e+00 3.865981698036193848e-01 2.318227589130401611e-01
2.541000000000000000e+03 6.230823135375976562e+01 1.678454160690307617e+00 1.894059628248214722e-01 1.324310541152954102e+00 4.541149437427520752e-01 1.449435651302337646e-01
2.542000000000000000e+03 3.112921333312988281e+01 -1.321665287017822266e+01 8.687665462493896484e-01 -6.818337831646203995e-03 2.585844695568084717e-01 -7.737002335488796234e-03
2.543000000000000000e+03 6.448587799072265625e+01 -2.921573448181152344e+01 -1.136720657348632812e+00 2.604611635208129883e+00 4.403672814369201660e-01 6.231698989868164062e-01
2.544000000000000000e+03 6.516365814208984375e+01 -2.861507987976074219e+01 -1.098007798194885254e+00 3.295081615447998047e+00 6.591221094131469727e-01 6.911562085151672363e-01
2.545000000000000000e+03 5.947992324829101562e+01 -5.268806934356689453e+00 5.434159040451049805e-01 4.731017649173736572e-01 3.049553036689758301e-01 -9.405414462089538574e-01
2.546000000000000000e+03 5.500034332275390625e+01 2.516852188110351562e+01 -4.270994365215301514e-01 2.536104917526245117e+00 6.327016353607177734e-01 1.850559592247009277e+00
2.547000000000000000e+03 5.461822891235351562e+01 2.395299148559570312e+01 -4.223523437976837158e-01 2.480975151062011719e+00 6.175868511199951172e-01 1.943759441375732422e+00
2.548000000000000000e+03 6.364536285400390625e+01 4.683928966522216797e+00 -1.785893738269805908e-01 1.833638906478881836e+00 4.965148568153381348e-01 5.618327856063842773e-01
2.549000000000000000e+03 3.665581130981445312e+01 -6.866695880889892578e+00 -6.557847261428833008e-01 1.909412622451782227e+00 3.760883510112762451e-01 1.017629384994506836e+00
2.550000000000000000e+03 1.387677764892578125e+01 -5.282536506652832031e+00 -2.812580168247222900e-01 5.832589045166969299e-02 -6.687963753938674927e-02 -1.551270335912704468e-01
2.551000000000000000e+03 1.214193725585937500e+01 3.490564584732055664e+00 1.786792767234146595e-03 -1.084316871128976345e-03 2.107427571900188923e-04 1.075185602530837059e-03
2.552000000000000000e+03 7.706269836425781250e+01 -3.606425857543945312e+01 -6.913881748914718628e-02 9.178665161132812500e+00 2.732857704162597656e+00 -8.081389218568801880e-02
2.553000000000000000e+03 7.646160888671875000e+01 -3.748777008056640625e+01 -5.048269778490066528e-02 8.862754821777343750e+00 2.643681764602661133e+00 -6.015815585851669312e-02
2.554000000000000000e+03 1.241431522369384766e+01 -5.041686058044433594e+00 -2.558456957340240479e-01 5.221190303564071655e-02 -6.109013780951499939e-02 -1.620743572711944580e-01
2.555000000000000000e+03 1.312915134429931641e+01 -5.163921356201171875e+00 -2.700560092926025391e-01 5.671865865588188171e-02 -6.400121003389358521e-02 -1.603734791278839111e-01
2.556000000000000000e+03 6.537094116210937500e+01 5.313860893249511719e+00 -3.384846448898315430e-01 3.426018953323364258e+00 9.262602925300598145e-01 8.604224324226379395e-01
2.557000000000000000e+03 6.483201599121093750e+01 5.762947082519531250e+00 -2.172722816467285156e-01 2.808966398239135742e+00 7.775081992149353027e-01 8.841054439544677734e-01
2.558000000000000000e+03 1.638508796691894531e+01 -5.062797069549560547e+00 -3.675179779529571533e-01 4.824091121554374695e-02 -9.578312188386917114e-02 -1.077013686299324036e-01
2.559000000000000000e+03 8.016926765441894531e+00 4.564766407012939453e+00 1.540504279546439648e-03 -1.495395088568329811e-03 1.353274819848593324e-05 -1.307059195823967457e-03
2.560000000000000000e+03 9.706014633178710938e+00 3.770708084106445312e+00 2.260379958897829056e-03 -1.192205818369984627e-03 3.204522654414176941e-04 -2.093664261337835342e-05
2.561000000000000000e+03 4.750815391540527344e+00 5.406025409698486328e+00 8.972682408057153225e-04 -4.088914283784106374e-05 2.569137432146817446e-04 -2.372532151639461517e-03
2.562000000000000000e+03 6.435817241668701172e+00 3.927319049835205078e+00 1.735386322252452374e-03 -6.248257705010473728e-04 3.331681655254215002e-04 -1.679478213191032410e-03
2.563000000000000000e+03 4.796046733856201172e+00 4.686082839965820312e+00 9.542627376504242420e-04 -1.211018607136793435e-04 2.499482652638107538e-04 -2.361896680667996407e-03
2.564000000000000000e+03 5.584434032440185547e+00 4.654929637908935547e+00 1.293173292651772499e-03 -4.502595984376966953e-04 2.528741024434566498e-04 -2.076708711683750153e-03
2.565000000000000000e+03 6.384131908416748047e+00 4.627762794494628906e+00 1.303462311625480652e-03 -9.445166215300559998e-04 1.076836924767121673e-04 -2.034320496022701263e-03
2.566000000000000000e+03 6.710055541992187500e+01 7.070581436157226562e+00 -4.274820089340209961e-01 5.454257011413574219e+00 1.508032441139221191e+00 1.003136396408081055e+00
2.567000000000000000e+03 8.422158241271972656e+00 -3.927497386932373047e+00 -1.739201843738555908e-01 1.445087697356939316e-02 -4.784079268574714661e-02 -1.371055096387863159e-01
2.568000000000000000e+03 8.415897369384765625e+00 -4.583548545837402344e+00 -1.613608747720718384e-01 1.296944729983806610e-02 -4.451742768287658691e-02 -1.564201563596725464e-01
2.569000000000000000e+03 3.117778205871582031e+01 -1.255518054962158203e+01 8.096238374710083008e-01 -3.604036057367920876e-03 2.418059259653091431e-01 -2.741274423897266388e-02
2.570000000000000000e+03 1.651915359497070312e+01 2.051133155822753906e+01 -2.116340100765228271e-01 5.095087364315986633e-02 -4.820493981242179871e-02 -1.232313364744186401e-02
2.571000000000000000e+03 4.108203887939453125e+01 1.421317481994628906e+01 8.956239223480224609e-01 6.500411987304687500e+00 2.218810796737670898e+00 -1.968278050422668457e+00
2.572000000000000000e+03 4.780293273925781250e+01 1.592485332489013672e+01 9.341589212417602539e-01 8.821949958801269531e+00 2.926832675933837891e+00 1.841130733489990234e+00
2.573000000000000000e+03 7.593982696533203125e+01 1.716057014465332031e+01 5.382009148597717285e-01 7.167067527770996094e+00 2.311580657958984375e+00 1.794679313898086548e-01
2.574000000000000000e+03 7.163437652587890625e+01 1.695271110534667969e+01 1.393075704574584961e+00 9.588624000549316406e+00 3.294510126113891602e+00 -4.089838266372680664e-02
2.575000000000000000e+03 3.552998352050781250e+01 -1.391896057128906250e+01 5.689417123794555664e-01 2.250159263610839844e+00 8.457303047180175781e-01 -1.910065412521362305e-01
2.576000000000000000e+03 2.528343772888183594e+01 -5.898069858551025391e+00 -7.526655793190002441e-01 1.485742032527923584e-01 -1.812274158000946045e-01 1.153752673417329788e-02
2.577000000000000000e+03 1.053148365020751953e+01 3.693954229354858398e+00 1.962876645848155022e-03 -1.269530504941940308e-03 2.080038539133965969e-04 2.375228214077651501e-04
2.578000000000000000e+03 4.728075027465820312e+01 9.401157379150390625e+00 9.093234539031982422e-01 1.172011566162109375e+01 3.788831710815429688e+00 1.686164855957031250e+00
2.579000000000000000e+03 2.007135200500488281e+01 -6.278364658355712891e+00 -3.372568488121032715e-01 7.290044426918029785e-02 -7.930692285299301147e-02 -4.566184058785438538e-02
2.580000000000000000e+03 7.736836242675781250e+01 -2.897913551330566406e+01 -1.633969843387603760e-01 8.820933341979980469e+00 2.597260951995849609e+00 -6.375154852867126465e-01
2.581000000000000000e+03 7.654363250732421875e+01 -3.046059226989746094e+01 -2.522338926792144775e-01 8.792826652526855469e+00 2.562177658081054688e+00 -5.356478691101074219e-01
2.582000000000000000e+03 3.219993209838867188e+01 -7.808288097381591797e+00 -5.941430926322937012e-01 -1.975383609533309937e-01 -2.375044524669647217e-01 -1.310671120882034302e-01
2.583000000000000000e+03 3.460841369628906250e+01 -1.440526294708251953e+01 7.101038098335266113e-01 1.454304099082946777e+00 6.493223905563354492e-01 -3.186493813991546631e-01
2.584000000000000000e+03 7.594466400146484375e+01 3.213830566406250000e+01 -1.189220398664474487e-01 7.363506317138671875e+00 2.173375368118286133e+00 -3.870958834886550903e-02
2.585000000000000000e+03 7.657669067382812500e+01 3.175299835205078125e+01 -1.136821210384368896e-01 7.525377750396728516e+00 2.223508596420288086e+00 -1.700995489954948425e-03
2.586000000000000000e+03 7.663924407958984375e+01 2.965840339660644531e+01 -1.595220714807510376e-01 7.587168693542480469e+00 2.228294134140014648e+00 1.371045857667922974e-01
2.587000000000000000e+03 7.742071533203125000e+01 3.026417541503906250e+01 -9.667322039604187012e-02 7.724204540252685547e+00 2.288259506225585938e+00 9.351806342601776123e-02
2.588000000000000000e+03 4.741749572753906250e+01 1.276273059844970703e+01 9.414535760879516602e-01 1.038312435150146484e+01 3.397373437881469727e+00 2.061281919479370117e+00
2.589000000000000000e+03 2.742306232452392578e+00 2.888978385925292969e+01 -1.876654685474932194e-03 -1.314671486616134644e-01 -4.000313952565193176e-02 5.609362944960594177e-02
2.590000000000000000e+03 3.420261621475219727e+00 3.059532546997070312e+01 5.088929319754242897e-04 -1.453825682401657104e-01 -4.346210509538650513e-02 6.732719391584396362e-02
2.591000000000000000e+03 1.368645095825195312e+01 3.925381898880004883e+00 1.867539947852492332e-03 -8.059098618105053902e-04 3.184890374541282654e-04 1.985019771382212639e-03
2.592000000000000000e+03 1.292588806152343750e+01 4.048064231872558594e+00 1.349478727206587791e-03 -1.177105936221778393e-03 5.171184966457076371e-05 1.515795942395925522e-03
2.593000000000000000e+03 6.794697570800781250e+01 -2.458361244201660156e+01 -7.016754150390625000e-01 7.410558223724365234e+00 2.012664794921875000e+00 1.051867485046386719e+00
2.594000000000000000e+03 7.027880096435546875e+01 -2.378072738647460938e+01 -3.692768216133117676e-01 9.343747138977050781e+00 2.692341089248657227e+00 -6.068680286407470703e-01
2.595000000000000000e+03 1.311207580566406250e+01 -2.749183845520019531e+01 1.050949245691299438e-01 3.813787102699279785e-01 1.459420919418334961e-01 -1.979488432407379150e-01
2.596000000000000000e+03 7.093093109130859375e+01 1.605922508239746094e+01 1.415409922599792480e+00 1.013184165954589844e+01 3.464175701141357422e+00 -1.505524516105651855e-01
2.597000000000000000e+03 2.566022300720214844e+01 -1.250885391235351562e+01 5.321643948554992676e-01 -1.304604019969701767e-02 1.557355076074600220e-01 -2.186364829540252686e-01
2.598000000000000000e+03 2.477431678771972656e+01 -5.839301109313964844e+00 -6.907458901405334473e-01 1.515429019927978516e-01 -1.617608964443206787e-01 2.447929978370666504e-02
2.599000000000000000e+03 5.940580368041992188e+01 1.043458342552185059e+00 5.713545083999633789e-01 -3.675195574760437012e-02 1.603807657957077026e-01 -1.544803529977798462e-01
2.600000000000000000e+03 7.588244628906250000e+01 -3.024609565734863281e+01 -3.373852670192718506e-01 8.652102470397949219e+00 2.494415044784545898e+00 -5.984956026077270508e-01
2.601000000000000000e+03 4.469977855682373047e+00 -2.898698806762695312e+01 4.626103676855564117e-03 -4.459500014781951904e-01 -1.323971748352050781e-01 4.490971937775611877e-02
2.602000000000000000e+03 2.814930438995361328e+00 -3.238444137573242188e+01 -1.031261961907148361e-02 -6.163542270660400391e-01 -1.880000531673431396e-01 3.748931363224983215e-02
2.603000000000000000e+03 2.509182453155517578e+00 4.842234134674072266e+00 4.591216857079416513e-04 1.476649427786469460e-03 5.807313136756420135e-04 -1.916590728797018528e-03
2.604000000000000000e+03 7.750098419189453125e+01 -2.168423461914062500e+01 1.695795953273773193e-01 7.206463813781738281e+00 2.212813138961791992e+00 -8.538018465042114258e-01
2.605000000000000000e+03 7.671795654296875000e+01 -2.317221260070800781e+01 9.645124524831771851e-02 7.789052486419677734e+00 2.365651130676269531e+00 -1.138282179832458496e+00
2.606000000000000000e+03 7.659671020507812500e+01 2.489966583251953125e+01 -1.858249753713607788e-01 7.507647037506103516e+00 2.196546554565429688e+00 5.985730886459350586e-01
2.607000000000000000e+03 3.871504974365234375e+01 -2.102710914611816406e+01 9.850559830665588379e-01 6.274004459381103516e+00 2.177718162536621094e+00 1.203491806983947754e+00
2.608000000000000000e+03 4.084249496459960938e+00 3.070718193054199219e+01 2.299436018802225590e-04 -1.329663246870040894e-01 -3.982091322541236877e-02 7.650861889123916626e-02
2.609000000000000000e+03 2.740531444549560547e+00 3.150345802307128906e+01 1.610415172763168812e-03 -1.735586524009704590e-01 -5.158446729183197021e-02 5.595036596059799194e-02
2.610000000000000000e+03 7.589699554443359375e+01 2.239383316040039062e+01 -2.399561740458011627e-02 7.460791587829589844e+00 2.231038808822631836e+00 8.066745400428771973e-01
2.611000000000000000e+03 7.736703491210937500e+01 2.397328567504882812e+01 -8.840167522430419922e-02 7.342092514038085938e+00 2.176107168197631836e+00 5.998826026916503906e-01
2.612000000000000000e+03 1.606420707702636719e+01 -6.367693901062011719e+00 -2.409287691116333008e-01 7.921049743890762329e-02 -4.851548373699188232e-02 -1.453596055507659912e-01
2.613000000000000000e+03 3.637973308563232422e+00 -2.995774650573730469e+01 -1.225832267664372921e-03 -5.407709479331970215e-01 -1.625990271568298340e-01 4.786475747823715210e-02
2.614000000000000000e+03 7.660211944580078125e+01 -2.483973693847656250e+01 -9.185180068016052246e-02 8.133696556091308594e+00 2.412553310394287109e+00 -1.158711194992065430e+00
2.615000000000000000e+03 7.670724487304687500e+01 2.148591613769531250e+01 7.435509562492370605e-02 7.176651477813720703e+00 2.175301790237426758e+00 7.269157767295837402e-01
2.616000000000000000e+03 7.145072174072265625e+01 1.793579864501953125e+01 1.489321231842041016e+00 9.594591140747070312e+00 3.325173616409301758e+00 6.392727792263031006e-02
2.617000000000000000e+03 7.663936614990234375e+01 1.509960937500000000e+01 3.543391227722167969e-01 6.878269672393798828e+00 2.169782638549804688e+00 -2.340911477804183960e-01
2.618000000000000000e+03 7.670366668701171875e+01 1.356350898742675781e+01 2.829109430313110352e-01 6.952633380889892578e+00 2.170663356781005859e+00 -4.887716770172119141e-01
2.619000000000000000e+03 7.753400421142578125e+01 -1.448144149780273438e+01 1.897661238908767700e-01 6.710744380950927734e+00 2.070153236389160156e+00 4.440935254096984863e-01
2.620000000000000000e+03 7.685171508789062500e+01 -1.601081657409667969e+01 3.987114429473876953e-01 6.955177783966064453e+00 2.206166744232177734e+00 2.199343889951705933e-01
2.621000000000000000e+03 7.680049896240234375e+01 -1.764640808105468750e+01 4.527487456798553467e-01 6.987274646759033203e+00 2.232007026672363281e+00 -1.714933812618255615e-01
2.622000000000000000e+03 7.755923461914062500e+01 6.347645282745361328e+00 -9.040606021881103516e-02 7.736112117767333984e+00 2.293711900711059570e+00 -5.504758358001708984e-01
2.623000000000000000e+03 7.684465789794921875e+01 3.305567502975463867e+00 -1.812655478715896606e-01 7.955240249633789062e+00 2.332192420959472656e+00 -3.681830167770385742e-01
2.624000000000000000e+03 7.671692657470703125e+01 1.279060173034667969e+01 2.408365458250045776e-01 7.021390914916992188e+00 2.178668260574340820e+00 -5.876347422599792480e-01
2.625000000000000000e+03 7.671189880371093750e+01 1.039632034301757812e+01 6.855898350477218628e-02 7.274507999420166016e+00 2.202919960021972656e+00 -7.735323905944824219e-01
2.626000000000000000e+03 7.746830749511718750e+01 1.112597084045410156e+01 8.082134276628494263e-02 6.981315612792968750e+00 2.118641138076782227e+00 -6.403533220291137695e-01
2.627000000000000000e+03 7.752880096435546875e+01 -7.972503900527954102e-01 -1.159612834453582764e-01 8.224908828735351562e+00 2.432684421539306641e+00 2.091885544359683990e-02
2.628000000000000000e+03 7.683902740478515625e+01 -3.085204124450683594e+00 -1.742375493049621582e-01 8.016295433044433594e+00 2.352617502212524414e+00 2.346072494983673096e-01
2.629000000000000000e+03 7.677864074707031250e+01 -1.033688068389892578e+01 -3.385269269347190857e-02 7.482563018798828125e+00 2.234613180160522461e+00 7.891329526901245117e-01
2.630000000000000000e+03 7.681298828125000000e+01 -1.280616950988769531e+01 1.572653800249099731e-01 7.196105957031250000e+00 2.206011295318603516e+00 7.110929489135742188e-01
2.631000000000000000e+03 7.749516296386718750e+01 -1.125729942321777344e+01 1.684754900634288788e-02 7.180983543395996094e+00 2.159349441528320312e+00 6.915169358253479004e-01
2.632000000000000000e+03 7.752343750000000000e+01 -5.599985122680664062e+00 -1.144708395004272461e-01 7.974123477935791016e+00 2.357895851135253906e+00 4.114383161067962646e-01
2.633000000000000000e+03 7.686161804199218750e+01 -1.520654296875000000e+01 3.417640626430511475e-01 6.978497505187988281e+00 2.196078538894653320e+00 3.770104348659515381e-01
2.634000000000000000e+03 7.740623474121093750e+01 2.953393936157226562e+01 -1.093367859721183777e-01 7.720318794250488281e+00 2.283294677734375000e+00 1.440154016017913818e-01
2.635000000000000000e+03 7.656301879882812500e+01 2.814164352416992188e+01 -2.052723169326782227e-01 7.589389801025390625e+00 2.215235233306884766e+00 2.705261111259460449e-01
2.636000000000000000e+03 7.670342254638671875e+01 3.029335021972656250e+01 -1.368549168109893799e-01 7.589089870452880859e+00 2.235670566558837891e+00 8.895367383956909180e-02
2.637000000000000000e+03 7.753041839599609375e+01 8.075986504554748535e-01 -1.180128231644630432e-01 8.207471847534179688e+00 2.426837682723999023e+00 -1.119135320186614990e-01
2.638000000000000000e+03 7.750229644775390625e+01 -1.206764316558837891e+01 6.219029426574707031e-02 7.047877311706542969e+00 2.133020401000976562e+00 6.659494638442993164e-01
2.639000000000000000e+03 7.607416534423828125e+01 -1.193746280670166016e+01 1.152369603514671326e-01 7.522511482238769531e+00 2.291324377059936523e+00 8.336670398712158203e-01
2.640000000000000000e+03 7.677204132080078125e+01 -1.116494846343994141e+01 2.342218533158302307e-02 7.390913486480712891e+00 2.224300622940063477e+00 7.903630137443542480e-01
2.641000000000000000e+03 7.751731872558593750e+01 -7.207805633544921875e+00 -1.029927134513854980e-01 7.792730808258056641e+00 2.306921482086181641e+00 5.347294211387634277e-01
2.642000000000000000e+03 7.683589935302734375e+01 -4.676258087158203125e+00 -1.765831857919692993e-01 7.951356887817382812e+00 2.332432270050048828e+00 3.811167776584625244e-01
2.643000000000000000e+03 7.683905792236328125e+01 -3.880432128906250000e+00 -1.761953234672546387e-01 7.987507343292236328e+00 2.343393564224243164e+00 3.100156486034393311e-01
2.644000000000000000e+03 7.747431945800781250e+01 9.527666091918945312e+00 6.223306991159915924e-03 7.237669467926025391e+00 2.173167705535888672e+00 -6.803182959556579590e-01
2.645000000000000000e+03 7.681951904296875000e+01 7.983403205871582031e+00 -8.490691334009170532e-02 7.551077842712402344e+00 2.239851236343383789e+00 -7.455891966819763184e-01
2.646000000000000000e+03 7.668875122070312500e+01 1.433539199829101562e+01 3.473271727561950684e-01 6.918331623077392578e+00 2.179697751998901367e+00 -3.638459146022796631e-01
2.647000000000000000e+03 7.675789642333984375e+01 8.784932136535644531e+00 -4.058223590254783630e-02 7.459490299224853516e+00 2.225672483444213867e+00 -7.763593792915344238e-01
2.648000000000000000e+03 7.683466339111328125e+01 1.717653393745422363e+00 -1.820308864116668701e-01 8.020236968994140625e+00 2.351461887359619141e+00 -2.154786884784698486e-01
2.649000000000000000e+03 7.753792572021484375e+01 3.197468280792236328e+00 -1.176737174391746521e-01 8.081849098205566406e+00 2.389252662658691406e+00 -3.090679049491882324e-01
2.650000000000000000e+03 7.618591308593750000e+01 4.970534324645996094e+00 -2.281510531902313232e-01 7.786725044250488281e+00 2.267572164535522461e+00 -5.621978640556335449e-01
2.651000000000000000e+03 7.683344268798828125e+01 -1.923610687255859375e+01 4.454242587089538574e-01 7.101606369018554688e+00 2.264109134674072266e+00 -5.437198877334594727e-01
2.652000000000000000e+03 7.750972747802734375e+01 -1.771516609191894531e+01 2.926095724105834961e-01 6.622245311737060547e+00 2.074456453323364258e+00 -1.468595415353775024e-01
2.653000000000000000e+03 7.675193023681640625e+01 -2.235632896423339844e+01 1.745701730251312256e-01 7.617102622985839844e+00 2.337501764297485352e+00 -1.069309830665588379e+00
2.654000000000000000e+03 7.752510070800781250e+01 -2.009959220886230469e+01 2.569278180599212646e-01 6.881213188171386719e+00 2.141442298889160156e+00 -6.186129450798034668e-01
2.655000000000000000e+03 7.683746337890625000e+01 -2.002633476257324219e+01 3.686505258083343506e-01 7.194937229156494141e+00 2.269076347351074219e+00 -7.103235721588134766e-01
2.656000000000000000e+03 7.738780212402343750e+01 1.678248023986816406e+01 2.599042654037475586e-01 6.543654918670654297e+00 2.041067838668823242e+00 8.482140302658081055e-02
2.657000000000000000e+03 7.473091125488281250e+01 1.656368446350097656e+01 8.137915134429931641e-01 7.693805694580078125e+00 2.552279233932495117e+00 4.598580300807952881e-02
2.658000000000000000e+03 7.693563842773437500e+01 1.913823890686035156e+01 2.433491051197052002e-01 6.840140342712402344e+00 2.125046730041503906e+00 4.929766952991485596e-01
2.659000000000000000e+03 7.682092285156250000e+01 -6.281911849975585938e+00 -1.692749410867691040e-01 7.853355407714843750e+00 2.305224180221557617e+00 5.282077789306640625e-01
2.660000000000000000e+03 7.738114929199218750e+01 2.313989830017089844e+01 -4.698972776532173157e-02 7.220569133758544922e+00 2.152073860168457031e+00 6.401861310005187988e-01
2.661000000000000000e+03 7.661895751953125000e+01 2.321435737609863281e+01 -8.384168148040771484e-02 7.375101566314697266e+00 2.187377929687500000e+00 7.215276956558227539e-01
2.662000000000000000e+03 7.660211181640625000e+01 2.406691741943359375e+01 -1.440382599830627441e-01 7.440551280975341797e+00 2.188953876495361328e+00 6.742376685142517090e-01
2.663000000000000000e+03 7.683716583251953125e+01 -2.287145376205444336e+00 -1.745162457227706909e-01 8.036664962768554688e+00 2.358644485473632812e+00 1.645221412181854248e-01
2.664000000000000000e+03 7.615601348876953125e+01 -2.195057868957519531e+00 -2.397589087486267090e-01 7.895484924316406250e+00 2.296717882156372070e+00 1.623511016368865967e-01
2.665000000000000000e+03 7.688549804687500000e+01 6.416643142700195312e+00 -1.382557302713394165e-01 7.716539859771728516e+00 2.273485183715820312e+00 -6.395688056945800781e-01
2.666000000000000000e+03 7.732627105712890625e+01 -2.575931549072265625e+01 -1.034071594476699829e-01 8.225872993469238281e+00 2.436739921569824219e+00 -9.551298022270202637e-01
2.667000000000000000e+03 7.666464233398437500e+01 -2.895200920104980469e+01 -2.433897703886032104e-01 8.704039573669433594e+00 2.538194894790649414e+00 -7.181700468063354492e-01
2.668000000000000000e+03 7.650682067871093750e+01 -2.653890037536621094e+01 -2.074892669916152954e-01 8.398095130920410156e+00 2.457181692123413086e+00 -1.036172389984130859e+00
2.669000000000000000e+03 7.602217102050781250e+01 -2.306625747680664062e+01 1.472077518701553345e-01 7.965558052062988281e+00 2.433829784393310547e+00 -1.249375343322753906e+00
2.670000000000000000e+03 7.681221008300781250e+01 -8.695559501647949219e+00 -1.181200221180915833e-01 7.653284072875976562e+00 2.260549306869506836e+00 7.206242680549621582e-01
2.671000000000000000e+03 7.672335052490234375e+01 1.119966506958007812e+01 1.250153481960296631e-01 7.188689231872558594e+00 2.194111347198486328e+00 -7.361755967140197754e-01
2.672000000000000000e+03 7.593060302734375000e+01 1.283198070526123047e+01 3.373341560363769531e-01 7.286460399627685547e+00 2.287138223648071289e+00 -6.403371691703796387e-01
2.673000000000000000e+03 7.683777618408203125e+01 1.111263111233711243e-01 -1.786488294601440430e-01 8.053368568420410156e+00 2.362416028976440430e+00 -6.153341755270957947e-02
2.674000000000000000e+03 7.683615875244140625e+01 9.158297181129455566e-01 -1.798579990863800049e-01 8.040715217590332031e+00 2.358257055282592773e+00 -1.352841854095458984e-01
2.675000000000000000e+03 7.681636047363281250e+01 -7.086836338043212891e+00 -1.600260287523269653e-01 7.793423652648925781e+00 2.290019273757934570e+00 6.003251075744628906e-01
2.676000000000000000e+03 7.686838531494140625e+01 4.877561092376708984e+00 -1.682596802711486816e-01 7.853797912597656250e+00 2.305661439895629883e+00 -5.149416923522949219e-01
2.677000000000000000e+03 7.685620117187500000e+01 4.095037937164306641e+00 -1.749888658523559570e-01 7.907474517822265625e+00 2.319745779037475586e+00 -4.388185441493988037e-01
2.678000000000000000e+03 7.673493957519531250e+01 1.200207424163818359e+01 1.878773272037506104e-01 7.095413208007812500e+00 2.184987068176269531e+00 -6.716722249984741211e-01
2.679000000000000000e+03 7.680590057373046875e+01 -2.157044601440429688e+01 2.546892464160919189e-01 7.467239379882812500e+00 2.316578626632690430e+00 -9.872180223464965820e-01
2.680000000000000000e+03 7.621134948730468750e+01 -1.594054508209228516e+01 5.275380611419677734e-01 7.258931636810302734e+00 2.335941076278686523e+00 2.430233359336853027e-01
2.681000000000000000e+03 7.682832336425781250e+01 -1.683029174804687500e+01 4.471447169780731201e-01 6.958609580993652344e+00 2.221726417541503906e+00 3.218927234411239624e-02
2.682000000000000000e+03 7.576998901367187500e+01 3.086912727355957031e+01 -1.851151734590530396e-01 7.381880283355712891e+00 2.159029483795166016e+00 1.316251046955585480e-02
2.683000000000000000e+03 7.675067138671875000e+01 3.871093368530273438e+01 3.860086202621459961e-02 7.414544105529785156e+00 2.235943555831909180e+00 -8.513232320547103882e-02
2.684000000000000000e+03 7.485522460937500000e+01 3.643228530883789062e+01 -7.044305093586444855e-03 6.948447704315185547e+00 2.082421064376831055e+00 -1.017481461167335510e-01
2.685000000000000000e+03 7.690067291259765625e+01 1.982870864868164062e+01 2.079327851533889771e-01 6.925300598144531250e+00 2.139970064163208008e+00 5.864647030830383301e-01
2.686000000000000000e+03 7.641702270507812500e+01 -3.188870620727539062e+01 -2.363024204969406128e-01 8.820714950561523438e+00 2.575323820114135742e+00 -3.769461810588836670e-01
2.687000000000000000e+03 7.512612152099609375e+01 -3.376649475097656250e+01 -2.404844313859939575e-01 8.368850708007812500e+00 2.438509702682495117e+00 -2.022673040628433228e-01
2.688000000000000000e+03 7.600786590576171875e+01 -3.347964859008789062e+01 -2.140564024448394775e-01 8.704657554626464844e+00 2.547180175781250000e+00 -2.314201742410659790e-01
2.689000000000000000e+03 7.694739532470703125e+01 -3.445171737670898438e+01 -1.091844588518142700e-01 9.093645095825195312e+00 2.695338249206542969e+00 -1.537245512008666992e-01
2.690000000000000000e+03 7.676345062255859375e+01 2.061732673645019531e+01 1.433556079864501953e-01 7.048978328704833984e+00 2.157700061798095703e+00 6.790630221366882324e-01
2.691000000000000000e+03 7.656398773193359375e+01 3.102604675292968750e+01 -1.250881850719451904e-01 7.547533035278320312e+00 2.226733446121215820e+00 3.817884624004364014e-02
2.692000000000000000e+03 7.665544128417968750e+01 -2.969786834716796875e+01 -2.455846965312957764e-01 8.766283988952636719e+00 2.556209802627563477e+00 -6.345955729484558105e-01
2.693000000000000000e+03 2.512293577194213867e+00 2.156357383728027344e+01 -6.439662538468837738e-03 -3.247671946883201599e-02 -1.167491450905799866e-02 2.740632928907871246e-02
2.694000000000000000e+03 3.251422643661499023e+00 2.308553123474121094e+01 -9.762599132955074310e-03 -4.552282020449638367e-02 -1.658562570810317993e-02 4.266897961497306824e-02
2.695000000000000000e+03 3.170079469680786133e+00 -2.514507484436035156e+01 2.551834471523761749e-02 -5.996152758598327637e-01 -1.722290813922882080e-01 1.711037755012512207e-02
2.696000000000000000e+03 2.494658470153808594e+00 -2.516119575500488281e+01 1.634466089308261871e-02 -6.886107325553894043e-01 -2.016798257827758789e-01 1.727996766567230225e-02
2.697000000000000000e+03 7.667619323730468750e+01 -2.400435066223144531e+01 9.969663806259632111e-03 7.961730957031250000e+00 2.391510248184204102e+00 -1.163729429244995117e+00
2.698000000000000000e+03 3.289908170700073242e+00 2.470513916015625000e+01 -8.710082620382308960e-03 -6.366933137178421021e-02 -2.171382494270801544e-02 5.160716921091079712e-02
2.699000000000000000e+03 3.213468074798583984e+00 -2.202025985717773438e+01 4.168432205915451050e-02 -5.733663439750671387e-01 -1.595046073198318481e-01 -4.131800681352615356e-02
2.700000000000000000e+03 3.196244001388549805e+00 -2.282361602783203125e+01 3.797978535294532776e-02 -5.851012468338012695e-01 -1.641364395618438721e-01 -2.299723774194717407e-02
2.701000000000000000e+03 2.487939596176147461e+00 -7.581144332885742188e+00 -1.451481599360704422e-02 -1.643004566431045532e-01 -5.364457890391349792e-02 -1.170569956302642822e-01
2.702000000000000000e+03 4.143381595611572266e+00 -5.368882179260253906e+00 -4.963292554020881653e-02 -7.082826644182205200e-02 -3.613835945725440979e-02 -1.295977085828781128e-01
2.703000000000000000e+03 2.437201738357543945e+00 -9.166335105895996094e+00 -9.657823480665683746e-03 -2.258356213569641113e-01 -7.064802944660186768e-02 -1.288856118917465210e-01
2.704000000000000000e+03 3.186854839324951172e+00 -7.655036449432373047e+00 -2.178566530346870422e-02 -1.489686965942382812e-01 -5.122630670666694641e-02 -1.408937126398086548e-01
2.705000000000000000e+03 5.783544540405273438e+01 2.652267646789550781e+01 -1.152525097131729126e-01 1.360406160354614258e+00 3.735460937023162842e-01 1.188564300537109375e+00
2.706000000000000000e+03 2.459252834320068359e+00 1.429624652862548828e+01 -2.188942162320017815e-03 2.137776464223861694e-03 -1.534973671368788928e-05 2.158874180167913437e-03
2.707000000000000000e+03 3.158697843551635742e+00 1.578354454040527344e+01 -5.422267597168684006e-03 -2.374124247580766678e-03 -2.338917460292577744e-03 6.757117807865142822e-03
2.708000000000000000e+03 1.266352748870849609e+01 -2.686224937438964844e+01 1.173659935593605042e-01 4.036281406879425049e-01 1.562982350587844849e-01 -1.966201514005661011e-01
2.709000000000000000e+03 3.192032575607299805e+00 1.821067428588867188e+01 -7.771223317831754684e-03 -1.015213131904602051e-02 -5.377006251364946365e-03 1.630154065787792206e-02
2.710000000000000000e+03 2.454688549041748047e+00 7.905152320861816406e+00 1.328180951531976461e-04 2.904988825321197510e-03 9.113420383073389530e-04 -2.315153833478689194e-03
2.711000000000000000e+03 3.153521060943603516e+00 1.336831092834472656e+01 -2.651332644745707512e-03 1.014704001136124134e-03 -4.909886047244071960e-04 1.245894702151417732e-03
2.712000000000000000e+03 3.090728044509887695e+00 -1.305473995208740234e+01 1.659311354160308838e-03 -3.366600871086120605e-01 -1.005002334713935852e-01 -1.666724085807800293e-01
2.713000000000000000e+03 2.514983415603637695e+00 -1.795309066772460938e+01 2.279797196388244629e-02 -5.732743740081787109e-01 -1.651429235935211182e-01 -1.061509102582931519e-01
2.714000000000000000e+03 3.284840345382690430e+00 -1.627652168273925781e+01 2.252605743706226349e-02 -4.290149211883544922e-01 -1.219466626644134521e-01 -1.537817716598510742e-01
2.715000000000000000e+03 5.029157161712646484e+00 -4.775481224060058594e+00 -7.314238697290420532e-02 -4.438669979572296143e-02 -3.525872528553009033e-02 -1.321391463279724121e-01
2.716000000000000000e+03 2.440169095993041992e+00 -1.387248802185058594e+01 3.616249654442071915e-03 -4.231501817703247070e-01 -1.258601844310760498e-01 -1.398313045501708984e-01
2.717000000000000000e+03 3.076039075851440430e+00 -1.228281688690185547e+01 -1.239076023921370506e-03 -3.103629648685455322e-01 -9.348060935735702515e-02 -1.662915050983428955e-01
2.718000000000000000e+03 3.747899293899536133e+00 -1.301930046081542969e+01 2.488240832462906837e-03 -2.838791906833648682e-01 -8.441728353500366211e-02 -1.876395791769027710e-01
2.719000000000000000e+03 2.408091306686401367e+00 -1.151113986968994141e+01 -2.888038987293839455e-03 -3.248739242553710938e-01 -9.832859039306640625e-02 -1.387672275304794312e-01
2.720000000000000000e+03 3.169760704040527344e+00 -1.462483310699462891e+01 1.012201141566038132e-02 -3.837175667285919189e-01 -1.120786666870117188e-01 -1.648141741752624512e-01
2.721000000000000000e+03 3.230499029159545898e+00 -1.543846130371093750e+01 1.821101270616054535e-02 -4.051316678524017334e-01 -1.160762012004852295e-01 -1.617368012666702271e-01
2.722000000000000000e+03 3.074473142623901367e+00 -1.151699352264404297e+01 -4.859312903136014938e-03 -2.829980850219726562e-01 -8.635722100734710693e-02 -1.649293750524520874e-01
2.723000000000000000e+03 3.792047500610351562e+00 -1.004624938964843750e+01 -1.502567715942859650e-02 -1.973041594028472900e-01 -6.369895488023757935e-02 -1.807803958654403687e-01
2.724000000000000000e+03 2.459680795669555664e+00 1.108229351043701172e+01 -6.045928457751870155e-04 3.783740103244781494e-03 9.537441655993461609e-04 -1.494597992859780788e-03
2.725000000000000000e+03 3.156281709671020508e+00 1.256640243530273438e+01 -2.298290142789483070e-03 1.562193734571337700e-03 -2.208289224654436111e-04 -6.441055302275344729e-05
2.726000000000000000e+03 3.159833431243896484e+00 1.176539707183837891e+01 -1.457301666960120201e-03 1.863540266640484333e-03 1.218715697177685797e-04 -8.566987817175686359e-04
2.727000000000000000e+03 2.498919486999511719e+00 -1.877836990356445312e+01 2.509485371410846710e-02 -6.001461744308471680e-01 -1.725154072046279907e-01 -9.197429567575454712e-02
2.728000000000000000e+03 3.956589937210083008e+00 -1.804282569885253906e+01 4.819684848189353943e-02 -3.971499800682067871e-01 -1.046859398484230042e-01 -1.456947326660156250e-01
2.729000000000000000e+03 2.491428375244140625e+00 -1.958849334716796875e+01 2.635313384234905243e-02 -6.248500347137451172e-01 -1.795490682125091553e-01 -7.754285633563995361e-02
2.730000000000000000e+03 8.547507286071777344e+00 -1.873918151855468750e+01 1.408040821552276611e-01 2.036772370338439941e-01 1.033443957567214966e-01 -1.901819407939910889e-01
2.731000000000000000e+03 3.216755390167236328e+00 -1.881720542907714844e+01 3.828246891498565674e-02 -5.090982317924499512e-01 -1.412447392940521240e-01 -1.114362850785255432e-01
2.732000000000000000e+03 2.483272075653076172e+00 1.833057975769042969e+01 -5.168171133846044540e-03 -9.597871452569961548e-03 -4.429812543094158173e-03 1.334969140589237213e-02
2.733000000000000000e+03 3.229249715805053711e+00 2.064929962158203125e+01 -9.888535365462303162e-03 -2.410143613815307617e-02 -1.019699126482009888e-02 2.867837995290756226e-02
2.734000000000000000e+03 3.178313970565795898e+00 1.740072059631347656e+01 -7.200042717158794403e-03 -6.962572224438190460e-03 -4.248784389346837997e-03 1.258117612451314926e-02
2.735000000000000000e+03 3.583305597305297852e+00 -2.908186721801757812e+01 3.517071716487407684e-03 -5.484451651573181152e-01 -1.634784340858459473e-01 4.573180153965950012e-02
2.736000000000000000e+03 2.466959714889526367e+00 6.357814788818359375e+00 3.112531267106533051e-04 2.189242513850331306e-03 7.501487270928919315e-04 -2.201347379013895988e-03
2.737000000000000000e+03 3.560438394546508789e+00 2.883713531494140625e+01 -3.129432909190654755e-03 -1.169104203581809998e-01 -3.601195663213729858e-02 6.845983117818832397e-02
2.738000000000000000e+03 3.482909202575683594e+00 2.796099090576171875e+01 -4.357493016868829727e-03 -1.054224222898483276e-01 -3.293397277593612671e-02 6.610547006130218506e-02
2.739000000000000000e+03 2.482444286346435547e+00 -2.437536048889160156e+01 1.926089078187942505e-02 -6.898109316825866699e-01 -2.011650204658508301e-01 7.669254206120967865e-03
2.740000000000000000e+03 4.564919948577880859e+00 -2.373966026306152344e+01 6.257075071334838867e-02 -4.164018034934997559e-01 -1.061493158340454102e-01 -1.639769040048122406e-02
2.741000000000000000e+03 3.214473247528076172e+00 -2.590305519104003906e+01 2.123416028916835785e-02 -5.933670401573181152e-01 -1.716398745775222778e-01 2.670642174780368805e-02
2.742000000000000000e+03 3.222795963287353516e+00 -2.121664428710937500e+01 4.203752428293228149e-02 -5.605778694152832031e-01 -1.555621176958084106e-01 -5.920754373073577881e-02
2.743000000000000000e+03 3.222690343856811523e+00 -2.041940498352050781e+01 4.227197170257568359e-02 -5.465238690376281738e-01 -1.512755751609802246e-01 -7.753142714500427246e-02
2.744000000000000000e+03 3.216929674148559570e+00 -1.962433815002441406e+01 4.059385508298873901e-02 -5.290560126304626465e-01 -1.465386450290679932e-01 -9.486104547977447510e-02
2.745000000000000000e+03 3.165475845336914062e+00 1.016578102111816406e+01 -6.058639846742153168e-04 2.070962684229016304e-03 4.395296273287385702e-04 -2.008429728448390961e-03
2.746000000000000000e+03 3.237986803054809570e+00 2.146292304992675781e+01 -9.939363226294517517e-03 -3.040507994592189789e-02 -1.210333313792943954e-02 3.342910483479499817e-02
2.747000000000000000e+03 3.885175943374633789e+00 9.268732070922851562e+00 -4.573387559503316879e-04 7.357615977525711060e-04 8.352685836143791676e-05 -2.353765303269028664e-03
2.748000000000000000e+03 3.170241355895996094e+00 8.582553863525390625e+00 -4.505197648541070521e-05 1.919373753480613232e-03 5.622965400107204914e-04 -2.479294780641794205e-03
2.749000000000000000e+03 3.167175531387329102e+00 9.370257377624511719e+00 -5.098943365737795830e-04 1.982777379453182220e-03 4.418649186845868826e-04 -2.396786352619528770e-03
2.750000000000000000e+03 3.166915655136108398e+00 1.659188842773437500e+01 -6.016381550580263138e-03 -4.402103368192911148e-03 -3.125545568764209747e-03 9.655821137130260468e-03
2.751000000000000000e+03 2.782000064849853516e+00 -3.158058547973632812e+01 -5.928631871938705444e-03 -6.202189326286315918e-01 -1.878442764282226562e-01 4.101515561342239380e-02
2.752000000000000000e+03 3.599160194396972656e+00 -3.156065368652343750e+01 -9.465215727686882019e-03 -5.400146245956420898e-01 -1.648439466953277588e-01 4.204242303967475891e-02
2.753000000000000000e+03 3.115371227264404297e+00 3.349340438842773438e+01 4.118292592465877533e-03 -1.953068226575851440e-01 -5.735655874013900757e-02 5.762292072176933289e-02
2.754000000000000000e+03 3.770917892456054688e+00 3.414720153808593750e+01 1.125983241945505142e-02 -1.814734041690826416e-01 -5.106407031416893005e-02 6.411956995725631714e-02
2.755000000000000000e+03 3.203245162963867188e+00 6.273711204528808594e+00 2.818525244947522879e-04 1.296910690143704414e-03 4.736289556603878736e-04 -2.537696389481425285e-03
2.756000000000000000e+03 3.176273107528686523e+00 7.803699970245361328e+00 -3.375309097464196384e-05 1.693736878223717213e-03 4.979951190762221813e-04 -2.628439571708440781e-03
2.757000000000000000e+03 7.659166717529296875e+01 2.732929229736328125e+01 -2.093337476253509521e-01 7.585208415985107422e+00 2.212762355804443359e+00 3.474580347537994385e-01
2.758000000000000000e+03 3.970376253128051758e+00 2.301363563537597656e+01 -1.437842007726430893e-02 -4.069966822862625122e-02 -1.652342639863491058e-02 4.915039986371994019e-02
2.759000000000000000e+03 3.298597335815429688e+00 -2.666415023803710938e+01 1.553151663392782211e-02 -5.839091539382934570e-01 -1.705133020877838135e-01 3.445390611886978149e-02
2.760000000000000000e+03 3.267093658447265625e+00 2.389686775207519531e+01 -9.643067605793476105e-03 -5.409041792154312134e-02 -1.912004500627517700e-02 4.699539765715599060e-02
2.761000000000000000e+03 1.464691257476806641e+01 -5.407578945159912109e+00 -2.927046418190002441e-01 6.023883819580078125e-02 -6.973973661661148071e-02 -1.486266255378723145e-01
2.762000000000000000e+03 3.742321014404296875e+01 -6.615221977233886719e+00 -6.905679106712341309e-01 2.657555341720581055e+00 5.900961756706237793e-01 1.394237160682678223e+00
2.763000000000000000e+03 7.486716461181640625e+01 -3.561137771606445312e+01 -1.451089680194854736e-01 8.186306953430175781e+00 2.412359237670898438e+00 -5.876068025827407837e-02
2.764000000000000000e+03 7.630632781982421875e+01 -3.618449783325195312e+01 -7.728298753499984741e-02 8.764089584350585938e+00 2.606041908264160156e+00 -8.897673338651657104e-02
2.765000000000000000e+03 3.502842664718627930e+00 -2.824705123901367188e+01 7.093565538525581360e-03 -5.575364232063293457e-01 -1.651328504085540771e-01 4.229826480150222778e-02
2.766000000000000000e+03 3.403761863708496094e+00 -2.744160652160644531e+01 1.019048970192670822e-02 -5.691349506378173828e-01 -1.676833480596542358e-01 3.941729664802551270e-02
2.767000000000000000e+03 7.650539398193359375e+01 -3.120819473266601562e+01 -2.367489635944366455e-01 8.823189735412597656e+00 2.575932264328002930e+00 -4.605811834335327148e-01
2.768000000000000000e+03 3.675606489181518555e+00 -3.237344360351562500e+01 -1.273506972938776016e-02 -5.342028737068176270e-01 -1.640813797712326050e-01 4.009360820055007935e-02
2.769000000000000000e+03 3.775909805297851562e+01 -2.353998184204101562e+01 1.366928577423095703e+00 6.323747158050537109e+00 2.307202816009521484e+00 1.713429808616638184e+00
2.770000000000000000e+03 3.856994247436523438e+01 -2.276696777343750000e+01 1.259021639823913574e+00 6.319614410400390625e+00 2.273590803146362305e+00 1.577759504318237305e+00
2.771000000000000000e+03 4.679673004150390625e+01 1.042646598815917969e+01 9.419572949409484863e-01 1.143536853790283203e+01 3.713197708129882812e+00 1.734310150146484375e+00
2.772000000000000000e+03 2.901970148086547852e+00 3.583118438720703125e+01 6.643122993409633636e-03 -2.388071268796920776e-01 -6.964919716119766235e-02 4.181987419724464417e-02
2.773000000000000000e+03 4.321134948730468750e+01 -1.793377494812011719e+01 1.172597289085388184e+00 9.350907325744628906e+00 3.157051324844360352e+00 8.228856325149536133e-01
2.774000000000000000e+03 3.917613983154296875e+01 -1.823921966552734375e+01 8.011772632598876953e-01 6.068743228912353516e+00 2.060976028442382812e+00 6.614290475845336914e-01
2.775000000000000000e+03 7.553617095947265625e+01 -1.983374023437500000e+01 6.861785054206848145e-01 7.742188930511474609e+00 2.528510093688964844e+00 -8.189171552658081055e-01
2.776000000000000000e+03 4.437714767456054688e+01 5.474429607391357422e+00 1.318919181823730469e+00 1.536790275573730469e+01 5.006046295166015625e+00 -2.975764870643615723e-02
2.777000000000000000e+03 4.421521759033203125e+01 4.321246623992919922e+00 1.421189427375793457e+00 1.557258319854736328e+01 5.098131656646728516e+00 4.272987246513366699e-01
2.778000000000000000e+03 4.846332168579101562e+01 1.567491149902343750e+01 1.028299808502197266e+00 9.178288459777832031e+00 3.061976432800292969e+00 2.266009330749511719e+00
2.779000000000000000e+03 3.808941650390625000e+01 1.823955154418945312e+01 5.981933474540710449e-01 3.169018268585205078e+00 1.130163431167602539e+00 -1.505612254142761230e+00
2.780000000000000000e+03 3.813785552978515625e+01 1.720031166076660156e+01 8.116824030876159668e-01 3.130853176116943359e+00 1.182760715484619141e+00 -1.627220273017883301e+00
2.781000000000000000e+03 7.604690551757812500e+01 3.512779998779296875e+01 -3.794814273715019226e-02 7.303882598876953125e+00 2.179780244827270508e+00 -9.350503981113433838e-02
2.782000000000000000e+03 7.614845275878906250e+01 3.409408569335937500e+01 -5.670453608036041260e-02 7.349987030029296875e+00 2.187984704971313477e+00 -8.102753013372421265e-02
2.783000000000000000e+03 2.957093954086303711e+00 -3.494362258911132812e+01 -1.009686570614576340e-02 -5.839441418647766113e-01 -1.782122999429702759e-01 2.555929496884346008e-02
2.784000000000000000e+03 3.605687379837036133e+00 -3.316774749755859375e+01 -1.369949430227279663e-02 -5.415845513343811035e-01 -1.665852069854736328e-01 3.524799644947052002e-02
2.785000000000000000e+03 4.388738632202148438e+01 1.217412662506103516e+01 7.491902112960815430e-01 1.031630897521972656e+01 3.319649696350097656e+00 -1.177342236042022705e-01
2.786000000000000000e+03 1.616533851623535156e+01 1.123122119903564453e+01 -1.964846393093466759e-03 9.903457248583436012e-04 -2.923502179328352213e-04 2.358304336667060852e-03
2.787000000000000000e+03 1.629464149475097656e+01 1.037647247314453125e+01 7.385978242382407188e-04 1.781419385224580765e-03 7.560051744803786278e-04 3.488658461719751358e-03
2.788000000000000000e+03 4.432490539550781250e+01 -1.373421764373779297e+01 5.584906339645385742e-01 9.600766181945800781e+00 3.047777175903320312e+00 7.345425486564636230e-01
2.789000000000000000e+03 4.424019622802734375e+01 1.003558826446533203e+01 1.291528582572937012e+00 1.230586719512939453e+01 4.079218387603759766e+00 1.340541839599609375e-01
2.790000000000000000e+03 1.161217212677001953e+01 -2.486373710632324219e+01 1.826845705509185791e-01 4.656567871570587158e-01 1.945024132728576660e-01 -1.805428564548492432e-01
2.791000000000000000e+03 1.170062828063964844e+01 -2.581247329711914062e+01 1.370473653078079224e-01 4.045513868331909180e-01 1.624796241521835327e-01 -1.619283407926559448e-01
2.792000000000000000e+03 4.457225799560546875e+01 2.496406793594360352e+00 2.226706027984619141e+00 1.413991260528564453e+01 4.909985542297363281e+00 8.917190432548522949e-01
2.793000000000000000e+03 5.503664493560791016e+00 -4.294162750244140625e+00 -8.801466226577758789e-02 -3.038714453577995300e-02 -3.552054241299629211e-02 -1.268903762102127075e-01
2.794000000000000000e+03 6.355586528778076172e+00 -4.879249572753906250e+00 -1.023217663168907166e-01 -2.408607862889766693e-02 -3.792235255241394043e-02 -1.520462334156036377e-01
2.795000000000000000e+03 5.180133819580078125e+01 -6.889768123626708984e+00 -1.882233858108520508e+00 -1.023947671055793762e-01 -5.953885912895202637e-01 -2.567501962184906006e-01
2.796000000000000000e+03 3.409218788146972656e+00 -5.232874393463134766e+00 -3.779451176524162292e-02 -7.821280509233474731e-02 -3.480219468474388123e-02 -1.108578145503997803e-01
2.797000000000000000e+03 3.237224817276000977e+00 -6.860189437866210938e+00 -2.638263814151287079e-02 -1.241710633039474487e-01 -4.516611248254776001e-02 -1.321891397237777710e-01
2.798000000000000000e+03 4.728710174560546875e+01 -2.939707756042480469e+01 -4.958399832248687744e-01 4.730553150177001953e+00 1.270413875579833984e+00 -1.216306328773498535e+00
2.799000000000000000e+03 5.662051200866699219e+00 -4.976603031158447266e+00 -8.729871362447738647e-02 -3.637318685650825500e-02 -3.710157051682472229e-02 -1.482529640197753906e-01
2.800000000000000000e+03 7.055170536041259766e+00 -4.716329574584960938e+00 -1.230043023824691772e-01 -9.474001824855804443e-03 -3.974349051713943481e-02 -1.536800861358642578e-01
2.801000000000000000e+03 7.740613937377929688e+00 -4.624609947204589844e+00 -1.420191526412963867e-01 2.088260138407349586e-03 -4.197926819324493408e-02 -1.549215614795684814e-01
2.802000000000000000e+03 4.925412368774414062e+01 1.862839317321777344e+01 1.197273373603820801e+00 7.556304454803466797e+00 2.626073360443115234e+00 1.916019678115844727e+00
2.803000000000000000e+03 4.838094329833984375e+01 1.784836959838867188e+01 1.022847175598144531e+00 7.894749641418457031e+00 2.675279140472412109e+00 1.726526379585266113e+00
2.804000000000000000e+03 1.403427886962890625e+01 -2.890915870666503906e+01 6.564030051231384277e-02 3.489587008953094482e-01 1.243797019124031067e-01 -1.916273832321166992e-01
2.805000000000000000e+03 3.232959747314453125e+01 2.220939636230468750e+01 1.061874032020568848e-01 9.653321504592895508e-01 3.214558660984039307e-01 -7.235149741172790527e-01
2.806000000000000000e+03 1.937642097473144531e+01 2.306695938110351562e+01 -3.576136827468872070e-01 1.559808291494846344e-02 -1.026046797633171082e-01 9.059038758277893066e-02
2.807000000000000000e+03 6.885144042968750000e+01 -2.575916862487792969e+01 -1.100979208946228027e+00 7.595641613006591797e+00 1.948398709297180176e+00 3.445954620838165283e-01
2.808000000000000000e+03 1.895092582702636719e+01 -5.345710754394531250e+00 -4.036994576454162598e-01 4.829976707696914673e-02 -1.066199019551277161e-01 -4.795500636100769043e-02
2.809000000000000000e+03 5.436047744750976562e+01 -4.631488323211669922e+00 6.905627846717834473e-01 -2.152843326330184937e-01 1.425835490226745605e-01 -1.359799265861511230e+00
2.810000000000000000e+03 4.725151062011718750e+01 1.451613044738769531e+01 8.804540038108825684e-01 9.511561393737792969e+00 3.117604732513427734e+00 1.766246676445007324e+00
2.811000000000000000e+03 1.384721755981445312e+01 -1.096722984313964844e+01 1.884265244007110596e-01 7.646378129720687866e-02 7.946708798408508301e-02 -1.123162955045700073e-01
2.812000000000000000e+03 4.707786560058593750e+01 -1.022497463226318359e+01 -1.541426062583923340e+00 8.182099342346191406e+00 1.992202043533325195e+00 9.577085971832275391e-01
2.813000000000000000e+03 4.509897613525390625e+01 -1.106606388092041016e+01 -1.130053758621215820e+00 9.259176254272460938e+00 2.438736915588378906e+00 4.244669973850250244e-01
2.814000000000000000e+03 3.619925308227539062e+01 1.983768653869628906e+01 4.317716658115386963e-01 2.164567232131958008e+00 7.789016366004943848e-01 -1.211546897888183594e+00
2.815000000000000000e+03 1.665847015380859375e+01 1.559613990783691406e+01 -1.695534214377403259e-02 -6.245148833841085434e-03 -6.960147526115179062e-03 -1.445137802511453629e-02
2.816000000000000000e+03 1.594157314300537109e+01 1.474407196044921875e+01 -1.428479701280593872e-02 -5.385919939726591110e-03 -5.901215132325887680e-03 -9.462909772992134094e-03
2.817000000000000000e+03 4.851288986206054688e+01 -6.311398983001708984e+00 -1.888814091682434082e+00 5.533192634582519531e+00 1.093313574790954590e+00 7.852159738540649414e-01
2.818000000000000000e+03 3.934181594848632812e+01 1.501582050323486328e+01 1.206813693046569824e+00 4.212768077850341797e+00 1.625874519348144531e+00 -2.099634408950805664e+00
2.819000000000000000e+03 5.586088180541992188e+01 -1.434616684913635254e+00 1.921486973762512207e+00 -3.838750422000885010e-01 4.612835943698883057e-01 -7.814553976058959961e-01
2.820000000000000000e+03 4.676365280151367188e+01 7.883594632148742676e-01 2.274372339248657227e+00 1.012661552429199219e+01 3.720296382904052734e+00 -5.088728666305541992e-01
2.821000000000000000e+03 4.755214691162109375e+01 1.520441818237304688e+01 8.935227990150451660e-01 9.208409309387207031e+00 3.030579566955566406e+00 1.806825399398803711e+00
2.822000000000000000e+03 6.833961486816406250e+01 -2.628048133850097656e+01 -1.124350547790527344e+00 6.953666210174560547e+00 1.748794674873352051e+00 5.979472398757934570e-01
2.823000000000000000e+03 5.618605804443359375e+01 2.440298652648925781e+01 -4.716387987136840820e-01 1.476727604866027832e+00 3.015266358852386475e-01 1.566024184226989746e+00
2.824000000000000000e+03 7.045559692382812500e+01 -2.000335884094238281e+01 1.828611254692077637e+00 1.116098403930664062e+01 3.896878480911254883e+00 -3.798588812351226807e-01
2.825000000000000000e+03 1.635908317565917969e+01 4.612867355346679688e+00 9.038922144100070000e-04 7.256060489453375340e-04 4.888494731858372688e-04 1.974935643374919891e-03
2.826000000000000000e+03 6.417888641357421875e+01 4.225255012512207031e+00 -2.171303480863571167e-01 2.385971784591674805e+00 6.506524085998535156e-01 6.165999770164489746e-01
2.827000000000000000e+03 4.391069793701171875e+01 -1.879742050170898438e+01 1.150843262672424316e+00 1.018093204498291016e+01 3.399532556533813477e+00 7.114212512969970703e-01
2.828000000000000000e+03 1.028424072265625000e+01 -5.333162307739257812e+00 -1.882648468017578125e-01 3.736729547381401062e-02 -4.526926577091217041e-02 -1.779436171054840088e-01
2.829000000000000000e+03 4.612143707275390625e+01 -2.800020980834960938e+01 -1.912984102964401245e-01 5.871433258056640625e+00 1.704040408134460449e+00 -9.109044671058654785e-01
2.830000000000000000e+03 6.785037994384765625e+01 -2.571281623840332031e+01 -9.819057583808898926e-01 6.621123313903808594e+00 1.691765189170837402e+00 8.469457030296325684e-01
2.831000000000000000e+03 2.852445030212402344e+01 -3.370378875732421875e+01 2.922549545764923096e-01 8.863009810447692871e-01 3.535667955875396729e-01 6.755075454711914062e-01
2.832000000000000000e+03 3.745472717285156250e+01 1.878118133544921875e+01 5.548398494720458984e-01 2.762944221496582031e+00 9.953352212905883789e-01 -1.412438035011291504e+00
2.833000000000000000e+03 3.682808685302734375e+01 1.931668090820312500e+01 5.027881860733032227e-01 2.445457935333251953e+00 8.844738602638244629e-01 -1.313988208770751953e+00
2.834000000000000000e+03 5.596682357788085938e+01 2.535099411010742188e+01 -3.491771817207336426e-01 1.830701947212219238e+00 4.444574117660522461e-01 1.687750101089477539e+00
2.835000000000000000e+03 4.698212432861328125e+01 -8.435923576354980469e+00 -2.648000240325927734e+00 7.849243640899658203e+00 1.560373067855834961e+00 7.840753197669982910e-01
2.836000000000000000e+03 4.387311935424804688e+01 -1.967040061950683594e+01 1.296603918075561523e+00 9.919023513793945312e+00 3.364688158035278320e+00 5.560542345046997070e-01
2.837000000000000000e+03 6.242948913574218750e+01 -3.083155059814453125e+01 -1.127821087837219238e+00 1.317335605621337891e+00 5.685433745384216309e-02 5.189065933227539062e-01
2.838000000000000000e+03 4.393291091918945312e+01 -1.794161987304687500e+01 1.097017049789428711e+00 1.024735164642333984e+01 3.403310537338256836e+00 8.530345559120178223e-01
2.839000000000000000e+03 4.208994293212890625e+01 -1.855380439758300781e+01 1.235298156738281250e+00 8.256046295166015625e+00 2.847403526306152344e+00 8.542492985725402832e-01
2.840000000000000000e+03 7.083268737792968750e+01 -1.812415885925292969e+01 1.884219288825988770e+00 1.114678859710693359e+01 3.909302473068237305e+00 -5.190110802650451660e-01
2.841000000000000000e+03 6.298150634765625000e+01 3.177795648574829102e+00 -6.038254499435424805e-02 1.586889505386352539e+00 4.579520821571350098e-01 3.523453772068023682e-01
2.842000000000000000e+03 6.358016586303710938e+01 3.697535276412963867e+00 -1.452601999044418335e-01 1.957431077957153320e+00 5.436512827873229980e-01 4.846295714378356934e-01
2.843000000000000000e+03 2.864578437805175781e+01 -1.278493404388427734e+01 7.083898782730102539e-01 -9.656493365764617920e-02 1.835474967956542969e-01 -1.062044501304626465e-01
2.844000000000000000e+03 2.647743415832519531e+01 -1.259025955200195312e+01 5.805102586746215820e-01 -2.621465362608432770e-02 1.662886887788772583e-01 -1.960849016904830933e-01
2.845000000000000000e+03 2.297003364562988281e+01 -3.453835296630859375e+01 1.726156026124954224e-01 2.270971387624740601e-01 1.199138239026069641e-01 -8.709307014942169189e-02
2.846000000000000000e+03 4.697428894042968750e+01 1.379947185516357422e+01 8.785305023193359375e-01 9.798722267150878906e+00 3.203176021575927734e+00 1.731835603713989258e+00
2.847000000000000000e+03 7.031102752685546875e+01 1.192404365539550781e+01 7.646155953407287598e-01 9.377124786376953125e+00 3.042522192001342773e+00 -6.590060144662857056e-02
2.848000000000000000e+03 1.675797462463378906e+01 3.542476415634155273e+00 9.441453730687499046e-04 5.974439554847776890e-04 4.624768043868243694e-04 1.448207651264965534e-03
2.849000000000000000e+03 9.670547485351562500e+00 5.153318405151367188e+00 1.685400842688977718e-03 -2.049352042376995087e-03 -1.091853700927458704e-04 -6.175944145070388913e-05
2.850000000000000000e+03 1.119840908050537109e+01 -2.541365623474121094e+01 1.468001604080200195e-01 3.869227766990661621e-01 1.601168811321258545e-01 -1.403048038482666016e-01
2.851000000000000000e+03 6.516369628906250000e+01 -2.740469169616699219e+01 -9.192314147949218750e-01 3.042736768722534180e+00 6.370516419410705566e-01 7.234413623809814453e-01
2.852000000000000000e+03 2.283242225646972656e+01 -6.130598545074462891e+00 -4.979214668273925781e-01 1.202396303415298462e-01 -1.133045554161071777e-01 -3.481047751847654581e-04
2.853000000000000000e+03 3.534868240356445312e+01 -1.469964790344238281e+01 5.774803161621093750e-01 2.165642738342285156e+00 8.229368925094604492e-01 -3.231914639472961426e-01
2.854000000000000000e+03 1.214729213714599609e+01 4.169592857360839844e+00 2.065447159111499786e-03 -1.342483446933329105e-03 2.168891223846003413e-04 1.448653521947562695e-03
2.855000000000000000e+03 1.134517478942871094e+01 4.281090736389160156e+00 1.605631434358656406e-03 -1.617643400095403194e-03 -3.603597178880590945e-06 7.459147018380463123e-04
2.856000000000000000e+03 5.691476821899414062e+01 2.549809837341308594e+01 -3.431361913681030273e-01 1.365984797477722168e+00 3.068545758724212646e-01 1.467417836189270020e+00
2.857000000000000000e+03 6.080326461791992188e+01 2.503666877746582031e+01 -6.417257189750671387e-01 3.961297273635864258e-01 -7.367879897356033325e-02 1.371447145938873291e-01
2.858000000000000000e+03 6.730426025390625000e+01 -2.624974441528320312e+01 -9.699716567993164062e-01 5.793456077575683594e+00 1.447045326232910156e+00 9.906009435653686523e-01
2.859000000000000000e+03 1.736974143981933594e+01 -3.112184906005859375e+01 2.657842123880982399e-03 3.098969757556915283e-01 9.376644343137741089e-02 -2.338530570268630981e-01
2.860000000000000000e+03 5.784832000732421875e+01 2.555832481384277344e+01 -3.711703419685363770e-01 1.018725633621215820e+00 1.942665725946426392e-01 1.212644219398498535e+00
2.861000000000000000e+03 4.924333190917968750e+01 -7.504934310913085938e+00 -2.479184627532958984e+00 4.240601539611816406e+00 5.284251570701599121e-01 8.609277009963989258e-01
2.862000000000000000e+03 4.749500274658203125e+01 -7.502515316009521484e+00 -2.599917888641357422e+00 7.153058052062988281e+00 1.365942001342773438e+00 8.160090446472167969e-01
2.863000000000000000e+03 6.682752990722656250e+01 -1.116856575012207031e+01 3.933441936969757080e-01 6.435212612152099609e+00 2.048567056655883789e+00 -2.125612258911132812e+00
2.864000000000000000e+03 6.530316925048828125e+01 -1.056871509552001953e+01 6.369724273681640625e-01 3.684357643127441406e+00 1.296398997306823730e+00 -2.087221860885620117e+00
2.865000000000000000e+03 2.431624984741210938e+01 -1.169837665557861328e+01 3.589878380298614502e-01 8.749796077609062195e-03 1.103212907910346985e-01 -2.428304702043533325e-01
2.866000000000000000e+03 4.519034194946289062e+01 7.402980327606201172e+00 1.514957785606384277e+00 1.357692718505859375e+01 4.527565479278564453e+00 2.706732749938964844e-01
2.867000000000000000e+03 6.516108703613281250e+01 2.380521965026855469e+01 -8.537067770957946777e-01 2.519627332687377930e+00 4.997761547565460205e-01 -1.654274940490722656e+00
2.868000000000000000e+03 3.862663269042968750e+01 -2.188902091979980469e+01 1.105200529098510742e+00 6.314436912536621094e+00 2.225891113281250000e+00 1.404010415077209473e+00
2.869000000000000000e+03 3.760999679565429688e+01 -2.447260856628417969e+01 1.600400447845458984e+00 6.245785713195800781e+00 2.353855848312377930e+00 1.752277851104736328e+00
2.870000000000000000e+03 6.991064453125000000e+01 2.108905601501464844e+01 8.618840575218200684e-02 9.368331909179687500e+00 2.836355924606323242e+00 2.615984380245208740e-01
2.871000000000000000e+03 5.102148437500000000e+01 -1.387138485908508301e+00 3.023817777633666992e+00 2.522539854049682617e+00 1.663907289505004883e+00 -1.288155913352966309e+00
2.872000000000000000e+03 5.479003143310546875e+01 -5.303905487060546875e+00 9.792304784059524536e-02 -3.030318915843963623e-01 -6.153265386819839478e-02 -1.351766347885131836e+00
2.873000000000000000e+03 2.864591598510742188e+01 -1.092284965515136719e+01 3.426430821418762207e-01 -1.670005321502685547e-01 5.269276350736618042e-02 -2.246277630329132080e-01
2.874000000000000000e+03 2.352678298950195312e+01 -6.224294185638427734e+00 -5.355448126792907715e-01 1.423099786043167114e-01 -1.179704517126083374e-01 -1.054125744849443436e-02
2.875000000000000000e+03 2.536193275451660156e+01 -6.690814018249511719e+00 -6.583528518676757812e-01 1.261404007673263550e-01 -1.596637368202209473e-01 -9.299273043870925903e-02
2.876000000000000000e+03 4.404272460937500000e+01 3.669367551803588867e+00 1.591407537460327148e+00 1.577398681640625000e+01 5.209618568420410156e+00 8.600186705589294434e-01
2.877000000000000000e+03 3.564556884765625000e+01 2.144074630737304688e+01 2.278891652822494507e-01 2.076701402664184570e+00 6.913771629333496094e-01 -1.118796944618225098e+00
2.878000000000000000e+03 4.253560256958007812e+01 1.314447784423828125e+01 7.062827944755554199e-01 8.774481773376464844e+00 2.844229221343994141e+00 -1.283359169960021973e+00
2.879000000000000000e+03 4.151854705810546875e+01 1.351297092437744141e+01 9.141287803649902344e-01 7.422374248504638672e+00 2.500950813293457031e+00 -1.931367516517639160e+00
2.880000000000000000e+03 1.595059680938720703e+01 1.386186218261718750e+01 -5.665060132741928101e-03 -3.711061552166938782e-03 -2.812836552038788795e-03 -3.864077152684330940e-03
2.881000000000000000e+03 1.599308872222900391e+01 1.297746181488037109e+01 -5.048045888543128967e-03 -1.693575177341699600e-03 -2.022486180067062378e-03 -1.025330857373774052e-03
2.882000000000000000e+03 6.622196197509765625e+01 -2.732724571228027344e+01 -9.918529987335205078e-01 4.331806659698486328e+00 1.001986145973205566e+00 8.703316450119018555e-01
2.883000000000000000e+03 3.790909957885742188e+01 -1.819044685363769531e+01 5.977726578712463379e-01 5.286121368408203125e+00 1.765168190002441406e+00 4.233050942420959473e-01
2.884000000000000000e+03 1.728372001647949219e+01 8.777989387512207031e+00 -1.496321521699428558e-03 4.290120210498571396e-03 8.381396182812750340e-04 2.681755926460027695e-03
2.885000000000000000e+03 1.685324478149414062e+01 6.504785537719726562e+00 -1.190660521388053894e-03 1.746424124576151371e-03 1.667291071498766541e-04 2.443086123093962669e-03
2.886000000000000000e+03 1.681850814819335938e+01 1.729783058166503906e+01 -5.113754048943519592e-02 -9.969156235456466675e-03 -1.833200827240943909e-02 -3.840308263897895813e-02
2.887000000000000000e+03 1.596647548675537109e+01 1.562031173706054688e+01 -2.047738246619701385e-02 -7.121999748051166534e-03 -8.279814384877681732e-03 -1.607277616858482361e-02
2.888000000000000000e+03 1.591077041625976562e+01 -2.982243919372558594e+01 5.260915681719779968e-02 3.403781354427337646e-01 1.178961917757987976e-01 -2.189052402973175049e-01
2.889000000000000000e+03 7.144050598144531250e+01 1.573123645782470703e+01 1.365808367729187012e+00 9.769785881042480469e+00 3.340678215026855469e+00 -1.176691707223653793e-02
2.890000000000000000e+03 2.677092742919921875e+01 -5.928807735443115234e+00 -9.836943149566650391e-01 9.201461076736450195e-02 -2.675039172172546387e-01 -2.589046396315097809e-02
2.891000000000000000e+03 4.771936035156250000e+01 1.703860664367675781e+01 8.957057595252990723e-01 8.217949867248535156e+00 2.734096765518188477e+00 1.566305160522460938e+00
2.892000000000000000e+03 1.675279235839843750e+01 7.963718891143798828e+00 -1.169138704426586628e-03 2.493831561878323555e-03 3.974078572355210781e-04 3.037704853340983391e-03
2.893000000000000000e+03 1.983596420288085938e+01 2.415480422973632812e+01 -2.717398703098297119e-01 3.554157447069883347e-03 -8.045571297407150269e-02 1.215451136231422424e-01
2.894000000000000000e+03 6.455184936523437500e+01 -1.027566051483154297e+01 6.578476428985595703e-01 2.601691246032714844e+00 9.778616428375244141e-01 -1.801514625549316406e+00
2.895000000000000000e+03 4.454080963134765625e+01 7.883304357528686523e-01 2.337012290954589844e+00 1.287963199615478516e+01 4.564993381500244141e+00 1.089881896972656250e+00
2.896000000000000000e+03 5.401432800292968750e+01 -5.747384071350097656e+00 -3.639994859695434570e-01 -3.398015201091766357e-01 -2.111403048038482666e-01 -1.296075940132141113e+00
2.897000000000000000e+03 7.425675964355468750e+01 2.432275390625000000e+01 -4.186608791351318359e-01 7.746872901916503906e+00 2.198463439941406250e+00 6.307823657989501953e-01
2.898000000000000000e+03 3.313946914672851562e+01 2.278398132324218750e+01 1.329058557748794556e-01 1.290614128112792969e+00 4.270560145378112793e-01 -8.503852486610412598e-01
2.899000000000000000e+03 3.257675933837890625e+01 2.356152534484863281e+01 7.911229878664016724e-02 1.201992988586425781e+00 3.843316137790679932e-01 -8.006385564804077148e-01
2.900000000000000000e+03 2.742196464538574219e+01 -1.177363681793212891e+01 4.721910357475280762e-01 -8.235240727663040161e-02 1.169515848159790039e-01 -2.066091746091842651e-01
2.901000000000000000e+03 4.820183181762695312e+01 -7.240066528320312500e+00 -2.444434165954589844e+00 6.119484424591064453e+00 1.102515101432800293e+00 8.700165748596191406e-01
2.902000000000000000e+03 2.596238517761230469e+01 -3.456047821044921875e+01 2.607505619525909424e-01 4.658118188381195068e-01 2.179687172174453735e-01 2.000140249729156494e-01
2.903000000000000000e+03 4.630661010742187500e+01 6.044214248657226562e+00 1.148201942443847656e+00 1.331108188629150391e+01 4.337785243988037109e+00 2.246545404195785522e-01
2.904000000000000000e+03 9.807338714599609375e+00 -1.979467010498046875e+01 1.766509711742401123e-01 4.434613883495330811e-01 1.860337108373641968e-01 -1.929028034210205078e-01
2.905000000000000000e+03 9.279443740844726562e+00 -2.085674476623535156e+01 2.110766321420669556e-01 3.076620399951934814e-01 1.556216031312942505e-01 -1.735778898000717163e-01
2.906000000000000000e+03 1.644546508789062500e+01 9.543534278869628906e+00 -1.179307349957525730e-03 2.285052323713898659e-03 3.317234513815492392e-04 3.183525521308183670e-03
2.907000000000000000e+03 5.781811141967773438e+01 -1.625138521194458008e+00 1.399471163749694824e+00 -3.013535737991333008e-01 3.294352889060974121e-01 -7.454252243041992188e-01
2.908000000000000000e+03 5.818405151367187500e+01 -3.654493391513824463e-02 1.129840016365051270e+00 -3.300859630107879639e-01 2.399262189865112305e-01 -3.523243367671966553e-01
2.909000000000000000e+03 7.827167510986328125e+00 -1.759149360656738281e+01 1.059187799692153931e-01 9.060060232877731323e-02 5.895581468939781189e-02 -1.997856199741363525e-01
2.910000000000000000e+03 8.836733818054199219e+00 -1.938902854919433594e+01 1.636503934860229492e-01 2.477718144655227661e-01 1.234266608953475952e-01 -1.869974583387374878e-01
2.911000000000000000e+03 4.626226806640625000e+01 1.143071269989013672e+01 9.250242710113525391e-01 1.104826545715332031e+01 3.591986894607543945e+00 1.543320178985595703e+00
2.912000000000000000e+03 5.009744262695312500e+01 -3.074218177795410156e+01 -6.696292161941528320e-01 2.698030948638916016e+00 6.085205078125000000e-01 -1.377635359764099121e+00
2.913000000000000000e+03 5.243027114868164062e+01 -3.346647644042968750e+01 -5.225907564163208008e-01 1.463232994079589844e+00 2.821926772594451904e-01 -1.227131009101867676e+00
2.914000000000000000e+03 4.615790557861328125e+01 8.360577821731567383e-01 2.240147829055786133e+00 1.089322280883789062e+01 3.940011024475097656e+00 -1.094633340835571289e-01
2.915000000000000000e+03 4.417480850219726562e+01 -1.537715053558349609e+01 1.004564762115478516e+00 1.001772785186767578e+01 3.306687831878662109e+00 9.832379817962646484e-01
2.916000000000000000e+03 4.840833282470703125e+01 2.042665481567382812e+01 3.437720835208892822e-01 6.781495571136474609e+00 2.137580394744873047e+00 1.015980005264282227e+00
2.917000000000000000e+03 4.841606140136718750e+01 1.863241958618164062e+01 8.922418951988220215e-01 7.499231815338134766e+00 2.517442226409912109e+00 1.481403112411499023e+00
2.918000000000000000e+03 1.891728591918945312e+01 -3.366614913940429688e+01 3.181829303503036499e-02 2.591416835784912109e-01 8.728799968957901001e-02 -2.361416965723037720e-01
2.919000000000000000e+03 4.000344085693359375e+01 1.549490261077880859e+01 8.894605040550231934e-01 4.951398849487304688e+00 1.752257823944091797e+00 -1.914546370506286621e+00
2.920000000000000000e+03 8.849681854248046875e+00 4.518860816955566406e+00 1.881144708022475243e-03 -1.525500905700027943e-03 1.066931508830748498e-04 -5.733965663239359856e-04
2.921000000000000000e+03 7.596737670898437500e+01 1.127825260162353516e+01 1.793524771928787231e-01 7.383433341979980469e+00 2.268835783004760742e+00 -8.001979589462280273e-01
2.922000000000000000e+03 4.529913330078125000e+01 3.648848533630371094e+00 1.987054944038391113e+00 1.367625236511230469e+01 4.698992252349853516e+00 1.822253912687301636e-01
2.923000000000000000e+03 5.936587524414062500e+01 4.714467376470565796e-02 8.905389308929443359e-01 6.277536740526556969e-04 2.673500180244445801e-01 -2.814286351203918457e-01
2.924000000000000000e+03 7.036872863769531250e+01 1.257390308380126953e+01 9.320139884948730469e-01 9.604813575744628906e+00 3.161048173904418945e+00 -3.753353143110871315e-03
2.925000000000000000e+03 6.968334960937500000e+01 1.331467151641845703e+01 1.180264949798583984e+00 1.057695865631103516e+01 3.527166843414306641e+00 4.779987037181854248e-01
2.926000000000000000e+03 3.707067871093750000e+01 -1.638716506958007812e+01 3.700666427612304688e-01 4.164278507232666016e+00 1.360303521156311035e+00 -5.457754433155059814e-02
2.927000000000000000e+03 3.672715377807617188e+01 -2.738230895996093750e+01 1.243221163749694824e+00 5.712759494781494141e+00 2.086794137954711914e+00 1.549926996231079102e+00
2.928000000000000000e+03 3.899231719970703125e+01 -6.108860969543457031e+00 -9.577136039733886719e-01 4.813810825347900391e+00 1.156829237937927246e+00 2.144763946533203125e+00
2.929000000000000000e+03 3.170745658874511719e+01 -7.344151496887207031e+00 -8.989307284355163574e-01 -3.215999305248260498e-01 -3.661592006683349609e-01 -1.860551238059997559e-01
2.930000000000000000e+03 4.075092315673828125e+00 -1.716112136840820312e+01 4.145013913512229919e-02 -3.591165840625762939e-01 -9.529993683099746704e-02 -1.644602715969085693e-01
2.931000000000000000e+03 5.491979980468750000e+01 -1.923707485198974609e+00 2.122770309448242188e+00 -2.439737021923065186e-01 5.636390447616577148e-01 -9.857874512672424316e-01
2.932000000000000000e+03 5.741064834594726562e+01 -5.724883079528808594e+00 1.688847839832305908e-01 5.107652768492698669e-02 6.598839163780212402e-02 -1.086819887161254883e+00
2.933000000000000000e+03 4.507058334350585938e+01 4.549386203289031982e-01 2.176172494888305664e+00 1.170332050323486328e+01 4.163847923278808594e+00 5.877510309219360352e-01
2.934000000000000000e+03 5.827520370483398438e+01 -1.047940492630004883e+00 1.291503190994262695e+00 -2.523502707481384277e-01 3.117458820343017578e-01 -5.847043395042419434e-01
2.935000000000000000e+03 5.879946899414062500e+01 -4.931989908218383789e-01 1.115271806716918945e+00 -1.535903513431549072e-01 2.885044217109680176e-01 -4.243189394474029541e-01
2.936000000000000000e+03 2.174799537658691406e+01 -6.626314163208007812e+00 -3.757472634315490723e-01 9.997815638780593872e-02 -8.273073285818099976e-02 -3.654105216264724731e-02
2.937000000000000000e+03 6.872668457031250000e+01 8.919062614440917969e+00 -2.045764029026031494e-01 7.606040000915527344e+00 2.220438957214355469e+00 5.323335528373718262e-01
2.938000000000000000e+03 6.927626037597656250e+01 9.495565414428710938e+00 -4.348899051547050476e-02 8.064297676086425781e+00 2.406242609024047852e+00 3.092165887355804443e-01
2.939000000000000000e+03 4.377710342407226562e+01 -2.063129425048828125e+01 1.480221033096313477e+00 9.498980522155761719e+00 3.293760538101196289e+00 4.711879789829254150e-01
2.940000000000000000e+03 4.384822463989257812e+01 -2.167985725402832031e+01 1.584212303161621094e+00 9.131410598754882812e+00 3.214686870574951172e+00 3.815076351165771484e-01
2.941000000000000000e+03 4.575201797485351562e+01 -2.568295478820800781e+01 6.197786927223205566e-01 7.372421264648437500e+00 2.397660017013549805e+00 -7.400670647621154785e-01
2.942000000000000000e+03 4.512596130371093750e+01 -2.631854629516601562e+01 4.014940857887268066e-01 7.069010734558105469e+00 2.241151332855224609e+00 -3.677670657634735107e-01
2.943000000000000000e+03 5.523575210571289062e+01 -3.407320785522460938e+01 -2.110521793365478516e-01 4.947241246700286865e-01 8.510158210992813110e-02 -8.470265865325927734e-01
2.944000000000000000e+03 2.434749603271484375e+01 -3.371249389648437500e+01 1.797902584075927734e-01 2.360229045152664185e-01 1.247439533472061157e-01 1.352532394230365753e-02
2.945000000000000000e+03 5.613926696777343750e+01 -6.235364437103271484e+00 -3.994928002357482910e-01 -5.907206982374191284e-02 -1.375694572925567627e-01 -1.124165296554565430e+00
2.946000000000000000e+03 5.698903274536132812e+01 -6.415561199188232422e+00 -2.937487959861755371e-01 4.417426511645317078e-02 -7.487235218286514282e-02 -9.640167951583862305e-01
2.947000000000000000e+03 5.316061019897460938e+01 -3.278586959838867188e+01 -5.820288658142089844e-01 1.080883145332336426e+00 1.496562957763671875e-01 -1.192080855369567871e+00
2.948000000000000000e+03 5.407865524291992188e+01 -3.345785140991210938e+01 -4.085110127925872803e-01 7.477403283119201660e-01 1.017687916755676270e-01 -1.063727378845214844e+00
2.949000000000000000e+03 6.627178192138671875e+01 2.395878601074218750e+01 -9.341244697570800781e-01 4.222203254699707031e+00 9.864236712455749512e-01 -1.915264248847961426e+00
2.950000000000000000e+03 6.454900360107421875e+01 2.471730613708496094e+01 -6.662879586219787598e-01 2.182907819747924805e+00 4.549859464168548584e-01 -1.420798778533935547e+00
2.951000000000000000e+03 4.603145980834960938e+01 7.635209083557128906e+00 1.250492334365844727e+00 1.283746433258056641e+01 4.226387023925781250e+00 7.707069516181945801e-01
2.952000000000000000e+03 4.346784973144531250e+01 -2.654359340667724609e+00 2.979300916194915771e-01 1.106524467468261719e+01 3.408952236175537109e+00 1.244785428047180176e+00
2.953000000000000000e+03 4.471183395385742188e+01 -5.069854855537414551e-01 1.861837506294250488e+00 1.162170410156250000e+01 4.045062541961669922e+00 8.893713951110839844e-01
2.954000000000000000e+03 6.328388595581054688e+01 -3.191364479064941406e+01 -7.815178632736206055e-01 2.004185914993286133e+00 3.668004274368286133e-01 6.816109418869018555e-01
2.955000000000000000e+03 2.103262710571289062e+01 -3.410207366943359375e+01 9.281796962022781372e-02 2.669366598129272461e-01 1.079263836145401001e-01 -2.070456594228744507e-01
2.956000000000000000e+03 1.913588905334472656e+01 -9.693411827087402344e+00 1.158275157213211060e-01 1.072196885943412781e-01 6.691416352987289429e-02 -1.304112225770950317e-01
2.957000000000000000e+03 4.598903656005859375e+01 9.965559005737304688e+00 1.112962722778320312e+00 1.179250717163085938e+01 3.871640920639038086e+00 1.298939943313598633e+00
2.958000000000000000e+03 6.971043395996093750e+01 -1.595212650299072266e+01 2.185530900955200195e+00 1.199188232421875000e+01 4.253223896026611328e+00 -9.301080703735351562e-01
2.959000000000000000e+03 6.981779479980468750e+01 1.467524242401123047e+01 1.294806122779846191e+00 1.118346405029296875e+01 3.743481159210205078e+00 4.038441181182861328e-01
2.960000000000000000e+03 2.634567832946777344e+01 -6.557925701141357422e+00 -8.032319545745849609e-01 8.708478510379791260e-02 -2.148441374301910400e-01 -1.168499439954757690e-01
2.961000000000000000e+03 4.652811431884765625e+01 3.079747676849365234e+00 2.309270620346069336e+00 1.227982330322265625e+01 4.376728057861328125e+00 -4.721430838108062744e-01
2.962000000000000000e+03 4.680163955688476562e+01 2.120543956756591797e+00 2.473996400833129883e+00 1.127412891387939453e+01 4.124437808990478516e+00 -6.079661250114440918e-01
2.963000000000000000e+03 1.502684307098388672e+01 -3.067094230651855469e+01 9.505777619779109955e-03 3.166023492813110352e-01 9.783244132995605469e-02 -1.905652433633804321e-01
2.964000000000000000e+03 2.589293670654296875e+01 2.490653228759765625e+01 -1.167630180716514587e-01 1.878653764724731445e-01 2.133070677518844604e-02 -1.857858151197433472e-01
2.965000000000000000e+03 2.541171836853027344e+01 2.318370628356933594e+01 -4.104229509830474854e-01 3.610899299383163452e-02 -1.122941896319389343e-01 -7.496365159749984741e-02
2.966000000000000000e+03 6.990348052978515625e+01 1.999402046203613281e+01 1.157475829124450684e+00 1.004477214813232422e+01 3.360674381256103516e+00 2.502882480621337891e-01
2.967000000000000000e+03 6.932293701171875000e+01 2.056765556335449219e+01 6.493651270866394043e-01 1.007464885711669922e+01 3.217204093933105469e+00 -3.025547564029693604e-01
2.968000000000000000e+03 2.785569000244140625e+01 2.344613838195800781e+01 -1.611715108156204224e-01 2.556037902832031250e-01 2.832968160510063171e-02 -2.723072171211242676e-01
2.969000000000000000e+03 1.730327796936035156e+01 4.896768093109130859e+00 8.887182921171188354e-04 1.362005481496453285e-03 6.752171320840716362e-04 1.748798531480133533e-03
2.970000000000000000e+03 1.746956253051757812e+01 3.332777261734008789e+00 7.556279888376593590e-05 5.257999873720109463e-04 1.804088387871161103e-04 1.602399745024740696e-03
2.971000000000000000e+03 2.251750564575195312e+01 -6.904305934906005859e+00 -3.901689350605010986e-01 1.133875995874404907e-01 -8.303440362215042114e-02 -5.157123506069183350e-02
2.972000000000000000e+03 6.429654693603515625e+01 -3.326125717163085938e+01 -4.776383936405181885e-01 2.774191379547119141e+00 6.889658570289611816e-01 6.795321106910705566e-01
2.973000000000000000e+03 3.745919799804687500e+01 -2.768263053894042969e+01 1.035331726074218750e+00 5.683442115783691406e+00 2.015632152557373047e+00 1.342197895050048828e+00
2.974000000000000000e+03 6.984899902343750000e+01 -2.306258201599121094e+01 5.674818530678749084e-02 9.783662796020507812e+00 2.952123165130615234e+00 -4.553836882114410400e-01
2.975000000000000000e+03 3.366201019287109375e+01 -3.162599945068359375e+01 1.717606782913208008e-01 3.397084712982177734e+00 1.070653676986694336e+00 1.422958493232727051e+00
2.976000000000000000e+03 3.767194747924804688e+01 -3.169372940063476562e+01 -3.089107275009155273e-01 4.974571228027343750e+00 1.399698138236999512e+00 8.536796569824218750e-01
2.977000000000000000e+03 4.487650680541992188e+01 1.206452751159667969e+01 8.086352944374084473e-01 1.057605838775634766e+01 3.415408134460449219e+00 6.415048241615295410e-01
2.978000000000000000e+03 1.693766784667968750e+01 1.813401222229003906e+01 -8.117037266492843628e-02 -7.269491907209157944e-03 -2.653195895254611969e-02 -5.226559937000274658e-02
2.979000000000000000e+03 1.525375938415527344e+01 1.562843799591064453e+01 -2.969515323638916016e-02 -5.253739655017852783e-03 -1.048466842621564865e-02 -1.638526655733585358e-02
2.980000000000000000e+03 4.358705139160156250e+01 -1.373169517517089844e+01 3.967601656913757324e-01 9.000062942504882812e+00 2.819046735763549805e+00 5.621086955070495605e-01
2.981000000000000000e+03 9.573699951171875000e+00 -2.244919204711914062e+01 2.242132723331451416e-01 3.045856952667236328e-01 1.586396843194961548e-01 -1.333115398883819580e-01
2.982000000000000000e+03 3.176021194458007812e+01 -3.249290466308593750e+01 2.415659278631210327e-01 2.156774520874023438e+00 7.195021510124206543e-01 1.259959340095520020e+00
2.983000000000000000e+03 3.007114410400390625e+01 2.314758491516113281e+01 -1.402016263455152512e-02 5.345395207405090332e-01 1.561558097600936890e-01 -4.731573164463043213e-01
2.984000000000000000e+03 3.168795967102050781e+01 2.298354911804199219e+01 7.409732043743133545e-02 9.034340381622314453e-01 2.932594120502471924e-01 -6.821961402893066406e-01
2.985000000000000000e+03 5.512465667724609375e+01 -6.012324333190917969e+00 -4.786965250968933105e-01 -1.784529536962509155e-01 -1.971448361873626709e-01 -1.285497546195983887e+00
2.986000000000000000e+03 3.254251480102539062e+01 -3.315451049804687500e+01 3.993570804595947266e-02 2.725338935852050781e+00 8.295823931694030762e-01 1.254611968994140625e+00
2.987000000000000000e+03 2.700466918945312500e+01 -1.345585727691650391e+01 7.578233480453491211e-01 -1.811373233795166016e-02 2.219128906726837158e-01 -1.571932286024093628e-01
2.988000000000000000e+03 4.571095657348632812e+01 8.461734771728515625e+00 1.303223967552185059e+00 1.268277549743652344e+01 4.195799827575683594e+00 8.742593526840209961e-01
2.989000000000000000e+03 1.124629783630371094e+01 -1.192845153808593750e+01 4.889110848307609558e-02 1.347631812095642090e-01 5.509628355503082275e-02 -1.041800454258918762e-01
2.990000000000000000e+03 5.946993637084960938e+01 2.580919456481933594e+01 -2.921653687953948975e-01 7.225521206855773926e-01 1.291160136461257935e-01 6.315986514091491699e-01
2.991000000000000000e+03 4.928425598144531250e+01 2.272166442871093750e+01 -3.582818806171417236e-01 5.996252536773681641e+00 1.691391229629516602e+00 1.033801198005676270e+00
2.992000000000000000e+03 4.829370117187500000e+01 2.146022796630859375e+01 -2.456046268343925476e-02 6.430018901824951172e+00 1.921637535095214844e+00 8.282694220542907715e-01
2.993000000000000000e+03 6.962346649169921875e+01 1.133678817749023438e+01 6.588965058326721191e-01 9.297899246215820312e+00 2.987038850784301758e+00 3.041130602359771729e-01
2.994000000000000000e+03 3.156970596313476562e+01 -3.406973648071289062e+01 3.676175698637962341e-02 2.265900135040283203e+00 6.907985210418701172e-01 1.073027968406677246e+00
2.995000000000000000e+03 6.258410644531250000e+01 2.639776039123535156e+01 -1.254643052816390991e-01 1.338907122611999512e+00 3.640328347682952881e-01 -6.539515852928161621e-01
2.996000000000000000e+03 6.091737365722656250e+01 2.595318412780761719e+01 -2.442521154880523682e-01 7.784442305564880371e-01 1.602576375007629395e-01 9.397085756063461304e-02
2.997000000000000000e+03 1.041714000701904297e+01 -1.399719047546386719e+01 2.920894511044025421e-02 2.478741109371185303e-01 8.312491327524185181e-02 -1.107027158141136169e-01
2.998000000000000000e+03 6.982106781005859375e+01 -1.318639469146728516e+01 8.368939757347106934e-01 9.857982635498046875e+00 3.208462953567504883e+00 -3.268750607967376709e-01
2.999000000000000000e+03 3.534896469116210938e+01 -3.123839569091796875e+01 3.373031690716743469e-02 4.365767002105712891e+00 1.319849133491516113e+00 1.292023062705993652e+00
3.000000000000000000e+03 1.190604496002197266e+01 -1.115882682800292969e+01 6.904404610395431519e-02 1.005995348095893860e-01 5.089307203888893127e-02 -1.153502389788627625e-01
3.001000000000000000e+03 3.704900360107421875e+01 -2.883661270141601562e+01 6.211822032928466797e-01 5.367939949035644531e+00 1.796736717224121094e+00 1.262966632843017578e+00
3.002000000000000000e+03 3.832616424560546875e+01 -2.465015029907226562e+01 1.539480090141296387e+00 6.140100002288818359e+00 2.303874015808105469e+00 1.632221817970275879e+00
3.003000000000000000e+03 6.653617095947265625e+01 6.466668128967285156e+00 -4.139077663421630859e-01 4.726416587829589844e+00 1.293752670288085938e+00 9.992033243179321289e-01
3.004000000000000000e+03 6.764818572998046875e+01 7.687449455261230469e+00 -3.996722996234893799e-01 6.216188907623291016e+00 1.744955062866210938e+00 9.219399094581604004e-01
3.005000000000000000e+03 9.642126083374023438e+00 -1.600669479370117188e+01 6.647178530693054199e-02 2.918149828910827637e-01 1.074860244989395142e-01 -1.592126190662384033e-01
3.006000000000000000e+03 8.209000587463378906e+00 -1.814768600463867188e+01 1.232057064771652222e-01 1.471991389989852905e-01 8.112145215272903442e-02 -1.927846223115921021e-01
3.007000000000000000e+03 3.700588607788085938e+01 -1.361027145385742188e+01 3.357167243957519531e-01 3.489526271820068359e+00 1.147572875022888184e+00 -8.573405444622039795e-03
3.008000000000000000e+03 6.050875091552734375e+01 -3.194130897521972656e+01 -9.354588389396667480e-01 4.471243917942047119e-01 -1.465003341436386108e-01 2.697185575962066650e-01
3.009000000000000000e+03 6.999105834960937500e+01 -1.402128314971923828e+01 1.304936408996582031e+00 1.027742671966552734e+01 3.474708795547485352e+00 -3.072316646575927734e-01
3.010000000000000000e+03 1.075296306610107422e+01 -2.505147361755371094e+01 1.542712152004241943e-01 3.682938814163208008e-01 1.567695289850234985e-01 -1.240192949771881104e-01
3.011000000000000000e+03 1.107134819030761719e+01 -2.457351303100585938e+01 1.880562752485275269e-01 4.364311099052429199e-01 1.873462200164794922e-01 -1.520493179559707642e-01
3.012000000000000000e+03 6.772026062011718750e+01 -1.059529399871826172e+01 -7.852746546268463135e-02 7.133981227874755859e+00 2.116636276245117188e+00 -1.455789446830749512e+00
3.013000000000000000e+03 4.426475143432617188e+01 -1.454044532775878906e+01 8.509651422500610352e-01 9.828714370727539062e+00 3.203903913497924805e+00 9.002277851104736328e-01
3.014000000000000000e+03 7.068010711669921875e+01 -1.733596038818359375e+01 1.997904062271118164e+00 1.122623443603515625e+01 3.967241525650024414e+00 -5.550537109375000000e-01
3.015000000000000000e+03 7.052526855468750000e+01 -1.653179550170898438e+01 2.046751260757446289e+00 1.118457317352294922e+01 3.969397306442260742e+00 -5.290060639381408691e-01
3.016000000000000000e+03 6.218436813354492188e+01 -3.260243606567382812e+01 -5.909098386764526367e-01 1.428549170494079590e+00 2.512917816638946533e-01 5.875127911567687988e-01
3.017000000000000000e+03 3.811085128784179688e+01 -2.563951492309570312e+01 1.514944195747375488e+00 6.012109756469726562e+00 2.258116245269775391e+00 1.544655203819274902e+00
3.018000000000000000e+03 4.366320419311523438e+01 -2.474382972717285156e+01 1.033360242843627930e+00 7.520169734954833984e+00 2.566058874130249023e+00 4.713372886180877686e-01
3.019000000000000000e+03 4.271322250366210938e+01 -2.403719902038574219e+00 8.330115675926208496e-01 1.146722793579101562e+01 3.690071821212768555e+00 1.896930098533630371e+00
3.020000000000000000e+03 1.027640056610107422e+01 -1.466189193725585938e+01 3.497216105461120605e-02 2.869966328144073486e-01 9.659063816070556641e-02 -1.162119656801223755e-01
3.021000000000000000e+03 4.238142776489257812e+01 -3.207144260406494141e+00 -8.365228027105331421e-02 1.079344654083251953e+01 3.212938070297241211e+00 1.875869870185852051e+00
3.022000000000000000e+03 4.742876434326171875e+01 -9.275528192520141602e-01 1.700743794441223145e+00 8.205696105957031250e+00 2.971931934356689453e+00 -8.206546902656555176e-01
3.023000000000000000e+03 4.482887268066406250e+01 -2.724247169494628906e+01 4.420141503214836121e-02 6.521394729614257812e+00 1.969678878784179688e+00 -2.491635233163833618e-01
3.024000000000000000e+03 2.469526481628417969e+01 2.351940536499023438e+01 -3.414808809757232666e-01 -7.252261508256196976e-03 -1.046199426054954529e-01 -4.478108137845993042e-02
3.025000000000000000e+03 2.454453849792480469e+01 2.498608779907226562e+01 -1.587484180927276611e-01 5.449151247739791870e-02 -3.127707168459892273e-02 -8.859042078256607056e-02
3.026000000000000000e+03 4.429693603515625000e+01 -2.372372055053710938e+01 1.376816272735595703e+00 8.381650924682617188e+00 2.927540063858032227e+00 1.439060121774673462e-01
3.027000000000000000e+03 4.446913528442382812e+01 -2.478985214233398438e+01 9.888640642166137695e-01 7.791155815124511719e+00 2.634006023406982422e+00 5.109360814094543457e-02
3.028000000000000000e+03 4.550302124023437500e+01 -1.056152057647705078e+01 -1.446602940559387207e+00 9.265187263488769531e+00 2.345575094223022461e+00 4.884111583232879639e-01
3.029000000000000000e+03 9.443508148193359375e+00 -2.164513397216796875e+01 2.274183630943298340e-01 3.109520971775054932e-01 1.615111380815505981e-01 -1.562725454568862915e-01
3.030000000000000000e+03 6.706630229949951172e+00 -2.383205795288085938e+01 1.119839623570442200e-01 -1.365553438663482666e-01 -7.371413987129926682e-03 -3.607178106904029846e-02
3.031000000000000000e+03 3.893251800537109375e+01 -2.018824386596679688e+01 9.787147045135498047e-01 6.261657238006591797e+00 2.172111749649047852e+00 1.017292380332946777e+00
3.032000000000000000e+03 3.931103515625000000e+01 -1.944325637817382812e+01 9.666433334350585938e-01 6.352138042449951172e+00 2.195634365081787109e+00 9.098382592201232910e-01
3.033000000000000000e+03 6.750403594970703125e+01 2.358348655700683594e+01 -1.149941802024841309e+00 6.084319114685058594e+00 1.480313181877136230e+00 -1.844927668571472168e+00
3.034000000000000000e+03 5.911708831787109375e+01 -3.451216125488281250e+01 5.122351649333722889e-05 4.776358902454376221e-01 1.433061361312866211e-01 -7.509001344442367554e-02
3.035000000000000000e+03 5.999949264526367188e+01 -3.332204818725585938e+01 -3.608224987983703613e-01 6.253232359886169434e-01 7.935021817684173584e-02 1.862549483776092529e-01
3.036000000000000000e+03 6.342089080810546875e+01 -9.104964256286621094e+00 4.920863509178161621e-01 1.806299448013305664e+00 6.895157098770141602e-01 -1.301842331886291504e+00
3.037000000000000000e+03 4.773368072509765625e+01 -1.610635280609130859e+00 1.427398324012756348e+00 7.417861461639404297e+00 2.653578042984008789e+00 -7.390214204788208008e-01
3.038000000000000000e+03 9.022278785705566406e+00 -1.562920856475830078e+01 5.826169997453689575e-02 2.025510966777801514e-01 7.824383676052093506e-02 -1.838075220584869385e-01
3.039000000000000000e+03 4.208693313598632812e+01 -4.714813709259033203e+00 -1.406764149665832520e+00 9.684637069702148438e+00 2.483361959457397461e+00 1.830324649810791016e+00
3.040000000000000000e+03 2.970585250854492188e+01 -7.301669120788574219e+00 -8.727786540985107422e-01 -3.301545381546020508e-01 -3.608799576759338379e-01 -2.857704460620880127e-01
3.041000000000000000e+03 2.984404945373535156e+01 -1.212479877471923828e+01 6.736924052238464355e-01 -1.299957782030105591e-01 1.631089895963668823e-01 -9.353461861610412598e-02
3.042000000000000000e+03 3.743665695190429688e+01 -1.726881408691406250e+01 4.000845253467559814e-01 4.696973800659179688e+00 1.529117584228515625e+00 1.402495652437210083e-01
3.043000000000000000e+03 4.272839355468750000e+01 1.491804695129394531e+01 4.665035307407379150e-01 7.624855041503906250e+00 2.427407503128051758e+00 -9.660941362380981445e-01
3.044000000000000000e+03 1.610740470886230469e+01 1.733633995056152344e+01 -5.841721594333648682e-02 -3.485273569822311401e-03 -1.857074722647666931e-02 -3.507533669471740723e-02
3.045000000000000000e+03 1.621019935607910156e+01 1.817054557800292969e+01 -9.469105303287506104e-02 5.888872779905796051e-03 -2.664065547287464142e-02 -4.353861883282661438e-02
3.046000000000000000e+03 5.155624771118164062e+01 -3.418146896362304688e+01 -4.919345974922180176e-01 1.854215025901794434e+00 4.086841344833374023e-01 -1.227831840515136719e+00
3.047000000000000000e+03 5.166371536254882812e+01 -3.245707321166992188e+01 -6.922549605369567871e-01 1.799681425094604492e+00 3.322279155254364014e-01 -1.340876102447509766e+00
3.048000000000000000e+03 2.088105964660644531e+01 2.585092735290527344e+01 -1.270186305046081543e-01 9.537737816572189331e-03 -3.524426743388175964e-02 1.019094213843345642e-01
3.049000000000000000e+03 2.074664878845214844e+01 2.417482185363769531e+01 -2.795567810535430908e-01 -2.007454633712768555e-02 -8.988939225673675537e-02 1.119767054915428162e-01
3.050000000000000000e+03 4.931386184692382812e+01 -3.140092277526855469e+01 -7.527089715003967285e-01 3.217354774475097656e+00 7.393937110900878906e-01 -1.365453481674194336e+00
3.051000000000000000e+03 4.984908294677734375e+01 -3.240737152099609375e+01 -7.467995285987854004e-01 2.816693305969238281e+00 6.209681630134582520e-01 -1.370180964469909668e+00
3.052000000000000000e+03 5.154769515991210938e+01 2.381229972839355469e+01 -5.620031356811523438e-01 4.936067581176757812e+00 1.312219262123107910e+00 1.713590860366821289e+00
3.053000000000000000e+03 4.176609039306640625e+00 4.163562774658203125e+01 2.135354280471801758e-02 -2.323331683874130249e-01 -6.329388916492462158e-02 7.688716519623994827e-03
3.054000000000000000e+03 4.807175827026367188e+01 2.262800407409667969e+01 -3.665711581707000732e-01 6.081774711608886719e+00 1.714561104774475098e+00 6.775725483894348145e-01
3.055000000000000000e+03 5.046300888061523438e+01 2.270013427734375000e+01 -2.755722701549530029e-01 5.731972217559814453e+00 1.636919975280761719e+00 1.384079575538635254e+00
3.056000000000000000e+03 3.758618831634521484e+00 -3.831548309326171875e+01 -9.949944913387298584e-03 -5.192282199859619141e-01 -1.587534546852111816e-01 1.043352298438549042e-02
3.057000000000000000e+03 4.477900028228759766e+00 -3.611070632934570312e+01 -1.709548383951187134e-02 -4.593555033206939697e-01 -1.429352909326553345e-01 2.464123070240020752e-02
3.058000000000000000e+03 7.636313629150390625e+01 3.753586959838867188e+01 2.029856666922569275e-02 7.365992546081542969e+00 2.215887308120727539e+00 -1.155240684747695923e-01
3.059000000000000000e+03 4.557554721832275391e+00 3.654587554931640625e+01 1.916087232530117035e-02 -1.874307245016098022e-01 -5.048095434904098511e-02 5.370673164725303650e-02
3.060000000000000000e+03 5.121976852416992188e+00 3.981221389770507812e+01 2.999899350106716156e-02 -1.885117143392562866e-01 -4.755381867289543152e-02 2.753935009241104126e-02
3.061000000000000000e+03 2.199307823181152344e+01 -3.421684265136718750e+01 1.307676583528518677e-01 2.532424330711364746e-01 1.152030229568481445e-01 -1.344791948795318604e-01
3.062000000000000000e+03 1.811402893066406250e+01 3.316735982894897461e+00 4.990844754502177238e-04 9.420526912435889244e-04 4.323411558289080858e-04 1.049039536155760288e-03
3.063000000000000000e+03 1.054504489898681641e+01 -6.648584842681884766e+00 -1.430354863405227661e-01 4.339385405182838440e-02 -2.989248745143413544e-02 -2.009451389312744141e-01
3.064000000000000000e+03 1.091940212249755859e+01 -5.444387435913085938e+00 -1.997406780719757080e-01 4.511113092303276062e-02 -4.638886451721191406e-02 -1.794126629829406738e-01
3.065000000000000000e+03 5.856402206420898438e+01 -7.047869205474853516e+00 -8.695178478956222534e-02 3.048336207866668701e-01 6.536455452442169189e-02 -7.142825126647949219e-01
3.066000000000000000e+03 2.162539100646972656e+01 -9.559697151184082031e+00 4.567039012908935547e-02 6.894891709089279175e-02 3.438579291105270386e-02 -1.627385467290878296e-01
3.067000000000000000e+03 2.125089645385742188e+01 -1.149150848388671875e+01 3.521674275398254395e-01 2.664603479206562042e-02 1.136440411210060120e-01 -1.943501681089401245e-01
3.068000000000000000e+03 6.701182556152343750e+01 -1.041255283355712891e+01 1.638746634125709534e-02 6.312665939331054688e+00 1.898716092109680176e+00 -1.763640046119689941e+00
3.069000000000000000e+03 6.606741333007812500e+01 -1.087285804748535156e+01 5.448154211044311523e-01 5.015717029571533203e+00 1.668159723281860352e+00 -2.240411996841430664e+00
3.070000000000000000e+03 1.770382499694824219e+01 3.894563198089599609e+00 3.656129701994359493e-04 1.120139728300273418e-03 4.457258037291467190e-04 9.592961869202554226e-04
3.071000000000000000e+03 2.693919754028320312e+01 -6.994760036468505859e+00 -7.726607322692871094e-01 2.212593518197536469e-02 -2.251604497432708740e-01 -1.998268216848373413e-01
3.072000000000000000e+03 2.742522430419921875e+01 -6.366267204284667969e+00 -1.011838436126708984e+00 -1.510412315838038921e-03 -3.040046393871307373e-01 -1.389932781457901001e-01
3.073000000000000000e+03 5.560282897949218750e+01 -4.934574604034423828e+00 4.451518356800079346e-01 -2.105065882205963135e-01 7.039356976747512817e-02 -1.340803146362304688e+00
3.074000000000000000e+03 5.202989578247070312e+01 -3.882758378982543945e+00 1.155409216880798340e+00 1.186687350273132324e+00 7.026289701461791992e-01 -8.290055990219116211e-01
3.075000000000000000e+03 2.921998596191406250e+01 -6.831039905548095703e+00 -1.160346388816833496e+00 -3.313800394535064697e-01 -4.475179314613342285e-01 -2.599279880523681641e-01
3.076000000000000000e+03 2.768825721740722656e+01 -1.232255935668945312e+01 5.725935101509094238e-01 -7.241627573966979980e-02 1.500531733036041260e-01 -1.705611050128936768e-01
3.077000000000000000e+03 1.675243568420410156e+01 5.841797351837158203e+00 9.845915483310818672e-04 1.593974302522838116e-03 7.735697436146438122e-04 2.636218676343560219e-03
3.078000000000000000e+03 5.247142410278320312e+01 -4.660886764526367188e+00 6.021981835365295410e-01 5.362446308135986328e-01 3.415328562259674072e-01 -8.357636332511901855e-01
3.079000000000000000e+03 1.172646999359130859e+01 -4.914366245269775391e+00 -2.448059022426605225e-01 4.932143166661262512e-02 -5.864534527063369751e-02 -1.624040603637695312e-01
3.080000000000000000e+03 5.957656097412109375e+01 -7.500830650329589844e+00 3.326067700982093811e-02 4.631634056568145752e-01 1.489272266626358032e-01 -6.204212307929992676e-01
3.081000000000000000e+03 6.065415954589843750e+01 -8.162693977355957031e+00 1.740934103727340698e-01 6.398662924766540527e-01 2.441879063844680786e-01 -6.093833446502685547e-01
3.082000000000000000e+03 1.586143016815185547e+01 4.322302818298339844e+00 1.146866008639335632e-03 1.622225245228037238e-04 3.927265643142163754e-04 2.375662559643387794e-03
3.083000000000000000e+03 6.233921813964843750e+01 -7.917761802673339844e+00 3.906472027301788330e-01 1.399771928787231445e+00 5.371257662773132324e-01 -1.009699463844299316e+00
3.084000000000000000e+03 6.117312240600585938e+01 1.629173040390014648e+00 2.923673987388610840e-01 6.781092286109924316e-01 2.911430001258850098e-01 2.230161987245082855e-02
3.085000000000000000e+03 6.111061096191406250e+01 6.282206177711486816e-01 5.124328732490539551e-01 7.301229238510131836e-01 3.727667331695556641e-01 -8.160608261823654175e-02
3.086000000000000000e+03 6.304923629760742188e+01 -8.166344642639160156e+00 4.214964210987091064e-01 1.802312970161437988e+00 6.671428084373474121e-01 -1.179476857185363770e+00
3.087000000000000000e+03 1.515244960784912109e+01 4.362203121185302734e+00 3.422414010856300592e-04 -6.699899677187204361e-05 8.257272565970197320e-05 2.071475144475698471e-03
3.088000000000000000e+03 1.156937217712402344e+01 -5.588693618774414062e+00 -2.070605456829071045e-01 5.134750157594680786e-02 -4.671391472220420837e-02 -1.805615574121475220e-01
3.089000000000000000e+03 1.659632110595703125e+01 5.209099292755126953e+00 -6.538365269079804420e-04 1.000174670480191708e-03 1.039014314301311970e-04 2.270710887387394905e-03
3.090000000000000000e+03 5.101911926269531250e+01 -5.507539749145507812e+00 -4.340001940727233887e-01 1.717381358146667480e+00 3.850143551826477051e-01 -5.059405788779258728e-02
3.091000000000000000e+03 5.174206924438476562e+01 -5.070993423461914062e+00 1.316040009260177612e-01 9.980117082595825195e-01 3.388847112655639648e-01 -4.967837333679199219e-01
3.092000000000000000e+03 6.540469360351562500e+01 -3.210529708862304688e+01 -7.411124110221862793e-01 3.576117753982543945e+00 8.505015969276428223e-01 7.152351737022399902e-01
3.093000000000000000e+03 6.581072998046875000e+01 -2.923924064636230469e+01 -1.083714604377746582e+00 3.929153203964233398e+00 8.536315560340881348e-01 7.792612314224243164e-01
3.094000000000000000e+03 6.290630340576171875e+01 2.194614887237548828e+00 5.676876381039619446e-02 1.662395238876342773e+00 5.157492160797119141e-01 2.611179649829864502e-01
3.095000000000000000e+03 2.092066001892089844e+01 -9.684554100036621094e+00 7.281591743230819702e-02 7.487340271472930908e-02 4.430679604411125183e-02 -1.505273580551147461e-01
3.096000000000000000e+03 2.019190979003906250e+01 -9.926115036010742188e+00 1.380944997072219849e-01 7.772873342037200928e-02 6.474697589874267578e-02 -1.446307748556137085e-01
3.097000000000000000e+03 1.442878627777099609e+01 4.465795993804931641e+00 1.590968691743910313e-03 -5.523994332179427147e-04 3.115707659162580967e-04 2.358702477067708969e-03
3.098000000000000000e+03 3.595353317260742188e+01 -1.243166923522949219e+01 4.200938045978546143e-01 2.480355978012084961e+00 8.701349496841430664e-01 8.409433811902999878e-02
3.099000000000000000e+03 3.687623214721679688e+01 -7.495864868164062500e+00 -5.654379129409790039e-01 2.420420408248901367e+00 5.564947724342346191e-01 1.086922645568847656e+00
3.100000000000000000e+03 1.509803295135498047e+01 -1.053028964996337891e+01 2.124065458774566650e-01 1.046370044350624084e-01 9.511306136846542358e-02 -1.507944464683532715e-01
3.101000000000000000e+03 2.365083312988281250e+01 -1.159516429901123047e+01 3.322270512580871582e-01 1.501399092376232147e-02 1.041723117232322693e-01 -2.350697517395019531e-01
3.102000000000000000e+03 4.588417434692382812e+01 3.365665674209594727e+00 2.185559272766113281e+00 1.286896324157714844e+01 4.516356945037841797e+00 -4.568451270461082458e-02
3.103000000000000000e+03 4.484952926635742188e+01 1.447736740112304688e+00 2.371666669845581055e+00 1.288662719726562500e+01 4.577488422393798828e+00 8.281837105751037598e-01
3.104000000000000000e+03 5.995800399780273438e+01 5.779010057449340820e-01 6.662030220031738281e-01 1.965087354183197021e-01 2.588135302066802979e-01 -1.698138713836669922e-01
3.105000000000000000e+03 6.052125549316406250e+01 1.013398095965385437e-01 6.956116557121276855e-01 4.778858125209808350e-01 3.520492613315582275e-01 -1.979414075613021851e-01
3.106000000000000000e+03 3.273667144775390625e+01 -1.307567501068115234e+01 8.664750456809997559e-01 3.570401966571807861e-01 3.670545816421508789e-01 -5.372391268610954285e-02
3.107000000000000000e+03 3.434827041625976562e+01 -7.838638305664062500e+00 -4.697537124156951904e-01 5.818417072296142578e-01 3.362639993429183960e-02 2.764095664024353027e-01
3.108000000000000000e+03 5.241505432128906250e+01 -2.258417129516601562e+00 2.433793067932128906e+00 1.018029808998107910e+00 1.035546898841857910e+00 -1.030446290969848633e+00
3.109000000000000000e+03 5.181086730957031250e+01 -1.441901087760925293e+00 3.177810192108154297e+00 1.521428823471069336e+00 1.409771680831909180e+00 -1.114963054656982422e+00
3.110000000000000000e+03 1.543066215515136719e+01 -5.547770023345947266e+00 -2.995613515377044678e-01 6.289923936128616333e-02 -7.099863141775131226e-02 -1.408585458993911743e-01
3.111000000000000000e+03 1.224705028533935547e+01 -5.732862472534179688e+00 -2.166921049356460571e-01 5.622149631381034851e-02 -4.814118146896362305e-02 -1.797697097063064575e-01
3.112000000000000000e+03 1.296965122222900391e+01 -5.838943958282470703e+00 -2.230677157640457153e-01 6.033457815647125244e-02 -4.881994053721427917e-02 -1.774770617485046387e-01
3.113000000000000000e+03 4.684729576110839844e+00 6.885258674621582031e+00 4.440889752004295588e-04 -1.282607991015538573e-04 9.474845137447118759e-05 -2.570669865235686302e-03
3.114000000000000000e+03 5.535310268402099609e+00 5.366611957550048828e+00 8.912226185202598572e-04 -7.022192585282027721e-04 5.670101381838321686e-05 -2.403557766228914261e-03
3.115000000000000000e+03 3.258919954299926758e+00 4.781238555908203125e+00 5.405664560385048389e-04 8.855335763655602932e-04 4.278300039004534483e-04 -2.238444052636623383e-03
3.116000000000000000e+03 7.194973945617675781e+00 4.599384784698486328e+00 1.630278187803924084e-03 -1.129942014813423157e-03 1.501008664490655065e-04 -1.494483673013746738e-03
3.117000000000000000e+03 6.335615634918212891e+00 5.335251808166503906e+00 1.207259250804781914e-03 -1.038949587382376194e-03 5.049289393355138600e-05 -1.967937452718615532e-03
3.118000000000000000e+03 7.151072502136230469e+00 5.304105281829833984e+00 1.128223142586648464e-03 -1.582193071953952312e-03 -1.361909962724894285e-04 -1.832819776609539986e-03
3.119000000000000000e+03 7.450027465820312500e+01 -3.277029037475585938e+01 -3.962364196777343750e-01 8.201097488403320312e+00 2.341458320617675781e+00 -2.705340385437011719e-01
3.120000000000000000e+03 3.053294944763183594e+01 -1.246539878845214844e+01 7.655456066131591797e-01 -8.288253843784332275e-02 2.047989070415496826e-01 -4.374840483069419861e-02
3.121000000000000000e+03 3.529684066772460938e+00 2.973654937744140625e+01 -1.300828182138502598e-03 -1.303865909576416016e-01 -3.950622677803039551e-02 6.941732764244079590e-02
3.122000000000000000e+03 4.400398731231689453e+00 3.234888839721679688e+01 8.064969442784786224e-03 -1.455278247594833374e-01 -4.123885557055473328e-02 7.789818197488784790e-02
3.123000000000000000e+03 7.656443786621093750e+01 3.242462539672851562e+01 -8.172863721847534180e-02 7.503783702850341797e+00 2.226616382598876953e+00 -2.708000876009464264e-02
3.124000000000000000e+03 7.528177642822265625e+01 3.169124984741210938e+01 -1.659528315067291260e-01 7.249910831451416016e+00 2.125187397003173828e+00 -4.707778245210647583e-02
3.125000000000000000e+03 3.310768890380859375e+01 -7.235436439514160156e+00 -8.988707065582275391e-01 -2.573136240243911743e-02 -2.773806154727935791e-01 -3.019184432923793793e-02
3.126000000000000000e+03 5.141902160644531250e+01 -6.201312541961669922e+00 -1.048797011375427246e+00 8.370516896247863770e-01 -6.352358311414718628e-02 -9.382327646017074585e-02
3.127000000000000000e+03 7.634678649902343750e+01 3.318925857543945312e+01 -7.145027816295623779e-02 7.430552005767822266e+00 2.207730531692504883e+00 -5.586412176489830017e-02
3.128000000000000000e+03 7.551930236816406250e+01 3.295411682128906250e+01 -1.051163077354431152e-01 7.228209972381591797e+00 2.136928081512451172e+00 -8.735538274049758911e-02
3.129000000000000000e+03 1.369094944000244141e+01 4.589685440063476562e+00 8.961027488112449646e-04 -1.079399371519684792e-03 -5.498897735378704965e-05 1.912402221933007240e-03
3.130000000000000000e+03 7.543330383300781250e+01 2.981722450256347656e+01 -2.570205330848693848e-01 7.397908210754394531e+00 2.142266273498535156e+00 8.110392093658447266e-02
3.131000000000000000e+03 7.124441528320312500e+01 1.650695610046386719e+01 1.432578206062316895e+00 9.847628593444824219e+00 3.384062051773071289e+00 1.610412262380123138e-02
3.132000000000000000e+03 7.579441070556640625e+01 1.575013732910156250e+01 5.797703862190246582e-01 7.218816757202148438e+00 2.339576244354248047e+00 -1.400678455829620361e-01
3.133000000000000000e+03 4.653738021850585938e+00 2.935824584960937500e+01 -3.407638287171721458e-03 -1.069380491971969604e-01 -3.310370817780494690e-02 8.284526318311691284e-02
3.134000000000000000e+03 1.623706054687500000e+01 -5.713970661163330078e+00 -3.079104721546173096e-01 6.539102643728256226e-02 -7.275583595037460327e-02 -1.268356442451477051e-01
3.135000000000000000e+03 7.599175262451171875e+01 -2.898444557189941406e+01 -3.351491391658782959e-01 8.609590530395507812e+00 2.482332229614257812e+00 -7.760934233665466309e-01
3.136000000000000000e+03 7.314691162109375000e+01 3.311307907104492188e+01 -1.398032307624816895e-01 6.623256683349609375e+00 1.945035934448242188e+00 -2.439948618412017822e-01
3.137000000000000000e+03 4.670452880859375000e+01 1.837675094604492188e+01 5.072727203369140625e-01 7.426679134368896484e+00 2.380185604095458984e+00 7.848445177078247070e-01
3.138000000000000000e+03 1.373231124877929688e+01 -5.927382946014404297e+00 -2.332122623920440674e-01 6.692959368228912354e-02 -4.988479986786842346e-02 -1.724836081266403198e-01
3.139000000000000000e+03 1.450605964660644531e+01 -6.038825035095214844e+00 -2.414572536945343018e-01 6.771128624677658081e-02 -5.212378874421119690e-02 -1.650343835353851318e-01
3.140000000000000000e+03 7.587029266357421875e+01 -2.470558357238769531e+01 -1.021369621157646179e-01 8.232467651367187500e+00 2.439099311828613281e+00 -1.273667812347412109e+00
3.141000000000000000e+03 1.733648300170898438e+01 2.263520812988281250e+01 -2.725761532783508301e-01 7.092134654521942139e-02 -6.049644201993942261e-02 7.148311287164688110e-02
3.142000000000000000e+03 7.586080169677734375e+01 2.329263305664062500e+01 -1.378154158592224121e-01 7.510324478149414062e+00 2.211752891540527344e+00 7.784000635147094727e-01
3.143000000000000000e+03 7.595941925048828125e+01 2.150620269775390625e+01 8.594226092100143433e-02 7.361821651458740234e+00 2.234329223632812500e+00 8.108865618705749512e-01
3.144000000000000000e+03 3.952056646347045898e+00 6.200593471527099609e+00 5.622423486784100533e-04 6.206737016327679157e-04 3.548748209141194820e-04 -2.532191108912229538e-03
3.145000000000000000e+03 7.611424255371093750e+01 -2.143653106689453125e+01 3.801386952400207520e-01 7.698064327239990234e+00 2.423460960388183594e+00 -1.084468722343444824e+00
3.146000000000000000e+03 7.583445739746093750e+01 2.416604804992675781e+01 -2.212234586477279663e-01 7.558851718902587891e+00 2.201288461685180664e+00 6.969309449195861816e-01
3.147000000000000000e+03 3.242934942245483398e+00 2.227415466308593750e+01 -1.022120099514722824e-02 -3.743159025907516479e-02 -1.429583691060543060e-02 3.789072856307029724e-02
3.148000000000000000e+03 4.044631481170654297e+00 2.542968177795410156e+01 -1.139386557042598724e-02 -6.558233499526977539e-02 -2.309286035597324371e-02 6.431912630796432495e-02
3.149000000000000000e+03 7.660002899169921875e+01 2.652433967590332031e+01 -2.126196324825286865e-01 7.575790882110595703e+00 2.208951473236083984e+00 4.366877973079681396e-01
3.150000000000000000e+03 7.505746459960937500e+01 2.426342964172363281e+01 -3.084447681903839111e-01 7.634285449981689453e+00 2.197752237319946289e+00 6.924083828926086426e-01
3.151000000000000000e+03 7.680828857421875000e+01 1.776589012145996094e+01 3.451347947120666504e-01 6.810787677764892578e+00 2.146776676177978516e+00 2.751721739768981934e-01
3.152000000000000000e+03 4.234329223632812500e+00 -3.118458175659179688e+01 -1.042068656533956528e-02 -4.752791821956634521e-01 -1.457099616527557373e-01 4.230957478284835815e-02
3.153000000000000000e+03 7.665312957763671875e+01 2.234923934936523438e+01 -1.217366568744182587e-02 7.270889759063720703e+00 2.177614927291870117e+00 7.489529848098754883e-01
3.154000000000000000e+03 7.690222930908203125e+01 1.843845939636230469e+01 2.944343090057373047e-01 6.804634094238281250e+00 2.129720449447631836e+00 3.947144746780395508e-01
3.155000000000000000e+03 3.946344614028930664e+00 -2.207773208618164062e+01 5.768880248069763184e-02 -4.763479232788085938e-01 -1.255977451801300049e-01 -4.927590861916542053e-02
3.156000000000000000e+03 7.593051910400390625e+01 1.435646152496337891e+01 4.670806527137756348e-01 7.206103324890136719e+00 2.301955223083496094e+00 -4.008421301841735840e-01
3.157000000000000000e+03 7.652181243896484375e+01 -2.568229103088378906e+01 -1.587672382593154907e-01 8.280052185058593750e+00 2.436385393142700195e+00 -1.103518724441528320e+00
3.158000000000000000e+03 7.683577728271484375e+01 -2.080347442626953125e+01 3.414747118949890137e-01 7.307544708251953125e+00 2.294705867767333984e+00 -8.542751669883728027e-01
3.159000000000000000e+03 7.601005554199218750e+01 -2.220895576477050781e+01 2.602488100528717041e-01 7.842861652374267578e+00 2.430933237075805664e+00 -1.180534005165100098e+00
3.160000000000000000e+03 4.266119480133056641e+00 2.994733619689941406e+01 -8.898690575733780861e-04 -1.187458857893943787e-01 -3.589072823524475098e-02 7.853068411350250244e-02
3.161000000000000000e+03 7.655073547363281250e+01 1.587516975402832031e+01 4.253142774105072021e-01 6.913725852966308594e+00 2.201712131500244141e+00 -8.227875083684921265e-02
3.162000000000000000e+03 7.662303924560546875e+01 1.706689834594726562e+01 4.080707728862762451e-01 6.880323886871337891e+00 2.186518430709838867e+00 1.486617624759674072e-01
3.163000000000000000e+03 7.219684600830078125e+01 1.644675064086914062e+01 1.359801411628723145e+00 8.986674308776855469e+00 3.103942632675170898e+00 -2.980362251400947571e-02
3.164000000000000000e+03 7.535852050781250000e+01 -1.739482307434082031e+01 8.376390337944030762e-01 7.679518222808837891e+00 2.555147171020507812e+00 -1.641909331083297729e-01
3.165000000000000000e+03 7.625822448730468750e+01 1.654924964904785156e+01 4.595265090465545654e-01 7.008836269378662109e+00 2.240508794784545898e+00 4.278327524662017822e-02
3.166000000000000000e+03 7.620044708251953125e+01 -1.437107753753662109e+01 3.887242078781127930e-01 7.316720008850097656e+00 2.311633348464965820e+00 5.638452172279357910e-01
3.167000000000000000e+03 7.422021484375000000e+01 1.292522907257080078e+01 5.801696181297302246e-01 7.880333900451660156e+00 2.538151025772094727e+00 -7.008098363876342773e-01
3.168000000000000000e+03 7.616912078857421875e+01 4.194169998168945312e+00 -2.443612366914749146e-01 7.821056842803955078e+00 2.273008584976196289e+00 -4.896803498268127441e-01
3.169000000000000000e+03 7.680596923828125000e+01 -1.844479179382324219e+01 4.480707049369812012e-01 7.034870147705078125e+00 2.244882106781005859e+00 -3.497585952281951904e-01
3.170000000000000000e+03 7.672071838378906250e+01 9.589930534362792969e+00 9.990730322897434235e-03 7.374598026275634766e+00 2.215376615524291992e+00 -7.923429608345031738e-01
3.171000000000000000e+03 8.827267646789550781e+00 -2.263064193725585938e+01 1.963468343019485474e-01 1.791944503784179688e-01 1.126623824238777161e-01 -1.054178774356842041e-01
3.172000000000000000e+03 3.868561267852783203e+00 -2.366168022155761719e+01 4.575856402516365051e-02 -5.044884085655212402e-01 -1.376189589500427246e-01 -1.076676696538925171e-02
3.173000000000000000e+03 7.683907318115234375e+01 -1.361345958709716797e+01 2.215162962675094604e-01 7.107120513916015625e+00 2.198590993881225586e+00 6.270658969879150391e-01
3.174000000000000000e+03 7.621678924560546875e+01 -1.515269088745117188e+01 4.669009745121002197e-01 7.271509170532226562e+00 2.321522951126098633e+00 4.155847132205963135e-01
3.175000000000000000e+03 7.621626281738281250e+01 6.470699310302734375e+00 -1.838215887546539307e-01 7.703444480895996094e+00 2.255886793136596680e+00 -6.942133903503417969e-01
3.176000000000000000e+03 7.591146850585937500e+01 1.360755729675292969e+01 4.213922321796417236e-01 7.262674331665039062e+00 2.305219888687133789e+00 -5.334756374359130859e-01
3.177000000000000000e+03 7.411174774169921875e+01 -1.293754577636718750e+01 4.300834238529205322e-01 8.144347190856933594e+00 2.572329282760620117e+00 7.961225509643554688e-01
3.178000000000000000e+03 7.547597503662109375e+01 -1.350337147712707520e+00 -3.081570267677307129e-01 7.755694389343261719e+00 2.234261274337768555e+00 7.933564484119415283e-02
3.179000000000000000e+03 7.556133270263671875e+01 -1.436799144744873047e+01 5.020169019699096680e-01 7.579947948455810547e+00 2.424589395523071289e+00 5.914693474769592285e-01
3.180000000000000000e+03 7.683877563476562500e+01 -6.910834908485412598e-01 -1.763026267290115356e-01 8.055693626403808594e+00 2.363817214965820312e+00 1.667591556906700134e-02
3.181000000000000000e+03 7.615531158447265625e+01 -6.104624867439270020e-01 -2.434370517730712891e-01 7.901725769042968750e+00 2.297486543655395508e+00 6.939312908798456192e-03
3.182000000000000000e+03 7.612251281738281250e+01 -1.277088451385498047e+01 2.106780558824539185e-01 7.450957775115966797e+00 2.298490762710571289e+00 7.766551971435546875e-01
3.183000000000000000e+03 7.678656768798828125e+01 -1.198869514465332031e+01 8.484695851802825928e-02 7.296210289001464844e+00 2.214317083358764648e+00 7.681174278259277344e-01
3.184000000000000000e+03 7.604193115234375000e+01 -1.108599853515625000e+01 1.885562948882579803e-02 7.588922977447509766e+00 2.282333612442016602e+00 8.575270175933837891e-01
3.185000000000000000e+03 7.683650970458984375e+01 2.513273239135742188e+00 -1.813589930534362793e-01 7.990623474121093750e+00 2.342779397964477539e+00 -2.882743775844573975e-01
3.186000000000000000e+03 7.613961029052734375e+01 1.808345437049865723e+00 -2.500639557838439941e-01 7.878447055816650391e+00 2.288514852523803711e+00 -2.375251948833465576e-01
3.187000000000000000e+03 7.615337371826171875e+01 3.404006242752075195e+00 -2.493095546960830688e-01 7.843626022338867188e+00 2.278295040130615234e+00 -4.023425877094268799e-01
3.188000000000000000e+03 7.652791595458984375e+01 2.895440101623535156e+01 -1.856235563755035400e-01 7.581957340240478516e+00 2.218900203704833984e+00 1.871991157531738281e-01
3.189000000000000000e+03 7.682911682128906250e+01 -5.477034568786621094e+00 -1.754580438137054443e-01 7.906121253967285156e+00 2.319199085235595703e+00 4.584198892116546631e-01
3.190000000000000000e+03 7.613087463378906250e+01 -6.167676448822021484e+00 -2.343157380819320679e-01 7.816836357116699219e+00 2.274756193161010742e+00 5.559542775154113770e-01
3.191000000000000000e+03 7.616141510009765625e+01 -3.775668621063232422e+00 -2.385717034339904785e-01 7.874242305755615234e+00 2.290701150894165039e+00 3.169045150279998779e-01
3.192000000000000000e+03 7.614795684814453125e+01 -5.361588954925537109e+00 -2.407298833131790161e-01 7.841046810150146484e+00 2.280095100402832031e+00 4.729444086551666260e-01
3.193000000000000000e+03 7.615866851806640625e+01 -2.986860275268554688e+00 -2.384299337863922119e-01 7.886931896209716797e+00 2.294550657272338867e+00 2.442085444927215576e-01
3.194000000000000000e+03 7.686635589599609375e+01 7.192000389099121094e+00 -1.142956092953681946e-01 7.633646011352539062e+00 2.255805015563964844e+00 -6.910275816917419434e-01
3.195000000000000000e+03 7.620453643798828125e+01 5.727687835693359375e+00 -2.112400084733963013e-01 7.751920700073242188e+00 2.262204170227050781e+00 -6.372627615928649902e-01
3.196000000000000000e+03 7.599348449707031250e+01 8.797539710998535156e+00 -6.193517148494720459e-02 7.566815853118896484e+00 2.251464128494262695e+00 -8.507291674613952637e-01
3.197000000000000000e+03 7.613410186767578125e+01 7.986681938171386719e+00 -1.179890260100364685e-01 7.606863021850585938e+00 2.246662139892578125e+00 -8.037841320037841797e-01
3.198000000000000000e+03 7.681555175781250000e+01 -7.890596389770507812e+00 -1.427125185728073120e-01 7.725952625274658203e+00 2.274971961975097656e+00 6.601913571357727051e-01
3.199000000000000000e+03 7.612140655517578125e+01 -6.975409030914306641e+00 -2.210759073495864868e-01 7.789322853088378906e+00 2.270473957061767578e+00 6.270803809165954590e-01
3.200000000000000000e+03 7.566464996337890625e+01 -2.655080223083496094e+01 -3.043421208858489990e-01 8.425781250000000000e+00 2.436431884765625000e+00 -1.120740175247192383e+00
3.201000000000000000e+03 7.593342590332031250e+01 1.046774196624755859e+01 1.116511374711990356e-01 7.456759452819824219e+00 2.270523309707641602e+00 -8.490456342697143555e-01
3.202000000000000000e+03 7.599387359619140625e+01 -2.389311981201171875e+01 1.848843693733215332e-02 8.095363616943359375e+00 2.434155464172363281e+00 -1.279063820838928223e+00
3.203000000000000000e+03 7.615604400634765625e+01 -1.403817296028137207e+00 -2.390257865190505981e-01 7.899192333221435547e+00 2.298049926757812500e+00 8.838173747062683105e-02
3.204000000000000000e+03 7.551791381835937500e+01 5.802776336669921875e+00 -2.688946723937988281e-01 7.720148086547851562e+00 2.235375881195068359e+00 -6.652519702911376953e-01
3.205000000000000000e+03 7.610801696777343750e+01 -9.393839836120605469e+00 -1.187886893749237061e-01 7.685257434844970703e+00 2.269940614700317383e+00 8.163821697235107422e-01
3.206000000000000000e+03 7.614498138427734375e+01 1.002905488014221191e+00 -2.498026639223098755e-01 7.890540122985839844e+00 2.292221307754516602e+00 -1.577588617801666260e-01
3.207000000000000000e+03 7.601603698730468750e+01 1.205591678619384766e+01 2.623811364173889160e-01 7.317683696746826172e+00 2.274019479751586914e+00 -7.293853759765625000e-01
3.208000000000000000e+03 7.520145416259765625e+01 1.270679759979248047e+01 4.195519089698791504e-01 7.537927627563476562e+00 2.387243747711181641e+00 -6.948015689849853516e-01
3.209000000000000000e+03 1.293702602386474609e+01 4.722605228424072266e+00 1.827769796364009380e-03 -1.357499277219176292e-03 1.410811382811516523e-04 1.952793681994080544e-03
3.210000000000000000e+03 7.607522583007812500e+01 -1.758553314208984375e+01 6.500031352043151855e-01 7.350412845611572266e+00 2.400124788284301758e+00 -1.848724037408828735e-01
3.211000000000000000e+03 7.559742736816406250e+01 -1.513077354431152344e+01 5.940011143684387207e-01 7.545434474945068359e+00 2.441830635070800781e+00 4.397316277027130127e-01
3.212000000000000000e+03 7.662274932861328125e+01 -2.818984031677246094e+01 -2.503938674926757812e-01 8.618875503540039062e+00 2.510544538497924805e+00 -8.249642848968505859e-01
3.213000000000000000e+03 7.604043579101562500e+01 -2.964330863952636719e+01 -3.174047768115997314e-01 8.658714294433593750e+00 2.502392768859863281e+00 -6.745500564575195312e-01
3.214000000000000000e+03 7.588529968261718750e+01 1.991987800598144531e+01 3.174056708812713623e-01 7.255830764770507812e+00 2.271970987319946289e+00 6.953727602958679199e-01
3.215000000000000000e+03 7.563239288330078125e+01 1.785687828063964844e+01 5.933453440666198730e-01 7.271410942077636719e+00 2.359426975250244141e+00 3.244039714336395264e-01
3.216000000000000000e+03 3.942788362503051758e+00 -6.972026348114013672e+00 -3.578355908393859863e-02 -1.103499829769134521e-01 -4.384006187319755554e-02 -1.523634493350982666e-01
3.217000000000000000e+03 7.610684204101562500e+01 -3.262073516845703125e+01 -2.233652323484420776e-01 8.744967460632324219e+00 2.556480646133422852e+00 -3.120660781860351562e-01
3.218000000000000000e+03 3.967632293701171875e+00 2.219528007507324219e+01 -1.439355127513408661e-02 -3.367618471384048462e-02 -1.442092098295688629e-02 4.399032890796661377e-02
3.219000000000000000e+03 7.580965423583984375e+01 -2.745866012573242188e+01 -3.411837816238403320e-01 8.491757392883300781e+00 2.445172071456909180e+00 -9.930429458618164062e-01
3.220000000000000000e+03 7.593257141113281250e+01 -3.433858108520507812e+01 -1.694954037666320801e-01 8.649170875549316406e+00 2.543902635574340820e+00 -1.694379597902297974e-01
3.221000000000000000e+03 4.732156276702880859e+00 3.094334602355957031e+01 2.601875690743327141e-03 -1.208972707390785217e-01 -3.548861667513847351e-02 8.323595672845840454e-02
3.222000000000000000e+03 3.762068271636962891e+00 3.202892684936523438e+01 3.337773494422435760e-03 -1.578162908554077148e-01 -4.634355753660202026e-02 7.062568515539169312e-02
3.223000000000000000e+03 4.407872772216796875e+01 -1.622784423828125000e+01 1.064692497253417969e+00 1.013995647430419922e+01 3.361394643783569336e+00 1.017626643180847168e+00
3.224000000000000000e+03 7.638019561767578125e+01 1.947004699707031250e+01 2.864209413528442383e-01 7.101511001586914062e+00 2.216379642486572266e+00 5.860454440116882324e-01
3.225000000000000000e+03 4.025718212127685547e+00 -6.183228015899658203e+00 -4.248226061463356018e-02 -9.006223082542419434e-02 -3.976335003972053528e-02 -1.414863914251327515e-01
3.226000000000000000e+03 3.311127185821533203e+00 -6.055476188659667969e+00 -3.119698353111743927e-02 -1.008235216140747070e-01 -3.960615396499633789e-02 -1.222129389643669128e-01
3.227000000000000000e+03 3.153144359588623047e+00 1.497644901275634766e+01 -4.224022850394248962e-03 -8.785019745118916035e-04 -1.530757406726479530e-03 4.652662202715873718e-03
3.228000000000000000e+03 3.839104890823364258e+00 1.565555763244628906e+01 -7.101600524038076401e-03 -3.353386418893933296e-03 -3.136496059596538544e-03 7.888058200478553772e-03
3.229000000000000000e+03 3.125800132751464844e+00 -9.217247962951660156e+00 -1.425815559923648834e-02 -2.012551873922348022e-01 -6.465400010347366333e-02 -1.543227434158325195e-01
3.230000000000000000e+03 3.151743412017822266e+00 1.417139244079589844e+01 -3.712646663188934326e-03 2.727944229263812304e-04 -1.031955587677657604e-03 2.603134606033563614e-03
3.231000000000000000e+03 3.833971023559570312e+00 1.485133171081542969e+01 -6.266497541218996048e-03 -2.025519963353872299e-03 -2.487605204805731773e-03 5.118665285408496857e-03
3.232000000000000000e+03 3.961647510528564453e+00 -1.536124038696289062e+01 2.181643806397914886e-02 -3.271437883377075195e-01 -9.159820526838302612e-02 -1.830252557992935181e-01
3.233000000000000000e+03 3.727708101272583008e+00 -1.227191925048828125e+01 -1.936581218615174294e-03 -2.638396620750427246e-01 -7.973287254571914673e-02 -1.872808486223220825e-01
3.234000000000000000e+03 5.820232391357421875e+00 -1.727283668518066406e+01 7.132065296173095703e-02 -1.651110053062438965e-01 -2.813710458576679230e-02 -1.948790103197097778e-01
3.235000000000000000e+03 3.285076141357421875e+00 -1.713061714172363281e+01 2.835908159613609314e-02 -4.532284438610076904e-01 -1.274608075618743896e-01 -1.425415575504302979e-01
3.236000000000000000e+03 3.872468471527099609e+00 1.727224731445312500e+01 -9.699358604848384857e-03 -7.158131338655948639e-03 -5.057246889919042587e-03 1.448260527104139328e-02
3.237000000000000000e+03 3.085852861404418945e+00 -1.075451564788818359e+01 -7.742074318230152130e-03 -2.558204233646392822e-01 -7.906875014305114746e-02 -1.626398563385009766e-01
3.238000000000000000e+03 3.887692928314208984e+00 -7.749250411987304688e+00 -2.998762018978595734e-02 -1.312626451253890991e-01 -4.837508127093315125e-02 -1.618041992187500000e-01
3.239000000000000000e+03 4.494698047637939453e+00 -1.012202072143554688e+01 -1.906619593501091003e-02 -1.634872108697891235e-01 -5.476602166891098022e-02 -1.995921730995178223e-01
3.240000000000000000e+03 3.735787391662597656e+00 -1.153212070465087891e+01 -5.980067420750856400e-03 -2.419383525848388672e-01 -7.437552511692047119e-02 -1.865798979997634888e-01
3.241000000000000000e+03 3.121285438537597656e+00 -1.383328533172607422e+01 5.990053992718458176e-03 -3.615903258323669434e-01 -1.066800802946090698e-01 -1.659937500953674316e-01
3.242000000000000000e+03 3.794018268585205078e+00 -1.377440643310546875e+01 7.206004578620195389e-03 -3.017466366291046143e-01 -8.836218714714050293e-02 -1.877637952566146851e-01
3.243000000000000000e+03 3.864417314529418945e+00 -1.454923629760742188e+01 1.397953275591135025e-02 -3.169466257095336914e-01 -9.089012444019317627e-02 -1.856995522975921631e-01
3.244000000000000000e+03 3.204954624176025391e+00 1.902129554748535156e+01 -8.800824172794818878e-03 -1.402228418737649918e-02 -6.846932694315910339e-03 1.999456994235515594e-02
3.245000000000000000e+03 3.945607185363769531e+00 1.972193717956542969e+01 -1.352864596992731094e-02 -1.702035777270793915e-02 -9.164701215922832489e-03 2.772016450762748718e-02
3.246000000000000000e+03 3.163168907165527344e+00 1.096501445770263672e+01 -1.249950961209833622e-03 2.015886828303337097e-03 2.297807513969019055e-04 -1.628966885618865490e-03
3.247000000000000000e+03 3.855181932449340820e+00 1.245417594909667969e+01 -2.836889121681451797e-03 -1.291852822760120034e-05 -8.549423073418438435e-04 2.735382877290248871e-04
3.248000000000000000e+03 3.849686145782470703e+00 -8.519757270812988281e+00 -2.462755516171455383e-02 -1.525607258081436157e-01 -5.315648391842842102e-02 -1.696251481771469116e-01
3.249000000000000000e+03 3.104456901550292969e+00 -9.988741874694824219e+00 -1.143707521259784698e-02 -2.278564125299453735e-01 -7.178805023431777954e-02 -1.592539250850677490e-01
3.250000000000000000e+03 4.635310649871826172e+00 8.405461311340332031e+00 -1.980085507966578007e-04 -2.814166946336627007e-04 -1.438275794498622417e-04 -2.494486281648278236e-03
3.251000000000000000e+03 3.163686990737915039e+00 -2.438409233093261719e+01 2.858859114348888397e-02 -5.989658832550048828e-01 -1.711131930351257324e-01 5.451567936688661575e-03
3.252000000000000000e+03 3.835186481475830078e+00 -2.440981674194335938e+01 3.931445628404617310e-02 -5.120625495910644531e-01 -1.418244242668151855e-01 2.933282870799303055e-03
3.253000000000000000e+03 4.473968029022216797e+00 -2.569407844543457031e+01 3.811683505773544312e-02 -4.361764788627624512e-01 -1.194178983569145203e-01 2.284303307533264160e-02
3.254000000000000000e+03 3.973945617675781250e+00 -2.126558876037597656e+01 6.127197295427322388e-02 -4.621583521366119385e-01 -1.202659159898757935e-01 -6.993935257196426392e-02
3.255000000000000000e+03 3.895730018615722656e+00 8.487304687500000000e+00 -3.296478244010359049e-04 6.793964421376585960e-04 1.049245838657952845e-04 -2.647204790264368057e-03
3.256000000000000000e+03 4.685705661773681641e+00 1.960059356689453125e+01 -1.798695512115955353e-02 -1.439336966723203659e-02 -9.714097715914249420e-03 3.075389750301837921e-02
3.257000000000000000e+03 6.186106681823730469e+00 -1.919196510314941406e+01 1.107159033417701721e-01 -1.385909616947174072e-01 -8.362516760826110840e-03 -1.617196947336196899e-01
3.258000000000000000e+03 3.899068832397460938e+00 1.808546638488769531e+01 -1.134347543120384216e-02 -9.823233820497989655e-03 -6.350012961775064468e-03 1.826932840049266815e-02
3.259000000000000000e+03 3.977161884307861328e+00 -2.045692825317382812e+01 6.046325713396072388e-02 -4.479174315929412842e-01 -1.162362545728683472e-01 -9.117145091295242310e-02
3.260000000000000000e+03 3.956963777542114258e+00 -1.965944671630859375e+01 5.772928893566131592e-02 -4.361275136470794678e-01 -1.135194674134254456e-01 -1.103226318955421448e-01
3.261000000000000000e+03 7.508806610107421875e+01 -2.764897155761718750e+01 -4.401858150959014893e-01 8.459461212158203125e+00 2.405782461166381836e+00 -9.907967448234558105e-01
3.262000000000000000e+03 3.846037864685058594e+00 1.325309085845947266e+01 -4.072352778166532516e-03 -4.421003977768123150e-04 -1.354335923679172993e-03 1.418668194673955441e-03
3.263000000000000000e+03 3.910399913787841797e+00 7.716496467590332031e+00 1.557971263537183404e-04 7.345963385887444019e-04 2.671180409379303455e-04 -2.621738472953438759e-03
3.264000000000000000e+03 3.186189889907836914e+00 7.032364368438720703e+00 3.040573501493781805e-04 1.584289362654089928e-03 5.665040225721895695e-04 -2.521365415304899216e-03
3.265000000000000000e+03 3.364568233489990234e+00 2.631595611572265625e+01 -6.808221340179443359e-03 -8.397343754768371582e-02 -2.723449654877185822e-02 5.960296466946601868e-02
3.266000000000000000e+03 5.754169940948486328e+00 -2.949924087524414062e+01 2.168498001992702484e-03 -3.071951866149902344e-01 -9.150800108909606934e-02 3.813213482499122620e-02
3.267000000000000000e+03 3.877568483352661133e+00 1.006043243408203125e+01 -1.153549063019454479e-03 6.369606126099824905e-04 -1.549765438539907336e-04 -2.121070399880409241e-03
3.268000000000000000e+03 3.870744228363037109e+00 1.085750770568847656e+01 -1.436742837540805340e-03 5.408687284216284752e-04 -2.687622327357530594e-04 -1.489694113843142986e-03
3.269000000000000000e+03 3.851752758026123047e+00 1.646289253234863281e+01 -8.789375424385070801e-03 -4.991486668586730957e-03 -4.134258721023797989e-03 1.068751700222492218e-02
3.270000000000000000e+03 3.788843154907226562e+00 -3.390545272827148438e+01 -1.585011743009090424e-02 -5.192453861236572266e-01 -1.605286449193954468e-01 3.213548287749290466e-02
3.271000000000000000e+03 4.291064739227294922e+00 -3.336852264404296875e+01 -1.723779365420341492e-02 -4.739218354225158691e-01 -1.473478823900222778e-01 3.485167026519775391e-02
3.272000000000000000e+03 3.321330547332763672e+00 2.550943565368652344e+01 -8.188253268599510193e-03 -7.337144017219543457e-02 -2.446790784597396851e-02 5.542936921119689941e-02
3.273000000000000000e+03 4.172632217407226562e+00 2.703736495971679688e+01 -8.083660155534744263e-03 -8.408993482589721680e-02 -2.765207923948764801e-02 7.293596863746643066e-02
3.274000000000000000e+03 4.371803760528564453e+00 2.867925643920898438e+01 -3.956091124564409256e-03 -1.027628704905509949e-01 -3.201568871736526489e-02 7.920200377702713013e-02
3.275000000000000000e+03 4.762749862670898438e+01 -3.930897265672683716e-02 2.037783861160278320e+00 8.705470085144042969e+00 3.222975969314575195e+00 -1.091400623321533203e+00
3.276000000000000000e+03 4.707030868530273438e+01 -3.354543745517730713e-01 1.939876556396484375e+00 9.109704017639160156e+00 3.314874410629272461e+00 -7.182601690292358398e-01
3.277000000000000000e+03 4.788379287719726562e+01 -3.017170906066894531e+01 -6.286557316780090332e-01 4.248399734497070312e+00 1.085923194885253906e+00 -1.282259821891784668e+00
3.278000000000000000e+03 4.180575847625732422e+00 -2.729535102844238281e+01 1.623927615582942963e-02 -4.797385632991790771e-01 -1.390497833490371704e-01 3.733683750033378601e-02
3.279000000000000000e+03 4.009281635284423828e+00 -2.653774452209472656e+01 2.240696363151073456e-02 -4.942030608654022217e-01 -1.415388286113739014e-01 3.207671269774436951e-02
3.280000000000000000e+03 5.475516319274902344e+00 -3.306236267089843750e+01 -1.957366801798343658e-02 -3.673110306262969971e-01 -1.160654127597808838e-01 3.364459425210952759e-02
3.281000000000000000e+03 4.230567932128906250e+00 3.326130294799804688e+01 8.850933983922004700e-03 -1.602070182561874390e-01 -4.540682211518287659e-02 7.268596440553665161e-02
3.282000000000000000e+03 3.447767496109008789e+00 3.273757934570312500e+01 5.787286907434463501e-03 -1.755505800247192383e-01 -5.092898756265640259e-02 6.466054171323776245e-02
3.283000000000000000e+03 3.983383417129516602e+00 3.141637611389160156e+01 4.075900185853242874e-03 -1.413231492042541504e-01 -4.117417708039283752e-02 7.533150166273117065e-02
3.284000000000000000e+03 3.936460876464843750e+01 -2.121929550170898438e+01 1.162360191345214844e+00 6.482326507568359375e+00 2.293406009674072266e+00 1.286477446556091309e+00
3.285000000000000000e+03 4.696867942810058594e+00 2.377368164062500000e+01 -1.826548390090465546e-02 -4.247130081057548523e-02 -1.822103559970855713e-02 6.069315969944000244e-02
3.286000000000000000e+03 4.330716133117675781e+00 -2.811080169677734375e+01 1.210102532058954239e-02 -4.614674746990203857e-01 -1.348099410533905029e-01 4.396342113614082336e-02
3.287000000000000000e+03 7.382050323486328125e+01 -3.631984329223632812e+01 -1.826231628656387329e-01 7.772819995880126953e+00 2.277059078216552734e+00 4.212986305356025696e-02
3.288000000000000000e+03 7.593750000000000000e+01 -3.526904296875000000e+01 -1.163863539695739746e-01 8.651240348815917969e+00 2.560456037521362305e+00 -1.221378371119499207e-01
3.289000000000000000e+03 7.579752349853515625e+01 2.819325447082519531e+01 -2.792592942714691162e-01 7.520881175994873047e+00 2.172486543655395508e+00 2.476547509431838989e-01
3.290000000000000000e+03 7.584310913085937500e+01 2.740773200988769531e+01 -2.867647707462310791e-01 7.551892757415771484e+00 2.179538488388061523e+00 3.417385816574096680e-01
3.291000000000000000e+03 3.984004735946655273e+00 2.382484436035156250e+01 -1.337249763309955597e-02 -4.870758578181266785e-02 -1.862402632832527161e-02 5.452623963356018066e-02
3.292000000000000000e+03 4.008029937744140625e+00 2.463016700744628906e+01 -1.292679551988840103e-02 -5.667602643370628357e-02 -2.088084630668163300e-02 5.918947607278823853e-02
3.293000000000000000e+03 4.609269332885742188e+01 1.065307331085205078e+01 1.001553297042846680e+00 1.143709659576416016e+01 3.731594800949096680e+00 1.437243580818176270e+00
3.294000000000000000e+03 7.615127563476562500e+01 3.629338455200195312e+01 -2.118468843400478363e-02 7.336650848388671875e+00 2.194639682769775391e+00 -1.024378985166549683e-01
3.295000000000000000e+03 7.492740631103515625e+01 3.509609603881835938e+01 -3.483162820339202881e-02 6.989829540252685547e+00 2.086499452590942383e+00 -1.238350495696067810e-01
3.296000000000000000e+03 7.582125854492187500e+01 2.500779151916503906e+01 -2.657505571842193604e-01 7.556741237640380859e+00 2.187297344207763672e+00 6.143018603324890137e-01
3.297000000000000000e+03 4.419242382049560547e+00 -3.462937545776367188e+01 -1.695691980421543121e-02 -4.658589065074920654e-01 -1.448447555303573608e-01 2.956015989184379578e-02
3.298000000000000000e+03 4.914753437042236328e+00 -3.181475067138671875e+01 -1.336155738681554794e-02 -4.154681563377380371e-01 -1.286489218473434448e-01 3.968056291341781616e-02
3.299000000000000000e+03 4.761421203613281250e+01 1.775795364379882812e+01 7.967928647994995117e-01 7.835788249969482422e+00 2.589774370193481445e+00 1.328854560852050781e+00
3.300000000000000000e+03 4.001663208007812500e+01 1.660627555847167969e+01 6.470883488655090332e-01 4.781398773193359375e+00 1.628546118736267090e+00 -1.688639879226684570e+00
3.301000000000000000e+03 1.625764274597167969e+01 -7.440383911132812500e+00 -1.485170423984527588e-01 9.941729158163070679e-02 -1.472992543131113052e-02 -1.573467403650283813e-01
3.302000000000000000e+03 1.798629570007324219e+01 -6.094459056854248047e+00 -3.098601996898651123e-01 6.934084743261337280e-02 -7.215581089258193970e-02 -8.984399586915969849e-02
3.303000000000000000e+03 1.324407196044921875e+01 -2.938913726806640625e+01 2.961911074817180634e-02 3.110866546630859375e-01 1.022117286920547485e-01 -1.577199548482894897e-01
3.304000000000000000e+03 1.277204227447509766e+01 -2.865645408630371094e+01 4.712896421551704407e-02 3.201021254062652588e-01 1.101693212985992432e-01 -1.524093747138977051e-01
3.305000000000000000e+03 4.358410835266113281e+00 3.515274047851562500e+01 1.511689461767673492e-02 -1.769510954618453979e-01 -4.855025932192802429e-02 6.164412945508956909e-02
3.306000000000000000e+03 6.764627075195312500e+01 8.745859146118164062e+00 -7.876763492822647095e-02 6.724150657653808594e+00 1.993614912033081055e+00 1.155517816543579102e+00
3.307000000000000000e+03 7.526790618896484375e+01 -3.210079574584960938e+01 -3.387600481510162354e-01 8.462131500244140625e+00 2.437011480331420898e+00 -3.711286783218383789e-01
3.308000000000000000e+03 4.649364089965820312e+01 1.223362064361572266e+01 8.680908679962158203e-01 1.057176685333251953e+01 3.431957244873046875e+00 1.619604349136352539e+00
3.309000000000000000e+03 4.673356246948242188e+01 1.303220558166503906e+01 8.633348941802978516e-01 1.013791751861572266e+01 3.300375699996948242e+00 1.681133985519409180e+00
3.310000000000000000e+03 7.159986972808837891e+00 -3.518062591552734375e+01 -2.788840793073177338e-02 -2.422887682914733887e-01 -8.105315268039703369e-02 3.391263540834188461e-03
3.311000000000000000e+03 5.243003082275390625e+01 2.366407394409179688e+01 -5.105526447296142578e-01 4.465231895446777344e+00 1.186403751373291016e+00 1.909380197525024414e+00
3.312000000000000000e+03 2.472430419921875000e+01 -7.998247146606445312e+00 -3.702670037746429443e-01 9.098642319440841675e-02 -8.378417789936065674e-02 -1.835602521896362305e-01
3.313000000000000000e+03 1.843552207946777344e+01 -7.089124679565429688e+00 -2.156428396701812744e-01 9.327809512615203857e-02 -3.670942410826683044e-02 -1.013911813497543335e-01
3.314000000000000000e+03 6.530628204345703125e+01 4.301080226898193359e+00 -3.600429296493530273e-01 3.388932943344116211e+00 9.086670279502868652e-01 7.116805315017700195e-01
3.315000000000000000e+03 6.477751922607421875e+01 4.763278484344482422e+00 -2.833805084228515625e-01 2.869611263275146484e+00 7.758692502975463867e-01 7.487138509750366211e-01
3.316000000000000000e+03 1.165517330169677734e+01 -2.671382522583007812e+01 1.000243723392486572e-01 3.509775996208190918e-01 1.353005915880203247e-01 -1.420618593692779541e-01
3.317000000000000000e+03 1.204513931274414062e+01 -2.725855064392089844e+01 8.378373831510543823e-02 3.496527671813964844e-01 1.300309598445892334e-01 -1.494746953248977661e-01
3.318000000000000000e+03 5.334211349487304688e+01 -1.921673655509948730e+00 2.567006587982177734e+00 3.033520281314849854e-01 8.611075282096862793e-01 -9.373292922973632812e-01
3.319000000000000000e+03 7.010261535644531250e+01 -2.497656440734863281e+01 -8.492017984390258789e-01 8.673313140869140625e+00 2.347233533859252930e+00 -3.773736357688903809e-01
3.320000000000000000e+03 6.900839996337890625e+01 -2.469483757019042969e+01 -8.531971573829650879e-01 8.381116867065429688e+00 2.258375883102416992e+00 2.546975612640380859e-01
3.321000000000000000e+03 3.617064666748046875e+01 -1.410580444335937500e+01 4.773251116275787354e-01 2.844632148742675781e+00 9.965871572494506836e-01 -1.679748743772506714e-01
3.322000000000000000e+03 3.807008361816406250e+01 1.928300285339355469e+01 4.141663610935211182e-01 3.201088428497314453e+00 1.084576487541198730e+00 -1.399604082107543945e+00
3.323000000000000000e+03 3.386402511596679688e+01 -1.404934978485107422e+01 8.329478502273559570e-01 8.449528217315673828e-01 5.033702254295349121e-01 -2.037856578826904297e-01
3.324000000000000000e+03 3.299569320678710938e+01 -8.073285102844238281e+00 -4.168824553489685059e-01 7.063841819763183594e-02 -1.038732081651687622e-01 1.185071095824241638e-02
3.325000000000000000e+03 2.579836082458496094e+01 -1.177234935760498047e+01 4.004855453968048096e-01 -1.635316014289855957e-02 1.152397170662879944e-01 -2.389769256114959717e-01
3.326000000000000000e+03 2.503585052490234375e+01 -1.172721099853515625e+01 3.742271065711975098e-01 -5.456340033560991287e-03 1.106312274932861328e-01 -2.413079291582107544e-01
3.327000000000000000e+03 4.732949256896972656e+00 -6.336809635162353516e+00 -5.386289581656455994e-02 -7.714022696018218994e-02 -3.930093720555305481e-02 -1.590479016304016113e-01
3.328000000000000000e+03 6.571812152862548828e+00 -5.521260261535644531e+00 -9.921482950448989868e-02 -2.637373097240924835e-02 -3.767656907439231873e-02 -1.684653908014297485e-01
3.329000000000000000e+03 4.345928573608398438e+01 1.278629302978515625e+01 6.399909853935241699e-01 9.705669403076171875e+00 3.103698015213012695e+00 -5.320417284965515137e-01
3.330000000000000000e+03 4.948928451538085938e+01 -2.088348150253295898e+00 1.788353681564331055e+00 4.761117935180664062e+00 1.964841485023498535e+00 -9.419047832489013672e-01
3.331000000000000000e+03 7.056011962890625000e+01 1.947285652160644531e+01 1.571778535842895508e+00 9.567416191101074219e+00 3.341758489608764648e+00 2.612706720829010010e-01
3.332000000000000000e+03 7.005094146728515625e+01 2.215107154846191406e+01 -5.713915228843688965e-01 8.742113113403320312e+00 2.451216459274291992e+00 4.910912737250328064e-02
3.333000000000000000e+03 9.043529510498046875e+00 -5.224576950073242188e+00 -1.626775115728378296e-01 2.082019671797752380e-02 -4.255719482898712158e-02 -1.744055449962615967e-01
3.334000000000000000e+03 2.826534652709960938e+01 -9.140666007995605469e+00 -1.512804329395294189e-01 -1.770597696304321289e-01 -9.850206226110458374e-02 -3.131453990936279297e-01
3.335000000000000000e+03 7.069138336181640625e+01 -2.074366950988769531e+01 1.569936633110046387e+00 1.054615402221679688e+01 3.634827375411987305e+00 -6.501617431640625000e-01
3.336000000000000000e+03 7.121001434326171875e+01 -1.963686943054199219e+01 1.701930403709411621e+00 1.044455623626708984e+01 3.643945932388305664e+00 -6.485562920570373535e-01
3.337000000000000000e+03 1.959330940246582031e+01 -6.953080177307128906e+00 -2.582740187644958496e-01 8.409146964550018311e-02 -5.225476995110511780e-02 -7.272586971521377563e-02
3.338000000000000000e+03 1.931560897827148438e+01 -5.896190166473388672e+00 -3.558206260204315186e-01 5.868788063526153564e-02 -8.913982659578323364e-02 -5.061397328972816467e-02
3.339000000000000000e+03 4.399580001831054688e+01 -1.708073043823242188e+01 1.055369853973388672e+00 1.023338222503662109e+01 3.386625766754150391e+00 9.504802227020263672e-01
3.340000000000000000e+03 1.523511600494384766e+01 1.474284553527832031e+01 -1.596082001924514771e-02 -6.153806112706661224e-03 -6.634387653321027756e-03 -9.750484488904476166e-03
3.341000000000000000e+03 5.472216796875000000e+01 -2.420870304107666016e+00 1.938676118850708008e+00 -2.227076590061187744e-01 5.147905349731445312e-01 -1.066838264465332031e+00
3.342000000000000000e+03 5.669228363037109375e+01 -1.867972016334533691e+00 1.629983186721801758e+00 -4.100167751312255859e-01 3.659899234771728516e-01 -8.763020634651184082e-01
3.343000000000000000e+03 6.412213897705078125e+01 -9.369564056396484375e+00 4.933620691299438477e-01 2.399117231369018555e+00 8.677437901496887207e-01 -1.562438130378723145e+00
3.344000000000000000e+03 1.052226257324218750e+01 4.377614021301269531e+00 2.044077264145016670e-03 -1.600721385329961777e-03 1.330067752860486507e-04 5.105925956740975380e-04
3.345000000000000000e+03 8.822317123413085938e+00 5.217967510223388672e+00 1.281310804188251495e-03 -2.104874933138489723e-03 -2.470691979397088289e-04 -8.948472677730023861e-04
3.346000000000000000e+03 4.499577713012695312e+01 3.077605724334716797e+00 2.133518218994140625e+00 1.372645568847656250e+01 4.757992267608642578e+00 4.723316729068756104e-01
3.347000000000000000e+03 4.611742782592773438e+01 3.988291740417480469e+00 1.928079724311828613e+00 1.302168369293212891e+01 4.484929084777832031e+00 -2.581872045993804932e-01
3.348000000000000000e+03 3.959236907958984375e+01 -2.052471733093261719e+01 1.146991848945617676e+00 6.568722248077392578e+00 2.314714193344116211e+00 1.149970769882202148e+00
3.349000000000000000e+03 4.058069229125976562e+01 1.487460613250732422e+01 8.891975283622741699e-01 5.730406761169433594e+00 1.985881209373474121e+00 -1.958199977874755859e+00
3.350000000000000000e+03 5.779772567749023438e+01 -7.505808830261230469e+00 -4.663781523704528809e-01 1.974732577800750732e-01 -8.067147433757781982e-02 -5.506536364555358887e-01
3.351000000000000000e+03 5.725398635864257812e+01 -5.140703678131103516e+00 3.933059275150299072e-01 -2.806079573929309845e-02 1.095735430717468262e-01 -1.133197546005249023e+00
3.352000000000000000e+03 3.861759948730468750e+01 -1.760087394714355469e+01 6.491675376892089844e-01 5.638898849487304688e+00 1.886419892311096191e+00 4.767976105213165283e-01
3.353000000000000000e+03 3.556121826171875000e+01 2.036600303649902344e+01 3.735600411891937256e-01 1.918035030364990234e+00 6.874785423278808594e-01 -1.119530558586120605e+00
3.354000000000000000e+03 4.184352874755859375e+01 1.465942478179931641e+01 6.193753480911254883e-01 7.117755889892578125e+00 2.321139335632324219e+00 -1.460129261016845703e+00
3.355000000000000000e+03 6.350394439697265625e+01 2.710363388061523438e+00 -6.251399964094161987e-02 2.024706363677978516e+00 5.886576771736145020e-01 3.824524283409118652e-01
3.356000000000000000e+03 6.410275268554687500e+01 3.230486392974853516e+00 -1.689431369304656982e-01 2.433025121688842773e+00 6.792245507240295410e-01 5.003790259361267090e-01
3.357000000000000000e+03 7.180458545684814453e+00 -5.362006664276123047e+00 -1.152768507599830627e-01 -1.275228336453437805e-02 -3.840874135494232178e-02 -1.693057715892791748e-01
3.358000000000000000e+03 7.800870895385742188e+00 -5.266844749450683594e+00 -1.316796392202377319e-01 -2.329873859707731754e-05 -3.951088339090347290e-02 -1.719143688678741455e-01
3.359000000000000000e+03 4.632328033447265625e+01 -9.302668571472167969e+00 -2.254388093948364258e+00 8.710347175598144531e+00 1.936787605285644531e+00 6.613311171531677246e-01
3.360000000000000000e+03 5.878061294555664062e+01 2.631899642944335938e+01 -1.020115539431571960e-01 1.045614480972290039e+00 2.830808758735656738e-01 8.727605342864990234e-01
3.361000000000000000e+03 1.447058105468750000e+01 -1.077747154235839844e+01 2.031952589750289917e-01 8.898810297250747681e-02 8.765500783920288086e-02 -1.305874437093734741e-01
3.362000000000000000e+03 2.156055831909179688e+01 -8.886941909790039062e+00 -6.702853739261627197e-02 8.333978056907653809e-02 4.893372301012277603e-03 -1.389887779951095581e-01
3.363000000000000000e+03 6.782015991210937500e+01 -2.686996459960937500e+01 -1.156611561775207520e+00 6.188384056091308594e+00 1.509531736373901367e+00 6.983467936515808105e-01
3.364000000000000000e+03 6.458858489990234375e+01 2.560712814331054688e+01 -4.578289985656738281e-01 2.389022827148437500e+00 5.793581604957580566e-01 -1.381079316139221191e+00
3.365000000000000000e+03 3.635453414916992188e+01 2.309355735778808594e+01 2.315877936780452728e-02 2.493697881698608398e+00 7.550569772720336914e-01 -1.079815983772277832e+00
3.366000000000000000e+03 1.547449588775634766e+01 1.118304061889648438e+01 -5.346944672055542469e-04 -1.490777940489351749e-03 -6.076417630538344383e-04 2.477761590853333473e-03
3.367000000000000000e+03 4.550924682617187500e+01 1.614141464233398438e+01 5.226902961730957031e-01 8.196035385131835938e+00 2.615617513656616211e+00 5.830118656158447266e-01
3.368000000000000000e+03 3.024779701232910156e+01 -8.891421318054199219e+00 -1.949833482503890991e-01 -2.951758205890655518e-01 -1.470477432012557983e-01 -2.577057480812072754e-01
3.369000000000000000e+03 2.815292739868164062e+01 -1.025974750518798828e+01 1.601917445659637451e-01 -1.571050584316253662e-01 9.260077495127916336e-04 -2.672103047370910645e-01
3.370000000000000000e+03 1.125063991546630859e+01 -2.624123573303222656e+01 1.161379218101501465e-01 3.503892719745635986e-01 1.399581581354141235e-01 -1.285124570131301880e-01
3.371000000000000000e+03 3.933725357055664062e+01 -2.200873184204101562e+01 1.260650396347045898e+00 6.464089393615722656e+00 2.317421913146972656e+00 1.439793944358825684e+00
3.372000000000000000e+03 3.847436904907226562e+01 -2.368645668029785156e+01 1.454671263694763184e+00 6.240537643432617188e+00 2.308562517166137695e+00 1.670215368270874023e+00
3.373000000000000000e+03 4.605409622192382812e+01 -1.082907295227050781e+01 -1.164202690124511719e+00 9.173810005187988281e+00 2.402882337570190430e+00 6.604261994361877441e-01
3.374000000000000000e+03 4.560558700561523438e+01 -9.990353584289550781e+00 -1.863199353218078613e+00 9.155849456787109375e+00 2.187795162200927734e+00 5.199131965637207031e-01
3.375000000000000000e+03 6.723789215087890625e+01 -2.733614921569824219e+01 -1.100976824760437012e+00 5.514260292053222656e+00 1.323984980583190918e+00 7.939540743827819824e-01
3.376000000000000000e+03 3.687620162963867188e+01 2.036061096191406250e+01 3.426757454872131348e-01 2.581236362457275391e+00 8.771736025810241699e-01 -1.263291835784912109e+00
3.377000000000000000e+03 4.323309707641601562e+01 -1.877684593200683594e+01 1.240089535713195801e+00 9.354692459106445312e+00 3.178434610366821289e+00 7.716239094734191895e-01
3.378000000000000000e+03 1.364842033386230469e+01 -3.014992332458496094e+01 1.357903331518173218e-02 3.013689815998077393e-01 9.448440372943878174e-02 -1.615813970565795898e-01
3.379000000000000000e+03 1.451925277709960938e+01 -2.972109222412109375e+01 3.542331978678703308e-02 3.304621875286102295e-01 1.097656488418579102e-01 -1.892117559909820557e-01
3.380000000000000000e+03 7.048168182373046875e+01 1.458226299285888672e+01 1.327323675155639648e+00 1.043458271026611328e+01 3.528571844100952148e+00 -9.499228559434413910e-03
3.381000000000000000e+03 7.069081115722656250e+01 1.558348846435546875e+01 1.335939526557922363e+00 1.061905193328857422e+01 3.586497545242309570e+00 6.502272188663482666e-02
3.382000000000000000e+03 1.620079040527343750e+01 7.267872333526611328e+00 -7.606550352647900581e-04 1.278156647458672523e-03 1.552504836581647396e-04 3.166777780279517174e-03
3.383000000000000000e+03 1.685584831237792969e+01 7.215604305267333984e+00 8.719755569472908974e-04 2.154840156435966492e-03 9.080446907319128513e-04 2.963868435472249985e-03
3.384000000000000000e+03 6.470405578613281250e+01 3.759897947311401367e+00 -2.693185806274414062e-01 2.880509376525878906e+00 7.833572030067443848e-01 6.158229112625122070e-01
3.385000000000000000e+03 1.606514739990234375e+01 1.209906959533691406e+01 -5.600864533334970474e-04 -2.494215150363743305e-04 -2.428523876005783677e-04 1.702743698842823505e-03
3.386000000000000000e+03 1.537032032012939453e+01 1.206316661834716797e+01 -4.058661870658397675e-03 -2.712702611461281776e-03 -2.031409181654453278e-03 3.591650165617465973e-04
3.387000000000000000e+03 8.560553550720214844e+00 -1.615328025817871094e+01 6.876786053180694580e-02 1.660968810319900513e-01 7.045941799879074097e-02 -1.960597932338714600e-01
3.388000000000000000e+03 9.117755889892578125e+00 -1.662144279479980469e+01 8.228612691164016724e-02 2.504304945468902588e-01 9.981498122215270996e-02 -1.789427399635314941e-01
3.389000000000000000e+03 7.035678100585937500e+01 -1.570904064178466797e+01 2.008754014968872070e+00 1.096319866180419922e+01 3.891585826873779297e+00 -4.756760597229003906e-01
3.390000000000000000e+03 6.951839447021484375e+01 -1.509619617462158203e+01 2.021955966949462891e+00 1.151920318603515625e+01 4.062347888946533203e+00 -9.208089709281921387e-01
3.391000000000000000e+03 6.675391387939453125e+01 -2.677076148986816406e+01 -9.616652727127075195e-01 4.990876674652099609e+00 1.208763360977172852e+00 9.306717514991760254e-01
3.392000000000000000e+03 6.673998260498046875e+01 -2.779391670227050781e+01 -1.115214943885803223e+00 4.827130794525146484e+00 1.113574743270874023e+00 8.210690617561340332e-01
3.393000000000000000e+03 1.524875926971435547e+01 1.385004997253417969e+01 -1.145592611283063889e-02 -5.212540272623300552e-03 -5.000540055334568024e-03 -5.548900924623012543e-03
3.394000000000000000e+03 3.749056625366210938e+01 1.984039115905761719e+01 3.626394867897033691e-01 2.851999521255493164e+00 9.643917083740234375e-01 -1.334949374198913574e+00
3.395000000000000000e+03 4.346788787841796875e+01 -1.536097526550292969e+01 9.077248573303222656e-01 9.257326126098632812e+00 3.049515247344970703e+00 7.919128537178039551e-01
3.396000000000000000e+03 4.218576431274414062e+01 1.388020515441894531e+01 6.630607247352600098e-01 7.916501998901367188e+00 2.573868751525878906e+00 -1.423146486282348633e+00
3.397000000000000000e+03 9.763093948364257812e+00 -1.393276119232177734e+01 2.604648098349571228e-02 2.006258368492126465e-01 6.800169497728347778e-02 -1.501017957925796509e-01
3.398000000000000000e+03 4.059674072265625000e+01 -5.670743942260742188e+00 -1.471959829330444336e+00 7.483726501464843750e+00 1.803529977798461914e+00 2.202349662780761719e+00
3.399000000000000000e+03 3.991991424560546875e+01 -6.586217403411865234e+00 -1.380592942237854004e+00 6.317727088928222656e+00 1.481140255928039551e+00 1.980660557746887207e+00
3.400000000000000000e+03 4.412544631958007812e+01 -1.061650276184082031e+00 1.631415843963623047e+00 1.178069782257080078e+01 4.023633956909179688e+00 1.188389778137207031e+00
3.401000000000000000e+03 5.677142333984375000e+01 2.654198265075683594e+01 -1.727484762668609619e-01 1.701071381568908691e+00 4.584968686103820801e-01 1.502646446228027344e+00
3.402000000000000000e+03 7.126448822021484375e+01 1.898639488220214844e+01 1.523631811141967773e+00 9.391001701354980469e+00 3.274390220642089844e+00 2.383451610803604126e-01
3.403000000000000000e+03 2.579094886779785156e+01 -6.182078838348388672e+00 -7.913581728935241699e-01 1.354758739471435547e-01 -1.967646926641464233e-01 -4.242995008826255798e-02
3.404000000000000000e+03 2.419345283508300781e+01 -5.997086524963378906e+00 -6.190338134765625000e-01 1.473951786756515503e-01 -1.414915919303894043e-01 7.435305044054985046e-03
3.405000000000000000e+03 7.428332519531250000e+01 1.717757606506347656e+01 9.040824174880981445e-01 7.820607662200927734e+00 2.617407083511352539e+00 1.780197918415069580e-01
3.406000000000000000e+03 7.209114074707031250e+01 1.743894195556640625e+01 1.370415925979614258e+00 9.002237319946289062e+00 3.111796140670776367e+00 9.115204215049743652e-02
3.407000000000000000e+03 1.597385025024414062e+01 6.106649875640869141e+00 -5.995823303237557411e-04 5.365366814658045769e-04 -1.891369538498111069e-05 2.571582095697522163e-03
3.408000000000000000e+03 4.681144332885742188e+01 1.757227325439453125e+01 6.376517415046691895e-01 7.771695613861083984e+00 2.522804260253906250e+00 9.926424026489257812e-01
3.409000000000000000e+03 6.170862579345703125e+01 1.156361818313598633e+00 3.414144217967987061e-01 1.016831278800964355e+00 4.074737131595611572e-01 3.192736580967903137e-02
3.410000000000000000e+03 6.482402801513671875e+01 -9.649396896362304688e+00 4.522285759449005127e-01 3.166425704956054688e+00 1.085596323013305664e+00 -1.787560224533081055e+00
3.411000000000000000e+03 3.454756164550781250e+01 -8.553438186645507812e+00 -1.901055723428726196e-01 8.828721046447753906e-01 2.078299522399902344e-01 3.428516983985900879e-01
3.412000000000000000e+03 7.435025024414062500e+01 -1.932706260681152344e+01 1.065249085426330566e+00 8.256594657897949219e+00 2.796553134918212891e+00 -7.610979080200195312e-01
3.413000000000000000e+03 5.481235122680664062e+01 2.624142074584960938e+01 -3.844327330589294434e-01 2.724701881408691406e+00 7.020807266235351562e-01 1.771439790725708008e+00
3.414000000000000000e+03 4.138124084472656250e+01 -5.526099681854248047e+00 -1.667961478233337402e+00 8.550927162170410156e+00 2.064889669418334961e+00 2.002045631408691406e+00
3.415000000000000000e+03 4.292950439453125000e+01 -4.118603706359863281e+00 -1.026898622512817383e+00 1.031080055236816406e+01 2.785170555114746094e+00 1.388494372367858887e+00
3.416000000000000000e+03 9.411101341247558594e+00 -1.293731689453125000e+01 1.483384054154157639e-02 1.335002332925796509e-01 4.450022429227828979e-02 -1.725279539823532104e-01
3.417000000000000000e+03 9.023046493530273438e+00 -1.431357860565185547e+01 3.146511316299438477e-02 1.531877368688583374e-01 5.539585277438163757e-02 -1.854357868432998657e-01
3.418000000000000000e+03 2.929000091552734375e+01 2.421155738830566406e+01 -3.066328726708889008e-02 5.124055743217468262e-01 1.445226818323135376e-01 -4.573770165443420410e-01
3.419000000000000000e+03 3.782796096801757812e+01 -1.606066131591796875e+01 4.153642058372497559e-01 4.753412246704101562e+00 1.550632953643798828e+00 9.972586482763290405e-02
3.420000000000000000e+03 3.816672134399414062e+01 -1.685641098022460938e+01 5.045137405395507812e-01 5.176200866699218750e+00 1.704214334487915039e+00 2.539887428283691406e-01
3.421000000000000000e+03 3.027921295166015625e+01 -7.616774082183837891e+00 -7.824282050132751465e-01 -3.579128086566925049e-01 -3.421023190021514893e-01 -2.721529603004455566e-01
3.422000000000000000e+03 4.665568923950195312e+01 -1.243572950363159180e+00 1.349299311637878418e+00 8.978064537048339844e+00 3.098209142684936523e+00 -2.953575551509857178e-01
3.423000000000000000e+03 4.298223114013671875e+01 -2.035554313659667969e+01 1.464502334594726562e+00 8.825760841369628906e+00 3.087078809738159180e+00 7.418500781059265137e-01
3.424000000000000000e+03 6.483319091796875000e+01 2.665277862548828125e+01 -2.933298945426940918e-01 2.948123455047607422e+00 7.964380383491516113e-01 -1.304917335510253906e+00
3.425000000000000000e+03 3.838899993896484375e+01 -7.048340797424316406e+00 -8.752279877662658691e-01 4.125427722930908203e+00 9.750599265098571777e-01 1.703119874000549316e+00
3.426000000000000000e+03 3.820334243774414062e+01 -6.363682270050048828e+00 -7.771863937377929688e-01 3.581570625305175781e+00 8.413152694702148438e-01 1.800099611282348633e+00
3.427000000000000000e+03 1.530101680755615234e+01 1.650150299072265625e+01 -4.275029897689819336e-02 -2.929419744759798050e-03 -1.370391622185707092e-02 -2.259188331663608551e-02
3.428000000000000000e+03 1.884344863891601562e+01 -6.462783336639404297e+00 -2.929406464099884033e-01 7.442250847816467285e-02 -6.555544584989547729e-02 -7.656148821115493774e-02
3.429000000000000000e+03 6.632798004150390625e+01 -2.846291351318359375e+01 -1.113076329231262207e+00 4.441225051879882812e+00 9.984446763992309570e-01 7.932260036468505859e-01
3.430000000000000000e+03 1.759811782836914062e+01 -8.149249076843261719e+00 -7.948912680149078369e-02 1.201860755681991577e-01 1.220908388495445251e-02 -1.341849714517593384e-01
3.431000000000000000e+03 1.634193229675292969e+01 -9.915906906127929688e+00 1.426856666803359985e-01 1.499291658401489258e-01 8.778444677591323853e-02 -1.590508371591567993e-01
3.432000000000000000e+03 4.530441284179687500e+01 1.504248905181884766e+01 6.048922538757324219e-01 8.817277908325195312e+00 2.826650857925415039e+00 6.945375204086303711e-01
3.433000000000000000e+03 4.725808334350585938e+01 -3.129195404052734375e+01 -8.100450038909912109e-01 4.342197418212890625e+00 1.059645771980285645e+00 -1.130975961685180664e+00
3.434000000000000000e+03 1.660393333435058594e+01 8.738121032714843750e+00 8.383459644392132759e-04 2.488294383510947227e-03 9.979921160265803337e-04 3.484644927084445953e-03
3.435000000000000000e+03 4.888609695434570312e+01 -6.863701343536376953e+00 -2.178385972976684570e+00 5.009381771087646484e+00 8.492987155914306641e-01 8.808797597885131836e-01
3.436000000000000000e+03 3.692818832397460938e+01 2.138467979431152344e+01 1.776541024446487427e-01 2.618243217468261719e+00 8.387691974639892578e-01 -1.195947527885437012e+00
3.437000000000000000e+03 1.607177162170410156e+01 7.942281723022460938e+00 6.305265123955905437e-04 1.218375400640070438e-03 5.546705215238034725e-04 3.434417769312858582e-03
3.438000000000000000e+03 4.337947845458984375e+01 -1.620578002929687500e+01 1.042283058166503906e+00 9.373557090759277344e+00 3.124752044677734375e+00 8.532063364982604980e-01
3.439000000000000000e+03 4.390895080566406250e+01 1.116425800323486328e+01 9.644783139228820801e-01 1.130570888519287109e+01 3.681056022644042969e+00 -1.319029927253723145e-01
3.440000000000000000e+03 4.605421829223632812e+01 1.329796123504638672e+01 7.742106318473815918e-01 9.912199974060058594e+00 3.205923318862915039e+00 1.278746008872985840e+00
3.441000000000000000e+03 2.223885726928710938e+01 -8.942882537841796875e+00 -7.570343464612960815e-02 7.982624322175979614e-02 1.236843061633408070e-03 -1.542650461196899414e-01
3.442000000000000000e+03 5.339239501953125000e+01 -3.444485092163085938e+01 -2.763495743274688721e-01 1.138056159019470215e+00 2.585119903087615967e-01 -1.059483766555786133e+00
3.443000000000000000e+03 4.843405914306640625e+01 1.949217033386230469e+01 6.542975902557373047e-01 7.122555255889892578e+00 2.333055973052978516e+00 1.233255028724670410e+00
3.444000000000000000e+03 4.508677673339843750e+01 6.185876369476318359e+00 1.465118527412414551e+00 1.417784500122070312e+01 4.692889213562011719e+00 4.889424145221710205e-02
3.445000000000000000e+03 7.108147430419921875e+01 1.179595565795898438e+01 6.448521614074707031e-01 8.965993881225585938e+00 2.883253812789916992e+00 -3.489062190055847168e-01
3.446000000000000000e+03 6.989331817626953125e+01 1.090051269531250000e+01 4.733508527278900146e-01 8.967267036437988281e+00 2.832185268402099609e+00 9.607641398906707764e-02
3.447000000000000000e+03 7.946680545806884766e+00 5.978033065795898438e+00 8.567329496145248413e-04 -2.304268535226583481e-03 -4.342606698628515005e-04 -1.481414074078202248e-03
3.448000000000000000e+03 7.051493072509765625e+01 1.395479297637939453e+01 1.267490744590759277e+00 1.008914375305175781e+01 3.406990289688110352e+00 5.723163858056068420e-02
3.449000000000000000e+03 3.506645965576171875e+01 2.205331039428710938e+01 1.778336167335510254e-01 1.923872828483581543e+00 6.305119395256042480e-01 -1.049541711807250977e+00
3.450000000000000000e+03 3.453001403808593750e+01 2.273889160156250000e+01 1.345600485801696777e-01 1.762978792190551758e+00 5.692616701126098633e-01 -9.781974554061889648e-01
3.451000000000000000e+03 1.215615367889404297e+01 4.852618694305419922e+00 1.234906609170138836e-03 -1.832488691434264183e-03 -1.792746188584715128e-04 1.260509481653571129e-03
3.452000000000000000e+03 1.134583473205566406e+01 4.969686508178710938e+00 1.830995082855224609e-03 -1.913125859573483467e-03 -2.463924465700984001e-05 1.081191468983888626e-03
3.453000000000000000e+03 4.618852615356445312e+01 2.439591169357299805e+00 2.491892814636230469e+00 1.196097087860107422e+01 4.335859298706054688e+00 -1.889737993478775024e-01
3.454000000000000000e+03 1.560569667816162109e+01 1.032155895233154297e+01 -1.490420545451343060e-03 -4.857095773331820965e-04 -5.928390310145914555e-04 2.717400202527642250e-03
3.455000000000000000e+03 1.575617504119873047e+01 9.488319396972656250e+00 5.408354336395859718e-04 3.641319053713232279e-04 2.714902220759540796e-04 3.645207965746521950e-03
3.456000000000000000e+03 6.818682098388671875e+01 8.308000564575195312e+00 -3.316740691661834717e-01 6.948799610137939453e+00 1.985137701034545898e+00 7.821295261383056641e-01
3.457000000000000000e+03 5.215530395507812500e+01 -5.797725677490234375e+00 -4.671007692813873291e-01 2.397878766059875488e-01 -6.819386780261993408e-02 -5.415660738945007324e-01
3.458000000000000000e+03 2.001619720458984375e+01 -3.391278839111328125e+01 7.094592601060867310e-02 2.468638420104980469e-01 9.534293413162231445e-02 -2.328581362962722778e-01
3.459000000000000000e+03 1.727786827087402344e+01 -3.274649429321289062e+01 7.666801684536039829e-05 2.877265810966491699e-01 8.634097874164581299e-02 -2.323813289403915405e-01
3.460000000000000000e+03 6.864272308349609375e+01 2.315537452697753906e+01 -1.225487589836120605e+00 7.762185096740722656e+00 1.961009263992309570e+00 -1.080898284912109375e+00
3.461000000000000000e+03 6.672114562988281250e+01 2.553842353820800781e+01 -8.129894733428955078e-01 4.645806312561035156e+00 1.149845123291015625e+00 -1.605571269989013672e+00
3.462000000000000000e+03 1.746317863464355469e+01 2.142563056945800781e+01 -2.684553265571594238e-01 5.956618860363960266e-02 -6.266673654317855835e-02 4.371493123471736908e-03
3.463000000000000000e+03 1.631419181823730469e+01 1.900556755065917969e+01 -1.328034251928329468e-01 2.002105116844177246e-02 -3.383471071720123291e-02 -4.276591911911964417e-02
3.464000000000000000e+03 4.756515502929687500e+01 1.854041481018066406e+01 6.682631969451904297e-01 7.460357189178466797e+00 2.438586235046386719e+00 1.113765597343444824e+00
3.465000000000000000e+03 4.741833496093750000e+01 2.030498313903808594e+01 2.008751630783081055e-01 6.759781837463378906e+00 2.088197231292724609e+00 6.891512870788574219e-01
3.466000000000000000e+03 6.901316070556640625e+01 2.238855552673339844e+01 -8.833774924278259277e-01 8.404640197753906250e+00 2.256378889083862305e+00 -7.380266189575195312e-01
3.467000000000000000e+03 6.943297576904296875e+01 2.170315933227539062e+01 -5.265938043594360352e-01 9.223788261413574219e+00 2.609158515930175781e+00 -3.264083862304687500e-01
3.468000000000000000e+03 7.152133941650390625e+01 -1.781795120239257812e+01 1.897305011749267578e+00 1.024366474151611328e+01 3.642290830612182617e+00 -4.649008512496948242e-01
3.469000000000000000e+03 6.508802032470703125e+01 -3.006865882873535156e+01 -1.037767410278320312e+00 3.286926269531250000e+00 6.747476458549499512e-01 7.203656435012817383e-01
3.470000000000000000e+03 8.110481262207031250e+00 -1.973468399047851562e+01 1.614782959222793579e-01 1.243430152535438538e-01 8.574639260768890381e-02 -1.735675483942031860e-01
3.471000000000000000e+03 9.078152656555175781e+00 -2.009939193725585938e+01 1.868172138929367065e-01 2.852604389190673828e-01 1.416233032941818237e-01 -1.799545586109161377e-01
3.472000000000000000e+03 4.258214950561523438e+01 -2.110696983337402344e+01 1.560485839843750000e+00 8.270888328552246094e+00 2.949412107467651367e+00 8.532379269599914551e-01
3.473000000000000000e+03 5.995030212402343750e+01 -4.226200878620147705e-01 8.807578086853027344e-01 2.588794231414794922e-01 3.418911695480346680e-01 -3.302142024040222168e-01
3.474000000000000000e+03 1.698760986328125000e+01 4.237809658050537109e+00 -3.768392198253422976e-04 9.478444699198007584e-04 1.713015808491036296e-04 2.103165024891495705e-03
3.475000000000000000e+03 5.743408584594726562e+01 -2.246424674987792969e+00 1.429256200790405273e+00 -3.144997358322143555e-01 3.344269394874572754e-01 -9.070075154304504395e-01
3.476000000000000000e+03 4.684735107421875000e+01 2.451088577508926392e-01 2.072064161300659180e+00 9.805001258850097656e+00 3.563119649887084961e+00 -5.974529385566711426e-01
3.477000000000000000e+03 4.811419010162353516e+00 -1.736793899536132812e+01 5.589189752936363220e-02 -2.817609012126922607e-01 -6.776069849729537964e-02 -1.770196259021759033e-01
3.478000000000000000e+03 3.643391799926757812e+01 -3.155983924865722656e+01 -1.726255714893341064e-01 4.667762756347656250e+00 1.348541140556335449e+00 1.061370730400085449e+00
3.479000000000000000e+03 3.777248382568359375e+01 -3.025427436828613281e+01 6.854450702667236328e-02 5.242095470428466797e+00 1.593191981315612793e+00 9.661251306533813477e-01
3.480000000000000000e+03 5.658274078369140625e+01 -3.452280044555664062e+01 -3.110049292445182800e-02 3.683780729770660400e-01 1.011832728981971741e-01 -5.607468485832214355e-01
3.481000000000000000e+03 4.543885040283203125e+01 -1.295919865369796753e-01 1.984298110008239746e+00 1.102265262603759766e+01 3.902085304260253906e+00 3.217509090900421143e-01
3.482000000000000000e+03 4.378042602539062500e+01 -1.847620129585266113e+00 1.029470920562744141e+00 1.149312973022460938e+01 3.756780147552490234e+00 1.240447521209716797e+00
3.483000000000000000e+03 5.891572570800781250e+01 -1.474457621574401855e+00 1.171860218048095703e+00 -3.763600438833236694e-02 3.402672410011291504e-01 -6.227519512176513672e-01
3.484000000000000000e+03 2.014333724975585938e+01 -7.561668395996093750e+00 -2.070718854665756226e-01 9.448978304862976074e-02 -3.377462923526763916e-02 -8.314771205186843872e-02
3.485000000000000000e+03 2.319761848449707031e+01 -7.365474700927734375e+00 -3.796673715114593506e-01 1.178354769945144653e-01 -7.854956388473510742e-02 -8.692521601915359497e-02
3.486000000000000000e+03 4.520547866821289062e+01 2.110792636871337891e+00 2.428374528884887695e+00 1.280950355529785156e+01 4.571363449096679688e+00 5.352213978767395020e-01
3.487000000000000000e+03 7.194341278076171875e+01 1.557711410522460938e+01 1.327770233154296875e+00 9.108387947082519531e+00 3.130847454071044922e+00 -2.026818543672561646e-01
3.488000000000000000e+03 4.433163452148437500e+01 -1.299198436737060547e+01 1.872869580984115601e-01 9.424080848693847656e+00 2.883410215377807617e+00 5.686727762222290039e-01
3.489000000000000000e+03 4.354007339477539062e+01 -1.453513526916503906e+01 7.323034405708312988e-01 9.118946075439453125e+00 2.955374717712402344e+00 6.726608872413635254e-01
3.490000000000000000e+03 1.900697326660156250e+01 2.567172241210937500e+01 -1.481783986091613770e-01 4.198316484689712524e-02 -3.185857087373733521e-02 1.428057402372360229e-01
3.491000000000000000e+03 7.056040954589843750e+01 -2.260286331176757812e+01 4.068487882614135742e-01 9.897105216979980469e+00 3.091186285018920898e+00 -8.742511868476867676e-01
3.492000000000000000e+03 7.146074676513671875e+01 -2.034244537353515625e+01 1.579474449157714844e+00 1.003330230712890625e+01 3.483833074569702148e+00 -8.214467167854309082e-01
3.493000000000000000e+03 1.461887931823730469e+01 1.736503982543945312e+01 -6.742424517869949341e-02 7.857457734644412994e-03 -1.787003688514232635e-02 -2.067852951586246490e-02
3.494000000000000000e+03 4.722677230834960938e+01 2.129092597961425781e+01 -7.307856529951095581e-02 6.423545837402343750e+00 1.905140161514282227e+00 5.140942931175231934e-01
3.495000000000000000e+03 4.693005752563476562e+01 1.269052267074584961e+00 2.374366521835327148e+00 1.042156982421875000e+01 3.838781118392944336e+00 -6.496891379356384277e-01
3.496000000000000000e+03 4.495665359497070312e+01 8.255633354187011719e+00 1.558604121208190918e+00 1.322709465026855469e+01 4.435709476470947266e+00 3.442800045013427734e-01
3.497000000000000000e+03 4.504868316650390625e+01 1.686400222778320312e+01 4.121297299861907959e-01 7.685163974761962891e+00 2.429188013076782227e+00 2.579809129238128662e-01
3.498000000000000000e+03 6.708468627929687500e+01 6.017877101898193359e+00 -5.653467178344726562e-01 5.185332298278808594e+00 1.385995745658874512e+00 8.251159787178039551e-01
3.499000000000000000e+03 6.208028411865234375e+01 2.714355278015136719e+01 8.725953102111816406e-02 1.495751619338989258e+00 4.749033451080322266e-01 -3.569858074188232422e-01
3.500000000000000000e+03 6.182564926147460938e+01 2.591388320922851562e+01 -2.543841600418090820e-01 9.515480995178222656e-01 2.091491818428039551e-01 -3.670013248920440674e-01
3.501000000000000000e+03 3.907454299926757812e+01 -2.482072448730468750e+01 1.469099640846252441e+00 6.139250755310058594e+00 2.282505035400390625e+00 1.531406998634338379e+00
3.502000000000000000e+03 3.992141342163085938e+01 -2.194719696044921875e+01 1.366178154945373535e+00 6.607451915740966797e+00 2.392089128494262695e+00 1.394050002098083496e+00
3.503000000000000000e+03 7.112305450439453125e+01 1.250457382202148438e+01 8.708531856536865234e-01 9.207400321960449219e+00 3.023475885391235352e+00 -3.512001633644104004e-01
3.504000000000000000e+03 7.119853973388671875e+01 1.318169975280761719e+01 1.033598661422729492e+00 9.328997611999511719e+00 3.108778953552246094e+00 -2.634890973567962646e-01
3.505000000000000000e+03 4.553478240966796875e+01 1.167051124572753906e+01 8.680134415626525879e-01 1.090295505523681641e+01 3.531290531158447266e+00 1.067739486694335938e+00
3.506000000000000000e+03 8.550806999206542969e+00 -2.110912132263183594e+01 1.966500878334045410e-01 1.703269928693771362e-01 1.100931242108345032e-01 -1.465135067701339722e-01
3.507000000000000000e+03 2.184922599792480469e+01 -1.081303215026855469e+01 2.373109459877014160e-01 3.680539503693580627e-02 8.223490417003631592e-02 -1.976612061262130737e-01
3.508000000000000000e+03 2.379437065124511719e+01 -6.894284248352050781e+00 -4.896137416362762451e-01 1.348057687282562256e-01 -1.064423993229866028e-01 -6.791335344314575195e-02
3.509000000000000000e+03 2.761195945739746094e+01 2.420681190490722656e+01 -9.911262243986129761e-02 2.998082041740417480e-01 6.020867824554443359e-02 -3.049223124980926514e-01
3.510000000000000000e+03 2.646297264099121094e+01 2.381573486328125000e+01 -2.409005463123321533e-01 1.184537038207054138e-01 -3.673405200242996216e-02 -1.617633700370788574e-01
3.511000000000000000e+03 5.465952682495117188e+01 -3.538000488281250000e+01 3.095909021794795990e-02 8.258844614028930664e-01 2.570530772209167480e-01 -8.477350473403930664e-01
3.512000000000000000e+03 6.983362579345703125e+01 1.001941204071044922e+01 1.099878326058387756e-01 8.459508895874023438e+00 2.570848941802978516e+00 5.377393960952758789e-02
3.513000000000000000e+03 7.521768951416015625e+01 1.043372154235839844e+01 1.263575851917266846e-01 7.607978343963623047e+00 2.320300817489624023e+00 -8.853698968887329102e-01
3.514000000000000000e+03 4.058216476440429688e+01 -2.047252082824707031e+01 1.310079693794250488e+00 7.053212642669677734e+00 2.508987665176391602e+00 1.128765583038330078e+00
3.515000000000000000e+03 2.371410942077636719e+01 2.568402481079101562e+01 -9.611757099628448486e-02 5.396947264671325684e-02 -1.264442875981330872e-02 -3.800709545612335205e-02
3.516000000000000000e+03 3.979100036621093750e+01 -5.868882179260253906e+00 -1.223632574081420898e+00 6.176425933837890625e+00 1.485838055610656738e+00 2.273998260498046875e+00
3.517000000000000000e+03 6.978471374511718750e+01 9.031649589538574219e+00 -2.229667305946350098e-01 7.996481418609619141e+00 2.332054376602172852e+00 3.479729220271110535e-02
3.518000000000000000e+03 4.685126304626464844e+00 -1.520983314514160156e+01 2.587557584047317505e-02 -2.561661303043365479e-01 -6.908717006444931030e-02 -2.001755833625793457e-01
3.519000000000000000e+03 3.758538436889648438e+01 -1.523551750183105469e+01 3.676924407482147217e-01 4.356907844543457031e+00 1.417380094528198242e+00 7.391228806227445602e-03
3.520000000000000000e+03 3.857009506225585938e+01 -7.756969928741455078e+00 -9.310126900672912598e-01 4.545486927032470703e+00 1.084342241287231445e+00 1.522223591804504395e+00
3.521000000000000000e+03 3.857426071166992188e+01 -2.689548492431640625e+01 1.135316610336303711e+00 5.850765705108642578e+00 2.095824718475341797e+00 1.279071211814880371e+00
3.522000000000000000e+03 3.781826782226562500e+01 -2.664395523071289062e+01 1.321173071861267090e+00 5.877541542053222656e+00 2.159614324569702148e+00 1.421458125114440918e+00
3.523000000000000000e+03 5.585599899291992188e+01 -5.626898288726806641e+00 -9.271630644798278809e-02 -1.575805395841598511e-01 -7.508905231952667236e-02 -1.237809419631958008e+00
3.524000000000000000e+03 5.656719589233398438e+01 -5.337938308715820312e+00 2.552676498889923096e-01 -8.904458582401275635e-02 4.986692219972610474e-02 -1.231397628784179688e+00
3.525000000000000000e+03 6.765383911132812500e+01 6.623517036437988281e+00 -5.833275318145751953e-01 5.851783275604248047e+00 1.580536723136901855e+00 7.573493719100952148e-01
3.526000000000000000e+03 4.478160858154296875e+01 9.019493103027343750e+00 1.448883652687072754e+00 1.278244400024414062e+01 4.269398212432861328e+00 4.401885867118835449e-01
3.527000000000000000e+03 1.048865032196044922e+01 -2.388486099243164062e+01 2.080194950103759766e-01 3.953056633472442627e-01 1.809975504875183105e-01 -1.323669701814651489e-01
3.528000000000000000e+03 1.052504253387451172e+01 -2.456077957153320312e+01 1.796156167984008789e-01 3.742822706699371338e-01 1.661693602800369263e-01 -1.186450198292732239e-01
3.529000000000000000e+03 2.872649192810058594e+01 -3.511710357666015625e+01 2.275828719139099121e-01 1.185955762863159180e+00 4.240615963935852051e-01 6.903716325759887695e-01
3.530000000000000000e+03 6.287710571289062500e+01 -3.405675125122070312e+01 -2.156536132097244263e-01 1.903590559959411621e+00 5.063810944557189941e-01 5.844271779060363770e-01
3.531000000000000000e+03 7.556955718994140625e+01 -3.666785430908203125e+01 -6.813731044530868530e-02 8.446884155273437500e+00 2.513624191284179688e+00 -5.917714536190032959e-02
3.532000000000000000e+03 7.477613067626953125e+01 -3.739971160888671875e+01 -5.143482983112335205e-02 8.027240753173828125e+00 2.392741680145263672e+00 4.977002367377281189e-02
3.533000000000000000e+03 2.830930328369140625e+01 2.498742866516113281e+01 -2.505945973098278046e-02 4.672772586345672607e-01 1.326653361320495605e-01 -3.987580537796020508e-01
3.534000000000000000e+03 6.376171493530273438e+01 -8.425906181335449219e+00 3.991393744945526123e-01 2.328587055206298828e+00 8.183179497718811035e-01 -1.375207662582397461e+00
3.535000000000000000e+03 1.075810909271240234e+01 -6.078029155731201172e+00 -1.683975607156753540e-01 4.473049566149711609e-02 -3.710012137889862061e-02 -1.926713585853576660e-01
3.536000000000000000e+03 1.016804122924804688e+01 -5.953066349029541016e+00 -1.638888716697692871e-01 3.613178804516792297e-02 -3.832712396979331970e-02 -1.910270303487777710e-01
3.537000000000000000e+03 1.762758255004882812e+01 -3.382674026489257812e+01 1.553495787084102631e-02 2.633517682552337646e-01 8.366601914167404175e-02 -2.238488197326660156e-01
3.538000000000000000e+03 7.027266693115234375e+01 -1.151363754272460938e+01 2.937495894730091095e-02 8.844630241394042969e+00 2.662201642990112305e+00 -3.623343631625175476e-02
3.539000000000000000e+03 6.590547943115234375e+01 4.855713844299316406e+00 -4.436431825160980225e-01 3.939892292022705078e+00 1.048874735832214355e+00 7.909291982650756836e-01
3.540000000000000000e+03 6.649901580810546875e+01 5.427278995513916016e+00 -5.117661356925964355e-01 4.549418449401855469e+00 1.211295604705810547e+00 8.250119686126708984e-01
3.541000000000000000e+03 5.318044662475585938e+01 2.375698471069335938e+01 -4.756863415241241455e-01 3.842256307601928711e+00 1.009971022605895996e+00 2.118804216384887695e+00
3.542000000000000000e+03 4.544352340698242188e+01 -2.894557952880859375e+01 -4.413913488388061523e-01 5.737410068511962891e+00 1.588805556297302246e+00 -6.079404950141906738e-01
3.543000000000000000e+03 7.118899536132812500e+01 -1.626919746398925781e+01 1.920860886573791504e+00 1.029502391815185547e+01 3.664765596389770508e+00 -2.462002635002136230e-01
3.544000000000000000e+03 2.262358283996582031e+01 -1.139311504364013672e+01 3.114961683750152588e-01 2.146052382886409760e-02 9.988701343536376953e-02 -2.208309173583984375e-01
3.545000000000000000e+03 5.796627807617187500e+01 -3.466252136230468750e+01 1.730695925652980804e-02 3.627564013004302979e-01 1.140190139412879944e-01 -2.574748694896697998e-01
3.546000000000000000e+03 5.840254974365234375e+01 -7.635338306427001953e+00 -3.646799027919769287e-01 3.004904091358184814e-01 -1.925685629248619080e-02 -5.216430425643920898e-01
3.547000000000000000e+03 5.913717269897460938e+01 -7.210525035858154297e+00 -3.108312189579010010e-02 4.198803603649139404e-01 1.166391745209693909e-01 -6.819135546684265137e-01
3.548000000000000000e+03 4.315224456787109375e+01 -3.414046525955200195e+00 -4.286471903324127197e-01 1.070399093627929688e+01 3.082603216171264648e+00 1.344102382659912109e+00
3.549000000000000000e+03 4.559671783447265625e+01 -2.945778846740722656e+00 -4.950298368930816650e-02 9.474337577819824219e+00 2.827450275421142578e+00 2.593226432800292969e-01
3.550000000000000000e+03 3.793055343627929688e+01 -2.900924491882324219e+01 4.373425245285034180e-01 5.473935604095458984e+00 1.773383498191833496e+00 1.069672226905822754e+00
3.551000000000000000e+03 4.364505767822265625e+01 -1.294277667999267578e+01 3.101041913032531738e-02 8.938535690307617188e+00 2.690863847732543945e+00 4.472999870777130127e-01
3.552000000000000000e+03 4.355131912231445312e+01 -2.381858062744140625e+01 1.327801227569580078e+00 7.870235919952392578e+00 2.759411096572875977e+00 5.444585680961608887e-01
3.553000000000000000e+03 6.856034851074218750e+01 -9.928936958312988281e+00 -3.602020442485809326e-01 7.414312839508056641e+00 2.116233348846435547e+00 -9.119190573692321777e-01
3.554000000000000000e+03 4.403912353515625000e+01 -2.685322570800781250e+01 2.449060976505279541e-01 6.640244483947753906e+00 2.065545082092285156e+00 1.040087193250656128e-01
3.555000000000000000e+03 5.314571857452392578e+00 -7.970121383666992188e+00 -4.634871333837509155e-02 -9.007567912340164185e-02 -4.092731699347496033e-02 -1.942666769027709961e-01
3.556000000000000000e+03 4.337124633789062500e+01 -2.287878417968750000e+01 1.532354831695556641e+00 8.220875740051269531e+00 2.925969123840332031e+00 6.022685170173645020e-01
3.557000000000000000e+03 1.578396987915039062e+01 -3.137579727172851562e+01 -4.594032652676105499e-03 3.057405650615692139e-01 9.034395962953567505e-02 -2.044682204723358154e-01
3.558000000000000000e+03 3.068606758117675781e+01 -8.045727729797363281e+00 -5.287073850631713867e-01 -3.714843392372131348e-01 -2.700574994087219238e-01 -2.460471540689468384e-01
3.559000000000000000e+03 1.050311756134033203e+01 -1.120382881164550781e+01 1.569996401667594910e-02 9.789568930864334106e-02 3.407869488000869751e-02 -1.582321524620056152e-01
3.560000000000000000e+03 1.044180965423583984e+01 -1.259193992614746094e+01 2.564595267176628113e-02 1.585608869791030884e-01 5.526205524802207947e-02 -1.279847174882888794e-01
3.561000000000000000e+03 5.183570480346679688e+01 2.492293930053710938e+01 -7.420518398284912109e-01 4.503647804260253906e+00 1.128478765487670898e+00 1.679838061332702637e+00
3.562000000000000000e+03 4.540313339233398438e+01 1.349529838562011719e+01 7.026637792587280273e-01 9.686776161193847656e+00 3.116831779479980469e+00 8.892802596092224121e-01
3.563000000000000000e+03 4.620936584472656250e+01 -8.537764549255371094e+00 -2.583107709884643555e+00 8.626489639282226562e+00 1.813014626502990723e+00 6.611086130142211914e-01
3.564000000000000000e+03 3.726560974121093750e+01 -1.457571697235107422e+01 3.352792263031005859e-01 3.977653980255126953e+00 1.293879985809326172e+00 -5.643017217516899109e-02
3.565000000000000000e+03 7.468673706054687500e+01 -1.200130939483642578e+01 1.878448724746704102e-01 7.928297996520996094e+00 2.434842824935913086e+00 8.724412322044372559e-01
3.566000000000000000e+03 3.943234252929687500e+01 -9.554900169372558594e+00 -9.132522940635681152e-01 5.592280387878417969e+00 1.403708457946777344e+00 9.818608760833740234e-01
3.567000000000000000e+03 3.522853851318359375e+01 -3.466152191162109375e+01 -5.449811816215515137e-01 3.891583919525146484e+00 1.003980755805969238e+00 8.993449211120605469e-01
3.568000000000000000e+03 6.568828582763671875e+01 2.544860076904296875e+01 -6.495760679244995117e-01 3.581146955490112305e+00 8.794713020324707031e-01 -1.650151968002319336e+00
3.569000000000000000e+03 3.259993743896484375e+01 -3.513906097412109375e+01 -1.956221908330917358e-01 2.729858875274658203e+00 7.602710127830505371e-01 9.533842802047729492e-01
3.570000000000000000e+03 4.605259418487548828e+00 -2.296885871887207031e+01 6.990282982587814331e-02 -4.019007384777069092e-01 -9.959937632083892822e-02 -3.528143465518951416e-02
3.571000000000000000e+03 7.017575073242187500e+01 -1.486849212646484375e+01 1.758911490440368652e+00 1.067017078399658203e+01 3.728724479675292969e+00 -3.546943366527557373e-01
3.572000000000000000e+03 7.053440093994140625e+01 -1.301631832122802734e+01 7.021325230598449707e-01 9.495098114013671875e+00 3.059169054031372070e+00 7.658375054597854614e-02
3.573000000000000000e+03 3.595352554321289062e+01 -3.304987335205078125e+01 -4.140083491802215576e-01 4.274380683898925781e+00 1.158111691474914551e+00 9.842970967292785645e-01
3.574000000000000000e+03 3.462765502929687500e+01 -3.247192764282226562e+01 -1.549837291240692139e-01 3.840229511260986328e+00 1.105573773384094238e+00 1.233188271522521973e+00
3.575000000000000000e+03 3.967739486694335938e+01 -2.607760047912597656e+01 1.175435900688171387e+00 6.060214042663574219e+00 2.170695066452026367e+00 1.274194478988647461e+00
3.576000000000000000e+03 2.380111312866210938e+01 -1.106318187713623047e+01 2.454841583967208862e-01 1.825937442481517792e-02 7.912305742502212524e-02 -2.401039451360702515e-01
3.577000000000000000e+03 6.104668045043945312e+01 -3.305772018432617188e+01 -4.282356202602386475e-01 9.418361186981201172e-01 1.540801525115966797e-01 4.107897281646728516e-01
3.578000000000000000e+03 6.150753402709960938e+01 -3.628315353393554688e+01 2.485866248607635498e-01 1.588411211967468262e+00 5.510993599891662598e-01 3.280849158763885498e-01
3.579000000000000000e+03 1.596814537048339844e+01 2.006088829040527344e+01 -1.712244600057601929e-01 4.664237052202224731e-02 -3.737462684512138367e-02 -1.619146950542926788e-02
3.580000000000000000e+03 1.537285327911376953e+01 1.735470771789550781e+01 -6.852062791585922241e-02 3.836664604023098946e-03 -1.940518990159034729e-02 -2.903302945196628571e-02
3.581000000000000000e+03 9.673510551452636719e+00 -2.325090217590332031e+01 2.071242332458496094e-01 2.929489016532897949e-01 1.500219404697418213e-01 -1.129498928785324097e-01
3.582000000000000000e+03 5.039407730102539062e+01 -3.452702713012695312e+01 -6.009367704391479492e-01 2.499316930770874023e+00 5.695140361785888672e-01 -1.232322931289672852e+00
3.583000000000000000e+03 4.437290954589843750e+01 -2.585908126831054688e+01 5.887507200241088867e-01 7.235132217407226562e+00 2.347164869308471680e+00 3.913026675581932068e-02
3.584000000000000000e+03 1.555072784423828125e+01 2.053971481323242188e+01 -1.786537319421768188e-01 5.273225530982017517e-02 -3.777644410729408264e-02 3.777880454435944557e-03
3.585000000000000000e+03 4.849542999267578125e+01 -3.290274047851562500e+01 -8.180761933326721191e-01 3.496522426605224609e+00 8.035338521003723145e-01 -1.245933890342712402e+00
3.586000000000000000e+03 4.870791244506835938e+01 -3.073291778564453125e+01 -6.920406818389892578e-01 3.645468711853027344e+00 8.860284090042114258e-01 -1.355121612548828125e+00
3.587000000000000000e+03 5.978725433349609375e+01 -3.573162841796875000e+01 2.822380363941192627e-01 9.933071136474609375e-01 3.826635479927062988e-01 5.658136680722236633e-02
3.588000000000000000e+03 6.143386840820312500e+01 -3.448049545288085938e+01 -9.254813194274902344e-02 1.299836039543151855e+00 3.621863722801208496e-01 4.669149219989776611e-01
3.589000000000000000e+03 2.456574440002441406e+01 2.692232513427734375e+01 1.058756187558174133e-02 1.987451165914535522e-01 6.279980391263961792e-02 -1.240680217742919922e-01
3.590000000000000000e+03 2.155528259277343750e+01 2.703499412536621094e+01 -2.092921920120716095e-02 6.269233673810958862e-02 1.252893544733524323e-02 5.885246396064758301e-02
3.591000000000000000e+03 1.804773521423339844e+01 2.331095504760742188e+01 -2.783346772193908691e-01 6.011889502406120300e-02 -6.546473503112792969e-02 9.948719292879104614e-02
3.592000000000000000e+03 2.144510078430175781e+01 -3.516082763671875000e+01 1.580245345830917358e-01 3.179786205291748047e-01 1.428009569644927979e-01 -1.549198627471923828e-01
3.593000000000000000e+03 3.340151596069335938e+01 2.397708892822265625e+01 6.832519173622131348e-02 1.469352483749389648e+00 4.613033235073089600e-01 -8.664804697036743164e-01
3.594000000000000000e+03 7.398918151855468750e+01 -3.839754867553710938e+01 -3.761985525488853455e-02 7.722320556640625000e+00 2.305410146713256836e+00 9.504437446594238281e-02
3.595000000000000000e+03 5.069727325439453125e+01 -3.330610656738281250e+01 -6.701126098632812500e-01 2.395606994628906250e+00 5.176483392715454102e-01 -1.337918639183044434e+00
3.596000000000000000e+03 4.690241622924804688e+01 2.237586593627929688e+01 -3.544245660305023193e-01 6.069650650024414062e+00 1.714567780494689941e+00 3.659582436084747314e-01
3.597000000000000000e+03 7.041451454162597656e+00 -4.157830047607421875e+01 -9.924975223839282990e-03 -2.815133035182952881e-01 -8.743148297071456909e-02 3.180896863341331482e-03
3.598000000000000000e+03 5.122941970825195312e+00 -3.696243667602539062e+01 -1.765746623277664185e-02 -4.120444357395172119e-01 -1.289105713367462158e-01 2.037818543612957001e-02
3.599000000000000000e+03 5.516026020050048828e+00 -3.825814437866210938e+01 -1.968675851821899414e-02 -3.899181187152862549e-01 -1.228814646601676941e-01 1.140923984348773956e-02
3.600000000000000000e+03 2.722867393493652344e+01 -3.500663757324218750e+01 2.466398775577545166e-01 8.348994255065917969e-01 3.244617879390716553e-01 4.264902174472808838e-01
3.601000000000000000e+03 3.102294349670410156e+01 -3.618147277832031250e+01 -8.022075891494750977e-02 2.161934137344360352e+00 6.245139837265014648e-01 7.736219167709350586e-01
3.602000000000000000e+03 7.454298400878906250e+01 4.040790176391601562e+01 1.045401617884635925e-01 6.847689628601074219e+00 2.085669040679931641e+00 -3.948388248682022095e-02
3.603000000000000000e+03 7.165460205078125000e+01 4.092296981811523438e+01 1.884747743606567383e-01 6.050154685974121094e+00 1.871588826179504395e+00 -7.913200557231903076e-02
3.604000000000000000e+03 6.641091346740722656e+00 3.704225540161132812e+01 4.520285129547119141e-02 -1.239280179142951965e-01 -2.361755073070526123e-02 6.613408774137496948e-02
3.605000000000000000e+03 9.004304885864257812e+00 -5.859872817993164062e+00 -1.455670297145843506e-01 1.952416822314262390e-02 -3.781285881996154785e-02 -1.880403161048889160e-01
3.606000000000000000e+03 9.646466255187988281e+00 -1.242110538482666016e+01 9.998684749007225037e-03 1.235117018222808838e-01 4.005311802029609680e-02 -1.683888137340545654e-01
3.607000000000000000e+03 7.102158355712890625e+01 -1.546401214599609375e+01 1.778002023696899414e+00 1.019942569732666016e+01 3.593228101730346680e+00 -9.905060380697250366e-02
3.608000000000000000e+03 4.069805526733398438e+01 -6.406788349151611328e+00 -1.659331321716308594e+00 7.415675163269042969e+00 1.726903080940246582e+00 1.911988496780395508e+00
3.609000000000000000e+03 1.612324905395507812e+01 -8.385279655456542969e+00 -4.442100599408149719e-02 1.172068268060684204e-01 2.183574624359607697e-02 -1.695742607116699219e-01
3.610000000000000000e+03 6.925463867187500000e+01 8.457524299621582031e+00 -3.648782670497894287e-01 7.563545703887939453e+00 2.159600257873535156e+00 2.676248848438262939e-01
3.611000000000000000e+03 8.026415824890136719e+00 -1.570965194702148438e+01 5.717313662171363831e-02 9.368019551038742065e-02 4.525600001215934753e-02 -2.078570425510406494e-01
3.612000000000000000e+03 6.106784057617187500e+01 -2.476851701736450195e+00 7.634230256080627441e-01 9.428043365478515625e-01 5.118681788444519043e-01 -6.299584507942199707e-01
3.613000000000000000e+03 6.339335632324218750e+01 -7.465171813964843750e+00 3.558536767959594727e-01 2.203132390975952148e+00 7.676958441734313965e-01 -1.221132874488830566e+00
3.614000000000000000e+03 9.626787185668945312e+00 -1.450466156005859375e+01 3.408555313944816589e-02 2.187668532133102417e-01 7.585572451353073120e-02 -1.600281149148941040e-01
3.615000000000000000e+03 4.277867507934570312e+01 -4.750649452209472656e+00 -1.489561319351196289e+00 1.002051067352294922e+01 2.559284687042236328e+00 1.403819799423217773e+00
3.616000000000000000e+03 2.108216667175292969e+01 -1.031022453308105469e+01 1.769658774137496948e-01 5.540143698453903198e-02 6.971019506454467773e-02 -1.697417944669723511e-01
3.617000000000000000e+03 4.417164993286132812e+01 -2.994799613952636719e+00 -9.971418231725692749e-02 1.056131076812744141e+01 3.138478755950927734e+00 8.486283421516418457e-01
3.618000000000000000e+03 6.108829116821289062e+01 -3.935069441795349121e-01 6.773956418037414551e-01 7.907161116600036621e-01 4.404335319995880127e-01 -2.438033223152160645e-01
3.619000000000000000e+03 6.051187896728515625e+01 -7.202710628509521484e+00 2.827901840209960938e-01 7.342576384544372559e-01 3.051143288612365723e-01 -7.637442946434020996e-01
3.620000000000000000e+03 1.527482414245605469e+01 -6.166466712951660156e+00 -2.469057291746139526e-01 7.313210517168045044e-02 -5.213208496570587158e-02 -1.557676196098327637e-01
3.621000000000000000e+03 1.613062667846679688e+01 6.698119163513183594e+00 1.250367495231330395e-03 8.800829527899622917e-04 6.391351344063878059e-04 3.052555723115801811e-03
3.622000000000000000e+03 6.225003051757812500e+01 6.758649945259094238e-01 3.466194570064544678e-01 1.373139262199401855e+00 5.159276127815246582e-01 1.235338393598794937e-02
3.623000000000000000e+03 4.927095794677734375e+01 -5.182106494903564453e+00 -7.984759211540222168e-01 4.427470684051513672e+00 1.088698387145996094e+00 3.579554259777069092e-01
3.624000000000000000e+03 6.283919906616210938e+01 1.203723192214965820e+00 1.902453750371932983e-01 1.709942936897277832e+00 5.700564980506896973e-01 1.342525184154510498e-01
3.625000000000000000e+03 5.362262725830078125e+01 -5.030677795410156250e+00 3.072534203529357910e-01 -1.844047307968139648e-01 3.685460612177848816e-02 -1.193183898925781250e+00
3.626000000000000000e+03 5.100126266479492188e+01 -2.178878307342529297e+00 2.332798719406127930e+00 2.514820098876953125e+00 1.454285621643066406e+00 -1.036518216133117676e+00
3.627000000000000000e+03 5.699185562133789062e+01 -3.745441913604736328e+00 1.050171732902526855e+00 -2.256984710693359375e-01 2.473419606685638428e-01 -1.174757957458496094e+00
3.628000000000000000e+03 1.072633647918701172e+01 -2.745614433288574219e+01 5.910125374794006348e-02 2.343101650476455688e-01 8.802342414855957031e-02 -8.727535605430603027e-02
3.629000000000000000e+03 1.241508674621582031e+01 -2.789351272583007812e+01 6.833739578723907471e-02 3.404164314270019531e-01 1.226261481642723083e-01 -1.537065207958221436e-01
3.630000000000000000e+03 7.272524261474609375e+01 -2.841245841979980469e+01 -8.388987779617309570e-01 8.131566047668457031e+00 2.187800168991088867e+00 -6.798227429389953613e-01
3.631000000000000000e+03 1.443534374237060547e+01 5.108302593231201172e+00 4.341614840086549520e-04 -7.615681388415396214e-04 -9.822200081543996930e-05 2.191975945606827736e-03
3.632000000000000000e+03 6.166414260864257812e+01 1.388656049966812134e-01 5.108233094215393066e-01 1.069501042366027832e+00 4.740973114967346191e-01 -1.125798001885414124e-01
3.633000000000000000e+03 1.800227928161621094e+01 -9.667100906372070312e+00 1.240684315562248230e-01 1.474647819995880127e-01 8.145996183156967163e-02 -1.319460272789001465e-01
3.634000000000000000e+03 1.205989074707031250e+01 -6.480714797973632812e+00 -1.694885641336441040e-01 5.841935053467750549e-02 -3.332076594233512878e-02 -1.943958401679992676e-01
3.635000000000000000e+03 7.867356300354003906e+00 -5.886657238006591797e+00 -1.200684532523155212e-01 -2.210647100582718849e-03 -3.668373078107833862e-02 -1.863979250192642212e-01
3.636000000000000000e+03 1.120380401611328125e+01 -1.119008255004882812e+01 3.738575428724288940e-02 1.041746139526367188e-01 4.246811196208000183e-02 -1.371080428361892700e-01
3.637000000000000000e+03 3.617021942138671875e+01 -7.735211849212646484e+00 -4.996921122074127197e-01 1.795190095901489258e+00 3.886494040489196777e-01 8.203440308570861816e-01
3.638000000000000000e+03 3.553107452392578125e+01 -8.047719001770019531e+00 -3.735094964504241943e-01 1.361130595207214355e+00 2.962863147258758545e-01 5.867633819580078125e-01
3.639000000000000000e+03 6.342911148071289062e+01 1.720967650413513184e+00 4.734530299901962280e-02 2.062341690063476562e+00 6.329060792922973633e-01 2.552732229232788086e-01
3.640000000000000000e+03 3.779750823974609375e+01 -7.951217174530029297e+00 -6.639505028724670410e-01 3.592938661575317383e+00 8.786964416503906250e-01 1.291929960250854492e+00
3.641000000000000000e+03 3.762147521972656250e+01 -7.274487972259521484e+00 -6.947507262229919434e-01 3.172605514526367188e+00 7.433564662933349609e-01 1.403224825859069824e+00
3.642000000000000000e+03 2.616683578491210938e+01 -1.027919578552246094e+01 1.009915173053741455e-01 -3.772503137588500977e-02 1.897994615137577057e-02 -2.724500596523284912e-01
3.643000000000000000e+03 7.510284423828125000e+01 3.052166175842285156e+01 -2.297303974628448486e-01 7.280705928802490234e+00 2.115292787551879883e+00 8.557146415114402771e-03
3.644000000000000000e+03 2.439718818664550781e+01 -1.105988502502441406e+01 2.303348630666732788e-01 1.327329222112894058e-02 7.308244705200195312e-02 -2.416351288557052612e-01
3.645000000000000000e+03 5.173014163970947266e+00 2.972994613647460938e+01 -8.974142256192862988e-04 -1.024514064192771912e-01 -3.100464679300785065e-02 8.919660001993179321e-02
3.646000000000000000e+03 1.283495807647705078e+01 -6.542807102203369141e+00 -1.767782270908355713e-01 6.560600548982620239e-02 -3.335166722536087036e-02 -1.907682120800018311e-01
3.647000000000000000e+03 7.533705139160156250e+01 -2.912951278686523438e+01 -4.293290078639984131e-01 8.501815795898437500e+00 2.421746015548706055e+00 -7.737112641334533691e-01
3.648000000000000000e+03 6.665293121337890625e+01 -2.977475738525390625e+01 -1.110500097274780273e+00 4.626890182495117188e+00 1.054916977882385254e+00 7.175545692443847656e-01
3.649000000000000000e+03 1.370849895477294922e+01 5.247558116912841797e+00 1.596910296939313412e-03 -1.129922107793390751e-03 1.400964538333937526e-04 2.444246783852577209e-03
3.650000000000000000e+03 1.361559391021728516e+01 -6.547691822052001953e+00 -1.865558773279190063e-01 7.098443061113357544e-02 -3.467143326997756958e-02 -1.848846375942230225e-01
3.651000000000000000e+03 4.764426231384277344e+00 -3.060615348815917969e+01 -6.818954367190599442e-03 -4.241430461406707764e-01 -1.292885988950729370e-01 4.142397642135620117e-02
3.652000000000000000e+03 5.326611042022705078e+00 -2.876803779602050781e+01 7.571107707917690277e-03 -3.465641736984252930e-01 -1.016979143023490906e-01 3.968525305390357971e-02
3.653000000000000000e+03 3.195314407348632812e+01 -1.326114940643310547e+01 8.883684277534484863e-01 1.188116222620010376e-01 3.021540343761444092e-01 -1.942485384643077850e-02
3.654000000000000000e+03 3.313912200927734375e+01 -1.366638660430908203e+01 8.863936066627502441e-01 4.967376291751861572e-01 4.149393737316131592e-01 -1.008660495281219482e-01
3.655000000000000000e+03 3.982745170593261719e+00 5.459687232971191406e+00 5.781774525530636311e-04 4.439187468960881233e-04 3.066288481932133436e-04 -2.528978977352380753e-03
3.656000000000000000e+03 5.492729187011718750e+00 6.090401172637939453e+00 8.034852216951549053e-04 -7.082664524205029011e-04 2.856562969100195915e-05 -2.341886749491095543e-03
3.657000000000000000e+03 6.291588306427001953e+00 6.053036689758300781e+00 7.120126974768936634e-04 -1.429072581231594086e-03 -2.151179651264101267e-04 -2.273941179737448692e-03
3.658000000000000000e+03 7.110486507415771484e+00 6.018146514892578125e+00 1.020460389554500580e-03 -1.746775349602103233e-03 -2.178944851038977504e-04 -1.702039851807057858e-03
3.659000000000000000e+03 7.537157440185546875e+01 -3.079447364807128906e+01 -3.850968778133392334e-01 8.522813796997070312e+00 2.441315174102783203e+00 -5.375900864601135254e-01
3.660000000000000000e+03 4.057070922851562500e+01 1.903893852233886719e+01 2.029520422220230103e-01 4.778253555297851562e+00 1.494361639022827148e+00 -1.298975110054016113e+00
3.661000000000000000e+03 3.994036865234375000e+01 1.770532035827636719e+01 4.726131856441497803e-01 4.581036567687988281e+00 1.516094923019409180e+00 -1.533903598785400391e+00
3.662000000000000000e+03 3.936897277832031250e+01 1.715933609008789062e+01 6.540143489837646484e-01 4.154341697692871094e+00 1.442506790161132812e+00 -1.660063385963439941e+00
3.663000000000000000e+03 5.117547512054443359e+00 3.183735656738281250e+01 6.374824792146682739e-03 -1.240692660212516785e-01 -3.530833125114440918e-02 8.542506396770477295e-02
3.664000000000000000e+03 4.939705848693847656e+00 3.029987907409667969e+01 2.423718979116529226e-05 -1.117931082844734192e-01 -3.353065997362136841e-02 8.764640241861343384e-02
3.665000000000000000e+03 5.024897766113281250e+01 -2.111897230148315430e+00 2.083916902542114258e+00 3.577093124389648438e+00 1.698302984237670898e+00 -1.010233044624328613e+00
3.666000000000000000e+03 1.259108924865722656e+01 -3.117985153198242188e+01 -1.475809421390295029e-02 2.245306670665740967e-01 6.293176859617233276e-02 -1.225562840700149536e-01
3.667000000000000000e+03 2.805006599426269531e+01 -1.142587661743164062e+01 4.157459437847137451e-01 -1.288972198963165283e-01 8.605461567640304565e-02 -2.096399664878845215e-01
3.668000000000000000e+03 2.983319091796875000e+01 -1.102583980560302734e+01 4.499568641185760498e-01 -1.803913861513137817e-01 8.086964488029479980e-02 -1.637628823518753052e-01
3.669000000000000000e+03 1.417781066894531250e+01 -8.817215919494628906e+00 -4.751632455736398697e-03 9.460439532995223999e-02 2.695582807064056396e-02 -1.892392337322235107e-01
3.670000000000000000e+03 5.243909835815429688e+00 -3.005604362487792969e+01 -3.181523410603404045e-03 -3.602357208728790283e-01 -1.090251728892326355e-01 4.188694804906845093e-02
3.671000000000000000e+03 7.591242980957031250e+01 -2.825894165039062500e+01 -3.399765193462371826e-01 8.550037384033203125e+00 2.463018178939819336e+00 -8.739645481109619141e-01
3.672000000000000000e+03 7.550712585449218750e+01 -2.976913452148437500e+01 -4.018840193748474121e-01 8.537968635559082031e+00 2.440825462341308594e+00 -6.886803507804870605e-01
3.673000000000000000e+03 7.563352203369140625e+01 2.901195335388183594e+01 -2.610072195529937744e-01 7.464254379272460938e+00 2.160974025726318359e+00 1.617740392684936523e-01
3.674000000000000000e+03 7.609944152832031250e+01 3.010112380981445312e+01 -1.890535503625869751e-01 7.499416351318359375e+00 2.193108797073364258e+00 9.210731834173202515e-02
3.675000000000000000e+03 4.289549636840820312e+01 1.414803695678710938e+01 5.569383502006530762e-01 8.244269371032714844e+00 2.640362262725830078e+00 -8.882787227630615234e-01
3.676000000000000000e+03 4.712999725341796875e+01 1.607295417785644531e+01 8.279642462730407715e-01 8.606994628906250000e+00 2.830487728118896484e+00 1.464956521987915039e+00
3.677000000000000000e+03 3.817231416702270508e+00 -2.512803459167480469e+01 3.590435162186622620e-02 -5.165166258811950684e-01 -1.441836804151535034e-01 1.527490280568599701e-02
3.678000000000000000e+03 7.528734588623046875e+01 -2.219999885559082031e+01 3.579791188240051270e-01 8.065403938293457031e+00 2.527014970779418945e+00 -1.259990096092224121e+00
3.679000000000000000e+03 4.629056167602539062e+01 8.965330123901367188e+00 1.152579069137573242e+00 1.218972873687744141e+01 4.002692222595214844e+00 1.219348430633544922e+00
3.680000000000000000e+03 7.352901458740234375e+01 -3.336391067504882812e+01 -4.378331303596496582e-01 7.796853065490722656e+00 2.207705974578857422e+00 -1.574920117855072021e-01
3.681000000000000000e+03 7.513713073730468750e+01 2.243131256103515625e+01 -5.649351328611373901e-02 7.631640434265136719e+00 2.272544145584106445e+00 8.520837426185607910e-01
3.682000000000000000e+03 7.616066741943359375e+01 -2.074195098876953125e+01 4.523563086986541748e-01 7.579559326171875000e+00 2.409574747085571289e+00 -9.357561469078063965e-01
3.683000000000000000e+03 7.520084381103515625e+01 -2.445071792602539062e+01 -1.019452586770057678e-01 8.334107398986816406e+00 2.469648599624633789e+00 -1.356934785842895508e+00
3.684000000000000000e+03 4.690433979034423828e+00 2.213926315307617188e+01 -1.992223039269447327e-02 -2.890288084745407104e-02 -1.464753318578004837e-02 4.913314059376716614e-02
3.685000000000000000e+03 7.520826721191406250e+01 2.150291442871093750e+01 1.155876591801643372e-01 7.600171089172363281e+00 2.314727783203125000e+00 8.460576534271240234e-01
3.686000000000000000e+03 7.529711151123046875e+01 2.068148803710937500e+01 2.861435115337371826e-01 7.508474349975585938e+00 2.338385343551635742e+00 8.115298151969909668e-01
3.687000000000000000e+03 7.582533264160156250e+01 2.582872009277343750e+01 -2.916443347930908203e-01 7.575435638427734375e+00 2.185137271881103516e+00 5.234237909317016602e-01
3.688000000000000000e+03 7.511598968505859375e+01 2.337205505371093750e+01 -2.099402546882629395e-01 7.662142276763916016e+00 2.235660552978515625e+00 7.761697769165039062e-01
3.689000000000000000e+03 3.903923988342285156e+00 -2.288125991821289062e+01 5.496558174490928650e-02 -4.910378456115722656e-01 -1.308216899633407593e-01 -2.969238907098770142e-02
3.690000000000000000e+03 4.751800537109375000e+00 -2.132858085632324219e+01 8.228856325149536133e-02 -3.600676953792572021e-01 -8.333373814821243286e-02 -8.048520982265472412e-02
3.691000000000000000e+03 4.719411373138427734e+00 2.457147407531738281e+01 -1.685453578829765320e-02 -4.985378310084342957e-02 -2.001249603927135468e-02 6.635697185993194580e-02
3.692000000000000000e+03 7.490241241455078125e+01 2.880739974975585938e+01 -3.367466628551483154e-01 7.370465755462646484e+00 2.110115766525268555e+00 1.340147107839584351e-01
3.693000000000000000e+03 7.583831024169921875e+01 2.662720298767089844e+01 -2.961861789226531982e-01 7.557453632354736328e+00 2.178380250930786133e+00 4.254863858222961426e-01
3.694000000000000000e+03 7.439573669433593750e+01 2.256257057189941406e+01 -1.193665191531181335e-01 7.817759037017822266e+00 2.309517860412597656e+00 8.353302478790283203e-01
3.695000000000000000e+03 7.583309173583984375e+01 1.508464622497558594e+01 5.252733230590820312e-01 7.236483097076416016e+00 2.328526973724365234e+00 -2.562033236026763916e-01
3.696000000000000000e+03 7.519155120849609375e+01 1.377543258666992188e+01 5.376785397529602051e-01 7.504318714141845703e+00 2.412599086761474609e+00 -5.480040907859802246e-01
3.697000000000000000e+03 3.870841741561889648e+00 -2.582711029052734375e+01 2.920130640268325806e-02 -5.108568668365478516e-01 -1.444966793060302734e-01 2.612344175577163696e-02
3.698000000000000000e+03 4.697589397430419922e+00 -2.216585350036621094e+01 7.722635567188262939e-02 -3.791610598564147949e-01 -9.058041125535964966e-02 -5.779664218425750732e-02
3.699000000000000000e+03 4.701036834716796875e+01 1.679851531982421875e+01 7.570651769638061523e-01 8.202888488769531250e+00 2.687986135482788086e+00 1.272940516471862793e+00
3.700000000000000000e+03 3.971677064895629883e+00 2.137326431274414062e+01 -1.467171218246221542e-02 -2.719153277575969696e-02 -1.255897339433431625e-02 3.839446231722831726e-02
3.701000000000000000e+03 4.684480667114257812e+00 2.296496772766113281e+01 -1.879773288965225220e-02 -3.580927103757858276e-02 -1.638210192322731018e-02 5.543697625398635864e-02
3.702000000000000000e+03 7.547174072265625000e+01 1.947422409057617188e+01 4.260435998439788818e-01 7.412915706634521484e+00 2.351687669754028320e+00 6.402363181114196777e-01
3.703000000000000000e+03 4.259417533874511719e+00 2.785147666931152344e+01 -6.729559507220983505e-03 -9.355664253234863281e-02 -3.008585982024669647e-02 7.578611373901367188e-02
3.704000000000000000e+03 5.248465061187744141e+00 2.917158889770507812e+01 -4.080505575984716415e-03 -9.267577528953552246e-02 -2.902688272297382355e-02 9.065394848585128784e-02
3.705000000000000000e+03 5.373595237731933594e+00 -3.115570068359375000e+01 -1.194226089864969254e-02 -3.638551235198974609e-01 -1.127392202615737915e-01 3.878273442387580872e-02
3.706000000000000000e+03 7.628134155273437500e+01 1.825062751770019531e+01 4.069406390190124512e-01 7.069224357604980469e+00 2.242849588394165039e+00 3.948991298675537109e-01
3.707000000000000000e+03 7.832082271575927734e+00 -1.911885452270507812e+01 1.439393460750579834e-01 8.640768378973007202e-02 6.910410523414611816e-02 -1.821868717670440674e-01
3.708000000000000000e+03 7.614646148681640625e+01 -1.998338890075683594e+01 5.314954519271850586e-01 7.499641895294189453e+00 2.409341096878051758e+00 -7.976689934730529785e-01
3.709000000000000000e+03 7.558179473876953125e+01 -2.099390220642089844e+01 5.193835496902465820e-01 7.845557689666748047e+00 2.509482383728027344e+00 -1.057695031166076660e+00
3.710000000000000000e+03 7.315225219726562500e+01 -1.554325866699218750e+01 1.268607974052429199e+00 8.730578422546386719e+00 2.999755859375000000e+00 2.763010263442993164e-01
3.711000000000000000e+03 7.565223693847656250e+01 1.631968879699707031e+01 5.866573452949523926e-01 7.261688232421875000e+00 2.354503631591796875e+00 -1.868805103003978729e-02
3.712000000000000000e+03 7.401161956787109375e+01 1.526682090759277344e+01 9.208737015724182129e-01 7.932976245880126953e+00 2.656154870986938477e+00 -2.499692738056182861e-01
3.713000000000000000e+03 7.477308654785156250e+01 1.329962825775146484e+01 5.460886359214782715e-01 7.652787208557128906e+00 2.459662675857543945e+00 -6.114295125007629395e-01
3.714000000000000000e+03 5.434273719787597656e+00 -6.497878074645996094e+00 -6.427792459726333618e-02 -6.333684176206588745e-02 -3.828442841768264771e-02 -1.745180934667587280e-01
3.715000000000000000e+03 7.365128326416015625e+01 -1.762679481506347656e+01 1.358739495277404785e+00 8.570441246032714844e+00 2.978754281997680664e+00 -2.907191812992095947e-01
3.716000000000000000e+03 7.616802978515625000e+01 -1.674859237670898438e+01 6.048383116722106934e-01 7.283763408660888672e+00 2.366580486297607422e+00 4.908585175871849060e-02
3.717000000000000000e+03 7.616722869873046875e+01 -1.358119297027587891e+01 3.056908547878265381e-01 7.374244213104248047e+00 2.303980350494384766e+00 6.841457486152648926e-01
3.718000000000000000e+03 7.560803222656250000e+01 -1.588242626190185547e+01 6.704155802726745605e-01 7.525147914886474609e+00 2.458668947219848633e+00 2.596639990806579590e-01
3.719000000000000000e+03 5.365957736968994141e+00 -7.237647533416748047e+00 -5.478673800826072693e-02 -7.675556093454360962e-02 -3.946268931031227112e-02 -1.847879290580749512e-01
3.720000000000000000e+03 7.531120300292968750e+01 1.147980880737304688e+01 2.551034986972808838e-01 7.549862384796142578e+00 2.341489791870117188e+00 -8.262917399406433105e-01
3.721000000000000000e+03 7.379401397705078125e+01 -1.972885894775390625e+01 1.160601496696472168e+00 8.546180725097656250e+00 2.912034749984741211e+00 -8.842883706092834473e-01
3.722000000000000000e+03 7.608832550048828125e+01 -1.842137718200683594e+01 6.332975625991821289e-01 7.382641792297363281e+00 2.404781818389892578e+00 -4.011472761631011963e-01
3.723000000000000000e+03 7.460162353515625000e+01 1.240698146820068359e+01 4.633885324001312256e-01 7.749295234680175781e+00 2.463805198669433594e+00 -7.351915836334228516e-01
3.724000000000000000e+03 7.548561859130859375e+01 4.285044670104980469e+00 -3.140726089477539062e-01 7.741610050201416016e+00 2.228261232376098633e+00 -5.102789402008056641e-01
3.725000000000000000e+03 7.605995178222656250e+01 -1.023220539093017578e+01 -5.252038687467575073e-02 7.637849330902099609e+00 2.275598764419555664e+00 8.473002314567565918e-01
3.726000000000000000e+03 7.620086669921875000e+01 7.217045783996582031e+00 -1.593592315912246704e-01 7.658640861511230469e+00 2.249784469604492188e+00 -7.545817494392395020e-01
3.727000000000000000e+03 7.550041961669921875e+01 5.056756019592285156e+00 -2.970542907714843750e-01 7.736848831176757812e+00 2.231938362121582031e+00 -5.981990098953247070e-01
3.728000000000000000e+03 6.969488525390625000e+01 -1.238174247741699219e+01 4.137436449527740479e-01 9.334969520568847656e+00 2.924613952636718750e+00 -3.706950545310974121e-01
3.729000000000000000e+03 7.481064605712890625e+01 -2.874219417572021484e+00 -3.725458979606628418e-01 7.634526729583740234e+00 2.178594350814819336e+00 2.282702177762985229e-01
3.730000000000000000e+03 7.178548431396484375e+01 -1.183034896850585938e+01 1.815301775932312012e-01 8.747314453125000000e+00 2.678653478622436523e+00 5.300191640853881836e-01
3.731000000000000000e+03 7.548399353027343750e+01 -2.912573575973510742e+00 -3.063278794288635254e-01 7.761096477508544922e+00 2.236430644989013672e+00 2.355131059885025024e-01
3.732000000000000000e+03 7.537413024902343750e+01 -1.193259620666503906e+01 1.464647501707077026e-01 7.738967418670654297e+00 2.365629673004150391e+00 8.726058602333068848e-01
3.733000000000000000e+03 7.612995910644531250e+01 -8.581965446472167969e+00 -1.689726561307907104e-01 7.722279548645019531e+00 2.265992164611816406e+00 7.586975097656250000e-01
3.734000000000000000e+03 7.615114593505859375e+01 1.930217444896697998e-01 -2.451684325933456421e-01 7.897796154022216797e+00 2.295788288116455078e+00 -7.139109075069427490e-02
3.735000000000000000e+03 7.614167022705078125e+01 2.607432126998901367e+00 -2.520826458930969238e-01 7.863445281982421875e+00 2.283408880233764648e+00 -3.238200843334197998e-01
3.736000000000000000e+03 7.615926361083984375e+01 -4.564455032348632812e+00 -2.412442266941070557e-01 7.859375476837158203e+00 2.285439252853393555e+00 3.964973688125610352e-01
3.737000000000000000e+03 7.548735809326171875e+01 -5.259137630462646484e+00 -3.069753944873809814e-01 7.770327568054199219e+00 2.239005565643310547e+00 4.693984389305114746e-01
3.738000000000000000e+03 7.544870758056640625e+01 -6.062600612640380859e+00 -3.041316866874694824e-01 7.777229309082031250e+00 2.241929292678833008e+00 5.496463775634765625e-01
3.739000000000000000e+03 7.547714996337890625e+01 -2.130738496780395508e+00 -3.053912520408630371e-01 7.757373332977294922e+00 2.235594749450683594e+00 1.620388031005859375e-01
3.740000000000000000e+03 7.549590301513671875e+01 -3.693892240524291992e+00 -3.035528361797332764e-01 7.765728473663330078e+00 2.238652706146240234e+00 3.189696371555328369e-01
3.741000000000000000e+03 7.544651794433593750e+01 2.684465885162353516e+00 -3.242458105087280273e-01 7.744832515716552734e+00 2.226176023483276367e+00 -3.353582024574279785e-01
3.742000000000000000e+03 7.612551116943359375e+01 -7.782057285308837891e+00 -2.006542384624481201e-01 7.759041309356689453e+00 2.267516136169433594e+00 6.998285055160522461e-01
3.743000000000000000e+03 7.593438720703125000e+01 9.633083343505859375e+00 1.238553971052169800e-02 7.516475200653076172e+00 2.258658170700073242e+00 -8.660210371017456055e-01
3.744000000000000000e+03 7.481279754638671875e+01 4.363590240478515625e+00 -3.840951323509216309e-01 7.670314311981201172e+00 2.185865640640258789e+00 -5.190570950508117676e-01
3.745000000000000000e+03 7.318261718750000000e+01 -2.016099548339843750e+01 1.197688698768615723e+00 8.886667251586914062e+00 3.025306940078735352e+00 -9.974524378776550293e-01
3.746000000000000000e+03 7.529348754882812500e+01 8.641324996948242188e+00 -9.039510786533355713e-02 7.659708499908447266e+00 2.270793914794921875e+00 -8.787692785263061523e-01
3.747000000000000000e+03 7.491167449951171875e+01 7.260618686676025391e+00 -2.519566118717193604e-01 7.715017795562744141e+00 2.238918304443359375e+00 -8.082380294799804688e-01
3.748000000000000000e+03 7.587161254882812500e+01 1.892750740051269531e+01 4.526978731155395508e-01 7.216875076293945312e+00 2.300871849060058594e+00 5.451412796974182129e-01
3.749000000000000000e+03 7.448035430908203125e+01 1.821132659912109375e+01 8.026579022407531738e-01 7.726758956909179688e+00 2.558825016021728516e+00 4.074108004570007324e-01
3.750000000000000000e+03 7.545536041259765625e+01 1.058240532875061035e+00 -3.207410573959350586e-01 7.748946189880371094e+00 2.228461503982543945e+00 -1.645575165748596191e-01
3.751000000000000000e+03 7.546931457519531250e+01 2.421593815088272095e-01 -3.179213404655456543e-01 7.751111030578613281e+00 2.229956865310668945e+00 -8.002592623233795166e-02
3.752000000000000000e+03 7.533155822753906250e+01 -1.011177253723144531e+01 -8.702016621828079224e-02 7.789818286895751953e+00 2.310839414596557617e+00 8.744453191757202148e-01
3.753000000000000000e+03 7.546650695800781250e+01 3.491618156433105469e+00 -3.246591091156005859e-01 7.746311187744140625e+00 2.226495504379272461e+00 -4.282303154468536377e-01
3.754000000000000000e+03 7.238229370117187500e+01 -1.822620010375976562e+01 1.699009299278259277e+00 9.459433555603027344e+00 3.347532749176025391e+00 -5.094824433326721191e-01
3.755000000000000000e+03 7.542835998535156250e+01 -6.878422737121582031e+00 -2.881120741367340088e-01 7.780075550079345703e+00 2.247589111328125000e+00 6.332938075065612793e-01
3.756000000000000000e+03 7.544503021240234375e+01 -7.698902130126953125e+00 -2.609423100948333740e-01 7.778291702270507812e+00 2.255204677581787109e+00 7.044073939323425293e-01
3.757000000000000000e+03 7.147145080566406250e+01 1.066390037536621094e+01 2.990564703941345215e-01 8.514050483703613281e+00 2.643932104110717773e+00 -5.454849004745483398e-01
3.758000000000000000e+03 7.170767211914062500e+01 -1.855810546875000000e+01 1.782013058662414551e+00 1.007676887512207031e+01 3.557634592056274414e+00 -5.789230465888977051e-01
3.759000000000000000e+03 7.488249969482421875e+01 -2.681094551086425781e+01 -4.171346127986907959e-01 8.444629669189453125e+00 2.408248424530029297e+00 -1.126258611679077148e+00
3.760000000000000000e+03 7.567748260498046875e+01 -2.558670616149902344e+01 -2.364211827516555786e-01 8.346025466918945312e+00 2.432881355285644531e+00 -1.221194863319396973e+00
3.761000000000000000e+03 4.510182380676269531e+00 -2.987560272216796875e+01 -3.454920952208340168e-04 -4.416429102420806885e-01 -1.325965225696563721e-01 4.389131441712379456e-02
3.762000000000000000e+03 6.771636486053466797e+00 -2.465374946594238281e+01 9.888595342636108398e-02 -1.369054466485977173e-01 -1.140584703534841537e-02 -1.639653369784355164e-02
3.763000000000000000e+03 4.501096248626708984e+00 1.473137283325195312e+01 -7.615956012159585953e-03 -2.837934065610170364e-03 -3.136167069897055626e-03 5.775352474302053452e-03
3.764000000000000000e+03 8.930531501770019531e+00 -2.342032623291015625e+01 1.822065114974975586e-01 1.735913306474685669e-01 1.067393496632575989e-01 -8.448789268732070923e-02
3.765000000000000000e+03 4.563538551330566406e+00 -3.259658050537109375e+01 -1.781065948307514191e-02 -4.494572579860687256e-01 -1.401803642511367798e-01 3.806925937533378601e-02
3.766000000000000000e+03 6.706840991973876953e+00 -3.173762893676757812e+01 -1.717425696551799774e-02 -2.370495498180389404e-01 -7.626714557409286499e-02 1.894756779074668884e-02
3.767000000000000000e+03 3.819747209548950195e+00 -9.286106109619140625e+00 -1.976565271615982056e-02 -1.743581593036651611e-01 -5.823714286088943481e-02 -1.764626502990722656e-01
3.768000000000000000e+03 4.554862499237060547e+00 -8.610525131225585938e+00 -3.164388611912727356e-02 -1.286303550004959106e-01 -4.808227345347404480e-02 -1.874971538782119751e-01
3.769000000000000000e+03 7.530960845947265625e+01 2.000915145874023438e+01 3.711744546890258789e-01 7.486878395080566406e+00 2.357415676116943359e+00 7.110944986343383789e-01
3.770000000000000000e+03 7.371390533447265625e+01 1.679116439819335938e+01 1.049365401268005371e+00 8.166354179382324219e+00 2.764715909957885742e+00 9.184664487838745117e-02
3.771000000000000000e+03 7.521340942382812500e+01 -2.841869163513183594e+01 -4.416157305240631104e-01 8.478855133056640625e+00 2.411171913146972656e+00 -8.841890096664428711e-01
3.772000000000000000e+03 4.500776767730712891e+00 1.552633094787597656e+01 -9.665294550359249115e-03 -3.738806350156664848e-03 -4.021230153739452362e-03 8.245831355452537537e-03
3.773000000000000000e+03 7.132529449462890625e+01 -2.395006942749023438e+01 -2.863378822803497314e-01 9.179589271545410156e+00 2.667975664138793945e+00 -1.042132496833801270e+00
3.774000000000000000e+03 4.089196205139160156e+00 -1.623951911926269531e+01 3.314623609185218811e-02 -3.360698819160461426e-01 -9.087709337472915649e-02 -1.774246692657470703e-01
3.775000000000000000e+03 1.296209430694580078e+01 5.399578571319580078e+00 8.495965739712119102e-04 -1.875219400972127914e-03 -3.076868597418069839e-04 1.760002109222114086e-03
3.776000000000000000e+03 4.892052650451660156e+00 -1.602955436706542969e+01 3.931488469243049622e-02 -2.489533126354217529e-01 -6.289152801036834717e-02 -1.960592269897460938e-01
3.777000000000000000e+03 3.930787563323974609e+00 -1.886367416381835938e+01 5.332503095269203186e-02 -4.200156927108764648e-01 -1.100072041153907776e-01 -1.286952197551727295e-01
3.778000000000000000e+03 7.521996974945068359e+00 -1.854046821594238281e+01 1.258140504360198975e-01 4.714887961745262146e-02 5.188887938857078552e-02 -1.898244172334671021e-01
3.779000000000000000e+03 4.399735450744628906e+00 -1.296887969970703125e+01 2.243542810901999474e-03 -2.330336123704910278e-01 -6.923702359199523926e-02 -2.050681114196777344e-01
3.780000000000000000e+03 6.055836677551269531e+00 -8.080987930297851562e+00 -5.395386740565299988e-02 -6.689033657312393188e-02 -3.625326231122016907e-02 -2.054095417261123657e-01
3.781000000000000000e+03 5.146631240844726562e+00 -1.357193183898925781e+01 1.010198611766099930e-02 -1.841125488281250000e-01 -5.220316722989082336e-02 -2.172848880290985107e-01
3.782000000000000000e+03 6.192848682403564453e+00 -1.179078674316406250e+01 -8.787666447460651398e-03 -8.895047754049301147e-02 -2.932144328951835632e-02 -2.287424653768539429e-01
3.783000000000000000e+03 4.595413208007812500e+00 -7.857256889343261719e+00 -3.808880224823951721e-02 -1.116024404764175415e-01 -4.490737244486808777e-02 -1.793287247419357300e-01
3.784000000000000000e+03 3.762744903564453125e+00 -1.079468727111816406e+01 -1.119958423078060150e-02 -2.188650667667388916e-01 -6.901939213275909424e-02 -1.843364685773849487e-01
3.785000000000000000e+03 4.397143363952636719e+00 -1.156745052337646484e+01 -7.715962827205657959e-03 -2.001252472400665283e-01 -6.235236302018165588e-02 -2.030879408121109009e-01
3.786000000000000000e+03 4.555291175842285156e+00 -1.443394660949707031e+01 1.664984412491321564e-02 -2.509278059005737305e-01 -7.028338313102722168e-02 -2.028056681156158447e-01
3.787000000000000000e+03 3.924241542816162109e+00 1.890180587768554688e+01 -1.221311558037996292e-02 -1.307917945086956024e-02 -7.587688509374856949e-03 2.302815206348896027e-02
3.788000000000000000e+03 9.848780632019042969e+00 -1.119064617156982422e+01 6.637309561483561993e-04 8.672603219747543335e-02 2.621692791581153870e-02 -1.801831126213073730e-01
3.789000000000000000e+03 5.502650260925292969e+00 2.034835624694824219e+01 -2.528974600136280060e-02 -1.398846972733736038e-02 -1.178346388041973114e-02 4.014080762863159180e-02
3.790000000000000000e+03 3.965051889419555664e+00 2.054800033569335938e+01 -1.399149186909198761e-02 -2.175593748688697815e-02 -1.072422880679368973e-02 3.322223201394081116e-02
3.791000000000000000e+03 4.724901676177978516e+00 -1.966184997558593750e+01 7.692785561084747314e-02 -3.361640572547912598e-01 -7.777086645364761353e-02 -1.242564916610717773e-01
3.792000000000000000e+03 5.365035057067871094e+00 9.104417800903320312e+00 -8.423795225098729134e-04 -1.385903218761086464e-03 -6.684848340228199959e-04 -2.149057108908891678e-03
3.793000000000000000e+03 3.863452434539794922e+00 1.165558719635009766e+01 -2.392586786299943924e-03 3.355738008394837379e-04 -6.171039422042667866e-04 -8.618789725005626678e-04
3.794000000000000000e+03 4.519631385803222656e+00 1.632689285278320312e+01 -1.084369234740734100e-02 -5.094252992421388626e-03 -4.781383555382490158e-03 1.174796931445598602e-02
3.795000000000000000e+03 4.555792331695556641e+00 1.713137435913085938e+01 -1.318699959665536880e-02 -6.696918047964572906e-03 -5.965175107121467590e-03 1.531427353620529175e-02
3.796000000000000000e+03 4.763257980346679688e+00 -2.048226737976074219e+01 8.157070726156234741e-02 -3.445371985435485840e-01 -7.888995110988616943e-02 -1.047277972102165222e-01
3.797000000000000000e+03 4.518446922302246094e+00 1.394198513031005859e+01 -6.584670860320329666e-03 -2.075313823297619820e-03 -2.597995335236191750e-03 3.371660597622394562e-03
3.798000000000000000e+03 4.604223728179931641e+00 1.794525718688964844e+01 -1.445648539811372757e-02 -8.827934972941875458e-03 -6.985326297581195831e-03 2.007428556680679321e-02
3.799000000000000000e+03 5.482063770294189453e+00 -1.949413490295410156e+01 9.550648927688598633e-02 -2.397908568382263184e-01 -4.328531026840209961e-02 -1.400404125452041626e-01
3.800000000000000000e+03 4.555613517761230469e+00 3.161893272399902344e+01 2.813179744407534599e-03 -1.330116242170333862e-01 -3.905953094363212585e-02 8.129122853279113770e-02
3.801000000000000000e+03 4.599973201751708984e+00 9.966500282287597656e+00 -1.200532657094299793e-03 -5.427147843874990940e-04 -5.229742382653057575e-04 -1.937098335474729538e-03
3.802000000000000000e+03 4.615437507629394531e+00 9.180473327636718750e+00 -9.009376517497003078e-04 -4.577161162160336971e-04 -4.075961187481880188e-04 -2.405608072876930237e-03
3.803000000000000000e+03 4.575443744659423828e+00 1.155453872680664062e+01 -2.767548663541674614e-03 -9.496991988271474838e-04 -1.115174381993710995e-03 -6.034295074641704559e-04
3.804000000000000000e+03 4.587480545043945312e+00 1.075904750823974609e+01 -2.220804104581475258e-03 -7.321162265725433826e-04 -8.858760702423751354e-04 -1.523971674032509327e-03
3.805000000000000000e+03 5.137979030609130859e+00 1.540099906921386719e+01 -1.129160821437835693e-02 -3.883281024172902107e-03 -4.552466794848442078e-03 8.825086988508701324e-03
3.806000000000000000e+03 3.928315639495849609e+00 6.952808856964111328e+00 2.014022757066413760e-04 5.850874586030840874e-04 2.359469217481091619e-04 -2.725565806031227112e-03
3.807000000000000000e+03 4.713780403137207031e+00 6.138411998748779297e+00 5.162557354196906090e-04 -1.984416740015149117e-04 9.534421405987814069e-05 -2.643654122948646545e-03
3.808000000000000000e+03 4.098827838897705078e+00 2.622934341430664062e+01 -1.035313121974468231e-02 -7.436082512140274048e-02 -2.541418746113777161e-02 6.846885383129119873e-02
3.809000000000000000e+03 5.158312797546386719e+00 2.849852180480957031e+01 -6.209558807313442230e-03 -8.690033107995986938e-02 -2.793296612799167633e-02 8.859772980213165283e-02
3.810000000000000000e+03 7.467254638671875000e+01 -3.131254386901855469e+01 -4.680160284042358398e-01 8.305326461791992188e+00 2.351193189620971680e+00 -4.506387412548065186e-01
3.811000000000000000e+03 2.661707115173339844e+01 -1.184115695953369141e+01 4.425903558731079102e-01 -5.525108426809310913e-02 1.162017881870269775e-01 -2.252920717000961304e-01
3.812000000000000000e+03 4.820559501647949219e+00 2.614763832092285156e+01 -1.356902066618204117e-02 -6.494361162185668945e-02 -2.355378866195678711e-02 7.703020423650741577e-02
3.813000000000000000e+03 4.924877166748046875e+00 2.693725395202636719e+01 -1.169540453702211380e-02 -7.260458171367645264e-02 -2.528999559581279755e-02 8.151479065418243408e-02
3.814000000000000000e+03 5.030270576477050781e+00 3.247443008422851562e+01 8.122986182570457458e-03 -1.333133131265640259e-01 -3.755709901452064514e-02 8.450986444950103760e-02
3.815000000000000000e+03 1.690082740783691406e+01 -6.553064823150634766e+00 -2.412155568599700928e-01 8.289015293121337891e-02 -4.749761894345283508e-02 -1.305102705955505371e-01
3.816000000000000000e+03 2.375938224792480469e+01 -7.906865119934082031e+00 -3.223822116851806641e-01 1.060807108879089355e-01 -6.489044427871704102e-02 -1.442973315715789795e-01
3.817000000000000000e+03 5.050822257995605469e+00 2.772935295104980469e+01 -8.638672530651092529e-03 -8.066590130329132080e-02 -2.679137326776981354e-02 8.622468262910842896e-02
3.818000000000000000e+03 5.394973754882812500e+00 2.293718719482421875e+01 -2.416348829865455627e-02 -3.014324977993965149e-02 -1.629202067852020264e-02 6.032431498169898987e-02
3.819000000000000000e+03 4.699647903442382812e+00 -2.630944633483886719e+01 3.069867007434368134e-02 -4.169130027294158936e-01 -1.158642992377281189e-01 2.795524522662162781e-02
3.820000000000000000e+03 7.585137939453125000e+01 -3.145003509521484375e+01 -3.029941618442535400e-01 8.666550636291503906e+00 2.509067058563232422e+00 -4.482534229755401611e-01
3.821000000000000000e+03 7.492997741699218750e+01 -3.011138534545898438e+01 -4.829556345939636230e-01 8.413186073303222656e+00 2.379069089889526367e+00 -6.274499297142028809e-01
3.822000000000000000e+03 6.554502868652343750e+01 -9.928287506103515625e+00 3.415789604187011719e-01 4.153599262237548828e+00 1.348553419113159180e+00 -1.948662638664245605e+00
3.823000000000000000e+03 1.570693969726562500e+01 -7.829684734344482422e+00 -9.880270808935165405e-02 1.044767275452613831e-01 1.702205743640661240e-03 -1.714069694280624390e-01
3.824000000000000000e+03 5.173981189727783203e+00 -2.790317153930664062e+01 1.714804023504257202e-02 -3.627227544784545898e-01 -1.036724150180816650e-01 3.827509656548500061e-02
3.825000000000000000e+03 5.060243606567382812e+00 -3.388022994995117188e+01 -2.157533913850784302e-02 -4.080645143985748291e-01 -1.288919597864151001e-01 3.409832343459129333e-02
3.826000000000000000e+03 3.037624931335449219e+01 -1.155144500732421875e+01 5.889771580696105957e-01 -1.293982267379760742e-01 1.378736793994903564e-01 -1.082158908247947693e-01
3.827000000000000000e+03 3.092424201965332031e+01 -1.201011943817138672e+01 7.145941853523254395e-01 -4.244213923811912537e-02 2.016456127166748047e-01 -5.948192626237869263e-02
3.828000000000000000e+03 7.512529754638671875e+01 2.818010902404785156e+01 -3.361690938472747803e-01 7.467308521270751953e+00 2.139341831207275391e+00 2.355666309595108032e-01
3.829000000000000000e+03 7.510382080078125000e+01 2.749808311462402344e+01 -3.685178160667419434e-01 7.494297981262207031e+00 2.137734174728393555e+00 2.929607033729553223e-01
3.830000000000000000e+03 7.517304992675781250e+01 3.393585968017578125e+01 -7.312183827161788940e-02 7.094857692718505859e+00 2.106520891189575195e+00 -1.200497895479202271e-01
3.831000000000000000e+03 7.218452453613281250e+01 3.236159896850585938e+01 -2.078397125005722046e-01 6.445568084716796875e+00 1.871318459510803223e+00 -3.224329352378845215e-01
3.832000000000000000e+03 1.438305473327636719e+01 -6.676366806030273438e+00 -1.912047564983367920e-01 7.719274610280990601e-02 -3.420360386371612549e-02 -1.782376021146774292e-01
3.833000000000000000e+03 1.539566707611083984e+01 -9.627738952636718750e+00 9.668705612421035767e-02 1.200620159506797791e-01 6.502472609281539917e-02 -1.720306277275085449e-01
3.834000000000000000e+03 4.582851791381835938e+01 1.249238395690917969e+01 8.045576810836791992e-01 1.035874652862548828e+01 3.348991155624389648e+00 1.219546079635620117e+00
3.835000000000000000e+03 4.522000503540039062e+01 1.276495838165283203e+01 7.365536093711853027e-01 1.015333747863769531e+01 3.266967535018920898e+00 8.432866334915161133e-01
3.836000000000000000e+03 4.951540756225585938e+01 -2.763460159301757812e+00 1.256661653518676758e+00 4.647200107574462891e+00 1.771158456802368164e+00 -6.749593615531921387e-01
3.837000000000000000e+03 9.655283927917480469e+00 5.858747959136962891e+00 9.677454363554716110e-04 -2.715047681704163551e-03 -5.241906619630753994e-04 -3.819063422270119190e-04
3.838000000000000000e+03 2.755618095397949219e+01 -7.479155540466308594e+00 -6.894395351409912109e-01 -6.969018280506134033e-02 -2.277389019727706909e-01 -2.710328400135040283e-01
3.839000000000000000e+03 4.651075839996337891e+00 -7.102232456207275391e+00 -4.538460075855255127e-02 -9.464727342128753662e-02 -4.200956225395202637e-02 -1.701578646898269653e-01
3.840000000000000000e+03 5.564168930053710938e+00 -5.734542369842529297e+00 -7.655660808086395264e-02 -4.784056916832923889e-02 -3.731915354728698730e-02 -1.614161580801010132e-01
3.841000000000000000e+03 7.192771148681640625e+01 -1.926514244079589844e+01 1.685933232307434082e+00 9.821421623229980469e+00 3.452206373214721680e+00 -7.107439041137695312e-01
3.842000000000000000e+03 6.745557785034179688e+00 -6.071226596832275391e+00 -9.595268219709396362e-02 -2.657775022089481354e-02 -3.675913065671920776e-02 -1.823880821466445923e-01
3.843000000000000000e+03 5.561351394653320312e+01 -2.163757085800170898e+00 1.885027408599853516e+00 -3.532284498214721680e-01 4.595396816730499268e-01 -1.006463170051574707e+00
3.844000000000000000e+03 5.322690582275390625e+01 -4.273951530456542969e+00 1.005773067474365234e+00 1.833317577838897705e-01 3.567314743995666504e-01 -1.136128902435302734e+00
3.845000000000000000e+03 4.757833099365234375e+01 -5.634884357452392578e+00 -1.611297011375427246e+00 6.913163185119628906e+00 1.590559959411621094e+00 5.187339782714843750e-01
3.846000000000000000e+03 3.989204406738281250e+01 -2.134181594848632812e+01 1.268687248229980469e+00 6.662171840667724609e+00 2.379257678985595703e+00 1.295608997344970703e+00
3.847000000000000000e+03 3.932394790649414062e+01 -2.288516807556152344e+01 1.382770299911499023e+00 6.411066055297851562e+00 2.338150978088378906e+00 1.547595262527465820e+00
3.848000000000000000e+03 6.193378829956054688e+01 -6.897185802459716797e+00 3.915292322635650635e-01 1.361734390258789062e+00 5.259791016578674316e-01 -9.762444496154785156e-01
3.849000000000000000e+03 4.677243041992187500e+01 -7.674265384674072266e+00 -2.632076263427734375e+00 8.004222869873046875e+00 1.611643910408020020e+00 7.433010935783386230e-01
3.850000000000000000e+03 4.726481246948242188e+01 -6.834210395812988281e+00 -2.377073764801025391e+00 7.377721786499023438e+00 1.500194430351257324e+00 7.426562905311584473e-01
3.851000000000000000e+03 6.873091888427734375e+01 7.854843616485595703e+00 -4.913892745971679688e-01 7.086223602294921875e+00 1.978450298309326172e+00 4.569979906082153320e-01
3.852000000000000000e+03 1.433619213104248047e+01 -8.054573059082031250e+00 -7.106877118349075317e-02 9.103201329708099365e-02 5.988972727209329605e-03 -1.911854892969131470e-01
3.853000000000000000e+03 4.133052062988281250e+01 1.539504432678222656e+01 6.129816174507141113e-01 6.320464134216308594e+00 2.080033779144287109e+00 -1.551951050758361816e+00
3.854000000000000000e+03 4.251163101196289062e+01 -1.780128860473632812e+01 1.182488918304443359e+00 8.660786628723144531e+00 2.952982664108276367e+00 7.965829372406005859e-01
3.855000000000000000e+03 7.175509643554687500e+01 1.607826614379882812e+01 1.335888266563415527e+00 9.448391914367675781e+00 3.235284090042114258e+00 -1.154396682977676392e-01
3.856000000000000000e+03 7.435791778564453125e+01 1.470135784149169922e+01 8.031939864158630371e-01 7.871206760406494141e+00 2.602320194244384766e+00 -3.743930160999298096e-01
3.857000000000000000e+03 7.075256347656250000e+01 -2.450622177124023438e+01 -5.740382671356201172e-01 8.943650245666503906e+00 2.510883569717407227e+00 -7.333218455314636230e-01
3.858000000000000000e+03 6.942824554443359375e+01 -2.533048629760742188e+01 -9.637914299964904785e-01 8.191495895385742188e+00 2.168311357498168945e+00 3.303449600934982300e-02
3.859000000000000000e+03 3.867356872558593750e+01 1.874267005920410156e+01 4.422809779644012451e-01 3.605317831039428711e+00 1.214279651641845703e+00 -1.483748435974121094e+00
3.860000000000000000e+03 5.638311767578125000e+01 -4.673916339874267578e+00 6.003436446189880371e-01 -1.986684799194335938e-01 1.205025464296340942e-01 -1.253081679344177246e+00
3.861000000000000000e+03 9.517994880676269531e+00 -7.193246364593505859e+00 -1.099831983447074890e-01 2.829017862677574158e-02 -2.450790628790855408e-02 -2.103614658117294312e-01
3.862000000000000000e+03 1.168081665039062500e+01 -2.817330169677734375e+01 5.123117193579673767e-02 2.839837968349456787e-01 1.005644947290420532e-01 -1.174036115407943726e-01
3.863000000000000000e+03 4.330743408203125000e+01 -1.705175399780273438e+01 1.086686730384826660e+00 9.391910552978515625e+00 3.143579006195068359e+00 8.788882493972778320e-01
3.864000000000000000e+03 5.799007034301757812e+01 2.759467887878417969e+01 9.305632859468460083e-02 1.619015812873840332e+00 5.136216282844543457e-01 1.037303090095520020e+00
3.865000000000000000e+03 4.871078491210937500e+01 -2.159331083297729492e+00 1.407454490661621094e+00 5.872668266296386719e+00 2.184036970138549805e+00 -7.757874131202697754e-01
3.866000000000000000e+03 1.993202018737792969e+01 -9.272079467773437500e+00 3.343227878212928772e-02 9.160017222166061401e-02 3.750973567366600037e-02 -1.242999359965324402e-01
3.867000000000000000e+03 8.424384117126464844e+00 -5.222258567810058594e+00 -1.479758173227310181e-01 1.124563720077276230e-02 -4.101905226707458496e-02 -1.730239987373352051e-01
3.868000000000000000e+03 6.522007751464843750e+01 3.285047054290771484e+00 -3.203922808170318604e-01 3.331408023834228516e+00 9.033046960830688477e-01 5.682337880134582520e-01
3.869000000000000000e+03 2.051706504821777344e+01 -8.271766662597656250e+00 -1.163214743137359619e-01 9.587037563323974609e-02 -6.135329138487577438e-03 -1.077674180269241333e-01
3.870000000000000000e+03 6.643094635009765625e+01 4.383969783782958984e+00 -5.248761177062988281e-01 4.378833770751953125e+00 1.156187415122985840e+00 6.811154484748840332e-01
3.871000000000000000e+03 7.491967773437500000e+01 1.753624153137207031e+01 7.693523168563842773e-01 7.587542533874511719e+00 2.507068634033203125e+00 2.761740088462829590e-01
3.872000000000000000e+03 1.450227069854736328e+01 1.473338508605957031e+01 -2.240798994898796082e-02 -5.260475911200046539e-03 -8.300539106130599976e-03 -1.002890709787607193e-02
3.873000000000000000e+03 1.714626502990722656e+01 -7.697757720947265625e+00 -1.217720583081245422e-01 1.132308170199394226e-01 -2.562370849773287773e-03 -1.417504400014877319e-01
3.874000000000000000e+03 3.998421096801757812e+01 -1.991961860656738281e+01 1.157427549362182617e+00 6.733401298522949219e+00 2.367248535156250000e+00 1.043630480766296387e+00
3.875000000000000000e+03 4.591564178466796875e+01 1.732565689086914062e+01 4.902446568012237549e-01 7.713890552520751953e+00 2.461240530014038086e+00 5.948733091354370117e-01
3.876000000000000000e+03 2.720018577575683594e+01 -1.277660465240478516e+01 6.345937848091125488e-01 -4.605191200971603394e-02 1.765625625848770142e-01 -1.730131655931472778e-01
3.877000000000000000e+03 3.676373672485351562e+01 -1.425906562805175781e+01 4.006075263023376465e-01 3.368840694427490234e+00 1.130834460258483887e+00 -1.198155954480171204e-01
3.878000000000000000e+03 3.706744766235351562e+01 -8.131537437438964844e+00 -4.995529651641845703e-01 2.806881427764892578e+00 6.921985149383544922e-01 1.092998027801513672e+00
3.879000000000000000e+03 1.529483222961425781e+01 1.295446777343750000e+01 -4.655310884118080139e-03 -4.133400041610002518e-03 -2.636613324284553528e-03 -1.402192516252398491e-03
3.880000000000000000e+03 6.523571014404296875e+01 2.771623802185058594e+01 -1.919507086277008057e-01 3.455830335617065430e+00 9.791638851165771484e-01 -1.168308854103088379e+00
3.881000000000000000e+03 6.385384368896484375e+01 2.698526382446289062e+01 -8.571278303861618042e-02 2.362771511077880859e+00 6.831176280975341797e-01 -9.905640482902526855e-01
3.882000000000000000e+03 5.577376556396484375e+01 2.633081817626953125e+01 -2.568645775318145752e-01 2.084391593933105469e+00 5.482581257820129395e-01 1.668932437896728516e+00
3.883000000000000000e+03 6.402140045166015625e+01 2.235647439956665039e+00 -8.254376798868179321e-02 2.450032949447631836e+00 7.102467417716979980e-01 3.693653345108032227e-01
3.884000000000000000e+03 6.461769104003906250e+01 2.754768371582031250e+00 -2.051580399274826050e-01 2.863875150680541992e+00 7.976151108741760254e-01 4.768629968166351318e-01
3.885000000000000000e+03 1.423821353912353516e+01 -1.016624450683593750e+01 1.345507353544235229e-01 8.925167471170425415e-02 6.714072078466415405e-02 -1.558351814746856689e-01
3.886000000000000000e+03 1.245075321197509766e+01 -9.629831314086914062e+00 2.634364739060401917e-02 7.602038979530334473e-02 3.070921078324317932e-02 -1.760393232107162476e-01
3.887000000000000000e+03 6.845010375976562500e+01 -2.740347671508789062e+01 -1.225989937782287598e+00 6.609272956848144531e+00 1.614984869956970215e+00 4.903609156608581543e-01
3.888000000000000000e+03 6.888475799560546875e+01 -2.677443504333496094e+01 -1.209971666336059570e+00 7.153295516967773438e+00 1.782997250556945801e+00 3.162446022033691406e-01
3.889000000000000000e+03 7.098255920410156250e+01 -2.145397377014160156e+01 1.290948271751403809e+00 1.004735946655273438e+01 3.401492357254028320e+00 -9.126027226448059082e-01
3.890000000000000000e+03 3.624499130249023438e+01 2.087831115722656250e+01 2.865048050880432129e-01 2.299878835678100586e+00 7.759150862693786621e-01 -1.188980460166931152e+00
3.891000000000000000e+03 3.639505386352539062e+01 2.194869041442871094e+01 1.597672998905181885e-01 2.431445121765136719e+00 7.773637175559997559e-01 -1.153774142265319824e+00
3.892000000000000000e+03 3.669461441040039062e+01 -1.485947895050048828e+01 3.940240740776062012e-01 3.450619697570800781e+00 1.153393149375915527e+00 -2.109086215496063232e-01
3.893000000000000000e+03 3.824150085449218750e+01 2.042788314819335938e+01 2.283408492803573608e-01 3.326492071151733398e+00 1.066449880599975586e+00 -1.325879335403442383e+00
3.894000000000000000e+03 5.625010967254638672e+00 -1.568789482116699219e+01 4.370410740375518799e-02 -1.624010503292083740e-01 -3.560908511281013489e-02 -2.120146751403808594e-01
3.895000000000000000e+03 8.484667778015136719e+00 -1.714476394653320312e+01 9.871546924114227295e-02 1.813681423664093018e-01 8.402508497238159180e-02 -1.953261047601699829e-01
3.896000000000000000e+03 1.465930366516113281e+01 1.201952171325683594e+01 -3.516879165545105934e-03 -4.424790851771831512e-03 -2.382501028478145599e-03 3.386936441529542208e-04
3.897000000000000000e+03 1.476840114593505859e+01 1.112928104400634766e+01 -3.001750679686665535e-03 -3.332522232085466385e-03 -1.900281873531639576e-03 1.234790077432990074e-03
3.898000000000000000e+03 6.445436859130859375e+01 -8.705090522766113281e+00 3.459669649600982666e-01 2.923649311065673828e+00 9.808848500251770020e-01 -1.559598803520202637e+00
3.899000000000000000e+03 4.509648895263671875e+01 -1.021430683135986328e+01 -1.708034992218017578e+00 9.169365882873535156e+00 2.238399267196655273e+00 4.175844490528106689e-01
3.900000000000000000e+03 6.904340362548828125e+01 -1.083967208862304688e+01 -1.923031210899353027e-01 8.231680870056152344e+00 2.411813259124755859e+00 -7.314231395721435547e-01
3.901000000000000000e+03 6.896242523193359375e+01 -1.163401412963867188e+01 8.236712962388992310e-02 8.736170768737792969e+00 2.645561456680297852e+00 -8.653935790061950684e-01
3.902000000000000000e+03 5.915035247802734375e+01 2.714692878723144531e+01 8.493502438068389893e-02 1.258438348770141602e+00 4.030120074748992920e-01 7.364723682403564453e-01
3.903000000000000000e+03 5.656285095214843750e+01 2.777619934082031250e+01 -3.984502702951431274e-02 2.113846302032470703e+00 6.222003698348999023e-01 1.402543425559997559e+00
3.904000000000000000e+03 4.491914367675781250e+01 9.654699325561523438e+00 1.336274266242980957e+00 1.235619163513183594e+01 4.107739925384521484e+00 6.353675723075866699e-01
3.905000000000000000e+03 4.575327682495117188e+01 9.469056129455566406e+00 1.266578078269958496e+00 1.226081085205078125e+01 4.058217048645019531e+00 1.036264181137084961e+00
3.906000000000000000e+03 1.238360500335693359e+01 -7.607683658599853516e+00 -1.091406047344207764e-01 6.681911647319793701e-02 -1.269644591957330704e-02 -2.025247663259506226e-01
3.907000000000000000e+03 3.139182281494140625e+01 -9.238837242126464844e+00 -2.323161996901035309e-02 -1.945147812366485596e-01 -6.532391905784606934e-02 -1.432033479213714600e-01
3.908000000000000000e+03 3.536105728149414062e+01 -9.311427116394042969e+00 -2.165592834353446960e-02 1.598974943161010742e+00 4.731957018375396729e-01 4.815154373645782471e-01
3.909000000000000000e+03 7.045655822753906250e+01 2.053884506225585938e+01 7.064960002899169922e-01 9.350813865661621094e+00 3.017192840576171875e+00 3.727504014968872070e-01
3.910000000000000000e+03 7.046457672119140625e+01 2.156801986694335938e+01 -1.566340774297714233e-01 9.034446716308593750e+00 2.663343667984008789e+00 2.575154900550842285e-01
3.911000000000000000e+03 3.956773376464843750e+01 -8.253855705261230469e+00 -1.200049281120300293e+00 5.791638851165771484e+00 1.377476811408996582e+00 1.398597240447998047e+00
3.912000000000000000e+03 4.407021713256835938e+01 -1.238556671142578125e+01 -2.146347761154174805e-01 9.116023063659667969e+00 2.670416355133056641e+00 4.431534111499786377e-01
3.913000000000000000e+03 3.756690979003906250e+01 2.095381355285644531e+01 2.043709158897399902e-01 3.005675077438354492e+00 9.630138278007507324e-01 -1.261581301689147949e+00
3.914000000000000000e+03 1.112248706817626953e+01 -1.046104717254638672e+01 1.772030442953109741e-02 8.344832807779312134e-02 3.035059012472629547e-02 -1.635048091411590576e-01
3.915000000000000000e+03 1.050194740295410156e+01 -1.189425563812255859e+01 2.263567410409450531e-02 1.264393776655197144e-01 4.472251236438751221e-02 -1.417679339647293091e-01
3.916000000000000000e+03 6.926504516601562500e+01 -2.625164985656738281e+01 -1.133407115936279297e+00 7.644924163818359375e+00 1.953455090522766113e+00 1.693799793720245361e-01
3.917000000000000000e+03 6.811205291748046875e+01 -2.819274520874023438e+01 -1.196878433227539062e+00 6.073787689208984375e+00 1.463072776794433594e+00 5.346562266349792480e-01
3.918000000000000000e+03 1.611120796203613281e+01 2.114171981811523438e+01 -2.090844660997390747e-01 6.242564693093299866e-02 -4.399764537811279297e-02 9.595124050974845886e-03
3.919000000000000000e+03 4.060523986816406250e+01 -8.316805839538574219e+00 -1.561615824699401855e+00 6.985457897186279297e+00 1.627152681350708008e+00 1.281545281410217285e+00
3.920000000000000000e+03 4.629634094238281250e+01 -1.007154369354248047e+01 -1.813080906867980957e+00 8.854248046875000000e+00 2.112350225448608398e+00 6.643337011337280273e-01
3.921000000000000000e+03 3.833644104003906250e+01 -1.495171451568603516e+01 3.662014007568359375e-01 4.934642314910888672e+00 1.590253114700317383e+00 1.325341761112213135e-01
3.922000000000000000e+03 2.934493064880371094e+01 -7.933961391448974609e+00 -5.785700082778930664e-01 -3.150933980941772461e-01 -2.680990397930145264e-01 -3.082747459411621094e-01
3.923000000000000000e+03 3.915625381469726562e+01 -6.812106609344482422e+00 -1.119566440582275391e+00 5.187722206115722656e+00 1.220446705818176270e+00 1.904977083206176758e+00
3.924000000000000000e+03 4.549553298950195312e+01 1.078427672386169434e+00 2.356006622314453125e+00 1.168489360809326172e+01 4.212269783020019531e+00 3.370682895183563232e-01
3.925000000000000000e+03 1.446249866485595703e+01 5.730286598205566406e+00 1.289056963287293911e-03 -5.189604707993566990e-04 2.310289419256150723e-04 2.999494317919015884e-03
3.926000000000000000e+03 7.068888854980468750e+01 -1.382272624969482422e+01 1.110219478607177734e+00 9.801791191101074219e+00 3.273603439331054688e+00 7.886196672916412354e-02
3.927000000000000000e+03 1.451751899719238281e+01 1.562642669677734375e+01 -3.143861889839172363e-02 -3.527777502313256264e-03 -1.048991829156875610e-02 -1.381415687501430511e-02
3.928000000000000000e+03 1.888444900512695312e+01 2.392487716674804688e+01 -2.651487588882446289e-01 3.599793836474418640e-02 -6.874524801969528198e-02 1.231198310852050781e-01
3.929000000000000000e+03 6.572787475585937500e+01 2.640348625183105469e+01 -4.964911043643951416e-01 3.665997743606567383e+00 9.508520364761352539e-01 -1.460144400596618652e+00
3.930000000000000000e+03 4.224246978759765625e+01 -1.982630538940429688e+01 1.382932782173156738e+00 8.193881034851074219e+00 2.873044013977050781e+00 9.284586906433105469e-01
3.931000000000000000e+03 4.322143936157226562e+01 -1.953036689758300781e+01 1.367115616798400879e+00 9.289596557617187500e+00 3.197013616561889648e+00 6.965140700340270996e-01
3.932000000000000000e+03 1.076175880432128906e+01 -2.592622184753417969e+01 1.155324950814247131e-01 3.121064901351928711e-01 1.282916963100433350e-01 -1.097121387720108032e-01
3.933000000000000000e+03 5.249407577514648438e+01 2.602749443054199219e+01 -6.543151140213012695e-01 3.964775562286376953e+00 9.931381344795227051e-01 1.721588015556335449e+00
3.934000000000000000e+03 7.037484741210937500e+01 -2.578532981872558594e+01 -9.588698744773864746e-01 8.332461357116699219e+00 2.212077617645263672e+00 -4.189338386058807373e-01
3.935000000000000000e+03 7.437089538574218750e+01 -2.792561721801757812e+01 -5.553478598594665527e-01 8.401712417602539062e+00 2.353909254074096680e+00 -9.444801807403564453e-01
3.936000000000000000e+03 7.107895660400390625e+01 2.004365348815917969e+01 9.593114852905273438e-01 9.264712333679199219e+00 3.067207336425781250e+00 5.495514273643493652e-01
3.937000000000000000e+03 3.978592300415039062e+01 -1.760939598083496094e+01 8.326847553253173828e-01 6.399055957794189453e+00 2.169522285461425781e+00 6.423589587211608887e-01
3.938000000000000000e+03 1.490232276916503906e+01 1.026217937469482422e+01 -3.900493611581623554e-04 -2.199148526415228844e-03 -7.767593488097190857e-04 2.905756933614611626e-03
3.939000000000000000e+03 2.326329040527343750e+01 -1.119591999053955078e+01 2.772951722145080566e-01 2.666663192212581635e-02 9.118854254484176636e-02 -2.315132021903991699e-01
3.940000000000000000e+03 2.424856567382812500e+01 -8.345807075500488281e+00 -2.781844437122344971e-01 8.320745080709457397e-02 -5.849310010671615601e-02 -1.756858825683593750e-01
3.941000000000000000e+03 3.508514404296875000e+01 -1.293611526489257812e+01 6.018884181976318359e-01 1.830784678459167480e+00 7.298019528388977051e-01 -5.565611273050308228e-02
3.942000000000000000e+03 4.638654708862304688e+01 -2.952234268188476562e+01 -5.771189332008361816e-01 5.147693157196044922e+00 1.371172189712524414e+00 -9.586915373802185059e-01
3.943000000000000000e+03 4.692246627807617188e+01 -3.278428268432617188e+01 -9.092953801155090332e-01 4.230617046356201172e+00 9.963965415954589844e-01 -1.004268050193786621e+00
3.944000000000000000e+03 1.803959846496582031e+01 -7.655596733093261719e+00 -1.417369246482849121e-01 1.083009093999862671e-01 -1.003080327063798904e-02 -1.196260303258895874e-01
3.945000000000000000e+03 1.457635688781738281e+01 1.292361927032470703e+01 -8.786599151790142059e-03 -5.301307886838912964e-03 -4.226372111588716507e-03 -2.730248961597681046e-03
3.946000000000000000e+03 1.051423072814941406e+01 5.070288658142089844e+00 1.342974253930151463e-03 -2.202777191996574402e-03 -2.579409047029912472e-04 2.377241617068648338e-04
3.947000000000000000e+03 1.050963020324707031e+01 5.771846771240234375e+00 1.471975934691727161e-03 -2.514745341613888741e-03 -3.128307871520519257e-04 5.143077578395605087e-04
3.948000000000000000e+03 1.452171039581298828e+01 1.383096218109130859e+01 -1.221727579832077026e-02 -5.916527006775140762e-03 -5.440141074359416962e-03 -5.298068746924400330e-03
3.949000000000000000e+03 5.530566024780273438e+01 2.730380058288574219e+01 -2.258199900388717651e-01 2.524524927139282227e+00 6.896114945411682129e-01 1.629854440689086914e+00
3.950000000000000000e+03 1.217537403106689453e+01 5.542152881622314453e+00 1.617819420062005520e-03 -2.042867476120591164e-03 -1.275144459214061499e-04 1.663110917434096336e-03
3.951000000000000000e+03 1.135275077819824219e+01 5.666284084320068359e+00 1.014595734886825085e-03 -2.570807235315442085e-03 -4.668634792324155569e-04 8.138181292451918125e-04
3.952000000000000000e+03 8.706873893737792969e+00 -2.185721969604492188e+01 2.020266652107238770e-01 1.791492402553558350e-01 1.143527701497077942e-01 -1.271193623542785645e-01
3.953000000000000000e+03 4.459616470336914062e+01 -2.492924928665161133e+00 3.145542740821838379e-01 1.053267478942871094e+01 3.254168748855590820e+00 6.334224343299865723e-01
3.954000000000000000e+03 4.275561904907226562e+01 -1.536052989959716797e+01 8.239925503730773926e-01 8.575420379638671875e+00 2.819823741912841797e+00 6.542556285858154297e-01
3.955000000000000000e+03 7.555483245849609375e+01 -1.663269042968750000e+01 7.373125553131103516e-01 7.550148010253906250e+00 2.486238241195678711e+00 7.032170146703720093e-02
3.956000000000000000e+03 2.444017410278320312e+01 -6.578566074371337891e+00 -5.889909863471984863e-01 1.412698924541473389e-01 -1.343163251876831055e-01 -5.545009672641754150e-02
3.957000000000000000e+03 4.280941009521484375e+01 -1.455545043945312500e+01 6.162847280502319336e-01 8.538832664489746094e+00 2.746535301208496094e+00 5.607026219367980957e-01
3.958000000000000000e+03 1.591557598114013672e+01 8.690227508544921875e+00 -7.489234558306634426e-04 7.326520280912518501e-04 -4.881420409219572321e-06 3.238000907003879547e-03
3.959000000000000000e+03 1.517652416229248047e+01 5.616028308868408203e+00 -1.041605282807722688e-04 -2.192292304243892431e-04 -9.701692761154845357e-05 2.234428888186812401e-03
3.960000000000000000e+03 1.546767425537109375e+01 1.962616729736328125e+01 -1.492659449577331543e-01 3.732211887836456299e-02 -3.358314931392669678e-02 -1.579922065138816833e-02
3.961000000000000000e+03 4.724660110473632812e+01 9.244710206985473633e-01 2.293556928634643555e+00 9.810251235961914062e+00 3.631142377853393555e+00 -9.720057249069213867e-01
3.962000000000000000e+03 5.749262619018554688e+01 -6.263159751892089844e+00 -1.185799837112426758e-01 1.396178156137466431e-01 6.311348173767328262e-03 -9.413474202156066895e-01
3.963000000000000000e+03 5.792063903808593750e+01 -6.927622318267822266e+00 -3.229497671127319336e-01 2.469138801097869873e-01 -2.281076461076736450e-02 -7.327560782432556152e-01
3.964000000000000000e+03 2.084608268737792969e+01 -7.245442390441894531e+00 -2.618997991085052490e-01 9.334506094455718994e-02 -5.056641995906829834e-02 -6.862342357635498047e-02
3.965000000000000000e+03 1.952839088439941406e+01 -8.008663177490234375e+00 -1.358523815870285034e-01 9.635443985462188721e-02 -1.184938382357358932e-02 -1.026645600795745850e-01
3.966000000000000000e+03 1.589511013031005859e+01 5.461342811584472656e+00 1.186116132885217667e-03 5.421064561232924461e-04 5.184667534194886684e-04 2.814882202073931694e-03
3.967000000000000000e+03 6.787185668945312500e+01 -9.805215835571289062e+00 -3.037374615669250488e-01 6.877269744873046875e+00 1.972059607505798340e+00 -1.235399127006530762e+00
3.968000000000000000e+03 6.663988494873046875e+01 -8.792779922485351562e+00 -1.544589698314666748e-01 5.313011646270751953e+00 1.547565817832946777e+00 -1.473414421081542969e+00
3.969000000000000000e+03 6.007045745849609375e+01 2.648773765563964844e+01 -6.292641162872314453e-02 9.075336456298828125e-01 2.533821761608123779e-01 3.957239687442779541e-01
3.970000000000000000e+03 5.384669494628906250e+01 -2.451255559921264648e+00 2.114662170410156250e+00 5.257214978337287903e-02 6.501702666282653809e-01 -1.043266057968139648e+00
3.971000000000000000e+03 3.545212554931640625e+01 2.322222137451171875e+01 6.699422001838684082e-02 2.145814180374145508e+00 6.638425588607788086e-01 -1.047065854072570801e+00
3.972000000000000000e+03 4.751391983032226562e+01 1.939203262329101562e+01 4.650189280509948730e-01 7.109233379364013672e+00 2.272275686264038086e+00 8.988102078437805176e-01
3.973000000000000000e+03 4.314575576782226562e+01 1.629566955566406250e+01 3.513865172863006592e-01 7.135658264160156250e+00 2.246113538742065430e+00 -6.406102776527404785e-01
3.974000000000000000e+03 7.132756805419921875e+01 1.384767532348632812e+01 1.156003236770629883e+00 9.509498596191406250e+00 3.199650526046752930e+00 -2.619571685791015625e-01
3.975000000000000000e+03 7.272075653076171875e+01 1.599553012847900391e+01 1.202814102172851562e+00 8.767943382263183594e+00 2.991227388381958008e+00 -1.226525232195854187e-01
3.976000000000000000e+03 3.921444702148437500e+01 -2.382433509826660156e+01 1.452117085456848145e+00 6.292222976684570312e+00 2.323302030563354492e+00 1.574487090110778809e+00
3.977000000000000000e+03 4.311305618286132812e+01 -2.191320610046386719e+01 1.567594408988952637e+00 8.414742469787597656e+00 2.994700908660888672e+00 7.058561444282531738e-01
3.978000000000000000e+03 4.182545852661132812e+01 -2.053614807128906250e+01 1.448711752891540527e+00 7.817774772644042969e+00 2.779945850372314453e+00 1.011466860771179199e+00
3.979000000000000000e+03 7.413875579833984375e+01 5.177376270294189453e+00 -4.399989545345306396e-01 7.634541511535644531e+00 2.158362865447998047e+00 -5.814059972763061523e-01
3.980000000000000000e+03 1.505661773681640625e+01 9.424453735351562500e+00 -9.571228292770683765e-04 -1.452946569770574570e-03 -7.230208138935267925e-04 2.795775886625051498e-03
3.981000000000000000e+03 5.940958404541015625e+01 -9.473425745964050293e-01 1.045181751251220703e+00 8.718866109848022461e-02 3.397111296653747559e-01 -4.722730815410614014e-01
3.982000000000000000e+03 6.114512634277343750e+01 -6.806798934936523438e+00 3.761480450630187988e-01 1.013813853263854980e+00 4.169885814189910889e-01 -8.835301399230957031e-01
3.983000000000000000e+03 1.541481208801269531e+01 7.863295555114746094e+00 -1.702228619251400232e-04 -3.528509987518191338e-04 -1.569221640238538384e-04 3.003024728968739510e-03
3.984000000000000000e+03 4.654610443115234375e+01 1.486194229125976562e+01 7.852941155433654785e-01 9.158622741699218750e+00 2.983175277709960938e+00 1.348382711410522461e+00
3.985000000000000000e+03 4.312371444702148438e+01 1.344453525543212891e+01 5.785461068153381348e-01 8.988963127136230469e+00 2.870252609252929688e+00 -7.728518843650817871e-01
3.986000000000000000e+03 5.848608779907226562e+01 -2.009966611862182617e+00 1.241399526596069336e+00 -1.179851368069648743e-01 3.370243310928344727e-01 -7.673417329788208008e-01
3.987000000000000000e+03 8.797176361083984375e+00 5.926537990570068359e+00 1.238045631907880306e-03 -2.382213948294520378e-03 -3.432504890952259302e-04 -6.951182731427252293e-04
3.988000000000000000e+03 4.545704269409179688e+01 -2.437432289123535156e+00 4.278650283813476562e-01 9.783692359924316406e+00 3.063467025756835938e+00 3.125486075878143311e-01
3.989000000000000000e+03 6.069147872924804688e+01 2.735836410522460938e+01 1.546710282564163208e-01 1.342248320579528809e+00 4.490758180618286133e-01 1.495484411716461182e-01
3.990000000000000000e+03 7.329660797119140625e+01 1.302321720123291016e+01 7.460384368896484375e-01 8.226916313171386719e+00 2.691886425018310547e+00 -6.743710041046142578e-01
3.991000000000000000e+03 7.084965515136718750e+01 1.111032772064208984e+01 4.784685969352722168e-01 8.852111816406250000e+00 2.799174070358276367e+00 -3.456797003746032715e-01
3.992000000000000000e+03 4.624129486083984375e+01 2.102249145507812500e+01 -9.294793009757995605e-02 6.362435340881347656e+00 1.880846142768859863e+00 2.419699430465698242e-01
3.993000000000000000e+03 4.087960052490234375e+01 -2.116353225708007812e+01 1.435130476951599121e+00 7.151813507080078125e+00 2.576083183288574219e+00 1.206450939178466797e+00
3.994000000000000000e+03 1.375737094879150391e+01 1.562375450134277344e+01 -3.697511181235313416e-02 -1.072869170457124710e-03 -1.141439378261566162e-02 -1.153747551143169403e-02
3.995000000000000000e+03 4.652465057373046875e+01 1.588724231719970703e+01 7.273255586624145508e-01 8.569936752319335938e+00 2.789178609848022461e+00 1.171909213066101074e+00
3.996000000000000000e+03 4.275176620483398438e+01 1.568718242645263672e+01 4.267581403255462646e-01 7.278279781341552734e+00 2.311511516571044922e+00 -8.886392712593078613e-01
3.997000000000000000e+03 6.789687347412109375e+01 2.270531082153320312e+01 -1.112641215324401855e+00 7.291287422180175781e+00 1.853593826293945312e+00 -1.792053461074829102e+00
3.998000000000000000e+03 6.829972076416015625e+01 2.401078414916992188e+01 -1.255115747451782227e+00 6.846545696258544922e+00 1.677428960800170898e+00 -1.388654589653015137e+00
3.999000000000000000e+03 6.267291641235351562e+01 -7.191419601440429688e+00 3.991713523864746094e-01 1.753543734550476074e+00 6.458145380020141602e-01 -1.082180619239807129e+00
4.000000000000000000e+03 7.633811950683593750e+00 -2.067414474487304688e+01 1.652480214834213257e-01 3.598390147089958191e-02 6.036957725882530212e-02 -1.415694057941436768e-01
4.001000000000000000e+03 4.663306427001953125e+01 1.922903251647949219e+01 3.214441239833831787e-01 7.056005954742431641e+00 2.213235139846801758e+00 5.753812193870544434e-01
4.002000000000000000e+03 2.317293357849121094e+01 -1.053819751739501953e+01 1.664016991853713989e-01 3.883930295705795288e-02 6.157230213284492493e-02 -2.186181545257568359e-01
4.003000000000000000e+03 4.501955032348632812e+01 -2.088267326354980469e+00 6.398784518241882324e-01 1.024951553344726562e+01 3.266818284988403320e+00 4.776705205440521240e-01
4.004000000000000000e+03 3.142976760864257812e+01 -1.070302200317382812e+01 4.477314949035644531e-01 -6.770144402980804443e-02 1.140090152621269226e-01 -8.108153194189071655e-02
4.005000000000000000e+03 5.217626094818115234e+00 -1.822299194335937500e+01 7.332141697406768799e-02 -2.489755153656005859e-01 -5.269622802734375000e-02 -1.659224629402160645e-01
4.006000000000000000e+03 4.438031005859375000e+01 1.157939052581787109e+01 8.660392761230468750e-01 1.092595100402832031e+01 3.537597179412841797e+00 3.121638894081115723e-01
4.007000000000000000e+03 7.209806823730468750e+01 1.365249538421630859e+01 1.045502066612243652e+00 8.839124679565429688e+00 2.965388059616088867e+00 -4.288996756076812744e-01
4.008000000000000000e+03 4.212416458129882812e+01 -2.166495513916015625e+01 1.542366743087768555e+00 7.775983333587646484e+00 2.795505046844482422e+00 1.010400533676147461e+00
4.009000000000000000e+03 3.207546234130859375e+01 2.460034370422363281e+01 5.125619471073150635e-02 1.187671542167663574e+00 3.716783225536346436e-01 -7.584052681922912598e-01
4.010000000000000000e+03 3.391794967651367188e+01 2.334078216552734375e+01 8.840589225292205811e-02 1.597368836402893066e+00 5.057324171066284180e-01 -9.250854849815368652e-01
4.011000000000000000e+03 4.642258071899414062e+01 1.511880040168762207e+00 2.462886571884155273e+00 1.106518650054931641e+01 4.058422088623046875e+00 -3.016133308410644531e-01
4.012000000000000000e+03 5.293711853027343750e+01 -2.519185781478881836e+00 2.242653369903564453e+00 5.859959125518798828e-01 8.485947847366333008e-01 -1.057366847991943359e+00
4.013000000000000000e+03 5.174141693115234375e+01 -2.220861673355102539e+00 2.391770362854003906e+00 1.735468983650207520e+00 1.238171815872192383e+00 -1.061361312866210938e+00
4.014000000000000000e+03 1.765159416198730469e+01 -3.532815551757812500e+01 6.181614100933074951e-02 2.495924979448318481e-01 9.342259168624877930e-02 -1.983556598424911499e-01
4.015000000000000000e+03 1.926596832275390625e+01 -3.490990829467773438e+01 8.180917799472808838e-02 2.515975534915924072e-01 1.000220179557800293e-01 -2.111396640539169312e-01
4.016000000000000000e+03 7.037454223632812500e+01 1.052972030639648438e+01 2.606202065944671631e-01 8.649137496948242188e+00 2.672927141189575195e+00 -1.589974611997604370e-01
4.017000000000000000e+03 7.494544219970703125e+01 7.857069969177246094e+00 -1.867597848176956177e-01 7.704533100128173828e+00 2.255331993103027344e+00 -8.471608161926269531e-01
4.018000000000000000e+03 7.823815822601318359e+00 -2.134323692321777344e+01 1.756010055541992188e-01 5.233690142631530762e-02 6.838136911392211914e-02 -1.259122192859649658e-01
4.019000000000000000e+03 4.623479461669921875e+01 1.411752319335937500e+01 7.579427957534790039e-01 9.468537330627441406e+00 3.067944049835205078e+00 1.279865384101867676e+00
4.020000000000000000e+03 2.174882888793945312e+01 -8.215507507324218750e+00 -1.639592200517654419e-01 9.313973039388656616e-02 -2.124584652483463287e-02 -1.155799850821495056e-01
4.021000000000000000e+03 2.378373527526855469e+01 -1.049593639373779297e+01 1.409576833248138428e-01 2.790162153542041779e-02 5.065779015421867371e-02 -2.275019437074661255e-01
4.022000000000000000e+03 7.238012695312500000e+01 1.424083805084228516e+01 1.096869945526123047e+00 8.839043617248535156e+00 2.980773925781250000e+00 -3.409285247325897217e-01
4.023000000000000000e+03 7.123899841308593750e+01 1.527868652343750000e+01 1.401536583900451660e+00 9.674328804016113281e+00 3.322759866714477539e+00 -1.711559593677520752e-01
4.024000000000000000e+03 7.033019256591796875e+01 9.569298744201660156e+00 -6.277724355459213257e-02 8.247818946838378906e+00 2.455512523651123047e+00 -1.642780601978302002e-01
4.025000000000000000e+03 7.219024658203125000e+01 -1.993950843811035156e+01 1.471323013305664062e+00 9.532600402832031250e+00 3.301177024841308594e+00 -8.816379308700561523e-01
4.026000000000000000e+03 9.764575958251953125e+00 -2.403583335876464844e+01 1.851402521133422852e-01 2.755977809429168701e-01 1.382213979959487915e-01 -9.553521126508712769e-02
4.027000000000000000e+03 1.111772251129150391e+01 -2.703621482849121094e+01 7.260956615209579468e-02 2.919513881206512451e-01 1.093682870268821716e-01 -1.061857789754867554e-01
4.028000000000000000e+03 4.468640518188476562e+01 1.422631168365478516e+01 5.494793057441711426e-01 9.046302795410156250e+00 2.878734827041625977e+00 3.215745389461517334e-01
4.029000000000000000e+03 4.471080398559570312e+01 1.304749774932861328e+01 6.801189780235290527e-01 9.866378784179687500e+00 3.163949251174926758e+00 4.811542034149169922e-01
4.030000000000000000e+03 5.771767807006835938e+01 -3.778386116027832031e+00 9.893462657928466797e-01 -9.877427667379379272e-02 2.671715915203094482e-01 -1.084656119346618652e+00
4.031000000000000000e+03 1.974402999877929688e+01 2.660523796081542969e+01 -7.379055023193359375e-02 4.646737873554229736e-02 -8.196951821446418762e-03 1.263529509305953979e-01
4.032000000000000000e+03 2.013870811462402344e+01 2.495791625976562500e+01 -2.003387808799743652e-01 -1.298223069170489907e-04 -6.014057993888854980e-02 1.259370148181915283e-01
4.033000000000000000e+03 5.303292274475097656e+00 -1.673671150207519531e+01 5.377777293324470520e-02 -2.181530445814132690e-01 -4.931258037686347961e-02 -1.941028088331222534e-01
4.034000000000000000e+03 2.585946655273437500e+01 -7.131530761718750000e+00 -6.299018263816833496e-01 9.011712670326232910e-02 -1.619354039430618286e-01 -1.614267975091934204e-01
4.035000000000000000e+03 2.495887374877929688e+01 -6.287962436676025391e+00 -6.738461256027221680e-01 1.463638544082641602e-01 -1.582446843385696411e-01 -3.810210898518562317e-02
4.036000000000000000e+03 7.219113922119140625e+01 -1.751482200622558594e+01 1.755999684333801270e+00 9.583126068115234375e+00 3.401737689971923828e+00 -3.493842184543609619e-01
4.037000000000000000e+03 7.135245513916015625e+01 -1.705412292480468750e+01 1.926606059074401855e+00 1.033819866180419922e+01 3.679441452026367188e+00 -3.589063882827758789e-01
4.038000000000000000e+03 3.897560882568359375e+01 -3.158333396911621094e+01 -3.905884921550750732e-01 5.213723659515380859e+00 1.446940541267395020e+00 6.547484993934631348e-01
4.039000000000000000e+03 2.529959106445312500e+01 -3.738406753540039062e+01 2.457861155271530151e-01 7.388650774955749512e-01 2.953953742980957031e-01 1.792719960212707520e-01
4.040000000000000000e+03 2.546184158325195312e+01 2.592554283142089844e+01 -3.832127526402473450e-02 2.038386166095733643e-01 4.965520277619361877e-02 -1.672102808952331543e-01
4.041000000000000000e+03 3.750283813476562500e+01 -3.337240982055664062e+01 -6.107722520828247070e-01 4.661895275115966797e+00 1.215336799621582031e+00 7.309790849685668945e-01
4.042000000000000000e+03 4.553535079956054688e+01 -9.325094223022460938e+00 -2.218841314315795898e+00 9.053606986999511719e+00 2.050429821014404297e+00 5.128708481788635254e-01
4.043000000000000000e+03 6.674950408935546875e+01 -3.461516952514648438e+01 -3.703184127807617188e-01 4.354015350341796875e+00 1.195109128952026367e+00 5.352266430854797363e-01
4.044000000000000000e+03 7.421063995361328125e+01 9.735552787780761719e+00 4.180879890918731689e-02 7.847471714019775391e+00 2.366784095764160156e+00 -9.074566960334777832e-01
4.045000000000000000e+03 4.532702636718750000e+01 1.078944015502929688e+01 1.021022796630859375e+00 1.152680492401123047e+01 3.764348268508911133e+00 9.407395124435424805e-01
4.046000000000000000e+03 5.811410522460937500e+01 -6.272963523864746094e+00 7.688203454017639160e-02 2.134714424610137939e-01 8.710604161024093628e-02 -9.224143624305725098e-01
4.047000000000000000e+03 6.001358413696289062e+01 -6.874876499176025391e+00 2.178896367549896240e-01 6.072911024093627930e-01 2.475542128086090088e-01 -7.751165032386779785e-01
4.048000000000000000e+03 5.830388259887695312e+01 -3.639153671264648438e+01 4.047951996326446533e-01 7.754358649253845215e-01 3.540693223476409912e-01 -1.713219135999679565e-01
4.049000000000000000e+03 4.011083984375000000e+01 -2.304481697082519531e+01 1.417822599411010742e+00 6.570709705352783203e+00 2.396559715270996094e+00 1.471477985382080078e+00
4.050000000000000000e+03 3.278932952880859375e+01 -8.861894607543945312e+00 -9.811272472143173218e-02 1.222256273031234741e-01 7.233871612697839737e-03 -1.145413704216480255e-02
4.051000000000000000e+03 3.381731033325195312e+01 -8.372822761535644531e+00 -2.836885750293731689e-01 4.125262498855590820e-01 3.865129873156547546e-02 1.741493642330169678e-01
4.052000000000000000e+03 3.033690834045410156e+01 2.515785789489746094e+01 3.962411358952522278e-02 7.817588448524475098e-01 2.464148849248886108e-01 -5.816530585289001465e-01
4.053000000000000000e+03 1.629810523986816406e+01 -3.360999298095703125e+01 -9.323725826106965542e-04 2.697839736938476562e-01 8.065547794103622437e-02 -1.995459198951721191e-01
4.054000000000000000e+03 7.419564056396484375e+01 -3.445944976806640625e+01 -2.871427237987518311e-01 8.009960174560546875e+00 2.316845417022705078e+00 -9.353988617658615112e-02
4.055000000000000000e+03 6.137538146972656250e+01 2.663772392272949219e+01 1.797221414744853973e-02 1.265676259994506836e+00 3.850945532321929932e-01 -1.464667469263076782e-01
4.056000000000000000e+03 5.973024749755859375e+01 2.813154029846191406e+01 2.565664350986480713e-01 1.516762733459472656e+00 5.319987535476684570e-01 4.841165840625762939e-01
4.057000000000000000e+03 4.915085601806640625e+01 2.409146118164062500e+01 -6.796148419380187988e-01 5.590024471282958984e+00 1.473122835159301758e+00 9.644102454185485840e-01
4.058000000000000000e+03 5.045306396484375000e+01 2.398318481445312500e+01 -6.752253770828247070e-01 5.317392349243164062e+00 1.392650127410888672e+00 1.367293834686279297e+00
4.059000000000000000e+03 1.499487113952636719e+01 2.090063667297363281e+01 -1.696665734052658081e-01 5.629475787281990051e-02 -3.401154279708862305e-02 1.748472265899181366e-02
4.060000000000000000e+03 6.290480041503906250e+01 2.727407455444335938e+01 6.469910591840744019e-02 1.847560048103332520e+00 5.736777782440185547e-01 -7.293773889541625977e-01
4.061000000000000000e+03 3.996993255615234375e+01 -2.395027351379394531e+01 1.446631669998168945e+00 6.435715198516845703e+00 2.364704132080078125e+00 1.489215850830078125e+00
4.062000000000000000e+03 3.886883544921875000e+01 -2.585708999633789062e+01 1.341668248176574707e+00 6.004227161407470703e+00 2.203768491744995117e+00 1.404480099678039551e+00
4.063000000000000000e+03 5.747214794158935547e+00 -2.191279411315917969e+01 1.053714379668235779e-01 -2.444480657577514648e-01 -4.172298684716224670e-02 -7.621704041957855225e-02
4.064000000000000000e+03 7.476232910156250000e+01 -2.307560348510742188e+01 2.040119767189025879e-01 8.331210136413574219e+00 2.560566425323486328e+00 -1.396263599395751953e+00
4.065000000000000000e+03 7.166408538818359375e+01 -2.286434364318847656e+01 3.045952618122100830e-01 9.371617317199707031e+00 2.902863740921020508e+00 -1.230088829994201660e+00
4.066000000000000000e+03 7.370996856689453125e+01 3.487631988525390625e+01 -3.246828913688659668e-02 6.649908065795898438e+00 1.985231995582580566e+00 -1.940901279449462891e-01
4.067000000000000000e+03 1.554459953308105469e+01 1.897176170349121094e+01 -1.279911696910858154e-01 2.688037790358066559e-02 -3.033323772251605988e-02 -2.849035151302814484e-02
4.068000000000000000e+03 1.455793571472167969e+01 1.650575447082519531e+01 -5.025571957230567932e-02 1.348361605778336525e-03 -1.467220764607191086e-02 -1.871937885880470276e-02
4.069000000000000000e+03 3.899536514282226562e+01 -2.816615676879882812e+01 6.241205930709838867e-01 5.735443115234375000e+00 1.907869100570678711e+00 1.035001277923583984e+00
4.070000000000000000e+03 3.822601699829101562e+01 -2.791865539550781250e+01 8.362643122673034668e-01 5.688142776489257812e+00 1.957322120666503906e+00 1.174511432647705078e+00
4.071000000000000000e+03 4.275980377197265625e+01 -2.609840393066406250e+01 6.915845274925231934e-01 6.754479408264160156e+00 2.233819246292114258e+00 6.595352888107299805e-01
4.072000000000000000e+03 6.011844158172607422e+00 -3.159346389770507812e+01 -1.551450137048959732e-02 -3.077053725719451904e-01 -9.696596115827560425e-02 3.122211992740631104e-02
4.073000000000000000e+03 5.303441524505615234e+00 -3.536055755615234375e+01 -2.071841433644294739e-02 -3.944947123527526855e-01 -1.245639324188232422e-01 2.720045112073421478e-02
4.074000000000000000e+03 3.882785415649414062e+01 -3.019398689270019531e+01 -8.241786621510982513e-03 5.407592773437500000e+00 1.619805216789245605e+00 8.140792846679687500e-01
4.075000000000000000e+03 3.876555633544921875e+01 -2.907795524597167969e+01 3.290631175041198730e-01 5.556904315948486328e+00 1.765790224075317383e+00 9.347692131996154785e-01
4.076000000000000000e+03 7.340794372558593750e+01 3.640371322631835938e+01 3.990975022315979004e-02 6.483008384704589844e+00 1.956875443458557129e+00 -1.594056040048599243e-01
4.077000000000000000e+03 7.269828033447265625e+01 -3.723440551757812500e+01 -1.176243200898170471e-01 7.200950145721435547e+00 2.124997854232788086e+00 1.086780875921249390e-01
4.078000000000000000e+03 2.344901084899902344e+01 2.772380256652832031e+01 4.536690190434455872e-02 1.831493973731994629e-01 6.855489313602447510e-02 -5.382949113845825195e-02
4.079000000000000000e+03 4.870138931274414062e+01 -3.462350845336914062e+01 -7.613306045532226562e-01 3.207581996917724609e+00 7.338753938674926758e-01 -1.132969021797180176e+00
4.080000000000000000e+03 4.837885665893554688e+01 -3.162013244628906250e+01 -8.048197627067565918e-01 3.731794357299804688e+00 8.780923485755920410e-01 -1.303069233894348145e+00
4.081000000000000000e+03 3.920079040527343750e+01 -3.331985855102539062e+01 -7.192254662513732910e-01 4.957595348358154297e+00 1.271510958671569824e+00 4.858783781528472900e-01
4.082000000000000000e+03 1.381156253814697266e+01 2.222140312194824219e+01 -1.528757810592651367e-01 6.025000289082527161e-02 -2.778773382306098938e-02 6.489210575819015503e-02
4.083000000000000000e+03 4.221848297119140625e+01 -2.493169403076171875e+01 1.101268887519836426e+00 6.903042316436767578e+00 2.401293277740478516e+00 9.511790871620178223e-01
4.084000000000000000e+03 2.964575004577636719e+01 -3.881763839721679688e+01 -5.915835127234458923e-02 1.850462794303894043e+00 5.373913049697875977e-01 4.225518107414245605e-01
4.085000000000000000e+03 4.291689300537109375e+01 -2.476755332946777344e+01 1.081257820129394531e+00 7.212461471557617188e+00 2.488115787506103516e+00 7.639034390449523926e-01
4.086000000000000000e+03 6.358417129516601562e+01 -3.586195755004882812e+01 2.376382425427436829e-02 2.430459260940551758e+00 7.362669110298156738e-01 5.446420907974243164e-01
4.087000000000000000e+03 3.372991943359375000e+01 -3.382937240600585938e+01 -2.328725904226303101e-01 3.296243429183959961e+00 9.190112352371215820e-01 1.086815118789672852e+00
4.088000000000000000e+03 4.311671066284179688e+01 -3.062420082092285156e+01 -5.738285183906555176e-01 5.535655975341796875e+00 1.488548159599304199e+00 -6.448195874691009521e-02
4.089000000000000000e+03 7.276204681396484375e+01 -4.149886703491210938e+01 2.312694489955902100e-02 6.942250728607177734e+00 2.089613437652587891e+00 6.743796169757843018e-02
4.090000000000000000e+03 7.331637573242187500e+01 -3.973298645019531250e+01 7.704474031925201416e-03 7.243568420410156250e+00 2.175381898880004883e+00 1.283452063798904419e-01
4.091000000000000000e+03 2.041013145446777344e+01 2.766241073608398438e+01 -6.109667010605335236e-03 7.107803970575332642e-02 1.949051208794116974e-02 9.169171005487442017e-02
4.092000000000000000e+03 3.423418807983398438e+01 2.406647300720214844e+01 6.288467347621917725e-02 1.747875213623046875e+00 5.432279706001281738e-01 -9.488463997840881348e-01
4.093000000000000000e+03 4.906010437011718750e+01 -3.660050964355468750e+01 -6.166120171546936035e-01 2.918670415878295898e+00 6.906175613403320312e-01 -9.081609845161437988e-01
4.094000000000000000e+03 5.398067474365234375e+01 2.798153877258300781e+01 -3.659369945526123047e-01 3.108095169067382812e+00 8.226475119590759277e-01 1.599788665771484375e+00
4.095000000000000000e+03 5.361414337158203125e+01 2.645540618896484375e+01 -5.268771648406982422e-01 3.366027355194091797e+00 8.517450690269470215e-01 1.811376333236694336e+00
4.096000000000000000e+03 2.886884498596191406e+01 -3.680738449096679688e+01 1.203557401895523071e-01 1.438892126083374023e+00 4.677743613719940186e-01 5.597956180572509766e-01
4.097000000000000000e+03 5.449238300323486328e+00 3.456845474243164062e+01 2.210313081741333008e-02 -1.472269147634506226e-01 -3.753713518381118774e-02 7.743559777736663818e-02
4.098000000000000000e+03 7.245389556884765625e+01 -3.393611907958984375e+01 -4.418152868747711182e-01 7.336977005004882812e+00 2.068548440933227539e+00 -2.643846347928047180e-02
4.099000000000000000e+03 7.416525268554687500e+01 3.362157821655273438e+01 -9.609523415565490723e-02 6.856464862823486328e+00 2.028110980987548828e+00 -1.701585203409194946e-01
4.100000000000000000e+03 7.910022258758544922e+00 3.597449111938476562e+01 4.798572510480880737e-02 -8.627015352249145508e-02 -1.148532982915639877e-02 7.773961126804351807e-02
4.101000000000000000e+03 2.741069030761718750e+01 2.570708847045898438e+01 -2.647931315004825592e-02 3.992084264755249023e-01 1.118187382817268372e-01 -3.261937201023101807e-01
4.102000000000000000e+03 8.138669967651367188e+00 3.743026351928710938e+01 5.729123950004577637e-02 -9.123765677213668823e-02 -1.018392574042081833e-02 6.476578116416931152e-02
4.103000000000000000e+03 1.023750019073486328e+01 3.661663436889648438e+01 7.259434461593627930e-02 -3.976994380354881287e-02 9.847319684922695160e-03 7.773609459400177002e-02
4.104000000000000000e+03 1.327696895599365234e+01 -4.130331802368164062e+01 4.363215714693069458e-02 3.890918940305709839e-02 2.476240321993827820e-02 -2.085687220096588135e-02
4.105000000000000000e+03 8.417963981628417969e+00 -3.869124221801757812e+01 -1.677434146404266357e-02 -2.054325938224792480e-01 -6.666208058595657349e-02 -1.070289220660924911e-02
4.106000000000000000e+03 7.202167034149169922e+00 -3.735266113281250000e+01 -2.312092483043670654e-02 -2.603756487369537354e-01 -8.504897356033325195e-02 1.093054655939340591e-03
4.107000000000000000e+03 9.516239166259765625e+00 -6.538722515106201172e+00 -1.347198635339736938e-01 2.671671286225318909e-02 -3.240094706416130066e-02 -2.004429996013641357e-01
4.108000000000000000e+03 9.582373619079589844e+00 -5.896522045135498047e+00 -1.546799987554550171e-01 2.730811573565006256e-02 -3.821156546473503113e-02 -1.894662976264953613e-01
4.109000000000000000e+03 5.812505722045898438e+01 -2.567617893218994141e+00 1.233758449554443359e+00 -1.543526202440261841e-01 3.238217532634735107e-01 -9.116539955139160156e-01
4.110000000000000000e+03 4.545479583740234375e+01 -8.610947608947753906e+00 -2.488970518112182617e+00 9.014567375183105469e+00 1.957679033279418945e+00 5.676121711730957031e-01
4.111000000000000000e+03 4.540445709228515625e+01 1.001003074645996094e+01 1.210836410522460938e+00 1.199934482574462891e+01 3.963054180145263672e+00 9.189904928207397461e-01
4.112000000000000000e+03 6.279621124267578125e+01 1.915379613637924194e-01 3.147792816162109375e-01 1.754983544349670410e+00 6.209288239479064941e-01 -2.944840118288993835e-02
4.113000000000000000e+03 1.182596302032470703e+01 -1.040461730957031250e+01 3.990379348397254944e-02 8.382593095302581787e-02 3.711891919374465942e-02 -1.541312336921691895e-01
4.114000000000000000e+03 1.253182697296142578e+01 -1.035724544525146484e+01 6.734076887369155884e-02 8.211482316255569458e-02 4.483667761087417603e-02 -1.444612741470336914e-01
4.115000000000000000e+03 4.557075500488281250e+01 2.746816635131835938e+00 2.339365959167480469e+00 1.289178180694580078e+01 4.569344043731689453e+00 2.004439085721969604e-01
4.116000000000000000e+03 4.582932662963867188e+01 1.785128712654113770e+00 2.417589664459228516e+00 1.189396953582763672e+01 4.293467998504638672e+00 9.214649349451065063e-02
4.117000000000000000e+03 3.801013946533203125e+01 -9.323052406311035156e+00 -5.303035378456115723e-01 4.068580627441406250e+00 1.061483144760131836e+00 9.908570051193237305e-01
4.118000000000000000e+03 4.603216934204101562e+01 -7.795502185821533203e+00 -2.662550210952758789e+00 8.641410827636718750e+00 1.793658256530761719e+00 6.862855553627014160e-01
4.119000000000000000e+03 4.458330154418945312e+01 -8.044960975646972656e+00 -2.498942136764526367e+00 9.179145812988281250e+00 2.004061222076416016e+00 6.321691274642944336e-01
4.120000000000000000e+03 6.882189941406250000e+01 -8.367385864257812500e+00 -5.386646389961242676e-01 6.907392501831054688e+00 1.910618305206298828e+00 -6.538351178169250488e-01
4.121000000000000000e+03 6.870959472656250000e+01 -9.144683837890625000e+00 -4.874245822429656982e-01 7.160282135009765625e+00 2.001857280731201172e+00 -7.786021828651428223e-01
4.122000000000000000e+03 3.852254104614257812e+01 -1.573669815063476562e+01 4.484304785728454590e-01 5.230785369873046875e+00 1.703764796257019043e+00 1.988715976476669312e-01
4.123000000000000000e+03 3.838964843750000000e+01 -1.409176731109619141e+01 2.529281377792358398e-01 4.825425148010253906e+00 1.523505926132202148e+00 1.460423171520233154e-01
4.124000000000000000e+03 7.124072265625000000e+01 -1.282533359527587891e+01 5.804483890533447266e-01 9.194720268249511719e+00 2.932550668716430664e+00 3.622619211673736572e-01
4.125000000000000000e+03 5.128328323364257812e+01 -4.328537464141845703e+00 6.663263440132141113e-01 1.829387784004211426e+00 7.487142682075500488e-01 -5.015743374824523926e-01
4.126000000000000000e+03 5.229704380035400391e+00 -9.449143409729003906e+00 -3.049087710678577423e-02 -1.167160868644714355e-01 -4.416208714246749878e-02 -2.076912075281143188e-01
4.127000000000000000e+03 3.414822387695312500e+01 -1.335316467285156250e+01 7.676309347152709961e-01 1.125618219375610352e+00 5.679747462272644043e-01 -1.349899470806121826e-01
4.128000000000000000e+03 3.484841537475585938e+01 -1.366418647766113281e+01 6.711606383323669434e-01 1.673711419105529785e+00 7.034615874290466309e-01 -1.787713617086410522e-01
4.129000000000000000e+03 6.412046051025390625e+01 -7.728479862213134766e+00 2.935317754745483398e-01 2.756849527359008789e+00 9.151144027709960938e-01 -1.340698003768920898e+00
4.130000000000000000e+03 6.165533828735351562e+01 -9.113442301750183105e-01 6.219699978828430176e-01 1.136193156242370605e+00 5.274489521980285645e-01 -2.961791157722473145e-01
4.131000000000000000e+03 6.582550048828125000e+01 3.828049182891845703e+00 -4.279443323612213135e-01 3.829354286193847656e+00 1.020423054695129395e+00 6.427847146987915039e-01
4.132000000000000000e+03 6.703716278076171875e+01 4.956322669982910156e+00 -6.042859554290771484e-01 4.950492382049560547e+00 1.303861975669860840e+00 6.873546242713928223e-01
4.133000000000000000e+03 9.044643402099609375e+00 -2.422874641418457031e+01 1.596444100141525269e-01 1.699910163879394531e-01 9.889063239097595215e-02 -6.628472357988357544e-02
4.134000000000000000e+03 7.085245513916015625e+01 -1.464432716369628906e+01 1.493580102920532227e+00 1.001437664031982422e+01 3.452387094497680664e+00 1.586872711777687073e-02
4.135000000000000000e+03 2.173947525024414062e+01 -1.018678283691406250e+01 1.287054419517517090e-01 5.760630592703819275e-02 5.589352175593376160e-02 -1.810952126979827881e-01
4.136000000000000000e+03 7.972905158996582031e+00 -2.205463027954101562e+01 1.766124963760375977e-01 6.198250874876976013e-02 7.157850265502929688e-02 -1.057308241724967957e-01
4.137000000000000000e+03 6.337451934814453125e+01 7.253970503807067871e-01 1.615573912858963013e-01 2.096951961517333984e+00 6.775528192520141602e-01 1.019842401146888733e-01
4.138000000000000000e+03 1.514377498626708984e+01 4.991789340972900391e+00 1.375128282234072685e-03 -1.008466497296467423e-04 3.822845173999667168e-04 2.720598364248871803e-03
4.139000000000000000e+03 1.514563846588134766e+01 2.002665519714355469e+01 -1.531029790639877319e-01 4.542604461312294006e-02 -3.230307996273040771e-02 -2.286337781697511673e-03
4.140000000000000000e+03 2.703612518310546875e+01 -8.070299148559570312e+00 -4.855235517024993896e-01 -3.995239362120628357e-02 -1.576427817344665527e-01 -2.826626598834991455e-01
4.141000000000000000e+03 1.564525985717773438e+01 7.154912471771240234e+00 7.608672603964805603e-05 5.552134243771433830e-04 1.893900334835052490e-04 3.371222876012325287e-03
4.142000000000000000e+03 4.578880310058593750e+01 1.819696998596191406e+01 3.651136457920074463e-01 7.304296970367431641e+00 2.300823211669921875e+00 4.021249115467071533e-01
4.143000000000000000e+03 3.925192260742187500e+01 1.927056884765625000e+01 2.994846999645233154e-01 3.986740827560424805e+00 1.285867691040039062e+00 -1.414167284965515137e+00
4.144000000000000000e+03 1.202036285400390625e+01 -8.243965148925781250e+00 -6.927833706140518188e-02 6.446957588195800781e-02 -1.442628912627696991e-03 -2.010797262191772461e-01
4.145000000000000000e+03 1.136991691589355469e+01 -6.275523662567138672e+00 -1.706682145595550537e-01 5.207176506519317627e-02 -3.557893633842468262e-02 -1.937627792358398438e-01
4.146000000000000000e+03 6.222203445434570312e+01 -3.613531887531280518e-01 4.756834805011749268e-01 1.424142956733703613e+00 5.699478983879089355e-01 -1.629686206579208374e-01
4.147000000000000000e+03 7.389537811279296875e+01 3.065046691894531250e+01 -3.094076812267303467e-01 7.046537876129150391e+00 2.021139144897460938e+00 -1.011797562241554260e-01
4.148000000000000000e+03 7.469477844238281250e+01 3.257924652099609375e+01 -1.498036235570907593e-01 7.051310062408447266e+00 2.070451974868774414e+00 -1.226231977343559265e-01
4.149000000000000000e+03 3.639886856079101562e+01 -8.314439773559570312e+00 -3.607068061828613281e-01 2.247727394104003906e+00 5.661062002182006836e-01 8.521907925605773926e-01
4.150000000000000000e+03 4.034692001342773438e+01 -2.130718231201171875e+01 1.351238608360290527e+00 6.862031936645507812e+00 2.463981151580810547e+00 1.282174229621887207e+00
4.151000000000000000e+03 5.625077724456787109e+00 3.062451362609863281e+01 3.315249457955360413e-03 -1.033313050866127014e-01 -3.000481612980365753e-02 9.352923184633255005e-02
4.152000000000000000e+03 7.466397094726562500e+01 -2.939004516601562500e+01 -5.305352807044982910e-01 8.382858276367187500e+00 2.355696916580200195e+00 -7.298708558082580566e-01
4.153000000000000000e+03 1.904292106628417969e+01 -7.531243801116943359e+00 -1.746643483638763428e-01 9.665180742740631104e-02 -2.340376190841197968e-02 -9.792599081993103027e-02
4.154000000000000000e+03 4.045512390136718750e+01 1.830423355102539062e+01 3.221439421176910400e-01 4.865170955657958984e+00 1.556194424629211426e+00 -1.381042122840881348e+00
4.155000000000000000e+03 3.929514312744140625e+01 1.822096061706542969e+01 4.647087156772613525e-01 4.021297454833984375e+00 1.345801830291748047e+00 -1.524904131889343262e+00
4.156000000000000000e+03 1.577539443969726562e+01 -6.944603919982910156e+00 -1.891517043113708496e-01 8.877152204513549805e-02 -3.011405467987060547e-02 -1.593865603208541870e-01
4.157000000000000000e+03 1.976617240905761719e+01 -8.590852737426757812e+00 -4.719899222254753113e-02 9.839778393507003784e-02 1.535963825881481171e-02 -1.133153811097145081e-01
4.158000000000000000e+03 5.919428348541259766e+00 2.925428962707519531e+01 -2.947602653875946999e-03 -8.421931415796279907e-02 -2.615007385611534119e-02 9.765243530273437500e-02
4.159000000000000000e+03 6.055251121520996094e+00 -2.853682136535644531e+01 1.194544415920972824e-02 -2.653791010379791260e-01 -7.603009790182113647e-02 3.392274305224418640e-02
4.160000000000000000e+03 1.332232666015625000e+01 -7.586637973785400391e+00 -1.043947860598564148e-01 7.592205703258514404e-02 -8.541819639503955841e-03 -1.983167380094528198e-01
4.161000000000000000e+03 6.053024673461914062e+01 -9.121057987213134766e-01 8.291230797767639160e-01 5.567666888236999512e-01 4.157669246196746826e-01 -3.753504455089569092e-01
4.162000000000000000e+03 6.235257339477539062e+01 -6.125438213348388672e+00 4.304310679435729980e-01 1.655789494514465332e+00 6.258661746978759766e-01 -1.004508137702941895e+00
4.163000000000000000e+03 4.434913253784179688e+01 1.258821296691894531e+01 7.157601118087768555e-01 1.009031486511230469e+01 3.241822481155395508e+00 2.234195619821548462e-01
4.164000000000000000e+03 5.425927162170410156e+00 7.577787399291992188e+00 1.481451326981186867e-04 -1.024956000037491322e-03 -2.630432427395135164e-04 -2.421419136226177216e-03
4.165000000000000000e+03 4.507477188110351562e+01 4.897410392761230469e+00 1.549505829811096191e+00 1.440363311767578125e+01 4.785941600799560547e+00 6.443954259157180786e-02
4.166000000000000000e+03 4.564219284057617188e+01 4.788499355316162109e+00 1.665050029754638672e+00 1.367645263671875000e+01 4.602450847625732422e+00 -2.894527465105056763e-02
4.167000000000000000e+03 7.071802616119384766e+00 6.742726325988769531e+00 3.927251673303544521e-04 -2.260554814711213112e-03 -5.603489116765558720e-04 -1.989298732951283455e-03
4.168000000000000000e+03 7.465349578857421875e+01 3.001450347900390625e+01 -2.926117181777954102e-01 7.241214752197265625e+00 2.084580898284912109e+00 1.684295013546943665e-02
4.169000000000000000e+03 6.880975341796875000e+01 -2.924217796325683594e+01 -1.184786081314086914e+00 6.310662746429443359e+00 1.537762999534606934e+00 3.720024824142456055e-01
4.170000000000000000e+03 5.851630687713623047e+00 -3.059228324890136719e+01 -8.523194119334220886e-03 -3.026478588581085205e-01 -9.335131198167800903e-02 3.498654440045356750e-02
4.171000000000000000e+03 5.821755886077880859e+00 2.996147346496582031e+01 -7.969745784066617489e-04 -9.348109364509582520e-02 -2.828342095017433167e-02 9.671007096767425537e-02
4.172000000000000000e+03 6.374229431152343750e+01 -6.774158477783203125e+00 2.997999787330627441e-01 2.538441896438598633e+00 8.514725565910339355e-01 -1.178667426109313965e+00
4.173000000000000000e+03 3.207363510131835938e+01 -8.896219253540039062e+00 -1.172090619802474976e-01 -9.999284148216247559e-02 -6.516057252883911133e-02 -8.285064995288848877e-02
4.174000000000000000e+03 7.536954498291015625e+01 -2.302606773376464844e+01 1.692408025264739990e-01 8.134488105773925781e+00 2.491118907928466797e+00 -1.339677929878234863e+00
4.175000000000000000e+03 7.370384216308593750e+01 -2.377727508544921875e+01 -3.114183619618415833e-02 8.630823135375976562e+00 2.579904556274414062e+00 -1.418333053588867188e+00
4.176000000000000000e+03 3.067603111267089844e+01 -9.569964408874511719e+00 1.046293452382087708e-01 -2.238893806934356689e-01 -3.577801212668418884e-02 -1.968744099140167236e-01
4.177000000000000000e+03 2.818811416625976562e+01 -8.006689071655273438e+00 -5.558320283889770508e-01 -1.664331555366516113e-01 -2.166795581579208374e-01 -3.222009837627410889e-01
4.178000000000000000e+03 7.417467498779296875e+01 2.185047531127929688e+01 2.483834326267242432e-02 7.850766181945800781e+00 2.362681388854980469e+00 8.668591976165771484e-01
4.179000000000000000e+03 1.301506710052490234e+01 6.085344791412353516e+00 1.421066350303590298e-03 -1.902512391097843647e-03 -1.444338122382760048e-04 2.209321362897753716e-03
4.180000000000000000e+03 7.454482269287109375e+01 2.134671020507812500e+01 1.619377732276916504e-01 7.764869689941406250e+00 2.378042221069335938e+00 8.774797320365905762e-01
4.181000000000000000e+03 6.122425556182861328e+00 2.290902709960937500e+01 -2.993902564048767090e-02 -2.355605177581310272e-02 -1.604852266609668732e-02 6.464437395334243774e-02
4.182000000000000000e+03 8.419016838073730469e+00 -6.425762653350830078e+00 -1.193338930606842041e-01 9.499621577560901642e-03 -3.295028209686279297e-02 -1.986751705408096313e-01
4.183000000000000000e+03 7.502024841308593750e+01 2.512075614929199219e+01 -3.670769929885864258e-01 7.633389472961425781e+00 2.179893732070922852e+00 5.886998772621154785e-01
4.184000000000000000e+03 7.440225982666015625e+01 2.344003677368164062e+01 -2.809041738510131836e-01 7.764909267425537109e+00 2.245201587677001953e+00 7.694245576858520508e-01
4.185000000000000000e+03 5.517058372497558594e+00 -2.128762245178222656e+01 1.021532639861106873e-01 -2.657172083854675293e-01 -4.906918480992317200e-02 -8.951789885759353638e-02
4.186000000000000000e+03 4.717963218688964844e+00 2.129862022399902344e+01 -1.965440995991230011e-02 -2.318904176354408264e-02 -1.285303570330142975e-02 4.301090538501739502e-02
4.187000000000000000e+03 5.395819664001464844e+00 2.211870193481445312e+01 -2.509460225701332092e-02 -2.440098114311695099e-02 -1.484867557883262634e-02 5.453086644411087036e-02
4.188000000000000000e+03 7.426109313964843750e+01 2.693101310729980469e+01 -4.842123687267303467e-01 7.481056213378906250e+00 2.099053144454956055e+00 2.884928584098815918e-01
4.189000000000000000e+03 5.478640556335449219e+00 -2.056746673583984375e+01 9.976511448621749878e-02 -2.589029669761657715e-01 -4.774135723710060120e-02 -1.110692098736763000e-01
4.190000000000000000e+03 7.502857208251953125e+01 2.595629882812500000e+01 -3.916673362255096436e-01 7.576427936553955078e+00 2.155428171157836914e+00 4.808307886123657227e-01
4.191000000000000000e+03 7.337603759765625000e+01 2.137201309204101562e+01 1.686802506446838379e-01 8.080785751342773438e+00 2.474839687347412109e+00 8.620688319206237793e-01
4.192000000000000000e+03 7.470365905761718750e+01 1.417379188537597656e+01 6.994926929473876953e-01 7.702641010284423828e+00 2.520640134811401367e+00 -4.654349684715270996e-01
4.193000000000000000e+03 4.512524604797363281e+00 -2.447984504699707031e+01 5.003446340560913086e-02 -4.303532540798187256e-01 -1.140956431627273560e-01 1.804396393708884716e-03
4.194000000000000000e+03 4.973246574401855469e+00 -2.705880928039550781e+01 2.575725875794887543e-02 -3.804409205913543701e-01 -1.064051017165184021e-01 3.588408976793289185e-02
4.195000000000000000e+03 5.358650207519531250e+00 -2.236096382141113281e+01 9.545990824699401855e-02 -2.973370850086212158e-01 -6.056315079331398010e-02 -5.842321738600730896e-02
4.196000000000000000e+03 7.501559257507324219e+00 -3.153680229187011719e+01 -2.105278521776199341e-02 -1.569712013006210327e-01 -5.340719595551490784e-02 1.087141036987304688e-02
4.197000000000000000e+03 4.422761917114257812e+00 -2.513273620605468750e+01 4.646917060017585754e-02 -4.407286047935485840e-01 -1.182778254151344299e-01 1.264045294374227524e-02
4.198000000000000000e+03 7.253622055053710938e+00 -2.222870445251464844e+01 1.508049964904785156e-01 -4.252484813332557678e-02 3.248404711484909058e-02 -8.777142316102981567e-02
4.199000000000000000e+03 7.467694854736328125e+01 1.559631252288818359e+01 7.924141883850097656e-01 7.699846744537353516e+00 2.547678232192993164e+00 -1.843351125717163086e-01
4.200000000000000000e+03 4.756292343139648438e+00 2.536073493957519531e+01 -1.605737768113613129e-02 -5.685292556881904602e-02 -2.187309041619300842e-02 7.133956998586654663e-02
4.201000000000000000e+03 5.355529308319091797e+00 -2.592030715942382812e+01 4.674979299306869507e-02 -3.317439556121826172e-01 -8.549825102090835571e-02 1.843203045427799225e-02
4.202000000000000000e+03 7.329944610595703125e+01 -1.626882934570312500e+01 1.365633368492126465e+00 8.686831474304199219e+00 3.015739679336547852e+00 9.816186875104904175e-02
4.203000000000000000e+03 7.530553436279296875e+01 1.689613914489746094e+01 6.581374406814575195e-01 7.387490272521972656e+00 2.413688182830810547e+00 1.289643198251724243e-01
4.204000000000000000e+03 7.430127716064453125e+01 -1.449055576324462891e+01 7.628281712532043457e-01 8.112861633300781250e+00 2.662707090377807617e+00 5.772329568862915039e-01
4.205000000000000000e+03 7.518605041503906250e+01 1.599303913116455078e+01 6.869272589683532715e-01 7.447230339050292969e+00 2.440247297286987305e+00 -8.663516491651535034e-02
4.206000000000000000e+03 7.404251098632812500e+01 -2.123072433471679688e+01 7.582893967628479004e-01 8.482664108276367188e+00 2.772286176681518555e+00 -1.227021932601928711e+00
4.207000000000000000e+03 7.561112976074218750e+01 -1.923948860168457031e+01 6.962212324142456055e-01 7.636441707611083984e+00 2.499799013137817383e+00 -6.503946781158447266e-01
4.208000000000000000e+03 4.004878997802734375e+01 -7.269113540649414062e+00 -1.453592896461486816e+00 6.434846401214599609e+00 1.494376063346862793e+00 1.692928791046142578e+00
4.209000000000000000e+03 7.488201904296875000e+01 -1.895549392700195312e+01 9.682560563087463379e-01 8.026484489440917969e+00 2.698421955108642578e+00 -6.276040673255920410e-01
4.210000000000000000e+03 7.501942443847656250e+01 -2.141641807556152344e+01 5.396005511283874512e-01 8.103003501892089844e+00 2.592781305313110352e+00 -1.208625435829162598e+00
4.211000000000000000e+03 7.513386535644531250e+01 -2.036413574218750000e+01 7.079373002052307129e-01 7.963491439819335938e+00 2.601428508758544922e+00 -9.787743687629699707e-01
4.212000000000000000e+03 4.718474388122558594e+00 2.044806289672851562e+01 -1.936293579638004303e-02 -1.850089058279991150e-02 -1.135914772748947144e-02 3.669393062591552734e-02
4.213000000000000000e+03 7.551042175292968750e+01 -1.358768844604492188e+01 3.936378061771392822e-01 7.632093906402587891e+00 2.407719612121582031e+00 7.176383137702941895e-01
4.214000000000000000e+03 7.346411895751953125e+01 -1.696890449523925781e+01 1.378415703773498535e+00 8.635616302490234375e+00 3.004209756851196289e+00 -1.009248644113540649e-01
4.215000000000000000e+03 7.187819671630859375e+01 1.179098224639892578e+01 6.098480224609375000e-01 8.679836273193359375e+00 2.786905288696289062e+00 -5.949084758758544922e-01
4.216000000000000000e+03 7.538986968994140625e+01 1.206367015838623047e+01 3.052170276641845703e-01 7.480720520019531250e+00 2.335781335830688477e+00 -7.544004321098327637e-01
4.217000000000000000e+03 6.821849822998046875e+01 6.150647640228271484e+00 -6.880273222923278809e-01 6.130088806152343750e+00 1.632618546485900879e+00 5.427379012107849121e-01
4.218000000000000000e+03 7.554110717773437500e+01 6.521745681762695312e+00 -2.421530634164810181e-01 7.708203792572021484e+00 2.239815235137939453e+00 -7.358270287513732910e-01
4.219000000000000000e+03 7.480983734130859375e+01 5.882010459899902344e+00 -3.385941982269287109e-01 7.704848289489746094e+00 2.209876298904418945e+00 -6.844451427459716797e-01
4.220000000000000000e+03 7.319528198242187500e+01 1.223494625091552734e+01 6.034918427467346191e-01 8.228484153747558594e+00 2.649592876434326172e+00 -7.576865553855895996e-01
4.221000000000000000e+03 7.486694335937500000e+01 1.103243923187255859e+01 2.208692580461502075e-01 7.668321609497070312e+00 2.366757154464721680e+00 -8.690125346183776855e-01
4.222000000000000000e+03 7.544772338867187500e+01 -1.277899742126464844e+01 2.737154364585876465e-01 7.679163455963134766e+00 2.385863542556762695e+00 8.105346560478210449e-01
4.223000000000000000e+03 7.438807678222656250e+01 -1.522386837005615234e+01 8.891221880912780762e-01 8.095930099487304688e+00 2.695515632629394531e+00 4.188745021820068359e-01
4.224000000000000000e+03 7.262474060058593750e+01 -1.244077014923095703e+01 3.828168213367462158e-01 8.633969306945800781e+00 2.705035924911499023e+00 6.973205804824829102e-01
4.225000000000000000e+03 7.529137420654296875e+01 -1.102523136138916016e+01 1.296877022832632065e-02 7.779617786407470703e+00 2.337775945663452148e+00 8.867720365524291992e-01
4.226000000000000000e+03 7.464707946777343750e+01 -9.811262130737304688e+00 -1.487384289503097534e-01 7.900197029113769531e+00 2.325437545776367188e+00 8.516206145286560059e-01
4.227000000000000000e+03 7.407792663574218750e+01 -2.106022596359252930e+00 -4.380012154579162598e-01 7.464268207550048828e+00 2.107880115509033203e+00 1.403925865888595581e-01
4.228000000000000000e+03 7.545487213134765625e+01 -9.270364761352539062e+00 -1.676378250122070312e-01 7.777193546295166016e+00 2.282866716384887695e+00 8.257897496223449707e-01
4.229000000000000000e+03 7.303454589843750000e+01 -1.060562896728515625e+01 -1.174184381961822510e-01 8.225606918334960938e+00 2.432456493377685547e+00 7.312440276145935059e-01
4.230000000000000000e+03 7.547518157958984375e+01 -5.627340674400329590e-01 -3.084452748298645020e-01 7.751209259033203125e+00 2.232829332351684570e+00 5.163620691746473312e-03
4.231000000000000000e+03 7.478659057617187500e+01 -1.329208254814147949e+00 -3.723544180393218994e-01 7.605767726898193359e+00 2.170023918151855469e+00 7.910757511854171753e-02
4.232000000000000000e+03 7.406751251220703125e+01 5.958653450012207031e+00 -4.122316539287567139e-01 7.674025535583496094e+00 2.178538322448730469e+00 -6.541961431503295898e-01
4.233000000000000000e+03 7.484315490722656250e+01 -3.648968935012817383e+00 -3.712109327316284180e-01 7.654733657836914062e+00 2.185056686401367188e+00 3.022708594799041748e-01
4.234000000000000000e+03 7.550186157226562500e+01 -4.471684455871582031e+00 -3.025729060173034668e-01 7.766044616699218750e+00 2.239041566848754883e+00 3.898664712905883789e-01
4.235000000000000000e+03 7.487021636962890625e+01 -4.409818172454833984e+00 -3.592439889907836914e-01 7.677627086639404297e+00 2.195514917373657227e+00 3.817010223865509033e-01
4.236000000000000000e+03 7.475912475585937500e+01 -5.954463005065917969e+00 -3.741284012794494629e-01 7.716284751892089844e+00 2.202646970748901367e+00 5.228137969970703125e-01
4.237000000000000000e+03 7.544199371337890625e+01 1.872727274894714355e+00 -3.241234421730041504e-01 7.744837760925292969e+00 2.226214170455932617e+00 -2.539635002613067627e-01
4.238000000000000000e+03 7.472367858886718750e+01 -6.798511028289794922e+00 -3.661940097808837891e-01 7.752192497253417969e+00 2.215799570083618164e+00 5.975514650344848633e-01
4.239000000000000000e+03 7.481585693359375000e+01 9.239894866943359375e+00 -4.453521221876144409e-02 7.711091518402099609e+00 2.299966812133789062e+00 -9.109178781509399414e-01
4.240000000000000000e+03 7.520388793945312500e+01 9.779214859008789062e+00 3.335319831967353821e-02 7.639838695526123047e+00 2.301957607269287109e+00 -9.018642306327819824e-01
4.241000000000000000e+03 7.547597503662109375e+01 -8.487841606140136719e+00 -2.217070609331130981e-01 7.779411315917968750e+00 2.267311334609985352e+00 7.719606757164001465e-01
4.242000000000000000e+03 7.455574798583984375e+01 -1.112637233734130859e+01 2.215938642621040344e-02 7.956773757934570312e+00 2.393679857254028320e+00 8.890154957771301270e-01
4.243000000000000000e+03 7.549855041503906250e+01 7.927964687347412109e+00 -1.599587202072143555e-01 7.660128593444824219e+00 2.250051021575927734e+00 -8.387734293937683105e-01
4.244000000000000000e+03 7.473770904541015625e+01 1.912481784820556641e+00 -3.977613151073455811e-01 7.615960121154785156e+00 2.165459632873535156e+00 -2.482841014862060547e-01
4.245000000000000000e+03 7.445880889892578125e+01 7.967154502868652344e+00 -2.125987410545349121e-01 7.763426780700683594e+00 2.265248298645019531e+00 -8.507336974143981934e-01
4.246000000000000000e+03 7.478940582275390625e+01 -2.099778175354003906e+00 -3.749707341194152832e-01 7.616617202758789062e+00 2.172493934631347656e+00 1.464625895023345947e-01
4.247000000000000000e+03 7.426937103271484375e+01 1.067389392852783203e+01 1.960449069738388062e-01 7.855852603912353516e+00 2.415569305419921875e+00 -8.936854600906372070e-01
4.248000000000000000e+03 7.261132812500000000e+01 1.047585201263427734e+01 1.998730152845382690e-01 8.216185569763183594e+00 2.524817705154418945e+00 -7.791782617568969727e-01
4.249000000000000000e+03 7.479234313964843750e+01 2.555742263793945312e-01 -3.825116455554962158e-01 7.602091312408447266e+00 2.165873765945434570e+00 -7.752144336700439453e-02
4.250000000000000000e+03 7.479402160644531250e+01 -5.458630919456481934e-01 -3.791720271110534668e-01 7.605836868286132812e+00 2.167999505996704102e+00 -1.742593944072723389e-03
4.251000000000000000e+03 7.478943634033203125e+01 3.571801185607910156e+00 -3.969926536083221436e-01 7.649187564849853516e+00 2.175658464431762695e+00 -4.284680485725402832e-01
4.252000000000000000e+03 7.474829864501953125e+01 2.752136707305908203e+00 -4.022655189037322998e-01 7.630548477172851562e+00 2.168484926223754883e+00 -3.419073224067687988e-01
4.253000000000000000e+03 7.476526641845703125e+01 -7.674565315246582031e+00 -3.179659247398376465e-01 7.800788402557373047e+00 2.244846820831298828e+00 6.948774456977844238e-01
4.254000000000000000e+03 7.437767791748046875e+01 -8.755696296691894531e+00 -2.929264903068542480e-01 7.882835388183593750e+00 2.276972770690917969e+00 7.622492313385009766e-01
4.255000000000000000e+03 7.460926818847656250e+01 2.060021781921386719e+01 3.535129129886627197e-01 7.738736152648925781e+00 2.427674770355224609e+00 8.133454918861389160e-01
4.256000000000000000e+03 7.390225219726562500e+01 2.054755592346191406e+01 4.110473096370697021e-01 7.954368591308593750e+00 2.509624719619750977e+00 8.403576016426086426e-01
4.257000000000000000e+03 7.481143951416015625e+01 -1.702775192260742188e+01 1.004798650741577148e+00 7.943785190582275391e+00 2.684575080871582031e+00 -7.694758474826812744e-02
4.258000000000000000e+03 7.503723907470703125e+01 -1.805654716491699219e+01 9.372011423110961914e-01 7.850004673004150391e+00 2.636161804199218750e+00 -3.527640104293823242e-01
4.259000000000000000e+03 5.956098556518554688e+00 2.846884536743164062e+01 -7.806829176843166351e-03 -7.372301071882247925e-02 -2.445895224809646606e-02 9.823194891214370728e-02
4.260000000000000000e+03 5.226839065551757812e+00 1.696694564819335938e+01 -1.555487141013145447e-02 -5.851261317729949951e-03 -6.421839818358421326e-03 1.595310494303703308e-02
4.261000000000000000e+03 5.152602195739746094e+00 1.462845897674560547e+01 -9.926651604473590851e-03 -3.148720832541584969e-03 -3.922611474990844727e-03 5.721090827137231827e-03
4.262000000000000000e+03 5.376606941223144531e+00 3.125417709350585938e+01 3.551606554538011551e-03 -1.147161945700645447e-01 -3.334937617182731628e-02 9.101314097642898560e-02
4.263000000000000000e+03 7.449887084960937500e+01 -2.865900611877441406e+01 -5.557292699813842773e-01 8.383844375610351562e+00 2.348434448242187500e+00 -8.327574729919433594e-01
4.264000000000000000e+03 7.464994812011718750e+01 1.988196754455566406e+01 4.909623861312866211e-01 7.674256801605224609e+00 2.449565887451171875e+00 7.496327757835388184e-01
4.265000000000000000e+03 7.519605255126953125e+01 1.854888725280761719e+01 6.191530227661132812e-01 7.482657909393310547e+00 2.430543422698974609e+00 4.934938549995422363e-01
4.266000000000000000e+03 4.522831916809082031e+00 -9.366400718688964844e+00 -2.525088563561439514e-02 -1.458359509706497192e-01 -5.132604762911796570e-02 -1.939963996410369873e-01
4.267000000000000000e+03 5.397824287414550781e+00 -1.499565124511718750e+01 2.815954945981502533e-02 -1.800736635923385620e-01 -4.557423666119575500e-02 -2.148988544940948486e-01
4.268000000000000000e+03 4.541864871978759766e+00 1.315024280548095703e+01 -4.867417737841606140e-03 -1.662434777244925499e-03 -1.958955777809023857e-03 1.858016592450439930e-03
4.269000000000000000e+03 5.968399524688720703e+00 -1.631760215759277344e+01 5.464693158864974976e-02 -1.345545500516891479e-01 -2.397228777408599854e-02 -2.092543691396713257e-01
4.270000000000000000e+03 4.629837989807128906e+00 -1.813893890380859375e+01 5.972645059227943420e-02 -3.229465782642364502e-01 -7.896603643894195557e-02 -1.563900262117385864e-01
4.271000000000000000e+03 6.388678073883056641e+00 -1.688530921936035156e+01 6.992156803607940674e-02 -9.231662750244140625e-02 -6.718516349792480469e-03 -2.057742029428482056e-01
4.272000000000000000e+03 4.366674900054931641e+00 -1.226165676116943359e+01 -2.156946808099746704e-03 -2.177894562482833862e-01 -6.598392128944396973e-02 -2.040330618619918823e-01
4.273000000000000000e+03 6.534322261810302734e+00 -1.328806304931640625e+01 9.260016493499279022e-03 -6.835230439901351929e-02 -1.772768609225749969e-02 -2.292475253343582153e-01
4.274000000000000000e+03 5.058625698089599609e+00 -1.288523864746093750e+01 2.435202477499842644e-03 -1.818946599960327148e-01 -5.383783951401710510e-02 -2.169016897678375244e-01
4.275000000000000000e+03 4.465404033660888672e+00 -1.368940353393554688e+01 9.384366683661937714e-03 -2.438446730375289917e-01 -7.033809274435043335e-02 -2.042750269174575806e-01
4.276000000000000000e+03 4.457039356231689453e+00 -1.086229801177978516e+01 -1.346448529511690140e-02 -1.832306683063507080e-01 -5.900854617357254028e-02 -2.019647806882858276e-01
4.277000000000000000e+03 4.977199077606201172e+00 -1.224845600128173828e+01 -3.749843686819076538e-03 -1.782347559928894043e-01 -5.459538102149963379e-02 -2.159809619188308716e-01
4.278000000000000000e+03 7.328831481933593750e+01 2.544175910949707031e+01 -6.231476664543151855e-01 7.682037353515625000e+00 2.117666959762573242e+00 3.851751983165740967e-01
4.279000000000000000e+03 4.630100727081298828e+00 -1.888920402526855469e+01 6.868170946836471558e-02 -3.347765207290649414e-01 -7.982844114303588867e-02 -1.419943273067474365e-01
4.280000000000000000e+03 6.855880737304687500e+00 -1.888428878784179688e+01 1.208527237176895142e-01 -4.897589236497879028e-02 2.156304940581321716e-02 -1.774673908948898315e-01
4.281000000000000000e+03 5.064820289611816406e+00 -1.166362094879150391e+01 -7.338163908571004868e-03 -1.587354093790054321e-01 -4.982207342982292175e-02 -2.175305485725402832e-01
4.282000000000000000e+03 7.482389831542968750e+01 -2.524751853942871094e+01 -2.554622590541839600e-01 8.420011520385742188e+00 2.449364900588989258e+00 -1.299519300460815430e+00
4.283000000000000000e+03 7.420950317382812500e+01 -2.723556900024414062e+01 -5.705208778381347656e-01 8.434769630432128906e+00 2.359274625778198242e+00 -1.040243148803710938e+00
4.284000000000000000e+03 5.486656188964843750e+00 2.125626373291015625e+01 -2.624213881790637970e-02 -1.810446009039878845e-02 -1.330398023128509521e-02 4.684935882687568665e-02
4.285000000000000000e+03 4.650462150573730469e+00 1.876837539672851562e+01 -1.670361123979091644e-02 -1.127286255359649658e-02 -8.392942138016223907e-03 2.473287098109722137e-02
4.286000000000000000e+03 5.389372348785400391e+00 1.861116027832031250e+01 -2.044372260570526123e-02 -9.161525405943393707e-03 -8.881574496626853943e-03 2.630686201155185699e-02
4.287000000000000000e+03 5.340055465698242188e+00 9.882867813110351562e+00 -1.836919691413640976e-03 -1.619863673113286495e-03 -1.037035020999610424e-03 -1.920933835208415985e-03
4.288000000000000000e+03 7.408042144775390625e+01 -2.473174476623535156e+01 -2.535029351711273193e-01 8.530895233154296875e+00 2.483217716217041016e+00 -1.368255734443664551e+00
4.289000000000000000e+03 5.299786090850830078e+00 -1.882969856262207031e+01 8.035029470920562744e-02 -2.538177371025085449e-01 -5.204023048281669617e-02 -1.536614745855331421e-01
4.290000000000000000e+03 5.812126636505126953e+00 -2.005370712280273438e+01 1.049377098679542542e-01 -2.096260040998458862e-01 -3.140648826956748962e-02 -1.329220831394195557e-01
4.291000000000000000e+03 4.561278343200683594e+00 1.235282135009765625e+01 -4.115543328225612640e-03 -1.211456838063895702e-03 -1.598100061528384686e-03 3.204804961569607258e-04
4.292000000000000000e+03 5.200290203094482422e+00 1.385551357269287109e+01 -7.643389981240034103e-03 -2.891082782298326492e-03 -3.160341642796993256e-03 3.824175335466861725e-03
4.293000000000000000e+03 3.100886535644531250e+01 -8.621878623962402344e+00 -2.624335885047912598e-01 -2.865314483642578125e-01 -1.646895110607147217e-01 -2.109602242708206177e-01
4.294000000000000000e+03 5.166517734527587891e+00 1.618023109436035156e+01 -1.386537402868270874e-02 -4.778771195560693741e-03 -5.593243986368179321e-03 1.187049318104982376e-02
4.295000000000000000e+03 5.308803081512451172e+00 1.777651786804199219e+01 -1.890160329639911652e-02 -7.144718430936336517e-03 -7.813896052539348602e-03 2.055411040782928467e-02
4.296000000000000000e+03 5.319795608520507812e+00 1.066925621032714844e+01 -2.378653502091765404e-03 -1.804871833883225918e-03 -1.255057519301772118e-03 -1.257032039575278759e-03
4.297000000000000000e+03 5.301047325134277344e+00 1.146229076385498047e+01 -3.828392829746007919e-03 -1.994474092498421669e-03 -1.746860099956393242e-03 -6.464854232035577297e-04
4.298000000000000000e+03 4.659320354461669922e+00 7.641798496246337891e+00 -5.049797982792370021e-05 -3.113508864771574736e-04 -1.085546609829179943e-04 -2.703155158087611198e-03
4.299000000000000000e+03 5.457148075103759766e+00 6.827824592590332031e+00 3.092630940955132246e-04 -1.008425489999353886e-03 -2.097487158607691526e-04 -2.575235674157738686e-03
4.300000000000000000e+03 7.484682464599609375e+01 -2.386792564392089844e+01 -4.862785805016756058e-03 8.354861259460449219e+00 2.504999399185180664e+00 -1.401696920394897461e+00
4.301000000000000000e+03 5.660106658935546875e+00 2.681924819946289062e+01 -1.490150298923254013e-02 -6.098677217960357666e-02 -2.276648208498954773e-02 9.008061885833740234e-02
4.302000000000000000e+03 6.106463909149169922e+00 9.809962272644042969e+00 -1.861869124695658684e-03 -2.486151643097400665e-03 -1.304406207054853439e-03 -1.617304515093564987e-03
4.303000000000000000e+03 1.024343013763427734e+01 -2.550046730041503906e+01 1.280177086591720581e-01 2.870191037654876709e-01 1.245110407471656799e-01 -9.043025225400924683e-02
4.304000000000000000e+03 5.414284706115722656e+00 2.374111747741699219e+01 -2.307996526360511780e-02 -3.601075708866119385e-02 -1.772721670567989349e-02 6.669951230287551880e-02
4.305000000000000000e+03 6.010247707366943359e+00 3.295400238037109375e+01 1.667682081460952759e-02 -1.171854436397552490e-01 -3.015258722007274628e-02 9.239821881055831909e-02
4.306000000000000000e+03 6.701349735260009766e+00 3.224657058715820312e+01 1.236845739185810089e-02 -9.588352590799331665e-02 -2.505451999604701996e-02 1.014958173036575317e-01
4.307000000000000000e+03 5.869671821594238281e+00 2.762221717834472656e+01 -1.218405738472938538e-02 -6.656006723642349243e-02 -2.362323738634586334e-02 9.444241225719451904e-02
4.308000000000000000e+03 1.286198997497558594e+01 -8.875749588012695312e+00 -1.746510714292526245e-02 7.736811786890029907e-02 1.797090284526348114e-02 -1.889081597328186035e-01
4.309000000000000000e+03 7.032721710205078125e+01 7.551265716552734375e+00 -5.473862886428833008e-01 7.554543495178222656e+00 2.102147102355957031e+00 -1.334833204746246338e-01
4.310000000000000000e+03 5.431155681610107422e+00 2.453316116333007812e+01 -2.217279933393001556e-02 -4.207155853509902954e-02 -1.927330717444419861e-02 7.241762429475784302e-02
4.311000000000000000e+03 5.455970764160156250e+00 2.530757522583007812e+01 -1.982948184013366699e-02 -4.913214221596717834e-02 -2.068848721683025360e-02 7.807705551385879517e-02
4.312000000000000000e+03 7.423152160644531250e+01 -3.050730323791503906e+01 -5.535773038864135742e-01 8.227346420288085938e+00 2.302130699157714844e+00 -5.415271520614624023e-01
4.313000000000000000e+03 3.890641403198242188e+01 -1.013815021514892578e+01 -6.090110540390014648e-01 5.077096939086914062e+00 1.340425848960876465e+00 7.646541595458984375e-01
4.314000000000000000e+03 7.505961608886718750e+01 2.675342941284179688e+01 -3.893959820270538330e-01 7.546409606933593750e+00 2.147104024887084961e+00 3.866694271564483643e-01
4.315000000000000000e+03 7.354016113281250000e+01 2.412974166870117188e+01 -4.983550012111663818e-01 7.829121589660644531e+00 2.199229955673217773e+00 6.070406436920166016e-01
4.316000000000000000e+03 2.433002090454101562e+01 -1.046846294403076172e+01 1.379910558462142944e-01 2.210286073386669159e-02 4.802817478775978088e-02 -2.502674162387847900e-01
4.317000000000000000e+03 5.643326282501220703e+00 -2.666666221618652344e+01 3.882773220539093018e-02 -2.982368171215057373e-01 -7.782272994518280029e-02 2.625066041946411133e-02
4.318000000000000000e+03 5.527051925659179688e+01 -2.760542869567871094e+00 1.722606658935546875e+00 -2.811674475669860840e-01 4.324317574501037598e-01 -1.148993134498596191e+00
4.319000000000000000e+03 1.865377807617187500e+01 -9.126105308532714844e+00 3.316554054617881775e-02 1.181172206997871399e-01 4.538482800126075745e-02 -1.204562187194824219e-01
4.320000000000000000e+03 5.764430522918701172e+00 -3.227340316772460938e+01 -1.985013484954833984e-02 -3.371233344078063965e-01 -1.070920377969741821e-01 3.180690482258796692e-02
4.321000000000000000e+03 1.512306118011474609e+01 -6.763234615325927734e+00 -1.946194320917129517e-01 8.236070722341537476e-02 -3.367761895060539246e-02 -1.689261943101882935e-01
4.322000000000000000e+03 7.452611541748046875e+01 2.833763885498046875e+01 -4.060436189174652100e-01 7.366546154022216797e+00 2.088150739669799805e+00 1.461259722709655762e-01
4.323000000000000000e+03 7.420655059814453125e+01 2.611071014404296875e+01 -5.058281421661376953e-01 7.583241939544677734e+00 2.123224258422851562e+00 3.972917795181274414e-01
4.324000000000000000e+03 3.581810760498046875e+01 -8.530599594116210938e+00 -2.315535992383956909e-01 1.786997556686401367e+00 4.666331708431243896e-01 6.339211463928222656e-01
4.325000000000000000e+03 3.573934173583984375e+01 -1.317078685760498047e+01 5.126904249191284180e-01 2.382130622863769531e+00 8.684463500976562500e-01 -5.592564493417739868e-02
4.326000000000000000e+03 1.469396686553955078e+01 -8.519648551940917969e+00 -3.159758821129798889e-02 9.787496179342269897e-02 1.988321356475353241e-02 -1.848099678754806519e-01
4.327000000000000000e+03 1.041933536529541016e+01 -1.053038120269775391e+01 -7.660108385607600212e-04 7.614756375551223755e-02 2.261446602642536163e-02 -1.792836785316467285e-01
4.328000000000000000e+03 4.395140075683593750e+01 1.311601924896240234e+01 6.335219740867614746e-01 9.518485069274902344e+00 3.045602083206176758e+00 -1.249840781092643738e-01
4.329000000000000000e+03 7.415750122070312500e+01 -2.026862907409667969e+01 9.385324120521545410e-01 8.384377479553222656e+00 2.796872854232788086e+00 -1.003524065017700195e+00
4.330000000000000000e+03 6.676915740966796875e+01 1.792628407478332520e+00 -4.519373476505279541e-01 4.440941810607910156e+00 1.196701407432556152e+00 3.204061388969421387e-01
4.331000000000000000e+03 4.010423278808593750e+01 -2.086363792419433594e+01 1.268128156661987305e+00 6.767565250396728516e+00 2.410707950592041016e+00 1.217769622802734375e+00
4.332000000000000000e+03 7.153551483154296875e+01 -1.442440032958984375e+01 1.268439412117004395e+00 9.513739585876464844e+00 3.234653711318969727e+00 2.754853367805480957e-01
4.333000000000000000e+03 4.622792053222656250e+01 1.654745864868164062e+01 5.993831753730773926e-01 8.213641166687011719e+00 2.643907308578491211e+00 8.792400956153869629e-01
4.334000000000000000e+03 3.524328994750976562e+01 -8.586869239807128906e+00 -1.954536288976669312e-01 1.274218916893005371e+00 3.236295878887176514e-01 5.024055242538452148e-01
4.335000000000000000e+03 2.239184761047363281e+01 -1.007920455932617188e+01 1.074147000908851624e-01 4.837075248360633850e-02 4.673563316464424133e-02 -1.968439668416976929e-01
4.336000000000000000e+03 6.791159629821777344e+00 -6.709641933441162109e+00 -8.738596737384796143e-02 -2.956576831638813019e-02 -3.508552163839340210e-02 -1.939131170511245728e-01
4.337000000000000000e+03 6.201368808746337891e+00 -5.955679893493652344e+00 -8.740188181400299072e-02 -3.663105517625808716e-02 -3.720987960696220398e-02 -1.734222173690795898e-01
4.338000000000000000e+03 4.128590011596679688e+01 1.662237167358398438e+01 4.555578231811523438e-01 5.817778110504150391e+00 1.882000803947448730e+00 -1.404272556304931641e+00
4.339000000000000000e+03 4.954021835327148438e+01 -6.377633094787597656e+00 -1.625407457351684570e+00 3.849567651748657227e+00 6.672480106353759766e-01 6.662566065788269043e-01
4.340000000000000000e+03 5.025635147094726562e+01 -5.917232036590576172e+00 -1.070230484008789062e+00 2.759896039962768555e+00 5.068995952606201172e-01 3.801896572113037109e-01
4.341000000000000000e+03 4.690317535400390625e+01 -3.938413381576538086e+00 -5.376172065734863281e-01 7.891574859619140625e+00 2.206187248229980469e+00 1.660232394933700562e-01
4.342000000000000000e+03 4.901539993286132812e+01 -5.823284149169921875e+00 -1.372201681137084961e+00 4.831048011779785156e+00 1.037653923034667969e+00 5.785290598869323730e-01
4.343000000000000000e+03 5.910048294067382812e+01 -2.398864507675170898e+00 1.089588642120361328e+00 1.118717789649963379e-01 3.604381382465362549e-01 -7.834717035293579102e-01
4.344000000000000000e+03 7.266892242431640625e+01 1.691843605041503906e+01 1.252092599868774414e+00 8.774537086486816406e+00 3.007988929748535156e+00 5.783431604504585266e-02
4.345000000000000000e+03 1.687059593200683594e+01 -7.183926582336425781e+00 -1.808257699012756348e-01 9.825792163610458374e-02 -2.477035298943519592e-02 -1.414373964071273804e-01
4.346000000000000000e+03 4.580303192138671875e+01 1.906976318359375000e+01 2.408913075923919678e-01 6.927695751190185547e+00 2.150576114654541016e+00 2.876464426517486572e-01
4.347000000000000000e+03 4.639910125732421875e+01 -5.774466395378112793e-01 1.745913624763488770e+00 9.669750213623046875e+00 3.424699068069458008e+00 -2.301843017339706421e-01
4.348000000000000000e+03 7.301818370819091797e+00 -5.985207080841064453e+00 -1.064466014504432678e-01 -1.536063291132450104e-02 -3.654216974973678589e-02 -1.849316358566284180e-01
4.349000000000000000e+03 7.425599098205566406e+00 -6.630132675170898438e+00 -9.826339036226272583e-02 -1.613109931349754333e-02 -3.431834653019905090e-02 -1.967172026634216309e-01
4.350000000000000000e+03 5.633825302124023438e+01 -2.602586507797241211e+00 1.555893063545227051e+00 -3.621490895748138428e-01 3.581232130527496338e-01 -1.077674508094787598e+00
4.351000000000000000e+03 5.394802093505859375e+01 -3.391748666763305664e+00 1.553382992744445801e+00 -2.632458880543708801e-02 4.581175446510314941e-01 -1.190034985542297363e+00
4.352000000000000000e+03 4.532595825195312500e+01 9.131086349487304688e+00 1.313479065895080566e+00 1.249309635162353516e+01 4.141972541809082031e+00 8.298705220222473145e-01
4.353000000000000000e+03 6.599117279052734375e+01 -8.661118507385253906e+00 -1.928559690713882446e-02 4.663434028625488281e+00 1.393244504928588867e+00 -1.589644312858581543e+00
4.354000000000000000e+03 2.484097862243652344e+01 -7.104207038879394531e+00 -5.441483855247497559e-01 1.225440949201583862e-01 -1.264812797307968140e-01 -1.148023307323455811e-01
4.355000000000000000e+03 2.427820968627929688e+01 -7.473826408386230469e+00 -4.361722767353057861e-01 1.144516393542289734e-01 -9.651618450880050659e-02 -1.295782029628753662e-01
4.356000000000000000e+03 6.454013061523437500e+01 1.749915957450866699e+00 -1.171229332685470581e-01 2.848187923431396484e+00 8.193194866180419922e-01 3.271201252937316895e-01
4.357000000000000000e+03 6.513175201416015625e+01 2.267111301422119141e+00 -2.459269315004348755e-01 3.275555849075317383e+00 9.088886380195617676e-01 4.211466610431671143e-01
4.358000000000000000e+03 7.251985931396484375e+01 1.549744129180908203e+01 1.216679453849792480e+00 8.890841484069824219e+00 3.032256126403808594e+00 -1.592627018690109253e-01
4.359000000000000000e+03 5.069672775268554688e+01 -3.745913505554199219e+00 9.539139270782470703e-01 2.702522277832031250e+00 1.096930861473083496e+00 -5.294386744499206543e-01
4.360000000000000000e+03 4.199185180664062500e+01 -1.735477828979492188e+01 1.091173052787780762e+00 8.093848228454589844e+00 2.755506515502929688e+00 7.500241994857788086e-01
4.361000000000000000e+03 4.095161437988281250e+01 -1.870050811767578125e+01 1.151310920715332031e+00 7.300889492034912109e+00 2.535660028457641602e+00 8.771138191223144531e-01
4.362000000000000000e+03 6.928373718261718750e+01 7.391029834747314453e+00 -5.892328619956970215e-01 7.144511699676513672e+00 1.966583609580993652e+00 2.331411540508270264e-01
4.363000000000000000e+03 1.373487758636474609e+01 1.472093486785888672e+01 -2.316755056381225586e-02 -4.352448042482137680e-03 -8.255999535322189331e-03 -7.862080819904804230e-03
4.364000000000000000e+03 7.112170410156250000e+01 -2.582622718811035156e+01 -8.783493041992187500e-01 8.494579315185546875e+00 2.284868955612182617e+00 -6.780923008918762207e-01
4.365000000000000000e+03 6.972808837890625000e+01 -2.593680381774902344e+01 -1.097117066383361816e+00 8.065661430358886719e+00 2.090563297271728516e+00 -7.542227953672409058e-02
4.366000000000000000e+03 3.901071929931640625e+01 2.188463020324707031e+01 -1.250816974788904190e-02 3.662713050842285156e+00 1.095061421394348145e+00 -1.190260171890258789e+00
4.367000000000000000e+03 2.213392448425292969e+01 -7.580766677856445312e+00 -2.855208814144134521e-01 1.018822416663169861e-01 -5.509158968925476074e-02 -8.623141050338745117e-02
4.368000000000000000e+03 7.208061981201171875e+01 -2.171243286132812500e+01 9.376786947250366211e-01 9.361614227294921875e+00 3.089787721633911133e+00 -1.207996249198913574e+00
4.369000000000000000e+03 5.675391769409179688e+01 2.933045768737792969e+01 1.208337768912315369e-01 2.316437005996704102e+00 7.311812639236450195e-01 1.179107546806335449e+00
4.370000000000000000e+03 6.763842773437500000e+01 5.546681404113769531e+00 -6.617196202278137207e-01 5.557458877563476562e+00 1.468721747398376465e+00 6.330087184906005859e-01
4.371000000000000000e+03 7.135399818420410156e+00 -1.567665195465087891e+01 5.186868458986282349e-02 -4.751396365463733673e-03 1.413518562912940979e-02 -2.196334600448608398e-01
4.372000000000000000e+03 4.211838150024414062e+01 -5.411704063415527344e+00 -1.819565534591674805e+00 9.224353790283203125e+00 2.221436500549316406e+00 1.699136853218078613e+00
4.373000000000000000e+03 4.283500289916992188e+01 -5.328943252563476562e+00 -1.878767609596252441e+00 9.745598793029785156e+00 2.360049247741699219e+00 1.339829921722412109e+00
4.374000000000000000e+03 7.028990936279296875e+01 8.574138641357421875e+00 -3.395499587059020996e-01 7.878063201904296875e+00 2.261554002761840820e+00 -1.479004919528961182e-01
4.375000000000000000e+03 7.081565856933593750e+01 9.111010551452636719e+00 -1.996144652366638184e-01 8.153431892395019531e+00 2.386145114898681641e+00 -3.414635956287384033e-01
4.376000000000000000e+03 4.387096023559570312e+01 -3.677292108535766602e+00 -6.918239593505859375e-01 1.039729976654052734e+01 2.911642789840698242e+00 9.333266019821166992e-01
4.377000000000000000e+03 4.561001968383789062e+01 -5.681921482086181641e+00 -2.007766723632812500e+00 8.909540176391601562e+00 2.070532083511352539e+00 6.311360597610473633e-01
4.378000000000000000e+03 3.718739700317382812e+01 2.249009704589843750e+01 5.084714666008949280e-02 2.895907402038574219e+00 8.840263485908508301e-01 -1.168429374694824219e+00
4.379000000000000000e+03 3.573939895629882812e+01 2.572410774230957031e+01 -8.136940002441406250e-02 2.349547386169433594e+00 6.804533600807189941e-01 -9.480232596397399902e-01
4.380000000000000000e+03 3.980480194091796875e+01 -1.878824806213378906e+01 9.750426411628723145e-01 6.539170265197753906e+00 2.254263877868652344e+00 8.349130749702453613e-01
4.381000000000000000e+03 1.309917354583740234e+01 1.281444454193115234e+01 -1.137656625360250473e-02 -6.019977387040853500e-03 -5.218963138759136200e-03 -2.959549892693758011e-03
4.382000000000000000e+03 4.449047088623046875e+01 -1.144783878326416016e+01 -8.657186031341552734e-01 9.196199417114257812e+00 2.499144315719604492e+00 3.729970455169677734e-01
4.383000000000000000e+03 3.875012207031250000e+01 -8.504845619201660156e+00 -8.971174359321594238e-01 4.876615524291992188e+00 1.193849444389343262e+00 1.285815238952636719e+00
4.384000000000000000e+03 1.369954109191894531e+01 -1.037265014648437500e+01 1.255231946706771851e-01 8.568140864372253418e-02 6.336137652397155762e-02 -1.431054323911666870e-01
4.385000000000000000e+03 1.481222820281982422e+01 -9.916602134704589844e+00 1.162829622626304626e-01 1.072708070278167725e-01 6.706613302230834961e-02 -1.705450415611267090e-01
4.386000000000000000e+03 2.881588935852050781e+01 -9.769792556762695312e+00 5.272622033953666687e-02 -2.077134400606155396e-01 -4.649616777896881104e-02 -2.791976630687713623e-01
4.387000000000000000e+03 3.006319236755371094e+01 -8.196385383605957031e+00 -4.532836973667144775e-01 -2.983644306659698486e-01 -2.254944443702697754e-01 -2.913581728935241699e-01
4.388000000000000000e+03 4.091037750244140625e+01 -1.749787330627441406e+01 9.804801344871520996e-01 7.200948238372802734e+00 2.454428672790527344e+00 7.204271554946899414e-01
4.389000000000000000e+03 7.037561798095703125e+01 -2.658607101440429688e+01 -1.105802774429321289e+00 7.968697071075439453e+00 2.058868408203125000e+00 -2.834021747112274170e-01
4.390000000000000000e+03 7.270574951171875000e+01 -2.761945343017578125e+01 -8.273048400878906250e-01 8.257419586181640625e+00 2.229034423828125000e+00 -7.982302904129028320e-01
4.391000000000000000e+03 1.754463768005371094e+01 -9.116301536560058594e+00 3.403517231345176697e-02 1.428036838769912720e-01 5.305165424942970276e-02 -1.405074447393417358e-01
4.392000000000000000e+03 3.637434005737304688e+01 -1.337985897064208984e+01 4.188158512115478516e-01 2.920698404312133789e+00 1.001854300498962402e+00 -3.151873126626014709e-02
4.393000000000000000e+03 3.765316390991210938e+01 -1.391267776489257812e+01 2.871833443641662598e-01 4.179572105407714844e+00 1.340026617050170898e+00 4.723861441016197205e-02
4.394000000000000000e+03 1.342175960540771484e+01 -9.909192085266113281e+00 7.555783540010452271e-02 8.296658098697662354e-02 4.755732789635658264e-02 -1.621260046958923340e-01
4.395000000000000000e+03 1.309051322937011719e+01 -9.421586036682128906e+00 2.603915892541408539e-02 8.182970434427261353e-02 3.236065804958343506e-02 -1.783076226711273193e-01
4.396000000000000000e+03 4.266411972045898438e+01 -1.911786079406738281e+01 1.340506911277770996e+00 8.726540565490722656e+00 3.020114183425903320e+00 7.975224852561950684e-01
4.397000000000000000e+03 4.146787643432617188e+01 -1.802812194824218750e+01 1.102952957153320312e+00 7.670003414154052734e+00 2.631886959075927734e+00 8.228815793991088867e-01
4.398000000000000000e+03 4.263885498046875000e+01 -1.620907402038574219e+01 9.836657643318176270e-01 8.593411445617675781e+00 2.873123168945312500e+00 7.270705699920654297e-01
4.399000000000000000e+03 4.094630050659179688e+01 -1.634262466430664062e+01 7.958384752273559570e-01 7.133458614349365234e+00 2.378789186477661133e+00 5.808475613594055176e-01
4.400000000000000000e+03 2.250760841369628906e+01 -1.070351600646972656e+01 1.973318457603454590e-01 3.644943237304687500e-02 7.013438642024993896e-02 -2.086461037397384644e-01
4.401000000000000000e+03 2.229367637634277344e+01 -9.492606163024902344e+00 -4.742531105875968933e-03 6.952303647994995117e-02 1.943415217101573944e-02 -1.730018258094787598e-01
4.402000000000000000e+03 3.044671440124511719e+01 -1.055965805053710938e+01 3.640382587909698486e-01 -1.759617775678634644e-01 5.642294883728027344e-02 -1.562668532133102417e-01
4.403000000000000000e+03 3.885100936889648438e+01 -1.642091560363769531e+01 5.613746643066406250e-01 5.591698169708251953e+00 1.845921874046325684e+00 3.370213210582733154e-01
4.404000000000000000e+03 6.417974853515625000e+01 2.816925239562988281e+01 1.474584825336933136e-02 2.905802488327026367e+00 8.761644363403320312e-01 -9.306477904319763184e-01
4.405000000000000000e+03 1.748612976074218750e+01 -7.294473171234130859e+00 -1.788050234317779541e-01 9.978614747524261475e-02 -2.370566502213478088e-02 -1.254907399415969849e-01
4.406000000000000000e+03 6.789756011962890625e+01 -2.911130523681640625e+01 -1.205983281135559082e+00 5.703820228576660156e+00 1.349351048469543457e+00 5.619475245475769043e-01
4.407000000000000000e+03 3.984361267089843750e+01 1.877734565734863281e+01 3.092572093009948730e-01 4.331808090209960938e+00 1.392319560050964355e+00 -1.433513760566711426e+00
4.408000000000000000e+03 1.665153694152832031e+01 -8.029309272766113281e+00 -8.614989370107650757e-02 1.179267391562461853e-01 9.533053264021873474e-03 -1.541270613670349121e-01
4.409000000000000000e+03 1.857411003112792969e+01 -8.089913368225097656e+00 -9.587736427783966064e-02 1.115425974130630493e-01 4.699570126831531525e-03 -1.144431531429290771e-01
4.410000000000000000e+03 6.956262588500976562e+00 -2.715172004699707031e+01 3.832665458321571350e-02 -1.481319218873977661e-01 -3.294157981872558594e-02 1.561189536005258560e-02
4.411000000000000000e+03 6.944069862365722656e+00 -2.959314727783203125e+01 -2.894041128456592560e-03 -1.880059093236923218e-01 -5.726998299360275269e-02 2.616059035062789917e-02
4.412000000000000000e+03 3.250437545776367188e+01 -1.238675689697265625e+01 7.955677509307861328e-01 3.050680756568908691e-01 3.301907479763031006e-01 -3.232100233435630798e-02
4.413000000000000000e+03 8.740504264831542969e+00 8.139185905456542969e+00 -7.955118198879063129e-04 -3.998196218162775040e-03 -1.438112347386777401e-03 -1.078943721950054169e-03
4.414000000000000000e+03 1.404229927062988281e+01 1.106745052337646484e+01 -2.521533984690904617e-03 -4.490308463573455811e-03 -2.103552687913179398e-03 1.363861490972340107e-03
4.415000000000000000e+03 4.479002761840820312e+01 -9.303812026977539062e+00 -2.155148744583129883e+00 9.144095420837402344e+00 2.096683979034423828e+00 4.732268750667572021e-01
4.416000000000000000e+03 7.197454071044921875e+01 1.849786949157714844e+01 1.315522789955139160e+00 8.929765701293945312e+00 3.073586463928222656e+00 2.719104290008544922e-01
4.417000000000000000e+03 7.177623748779296875e+01 1.958583450317382812e+01 1.107256770133972168e+00 8.836857795715332031e+00 2.983234405517578125e+00 5.788530111312866211e-01
4.418000000000000000e+03 6.485953521728515625e+01 -8.006019592285156250e+00 1.749506443738937378e-01 3.446723937988281250e+00 1.086502432823181152e+00 -1.465901732444763184e+00
4.419000000000000000e+03 6.386660766601562500e+01 -7.456713318824768066e-01 1.923821419477462769e-01 2.496679544448852539e+00 8.067185282707214355e-01 -1.297499388456344604e-01
4.420000000000000000e+03 4.205872344970703125e+01 -1.461615753173828125e+01 5.593847632408142090e-01 7.912407398223876953e+00 2.541537523269653320e+00 4.755841195583343506e-01
4.421000000000000000e+03 6.741075992584228516e+00 1.212070941925048828e+01 -6.486714351922273636e-03 -3.709461539983749390e-03 -3.058852860704064369e-03 6.583352223969995975e-04
4.422000000000000000e+03 7.169199371337890625e+01 -1.522365665435791016e+01 1.541458845138549805e+00 9.588329315185546875e+00 3.338936567306518555e+00 1.493173241615295410e-01
4.423000000000000000e+03 7.138747406005859375e+01 -1.362093734741210938e+01 9.341857433319091797e-01 9.356440544128417969e+00 3.087187767028808594e+00 3.489335179328918457e-01
4.424000000000000000e+03 4.284161376953125000e+01 -1.374521732330322266e+01 3.238410651683807373e-01 8.464831352233886719e+00 2.636601686477661133e+00 4.503246545791625977e-01
4.425000000000000000e+03 4.209278869628906250e+01 -1.382925319671630859e+01 2.655838131904602051e-01 7.874724864959716797e+00 2.442092657089233398e+00 4.174675047397613525e-01
4.426000000000000000e+03 7.253800964355468750e+01 1.487037944793701172e+01 1.186578512191772461e+00 8.718032836914062500e+00 2.971383333206176758e+00 -3.097493052482604980e-01
4.427000000000000000e+03 8.769145011901855469e+00 -1.478515052795410156e+01 3.881563991308212280e-02 1.473177671432495117e-01 5.584002286195755005e-02 -1.947189420461654663e-01
4.428000000000000000e+03 7.501659870147705078e+00 -1.529711723327636719e+01 4.548837989568710327e-02 2.963569574058055878e-02 2.253722213208675385e-02 -2.180940061807632446e-01
4.429000000000000000e+03 1.470012474060058594e+01 1.819207954406738281e+01 -9.540445357561111450e-02 1.878793165087699890e-02 -2.298495732247829437e-02 -1.999448612332344055e-02
4.430000000000000000e+03 1.480042362213134766e+01 1.895172691345214844e+01 -1.138813868165016174e-01 2.822852879762649536e-02 -2.569585666060447693e-02 -1.495981775224208832e-02
4.431000000000000000e+03 7.260314941406250000e+01 -1.890033912658691406e+01 1.562399744987487793e+00 9.290924072265625000e+00 3.255997180938720703e+00 -6.765699982643127441e-01
4.432000000000000000e+03 6.706099700927734375e+01 -2.885299873352050781e+01 -1.139236927032470703e+00 5.102926731109619141e+00 1.189106941223144531e+00 7.104709744453430176e-01
4.433000000000000000e+03 6.611681365966796875e+01 -3.084874534606933594e+01 -9.804496169090270996e-01 4.138603687286376953e+00 9.474462866783142090e-01 7.249106168746948242e-01
4.434000000000000000e+03 1.522668552398681641e+01 8.620758056640625000e+00 4.702266014646738768e-04 -5.069881444796919823e-04 -1.102847090805880725e-05 3.616782138124108315e-03
4.435000000000000000e+03 1.474443435668945312e+01 7.749215126037597656e+00 5.981693975627422333e-04 -9.676877525635063648e-04 -1.108555079554207623e-04 3.466048976406455040e-03
4.436000000000000000e+03 3.690098953247070312e+01 2.376276016235351562e+01 -3.216406702995300293e-02 2.721443414688110352e+00 8.067837953567504883e-01 -1.091820716857910156e+00
4.437000000000000000e+03 3.524663543701171875e+01 2.415698623657226562e+01 1.014543976634740829e-02 2.131166219711303711e+00 6.423935294151306152e-01 -9.899389743804931641e-01
4.438000000000000000e+03 1.376418113708496094e+01 1.380295372009277344e+01 -1.671718433499336243e-02 -5.563641898334026337e-03 -6.684247869998216629e-03 -5.740872118622064590e-03
4.439000000000000000e+03 4.567029190063476562e+01 1.988432121276855469e+01 8.192460983991622925e-02 6.608774185180664062e+00 2.007209777832031250e+00 1.536585390567779541e-01
4.440000000000000000e+03 3.946790313720703125e+01 -1.595619487762451172e+01 5.723221302032470703e-01 5.952228546142578125e+00 1.957365274429321289e+00 3.804372251033782959e-01
4.441000000000000000e+03 4.791444396972656250e+01 -2.362797975540161133e+00 9.622018337249755859e-01 6.877885341644287109e+00 2.352026224136352539e+00 -4.982185363769531250e-01
4.442000000000000000e+03 1.518928909301757812e+01 6.275233268737792969e+00 1.101273810490965843e-03 9.156448504654690623e-05 3.578515024855732918e-04 3.402048489078879356e-03
4.443000000000000000e+03 6.315433502197265625e+01 2.991512107849121094e+01 3.243244588375091553e-01 2.731472253799438477e+00 9.167390465736389160e-01 -4.728666543960571289e-01
4.444000000000000000e+03 4.110884475708007812e+01 -1.994652366638183594e+01 1.317025303840637207e+00 7.384299755096435547e+00 2.610397577285766602e+00 1.033972620964050293e+00
4.445000000000000000e+03 3.792906188964843750e+01 -8.639691352844238281e+00 -6.246412992477416992e-01 3.842744588851928711e+00 9.654309749603271484e-01 1.135957002639770508e+00
4.446000000000000000e+03 5.528072738647460938e+01 -3.677944898605346680e+00 1.253254652023315430e+00 -2.660982906818389893e-01 2.961468994617462158e-01 -1.270273447036743164e+00
4.447000000000000000e+03 5.280841827392578125e+01 -3.532459497451782227e+00 1.530701398849487305e+00 5.867003202438354492e-01 6.352205276489257812e-01 -1.053725838661193848e+00
4.448000000000000000e+03 6.164409160614013672e+00 1.843280601501464844e+01 -2.632597833871841431e-02 -6.087586749345064163e-03 -9.724069386720657349e-03 2.662476897239685059e-02
4.449000000000000000e+03 1.083624649047851562e+01 -2.940031814575195312e+01 5.281595978885889053e-03 1.797861605882644653e-01 5.552032962441444397e-02 -7.529058307409286499e-02
4.450000000000000000e+03 1.275621223449707031e+01 -3.010267257690429688e+01 5.636733490973711014e-03 2.730424702167510986e-01 8.360376209020614624e-02 -1.356458216905593872e-01
4.451000000000000000e+03 4.475668334960937500e+01 3.959143638610839844e+00 1.821047067642211914e+00 1.442239856719970703e+01 4.873033523559570312e+00 4.447609484195709229e-01
4.452000000000000000e+03 1.328583526611328125e+01 1.099525356292724609e+01 -4.301394335925579071e-03 -5.394883453845977783e-03 -2.908883383497595787e-03 2.053387433988973498e-04
4.453000000000000000e+03 7.371614074707031250e+01 2.274416542053222656e+01 -2.178074717521667480e-01 7.919147491455078125e+00 2.310401916503906250e+00 7.967489361763000488e-01
4.454000000000000000e+03 6.969978332519531250e+01 2.280647087097167969e+01 -9.744078516960144043e-01 8.492708206176757812e+00 2.255490064620971680e+00 -3.480051755905151367e-01
4.455000000000000000e+03 6.916516876220703125e+01 -2.778078460693359375e+01 -1.218557000160217285e+00 6.992268085479736328e+00 1.732113361358642578e+00 1.851090341806411743e-01
4.456000000000000000e+03 6.888453674316406250e+01 -2.841329574584960938e+01 -1.235664010047912598e+00 6.601392745971679688e+00 1.609718561172485352e+00 3.333647847175598145e-01
4.457000000000000000e+03 1.221006584167480469e+01 6.240820884704589844e+00 6.593855214305222034e-04 -2.745615784078836441e-03 -6.258690846152603626e-04 1.413320540450513363e-03
4.458000000000000000e+03 1.139009284973144531e+01 7.080563068389892578e+00 2.420424571027979255e-04 -3.685677656903862953e-03 -1.033090520650148392e-03 8.220644085668027401e-04
4.459000000000000000e+03 1.449056243896484375e+01 6.318990707397460938e+00 3.459601139184087515e-04 -1.310444669798016548e-03 -2.893453638534992933e-04 2.288027433678507805e-03
4.460000000000000000e+03 4.545153045654296875e+01 1.427447414398193359e+01 6.560695171356201172e-01 9.192024230957031250e+00 2.954428195953369141e+00 8.366727232933044434e-01
4.461000000000000000e+03 4.262234115600585938e+01 -2.306086349487304688e+01 1.486271619796752930e+00 7.661788940429687500e+00 2.744418144226074219e+00 9.252867698669433594e-01
4.462000000000000000e+03 3.169511222839355469e+01 -8.276319503784179688e+00 -3.836044669151306152e-01 -2.385546565055847168e-01 -1.866477280855178833e-01 -1.475042104721069336e-01
4.463000000000000000e+03 3.142473983764648438e+01 -1.158165073394775391e+01 6.511276960372924805e-01 1.284725032746791840e-02 1.991924792528152466e-01 -4.739688336849212646e-02
4.464000000000000000e+03 1.418181133270263672e+01 1.019598388671875000e+01 -2.046627923846244812e-03 -3.670482663437724113e-03 -1.715133199468255043e-03 1.691419049166142941e-03
4.465000000000000000e+03 1.434703350067138672e+01 9.349914550781250000e+00 -1.416257437085732818e-04 -2.571769990026950836e-03 -8.140187128446996212e-04 3.041417105123400688e-03
4.466000000000000000e+03 3.938431167602539062e+01 -2.719159317016601562e+01 8.978652358055114746e-01 5.889600276947021484e+00 2.036239624023437500e+00 1.125395894050598145e+00
4.467000000000000000e+03 4.361075973510742188e+01 -2.563538932800292969e+01 7.590863704681396484e-01 7.153819561004638672e+00 2.373871803283691406e+00 4.397397637367248535e-01
4.468000000000000000e+03 4.433229064941406250e+01 -1.041429424285888672e+01 -1.565006375312805176e+00 9.073276519775390625e+00 2.252481222152709961e+00 3.872732818126678467e-01
4.469000000000000000e+03 3.933078002929687500e+01 -7.521920204162597656e+00 -1.175547122955322266e+00 5.462283611297607422e+00 1.286020994186401367e+00 1.668856859207153320e+00
4.470000000000000000e+03 8.648686408996582031e+00 -1.324573993682861328e+01 1.556028146296739578e-02 9.745416790246963501e-02 3.390433639287948608e-02 -1.988670080900192261e-01
4.471000000000000000e+03 4.649783325195312500e+01 2.011191177368164062e+01 1.298700571060180664e-01 6.696297168731689453e+00 2.047850131988525391e+00 4.015535414218902588e-01
4.472000000000000000e+03 4.412062454223632812e+01 1.864758300781250000e+01 1.298685967922210693e-01 6.630965232849121094e+00 2.028250217437744141e+00 -3.138510882854461670e-01
4.473000000000000000e+03 4.151902770996093750e+01 -2.127583122253417969e+01 1.508214116096496582e+00 7.487985134124755859e+00 2.698859930038452148e+00 1.102037906646728516e+00
4.474000000000000000e+03 4.595865249633789062e+01 1.542971611022949219e+01 6.583896279335021973e-01 8.718693733215332031e+00 2.813124895095825195e+00 9.346698522567749023e-01
4.475000000000000000e+03 4.484805297851562500e+01 1.564021778106689453e+01 4.830799996852874756e-01 8.245577812194824219e+00 2.618597507476806641e+00 2.708334922790527344e-01
4.476000000000000000e+03 4.535800552368164062e+01 2.068090438842773438e+01 -7.408179342746734619e-02 6.293454647064208984e+00 1.865811944007873535e+00 7.038038456812500954e-04
4.477000000000000000e+03 1.868268013000488281e+01 2.734825897216796875e+01 -4.465480893850326538e-02 6.587396562099456787e-02 6.365746725350618362e-03 1.346339285373687744e-01
4.478000000000000000e+03 7.383031463623046875e+01 2.872443580627441406e+01 -4.510063230991363525e-01 7.245133399963378906e+00 2.038238048553466797e+00 4.748377203941345215e-02
4.479000000000000000e+03 6.652012634277343750e+01 2.650367736816406250e+01 -6.208598017692565918e-01 4.359473228454589844e+00 1.121584057807922363e+00 -1.458253979682922363e+00
4.480000000000000000e+03 2.531401062011718750e+01 -7.647223472595214844e+00 -4.728393554687500000e-01 8.600440621376037598e-02 -1.160504817962646484e-01 -1.793040633201599121e-01
4.481000000000000000e+03 5.017152404785156250e+01 -4.277078628540039062e+00 2.624408304691314697e-01 3.395261049270629883e+00 1.097310543060302734e+00 -1.781352609395980835e-01
4.482000000000000000e+03 3.311038589477539062e+01 2.493407630920410156e+01 4.947240278124809265e-02 1.449492216110229492e+00 4.496893882751464844e-01 -8.468536138534545898e-01
4.483000000000000000e+03 1.039956474304199219e+01 -2.811288833618164062e+01 3.940258547663688660e-02 1.941301375627517700e-01 7.005982100963592529e-02 -7.012243568897247314e-02
4.484000000000000000e+03 7.183439636230468750e+01 1.246041011810302734e+01 7.877236008644104004e-01 8.839824676513671875e+00 2.888264417648315430e+00 -4.882330000400543213e-01
4.485000000000000000e+03 7.330647277832031250e+01 1.495647239685058594e+01 1.028559327125549316e+00 8.391456604003906250e+00 2.826004743576049805e+00 -3.132084906101226807e-01
4.486000000000000000e+03 7.182170104980468750e+01 1.502801799774169922e+01 1.245955467224121094e+00 9.373551368713378906e+00 3.185852050781250000e+00 -1.743119359016418457e-01
4.487000000000000000e+03 7.456094360351562500e+01 -1.653515052795410156e+01 1.042738914489746094e+00 8.065054893493652344e+00 2.732338190078735352e+00 6.541582942008972168e-02
4.488000000000000000e+03 5.875113296508789062e+01 -2.891322612762451172e+00 1.069917321205139160e+00 5.072835832834243774e-02 3.361936807632446289e-01 -8.883929848670959473e-01
4.489000000000000000e+03 4.616582489013671875e+01 1.152278780937194824e-01 2.066280126571655273e+00 1.038427448272705078e+01 3.735166311264038086e+00 -9.375815093517303467e-02
4.490000000000000000e+03 4.570845794677734375e+01 -7.986071109771728516e-01 1.618787527084350586e+00 1.028998374938964844e+01 3.572631597518920898e+00 1.517382264137268066e-01
4.491000000000000000e+03 7.140183448791503906e+00 -1.945100212097167969e+01 1.354814171791076660e-01 -1.598039828240871429e-02 3.585030511021614075e-02 -1.686066240072250366e-01
4.492000000000000000e+03 7.089316558837890625e+01 1.010331726074218750e+01 1.111480444669723511e-01 8.492304801940917969e+00 2.581035852432250977e+00 -3.746105432510375977e-01
4.493000000000000000e+03 7.441867065429687500e+01 1.155758762359619141e+01 3.507140278816223145e-01 7.811751842498779297e+00 2.448739767074584961e+00 -8.269668221473693848e-01
4.494000000000000000e+03 5.940789413452148438e+01 -6.653344631195068359e+00 1.721605956554412842e-01 4.607782363891601562e-01 1.898816525936126709e-01 -7.880066633224487305e-01
4.495000000000000000e+03 6.099017715454101562e+01 -6.015007495880126953e+00 4.392320215702056885e-01 1.006921410560607910e+00 4.338460266590118408e-01 -9.217960834503173828e-01
4.496000000000000000e+03 6.398050308227539062e+00 -3.111238479614257812e+01 -1.441107224673032761e-02 -2.539307475090026855e-01 -8.050254732370376587e-02 2.491202019155025482e-02
4.497000000000000000e+03 7.175435638427734375e+01 -2.102790641784667969e+01 1.238629698753356934e+00 9.661622047424316406e+00 3.270075559616088867e+00 -1.045492529869079590e+00
4.498000000000000000e+03 7.286688995361328125e+01 -1.954164123535156250e+01 1.429499268531799316e+00 9.096228599548339844e+00 3.157718420028686523e+00 -8.336915373802185059e-01
4.499000000000000000e+03 4.286103057861328125e+01 -1.289849758148193359e+01 -6.934270262718200684e-02 8.423045158386230469e+00 2.506110906600952148e+00 3.704903721809387207e-01
4.500000000000000000e+03 7.404564380645751953e+00 -2.004532051086425781e+01 1.513303518295288086e-01 1.208916585892438889e-02 4.902585595846176147e-02 -1.570851951837539673e-01
4.501000000000000000e+03 4.094331741333007812e+01 -2.318225097656250000e+01 1.443989634513854980e+00 6.838610649108886719e+00 2.484780073165893555e+00 1.329240918159484863e+00
4.502000000000000000e+03 4.247581863403320312e+01 -2.224571228027343750e+01 1.542196154594421387e+00 7.786889553070068359e+00 2.798725605010986328e+00 9.378069639205932617e-01
4.503000000000000000e+03 8.746208190917968750e+00 -1.273880004882812500e+01 6.991331931203603745e-03 8.561321347951889038e-02 2.778136357665061951e-02 -1.992319971323013306e-01
4.504000000000000000e+03 4.666692352294921875e+01 -3.456980514526367188e+01 -9.231969714164733887e-01 4.002069950103759766e+00 9.236618876457214355e-01 -8.595925569534301758e-01
4.505000000000000000e+03 4.543905258178710938e+01 -3.228495788574218750e+01 -9.104347825050354004e-01 4.773372173309326172e+00 1.158881306648254395e+00 -7.050256729125976562e-01
4.506000000000000000e+03 5.340168762207031250e+01 -3.022903442382812500e+00 1.860966920852661133e+00 2.758420705795288086e-01 6.410427093505859375e-01 -1.124839782714843750e+00
4.507000000000000000e+03 6.647595977783203125e+01 -9.489656448364257812e+00 -3.520909696817398071e-02 5.353042125701904297e+00 1.595349907875061035e+00 -1.704982161521911621e+00
4.508000000000000000e+03 6.717781829833984375e+01 -9.661877632141113281e+00 -1.696499437093734741e-01 6.154617309570312500e+00 1.795490145683288574e+00 -1.506427645683288574e+00
4.509000000000000000e+03 4.474531173706054688e+01 -8.674722671508789062e+00 -2.402288675308227539e+00 9.151971817016601562e+00 2.024904966354370117e+00 5.467140674591064453e-01
4.510000000000000000e+03 5.721766948699951172e+00 -1.810750198364257812e+01 8.468782901763916016e-02 -1.835962086915969849e-01 -2.967251650989055634e-02 -1.804679930210113525e-01
4.511000000000000000e+03 3.985274124145507812e+01 -2.497006034851074219e+01 1.344755411148071289e+00 6.250101566314697266e+00 2.278457164764404297e+00 1.394024133682250977e+00
4.512000000000000000e+03 4.180530166625976562e+01 -2.317996788024902344e+01 1.456284523010253906e+00 7.156045436859130859e+00 2.583698987960815430e+00 1.159724593162536621e+00
4.513000000000000000e+03 1.116012287139892578e+01 -2.862442779541015625e+01 3.048601746559143066e-02 2.244859784841537476e-01 7.649160176515579224e-02 -9.242203086614608765e-02
4.514000000000000000e+03 6.577716064453125000e+01 -9.278081893920898438e+00 1.173846647143363953e-01 4.487956047058105469e+00 1.381602287292480469e+00 -1.753579258918762207e+00
4.515000000000000000e+03 2.590260887145996094e+01 -1.101147842407226562e+01 2.441816031932830811e-01 -2.651045285165309906e-02 6.530134379863739014e-02 -2.555569708347320557e-01
4.516000000000000000e+03 5.810117340087890625e+01 -5.609467983245849609e+00 2.800585925579071045e-01 1.717826426029205322e-01 1.355523765087127686e-01 -1.005259752273559570e+00
4.517000000000000000e+03 4.590076828002929688e+01 -1.477246522903442383e+00 1.095398545265197754e+00 9.742007255554199219e+00 3.251221656799316406e+00 6.821177899837493896e-02
4.518000000000000000e+03 4.243555831909179688e+01 1.787123870849609375e+01 2.063974440097808838e-01 6.134018421173095703e+00 1.902124762535095215e+00 -8.887294530868530273e-01
4.519000000000000000e+03 4.441918182373046875e+01 1.749496841430664062e+01 2.923971414566040039e-01 7.212898254394531250e+00 2.251588582992553711e+00 -8.210904896259307861e-02
4.520000000000000000e+03 5.888006210327148438e+00 1.676378822326660156e+01 -1.896147429943084717e-02 -4.807235673069953918e-03 -7.130612619221210480e-03 1.550785265862941742e-02
4.521000000000000000e+03 7.431495666503906250e+01 8.793752670288085938e+00 -1.175813451409339905e-01 7.793023586273193359e+00 2.302632808685302734e+00 -8.868136405944824219e-01
4.522000000000000000e+03 4.367707824707031250e+01 1.499204349517822266e+01 4.441127479076385498e-01 8.219994544982910156e+00 2.599232196807861328e+00 -3.150837123394012451e-01
4.523000000000000000e+03 2.964470100402832031e+01 2.644984436035156250e+01 5.365069955587387085e-02 7.796233296394348145e-01 2.499822080135345459e-01 -5.465819835662841797e-01
4.524000000000000000e+03 4.709768676757812500e+01 -6.203330993652343750e+00 -2.086452245712280273e+00 7.568272113800048828e+00 1.644545912742614746e+00 6.352660655975341797e-01
4.525000000000000000e+03 1.387055015563964844e+01 -3.122223281860351562e+01 -9.312346577644348145e-03 2.813078463077545166e-01 8.159864693880081177e-02 -1.623251587152481079e-01
4.526000000000000000e+03 4.775189208984375000e+01 2.397189331054687500e+01 -6.583032608032226562e-01 5.691796302795410156e+00 1.510047793388366699e+00 5.839190483093261719e-01
4.527000000000000000e+03 6.606028747558593750e+01 2.720322608947753906e+01 -4.080233871936798096e-01 3.972352981567382812e+00 1.069298863410949707e+00 -1.323124408721923828e+00
4.528000000000000000e+03 2.843231964111328125e+01 2.615438652038574219e+01 3.061984479427337646e-02 5.814239382743835449e-01 1.836131364107131958e-01 -4.456234872341156006e-01
4.529000000000000000e+03 4.090089035034179688e+01 -2.241426849365234375e+01 1.459836483001708984e+00 6.970978736877441406e+00 2.529244661331176758e+00 1.303960800170898438e+00
4.530000000000000000e+03 7.419220733642578125e+01 -2.315020751953125000e+01 1.988645792007446289e-01 8.507199287414550781e+00 2.611819028854370117e+00 -1.439228177070617676e+00
4.531000000000000000e+03 7.093547821044921875e+01 -2.330350685119628906e+01 1.517596840858459473e-02 9.430570602416992188e+00 2.833723783493041992e+00 -9.951626658439636230e-01
4.532000000000000000e+03 6.525798320770263672e+00 -3.352052307128906250e+01 -2.584897354245185852e-02 -2.828454375267028809e-01 -9.260832518339157104e-02 1.873566024005413055e-02
4.533000000000000000e+03 6.562633991241455078e+00 3.386278152465820312e+01 2.457249909639358521e-02 -1.102521792054176331e-01 -2.570390515029430389e-02 9.212934970855712891e-02
4.534000000000000000e+03 5.129050731658935547e+00 3.338668441772460938e+01 1.351551990956068039e-02 -1.427317857742309570e-01 -3.876487910747528076e-02 7.984948158264160156e-02
4.535000000000000000e+03 4.486700439453125000e+01 -3.017242622375488281e+01 -6.368038058280944824e-01 5.476656436920166016e+00 1.451955795288085938e+00 -4.863977432250976562e-01
4.536000000000000000e+03 3.983718490600585938e+01 -2.989327239990234375e+01 -3.871659189462661743e-02 5.570190429687500000e+00 1.659442186355590820e+00 6.845386028289794922e-01
4.537000000000000000e+03 3.233947372436523438e+01 -3.781179046630859375e+01 -3.191009759902954102e-01 2.638760328292846680e+00 6.958978176116943359e-01 5.950520634651184082e-01
4.538000000000000000e+03 7.242364501953125000e+01 3.437981414794921875e+01 -4.194737225770950317e-02 6.343873977661132812e+00 1.890578031539916992e+00 -2.818388938903808594e-01
4.539000000000000000e+03 4.415892410278320312e+01 -3.152334594726562500e+01 -7.954005002975463867e-01 5.230671882629394531e+00 1.330581426620483398e+00 -3.810109794139862061e-01
4.540000000000000000e+03 6.027302265167236328e+00 -3.448392868041992188e+01 -2.217251993715763092e-02 -3.338891267776489258e-01 -1.068184971809387207e-01 2.253172546625137329e-02
4.541000000000000000e+03 6.734762191772460938e+00 -3.256870651245117188e+01 -2.276427298784255981e-02 -2.519858777523040771e-01 -8.242504298686981201e-02 2.020499482750892639e-02
4.542000000000000000e+03 4.185485076904296875e+01 -2.597227668762207031e+01 8.609578013420104980e-01 6.553257465362548828e+00 2.224264621734619141e+00 9.069735407829284668e-01
4.543000000000000000e+03 1.452631092071533203e+01 -3.904893875122070312e+01 5.377523973584175110e-02 1.131504401564598083e-01 5.007770285010337830e-02 -7.731538265943527222e-02
4.544000000000000000e+03 6.162054443359375000e+01 2.816881179809570312e+01 2.759126126766204834e-01 1.788632750511169434e+00 6.193636059761047363e-01 -1.745224744081497192e-01
4.545000000000000000e+03 4.156326293945312500e+01 -2.526118087768554688e+01 1.115326642990112305e+00 6.638498306274414062e+00 2.326147317886352539e+00 1.097505688667297363e+00
4.546000000000000000e+03 4.023693847656250000e+01 -2.740813064575195312e+01 6.895601153373718262e-01 5.975733757019042969e+00 1.999588131904602051e+00 9.858215451240539551e-01
4.547000000000000000e+03 4.126719284057617188e+01 -2.452051925659179688e+01 1.279722213745117188e+00 6.707036495208740234e+00 2.396027565002441406e+00 1.220028400421142578e+00
4.548000000000000000e+03 2.662406158447265625e+01 2.686623764038085938e+01 3.515516221523284912e-02 4.193113148212432861e-01 1.363399475812911987e-01 -2.775863409042358398e-01
4.549000000000000000e+03 4.361598587036132812e+01 -2.781406211853027344e+01 2.007795684039592743e-02 6.333923339843750000e+00 1.906200408935546875e+00 1.458060890436172485e-01
4.550000000000000000e+03 4.174062347412109375e+01 -3.463649749755859375e+01 -9.840944409370422363e-01 4.784780979156494141e+00 1.140205979347229004e+00 2.673523267731070518e-03
4.551000000000000000e+03 1.566930389404296875e+01 -3.506781768798828125e+01 2.034242823719978333e-02 2.299287170171737671e-01 7.508134841918945312e-02 -1.725559383630752563e-01
4.552000000000000000e+03 1.550872421264648438e+01 -3.255473327636718750e+01 -1.076762937009334564e-02 2.820975780487060547e-01 8.139898627996444702e-02 -1.950048357248306274e-01
4.553000000000000000e+03 6.519470977783203125e+01 -3.493786239624023438e+01 -1.838334649801254272e-01 3.281207799911499023e+00 9.292122721672058105e-01 5.919874906539916992e-01
4.554000000000000000e+03 5.272663116455078125e+01 2.446544456481933594e+01 -5.670887827873229980e-01 4.000311851501464844e+00 1.029966950416564941e+00 1.961261272430419922e+00
4.555000000000000000e+03 5.132090759277343750e+01 2.676147270202636719e+01 -7.658035159111022949e-01 4.321816921234130859e+00 1.066804051399230957e+00 1.464760065078735352e+00
4.556000000000000000e+03 3.712955093383789062e+01 -3.531280517578125000e+01 -7.791988253593444824e-01 4.282064437866210938e+00 1.050859689712524414e+00 6.326088905334472656e-01
4.557000000000000000e+03 7.171728515625000000e+01 3.599359130859375000e+01 6.629385054111480713e-02 6.044542789459228516e+00 1.833250999450683594e+00 -2.898192405700683594e-01
4.558000000000000000e+03 7.253418731689453125e+01 -3.134715652465820312e+01 -7.198964357376098633e-01 7.633021354675292969e+00 2.073937654495239258e+00 -2.719101309776306152e-01
4.559000000000000000e+03 4.302348327636718750e+01 -2.876197433471679688e+01 -1.581384688615798950e-01 6.025287151336669922e+00 1.760144591331481934e+00 1.827357858419418335e-01
4.560000000000000000e+03 4.602526855468750000e+01 -3.077595138549804688e+01 -7.643409967422485352e-01 4.992242813110351562e+00 1.268370509147644043e+00 -8.533399701118469238e-01
4.561000000000000000e+03 2.686624145507812500e+01 -3.648102188110351562e+01 2.295642942190170288e-01 9.488576054573059082e-01 3.535265624523162842e-01 3.236723542213439941e-01
4.562000000000000000e+03 2.565006256103515625e+01 2.834071350097656250e+01 9.755980968475341797e-02 3.952586650848388672e-01 1.478455513715744019e-01 -2.152743488550186157e-01
4.563000000000000000e+03 5.103492736816406250e+01 -3.612705993652343750e+01 -3.686591386795043945e-01 2.190209627151489258e+00 5.464651584625244141e-01 -1.028207778930664062e+00
4.564000000000000000e+03 5.373966217041015625e+01 -3.669130706787109375e+01 8.918705582618713379e-02 1.237142562866210938e+00 3.978988826274871826e-01 -7.662098407745361328e-01
4.565000000000000000e+03 7.738166332244873047e+00 4.151009368896484375e+01 5.927869677543640137e-02 -1.218424960970878601e-01 -1.876913942396640778e-02 9.217063896358013153e-03
4.566000000000000000e+03 4.650041198730468750e+01 -3.667243194580078125e+01 -8.951063156127929688e-01 3.719984054565429688e+00 8.474633097648620605e-01 -6.969460844993591309e-01
4.567000000000000000e+03 3.490013885498046875e+01 2.514888381958007812e+01 -2.307598665356636047e-02 2.080746889114379883e+00 6.173012852668762207e-01 -9.438969492912292480e-01
4.568000000000000000e+03 3.295906829833984375e+01 2.625763893127441406e+01 1.380680128931999207e-02 1.548357009887695312e+00 4.686491489410400391e-01 -7.990339398384094238e-01
4.569000000000000000e+03 7.124764251708984375e+01 -3.445795059204101562e+01 -4.934630990028381348e-01 6.812009334564208984e+00 1.895563840866088867e+00 5.534642189741134644e-02
4.570000000000000000e+03 7.305735015869140625e+01 -3.512620925903320312e+01 -2.977285683155059814e-01 7.503051280975341797e+00 2.161596775054931641e+00 -1.838515698909759521e-02
4.571000000000000000e+03 5.067480468750000000e+01 2.533562278747558594e+01 -7.961690425872802734e-01 4.873473644256591797e+00 1.223191380500793457e+00 1.419137120246887207e+00
4.572000000000000000e+03 5.570053863525390625e+01 -3.793632507324218750e+01 4.375178217887878418e-01 9.591681361198425293e-01 4.190057814121246338e-01 -4.802005290985107422e-01
4.573000000000000000e+03 6.304928207397460938e+01 -6.488587379455566406e+00 3.571987152099609375e-01 2.073435306549072266e+00 7.291902303695678711e-01 -1.098468780517578125e+00
4.574000000000000000e+03 7.421105194091796875e+01 -1.372642040252685547e+01 6.053666472434997559e-01 8.140442848205566406e+00 2.623742818832397461e+00 7.065482735633850098e-01
4.575000000000000000e+03 1.174041366577148438e+01 -9.656932830810546875e+00 4.728123079985380173e-03 7.349002361297607422e-02 2.346544526517391205e-02 -1.779050678014755249e-01
4.576000000000000000e+03 1.006610679626464844e+01 -6.528902530670166016e+00 -1.409592181444168091e-01 3.479954227805137634e-02 -3.184790536761283875e-02 -2.001536935567855835e-01
4.577000000000000000e+03 6.925758361816406250e+01 -1.005851554870605469e+01 -3.983471691608428955e-01 7.881076812744140625e+00 2.244818925857543945e+00 -5.596155524253845215e-01
4.578000000000000000e+03 6.813695526123046875e+01 -8.286414146423339844e+00 -4.778504371643066406e-01 6.446051597595214844e+00 1.790460348129272461e+00 -9.041766524314880371e-01
4.579000000000000000e+03 6.978587341308593750e+01 7.997334003448486328e+00 -4.829945564270019531e-01 7.579265594482421875e+00 2.128881454467773438e+00 3.082543984055519104e-02
4.580000000000000000e+03 7.079400634765625000e+01 8.128724098205566406e+00 -4.289454817771911621e-01 7.840013504028320312e+00 2.223320484161376953e+00 -3.011041879653930664e-01
4.581000000000000000e+03 1.334121704101562500e+01 -8.543872833251953125e+00 -3.570945188403129578e-02 8.488760888576507568e-02 1.475344784557819366e-02 -1.937637329101562500e-01
4.582000000000000000e+03 3.726870346069335938e+01 -9.488578796386718750e+00 -3.260986208915710449e-01 3.376872301101684570e+00 9.152320623397827148e-01 8.117774724960327148e-01
4.583000000000000000e+03 3.720183563232421875e+01 -8.789167404174804688e+00 -4.218784868717193604e-01 3.103706836700439453e+00 8.045485019683837891e-01 9.953227043151855469e-01
4.584000000000000000e+03 4.483144760131835938e+01 1.358010768890380859e+01 6.390430927276611328e-01 9.531579017639160156e+00 3.051186800003051758e+00 5.272219181060791016e-01
4.585000000000000000e+03 2.115686988830566406e+01 -7.851888179779052734e+00 -1.866888105869293213e-01 9.490787982940673828e-02 -2.753427810966968536e-02 -9.719232469797134399e-02
4.586000000000000000e+03 4.045252227783203125e+01 -1.933339691162109375e+01 1.144686698913574219e+00 6.970654487609863281e+00 2.434602260589599609e+00 9.740255475044250488e-01
4.587000000000000000e+03 4.149357223510742188e+01 -1.681594467163085938e+01 9.563289880752563477e-01 7.670326709747314453e+00 2.587996721267700195e+00 6.792374253273010254e-01
4.588000000000000000e+03 3.928063583374023438e+01 -1.703977584838867188e+01 7.012246847152709961e-01 5.970289707183837891e+00 2.001454353332519531e+00 4.852509796619415283e-01
4.589000000000000000e+03 1.911638641357421875e+01 -8.523217201232910156e+00 -4.384892806410789490e-02 1.053482368588447571e-01 1.844979263842105865e-02 -1.162471100687980652e-01
4.590000000000000000e+03 1.291710281372070312e+01 -7.167772293090820312e+00 -1.369458734989166260e-01 6.981857120990753174e-02 -2.013819105923175812e-02 -1.960879713296890259e-01
4.591000000000000000e+03 6.445828247070312500e+01 -7.024504184722900391e+00 1.956715136766433716e-01 3.083672761917114258e+00 9.838032722473144531e-01 -1.268499612808227539e+00
4.592000000000000000e+03 6.277992248535156250e+01 -8.600068092346191406e-01 4.051916301250457764e-01 1.809789657592773438e+00 6.644943952560424805e-01 -2.257019728422164917e-01
4.593000000000000000e+03 2.238128852844238281e+01 -8.451239585876464844e+00 -1.671381294727325439e-01 9.012684226036071777e-02 -2.310338616371154785e-02 -1.354658156633377075e-01
4.594000000000000000e+03 2.303271865844726562e+01 -9.935435295104980469e+00 6.649518758058547974e-02 5.220923572778701782e-02 3.561132401227951050e-02 -2.125381082296371460e-01
4.595000000000000000e+03 6.391131973266601562e+01 2.449664771556854248e-01 1.158761009573936462e-01 2.485930442810058594e+00 7.805419564247131348e-01 5.098206549882888794e-02
4.596000000000000000e+03 1.597253036499023438e+01 -9.309240341186523438e+00 6.253957748413085938e-02 1.310085356235504150e-01 5.806443467736244202e-02 -1.744776368141174316e-01
4.597000000000000000e+03 4.178686904907226562e+01 1.840477943420410156e+01 1.870315968990325928e-01 5.616724014282226562e+00 1.741126775741577148e+00 -1.082986831665039062e+00
4.598000000000000000e+03 4.277409744262695312e+01 -2.393738174438476562e+01 1.305168271064758301e+00 7.454853534698486328e+00 2.628006696701049805e+00 8.576454520225524902e-01
4.599000000000000000e+03 6.395521545410156250e+01 1.240013003349304199e+00 1.911346800625324249e-02 2.463238000869750977e+00 7.447054386138916016e-01 2.202139645814895630e-01
4.600000000000000000e+03 7.385428619384765625e+01 -2.180992317199707031e+01 6.428698897361755371e-01 8.590676307678222656e+00 2.770063877105712891e+00 -1.328367114067077637e+00
4.601000000000000000e+03 7.131247711181640625e+01 -2.215716743469238281e+01 7.780882716178894043e-01 9.665598869323730469e+00 3.133106231689453125e+00 -1.182310104370117188e+00
4.602000000000000000e+03 6.553711414337158203e+00 3.021648406982421875e+01 2.237309701740741730e-03 -8.254433423280715942e-02 -2.409210614860057831e-02 1.033958494663238525e-01
4.603000000000000000e+03 4.227032470703125000e+01 -2.664867401123046875e+01 5.784892439842224121e-01 6.521937370300292969e+00 2.130127906799316406e+00 7.292996644973754883e-01
4.604000000000000000e+03 2.932121086120605469e+01 -1.041883468627929688e+01 2.595607936382293701e-01 -2.088767588138580322e-01 1.520520914345979691e-02 -2.268776297569274902e-01
4.605000000000000000e+03 6.633695220947265625e+01 3.342110633850097656e+00 -4.829112589359283447e-01 4.222532749176025391e+00 1.121886372566223145e+00 5.460592508316040039e-01
4.606000000000000000e+03 7.040905761718750000e+01 -2.803096008300781250e+01 -1.154206991195678711e+00 7.535356044769287109e+00 1.914344668388366699e+00 -1.737200319766998291e-01
4.607000000000000000e+03 6.109839248657226562e+01 -1.433537483215332031e+00 7.548269033432006836e-01 8.740323781967163086e-01 4.886577725410461426e-01 -4.351870119571685791e-01
4.608000000000000000e+03 6.222265625000000000e+01 -1.449120759963989258e+00 5.493586659431457520e-01 1.484445571899414062e+00 6.101412773132324219e-01 -3.671370744705200195e-01
4.609000000000000000e+03 7.349881744384765625e+01 5.164943218231201172e+00 -4.948420524597167969e-01 7.575900554656982422e+00 2.124317646026611328e+00 -5.348449945449829102e-01
4.610000000000000000e+03 6.023753166198730469e+00 -2.781255149841308594e+01 2.142219431698322296e-02 -2.630734741687774658e-01 -7.249537855386734009e-02 3.137473016977310181e-02
4.611000000000000000e+03 1.105656337738037109e+01 -6.959688663482666016e+00 -1.353341490030288696e-01 5.023572966456413269e-02 -2.552952617406845093e-02 -2.031511068344116211e-01
4.612000000000000000e+03 9.508695602416992188e+00 -7.877535343170166016e+00 -8.873242884874343872e-02 3.014815971255302429e-02 -1.757528074085712433e-02 -2.137056738138198853e-01
4.613000000000000000e+03 4.290331649780273438e+01 -5.930410861968994141e+00 -2.105070829391479492e+00 9.539011955261230469e+00 2.230182409286499023e+00 1.272014141082763672e+00
4.614000000000000000e+03 6.056124496459960938e+01 -1.921150684356689453e+00 8.612197041511535645e-01 6.524561047554016113e-01 4.541027247905731201e-01 -5.596960783004760742e-01
4.615000000000000000e+03 6.334081649780273438e+01 -2.868723571300506592e-01 2.603467106819152832e-01 2.138050317764282227e+00 7.195190787315368652e-01 -7.631688565015792847e-02
4.616000000000000000e+03 6.448805236816406250e+01 7.465918064117431641e-01 -2.685995958745479584e-02 2.853245973587036133e+00 8.479157686233520508e-01 1.632233411073684692e-01
4.617000000000000000e+03 6.637987136840820312e+00 2.942892265319824219e+01 -3.252134658396244049e-03 -7.341244071722030640e-02 -2.299937233328819275e-02 1.049279198050498962e-01
4.618000000000000000e+03 5.096496582031250000e+01 -3.005037307739257812e+00 1.556371927261352539e+00 2.505154371261596680e+00 1.218457818031311035e+00 -8.055753707885742188e-01
4.619000000000000000e+03 3.360716629028320312e+01 -9.196014404296875000e+00 2.967210672795772552e-02 4.621217250823974609e-01 1.475381553173065186e-01 1.461556404829025269e-01
4.620000000000000000e+03 3.723946762084960938e+01 -1.287312221527099609e+01 2.620000541210174561e-01 3.650045394897460938e+00 1.173613667488098145e+00 1.116264089941978455e-01
4.621000000000000000e+03 7.372559356689453125e+01 -2.893820571899414062e+01 -6.788523793220520020e-01 8.249517440795898438e+00 2.271199464797973633e+00 -7.363002896308898926e-01
4.622000000000000000e+03 1.708765220642089844e+01 -8.574913024902343750e+00 -2.604214474558830261e-02 1.332312226295471191e-01 3.215672448277473450e-02 -1.495105326175689697e-01
4.623000000000000000e+03 1.430012989044189453e+01 6.906061649322509766e+00 5.630692467093467712e-04 -1.331361476331949234e-03 -2.304876688867807388e-04 3.187412861734628677e-03
4.624000000000000000e+03 1.375420665740966797e+01 5.895499229431152344e+00 4.956306074745953083e-04 -1.778246718458831310e-03 -3.847848274745047092e-04 2.232243074104189873e-03
4.625000000000000000e+03 3.750611114501953125e+01 -1.209116554260253906e+01 9.969351440668106079e-02 3.849356174468994141e+00 1.184714913368225098e+00 2.813869118690490723e-01
4.626000000000000000e+03 5.213908672332763672e+00 -2.464611625671386719e+01 6.421826779842376709e-02 -3.369000554084777832e-01 -8.180452883243560791e-02 -1.314283348619937897e-03
4.627000000000000000e+03 2.495104217529296875e+01 -1.026819038391113281e+01 9.782886505126953125e-02 1.144871395081281662e-02 3.278327360749244690e-02 -2.571189105510711670e-01
4.628000000000000000e+03 2.511274337768554688e+01 -1.098019599914550781e+01 2.265906929969787598e-01 -2.804192772600799799e-04 6.789308041334152222e-02 -2.557138800621032715e-01
4.629000000000000000e+03 6.252546310424804688e+00 6.782576560974121094e+00 5.654000560753047466e-04 -1.509268884547054768e-03 -2.831606543622910976e-04 -2.143668942153453827e-03
4.630000000000000000e+03 5.395081520080566406e+00 8.337019920349121094e+00 -5.354302702471613884e-04 -1.315861125476658344e-03 -5.553874652832746506e-04 -2.473788103088736534e-03
4.631000000000000000e+03 5.847479629516601562e+01 -3.381054639816284180e+00 1.017111420631408691e+00 2.021806687116622925e-02 3.111988604068756104e-01 -9.720539450645446777e-01
4.632000000000000000e+03 6.348922729492187500e+00 3.097878837585449219e+01 4.756763577461242676e-03 -9.376048296689987183e-02 -2.670111693441867828e-02 1.012176722288131714e-01
4.633000000000000000e+03 8.152760505676269531e+00 3.187871551513671875e+01 1.550573389977216721e-02 -6.493262201547622681e-02 -1.482806541025638580e-02 1.116709485650062561e-01
4.634000000000000000e+03 6.385481357574462891e+00 -3.009442710876464844e+01 -5.988373886793851852e-03 -2.435801923274993896e-01 -7.487057149410247803e-02 2.996782027184963226e-02
4.635000000000000000e+03 7.606320858001708984e+00 -3.023264312744140625e+01 -1.131353527307510376e-02 -1.319922208786010742e-01 -4.299172386527061462e-02 1.315705571323633194e-02
4.636000000000000000e+03 7.463602447509765625e+01 -2.234323310852050781e+01 4.125666618347167969e-01 8.314514160156250000e+00 2.618124246597290039e+00 -1.354295492172241211e+00
4.637000000000000000e+03 7.285831451416015625e+01 -2.126360893249511719e+01 9.455637931823730469e-01 9.002904891967773438e+00 2.984540700912475586e+00 -1.228794217109680176e+00
4.638000000000000000e+03 3.440597915649414062e+01 -1.265172195434570312e+01 6.765856742858886719e-01 1.323101997375488281e+00 5.999063253402709961e-01 -3.586554899811744690e-02
4.639000000000000000e+03 6.062355995178222656e+00 2.213891983032226562e+01 -3.003412485122680664e-02 -1.990312151610851288e-02 -1.498117391020059586e-02 5.814810097217559814e-02
4.640000000000000000e+03 7.191550445556640625e+01 -2.352647018432617188e+01 -3.474109573289752007e-03 9.120907783508300781e+00 2.735230207443237305e+00 -1.259490966796875000e+00
4.641000000000000000e+03 7.426776885986328125e+01 -2.392435455322265625e+01 -2.910193800926208496e-02 8.487950325012207031e+00 2.537654638290405273e+00 -1.407620906829833984e+00
4.642000000000000000e+03 6.091970443725585938e+00 -2.054485702514648438e+01 1.222233101725578308e-01 -1.724931150674819946e-01 -1.508093904703855515e-02 -1.235717907547950745e-01
4.643000000000000000e+03 7.458311462402343750e+01 -2.079363059997558594e+01 7.816764116287231445e-01 8.238230705261230469e+00 2.705971956253051758e+00 -1.099791407585144043e+00
4.644000000000000000e+03 7.402694702148437500e+01 -2.247181320190429688e+01 4.417461752891540527e-01 8.540408134460449219e+00 2.694646120071411133e+00 -1.395485639572143555e+00
4.645000000000000000e+03 7.356278991699218750e+01 2.205692100524902344e+01 -6.573273241519927979e-02 8.030733108520507812e+00 2.389500141143798828e+00 8.233389258384704590e-01
4.646000000000000000e+03 7.319262695312500000e+01 2.064463424682617188e+01 4.399173557758331299e-01 8.205932617187500000e+00 2.593755006790161133e+00 8.160312175750732422e-01
4.647000000000000000e+03 3.091142654418945312e+01 -1.109420585632324219e+01 5.217228531837463379e-01 -1.052184179425239563e-01 1.249513253569602966e-01 -1.061997711658477783e-01
4.648000000000000000e+03 7.097873687744140625e+01 2.198973846435546875e+01 -3.294541239738464355e-01 8.709844589233398438e+00 2.514117002487182617e+00 4.677916169166564941e-01
4.649000000000000000e+03 5.282995223999023438e+00 -2.307290267944335938e+01 8.440561592578887939e-02 -3.171195685863494873e-01 -6.981418281793594360e-02 -3.749778121709823608e-02
4.650000000000000000e+03 6.413364887237548828e+00 -2.172687721252441406e+01 1.261998265981674194e-01 -1.494026333093643188e-01 -6.960842292755842209e-03 -9.161871671676635742e-02
4.651000000000000000e+03 7.416624450683593750e+01 2.522704315185546875e+01 -4.825808405876159668e-01 7.649238109588623047e+00 2.149997234344482422e+00 5.137676000595092773e-01
4.652000000000000000e+03 7.065414428710937500e+01 2.253514289855957031e+01 -6.431295275688171387e-01 8.628659248352050781e+00 2.395658969879150391e+00 1.618402898311614990e-01
4.653000000000000000e+03 6.006651306152343750e+01 -2.376515626907348633e+00 9.317074418067932129e-01 4.794422388076782227e-01 4.233449101448059082e-01 -6.820225119590759277e-01
4.654000000000000000e+03 6.000116729736328125e+01 -1.417146682739257812e+00 9.577276110649108887e-01 3.626918196678161621e-01 3.961258232593536377e-01 -5.160509347915649414e-01
4.655000000000000000e+03 6.764931488037109375e+01 -3.013262176513671875e+01 -1.090564727783203125e+00 5.350666046142578125e+00 1.278030395507812500e+00 5.773705840110778809e-01
4.656000000000000000e+03 7.343344879150390625e+01 -3.092098999023437500e+01 -6.488249301910400391e-01 7.970805168151855469e+00 2.196593999862670898e+00 -4.105421602725982666e-01
4.657000000000000000e+03 6.725033283233642578e+00 -2.031752204895019531e+01 1.347424536943435669e-01 -8.754197508096694946e-02 1.416014414280653000e-02 -1.367718428373336792e-01
4.658000000000000000e+03 4.040875625610351562e+01 1.992531585693359375e+01 1.072160154581069946e-01 4.555140972137451172e+00 1.398707032203674316e+00 -1.241855859756469727e+00
4.659000000000000000e+03 3.870128250122070312e+01 1.975727844238281250e+01 2.838481366634368896e-01 3.580244064331054688e+00 1.159227728843688965e+00 -1.373393654823303223e+00
4.660000000000000000e+03 7.505364990234375000e+01 1.497139930725097656e+01 6.710760593414306641e-01 7.507538795471191406e+00 2.453584432601928711e+00 -2.956634759902954102e-01
4.661000000000000000e+03 7.367720031738281250e+01 1.435496044158935547e+01 9.201220870018005371e-01 8.131847381591796875e+00 2.715590715408325195e+00 -4.114140868186950684e-01
4.662000000000000000e+03 7.297866058349609375e+01 1.986257934570312500e+01 7.508597373962402344e-01 8.272636413574218750e+00 2.707048892974853516e+00 7.334334254264831543e-01
4.663000000000000000e+03 5.264208793640136719e+00 -2.383227539062500000e+01 7.916006445884704590e-02 -3.225317597389221191e-01 -7.301151007413864136e-02 -2.007289789617061615e-02
4.664000000000000000e+03 7.551972389221191406e+00 -2.454806900024414062e+01 1.183458417654037476e-01 -3.379317745566368103e-02 2.536579966545104980e-02 -2.913135476410388947e-02
4.665000000000000000e+03 8.089581489562988281e+00 -2.280350875854492188e+01 1.699398458003997803e-01 6.599050760269165039e-02 7.077910751104354858e-02 -8.389945328235626221e-02
4.666000000000000000e+03 7.276177978515625000e+01 1.339600563049316406e+01 8.881230354309082031e-01 8.570991516113281250e+00 2.837734222412109375e+00 -5.100478529930114746e-01
4.667000000000000000e+03 7.363630676269531250e+01 1.584462547302246094e+01 1.024963259696960449e+00 8.219581604003906250e+00 2.773363590240478516e+00 -1.219933182001113892e-01
4.668000000000000000e+03 7.514505004882812500e+01 -1.945473098754882812e+01 8.268356323242187500e-01 7.917651653289794922e+00 2.623346328735351562e+00 -7.592343688011169434e-01
4.669000000000000000e+03 7.543653869628906250e+01 -1.859962081909179688e+01 8.020935058593750000e-01 7.683395385742187500e+00 2.545646667480468750e+00 -4.806168377399444580e-01
4.670000000000000000e+03 7.468723297119140625e+01 -1.984368133544921875e+01 9.217393398284912109e-01 8.145714759826660156e+00 2.720236301422119141e+00 -8.731224536895751953e-01
4.671000000000000000e+03 7.447042846679687500e+01 -1.591527462005615234e+01 9.793604016304016113e-01 8.075248718261718750e+00 2.716382741928100586e+00 2.441447079181671143e-01
4.672000000000000000e+03 7.301213073730468750e+01 2.470417213439941406e+01 -6.124452948570251465e-01 7.783370494842529297e+00 2.151277542114257812e+00 4.330943524837493896e-01
4.673000000000000000e+03 7.389984893798828125e+01 -1.606356811523437500e+01 1.168171167373657227e+00 8.361627578735351562e+00 2.858939647674560547e+00 1.767342537641525269e-01
4.674000000000000000e+03 7.493155670166015625e+01 -1.440703105926513672e+01 6.247169375419616699e-01 7.847119331359863281e+00 2.541550874710083008e+00 5.979869365692138672e-01
4.675000000000000000e+03 7.366584014892578125e+01 -1.461971092224121094e+01 9.211612939834594727e-01 8.412134170532226562e+00 2.799988746643066406e+00 5.271513462066650391e-01
4.676000000000000000e+03 7.379782104492187500e+01 1.782507324218750000e+01 9.908761978149414062e-01 8.070559501647949219e+00 2.718430519104003906e+00 3.219870924949645996e-01
4.677000000000000000e+03 5.744862079620361328e+00 1.528534030914306641e+01 -1.396618038415908813e-02 -3.736996091902256012e-03 -5.310953129082918167e-03 8.584960363805294037e-03
4.678000000000000000e+03 7.405978393554687500e+01 1.207277774810791016e+01 4.757612645626068115e-01 7.922798633575439453e+00 2.519567966461181641e+00 -8.005758523941040039e-01
4.679000000000000000e+03 6.117537975311279297e+00 -6.645497798919677734e+00 -7.441581040620803833e-02 -4.752148687839508057e-02 -3.658118844032287598e-02 -1.859472244977951050e-01
4.680000000000000000e+03 5.268090248107910156e+00 -8.705764770507812500e+00 -3.788343444466590881e-02 -1.036238074302673340e-01 -4.245217144489288330e-02 -2.015935033559799194e-01
4.681000000000000000e+03 3.109064483642578125e+01 -1.017285633087158203e+01 3.005236387252807617e-01 -1.469504684209823608e-01 4.607195034623146057e-02 -1.357858031988143921e-01
4.682000000000000000e+03 7.371286010742187500e+01 1.256640720367431641e+01 5.938094258308410645e-01 8.053907394409179688e+00 2.594315052032470703e+00 -6.952695250511169434e-01
4.683000000000000000e+03 7.489739990234375000e+01 1.188973140716552734e+01 3.518485128879547119e-01 7.669237136840820312e+00 2.406325578689575195e+00 -8.102915287017822266e-01
4.684000000000000000e+03 7.486190032958984375e+01 -1.363540840148925781e+01 4.924122989177703857e-01 7.875255107879638672e+00 2.510300159454345703e+00 7.239091992378234863e-01
4.685000000000000000e+03 7.481284332275390625e+01 5.131669521331787109e+00 -3.682120442390441895e-01 7.687938690185546875e+00 2.195917844772338867e+00 -5.957300066947937012e-01
4.686000000000000000e+03 6.880702972412109375e+01 5.642356872558593750e+00 -7.462086677551269531e-01 6.370033264160156250e+00 1.687147378921508789e+00 3.389050364494323730e-01
4.687000000000000000e+03 7.444881439208984375e+01 -1.796977996826171875e+01 1.082935929298400879e+00 8.134038925170898438e+00 2.765092372894287109e+00 -3.531547188758850098e-01
4.688000000000000000e+03 7.406721496582031250e+01 -1.879899215698242188e+01 1.188801050186157227e+00 8.370784759521484375e+00 2.867875814437866211e+00 -6.364932656288146973e-01
4.689000000000000000e+03 7.078511810302734375e+01 5.406267166137695312e+00 -7.296356558799743652e-01 7.098059654235839844e+00 1.910527229309082031e+00 -1.404288113117218018e-01
4.690000000000000000e+03 7.428919219970703125e+01 -1.737081527709960938e+01 1.157917737960815430e+00 8.189778327941894531e+00 2.804308652877807617e+00 -1.868810057640075684e-01
4.691000000000000000e+03 7.039693450927734375e+01 -1.224075317382812500e+01 3.308248817920684814e-01 9.205592155456542969e+00 2.860925197601318359e+00 4.129394888877868652e-02
4.692000000000000000e+03 7.478180694580078125e+01 -1.283560752868652344e+01 3.451434671878814697e-01 7.914098739624023438e+00 2.477772712707519531e+00 8.198260068893432617e-01
4.693000000000000000e+03 7.207920837402343750e+01 -1.342269325256347656e+01 7.766743898391723633e-01 9.010577201843261719e+00 2.936175346374511719e+00 5.350332260131835938e-01
4.694000000000000000e+03 7.425971984863281250e+01 -1.038795089721679688e+01 -9.201095998287200928e-02 7.979834079742431641e+00 2.366347074508666992e+00 8.591452836990356445e-01
4.695000000000000000e+03 7.376248168945312500e+01 -9.986116409301757812e+00 -1.897547692060470581e-01 8.046947479248046875e+00 2.357157945632934570e+00 7.946945428848266602e-01
4.696000000000000000e+03 7.413594055175781250e+01 -2.885248899459838867e+00 -4.405069947242736816e-01 7.492578983306884766e+00 2.115621566772460938e+00 2.060666382312774658e-01
4.697000000000000000e+03 7.385688781738281250e+01 1.120807361602783203e+01 3.242640793323516846e-01 7.956768989562988281e+00 2.484309911727905273e+00 -8.578718304634094238e-01
4.698000000000000000e+03 7.420392608642578125e+01 -3.658094644546508789e+00 -4.277581572532653809e-01 7.542298316955566406e+00 2.134361982345581055e+00 2.837008535861968994e-01
4.699000000000000000e+03 7.476759338378906250e+01 8.354133605957031250e+00 -1.505965739488601685e-01 7.728828907012939453e+00 2.273469686508178711e+00 -8.811750411987304688e-01
4.700000000000000000e+03 7.410816955566406250e+01 6.726934909820556641e+00 -3.658979535102844238e-01 7.723586559295654297e+00 2.207306623458862305e+00 -7.380392551422119141e-01
4.701000000000000000e+03 7.486435699462890625e+01 -9.111101150512695312e+00 -2.102874368429183960e-01 7.846952438354492188e+00 2.290999650955200195e+00 8.221182227134704590e-01
4.702000000000000000e+03 6.982398509979248047e+00 -3.072524452209472656e+01 -1.429766230285167694e-02 -1.995060443878173828e-01 -6.414110958576202393e-02 2.158820815384387970e-02
4.703000000000000000e+03 7.426175689697265625e+01 -4.398247241973876953e+00 -4.231009185314178467e-01 7.591858863830566406e+00 2.150627374649047852e+00 3.517208099365234375e-01
4.704000000000000000e+03 7.486167144775390625e+01 -5.168086051940917969e+00 -3.638424575328826904e-01 7.695016860961914062e+00 2.199352502822875977e+00 4.441896378993988037e-01
4.705000000000000000e+03 7.413629150390625000e+01 -5.689700126647949219e+00 -4.306690096855163574e-01 7.650070190429687500e+00 2.165820360183715820e+00 4.684958159923553467e-01
4.706000000000000000e+03 2.281354331970214844e+01 -8.835821151733398438e+00 -1.240238249301910400e-01 8.181197196245193481e-02 -1.266355440020561218e-02 -1.601328849792480469e-01
4.707000000000000000e+03 7.363428497314453125e+01 -6.188787937164306641e+00 -4.726141393184661865e-01 7.632578849792480469e+00 2.147989273071289062e+00 4.667920172214508057e-01
4.708000000000000000e+03 7.410689544677734375e+01 -5.483274459838867188e-01 -4.422644674777984619e-01 7.444412231445312500e+00 2.100644350051879883e+00 -2.466489793732762337e-03
4.709000000000000000e+03 7.476784515380859375e+01 1.075028061866760254e+00 -3.958207368850708008e-01 7.604502677917480469e+00 2.162604570388793945e+00 -1.623542010784149170e-01
4.710000000000000000e+03 7.428211212158203125e+01 7.404232025146484375e+00 -2.814531922340393066e-01 7.743005752563476562e+00 2.238465785980224609e+00 -8.046573400497436523e-01
4.711000000000000000e+03 7.467998504638671875e+01 1.015963649749755859e+01 1.020644828677177429e-01 7.752380847930908203e+00 2.356333732604980469e+00 -9.169415235519409180e-01
4.712000000000000000e+03 7.485377502441406250e+01 -8.450197219848632812e+00 -2.758102416992187500e-01 7.822430133819580078e+00 2.263985872268676758e+00 7.550517916679382324e-01
4.713000000000000000e+03 7.369812774658203125e+01 -1.060187816619873047e+01 -8.263626694679260254e-02 8.111978530883789062e+00 2.408802747726440430e+00 8.250867724418640137e-01
4.714000000000000000e+03 7.416252899169921875e+01 4.426468372344970703e+00 -4.466960728168487549e-01 7.600580692291259766e+00 2.146165370941162109e+00 -4.986440241336822510e-01
4.715000000000000000e+03 7.409259796142578125e+01 1.052002787590026855e+00 -4.589709937572479248e-01 7.460605144500732422e+00 2.100490331649780273e+00 -1.417079120874404907e-01
4.716000000000000000e+03 7.370148468017578125e+01 9.256734848022460938e+00 -6.527760624885559082e-02 7.890571594238281250e+00 2.347588062286376953e+00 -8.766654133796691895e-01
4.717000000000000000e+03 7.405255126953125000e+01 -9.380373954772949219e+00 -2.469516992568969727e-01 7.966674804687500000e+00 2.315917015075683594e+00 7.872417569160461426e-01
4.718000000000000000e+03 7.349743652343750000e+01 1.173813915252685547e+01 4.585766196250915527e-01 8.104187965393066406e+00 2.568829536437988281e+00 -7.789206504821777344e-01
4.719000000000000000e+03 7.127748107910156250e+01 8.648815155029296875e+00 -2.871951758861541748e-01 7.999959945678710938e+00 2.313829421997070312e+00 -4.650833606719970703e-01
4.720000000000000000e+03 7.413938140869140625e+01 -7.608289241790771484e+00 -3.771233856678009033e-01 7.805150032043457031e+00 2.228408098220825195e+00 6.499164104461669922e-01
4.721000000000000000e+03 7.335997009277343750e+01 3.059833526611328125e+00 -5.499624013900756836e-01 7.403865337371826172e+00 2.056170940399169922e+00 -3.132050633430480957e-01
4.722000000000000000e+03 7.401439666748046875e+01 1.931648015975952148e+00 -4.787653982639312744e-01 7.466825008392333984e+00 2.096417903900146484e+00 -2.360660880804061890e-01
4.723000000000000000e+03 1.304185295104980469e+01 1.652953910827636719e+01 -5.219367146492004395e-02 5.716061685234308243e-03 -1.394328288733959198e-02 -8.415207266807556152e-03
4.724000000000000000e+03 7.460400390625000000e+01 -1.847991943359375000e+01 1.045151948928833008e+00 8.089016914367675781e+00 2.740250587463378906e+00 -5.182437896728515625e-01
4.725000000000000000e+03 6.193456172943115234e+00 2.143108367919921875e+01 -3.255276009440422058e-02 -1.423363760113716125e-02 -1.403591968119144440e-02 5.158568173646926880e-02
4.726000000000000000e+03 5.781418800354003906e+00 1.456487560272216797e+01 -1.132141333073377609e-02 -3.461153944954276085e-03 -4.434769973158836365e-03 6.154572591185569763e-03
4.727000000000000000e+03 7.483553314208984375e+01 1.920542144775390625e+01 5.733765363693237305e-01 7.577242851257324219e+00 2.445185661315917969e+00 6.119529604911804199e-01
4.728000000000000000e+03 7.177910614013671875e+01 -2.446282386779785156e+01 -3.954140245914459229e-01 8.906403541564941406e+00 2.553296804428100586e+00 -1.102975130081176758e+00
4.729000000000000000e+03 5.941568374633789062e+00 -1.863360595703125000e+01 9.608237445354461670e-02 -1.622793525457382202e-01 -1.985909417271614075e-02 -1.713216602802276611e-01
4.730000000000000000e+03 7.325761413574218750e+01 1.851933288574218750e+01 1.012901663780212402e+00 8.232466697692871094e+00 2.773610591888427734e+00 4.417082369327545166e-01
4.731000000000000000e+03 6.094185352325439453e+00 -1.477808189392089844e+01 3.043021634221076965e-02 -1.097431033849716187e-01 -2.379386499524116516e-02 -2.219486236572265625e-01
4.732000000000000000e+03 5.207174777984619141e+00 -1.020437431335449219e+01 -2.300295233726501465e-02 -1.286729276180267334e-01 -4.550276696681976318e-02 -2.124529927968978882e-01
4.733000000000000000e+03 6.095959663391113281e+00 -7.360189437866210938e+00 -6.404229253530502319e-02 -5.739044398069381714e-02 -3.642982244491577148e-02 -1.972612738609313965e-01
4.734000000000000000e+03 6.589395523071289062e+00 -1.597662544250488281e+01 5.614696443080902100e-02 -6.187788024544715881e-02 -1.719274907372891903e-03 -2.168889194726943970e-01
4.735000000000000000e+03 5.726202487945556641e+00 -1.273652839660644531e+01 1.248945016413927078e-03 -1.278850287199020386e-01 -3.799082338809967041e-02 -2.248480767011642456e-01
4.736000000000000000e+03 5.251667022705078125e+00 -1.428168296813964844e+01 1.912395842373371124e-02 -1.860098242759704590e-01 -5.006575956940650940e-02 -2.160344719886779785e-01
4.737000000000000000e+03 5.378405570983886719e+00 -1.770573806762695312e+01 7.211942225694656372e-02 -2.172145694494247437e-01 -4.352854192256927490e-02 -1.816188544034957886e-01
4.738000000000000000e+03 7.266400814056396484e+00 -1.323654937744140625e+01 1.082285027951002121e-02 -1.290375739336013794e-02 -6.242720992304384708e-04 -2.262892276048660278e-01
4.739000000000000000e+03 7.311227798461914062e+00 -9.739264488220214844e+00 -3.868840634822845459e-02 -2.901412174105644226e-02 -2.031075954437255859e-02 -2.258946150541305542e-01
4.740000000000000000e+03 5.196354866027832031e+00 -1.098335742950439453e+01 -1.586106233298778534e-02 -1.407563835382461548e-01 -4.698523133993148804e-02 -2.166176587343215942e-01
4.741000000000000000e+03 6.805931091308593750e+00 -1.743387794494628906e+01 8.937713503837585449e-02 -4.360015690326690674e-02 1.373309362679719925e-02 -2.012264132499694824e-01
4.742000000000000000e+03 8.385738372802734375e+00 -1.138072490692138672e+01 -1.328015886247158051e-02 3.197856619954109192e-02 5.609521642327308655e-03 -2.152423858642578125e-01
4.743000000000000000e+03 7.359822082519531250e+01 -2.819619750976562500e+01 -6.960258483886718750e-01 8.301433563232421875e+00 2.281622171401977539e+00 -8.418996930122375488e-01
4.744000000000000000e+03 9.770359992980957031e+00 -1.179083347320556641e+01 7.151335012167692184e-03 1.029606908559799194e-01 3.303360939025878906e-02 -1.716146767139434814e-01
4.745000000000000000e+03 5.431952476501464844e+00 1.946046066284179688e+01 -2.358130738139152527e-02 -1.079134643077850342e-02 -1.031179632991552353e-02 3.169795870780944824e-02
4.746000000000000000e+03 6.233793258666992188e+00 -1.779249572753906250e+01 8.913203328847885132e-02 -1.173780485987663269e-01 -8.473805151879787445e-03 -1.915816813707351685e-01
4.747000000000000000e+03 6.250476360321044922e+00 2.010557365417480469e+01 -3.162356838583946228e-02 -9.541493840515613556e-03 -1.234951894730329514e-02 4.084956273436546326e-02
4.748000000000000000e+03 5.247967720031738281e+00 1.306649494171142578e+01 -6.534313317388296127e-03 -2.453066874295473099e-03 -2.696214010939002037e-03 1.883398275822401047e-03
4.749000000000000000e+03 5.888048171997070312e+00 1.381310653686523438e+01 -9.699196554720401764e-03 -3.181161126121878624e-03 -3.864107420668005943e-03 3.711668308824300766e-03
4.750000000000000000e+03 7.913969516754150391e+00 6.699941635131835938e+00 7.181771215982735157e-04 -2.523127477616071701e-03 -5.414850893430411816e-04 -1.300197443924844265e-03
4.751000000000000000e+03 8.757210731506347656e+00 7.383073329925537109e+00 2.950918860733509064e-04 -3.312900429591536522e-03 -9.053425164893269539e-04 -7.983396062627434731e-04
4.752000000000000000e+03 8.710115432739257812e+00 8.910494804382324219e+00 -1.395776518620550632e-03 -4.212029743939638138e-03 -1.682341913692653179e-03 -8.360340725630521774e-04
4.753000000000000000e+03 9.664226531982421875e+00 8.881204605102539062e+00 -1.772376126609742641e-03 -4.726391285657882690e-03 -1.949630212038755417e-03 -5.467921728268265724e-04
4.754000000000000000e+03 7.790712833404541016e+00 -2.720851135253906250e+01 4.628373682498931885e-02 -5.350247770547866821e-02 -2.165621845051646233e-03 5.405392497777938843e-03
4.755000000000000000e+03 6.171233654022216797e+00 -2.707349967956542969e+01 3.423236310482025146e-02 -2.448382526636123657e-01 -6.318176537752151489e-02 2.488541230559349060e-02
4.756000000000000000e+03 1.291987419128417969e+01 1.471158599853515625e+01 -2.709290757775306702e-02 -3.034387482330203056e-03 -9.038188494741916656e-03 -6.550021469593048096e-03
4.757000000000000000e+03 5.796700000762939453e+00 1.601280021667480469e+01 -1.555709075182676315e-02 -4.220421891659498215e-03 -5.933254025876522064e-03 1.203469466418027878e-02
4.758000000000000000e+03 6.218136787414550781e+00 7.526521682739257812e+00 -8.353850716957822442e-05 -1.931475359015166759e-03 -6.045041372999548912e-04 -2.330267569050192833e-03
4.759000000000000000e+03 6.142717838287353516e+00 9.040133476257324219e+00 -1.325029530562460423e-03 -2.350183669477701187e-03 -1.102563925087451935e-03 -2.063203835859894753e-03
4.760000000000000000e+03 5.279736518859863281e+00 1.226403331756591797e+01 -4.745270125567913055e-03 -2.246157033368945122e-03 -2.097428077831864357e-03 6.275809137150645256e-04
4.761000000000000000e+03 2.403081893920898438e+01 -9.977179527282714844e+00 4.043451324105262756e-02 4.244371503591537476e-02 2.486346848309040070e-02 -2.359649240970611572e-01
4.762000000000000000e+03 2.389408302307128906e+01 -8.906307220458984375e+00 -1.622362583875656128e-01 7.596885412931442261e-02 -2.588021941483020782e-02 -1.989514678716659546e-01
4.763000000000000000e+03 5.970830917358398438e+00 1.300999546051025391e+01 -7.517243735492229462e-03 -3.202172694727778435e-03 -3.215824952349066734e-03 2.222029725089669228e-03
4.764000000000000000e+03 6.073625087738037109e+00 1.058895111083984375e+01 -3.232143353670835495e-03 -2.690493594855070114e-03 -1.776791061274707317e-03 -1.239771372638642788e-03
4.765000000000000000e+03 6.010553359985351562e+00 1.218801689147949219e+01 -6.154516246169805527e-03 -3.002998186275362968e-03 -2.747254446148872375e-03 4.828017845284193754e-04
4.766000000000000000e+03 3.601193618774414062e+01 -9.103097915649414062e+00 -1.414875686168670654e-01 2.072315454483032227e+00 5.792483687400817871e-01 6.365389227867126465e-01
4.767000000000000000e+03 3.531106948852539062e+01 -1.223008155822753906e+01 4.991485178470611572e-01 1.972619533538818359e+00 7.415304183959960938e-01 6.802204251289367676e-02
4.768000000000000000e+03 7.356855010986328125e+01 -2.526335906982421875e+01 -3.997101187705993652e-01 8.555956840515136719e+00 2.446873903274536133e+00 -1.280864000320434570e+00
4.769000000000000000e+03 7.253286743164062500e+01 -2.552868652343750000e+01 -6.192018389701843262e-01 8.615259170532226562e+00 2.398817300796508789e+00 -1.101039290428161621e+00
4.770000000000000000e+03 7.316481018066406250e+01 -2.197806739807128906e+01 6.821074485778808594e-01 8.834202766418457031e+00 2.854892969131469727e+00 -1.330366969108581543e+00
4.771000000000000000e+03 7.312073516845703125e+01 -2.476362419128417969e+01 -3.489252626895904541e-01 8.687197685241699219e+00 2.501481771469116211e+00 -1.312744975090026855e+00
4.772000000000000000e+03 2.453636741638183594e+01 -9.131386756896972656e+00 -1.360778510570526123e-01 4.921815916895866394e-02 -2.605790644884109497e-02 -2.293283492326736450e-01
4.773000000000000000e+03 7.354290008544921875e+01 -2.650270462036132812e+01 -5.971578955650329590e-01 8.450933456420898438e+00 2.356132745742797852e+00 -1.103720784187316895e+00
4.774000000000000000e+03 6.354815006256103516e+00 2.662100601196289062e+01 -2.139909006655216217e-02 -4.864850640296936035e-02 -2.101427875459194183e-02 9.474460780620574951e-02
4.775000000000000000e+03 6.152227878570556641e+00 2.372527313232421875e+01 -2.975345961749553680e-02 -2.797988057136535645e-02 -1.732000149786472321e-02 7.192209362983703613e-02
4.776000000000000000e+03 6.155094146728515625e+00 2.599378013610839844e+01 -2.161878533661365509e-02 -4.717799276113510132e-02 -2.063903398811817169e-02 8.850704133510589600e-02
4.777000000000000000e+03 6.690452575683593750e+01 -3.284230041503906250e+01 -6.760379076004028320e-01 4.486750125885009766e+00 1.143213629722595215e+00 6.210637688636779785e-01
4.778000000000000000e+03 7.298293304443359375e+01 -3.232392501831054688e+01 -5.882590413093566895e-01 7.691268444061279297e+00 2.130902767181396484e+00 -2.072746157646179199e-01
4.779000000000000000e+03 6.072005271911621094e+00 -2.560976219177246094e+01 6.334115564823150635e-02 -2.371350079774856567e-01 -5.213815718889236450e-02 8.235133253037929535e-03
4.780000000000000000e+03 4.965120792388916016e+00 -2.533862876892089844e+01 5.175125226378440857e-02 -3.695506155490875244e-01 -9.533981233835220337e-02 1.339274924248456955e-02
4.781000000000000000e+03 7.186897277832031250e+01 2.297422790527343750e+01 -5.428147912025451660e-01 8.296622276306152344e+00 2.326142072677612305e+00 4.781427979469299316e-01
4.782000000000000000e+03 1.178906822204589844e+01 -2.977832221984863281e+01 5.983106326311826706e-03 2.307731658220291138e-01 7.102688401937484741e-02 -1.076377704739570618e-01
4.783000000000000000e+03 7.531755924224853516e+00 -8.408494949340820312e+00 -6.399951130151748657e-02 -2.016801200807094574e-02 -2.525025606155395508e-02 -2.184584140777587891e-01
4.784000000000000000e+03 4.769421768188476562e+01 -6.103509426116943359e+00 -1.914608836174011230e+00 6.700200557708740234e+00 1.435677528381347656e+00 6.718549728393554688e-01
4.785000000000000000e+03 4.847164154052734375e+01 -5.508754730224609375e+00 -1.321480274200439453e+00 5.662705421447753906e+00 1.302367568016052246e+00 5.437045693397521973e-01
4.786000000000000000e+03 1.387300300598144531e+01 -8.299911499023437500e+00 -4.968271404504776001e-02 8.627025038003921509e-02 1.097626239061355591e-02 -1.917994916439056396e-01
4.787000000000000000e+03 7.149620056152343750e+01 2.665087509155273438e+01 -8.409529328346252441e-01 7.206538677215576172e+00 1.909675836563110352e+00 -1.944442093372344971e-01
4.788000000000000000e+03 7.436105346679687500e+01 2.768213272094726562e+01 -4.474021196365356445e-01 7.422683238983154297e+00 2.092584371566772461e+00 2.194309383630752563e-01
4.789000000000000000e+03 7.342750549316406250e+01 2.716172790527343750e+01 -5.856589078903198242e-01 7.408722877502441406e+00 2.046919107437133789e+00 1.628059297800064087e-01
4.790000000000000000e+03 4.508097839355468750e+01 -7.195075035095214844e+00 -2.552220582962036133e+00 9.132375717163085938e+00 1.974046468734741211e+00 6.969700455665588379e-01
4.791000000000000000e+03 8.496944427490234375e+00 -1.408831501007080078e+01 2.620543912053108215e-02 1.034080162644386292e-01 3.888403624296188354e-02 -2.047116905450820923e-01
4.792000000000000000e+03 9.169013977050781250e+00 -1.383326339721679688e+01 2.245110832154750824e-02 1.481040865182876587e-01 5.116656050086021423e-02 -1.836238354444503784e-01
4.793000000000000000e+03 1.297764873504638672e+01 1.563798236846923828e+01 -3.643588349223136902e-02 2.848932635970413685e-04 -1.084529701620340347e-02 -6.992871407419443130e-03
4.794000000000000000e+03 2.076938819885253906e+01 -8.987819671630859375e+00 -2.440152876079082489e-02 8.748439699411392212e-02 1.892486028373241425e-02 -1.315456926822662354e-01
4.795000000000000000e+03 1.527485561370849609e+01 -7.307822704315185547e+00 -1.429955661296844482e-01 9.311874955892562866e-02 -1.496304478496313095e-02 -1.756607443094253540e-01
4.796000000000000000e+03 1.474677085876464844e+01 -7.648545265197753906e+00 -1.111662462353706360e-01 9.161990880966186523e-02 -5.863900296390056610e-03 -1.825187653303146362e-01
4.797000000000000000e+03 3.635826873779296875e+01 -1.012676811218261719e+01 -1.348274946212768555e-02 2.553838491439819336e+00 7.621067762374877930e-01 5.494961142539978027e-01
4.798000000000000000e+03 1.312763309478759766e+01 6.800597667694091797e+00 2.322191867278888822e-04 -2.616992453113198280e-03 -7.154319318942725658e-04 2.024921821430325508e-03
4.799000000000000000e+03 7.318918609619140625e+01 1.639393234252929688e+01 1.177663445472717285e+00 8.375537872314453125e+00 2.865960359573364258e+00 -2.647615224123001099e-02
4.800000000000000000e+03 6.876567840576171875e+01 6.768620014190673828e+00 -6.654631495475769043e-01 6.683906078338623047e+00 1.805532932281494141e+00 3.952765762805938721e-01
4.801000000000000000e+03 6.985555267333984375e+01 6.924667835235595703e+00 -6.536350846290588379e-01 7.229310989379882812e+00 1.972702860832214355e+00 2.355998381972312927e-02
4.802000000000000000e+03 3.912128829956054688e+01 -1.544566059112548828e+01 4.677023887634277344e-01 5.630248546600341797e+00 1.829385280609130859e+00 2.835849225521087646e-01
4.803000000000000000e+03 2.887266731262207031e+01 -8.583571434020996094e+00 -3.297272920608520508e-01 -2.395674586296081543e-01 -1.707884222269058228e-01 -3.234903812408447266e-01
4.804000000000000000e+03 5.021374893188476562e+01 -2.821053743362426758e+00 1.488108873367309570e+00 3.584594011306762695e+00 1.521810889244079590e+00 -7.316449880599975586e-01
4.805000000000000000e+03 6.545673370361328125e+01 -8.374203681945800781e+00 9.005047380924224854e-02 4.032772541046142578e+00 1.236846923828125000e+00 -1.533648848533630371e+00
4.806000000000000000e+03 6.409311676025390625e+01 -6.094084739685058594e+00 2.231000959873199463e-01 2.816646575927734375e+00 9.119240045547485352e-01 -1.108117341995239258e+00
4.807000000000000000e+03 6.573140716552734375e+01 2.798395633697509766e+00 -3.675222098827362061e-01 3.724463462829589844e+00 1.007082343101501465e+00 4.975563585758209229e-01
4.808000000000000000e+03 6.819547271728515625e+01 5.043750762939453125e+00 -7.197782993316650391e-01 5.830316543579101562e+00 1.533161520957946777e+00 4.618329107761383057e-01
4.809000000000000000e+03 6.936048126220703125e+01 6.273247241973876953e+00 -7.205992937088012695e-01 6.799508094787597656e+00 1.823672652244567871e+00 2.007097750902175903e-01
4.810000000000000000e+03 4.689256668090820312e+01 -1.928874850273132324e+00 9.457688331604003906e-01 8.518900871276855469e+00 2.839400768280029297e+00 -2.892560362815856934e-01
4.811000000000000000e+03 6.435202789306640625e+01 -1.170832157135009766e+00 1.305289715528488159e-01 2.820186614990234375e+00 8.852146863937377930e-01 -1.905550211668014526e-01
4.812000000000000000e+03 7.546151161193847656e+00 -1.613616371154785156e+01 6.528138369321823120e-02 4.170581698417663574e-02 3.209615871310234070e-02 -2.129903286695480347e-01
4.813000000000000000e+03 6.694786834716796875e+01 3.895894289016723633e+00 -5.831096768379211426e-01 4.733245372772216797e+00 1.245040774345397949e+00 5.670650601387023926e-01
4.814000000000000000e+03 6.648332118988037109e+00 -2.306975555419921875e+01 1.264596283435821533e-01 -1.362819671630859375e-01 -2.946700667962431908e-03 -5.527214705944061279e-02
4.815000000000000000e+03 4.447242355346679688e+01 2.416544532775878906e+01 -5.886000990867614746e-01 5.250111579895019531e+00 1.398453474044799805e+00 -2.099762856960296631e-01
4.816000000000000000e+03 4.583347702026367188e+01 2.198864173889160156e+01 -2.946251034736633301e-01 6.013687610626220703e+00 1.715718746185302734e+00 8.311584591865539551e-02
4.817000000000000000e+03 4.366967391967773438e+01 1.366755008697509766e+01 5.358491539955139160e-01 9.087439537048339844e+00 2.886986732482910156e+00 -3.760336637496948242e-01
4.818000000000000000e+03 4.882886123657226562e+01 -2.844861745834350586e+00 9.468504190444946289e-01 5.567529201507568359e+00 1.954313874244689941e+00 -5.272452235221862793e-01
4.819000000000000000e+03 1.450120735168457031e+01 -9.345594406127929688e+00 5.241769924759864807e-02 9.816895425319671631e-02 4.517599567770957947e-02 -1.790289282798767090e-01
4.820000000000000000e+03 1.558867073059082031e+01 -8.728252410888671875e+00 -8.588305674493312836e-03 1.174036040902137756e-01 3.264458850026130676e-02 -1.761878132820129395e-01
4.821000000000000000e+03 9.644571304321289062e+00 6.575678348541259766e+00 9.517807629890739918e-04 -3.004067344591021538e-03 -6.156860035844147205e-04 -1.551741297589614987e-04
4.822000000000000000e+03 1.136756706237792969e+01 6.370701789855957031e+00 1.237575546838343143e-03 -2.835324732586741447e-03 -4.793247790075838566e-04 1.129701966419816017e-03
4.823000000000000000e+03 7.095954132080078125e+01 2.105522155761718750e+01 2.128581702709197998e-01 9.051383018493652344e+00 2.779272317886352539e+00 5.946880578994750977e-01
4.824000000000000000e+03 7.318589782714843750e+01 2.357231903076171875e+01 -4.500865340232849121e-01 7.913193702697753906e+00 2.238932132720947266e+00 6.175828576087951660e-01
4.825000000000000000e+03 1.543443202972412109e+01 2.162399673461914062e+01 -2.008181512355804443e-01 6.842436641454696655e-02 -3.971813619136810303e-02 3.688726574182510376e-02
4.826000000000000000e+03 1.491078758239746094e+01 1.955718421936035156e+01 -1.353774368762969971e-01 3.741581365466117859e-02 -2.938848920166492462e-02 -9.468653239309787750e-03
4.827000000000000000e+03 6.874568939208984375e+00 -7.433050155639648438e+00 -7.370837777853012085e-02 -3.393359109759330750e-02 -3.229258954524993896e-02 -2.064831256866455078e-01
4.828000000000000000e+03 8.741953849792480469e+00 -7.858071327209472656e+00 -8.515752106904983521e-02 1.191140338778495789e-02 -2.197383530437946320e-02 -2.152424901723861694e-01
4.829000000000000000e+03 4.028574371337890625e+01 -2.837975883483886719e+01 3.712072372436523438e-01 5.834404468536376953e+00 1.861683487892150879e+00 8.250815272331237793e-01
4.830000000000000000e+03 4.075773620605468750e+01 -2.938018035888671875e+01 -1.293227449059486389e-02 5.734825134277343750e+00 1.716567873954772949e+00 6.101632714271545410e-01
4.831000000000000000e+03 7.135285949707031250e+01 -2.505745506286621094e+01 -6.979066133499145508e-01 8.764063835144042969e+00 2.419847249984741211e+00 -8.840386271476745605e-01
4.832000000000000000e+03 7.107373809814453125e+01 -2.666734313964843750e+01 -1.014352798461914062e+00 8.145512580871582031e+00 2.139347791671752930e+00 -5.543134212493896484e-01
4.833000000000000000e+03 7.214690399169921875e+01 1.111303806304931641e+01 3.952246308326721191e-01 8.486106872558593750e+00 2.664399385452270508e+00 -6.611438989639282227e-01
4.834000000000000000e+03 7.198676300048828125e+01 1.007286643981933594e+01 1.002366840839385986e-01 8.297350883483886719e+00 2.519276142120361328e+00 -6.714706420898437500e-01
4.835000000000000000e+03 8.801742553710937500e+00 -7.165956020355224609e+00 -1.033493950963020325e-01 1.370995584875345230e-02 -2.689183317124843597e-02 -2.097030282020568848e-01
4.836000000000000000e+03 7.952509880065917969e+00 -6.466631889343261719e+00 -1.084016561508178711e-01 -3.454549005255103111e-03 -3.355685994029045105e-02 -1.985298693180084229e-01
4.837000000000000000e+03 6.511103057861328125e+01 -9.006014823913574219e+00 2.581773996353149414e-01 3.604942798614501953e+00 1.158936142921447754e+00 -1.681607842445373535e+00
4.838000000000000000e+03 5.710619735717773438e+01 -2.957398891448974609e+00 1.313267707824707031e+00 -2.898647189140319824e-01 3.070208728313446045e-01 -1.073858141899108887e+00
4.839000000000000000e+03 5.584817123413085938e+01 -3.244673728942871094e+00 1.389295935630798340e+00 -3.216641545295715332e-01 3.202895224094390869e-01 -1.212323307991027832e+00
4.840000000000000000e+03 4.366265487670898438e+01 -1.172680282592773438e+01 -6.583233475685119629e-01 8.843968391418457031e+00 2.455693483352661133e+00 3.322687447071075439e-01
4.841000000000000000e+03 5.792486572265625000e+01 -4.996956348419189453e+00 5.362514257431030273e-01 7.085092365741729736e-02 1.821307092905044556e-01 -1.096017956733703613e+00
4.842000000000000000e+03 6.962419891357421875e+01 -1.162385272979736328e+01 7.385970652103424072e-02 8.900208473205566406e+00 2.692220687866210938e+00 -3.799915611743927002e-01
4.843000000000000000e+03 7.185478210449218750e+01 -1.600922584533691406e+01 1.705953121185302734e+00 9.645890235900878906e+00 3.405553102493286133e+00 -9.521764703094959259e-03
4.844000000000000000e+03 7.283906555175781250e+01 -1.722902107238769531e+01 1.588831186294555664e+00 9.056606292724609375e+00 3.193631410598754883e+00 -2.190097123384475708e-01
4.845000000000000000e+03 5.393012619018554688e+01 -4.002477169036865234e+00 1.202692270278930664e+00 -5.708796530961990356e-02 3.436813056468963623e-01 -1.259075164794921875e+00
4.846000000000000000e+03 6.506786346435546875e+01 1.247174620628356934e+00 -1.597747802734375000e-01 3.244805335998535156e+00 9.255091547966003418e-01 2.651544511318206787e-01
4.847000000000000000e+03 6.565299224853515625e+01 1.764768600463867188e+00 -2.869956195354461670e-01 3.647979974746704102e+00 1.008295297622680664e+00 3.460876643657684326e-01
4.848000000000000000e+03 2.275039672851562500e+01 -7.944671154022216797e+00 -2.532813251018524170e-01 9.972205013036727905e-02 -4.606778174638748169e-02 -1.141574904322624207e-01
4.849000000000000000e+03 4.150689697265625000e+01 -6.281728267669677734e+00 -1.912562489509582520e+00 8.389193534851074219e+00 1.942989349365234375e+00 1.729717493057250977e+00
4.850000000000000000e+03 4.076685333251953125e+01 -7.096345901489257812e+00 -1.716220140457153320e+00 7.365149497985839844e+00 1.694678783416748047e+00 1.678893208503723145e+00
4.851000000000000000e+03 7.262665557861328125e+01 1.796265411376953125e+01 1.262380123138427734e+00 8.711119651794433594e+00 2.992049932479858398e+00 2.675715684890747070e-01
4.852000000000000000e+03 6.801417541503906250e+01 -9.039170265197753906e+00 -4.032526612281799316e-01 6.633862972259521484e+00 1.869183182716369629e+00 -1.050242662429809570e+00
4.853000000000000000e+03 6.744472503662109375e+01 -8.192685127258300781e+00 -3.684405386447906494e-01 5.891484737396240234e+00 1.656913280487060547e+00 -1.114908576011657715e+00
4.854000000000000000e+03 4.506922149658203125e+01 -2.828446149826049805e+00 3.753178939223289490e-02 1.003528308868408203e+01 3.021844387054443359e+00 4.701111316680908203e-01
4.855000000000000000e+03 4.610303878784179688e+01 -2.169499397277832031e+00 6.806163191795349121e-01 9.205958366394042969e+00 2.965972423553466797e+00 6.127573549747467041e-02
4.856000000000000000e+03 7.183768272399902344e+00 -1.798370742797851562e+01 1.082883328199386597e-01 2.213194034993648529e-03 3.315045684576034546e-02 -1.948882043361663818e-01
4.857000000000000000e+03 7.410023212432861328e+00 -1.705059623718261719e+01 8.786999434232711792e-02 3.250788897275924683e-02 3.611336275935173035e-02 -2.066890597343444824e-01
4.858000000000000000e+03 3.891691207885742188e+01 2.426765441894531250e+01 -2.223395556211471558e-01 3.517185211181640625e+00 9.884536862373352051e-01 -9.998298287391662598e-01
4.859000000000000000e+03 3.777518463134765625e+01 2.413488388061523438e+01 -1.333368122577667236e-01 3.110198736190795898e+00 8.930585980415344238e-01 -1.061244487762451172e+00
4.860000000000000000e+03 6.023025131225585938e+01 -6.197087287902832031e+00 3.812202513217926025e-01 7.078515291213989258e-01 3.267215192317962646e-01 -8.614513874053955078e-01
4.861000000000000000e+03 6.053095245361328125e+01 -2.895185708999633789e+00 8.304269909858703613e-01 7.046757340431213379e-01 4.605308175086975098e-01 -7.208092808723449707e-01
4.862000000000000000e+03 4.048410797119140625e+01 -1.149491310119628906e+01 -5.606721043586730957e-01 6.572156906127929688e+00 1.803445339202880859e+00 4.763841032981872559e-01
4.863000000000000000e+03 7.130696868896484375e+01 7.704568386077880859e+00 -4.703995883464813232e-01 7.760575294494628906e+00 2.187052726745605469e+00 -4.200883507728576660e-01
4.864000000000000000e+03 7.138325500488281250e+01 9.613251686096191406e+00 -3.828994184732437134e-02 8.252214431762695312e+00 2.464177370071411133e+00 -5.273395776748657227e-01
4.865000000000000000e+03 4.195172119140625000e+01 -1.609585380554199219e+01 9.081327319145202637e-01 8.014630317687988281e+00 2.676828861236572266e+00 6.205871105194091797e-01
4.866000000000000000e+03 6.975138092041015625e+01 -2.652060699462890625e+01 -1.141819357872009277e+00 7.792731761932373047e+00 1.995273709297180176e+00 -7.298343628644943237e-02
4.867000000000000000e+03 7.351483917236328125e+01 -2.752334022521972656e+01 -6.800957918167114258e-01 8.350430488586425781e+00 2.301100492477416992e+00 -9.310659766197204590e-01
4.868000000000000000e+03 4.483794021606445312e+01 -5.633712291717529297e+00 -2.033312797546386719e+00 9.380927085876464844e+00 2.204284191131591797e+00 7.202966809272766113e-01
4.869000000000000000e+03 4.362674713134765625e+01 -4.358186721801757812e+00 -1.266599297523498535e+00 1.017327880859375000e+01 2.672003746032714844e+00 1.042067527770996094e+00
4.870000000000000000e+03 3.247929000854492188e+01 -9.490737915039062500e+00 1.339915245771408081e-01 1.031876578927040100e-01 7.115375250577926636e-02 -2.210769429802894592e-02
4.871000000000000000e+03 4.710359191894531250e+01 -2.683358430862426758e+00 4.372398555278778076e-01 7.937027454376220703e+00 2.512280225753784180e+00 -1.959404349327087402e-01
4.872000000000000000e+03 7.025577545166015625e+01 -2.732129478454589844e+01 -1.167923331260681152e+00 7.636775493621826172e+00 1.940655708312988281e+00 -1.823248118162155151e-01
4.873000000000000000e+03 3.923469161987304688e+01 2.082919883728027344e+01 9.014458954334259033e-02 3.854243040084838867e+00 1.183316349983215332e+00 -1.274179935455322266e+00
4.874000000000000000e+03 4.041723632812500000e+01 2.311837959289550781e+01 -2.470348626375198364e-01 4.222639560699462891e+00 1.192681431770324707e+00 -9.827061891555786133e-01
4.875000000000000000e+03 6.931840896606445312e+00 -2.091819190979003906e+01 1.492671817541122437e-01 -6.860832124948501587e-02 2.419765666127204895e-02 -1.245634034276008606e-01
4.876000000000000000e+03 7.108543872833251953e+00 -2.154970932006835938e+01 1.518728286027908325e-01 -5.241814628243446350e-02 2.983640320599079132e-02 -1.084779873490333557e-01
4.877000000000000000e+03 9.226147651672363281e+00 -2.507627296447753906e+01 1.323852092027664185e-01 1.676981300115585327e-01 9.002500027418136597e-02 -5.460974574089050293e-02
4.878000000000000000e+03 1.728793144226074219e+01 2.404251861572265625e+01 -2.202320843935012817e-01 6.669615954160690308e-02 -4.606077820062637329e-02 1.209698617458343506e-01
4.879000000000000000e+03 1.511808586120605469e+01 2.289118385314941406e+01 -1.859556883573532104e-01 7.190085202455520630e-02 -3.421644866466522217e-02 8.033241331577301025e-02
4.880000000000000000e+03 7.309008789062500000e+01 1.554600143432617188e+01 1.155741572380065918e+00 8.407971382141113281e+00 2.869113922119140625e+00 -2.004130780696868896e-01
4.881000000000000000e+03 1.417244529724121094e+01 -7.273176193237304688e+00 -1.400074958801269531e-01 8.190078288316726685e-02 -1.743201352655887604e-02 -1.873967945575714111e-01
4.882000000000000000e+03 4.375455093383789062e+01 1.684181976318359375e+01 3.086329996585845947e-01 7.219114780426025391e+00 2.258324384689331055e+00 -3.789433538913726807e-01
4.883000000000000000e+03 1.672341728210449219e+01 2.186853218078613281e+01 -2.537810504436492920e-01 7.123593240976333618e-02 -5.476353317499160767e-02 3.254397958517074585e-02
4.884000000000000000e+03 4.461204910278320312e+01 -9.897580146789550781e+00 -1.876413941383361816e+00 9.133459091186523438e+00 2.177113533020019531e+00 4.157172739505767822e-01
4.885000000000000000e+03 3.897698974609375000e+01 2.305141258239746094e+01 -1.229396909475326538e-01 3.589342594146728516e+00 1.039920926094055176e+00 -1.096269130706787109e+00
4.886000000000000000e+03 1.028632926940917969e+01 -9.879100799560546875e+00 -1.874886825680732727e-02 6.210577487945556641e-02 1.300707180052995682e-02 -1.929051280021667480e-01
4.887000000000000000e+03 1.334848785400390625e+01 1.926449584960937500e+01 -1.045556366443634033e-01 3.079840540885925293e-02 -2.212717011570930481e-02 7.500946521759033203e-03
4.888000000000000000e+03 3.902185058593750000e+01 -1.486246585845947266e+01 3.688544929027557373e-01 5.497241020202636719e+00 1.759828686714172363e+00 2.320886999368667603e-01
4.889000000000000000e+03 1.383970546722412109e+01 1.287977409362792969e+01 -8.919117040932178497e-03 -5.919206887483596802e-03 -4.451496992260217667e-03 -2.196101471781730652e-03
4.890000000000000000e+03 4.146530151367187500e+01 -1.569944286346435547e+01 7.536871433258056641e-01 7.502685546875000000e+00 2.476911783218383789e+00 5.265339016914367676e-01
4.891000000000000000e+03 4.046036529541015625e+01 -1.587037754058837891e+01 6.625929474830627441e-01 6.728597164154052734e+00 2.217357158660888672e+00 4.860042035579681396e-01
4.892000000000000000e+03 1.297230529785156250e+01 1.375284671783447266e+01 -1.689252071082592010e-02 -5.179846193641424179e-03 -6.621710024774074554e-03 -3.812067210674285889e-03
4.893000000000000000e+03 6.956841945648193359e+00 8.987918853759765625e+00 -1.243870356120169163e-03 -3.018570132553577423e-03 -1.278732088394463062e-03 -1.655473140999674797e-03
4.894000000000000000e+03 4.137800979614257812e+01 -1.457687473297119141e+01 4.965041279792785645e-01 7.377420425415039062e+00 2.362177371978759766e+00 4.148965179920196533e-01
4.895000000000000000e+03 2.555953979492187500e+01 -9.841705322265625000e+00 -1.538835000246763229e-03 -2.519611967727541924e-03 -1.217534067109227180e-03 -2.640642225742340088e-01
4.896000000000000000e+03 2.668590927124023438e+01 -1.114599132537841797e+01 2.847015559673309326e-01 -6.563289463520050049e-02 6.572059541940689087e-02 -2.546989619731903076e-01
4.897000000000000000e+03 4.038658905029296875e+01 -2.184396362304687500e+01 1.430371642112731934e+00 6.885882854461669922e+00 2.494876384735107422e+00 1.324158549308776855e+00
4.898000000000000000e+03 1.394716930389404297e+01 1.825121879577636719e+01 -8.704447746276855469e-02 1.975940726697444916e-02 -2.018552273511886597e-02 -9.152943268418312073e-03
4.899000000000000000e+03 1.217431926727294922e+01 1.570003032684326172e+01 -3.917268663644790649e-02 1.706615439616143703e-03 -1.123982109129428864e-02 -4.316419828683137894e-03
4.900000000000000000e+03 4.158250045776367188e+01 -1.926566123962402344e+01 1.290075540542602539e+00 7.764435768127441406e+00 2.716353416442871094e+00 9.365056753158569336e-01
4.901000000000000000e+03 1.393144035339355469e+01 1.196468448638916016e+01 -6.243969313800334930e-03 -5.413943901658058167e-03 -3.497374011203646660e-03 -9.243472013622522354e-04
4.902000000000000000e+03 6.158029174804687500e+01 3.046166419982910156e+01 4.466712772846221924e-01 2.407466173171997070e+00 8.562412858009338379e-01 -9.491857141256332397e-02
4.903000000000000000e+03 7.309832000732421875e+01 -3.005770683288574219e+01 -7.376965284347534180e-01 7.974079132080078125e+00 2.170914888381958008e+00 -4.940744042396545410e-01
4.904000000000000000e+03 3.999209976196289062e+01 -1.541792488098144531e+01 5.385208725929260254e-01 6.316725254058837891e+00 2.056573867797851562e+00 3.954901695251464844e-01
4.905000000000000000e+03 1.809697151184082031e+01 -8.629507064819335938e+00 -2.503539808094501495e-02 1.263396590948104858e-01 3.039127774536609650e-02 -1.266071051359176636e-01
4.906000000000000000e+03 4.388665771484375000e+01 -2.948093032836914062e+01 -4.436168670654296875e-01 5.786533832550048828e+00 1.602875113487243652e+00 -1.484668552875518799e-01
4.907000000000000000e+03 4.287468338012695312e+01 -2.725223350524902344e+01 2.823559045791625977e-01 6.429393291473388672e+00 2.013524770736694336e+00 4.441149830818176270e-01
4.908000000000000000e+03 1.051085853576660156e+01 6.483110904693603516e+00 6.070681265555322170e-04 -3.262560814619064331e-03 -7.966478005982935429e-04 1.954659965122118592e-04
4.909000000000000000e+03 4.488104629516601562e+01 2.150997734069824219e+01 -2.386921495199203491e-01 5.955789089202880859e+00 1.715129137039184570e+00 -1.648671030998229980e-01
4.910000000000000000e+03 8.635293960571289062e+00 9.694680213928222656e+00 -2.911819145083427429e-03 -4.612630233168601990e-03 -2.257334766909480095e-03 -1.046025310643017292e-03
4.911000000000000000e+03 1.387390995025634766e+01 -7.792904853820800781e+00 -9.237732738256454468e-02 8.584323525428771973e-02 -1.960227731615304947e-03 -1.916838586330413818e-01
4.912000000000000000e+03 1.395453739166259766e+01 -9.615393638610839844e+00 5.952673405408859253e-02 9.324140846729278564e-02 4.583044350147247314e-02 -1.756348460912704468e-01
4.913000000000000000e+03 6.290231323242187500e+01 -5.493410587310791016e+00 3.824009001255035400e-01 2.041451930999755859e+00 7.271558642387390137e-01 -9.792042970657348633e-01
4.914000000000000000e+03 6.934206390380859375e+01 3.076092147827148438e+01 -3.080694079399108887e-01 5.643785953521728516e+00 1.600714921951293945e+00 -6.377067565917968750e-01
4.915000000000000000e+03 4.657160949707031250e+01 -6.966414451599121094e+00 -2.503887891769409180e+00 8.137945175170898438e+00 1.690217256546020508e+00 7.099803686141967773e-01
4.916000000000000000e+03 4.567542266845703125e+01 -6.370716094970703125e+00 -2.311852455139160156e+00 8.863391876220703125e+00 1.965461850166320801e+00 6.667009592056274414e-01
4.917000000000000000e+03 1.343752574920654297e+01 1.011771774291992188e+01 -1.651950064115226269e-03 -4.518019035458564758e-03 -1.850990811362862587e-03 1.859984127804636955e-03
4.918000000000000000e+03 2.588804435729980469e+01 -8.174549102783203125e+00 -3.972549438476562500e-01 4.040008783340454102e-02 -1.070564538240432739e-01 -2.374231815338134766e-01
4.919000000000000000e+03 2.479801750183105469e+01 -8.552865028381347656e+00 -2.702327370643615723e-01 6.757715344429016113e-02 -6.079667434096336365e-02 -2.116857022047042847e-01
4.920000000000000000e+03 1.453052806854248047e+01 8.530887603759765625e+00 -3.941202303394675255e-04 -2.012482611462473869e-03 -7.219808758236467838e-04 2.675522118806838989e-03
4.921000000000000000e+03 1.386911582946777344e+01 6.528144359588623047e+00 1.191375660710036755e-03 -1.332392566837370396e-03 -4.230506601743400097e-05 2.681320067495107651e-03
4.922000000000000000e+03 4.028150939941406250e+01 -2.235878181457519531e+01 1.426414847373962402e+00 6.732431888580322266e+00 2.447654008865356445e+00 1.417952418327331543e+00
4.923000000000000000e+03 4.120723342895507812e+01 -2.637966537475585938e+01 8.337501883506774902e-01 6.302426815032958984e+00 2.140853166580200195e+00 9.841291904449462891e-01
4.924000000000000000e+03 1.432656574249267578e+01 2.112331962585449219e+01 -1.598521173000335693e-01 5.696296691894531250e-02 -3.086674213409423828e-02 3.200233727693557739e-02
4.925000000000000000e+03 1.437840366363525391e+01 1.977550888061523438e+01 -1.277380287647247314e-01 3.885422646999359131e-02 -2.666513994336128235e-02 1.148271840065717697e-03
4.926000000000000000e+03 4.430300521850585938e+01 1.622205162048339844e+01 3.878418505191802979e-01 7.776125907897949219e+00 2.449190378189086914e+00 -5.526292696595191956e-02
4.927000000000000000e+03 7.235889434814453125e+01 -1.499709320068359375e+01 1.311661124229431152e+00 9.129683494567871094e+00 3.132403135299682617e+00 3.240477740764617920e-01
4.928000000000000000e+03 7.289199066162109375e+01 -1.402160549163818359e+01 8.893217444419860840e-01 8.727847099304199219e+00 2.885150671005249023e+00 5.769211649894714355e-01
4.929000000000000000e+03 1.815007972717285156e+01 2.482321166992187500e+01 -1.985644102096557617e-01 5.159122496843338013e-02 -4.409195482730865479e-02 1.380315721035003662e-01
4.930000000000000000e+03 4.994644927978515625e+01 -5.226397514343261719e+00 -5.817794203758239746e-01 3.414867639541625977e+00 8.499264121055603027e-01 2.513263523578643799e-01
4.931000000000000000e+03 1.052129650115966797e+01 7.207071781158447266e+00 6.221322691999375820e-04 -3.529019420966506004e-03 -8.720661280676722527e-04 4.034893936477601528e-04
4.932000000000000000e+03 1.362695693969726562e+01 9.266613006591796875e+00 -1.134454738348722458e-03 -3.771461080759763718e-03 -1.471774769015610218e-03 1.823830883949995041e-03
4.933000000000000000e+03 1.007173728942871094e+01 -2.684985160827636719e+01 7.350367307662963867e-02 2.002211362123489380e-01 8.211744576692581177e-02 -6.668058782815933228e-02
4.934000000000000000e+03 6.859730720520019531e+00 -2.792573547363281250e+01 2.672117017209529877e-02 -1.689618229866027832e-01 -4.267219826579093933e-02 2.272484265267848969e-02
4.935000000000000000e+03 7.918471813201904297e+00 -3.263170623779296875e+01 -2.552506141364574432e-02 -1.448584049940109253e-01 -5.111503973603248596e-02 -1.437078462913632393e-03
4.936000000000000000e+03 7.839475154876708984e+00 -3.392821884155273438e+01 -2.905067615211009979e-02 -1.714642196893692017e-01 -6.015446782112121582e-02 2.516272361390292645e-04
4.937000000000000000e+03 1.398557090759277344e+01 -3.271965408325195312e+01 -2.065402455627918243e-02 2.400685995817184448e-01 6.582437455654144287e-02 -1.567924171686172485e-01
4.938000000000000000e+03 1.381079006195068359e+01 8.434560775756835938e+00 2.392194292042404413e-04 -2.619814826175570488e-03 -7.141786045394837856e-04 2.913074800744652748e-03
4.939000000000000000e+03 7.497513771057128906e+00 3.295125198364257812e+01 2.427229471504688263e-02 -8.194652199745178223e-02 -1.730226911604404449e-02 1.032953187823295593e-01
4.940000000000000000e+03 4.489122772216796875e+01 1.826708221435546875e+01 2.533336281776428223e-01 7.050078392028808594e+00 2.191023588180541992e+00 4.846571385860443115e-02
4.941000000000000000e+03 7.302602386474609375e+01 -1.791358947753906250e+01 1.530570149421691895e+00 8.970834732055664062e+00 3.150421380996704102e+00 -4.082840383052825928e-01
4.942000000000000000e+03 7.384284973144531250e+01 -1.823527336120605469e+01 1.276276707649230957e+00 8.488370895385742188e+00 2.929394245147705078e+00 -4.701767563819885254e-01
4.943000000000000000e+03 3.449498367309570312e+01 -9.362379074096679688e+00 5.297788977622985840e-02 1.001946210861206055e+00 3.164772391319274902e-01 2.957778871059417725e-01
4.944000000000000000e+03 4.200561904907226562e+01 -1.308973884582519531e+01 -4.198680073022842407e-02 7.771646976470947266e+00 2.318897962570190430e+00 3.627692759037017822e-01
4.945000000000000000e+03 4.122023010253906250e+01 -1.336387729644775391e+01 4.872086644172668457e-02 7.183327674865722656e+00 2.169614553451538086e+00 3.490972220897674561e-01
4.946000000000000000e+03 3.677885818481445312e+01 2.641816329956054688e+01 -1.900955140590667725e-01 2.710988044738769531e+00 7.562677860260009766e-01 -9.121377468109130859e-01
4.947000000000000000e+03 7.249914550781250000e+01 -2.059871482849121094e+01 1.277796983718872070e+00 9.258168220520019531e+00 3.160789489746093750e+00 -1.048683881759643555e+00
4.948000000000000000e+03 7.376494598388671875e+01 2.345229148864746094e+01 -3.394408524036407471e-01 7.885890960693359375e+00 2.263935089111328125e+00 7.208409905433654785e-01
4.949000000000000000e+03 6.939212036132812500e+01 2.354568099975585938e+01 -1.138338088989257812e+00 7.845114707946777344e+00 2.012032985687255859e+00 -6.777099967002868652e-01
4.950000000000000000e+03 7.251032257080078125e+01 -1.576407623291015625e+01 1.488434672355651855e+00 9.124954223632812500e+00 3.184016704559326172e+00 1.604555398225784302e-01
4.951000000000000000e+03 4.223407745361328125e+01 -6.074635505676269531e+00 -2.012876272201538086e+00 9.042209625244140625e+00 2.108800172805786133e+00 1.516803979873657227e+00
4.952000000000000000e+03 5.548234558105468750e+01 -4.234277248382568359e+00 9.021160006523132324e-01 -2.943470776081085205e-01 1.823306679725646973e-01 -1.340191841125488281e+00
4.953000000000000000e+03 5.880246353149414062e+01 -5.373388290405273438e+00 4.701256752014160156e-01 2.751692831516265869e-01 2.235884815454483032e-01 -9.682350158691406250e-01
4.954000000000000000e+03 6.797286987304687500e+01 2.494039916992187500e+01 -1.119667053222656250e+00 6.127234935760498047e+00 1.502270340919494629e+00 -1.434212207794189453e+00
4.955000000000000000e+03 7.308517456054687500e+01 3.142562103271484375e+01 -2.799551486968994141e-01 6.771948814392089844e+00 1.947598099708557129e+00 -2.150011062622070312e-01
4.956000000000000000e+03 8.009954452514648438e+00 -1.662846565246582031e+01 7.959697395563125610e-02 1.064259260892868042e-01 5.580687150359153748e-02 -2.054065316915512085e-01
4.957000000000000000e+03 6.182317733764648438e+00 8.280457496643066406e+00 -3.934807609766721725e-04 -2.014748984947800636e-03 -7.224688888527452946e-04 -2.104032784700393677e-03
4.958000000000000000e+03 4.161133193969726562e+01 -2.721045684814453125e+01 5.055030584335327148e-01 6.256846904754638672e+00 2.028704881668090820e+00 7.856140732765197754e-01
4.959000000000000000e+03 2.330787086486816406e+01 -8.431969642639160156e+00 -2.045499533414840698e-01 8.817146718502044678e-02 -3.491354361176490784e-02 -1.539364457130432129e-01
4.960000000000000000e+03 4.583845520019531250e+01 -7.076307773590087891e+00 -2.533583641052246094e+00 8.746744155883789062e+00 1.863948106765747070e+00 6.808059215545654297e-01
4.961000000000000000e+03 4.153799819946289062e+01 -7.033356666564941406e+00 -1.966884136199951172e+00 8.188469886779785156e+00 1.866475701332092285e+00 1.501878023147583008e+00
4.962000000000000000e+03 1.071168231964111328e+01 -8.585339546203613281e+00 -6.121285632252693176e-02 5.299996212124824524e-02 -2.463867422193288803e-03 -2.069900184869766235e-01
4.963000000000000000e+03 1.178738880157470703e+01 -8.924716949462890625e+00 -2.924787811934947968e-02 6.771878153085708618e-02 1.154127158224582672e-02 -1.967666447162628174e-01
4.964000000000000000e+03 1.321552658081054688e+01 1.831759834289550781e+01 -8.652798831462860107e-02 2.125351689755916595e-02 -1.958234049379825592e-02 -2.504876116290688515e-03
4.965000000000000000e+03 6.815026760101318359e+00 1.953854942321777344e+01 -3.453248366713523865e-02 -4.256645683199167252e-03 -1.163673866540193558e-02 3.653940930962562561e-02
4.966000000000000000e+03 6.943273162841796875e+01 -9.239262580871582031e+00 -5.054144859313964844e-01 7.566149234771728516e+00 2.118220567703247070e+00 -4.509694576263427734e-01
4.967000000000000000e+03 6.242712974548339844e+00 -2.638675880432128906e+01 5.077856034040451050e-02 -2.216376960277557373e-01 -5.125774443149566650e-02 1.822923868894577026e-02
4.968000000000000000e+03 7.259955596923828125e+01 1.197738933563232422e+01 5.836707949638366699e-01 8.437269210815429688e+00 2.706281900405883789e+00 -6.694460511207580566e-01
4.969000000000000000e+03 5.943878936767578125e+01 -4.049966335296630859e+00 8.011912107467651367e-01 4.045581221580505371e-01 3.617247939109802246e-01 -9.270461201667785645e-01
4.970000000000000000e+03 6.464518070220947266e+00 -1.974719810485839844e+01 1.202613040804862976e-01 -1.143053621053695679e-01 1.786780892871320248e-03 -1.516734212636947632e-01
4.971000000000000000e+03 7.330679321289062500e+01 -1.227602958679199219e+01 3.096890151500701904e-01 8.378293037414550781e+00 2.606394529342651367e+00 7.845172882080078125e-01
4.972000000000000000e+03 5.709889984130859375e+01 -4.492047309875488281e+00 7.096148133277893066e-01 -1.121391803026199341e-01 1.792426854372024536e-01 -1.201875805854797363e+00
4.973000000000000000e+03 2.765643501281738281e+01 -8.577593803405761719e+00 -3.429061472415924072e-01 -1.232179254293441772e-01 -1.398372203111648560e-01 -3.232362270355224609e-01
4.974000000000000000e+03 2.652387809753417969e+01 -8.646390914916992188e+00 -3.000654578208923340e-01 -2.734673395752906799e-02 -9.822366386651992798e-02 -2.848572134971618652e-01
4.975000000000000000e+03 2.937839126586914062e+01 2.785931777954101562e+01 6.642578542232513428e-02 8.822214603424072266e-01 2.845941781997680664e-01 -5.119942426681518555e-01
4.976000000000000000e+03 3.073710060119628906e+01 2.732037925720214844e+01 4.899334162473678589e-02 1.088759064674377441e+00 3.413257002830505371e-01 -6.292793154716491699e-01
4.977000000000000000e+03 7.347872924804687500e+01 -2.430909156799316406e+01 -1.662215292453765869e-01 8.656173706054687500e+00 2.546985864639282227e+00 -1.383126616477966309e+00
4.978000000000000000e+03 7.136246490478515625e+01 3.136823081970214844e+01 -3.102318048477172852e-01 6.307459354400634766e+00 1.799168348312377930e+00 -4.051691591739654541e-01
4.979000000000000000e+03 4.185971069335937500e+01 -2.230195236206054688e+01 1.511910438537597656e+00 7.395076751708984375e+00 2.672096252441406250e+00 1.130485653877258301e+00
4.980000000000000000e+03 7.361210346221923828e+00 -2.295586776733398438e+01 1.458951383829116821e-01 -3.940777480602264404e-02 3.194620832800865173e-02 -6.693808734416961670e-02
4.981000000000000000e+03 5.974713802337646484e+00 -2.472972869873046875e+01 7.905904948711395264e-02 -2.432343363761901855e-01 -4.925258457660675049e-02 -5.537732504308223724e-03
4.982000000000000000e+03 1.791282653808593750e+01 2.649861526489257812e+01 -9.271898865699768066e-02 6.180623546242713928e-02 -9.273825213313102722e-03 1.496654748916625977e-01
4.983000000000000000e+03 4.361554718017578125e+01 1.425369834899902344e+01 4.962366819381713867e-01 8.648805618286132812e+00 2.743512630462646484e+00 -3.661892414093017578e-01
4.984000000000000000e+03 9.965018272399902344e+00 -3.711943054199218750e+01 -1.817296817898750305e-02 -7.594627887010574341e-02 -2.823577448725700378e-02 -4.354760795831680298e-02
4.985000000000000000e+03 1.103108310699462891e+01 -3.548679351806640625e+01 -2.352949604392051697e-02 3.150516748428344727e-02 2.392701804637908936e-03 -6.454467028379440308e-02
4.986000000000000000e+03 2.526492500305175781e+01 -3.574833679199218750e+01 2.704179883003234863e-01 4.827739894390106201e-01 2.259575873613357544e-01 1.465568840503692627e-01
4.987000000000000000e+03 2.703831100463867188e+01 -4.147515487670898438e+01 1.135573983192443848e-01 1.271625995635986328e+00 4.155550301074981689e-01 5.341192334890365601e-02
4.988000000000000000e+03 3.952552795410156250e+01 -2.880334091186523438e+01 3.362952768802642822e-01 5.694232463836669922e+00 1.809158205986022949e+00 8.664979338645935059e-01
4.989000000000000000e+03 4.073089981079101562e+01 -2.407010459899902344e+01 1.400409936904907227e+00 6.608194828033447266e+00 2.402581453323364258e+00 1.347139358520507812e+00
4.990000000000000000e+03 5.922316360473632812e+01 3.015120124816894531e+01 3.960442841053009033e-01 2.181257486343383789e+00 7.731905579566955566e-01 5.699608922004699707e-01
4.991000000000000000e+03 6.064328384399414062e+01 2.921492195129394531e+01 3.918743133544921875e-01 1.962072014808654785e+00 7.061839103698730469e-01 1.337729245424270630e-01
4.992000000000000000e+03 4.117831802368164062e+01 1.783319473266601562e+01 3.013139665126800537e-01 5.415074348449707031e+00 1.714916586875915527e+00 -1.301575303077697754e+00
4.993000000000000000e+03 4.198290634155273438e+01 1.605046844482421875e+01 4.418049752712249756e-01 6.620625019073486328e+00 2.118728876113891602e+00 -1.204083323478698730e+00
4.994000000000000000e+03 4.096271514892578125e+01 -2.786278343200683594e+01 4.339475035667419434e-01 6.035550594329833984e+00 1.940849423408508301e+00 8.060432672500610352e-01
4.995000000000000000e+03 9.370323181152343750e+00 3.498699188232421875e+01 5.556632950901985168e-02 -5.845296010375022888e-02 -8.659892482683062553e-04 9.363090246915817261e-02
4.996000000000000000e+03 2.285381317138671875e+01 3.001874923706054688e+01 1.181517243385314941e-01 2.710473239421844482e-01 1.167597100138664246e-01 -3.004799410700798035e-02
4.997000000000000000e+03 1.937779808044433594e+01 2.819389152526855469e+01 6.222134921699762344e-03 8.534169942140579224e-02 2.746915072202682495e-02 1.122063770890235901e-01
4.998000000000000000e+03 4.472275543212890625e+01 -3.402346801757812500e+01 -9.850069880485534668e-01 4.609675407409667969e+00 1.087400555610656738e+00 -5.511230826377868652e-01
4.999000000000000000e+03 1.192815971374511719e+01 -2.888448524475097656e+01 2.788491547107696533e-02 2.719843387603759766e-01 8.996077626943588257e-02 -1.211357265710830688e-01
5.000000000000000000e+03 1.041901779174804688e+01 -3.028871345520019531e+01 -1.036070100963115692e-02 1.166762709617614746e-01 3.189467266201972961e-02 -5.715987831354141235e-02
5.001000000000000000e+03 2.416445922851562500e+01 3.115283393859863281e+01 1.409578621387481689e-01 4.400289058685302734e-01 1.742960363626480103e-01 -1.237385049462318420e-01
5.002000000000000000e+03 4.022453308105468750e+01 -3.118476867675781250e+01 -4.060437679290771484e-01 5.391009330749511719e+00 1.495489716529846191e+00 4.973428547382354736e-01
5.003000000000000000e+03 2.792719459533691406e+01 2.760653114318847656e+01 7.998703420162200928e-02 6.531280875205993652e-01 2.199345380067825317e-01 -4.049636125564575195e-01
5.004000000000000000e+03 7.425228118896484375e+01 2.938473320007324219e+01 -3.725770413875579834e-01 7.245979785919189453e+00 2.062020778656005859e+00 2.713444083929061890e-02
5.005000000000000000e+03 6.990844726562500000e+01 -3.480525207519531250e+01 -4.565302431583404541e-01 5.911012172698974609e+00 1.636344671249389648e+00 2.039985060691833496e-01
5.006000000000000000e+03 7.045713043212890625e+01 -3.231082916259765625e+01 -7.612510323524475098e-01 6.570535182952880859e+00 1.742785334587097168e+00 1.491000205278396606e-01
5.007000000000000000e+03 1.365954017639160156e+01 -3.449476623535156250e+01 -1.004579197615385056e-02 1.815307140350341797e-01 5.144547671079635620e-02 -1.349055767059326172e-01
5.008000000000000000e+03 9.852177619934082031e+00 -3.121872329711914062e+01 -2.227953076362609863e-02 4.671071097254753113e-02 7.329354528337717056e-03 -4.211676120758056641e-02
5.009000000000000000e+03 5.206874847412109375e+01 2.845342445373535156e+01 -5.810749530792236328e-01 3.792248725891113281e+00 9.633521437644958496e-01 1.396205425262451172e+00
5.010000000000000000e+03 4.961768722534179688e+01 2.724209785461425781e+01 -8.451560139656066895e-01 4.658270835876464844e+00 1.143934488296508789e+00 1.042862772941589355e+00
5.011000000000000000e+03 7.033903503417968750e+01 -3.654509735107421875e+01 -2.559981346130371094e-01 6.222029685974121094e+00 1.789809465408325195e+00 1.278897970914840698e-01
5.012000000000000000e+03 5.841925811767578125e+01 2.880973052978515625e+01 2.622433602809906006e-01 1.850453615188598633e+00 6.338090896606445312e-01 8.561869859695434570e-01
5.013000000000000000e+03 5.334931945800781250e+01 2.529945945739746094e+01 -5.979478359222412109e-01 3.562273263931274414e+00 8.892976045608520508e-01 1.942913651466369629e+00
5.014000000000000000e+03 5.270617675781250000e+01 3.048475646972656250e+01 -3.571044504642486572e-01 3.425788879394531250e+00 9.206053018569946289e-01 1.217286229133605957e+00
5.015000000000000000e+03 3.815065002441406250e+01 -4.104437255859375000e+01 -1.031230688095092773e+00 3.963493108749389648e+00 8.796787261962890625e-01 8.452122658491134644e-02
5.016000000000000000e+03 7.092432403564453125e+01 -3.324819183349609375e+01 -5.838394165039062500e-01 6.664828300476074219e+00 1.824296593666076660e+00 3.182314336299896240e-02
5.017000000000000000e+03 4.372061920166015625e+01 -3.611993408203125000e+01 -1.047071218490600586e+00 4.398769855499267578e+00 1.005509614944458008e+00 -3.145968914031982422e-01
5.018000000000000000e+03 6.733606719970703125e+01 -3.135249328613281250e+01 -9.425850510597229004e-01 4.942275524139404297e+00 1.199907183647155762e+00 6.235803961753845215e-01
5.019000000000000000e+03 7.092079162597656250e+01 -2.985249710083007812e+01 -1.005928158760070801e+00 7.279382228851318359e+00 1.882036209106445312e+00 -1.477902531623840332e-01
5.020000000000000000e+03 7.180110931396484375e+01 -3.583814239501953125e+01 -3.118102252483367920e-01 6.951931476593017578e+00 1.992036342620849609e+00 1.432856321334838867e-01
5.021000000000000000e+03 7.225949287414550781e+00 3.487704849243164062e+01 3.673523291945457458e-02 -9.699925035238265991e-02 -1.807920634746551514e-02 8.805372565984725952e-02
5.022000000000000000e+03 3.418262100219726562e+01 2.586471176147460938e+01 -2.107195369899272919e-02 1.900680422782897949e+00 5.638825297355651855e-01 -8.880544900894165039e-01
5.023000000000000000e+03 5.443335342407226562e+01 -3.995497131347656250e+01 3.905508220195770264e-01 1.311415314674377441e+00 5.105898380279541016e-01 -3.178987503051757812e-01
5.024000000000000000e+03 3.143674468994140625e+01 -4.119593811035156250e+01 -3.669067919254302979e-01 2.522448778152465820e+00 6.466626524925231934e-01 1.369342505931854248e-01
5.025000000000000000e+03 3.459059524536132812e+01 -3.979922866821289062e+01 -7.018717527389526367e-01 3.365099906921386719e+00 7.989684939384460449e-01 3.111435174942016602e-01
5.026000000000000000e+03 4.733813858032226562e+01 2.555334281921386719e+01 -8.144434094429016113e-01 5.225262641906738281e+00 1.323245763778686523e+00 4.988103806972503662e-01
5.027000000000000000e+03 4.911591720581054688e+01 2.567258071899414062e+01 -8.583991527557373047e-01 5.093748569488525391e+00 1.270604848861694336e+00 9.763743281364440918e-01
5.028000000000000000e+03 7.367266082763671875e+01 7.684045791625976562e+00 -3.012796044349670410e-01 7.804522037506103516e+00 2.250972747802734375e+00 -7.937673330307006836e-01
5.029000000000000000e+03 7.181758117675781250e+01 9.101114273071289062e+00 -1.672075241804122925e-01 8.112585067749023438e+00 2.383613109588623047e+00 -6.118510961532592773e-01
5.030000000000000000e+03 7.369277191162109375e+01 1.027324867248535156e+01 1.364491283893585205e-01 7.956709384918212891e+00 2.427947521209716797e+00 -8.913611769676208496e-01
5.031000000000000000e+03 6.602819824218750000e+01 -7.373097419738769531e+00 -1.125585734844207764e-01 4.501819133758544922e+00 1.316778182983398438e+00 -1.263313174247741699e+00
5.032000000000000000e+03 4.921274948120117188e+01 -4.109336376190185547e+00 2.872966602444648743e-02 4.707862377166748047e+00 1.420977592468261719e+00 -2.897922322154045105e-02
5.033000000000000000e+03 5.061567306518554688e+01 -4.841764450073242188e+00 -2.472043782472610474e-02 2.557293653488159180e+00 7.597719430923461914e-01 -9.827826172113418579e-02
5.034000000000000000e+03 5.245650100708007812e+01 -2.886131048202514648e+00 1.950938582420349121e+00 9.469026327133178711e-01 8.693523406982421875e-01 -1.020015835762023926e+00
5.035000000000000000e+03 5.175836944580078125e+01 -3.051238059997558594e+00 1.741008400917053223e+00 1.603862166404724121e+00 1.003461122512817383e+00 -8.911545872688293457e-01
5.036000000000000000e+03 6.732447814941406250e+01 -8.921397209167480469e+00 -3.100682497024536133e-01 6.033761978149414062e+00 1.717108130455017090e+00 -1.290934562683105469e+00
5.037000000000000000e+03 2.712286376953125000e+01 -9.120908737182617188e+00 -1.827735602855682373e-01 -8.576946705579757690e-02 -8.056290447711944580e-02 -3.058213889598846436e-01
5.038000000000000000e+03 4.481058120727539062e+01 -3.336658239364624023e+00 -4.079991579055786133e-01 9.986345291137695312e+00 2.873503923416137695e+00 5.590264201164245605e-01
5.039000000000000000e+03 6.443253326416015625e+01 -2.394404858350753784e-01 6.105496734380722046e-02 2.860488891601562500e+00 8.764631748199462891e-01 -1.673479005694389343e-02
5.040000000000000000e+03 7.662338256835937500e+00 -7.308514595031738281e+00 -8.713489770889282227e-02 -1.220228336751461029e-02 -2.980115264654159546e-02 -2.090902477502822876e-01
5.041000000000000000e+03 4.507510375976562500e+01 1.901818466186523438e+01 1.717346757650375366e-01 6.798972129821777344e+00 2.091212034225463867e+00 4.479192197322845459e-02
5.042000000000000000e+03 6.333162307739257812e+01 -1.327015399932861328e+00 3.232686221599578857e-01 2.194454908370971680e+00 7.553170323371887207e-01 -2.740196585655212402e-01
5.043000000000000000e+03 6.756816864013671875e+01 4.462110519409179688e+00 -6.671733260154724121e-01 5.282745838165283203e+00 1.384671688079833984e+00 5.372092127799987793e-01
5.044000000000000000e+03 7.413299560546875000e+01 3.658292531967163086e+00 -4.666490554809570312e-01 7.564305305480957031e+00 2.129296779632568359e+00 -4.231505095958709717e-01
5.045000000000000000e+03 3.368578338623046875e+01 -1.231637859344482422e+01 7.321419715881347656e-01 8.194863200187683105e-01 4.654884934425354004e-01 -2.168850041925907135e-02
5.046000000000000000e+03 6.217055892944335938e+01 -2.610824823379516602e+00 5.674339532852172852e-01 1.551674723625183105e+00 6.357325911521911621e-01 -5.834667682647705078e-01
5.047000000000000000e+03 6.388951110839843750e+01 -1.717604160308837891e+00 2.280594110488891602e-01 2.546056270599365234e+00 8.322346806526184082e-01 -3.092616796493530273e-01
5.048000000000000000e+03 6.502359008789062500e+01 2.274043411016464233e-01 -7.958022505044937134e-02 3.246414899826049805e+00 9.500503540039062500e-01 9.675581008195877075e-02
5.049000000000000000e+03 7.385272979736328125e+01 -1.132634258270263672e+01 6.224180757999420166e-02 8.138249397277832031e+00 2.460147380828857422e+00 8.520981073379516602e-01
5.050000000000000000e+03 3.203806686401367188e+01 -1.051903533935546875e+01 4.179310500621795654e-01 9.770571440458297729e-02 1.546910405158996582e-01 -3.481902554631233215e-02
5.051000000000000000e+03 3.301714324951171875e+01 -1.186379814147949219e+01 7.047609686851501465e-01 4.654972851276397705e-01 3.510774672031402588e-01 -1.710259728133678436e-02
5.052000000000000000e+03 4.629373168945312500e+01 -2.894825458526611328e+00 9.868440032005310059e-02 8.762853622436523438e+00 2.658461570739746094e+00 1.051344126462936401e-01
5.053000000000000000e+03 4.157026290893554688e+01 -2.872813224792480469e+01 6.787571310997009277e-02 5.952797412872314453e+00 1.806201934814453125e+00 5.469388961791992188e-01
5.054000000000000000e+03 8.177973747253417969e+00 -1.201204681396484375e+01 -6.069801282137632370e-03 3.421148285269737244e-02 8.442504331469535828e-03 -2.167042940855026245e-01
5.055000000000000000e+03 8.903112411499023438e+00 -1.219284248352050781e+01 1.058233319781720638e-03 7.576115429401397705e-02 2.304581552743911743e-02 -1.986586749553680420e-01
5.056000000000000000e+03 2.998288154602050781e+01 -9.954920768737792969e+00 1.787413209676742554e-01 -2.350375503301620483e-01 -1.688886620104312897e-02 -2.193924039602279663e-01
5.057000000000000000e+03 4.089421081542968750e+01 -2.566360092163085938e+01 1.130781769752502441e+00 6.371827602386474609e+00 2.250782966613769531e+00 1.183967232704162598e+00
5.058000000000000000e+03 5.929129409790039062e+01 -3.250329256057739258e+00 9.444674849510192871e-01 2.621265053749084473e-01 3.619782030582427979e-01 -8.838644623756408691e-01
5.059000000000000000e+03 6.346658325195312500e+01 -5.836344242095947266e+00 3.167630136013031006e-01 2.395837068557739258e+00 8.137800097465515137e-01 -1.047423243522644043e+00
5.060000000000000000e+03 9.729855537414550781e+00 -1.062606239318847656e+01 -1.254013925790786743e-02 6.535178422927856445e-02 1.584349200129508972e-02 -1.929092854261398315e-01
5.061000000000000000e+03 1.081510639190673828e+01 -9.123950958251953125e+00 -3.525628149509429932e-02 5.973795428872108459e-02 7.344502024352550507e-03 -1.990543454885482788e-01
5.062000000000000000e+03 2.458902168273925781e+01 -9.681114196777343750e+00 -3.409756720066070557e-02 3.184604644775390625e-02 -6.754567730240523815e-04 -2.383919507265090942e-01
5.063000000000000000e+03 6.624588012695312500e+01 2.299572706222534180e+00 -4.127711057662963867e-01 4.101361274719238281e+00 1.106577038764953613e+00 4.064138233661651611e-01
5.064000000000000000e+03 7.269126129150390625e+01 1.561754345893859863e+00 -6.002756953239440918e-01 7.137289524078369141e+00 1.961104035377502441e+00 -1.417318135499954224e-01
5.065000000000000000e+03 5.938427925109863281e+00 -1.101848220825195312e+01 -1.785358786582946777e-02 -1.023614853620529175e-01 -3.606452047824859619e-02 -2.245960682630538940e-01
5.066000000000000000e+03 9.071075439453125000e+00 -1.159954643249511719e+01 -6.439649965614080429e-03 6.894550472497940063e-02 1.875175535678863525e-02 -1.988450735807418823e-01
5.067000000000000000e+03 3.650475692749023438e+01 -9.453340530395507812e+00 -1.545358449220657349e-01 2.556292772293090820e+00 7.205270528793334961e-01 6.943506598472595215e-01
5.068000000000000000e+03 3.864527893066406250e+01 -1.259913539886474609e+01 2.464264631271362305e-02 4.965127468109130859e+00 1.496931076049804688e+00 2.641839087009429932e-01
5.069000000000000000e+03 3.920543670654296875e+01 -1.412024593353271484e+01 2.479467988014221191e-01 5.584456920623779297e+00 1.749721050262451172e+00 2.399325221776962280e-01
5.070000000000000000e+03 4.136705780029296875e+01 1.993798065185546875e+01 2.495817467570304871e-02 5.067862987518310547e+00 1.527846336364746094e+00 -1.075932621955871582e+00
5.071000000000000000e+03 7.342412567138671875e+01 -2.265753364562988281e+01 3.919915556907653809e-01 8.737477302551269531e+00 2.738840579986572266e+00 -1.423931002616882324e+00
5.072000000000000000e+03 7.297343444824218750e+01 2.221340370178222656e+01 -1.477367579936981201e-01 8.130925178527832031e+00 2.394956588745117188e+00 7.874171137809753418e-01
5.073000000000000000e+03 7.837786674499511719e+00 -1.485654449462890625e+01 3.912553936243057251e-02 5.545591935515403748e-02 2.837443910539150238e-02 -2.146131545305252075e-01
5.074000000000000000e+03 7.272085189819335938e+00 2.145743751525878906e+01 -4.279833287000656128e-02 -6.623897235840559006e-03 -1.482666842639446259e-02 5.707391723990440369e-02
5.075000000000000000e+03 8.580619812011718750e+00 2.309162712097167969e+01 -5.666214972734451294e-02 2.917838050052523613e-03 -1.612329483032226562e-02 7.936716824769973755e-02
5.076000000000000000e+03 7.309436798095703125e+01 2.288329315185546875e+01 -3.377850353717803955e-01 8.076470375061035156e+00 2.321605682373046875e+00 7.031059265136718750e-01
5.077000000000000000e+03 1.357519149780273438e+01 2.122471618652343750e+01 -1.398690193891525269e-01 5.162637308239936829e-02 -2.647279389202594757e-02 4.243412613868713379e-02
5.078000000000000000e+03 2.949109077453613281e+01 -9.259510993957519531e+00 -7.773190736770629883e-02 -2.599943578243255615e-01 -1.013178750872612000e-01 -2.824691236019134521e-01
5.079000000000000000e+03 7.192497253417968750e+01 2.117245864868164062e+01 2.066588103771209717e-01 8.672772407531738281e+00 2.663829326629638672e+00 7.326554059982299805e-01
5.080000000000000000e+03 7.367201232910156250e+01 -2.323136329650878906e+01 1.698730289936065674e-01 8.649917602539062500e+00 2.645937204360961914e+00 -1.416775941848754883e+00
5.081000000000000000e+03 6.561128234863281250e+01 7.178225517272949219e-01 -2.070402652025222778e-01 3.611422061920166016e+00 1.021314501762390137e+00 1.831097602844238281e-01
5.082000000000000000e+03 5.933532238006591797e+00 -2.246577453613281250e+01 1.129496395587921143e-01 -2.200771123170852661e-01 -3.213823959231376648e-02 -6.384071707725524902e-02
5.083000000000000000e+03 5.955420494079589844e+00 -2.311994171142578125e+01 1.049299240112304688e-01 -2.233532369136810303e-01 -3.552699089050292969e-02 -4.539008438587188721e-02
5.084000000000000000e+03 3.655476760864257812e+01 -8.887626647949218750e+00 -2.698172330856323242e-01 2.560812711715698242e+00 6.872986555099487305e-01 8.069382905960083008e-01
5.085000000000000000e+03 6.910808086395263672e+00 2.373446846008300781e+01 -3.619322180747985840e-02 -2.030101232230663300e-02 -1.694826968014240265e-02 7.787540555000305176e-02
5.086000000000000000e+03 6.156147003173828125e+00 2.452757644653320312e+01 -2.716696821153163910e-02 -3.449148312211036682e-02 -1.849753595888614655e-02 7.903955876827239990e-02
5.087000000000000000e+03 7.335728454589843750e+01 2.630970382690429688e+01 -6.139624714851379395e-01 7.513325214385986328e+00 2.069808721542358398e+00 2.545877099037170410e-01
5.088000000000000000e+03 7.240866088867187500e+01 2.568520545959472656e+01 -7.631533741950988770e-01 7.577688694000244141e+00 2.044360637664794922e+00 1.524708271026611328e-01
5.089000000000000000e+03 5.973606586456298828e+00 -2.387479019165039062e+01 9.355074167251586914e-02 -2.334818989038467407e-01 -4.197934642434120178e-02 -2.504644729197025299e-02
5.090000000000000000e+03 7.419132232666015625e+01 1.619742965698242188e+01 9.417603015899658203e-01 7.861610889434814453e+00 2.641011476516723633e+00 -5.063963681459426880e-02
5.091000000000000000e+03 7.319872283935546875e+01 1.738193130493164062e+01 1.137389063835144043e+00 8.330231666564941406e+00 2.840286254882812500e+00 1.704494506120681763e-01
5.092000000000000000e+03 7.372222137451171875e+01 1.342139625549316406e+01 7.376686334609985352e-01 8.066225051879882812e+00 2.641167879104614258e+00 -5.684151649475097656e-01
5.093000000000000000e+03 6.824456691741943359e+00 1.483717060089111328e+01 -1.659801229834556580e-02 -3.364628413692116737e-03 -5.988792050629854202e-03 7.195682730525732040e-03
5.094000000000000000e+03 7.377893066406250000e+01 -1.535668945312500000e+01 1.066281437873840332e+00 8.386271476745605469e+00 2.835765838623046875e+00 3.664965629577636719e-01
5.095000000000000000e+03 7.348954772949218750e+01 -1.915769004821777344e+01 1.304224848747253418e+00 8.708974838256835938e+00 3.003959655761718750e+00 -7.457393407821655273e-01
5.096000000000000000e+03 7.301879882812500000e+01 -1.479225826263427734e+01 1.106779694557189941e+00 8.729347229003906250e+00 2.950838088989257812e+00 4.472166001796722412e-01
5.097000000000000000e+03 6.313484668731689453e+00 1.515972614288330078e+01 -1.525513269007205963e-02 -3.384201088920235634e-03 -5.591799970716238022e-03 8.841200731694698334e-03
5.098000000000000000e+03 7.403835296630859375e+01 1.894260215759277344e+01 7.896447181701660156e-01 7.937050819396972656e+00 2.618008613586425781e+00 5.784603357315063477e-01
5.099000000000000000e+03 7.266979217529296875e+01 -1.650911140441894531e+01 1.567378044128417969e+00 9.112071037292480469e+00 3.203834533691406250e+00 -2.751447260379791260e-02
5.100000000000000000e+03 7.405102539062500000e+01 -1.673647117614746094e+01 1.199966192245483398e+00 8.298503875732421875e+00 2.849540948867797852e+00 -1.268632127903401852e-03
5.101000000000000000e+03 6.871404647827148438e+00 -2.549991416931152344e+01 8.003068715333938599e-02 -1.348741650581359863e-01 -1.645304262638092041e-02 2.484495926182717085e-04
5.102000000000000000e+03 4.959686660766601562e+01 -4.660788059234619141e+00 -2.296239882707595825e-01 4.105512142181396484e+00 1.162766456604003906e+00 5.052857473492622375e-02
5.103000000000000000e+03 4.841114807128906250e+01 -3.652929544448852539e+00 1.780731528997421265e-01 5.941371917724609375e+00 1.835833549499511719e+00 -1.547776460647583008e-01
5.104000000000000000e+03 5.988687515258789062e+00 -8.805461883544921875e+00 -4.409138113260269165e-02 -7.691353559494018555e-02 -3.630147501826286316e-02 -2.128757983446121216e-01
5.105000000000000000e+03 5.930131435394287109e+00 -9.528269767761230469e+00 -3.397946804761886597e-02 -8.799244463443756104e-02 -3.659157454967498779e-02 -2.178170979022979736e-01
5.106000000000000000e+03 7.384426879882812500e+01 1.975022125244140625e+01 6.646209359169006348e-01 7.997282981872558594e+00 2.598571062088012695e+00 7.068040966987609863e-01
5.107000000000000000e+03 7.324355316162109375e+01 1.084637546539306641e+01 2.774075865745544434e-01 8.131162643432617188e+00 2.522571086883544922e+00 -8.328871726989746094e-01
5.108000000000000000e+03 7.343701934814453125e+01 -1.307522106170654297e+01 5.269948840141296387e-01 8.412226676940917969e+00 2.681766271591186523e+00 7.458944320678710938e-01
5.109000000000000000e+03 7.355484771728515625e+01 -1.385739707946777344e+01 7.392806410789489746e-01 8.408831596374511719e+00 2.744433641433715820e+00 6.581286787986755371e-01
5.110000000000000000e+03 7.203027343750000000e+01 6.431290626525878906e+00 -5.703014731407165527e-01 7.573135852813720703e+00 2.100850343704223633e+00 -4.762023687362670898e-01
5.111000000000000000e+03 7.173045349121093750e+01 5.873853206634521484e+00 -6.453665494918823242e-01 7.409553050994873047e+00 2.029256105422973633e+00 -3.685559928417205811e-01
5.112000000000000000e+03 7.399633789062500000e+01 -1.212855148315429688e+01 2.413093894720077515e-01 8.155344963073730469e+00 2.518996477127075195e+00 8.451318740844726562e-01
5.113000000000000000e+03 7.331199645996093750e+01 1.799836277961730957e+00 -5.432952046394348145e-01 7.319952964782714844e+00 2.032997369766235352e+00 -1.912520378828048706e-01
5.114000000000000000e+03 7.350000000000000000e+01 3.783319950103759766e+00 -5.216862559318542480e-01 7.478770732879638672e+00 2.087125301361083984e+00 -3.961279988288879395e-01
5.115000000000000000e+03 7.330987548828125000e+01 -1.331497311592102051e+00 -5.049593448638916016e-01 7.249254226684570312e+00 2.023288488388061523e+00 6.063437461853027344e-02
5.116000000000000000e+03 7.257433319091796875e+01 -2.401440143585205078e+00 -5.457721948623657227e-01 7.101934432983398438e+00 1.966848611831665039e+00 9.869995713233947754e-02
5.117000000000000000e+03 3.200928878784179688e+01 -1.195459461212158203e+01 7.242805957794189453e-01 1.656704694032669067e-01 2.669853270053863525e-01 -2.966167777776718140e-02
5.118000000000000000e+03 7.407313537597656250e+01 -1.330403208732604980e+00 -4.429880082607269287e-01 7.452626705169677734e+00 2.102891683578491211e+00 6.624301522970199585e-02
5.119000000000000000e+03 7.350624847412109375e+01 -9.010312080383300781e+00 -3.398576378822326660e-01 7.954005718231201172e+00 2.284244537353515625e+00 6.934449672698974609e-01
5.120000000000000000e+03 7.347239685058593750e+01 -2.962966203689575195e+00 -4.887350499629974365e-01 7.352749824523925781e+00 2.059204339981079102e+00 1.868815720081329346e-01
5.121000000000000000e+03 7.323744964599609375e+01 -1.855442619323730469e+01 1.448468923568725586e+00 8.857229232788085938e+00 3.091709375381469727e+00 -5.793442130088806152e-01
5.122000000000000000e+03 7.358468627929687500e+01 -3.732739210128784180e+00 -4.829184710979461670e-01 7.426342010498046875e+00 2.083027124404907227e+00 2.451393604278564453e-01
5.123000000000000000e+03 7.366906738281250000e+01 -4.469072341918945312e+00 -4.810198545455932617e-01 7.502246379852294922e+00 2.106368064880371094e+00 3.228188753128051758e-01
5.124000000000000000e+03 7.308329772949218750e+01 -4.601950168609619141e+00 -5.323608517646789551e-01 7.390147209167480469e+00 2.057335853576660156e+00 2.738655507564544678e-01
5.125000000000000000e+03 7.378630828857421875e+01 -5.155467510223388672e+00 -4.680418372154235840e-01 7.567171573638916016e+00 2.129738807678222656e+00 3.896306753158569336e-01
5.126000000000000000e+03 7.339638519287109375e+01 7.034222602844238281e+00 -3.990595340728759766e-01 7.726551055908203125e+00 2.198247432708740234e+00 -7.054874897003173828e-01
5.127000000000000000e+03 7.394686889648437500e+01 8.284856796264648438e+00 -2.019584625959396362e-01 7.803692340850830078e+00 2.280520200729370117e+00 -8.512617945671081543e-01
5.128000000000000000e+03 7.322466278076171875e+01 -5.423066616058349609e+00 -5.167161226272583008e-01 7.507078647613525391e+00 2.097108840942382812e+00 3.616378307342529297e-01
5.129000000000000000e+03 7.341861724853515625e+01 -5.401758551597595215e-01 -4.990112483501434326e-01 7.282005786895751953e+00 2.034898281097412109e+00 -3.995159175246953964e-03
5.130000000000000000e+03 7.412181091308593750e+01 2.389605343341827393e-01 -4.434608221054077148e-01 7.451760768890380859e+00 2.102489948272705078e+00 -7.387731224298477173e-02
5.131000000000000000e+03 7.403379058837890625e+01 2.828938484191894531e+00 -4.791627228260040283e-01 7.504161357879638672e+00 2.107499599456787109e+00 -3.219075500965118408e-01
5.132000000000000000e+03 7.201212310791015625e+01 -9.953578948974609375e+00 -3.068748414516448975e-01 8.214632034301757812e+00 2.372327089309692383e+00 4.973058998584747314e-01
5.133000000000000000e+03 7.038652038574218750e+01 -9.935381889343261719e+00 -4.129342138767242432e-01 8.149353027343750000e+00 2.320925712585449219e+00 -5.609363690018653870e-02
5.134000000000000000e+03 7.310772705078125000e+01 -6.799266338348388672e+00 -5.106732845306396484e-01 7.659254074096679688e+00 2.144574165344238281e+00 4.569891989231109619e-01
5.135000000000000000e+03 7.407849121093750000e+01 -6.877863407135009766e+00 -4.124681949615478516e-01 7.739215850830078125e+00 2.198024272918701172e+00 5.762448906898498535e-01
5.136000000000000000e+03 7.254879760742187500e+01 8.290127754211425781e+00 -2.994858026504516602e-01 7.898166656494140625e+00 2.279604196548461914e+00 -7.049994468688964844e-01
5.137000000000000000e+03 7.387394714355468750e+01 -8.319708824157714844e+00 -3.574270009994506836e-01 7.865084171295166016e+00 2.252297163009643555e+00 6.873682737350463867e-01
5.138000000000000000e+03 7.345773315429687500e+01 2.114373892545700073e-01 -4.958466589450836182e-01 7.302395343780517578e+00 2.041964530944824219e+00 -5.807757005095481873e-02
5.139000000000000000e+03 6.808184814453125000e+01 3.941208362579345703e+00 -6.998111009597778320e-01 5.531262397766113281e+00 1.449435472488403320e+00 4.052986204624176025e-01
5.140000000000000000e+03 7.310745239257812500e+01 9.832038879394531250e+00 3.935556486248970032e-02 8.057028770446777344e+00 2.428915262222290039e+00 -8.326123356819152832e-01
5.141000000000000000e+03 7.172827911376953125e+01 8.203808784484863281e+00 -3.618996739387512207e-01 7.921700954437255859e+00 2.267940282821655273e+00 -5.459219813346862793e-01
5.142000000000000000e+03 6.684560394287109375e+01 2.843043088912963867e+00 -5.244799256324768066e-01 4.556229591369628906e+00 1.209524869918823242e+00 4.489244520664215088e-01
5.143000000000000000e+03 7.574936866760253906e+00 1.762849998474121094e+01 -3.366975486278533936e-02 -5.761482752859592438e-04 -1.027377136051654816e-02 2.168891206383705139e-02
5.144000000000000000e+03 6.293546199798583984e+00 -1.540052604675292969e+01 4.185479879379272461e-02 -9.403801709413528442e-02 -1.565496623516082764e-02 -2.188849300146102905e-01
5.145000000000000000e+03 5.945618152618408203e+00 -1.411354923248291016e+01 1.928034424781799316e-02 -1.187206655740737915e-01 -2.983209677040576935e-02 -2.251375764608383179e-01
5.146000000000000000e+03 6.983474731445312500e+00 -1.651825141906738281e+01 6.855309009552001953e-02 -1.900079473853111267e-02 1.486568804830312729e-02 -2.143142372369766235e-01
5.147000000000000000e+03 7.430785179138183594e+00 -1.182599163055419922e+01 -9.107843972742557526e-03 -1.578774489462375641e-02 -7.468676660209894180e-03 -2.262469530105590820e-01
5.148000000000000000e+03 7.985357284545898438e+00 -7.959450244903564453e+00 -7.663139700889587402e-02 -5.997787695378065109e-03 -2.478875592350959778e-02 -2.164260745048522949e-01
5.149000000000000000e+03 5.533869743347167969e+00 -1.206462574005126953e+01 -5.713087506592273712e-03 -1.347038745880126953e-01 -4.212508723139762878e-02 -2.234087884426116943e-01
5.150000000000000000e+03 5.834498882293701172e+00 -1.342569637298583984e+01 9.666641242802143097e-03 -1.246436089277267456e-01 -3.449308872222900391e-02 -2.249823808670043945e-01
5.151000000000000000e+03 8.033192634582519531e+00 -1.261895275115966797e+01 3.031210508197546005e-03 3.581176698207855225e-02 1.165289245545864105e-02 -2.176057398319244385e-01
5.152000000000000000e+03 6.562572956085205078e+00 -1.833380126953125000e+01 1.059706211090087891e-01 -7.940543442964553833e-02 7.969557307660579681e-03 -1.857406049966812134e-01
5.153000000000000000e+03 5.902282714843750000e+00 -1.025543212890625000e+01 -2.640440128743648529e-02 -9.745910763740539551e-02 -3.715905174612998962e-02 -2.214211523532867432e-01
5.154000000000000000e+03 6.819457530975341797e+00 -1.147626876831054688e+01 -1.284029241651296616e-02 -5.015464499592781067e-02 -1.889848150312900543e-02 -2.291321158409118652e-01
5.155000000000000000e+03 6.692571163177490234e+00 2.078464317321777344e+01 -3.448580577969551086e-02 -9.022084064781665802e-03 -1.305236760526895523e-02 4.735227674245834351e-02
5.156000000000000000e+03 6.007471561431884766e+00 1.756140518188476562e+01 -2.175203338265419006e-02 -5.152433179318904877e-03 -8.071339689195156097e-03 2.025893703103065491e-02
5.157000000000000000e+03 7.381309509277343750e+00 1.885900497436523438e+01 -3.739189356565475464e-02 -1.386218587867915630e-03 -1.163343433290719986e-02 3.110366500914096832e-02
5.158000000000000000e+03 6.435068607330322266e+00 1.578539085388183594e+01 -1.807141117751598358e-02 -3.764698281884193420e-03 -6.550833117216825485e-03 1.106348074972629547e-02
5.159000000000000000e+03 1.318708801269531250e+01 1.190003490447998047e+01 -6.313153542578220367e-03 -5.749365780502557755e-03 -3.618755843490362167e-03 -4.662078281398862600e-04
5.160000000000000000e+03 7.883616924285888672e+00 7.436117172241210938e+00 -9.519247396383434534e-05 -3.137070918455719948e-03 -9.696790366433560848e-04 -1.577531918883323669e-03
5.161000000000000000e+03 6.041680812835693359e+00 1.137892055511474609e+01 -4.094198346138000488e-03 -2.916980534791946411e-03 -2.103353617712855339e-03 -3.676363267004489899e-04
5.162000000000000000e+03 1.653877639770507812e+01 -8.959568023681640625e+00 1.688234880566596985e-02 1.368782967329025269e-01 4.612819105386734009e-02 -1.603633463382720947e-01
5.163000000000000000e+03 6.592576980590820312e+00 1.385479259490966797e+01 -1.142046879976987839e-02 -3.672255901619791985e-03 -4.527817480266094208e-03 4.269251599907875061e-03
5.164000000000000000e+03 1.183241176605224609e+01 1.410022830963134766e+01 -2.274161949753761292e-02 -3.380762645974755287e-03 -7.836714386940002441e-03 -2.844705246388912201e-03
5.165000000000000000e+03 8.290478706359863281e+00 -3.107286834716796875e+01 -1.980062574148178101e-02 -8.871164172887802124e-02 -3.255368024110794067e-02 8.568450575694441795e-04
5.166000000000000000e+03 6.476118469238281250e+01 -6.322572708129882812e+00 1.168959289789199829e-01 3.352770328521728516e+00 1.040899872779846191e+00 -1.133796691894531250e+00
5.167000000000000000e+03 7.737777233123779297e+00 2.790407371520996094e+01 -1.636635698378086090e-02 -4.090973734855651855e-02 -1.718282885849475861e-02 1.139180213212966919e-01
5.168000000000000000e+03 8.374098777770996094e+00 2.772589492797851562e+01 -2.349920570850372314e-02 -2.867718227207660675e-02 -1.565291732549667358e-02 1.170209348201751709e-01
5.169000000000000000e+03 7.219614410400390625e+01 -2.401067733764648438e+01 -2.241663187742233276e-01 8.964700698852539062e+00 2.622160434722900391e+00 -1.235118865966796875e+00
5.170000000000000000e+03 7.199192047119140625e+01 -2.535672760009765625e+01 -6.480125784873962402e-01 8.643170356750488281e+00 2.398547410964965820e+00 -1.004294157028198242e+00
5.171000000000000000e+03 7.674732208251953125e+00 -2.541090774536132812e+01 9.745503216981887817e-02 -3.597570210695266724e-02 1.844379864633083344e-02 -1.590079441666603088e-02
5.172000000000000000e+03 6.965550422668457031e+00 -2.633928489685058594e+01 5.747982114553451538e-02 -1.396974772214889526e-01 -2.466529421508312225e-02 8.653738535940647125e-03
5.173000000000000000e+03 9.547674179077148438e+00 -2.599464988708496094e+01 9.760622680187225342e-02 1.796289235353469849e-01 8.317054808139801025e-02 -5.468906834721565247e-02
5.174000000000000000e+03 7.274469757080078125e+01 -2.513004875183105469e+01 -4.861984848976135254e-01 8.669014930725097656e+00 2.454844951629638672e+00 -1.190933942794799805e+00
5.175000000000000000e+03 7.346398162841796875e+01 -2.698024368286132812e+01 -6.796335577964782715e-01 8.411693572998046875e+00 2.319617986679077148e+00 -1.004471063613891602e+00
5.176000000000000000e+03 7.252272033691406250e+01 2.368133544921875000e+01 -5.936970710754394531e-01 8.050683975219726562e+00 2.237096071243286133e+00 5.052777528762817383e-01
5.177000000000000000e+03 6.856611728668212891e+00 2.535944557189941406e+01 -2.962496690452098846e-02 -3.232441470026969910e-02 -1.858481392264366150e-02 9.137447178363800049e-02
5.178000000000000000e+03 6.896369934082031250e+00 2.457188415527343750e+01 -3.344363346695899963e-02 -2.580242604017257690e-02 -1.777381822466850281e-02 8.462907373905181885e-02
5.179000000000000000e+03 7.221765899658203125e+01 -1.421377372741699219e+01 1.069085955619812012e+00 9.071723937988281250e+00 3.042243003845214844e+00 4.554750621318817139e-01
5.180000000000000000e+03 5.784853363037109375e+01 -3.158200740814208984e+00 1.128832936286926270e+00 -1.434545516967773438e-01 2.956134974956512451e-01 -1.017545938491821289e+00
5.181000000000000000e+03 5.621733856201171875e+01 -3.925421953201293945e+00 1.022412896156311035e+00 -2.661085128784179688e-01 2.268913239240646362e-01 -1.258933186531066895e+00
5.182000000000000000e+03 1.504955577850341797e+01 -9.050727844238281250e+00 2.545259334146976471e-02 1.101385653018951416e-01 4.067734628915786743e-02 -1.831839233636856079e-01
5.183000000000000000e+03 1.518926811218261719e+01 -8.178135871887207031e+00 -6.202438846230506897e-02 1.047620102763175964e-01 1.282128691673278809e-02 -1.834077835083007812e-01
5.184000000000000000e+03 6.718687057495117188e+00 1.298602867126464844e+01 -9.518558159470558167e-03 -3.609310835599899292e-03 -3.938360605388879776e-03 1.960318069905042648e-03
5.185000000000000000e+03 7.241475677490234375e+01 2.436084747314453125e+01 -6.765694618225097656e-01 7.874580383300781250e+00 2.159403324127197266e+00 3.968932032585144043e-01
5.186000000000000000e+03 7.090650939941406250e+01 2.410798072814941406e+01 -9.248471856117248535e-01 7.925633430480957031e+00 2.100235939025878906e+00 -2.620613388717174530e-02
5.187000000000000000e+03 7.356419372558593750e+01 -2.076356506347656250e+01 9.821119904518127441e-01 8.682852745056152344e+00 2.899489402770996094e+00 -1.133855819702148438e+00
5.188000000000000000e+03 1.353201484680175781e+01 -7.100708484649658203e+00 -1.531596928834915161e-01 7.362358272075653076e-02 -2.386083267629146576e-02 -1.902024894952774048e-01
5.189000000000000000e+03 1.291749095916748047e+01 -8.045856475830078125e+00 -7.679042220115661621e-02 7.640653103590011597e-02 -1.151681572082452476e-04 -1.985458433628082275e-01
5.190000000000000000e+03 8.221763610839843750e+00 -6.935450553894042969e+00 -1.020844951272010803e-01 2.784452401101589203e-03 -2.979001402854919434e-02 -2.070042639970779419e-01
5.191000000000000000e+03 4.409883880615234375e+01 -8.763147354125976562e+00 -2.268036365509033203e+00 9.119672775268554688e+00 2.055490970611572266e+00 5.712530612945556641e-01
5.192000000000000000e+03 4.314241409301757812e+01 -8.820653915405273438e+00 -2.098389625549316406e+00 8.836844444274902344e+00 2.021536588668823242e+00 6.997038722038269043e-01
5.193000000000000000e+03 1.657158470153808594e+01 2.324089813232421875e+01 -2.281668931245803833e-01 7.431849837303161621e-02 -4.615451768040657043e-02 9.203406423330307007e-02
5.194000000000000000e+03 1.596275520324707031e+01 2.241749954223632812e+01 -2.151391953229904175e-01 7.463461905717849731e-02 -4.215137287974357605e-02 6.375291943550109863e-02
5.195000000000000000e+03 3.946367263793945312e+01 1.994816017150878906e+01 1.944595575332641602e-01 4.072661876678466797e+00 1.280136466026306152e+00 -1.351333498954772949e+00
5.196000000000000000e+03 5.963915634155273438e+01 -2.810778379440307617e+00 9.554487466812133789e-01 3.529700338840484619e-01 3.925256431102752686e-01 -7.863232493400573730e-01
5.197000000000000000e+03 6.087414932250976562e+01 -3.476776361465454102e+00 7.251340746879577637e-01 9.004315137863159180e-01 4.876696765422821045e-01 -7.930229902267456055e-01
5.198000000000000000e+03 4.641373062133789062e+01 -6.279132366180419922e+00 -2.202443838119506836e+00 8.257403373718261719e+00 1.816487908363342285e+00 6.611493229866027832e-01
5.199000000000000000e+03 3.855207061767578125e+01 -1.328207588195800781e+01 1.343404054641723633e-01 4.890987873077392578e+00 1.507598519325256348e+00 2.135237902402877808e-01
5.200000000000000000e+03 3.787257766723632812e+01 -1.312253093719482422e+01 1.876717060804367065e-01 4.258242607116699219e+00 1.333774209022521973e+00 1.730033755302429199e-01
5.201000000000000000e+03 7.397007942199707031e+00 -9.076940536499023438e+00 -5.024734511971473694e-02 -2.635617554187774658e-02 -2.298105694353580475e-02 -2.233093976974487305e-01
5.202000000000000000e+03 6.521703338623046875e+01 -7.257425785064697266e+00 5.518517270684242249e-02 3.781131267547607422e+00 1.150894880294799805e+00 -1.305100202560424805e+00
5.203000000000000000e+03 6.602032470703125000e+01 -8.063678741455078125e+00 -8.109497278928756714e-02 4.567259311676025391e+00 1.345849275588989258e+00 -1.411558032035827637e+00
5.204000000000000000e+03 3.873176193237304688e+01 -9.232386589050292969e+00 -7.954108715057373047e-01 4.936315536499023438e+00 1.242271423339843750e+00 1.085328459739685059e+00
5.205000000000000000e+03 5.976574325561523438e+01 -3.646783828735351562e+00 8.312679529190063477e-01 4.636642634868621826e-01 3.884796798229217529e-01 -8.705532550811767578e-01
5.206000000000000000e+03 4.086085510253906250e+01 -2.183938407897949219e+01 1.461361885070800781e+00 7.066989421844482422e+00 2.558505535125732422e+00 1.294404268264770508e+00
5.207000000000000000e+03 7.296209716796875000e+01 2.493131160736083984e+00 -5.754020810127258301e-01 7.271870136260986328e+00 2.008940458297729492e+00 -2.344608455896377563e-01
5.208000000000000000e+03 7.065082550048828125e+00 2.812935066223144531e+01 -1.391703356057405472e-02 -5.257317051291465759e-02 -1.994706131517887115e-02 1.081250384449958801e-01
5.209000000000000000e+03 6.686362266540527344e+00 2.737279129028320312e+01 -1.623686961829662323e-02 -5.174575373530387878e-02 -2.039478719234466553e-02 1.021631807088851929e-01
5.210000000000000000e+03 4.252809143066406250e+01 1.674359512329101562e+01 3.321317434310913086e-01 6.648271560668945312e+00 2.094120979309082031e+00 -8.795453906059265137e-01
5.211000000000000000e+03 4.704004287719726562e+01 -4.889624595642089844e+00 -1.222950816154479980e+00 7.611133575439453125e+00 1.916454792022705078e+00 3.798182606697082520e-01
5.212000000000000000e+03 6.618846893310546875e+01 1.249015808105468750e+00 -3.346725702285766602e-01 4.031859397888183594e+00 1.109156012535095215e+00 2.556754350662231445e-01
5.213000000000000000e+03 4.271439743041992188e+01 -1.204327487945556641e+01 -5.039145946502685547e-01 8.305208206176757812e+00 2.340388298034667969e+00 3.373732268810272217e-01
5.214000000000000000e+03 3.659830856323242188e+01 -1.263865470886230469e+01 3.414104580879211426e-01 3.052521944046020508e+00 1.018179774284362793e+00 1.020467951893806458e-01
5.215000000000000000e+03 6.745489501953125000e+01 3.390023469924926758e+00 -6.212345361709594727e-01 5.042345046997070312e+00 1.326333165168762207e+00 4.460432231426239014e-01
5.216000000000000000e+03 5.487397384643554688e+01 -4.139225006103515625e+00 9.909543991088867188e-01 -2.881441414356231689e-01 2.108430862426757812e-01 -1.309231877326965332e+00
5.217000000000000000e+03 7.094590759277343750e+01 -2.748237991333007812e+01 -1.072459101676940918e+00 7.882071018218994141e+00 2.042883634567260742e+00 -3.910215198993682861e-01
5.218000000000000000e+03 7.228443908691406250e+01 -2.483063125610351562e+01 -4.923526048660278320e-01 8.768804550170898438e+00 2.482935428619384766e+00 -1.153669238090515137e+00
5.219000000000000000e+03 8.213925361633300781e+00 -1.445597171783447266e+01 3.250726684927940369e-02 8.816915005445480347e-02 3.620292618870735168e-02 -2.081699520349502563e-01
5.220000000000000000e+03 1.141646099090576172e+01 -8.013952255249023438e+00 -8.173903822898864746e-02 6.057332456111907959e-02 -6.349713075906038284e-03 -2.070371061563491821e-01
5.221000000000000000e+03 1.252813148498535156e+01 -8.499135017395019531e+00 -4.878861084580421448e-02 7.270347326993942261e-02 7.174457423388957977e-03 -1.973751932382583618e-01
5.222000000000000000e+03 5.443363952636718750e+01 -3.703139305114746094e+00 1.280030965805053711e+00 -2.186916917562484741e-01 3.184017837047576904e-01 -1.258734345436096191e+00
5.223000000000000000e+03 4.367154693603515625e+01 -7.739647865295410156e+00 -2.411913871765136719e+00 9.184560775756835938e+00 2.031794071197509766e+00 8.119681477546691895e-01
5.224000000000000000e+03 7.215901184082031250e+01 8.623606681823730469e+00 -2.455759793519973755e-01 7.984264373779296875e+00 2.321606636047363281e+00 -6.638621091842651367e-01
5.225000000000000000e+03 7.088388824462890625e+01 7.134850502014160156e+00 -5.856255888938903809e-01 7.570985317230224609e+00 2.095607757568359375e+00 -2.758137583732604980e-01
5.226000000000000000e+03 7.286584472656250000e+01 1.142421054840087891e+01 4.487225413322448730e-01 8.278665542602539062e+00 2.618216514587402344e+00 -7.787203192710876465e-01
5.227000000000000000e+03 6.961866760253906250e+01 -1.093629455566406250e+01 -1.928458958864212036e-01 8.466358184814453125e+00 2.482053756713867188e+00 -4.228014945983886719e-01
5.228000000000000000e+03 7.070275115966796875e+01 -1.060655975341796875e+01 -2.360831350088119507e-01 8.485715866088867188e+00 2.474889993667602539e+00 1.054704263806343079e-01
5.229000000000000000e+03 7.184370422363281250e+01 7.310549259185791016e+00 -4.957670569419860840e-01 7.730150222778320312e+00 2.170315027236938477e+00 -5.125017762184143066e-01
5.230000000000000000e+03 4.547177505493164062e+01 -3.527661800384521484e+00 -4.874842762947082520e-01 9.452168464660644531e+00 2.689405202865600586e+00 3.762029707431793213e-01
5.231000000000000000e+03 2.543703460693359375e+01 -8.787898063659667969e+00 -2.333096563816070557e-01 3.618511930108070374e-02 -5.913735926151275635e-02 -2.440231591463088989e-01
5.232000000000000000e+03 4.473913574218750000e+01 -1.065435123443603516e+01 -1.415557146072387695e+00 9.185578346252441406e+00 2.331006526947021484e+00 4.057207405567169189e-01
5.233000000000000000e+03 4.415862274169921875e+01 -9.236397743225097656e+00 -2.122113466262817383e+00 9.077392578125000000e+00 2.086583852767944336e+00 4.915753901004791260e-01
5.234000000000000000e+03 1.466478538513183594e+01 2.198210334777832031e+01 -1.731000691652297974e-01 6.556775420904159546e-02 -3.225969150662422180e-02 5.545934662222862244e-02
5.235000000000000000e+03 4.034919357299804688e+01 -1.815120315551757812e+01 9.761232733726501465e-01 6.839313030242919922e+00 2.344630956649780273e+00 7.737303972244262695e-01
5.236000000000000000e+03 4.399755477905273438e+01 -9.737689018249511719e+00 -1.914731979370117188e+00 8.994434356689453125e+00 2.123910903930664062e+00 4.632782936096191406e-01
5.237000000000000000e+03 1.408512020111083984e+01 1.911835098266601562e+01 -1.141288131475448608e-01 3.158815577626228333e-02 -2.476219832897186279e-02 -3.218372585251927376e-03
5.238000000000000000e+03 6.690925121307373047e+00 1.726781082153320312e+01 -2.539169788360595703e-02 -3.544443286955356598e-03 -8.680841885507106781e-03 1.900364831089973450e-02
5.239000000000000000e+03 8.783315658569335938e+00 -9.280665397644042969e+00 -4.779363423585891724e-02 2.158146537840366364e-02 -7.863650098443031311e-03 -2.191265821456909180e-01
5.240000000000000000e+03 7.287151336669921875e+01 -2.697731208801269531e+01 -7.729390859603881836e-01 8.371343612670898438e+00 2.279521465301513672e+00 -9.346324205398559570e-01
5.241000000000000000e+03 3.464575195312500000e+01 -1.015808105468750000e+01 2.295256555080413818e-01 1.194436669349670410e+00 4.271886944770812988e-01 2.660869956016540527e-01
5.242000000000000000e+03 3.466739273071289062e+01 -1.199050712585449219e+01 5.646418929100036621e-01 1.469300627708435059e+00 6.101827621459960938e-01 6.577634811401367188e-02
5.243000000000000000e+03 8.193932533264160156e+00 -2.358560371398925781e+01 1.575486809015274048e-01 6.667059659957885742e-02 6.726577877998352051e-02 -6.273874640464782715e-02
5.244000000000000000e+03 7.669128417968750000e+00 1.048948001861572266e+01 -4.143147263675928116e-03 -4.153332207351922989e-03 -2.488943981006741524e-03 -9.199838968925178051e-04
5.245000000000000000e+03 7.316166687011718750e+01 -1.146222209930419922e+01 9.856073558330535889e-02 8.340105056762695312e+00 2.531599760055541992e+00 7.862554788589477539e-01
5.246000000000000000e+03 7.193798065185546875e+01 -1.262713241577148438e+01 4.792255759239196777e-01 8.881130218505859375e+00 2.808106660842895508e+00 5.583522319793701172e-01
5.247000000000000000e+03 1.101111698150634766e+01 -9.740202903747558594e+00 -8.908588439226150513e-03 6.900089234113693237e-02 1.802769117057323456e-02 -1.864871084690093994e-01
5.248000000000000000e+03 1.247299766540527344e+01 1.091217327117919922e+01 -4.108223132789134979e-03 -5.695601459592580795e-03 -2.941147424280643463e-03 4.363748012110590935e-04
5.249000000000000000e+03 1.311925029754638672e+01 1.741793060302734375e+01 -6.558980792760848999e-02 1.209462806582450867e-02 -1.604855246841907501e-02 -5.306658800691366196e-03
5.250000000000000000e+03 7.257978820800781250e+01 -9.366590499877929688e+00 -3.587321043014526367e-01 8.073519706726074219e+00 2.314436197280883789e+00 5.810238122940063477e-01
5.251000000000000000e+03 9.047846794128417969e+00 -3.214414596557617188e+01 -2.901946380734443665e-02 -4.486148059368133545e-02 -2.216428332030773163e-02 -2.409864589571952820e-02
5.252000000000000000e+03 4.038276290893554688e+01 -1.698478507995605469e+01 8.499112129211425781e-01 6.770736217498779297e+00 2.286194324493408203e+00 6.093553900718688965e-01
5.253000000000000000e+03 6.067212677001953125e+01 -5.220988273620605469e+00 5.479559302330017090e-01 8.868085741996765137e-01 4.304293394088745117e-01 -9.103298187255859375e-01
5.254000000000000000e+03 3.182002067565917969e+01 -9.874159812927246094e+00 2.475739717483520508e-01 -2.169071510434150696e-02 6.776497513055801392e-02 -7.160984724760055542e-02
5.255000000000000000e+03 6.873606109619140625e+01 -3.026871299743652344e+01 -1.101582884788513184e+00 6.052628993988037109e+00 1.485313773155212402e+00 3.946448862552642822e-01
5.256000000000000000e+03 7.116638946533203125e+01 -3.083296585083007812e+01 -8.791469335556030273e-01 7.207096576690673828e+00 1.898384928703308105e+00 -9.736027568578720093e-02
5.257000000000000000e+03 4.955429458618164062e+01 -3.345290184020996094e+00 8.497751355171203613e-01 4.424623489379882812e+00 1.582319617271423340e+00 -4.262394309043884277e-01
5.258000000000000000e+03 4.813750457763671875e+01 -3.048421144485473633e+00 5.592990517616271973e-01 6.426839828491210938e+00 2.095841646194458008e+00 -3.181486129760742188e-01
5.259000000000000000e+03 1.225614929199218750e+01 6.947010040283203125e+00 9.827051544561982155e-04 -2.892929594963788986e-03 -5.730673437938094139e-04 1.794775249436497688e-03
5.260000000000000000e+03 1.305900764465332031e+01 8.371550559997558594e+00 -4.535140469670295715e-04 -3.706895513460040092e-03 -1.248122891411185265e-03 1.763595151714980602e-03
5.261000000000000000e+03 6.854018688201904297e+00 1.052481651306152344e+01 -3.352567087858915329e-03 -3.473627613857388496e-03 -2.047858433797955513e-03 -9.567611850798130035e-04
5.262000000000000000e+03 4.099267578125000000e+01 -1.523402690887451172e+01 6.043043732643127441e-01 7.127695560455322266e+00 2.319600105285644531e+00 4.473743140697479248e-01
5.263000000000000000e+03 4.044620132446289062e+01 -1.481936931610107422e+01 4.485644102096557617e-01 6.638372421264648438e+00 2.126080989837646484e+00 3.798839747905731201e-01
5.264000000000000000e+03 4.133391952514648438e+01 -3.051144027709960938e+01 -3.663002550601959229e-01 5.573390483856201172e+00 1.562127113342285156e+00 3.609770238399505615e-01
5.265000000000000000e+03 3.990119552612304688e+01 -1.436975765228271484e+01 3.058688640594482422e-01 6.146554470062255859e+00 1.935727000236511230e+00 3.118492662906646729e-01
5.266000000000000000e+03 4.272711563110351562e+01 1.967617416381835938e+01 4.268707241863012314e-03 5.757270812988281250e+00 1.728461861610412598e+00 -7.611467242240905762e-01
5.267000000000000000e+03 4.241625976562500000e+01 -2.560762786865234375e+01 8.984605073928833008e-01 6.807403564453125000e+00 2.311759233474731445e+00 8.383795619010925293e-01
5.268000000000000000e+03 4.061182022094726562e+01 -2.492136955261230469e+01 1.263522267341613770e+00 6.405623435974121094e+00 2.300743579864501953e+00 1.303830862045288086e+00
5.269000000000000000e+03 9.565791130065917969e+00 -2.757176208496093750e+01 4.618694633245468140e-02 1.269406825304031372e-01 5.193829163908958435e-02 -4.160179197788238525e-02
5.270000000000000000e+03 4.021685028076171875e+01 -7.884117603302001953e+00 -1.463832378387451172e+00 6.605536937713623047e+00 1.542511343955993652e+00 1.468484401702880859e+00
5.271000000000000000e+03 6.230904769897460938e+01 3.367170715332031250e+01 4.917818605899810791e-01 3.219755172729492188e+00 1.113461136817932129e+00 -1.195618063211441040e-01
5.272000000000000000e+03 6.465907287597656250e+01 2.945971679687500000e+01 9.681108593940734863e-02 3.367094755172729492e+00 1.039171814918518066e+00 -8.343266248703002930e-01
5.273000000000000000e+03 7.000813484191894531e+00 8.232032775878906250e+00 -7.211909978650510311e-04 -2.897063735872507095e-03 -1.085476367734372616e-03 -1.940300688147544861e-03
5.274000000000000000e+03 7.038490295410156250e+01 2.315952682495117188e+01 -8.662104606628417969e-01 8.266035079956054688e+00 2.219947338104248047e+00 -4.580067843198776245e-02
5.275000000000000000e+03 7.190232086181640625e+01 2.242932891845703125e+01 -3.413060605525970459e-01 8.347043991088867188e+00 2.401721239089965820e+00 6.144160032272338867e-01
5.276000000000000000e+03 9.367023468017578125e+00 -3.458484268188476562e+01 -2.968622371554374695e-02 -7.261744141578674316e-02 -3.069110028445720673e-02 -3.629698231816291809e-02
5.277000000000000000e+03 3.183867263793945312e+01 -1.108310604095458984e+01 5.647506117820739746e-01 9.797603636980056763e-02 1.988179981708526611e-01 -3.948640823364257812e-02
5.278000000000000000e+03 6.002881622314453125e+01 -5.606079578399658203e+00 4.995159506797790527e-01 6.442294716835021973e-01 3.431236147880554199e-01 -9.415925741195678711e-01
5.279000000000000000e+03 4.227297592163085938e+01 -2.800192070007324219e+01 1.623563915491104126e-01 6.156969070434570312e+00 1.895797610282897949e+00 4.963646829128265381e-01
5.280000000000000000e+03 4.854687500000000000e+01 -4.917770385742187500e+00 -8.349472284317016602e-01 5.631063938140869141e+00 1.438835024833679199e+00 3.548811376094818115e-01
5.281000000000000000e+03 2.507764434814453125e+01 -9.359341621398925781e+00 -1.013453677296638489e-01 3.150824457406997681e-02 -2.095113694667816162e-02 -2.502296566963195801e-01
5.282000000000000000e+03 4.497576141357421875e+01 1.964637756347656250e+01 6.542752683162689209e-02 6.535280227661132812e+00 1.980212330818176270e+00 -4.471338912844657898e-02
5.283000000000000000e+03 4.226866912841796875e+01 1.898220443725585938e+01 8.058010786771774292e-02 5.715437889099121094e+00 1.738805413246154785e+00 -8.778009414672851562e-01
5.284000000000000000e+03 1.014594268798828125e+01 -7.046873092651367188e+00 -1.226476207375526428e-01 3.808552399277687073e-02 -2.536862902343273163e-02 -2.073744535446166992e-01
5.285000000000000000e+03 1.291094112396240234e+01 9.173110008239746094e+00 -7.280820282176136971e-04 -4.069704096764326096e-03 -1.439335872419178486e-03 2.045050030574202538e-03
5.286000000000000000e+03 2.715215110778808594e+01 -1.006617259979248047e+01 6.509558856487274170e-02 -9.659201651811599731e-02 -9.448926895856857300e-03 -2.849420011043548584e-01
5.287000000000000000e+03 2.768058204650878906e+01 -9.639188766479492188e+00 -3.610689938068389893e-02 -1.330409198999404907e-01 -5.074434354901313782e-02 -2.988195717334747314e-01
5.288000000000000000e+03 6.873754119873046875e+01 4.499044895172119141e+00 -7.528784275054931641e-01 6.037578582763671875e+00 1.585410118103027344e+00 3.085234761238098145e-01
5.289000000000000000e+03 7.337419128417968750e+01 5.876968860626220703e+00 -4.869699478149414062e-01 7.624756336212158203e+00 2.141335964202880859e+00 -6.069880127906799316e-01
5.290000000000000000e+03 1.227768039703369141e+01 8.381784439086914062e+00 -1.470847491873428226e-04 -3.879678435623645782e-03 -1.208028988912701607e-03 1.592795480974018574e-03
5.291000000000000000e+03 1.071483230590820312e+01 1.043949127197265625e+01 -4.831123165786266327e-03 -5.848003085702657700e-03 -3.203737782314419746e-03 -2.585516485851258039e-04
5.292000000000000000e+03 4.088762664794921875e+01 -1.426971721649169922e+01 3.497781157493591309e-01 6.914522647857666016e+00 2.179290056228637695e+00 3.515871465206146240e-01
5.293000000000000000e+03 1.265677070617675781e+01 1.000543785095214844e+01 -2.655558055266737938e-03 -5.120560061186552048e-03 -2.332835458219051361e-03 5.902033881284296513e-04
5.294000000000000000e+03 4.438063812255859375e+01 1.343621826171875000e+01 6.207283139228820801e-01 9.461627960205078125e+00 3.024706840515136719e+00 1.986040920019149780e-01
5.295000000000000000e+03 4.454748153686523438e+01 1.497689056396484375e+01 5.072052478790283203e-01 8.558680534362792969e+00 2.719765663146972656e+00 1.707675009965896606e-01
5.296000000000000000e+03 6.695400238037109375e+00 2.198503875732421875e+01 -3.684630244970321655e-02 -1.219565700739622116e-02 -1.471258699893951416e-02 5.946512892842292786e-02
5.297000000000000000e+03 7.242104339599609375e+01 -2.241327285766601562e+01 5.497528314590454102e-01 9.124773025512695312e+00 2.902357816696166992e+00 -1.360725402832031250e+00
5.298000000000000000e+03 6.552132129669189453e+00 1.650220489501953125e+01 -2.088945545256137848e-02 -3.387086326256394386e-03 -7.282962556928396225e-03 1.455205865204334259e-02
5.299000000000000000e+03 1.345459938049316406e+01 2.024815559387207031e+01 -1.272449344396591187e-01 4.308573529124259949e-02 -2.524776197969913483e-02 1.961361989378929138e-02
5.300000000000000000e+03 1.242553520202636719e+01 1.184579849243164062e+01 -8.197746239602565765e-03 -6.093457806855440140e-03 -4.287361167371273041e-03 -1.168077462352812290e-03
5.301000000000000000e+03 6.793859481811523438e+00 1.130922508239746094e+01 -5.174607038497924805e-03 -3.541701007634401321e-03 -2.614892320707440376e-03 -4.215535591356456280e-04
5.302000000000000000e+03 1.399990653991699219e+01 7.616374015808105469e+00 1.360618334729224443e-04 -2.203264273703098297e-03 -6.201607757247984409e-04 2.439480973407626152e-03
5.303000000000000000e+03 6.235888957977294922e+00 -2.112171173095703125e+01 1.282406896352767944e-01 -1.590173691511154175e-01 -9.233004413545131683e-03 -1.084308102726936340e-01
5.304000000000000000e+03 5.858778381347656250e+01 -4.796011924743652344e+00 6.119781136512756348e-01 1.831531822681427002e-01 2.385393977165222168e-01 -1.031974077224731445e+00
5.305000000000000000e+03 6.911533355712890625e+01 2.437611961364746094e+01 -1.221394777297973633e+00 7.311088085174560547e+00 1.826907992362976074e+00 -9.013702273368835449e-01
5.306000000000000000e+03 1.712206268310546875e+01 2.563281631469726562e+01 -1.354588270187377930e-01 6.502953171730041504e-02 -2.112879045307636261e-02 1.501656472682952881e-01
5.307000000000000000e+03 7.290704345703125000e+01 1.266678047180175781e+01 7.053312063217163086e-01 8.395455360412597656e+00 2.730236053466796875e+00 -6.278219819068908691e-01
5.308000000000000000e+03 7.296817016601562500e+01 -2.392053794860839844e+01 -8.464338630437850952e-02 8.816689491271972656e+00 2.619613885879516602e+00 -1.388717293739318848e+00
5.309000000000000000e+03 2.747479057312011719e+01 -1.056848049163818359e+01 2.049934267997741699e-01 -1.144718378782272339e-01 2.715647779405117035e-02 -2.641864120960235596e-01
5.310000000000000000e+03 4.529175186157226562e+01 -7.905714511871337891e+00 -2.606009006500244141e+00 9.050394058227539062e+00 1.933315515518188477e+00 6.338452100753784180e-01
5.311000000000000000e+03 4.407073974609375000e+01 -6.665790081024169922e+00 -2.389281034469604492e+00 9.445219039916992188e+00 2.116781473159790039e+00 8.399081230163574219e-01
5.312000000000000000e+03 4.335316848754882812e+01 -4.998469352722167969e+00 -1.690194368362426758e+00 9.940785408020019531e+00 2.475177288055419922e+00 1.132785439491271973e+00
5.313000000000000000e+03 6.768167877197265625e+01 2.592762947082519531e+01 -9.358919858932495117e-01 5.565455913543701172e+00 1.388869166374206543e+00 -1.417063474655151367e+00
5.314000000000000000e+03 6.712886333465576172e+00 -2.860369873046875000e+01 1.370440144091844559e-02 -1.923099607229232788e-01 -5.358166992664337158e-02 3.027961589395999908e-02
5.315000000000000000e+03 7.443296813964843750e+01 -2.169757652282714844e+01 5.587623119354248047e-01 8.332969665527343750e+00 2.667519569396972656e+00 -1.264949917793273926e+00
5.316000000000000000e+03 5.829410934448242188e+01 -3.850577592849731445e+00 9.084665775299072266e-01 1.940852589905261993e-02 2.783625423908233643e-01 -1.032303452491760254e+00
5.317000000000000000e+03 6.735187530517578125e+01 2.696228981018066406e+01 -6.900449991226196289e-01 5.045742034912109375e+00 1.306709051132202148e+00 -1.296754479408264160e+00
5.318000000000000000e+03 6.179548263549804688e+01 -5.555946350097656250e+00 4.702943265438079834e-01 1.395197510719299316e+00 5.596475601196289062e-01 -9.395201802253723145e-01
5.319000000000000000e+03 6.273984527587890625e+01 -4.014260292053222656e+00 4.509184956550598145e-01 1.963190078735351562e+00 7.242325544357299805e-01 -7.943297028541564941e-01
5.320000000000000000e+03 8.505264282226562500e+00 2.025632095336914062e+01 -5.449919030070304871e-02 6.248144432902336121e-03 -1.447531394660472870e-02 4.429294914007186890e-02
5.321000000000000000e+03 6.245009231567382812e+01 -5.008559703826904297e+00 4.552738368511199951e-01 1.790837407112121582e+00 6.738333702087402344e-01 -9.246750473976135254e-01
5.322000000000000000e+03 6.439738464355468750e+01 -4.277833461761474609e+00 1.713093817234039307e-01 3.024013280868530273e+00 9.585967659950256348e-01 -7.584374547004699707e-01
5.323000000000000000e+03 3.480608367919921875e+01 2.678969192504882812e+01 -7.758713513612747192e-02 2.099169015884399414e+00 6.064745187759399414e-01 -8.725004792213439941e-01
5.324000000000000000e+03 8.469122886657714844e+00 -2.528622055053710938e+01 1.133586540818214417e-01 7.208769768476486206e-02 5.563390254974365234e-02 -3.323429077863693237e-02
5.325000000000000000e+03 3.343663787841796875e+01 -1.119032382965087891e+01 5.456846952438354492e-01 6.318887472152709961e-01 3.532720208168029785e-01 4.563118517398834229e-02
5.326000000000000000e+03 7.047341156005859375e+01 2.896969604492187500e+01 -5.972252488136291504e-01 6.389310836791992188e+00 1.737625598907470703e+00 -5.162615180015563965e-01
5.327000000000000000e+03 7.337430572509765625e+01 2.996282768249511719e+01 -3.845230042934417725e-01 7.001544952392578125e+00 1.985106587409973145e+00 -1.118373200297355652e-01
5.328000000000000000e+03 6.867900848388671875e+01 -3.153935432434082031e+01 -9.099575281143188477e-01 5.773223876953125000e+00 1.458979845046997070e+00 4.042482078075408936e-01
5.329000000000000000e+03 4.355591583251953125e+01 1.575440502166748047e+01 3.909266591072082520e-01 7.765507221221923828e+00 2.446930170059204102e+00 -4.167985916137695312e-01
5.330000000000000000e+03 8.309686660766601562e+00 -2.440648651123046875e+01 1.383612602949142456e-01 6.569603085517883301e-02 6.121718510985374451e-02 -4.603092372417449951e-02
5.331000000000000000e+03 7.452038764953613281e+00 -2.372871971130371094e+01 1.347263902425765991e-01 -3.668408095836639404e-02 2.941269241273403168e-02 -4.762470349669456482e-02
5.332000000000000000e+03 7.013684844970703125e+01 3.226339721679687500e+01 -1.715038269758224487e-01 5.813594341278076172e+00 1.692627191543579102e+00 -4.942092299461364746e-01
5.333000000000000000e+03 4.334872817993164062e+01 2.034362602233886719e+01 -8.534164726734161377e-02 5.809285640716552734e+00 1.717183232307434082e+00 -5.734658241271972656e-01
5.334000000000000000e+03 6.841065979003906250e+01 -3.486856842041015625e+01 -3.888396024703979492e-01 5.175381660461425781e+00 1.435962557792663574e+00 4.405813813209533691e-01
5.335000000000000000e+03 8.335230827331542969e+00 2.961445236206054688e+01 1.848192187026143074e-03 -4.566420614719390869e-02 -1.314480416476726532e-02 1.221153214573860168e-01
5.336000000000000000e+03 6.976029205322265625e+01 -2.916392135620117188e+01 -1.163024187088012695e+00 6.913747787475585938e+00 1.725217103958129883e+00 1.020252406597137451e-01
5.337000000000000000e+03 6.035906219482421875e+01 3.149306297302246094e+01 4.948390126228332520e-01 2.532422065734863281e+00 9.081783294677734375e-01 2.477677464485168457e-01
5.338000000000000000e+03 1.181029891967773438e+01 -3.392555236816406250e+01 -2.863327413797378540e-02 1.014955863356590271e-01 2.185869403183460236e-02 -8.887752145528793335e-02
5.339000000000000000e+03 7.192485046386718750e+01 -2.952131080627441406e+01 -9.154573678970336914e-01 7.702630996704101562e+00 2.036152124404907227e+00 -3.659596145153045654e-01
5.340000000000000000e+03 7.250390625000000000e+01 -2.662183380126953125e+01 -7.618657350540161133e-01 8.386727333068847656e+00 2.287458419799804688e+00 -9.268292784690856934e-01
5.341000000000000000e+03 1.865274047851562500e+01 2.894288825988769531e+01 2.702379785478115082e-02 9.618608653545379639e-02 3.696296736598014832e-02 1.150410920381546021e-01
5.342000000000000000e+03 5.099780654907226562e+01 3.329747009277343750e+01 -3.560618162155151367e-01 3.540344715118408203e+00 9.552848935127258301e-01 7.873873710632324219e-01
5.343000000000000000e+03 5.011578369140625000e+01 2.884881782531738281e+01 -7.391083240509033203e-01 4.199958801269531250e+00 1.038255095481872559e+00 1.057678580284118652e+00
5.344000000000000000e+03 1.000536060333251953e+01 -2.888650894165039062e+01 1.395770255476236343e-02 1.249462589621543884e-01 4.167119041085243225e-02 -4.901153594255447388e-02
5.345000000000000000e+03 1.956425476074218750e+01 3.055909347534179688e+01 8.841152489185333252e-02 1.513694226741790771e-01 7.193428277969360352e-02 6.930246949195861816e-02
5.346000000000000000e+03 1.773204421997070312e+01 2.823512840270996094e+01 -1.050003618001937866e-02 8.000530302524566650e-02 2.085158042609691620e-02 1.414547562599182129e-01
5.347000000000000000e+03 6.372550964355468750e+01 3.151133155822753906e+01 3.515322804450988770e-01 3.290554523468017578e+00 1.092625975608825684e+00 -4.482977092266082764e-01
5.348000000000000000e+03 6.193670654296875000e+01 3.195504951477050781e+01 4.807452559471130371e-01 2.886597156524658203e+00 1.010202646255493164e+00 -1.231974586844444275e-01
5.349000000000000000e+03 2.246889114379882812e+01 -3.734182357788085938e+01 2.324788272380828857e-01 4.347858130931854248e-01 2.001793980598449707e-01 -4.828192293643951416e-02
5.350000000000000000e+03 1.232865333557128906e+01 -3.246988677978515625e+01 -2.636090666055679321e-02 1.700838953256607056e-01 4.311689734458923340e-02 -1.086117997765541077e-01
5.351000000000000000e+03 1.143353176116943359e+01 -3.081451416015625000e+01 -1.516679022461175919e-02 1.721502989530563354e-01 4.709505289793014526e-02 -8.853676170110702515e-02
5.352000000000000000e+03 4.264960861206054688e+01 2.097907638549804688e+01 -1.578524112701416016e-01 5.448748111724853516e+00 1.587268710136413574e+00 -7.442752122879028320e-01
5.353000000000000000e+03 3.739230728149414062e+01 2.517749404907226562e+01 -1.728727221488952637e-01 2.959900617599487305e+00 8.361083865165710449e-01 -9.961812496185302734e-01
5.354000000000000000e+03 6.984464263916015625e+01 -3.329824829101562500e+01 -6.158713698387145996e-01 6.127004146575927734e+00 1.653339862823486328e+00 2.621388435363769531e-01
5.355000000000000000e+03 1.076639366149902344e+01 3.355962753295898438e+01 5.219397693872451782e-02 -2.510114945471286774e-02 8.127847686409950256e-03 1.133723855018615723e-01
5.356000000000000000e+03 6.966619110107421875e+01 -3.979231643676757812e+01 1.129438802599906921e-01 5.612123489379882812e+00 1.717520236968994141e+00 1.158283203840255737e-01
5.357000000000000000e+03 2.240267944335937500e+01 -4.154529190063476562e+01 2.534664273262023926e-01 5.176160931587219238e-01 2.313247621059417725e-01 -6.409416440874338150e-03
5.358000000000000000e+03 2.029981040954589844e+01 -3.634708023071289062e+01 1.592533290386199951e-01 2.985083162784576416e-01 1.373284906148910522e-01 -1.656196117401123047e-01
5.359000000000000000e+03 2.091761779785156250e+01 2.897506332397460938e+01 6.643195450305938721e-02 1.283016353845596313e-01 5.842007696628570557e-02 5.112982913851737976e-02
5.360000000000000000e+03 1.522978782653808594e+01 -3.699215316772460938e+01 4.830873012542724609e-02 1.795236319303512573e-01 6.834971159696578979e-02 -1.268961429595947266e-01
5.361000000000000000e+03 7.197293090820312500e+01 -3.280921173095703125e+01 -6.333553791046142578e-01 7.225184917449951172e+00 1.977548956871032715e+00 -5.940197035670280457e-02
5.362000000000000000e+03 7.153530120849609375e+01 -3.179239654541015625e+01 -7.810932397842407227e-01 7.164763450622558594e+00 1.915101170539855957e+00 -8.403374254703521729e-02
5.363000000000000000e+03 7.004421997070312500e+01 3.493740844726562500e+01 5.686618760228157043e-02 5.675435543060302734e+00 1.719690561294555664e+00 -3.777223825454711914e-01
5.364000000000000000e+03 6.712756347656250000e+01 3.451374053955078125e+01 2.143263220787048340e-01 4.632067203521728516e+00 1.453918099403381348e+00 -4.103101193904876709e-01
5.365000000000000000e+03 4.833988952636718750e+01 2.830160713195800781e+01 -8.459964990615844727e-01 4.582406044006347656e+00 1.120922923088073730e+00 7.422129511833190918e-01
5.366000000000000000e+03 4.023085784912109375e+01 2.443655586242675781e+01 -3.432859778404235840e-01 3.971420526504516602e+00 1.088440418243408203e+00 -8.757367134094238281e-01
5.367000000000000000e+03 3.862250900268554688e+01 2.558326339721679688e+01 -2.942345738410949707e-01 3.348169326782226562e+00 9.161804318428039551e-01 -9.170729517936706543e-01
5.368000000000000000e+03 4.211022567749023438e+01 -3.175435066223144531e+01 -6.817721724510192871e-01 5.308382511138916016e+00 1.387983083724975586e+00 8.707322925329208374e-02
5.369000000000000000e+03 3.157575416564941406e+01 2.895324134826660156e+01 8.511582389473915100e-03 1.389030933380126953e+00 4.192627668380737305e-01 -6.364514231681823730e-01
5.370000000000000000e+03 4.572801208496093750e+01 2.493672561645507812e+01 -7.112736105918884277e-01 5.282535552978515625e+00 1.371378540992736816e+00 6.888665258884429932e-02
5.371000000000000000e+03 7.108838653564453125e+01 3.812887954711914062e+01 1.684334427118301392e-01 5.808514118194580078e+00 1.793084263801574707e+00 -2.155613303184509277e-01
5.372000000000000000e+03 7.277423858642578125e+01 1.951786428689956665e-01 -5.477175116539001465e-01 7.126024723052978516e+00 1.973492145538330078e+00 -5.020555853843688965e-02
5.373000000000000000e+03 7.273788452148437500e+01 -4.952593147754669189e-01 -5.485942959785461426e-01 7.112952709197998047e+00 1.969307541847229004e+00 -2.574455691501498222e-03
5.374000000000000000e+03 6.452501773834228516e+00 -1.255385398864746094e+01 5.683233030140399933e-04 -7.399450987577438354e-02 -2.202785573899745941e-02 -2.300369590520858765e-01
5.375000000000000000e+03 4.318865585327148438e+01 -1.009009361267089844e+01 -1.625248670578002930e+00 8.668145179748535156e+00 2.112868785858154297e+00 4.902026355266571045e-01
5.376000000000000000e+03 4.377053070068359375e+01 -1.029742527008056641e+01 -1.609137535095214844e+00 8.867514610290527344e+00 2.177513122558593750e+00 4.200612008571624756e-01
5.377000000000000000e+03 3.627548980712890625e+01 -1.090336132049560547e+01 1.371122151613235474e-01 2.593752145767211914e+00 8.192593455314636230e-01 4.013803303241729736e-01
5.378000000000000000e+03 4.264749908447265625e+01 -6.518072605133056641e+00 -2.216016769409179688e+00 9.102207183837890625e+00 2.065857172012329102e+00 1.266295909881591797e+00
5.379000000000000000e+03 3.392567825317382812e+01 -1.054460430145263672e+01 3.803504109382629395e-01 8.357235193252563477e-01 3.648221790790557861e-01 1.359989494085311890e-01
5.380000000000000000e+03 7.183691406250000000e+01 -2.599023818969726562e+01 -7.980579137802124023e-01 8.521317481994628906e+00 2.316977977752685547e+00 -9.009605646133422852e-01
5.381000000000000000e+03 6.280366897583007812e+01 -1.998596787452697754e+00 4.479049146175384521e-01 1.885856628417968750e+00 7.001284360885620117e-01 -4.407499432563781738e-01
5.382000000000000000e+03 7.036371231079101562e+00 7.481384277343750000e+00 1.480460923630744219e-04 -2.397426171228289604e-03 -6.748139858245849609e-04 -1.800948637537658215e-03
5.383000000000000000e+03 6.445597076416015625e+01 -2.016052246093750000e+00 1.386033445596694946e-01 2.924183130264282227e+00 9.188359379768371582e-01 -3.359688222408294678e-01
5.384000000000000000e+03 7.385656356811523438e+00 -1.439759445190429688e+01 2.923283725976943970e-02 8.438108488917350769e-03 1.130128372460603714e-02 -2.233982831239700317e-01
5.385000000000000000e+03 8.127093315124511719e+00 -1.374579811096191406e+01 2.052397839725017548e-02 6.256081163883209229e-02 2.492543682456016541e-02 -2.123721241950988770e-01
5.386000000000000000e+03 6.489334106445312500e+01 -7.320670485496520996e-01 3.618062939494848251e-03 3.175997734069824219e+00 9.538847208023071289e-01 -9.108617156744003296e-02
5.387000000000000000e+03 7.331225585937500000e+01 -7.943199634552001953e+00 -4.380412101745605469e-01 7.814897060394287109e+00 2.213056802749633789e+00 5.798435211181640625e-01
5.388000000000000000e+03 7.244704437255859375e+01 -6.454830646514892578e+00 -5.594550371170043945e-01 7.519187927246093750e+00 2.087919950485229492e+00 3.399513065814971924e-01
5.389000000000000000e+03 7.333544158935546875e+01 8.660179138183593750e+00 -1.761557757854461670e-01 7.911084651947021484e+00 2.320478677749633789e+00 -8.291739225387573242e-01
5.390000000000000000e+03 4.147607421875000000e+01 1.911464691162109375e+01 1.148747876286506653e-01 5.265207290649414062e+00 1.614024639129638672e+00 -1.116613507270812988e+00
5.391000000000000000e+03 7.223020935058593750e+01 2.174745178222656250e+01 -2.263319678604602814e-02 8.396583557128906250e+00 2.512185096740722656e+00 7.497332096099853516e-01
5.392000000000000000e+03 3.989830780029296875e+01 -1.647145271301269531e+01 6.959816813468933105e-01 6.349519252777099609e+00 2.113650321960449219e+00 4.940186440944671631e-01
5.393000000000000000e+03 7.233028888702392578e+00 1.415716075897216797e+01 -1.446620188653469086e-02 -3.372887149453163147e-03 -5.351726431399583817e-03 4.709838889539241791e-03
5.394000000000000000e+03 7.045724487304687500e+01 6.486599445343017578e+00 -6.742198467254638672e-01 7.287436008453369141e+00 1.983964920043945312e+00 -1.262183189392089844e-01
5.395000000000000000e+03 7.145774078369140625e+01 6.761571407318115234e+00 -5.833988189697265625e-01 7.554906368255615234e+00 2.091452360153198242e+00 -3.875824511051177979e-01
5.396000000000000000e+03 6.788074493408203125e+00 -1.459851169586181641e+01 3.013261966407299042e-02 -4.175350069999694824e-02 -3.486264962702989578e-03 -2.242792397737503052e-01
5.397000000000000000e+03 6.926693439483642578e+00 -1.518586254119873047e+01 4.253692552447319031e-02 -2.777247689664363861e-02 4.429335240274667740e-03 -2.223125249147415161e-01
5.398000000000000000e+03 8.782340049743652344e+00 -8.573591232299804688e+00 -6.462866067886352539e-02 1.518349256366491318e-02 -1.483354996889829636e-02 -2.186610102653503418e-01
5.399000000000000000e+03 3.701391220092773438e+01 -1.106479263305664062e+01 2.330852672457695007e-02 3.300050497055053711e+00 9.970077276229858398e-01 4.388739168643951416e-01
5.400000000000000000e+03 1.364660072326660156e+01 -9.096384048461914062e+00 1.689506508409976959e-02 8.661073446273803711e-02 3.105174005031585693e-02 -1.849609613418579102e-01
5.401000000000000000e+03 6.617879486083984375e+01 1.453954428434371948e-01 -2.625225484371185303e-01 4.018542766571044922e+00 1.126806020736694336e+00 9.375324100255966187e-02
5.402000000000000000e+03 6.759747982025146484e+00 2.611506462097167969e+01 -2.478544227778911591e-02 -3.962628915905952454e-02 -1.932351849973201752e-02 9.519453346729278564e-02
5.403000000000000000e+03 4.620333480834960938e+01 -3.642048835754394531e+00 -4.815925061702728271e-01 8.671774864196777344e+00 2.457054853439331055e+00 2.222131043672561646e-01
5.404000000000000000e+03 4.334746170043945312e+01 -6.747627735137939453e+00 -2.350008964538574219e+00 9.272758483886718750e+00 2.076824903488159180e+00 1.034266471862792969e+00
5.405000000000000000e+03 4.456027603149414062e+01 -3.953315496444702148e+00 -9.057493209838867188e-01 9.978363990783691406e+00 2.721784353256225586e+00 6.837869286537170410e-01
5.406000000000000000e+03 7.283995056152343750e+01 -2.302241897583007812e+01 2.390632778406143188e-01 8.929035186767578125e+00 2.750429630279541016e+00 -1.385737061500549316e+00
5.407000000000000000e+03 7.327039337158203125e+01 -2.348456192016601562e+01 7.750227302312850952e-02 8.743011474609375000e+00 2.646153926849365234e+00 -1.408594727516174316e+00
5.408000000000000000e+03 7.241519927978515625e+01 2.234815216064453125e+01 -2.737944424152374268e-01 8.308181762695312500e+00 2.410316228866577148e+00 6.796177029609680176e-01
5.409000000000000000e+03 7.396741485595703125e+01 2.125166130065917969e+01 2.136518210172653198e-01 7.957257270812988281e+00 2.451272726058959961e+00 8.598307371139526367e-01
5.410000000000000000e+03 4.740590667724609375e+01 -5.246949195861816406e+00 -1.356888413429260254e+00 7.239695072174072266e+00 1.764841914176940918e+00 4.101565778255462646e-01
5.411000000000000000e+03 4.788211441040039062e+01 -4.976605892181396484e+00 -1.046805024147033691e+00 6.567893028259277344e+00 1.656326413154602051e+00 3.343834280967712402e-01
5.412000000000000000e+03 7.600264072418212891e+00 2.549857711791992188e+01 -3.473331779241561890e-02 -2.353941649198532104e-02 -1.748182065784931183e-02 9.664054214954376221e-02
5.413000000000000000e+03 8.532499313354492188e+00 -2.820750045776367188e+01 2.575145661830902100e-02 -3.407616633921861649e-03 6.703151855617761612e-03 -9.689741767942905426e-03
5.414000000000000000e+03 9.544604301452636719e+00 -9.990392684936523438e+00 -2.560668624937534332e-02 4.917207732796669006e-02 7.069617509841918945e-03 -2.050306051969528198e-01
5.415000000000000000e+03 9.273370742797851562e+00 -1.099039077758789062e+01 -1.202308107167482376e-02 6.075344979763031006e-02 1.461911108344793320e-02 -1.990813016891479492e-01
5.416000000000000000e+03 6.546894836425781250e+01 -6.502624988555908203e+00 -3.157171979546546936e-02 3.966560602188110352e+00 1.180496692657470703e+00 -1.124950766563415527e+00
5.417000000000000000e+03 7.248687744140625000e+01 2.298200416564941406e+01 -4.201700389385223389e-01 8.125815391540527344e+00 2.311693668365478516e+00 6.276529431343078613e-01
5.418000000000000000e+03 6.164700317382812500e+01 -1.996852993965148926e+00 6.633737683296203613e-01 1.211965799331665039e+00 5.626018643379211426e-01 -4.938762187957763672e-01
5.419000000000000000e+03 6.569506835937500000e+01 -5.797749519348144531e+00 -7.217197865247726440e-02 4.060271739959716797e+00 1.196429967880249023e+00 -9.624159932136535645e-01
5.420000000000000000e+03 6.783815765380859375e+01 7.840683460235595703e-01 -5.130686759948730469e-01 5.054829120635986328e+00 1.362528085708618164e+00 1.480786204338073730e-01
5.421000000000000000e+03 4.078295898437500000e+01 -7.726745128631591797e+00 -1.701410174369812012e+00 7.299341678619384766e+00 1.679379463195800781e+00 1.472007632255554199e+00
5.422000000000000000e+03 7.230729675292968750e+01 3.439871072769165039e+00 -6.554007530212402344e-01 7.209650039672851562e+00 1.966274857521057129e+00 -2.570165395736694336e-01
5.423000000000000000e+03 5.898910522460937500e+01 -3.676475524902343750e+00 8.947933912277221680e-01 1.977556049823760986e-01 3.277646899223327637e-01 -9.500516653060913086e-01
5.424000000000000000e+03 7.312493896484375000e+01 1.390132331848144531e+01 9.363678097724914551e-01 8.376792907714843750e+00 2.793948173522949219e+00 -5.148403644561767578e-01
5.425000000000000000e+03 7.094760894775390625e+00 1.545331001281738281e+01 -1.927458867430686951e-02 -2.634314820170402527e-03 -6.572671234607696533e-03 9.519233368337154388e-03
5.426000000000000000e+03 4.345281982421875000e+01 2.332063674926757812e+01 -4.533695876598358154e-01 5.122923374176025391e+00 1.400866031646728516e+00 -4.721002280712127686e-01
5.427000000000000000e+03 4.037458801269531250e+01 2.088502311706542969e+01 -2.214443683624267578e-02 4.439934730529785156e+00 1.325337052345275879e+00 -1.144990563392639160e+00
5.428000000000000000e+03 8.427186965942382812e+00 2.568329429626464844e+01 -3.919708356261253357e-02 -1.559159159660339355e-02 -1.643660292029380798e-02 1.046985909342765808e-01
5.429000000000000000e+03 6.943446350097656250e+01 5.073696136474609375e+00 -7.695749998092651367e-01 6.535909175872802734e+00 1.729900240898132324e+00 1.618894487619400024e-01
5.430000000000000000e+03 7.276112365722656250e+01 -1.323875331878662109e+01 6.466602087020874023e-01 8.681512832641601562e+00 2.798451662063598633e+00 6.604679226875305176e-01
5.431000000000000000e+03 7.353147888183593750e+01 4.477389812469482422e+00 -5.175864696502685547e-01 7.531493663787841797e+00 2.104172229766845703e+00 -4.761495590209960938e-01
5.432000000000000000e+03 7.315798187255859375e+01 -9.759111404418945312e+00 -2.593460083007812500e-01 8.094912528991699219e+00 2.350669860839843750e+00 7.092651128768920898e-01
5.433000000000000000e+03 7.092244720458984375e+01 -1.130717849731445312e+01 -2.530375868082046509e-02 8.755321502685546875e+00 2.619005441665649414e+00 2.444878667593002319e-01
5.434000000000000000e+03 6.694518280029296875e+01 -6.677371978759765625e+00 -3.125462830066680908e-01 5.140706539154052734e+00 1.448448061943054199e+00 -9.767885804176330566e-01
5.435000000000000000e+03 7.225303649902343750e+01 3.987656593322753906e+00 -6.530276536941528320e-01 7.257223129272460938e+00 1.981258749961853027e+00 -2.929628789424896240e-01
5.436000000000000000e+03 7.248278808593750000e+01 -4.708468437194824219e+00 -5.638009905815124512e-01 7.277643680572509766e+00 2.014152765274047852e+00 2.292384356260299683e-01
5.437000000000000000e+03 7.299588012695312500e+01 -3.855433464050292969e+00 -5.262176394462585449e-01 7.315822124481201172e+00 2.036881446838378906e+00 2.220064401626586914e-01
5.438000000000000000e+03 7.001544189453125000e+01 -3.733824014663696289e+00 -5.928288698196411133e-01 6.346503734588623047e+00 1.726102471351623535e+00 -1.084654182195663452e-01
5.439000000000000000e+03 6.892474365234375000e+01 -7.611368179321289062e+00 -5.781636834144592285e-01 6.687490463256835938e+00 1.832798123359680176e+00 -5.570705533027648926e-01
5.440000000000000000e+03 7.163591766357421875e+01 -9.339228630065917969e+00 -4.419810771942138672e-01 8.063967704772949219e+00 2.286596059799194336e+00 3.491910994052886963e-01
5.441000000000000000e+03 6.590872955322265625e+01 -2.485201835632324219e+00 -1.218296289443969727e-01 3.923629522323608398e+00 1.140539884567260742e+00 -3.620525896549224854e-01
5.442000000000000000e+03 7.252659606933593750e+01 2.974160909652709961e+00 -6.229799389839172363e-01 7.213095664978027344e+00 1.977034687995910645e+00 -2.344303727149963379e-01
5.443000000000000000e+03 7.363177490234375000e+01 -7.297744274139404297e+00 -4.407997131347656250e-01 7.754208087921142578e+00 2.194022417068481445e+00 5.714910030364990234e-01
5.444000000000000000e+03 7.245829010009765625e+01 9.454319953918457031e+00 -5.486810952425003052e-02 8.080255508422851562e+00 2.407616138458251953e+00 -7.551851272583007812e-01
5.445000000000000000e+03 7.308374023437500000e+01 8.016309738159179688e+00 -3.052462935447692871e-01 7.830066680908203125e+00 2.257446050643920898e+00 -7.486010193824768066e-01
5.446000000000000000e+03 7.343998718261718750e+01 9.808214902877807617e-01 -5.138916373252868652e-01 7.310776233673095703e+00 2.039065361022949219e+00 -1.250066459178924561e-01
5.447000000000000000e+03 6.706463336944580078e+00 -8.924412727355957031e+00 -4.767828434705734253e-02 -5.091291666030883789e-02 -2.957735955715179443e-02 -2.203220427036285400e-01
5.448000000000000000e+03 6.569306850433349609e+00 -1.028689193725585938e+01 -2.798412181437015533e-02 -6.484026461839675903e-02 -2.784731425344944000e-02 -2.277177125215530396e-01
5.449000000000000000e+03 7.997867584228515625e+00 1.825712394714355469e+01 -3.875758498907089233e-02 1.853686524555087090e-03 -1.107116974890232086e-02 2.605484053492546082e-02
5.450000000000000000e+03 7.255106925964355469e+00 -1.251935482025146484e+01 -3.453370009083300829e-04 -1.986627280712127686e-02 -6.063482724130153656e-03 -2.274053096771240234e-01
5.451000000000000000e+03 1.016735649108886719e+01 -9.241284370422363281e+00 -3.771778568625450134e-02 5.134112760424613953e-02 4.087002482265233994e-03 -2.053642272949218750e-01
5.452000000000000000e+03 1.122893333435058594e+01 -8.712063789367675781e+00 -4.643492400646209717e-02 6.237571686506271362e-02 4.782237578183412552e-03 -2.005995512008666992e-01
5.453000000000000000e+03 6.621453285217285156e+00 -1.395942974090576172e+01 1.962411403656005859e-02 -6.013599783182144165e-02 -1.215356588363647461e-02 -2.259902656078338623e-01
5.454000000000000000e+03 1.017298221588134766e+01 -7.967216491699218750e+00 -8.686790615320205688e-02 4.021863266825675964e-02 -1.399478223174810410e-02 -2.111924141645431519e-01
5.455000000000000000e+03 8.015903472900390625e+00 -9.874983787536621094e+00 -3.757153823971748352e-02 3.996821469627320766e-04 -1.115155685693025589e-02 -2.235536128282546997e-01
5.456000000000000000e+03 6.570956230163574219e+00 -1.092255401611328125e+01 -2.070590481162071228e-02 -6.656630337238311768e-02 -2.618166245520114899e-02 -2.300606966018676758e-01
5.457000000000000000e+03 7.225285053253173828e+00 -1.037636184692382812e+01 -2.963966131210327148e-02 -2.959294617176055908e-02 -1.776978187263011932e-02 -2.277896106243133545e-01
5.458000000000000000e+03 7.332242965698242188e+00 2.015614128112792969e+01 -4.178489372134208679e-02 -2.435446484014391899e-03 -1.326610147953033447e-02 4.328213259577751160e-02
5.459000000000000000e+03 6.925486564636230469e+00 1.809542655944824219e+01 -2.984069660305976868e-02 -2.866366179659962654e-03 -9.812118485569953918e-03 2.506577223539352417e-02
5.460000000000000000e+03 6.908253669738769531e+00 9.751914978027343750e+00 -2.500430215150117874e-03 -3.327389713376760483e-03 -1.748346025124192238e-03 -1.520698540844023228e-03
5.461000000000000000e+03 7.338098526000976562e+00 1.693008041381835938e+01 -2.729878202080726624e-02 -1.667880685999989510e-03 -8.689998649060726166e-03 1.703187637031078339e-02
5.462000000000000000e+03 1.165544986724853516e+01 1.753293609619140625e+01 -6.043593958020210266e-02 1.211672462522983551e-02 -1.449576392769813538e-02 6.163520738482475281e-03
5.463000000000000000e+03 7.853830814361572266e+00 8.187425613403320312e+00 -4.971386515535414219e-04 -3.315554233267903328e-03 -1.143807894550263882e-03 -1.346842385828495026e-03
5.464000000000000000e+03 1.236576271057128906e+01 1.272998332977294922e+01 -1.156021561473608017e-02 -5.708096548914909363e-03 -5.180493462830781937e-03 -1.928559155203402042e-03
5.465000000000000000e+03 7.751805782318115234e+00 9.713315963745117188e+00 -2.512313425540924072e-03 -3.962925169616937637e-03 -1.942571601830422878e-03 -1.128500560298562050e-03
5.466000000000000000e+03 7.245467376708984375e+01 2.651654434204101562e+01 -7.414581775665283203e-01 7.429043769836425781e+00 2.006275653839111328e+00 6.527367234230041504e-02
5.467000000000000000e+03 7.166892242431640625e+01 2.426313209533691406e+01 -8.170548677444458008e-01 7.961511135101318359e+00 2.143337011337280273e+00 2.015638202428817749e-01
5.468000000000000000e+03 1.225645828247070312e+01 1.356574344635009766e+01 -1.737959682941436768e-02 -4.943065810948610306e-03 -6.696798838675022125e-03 -3.390280297026038170e-03
5.469000000000000000e+03 3.834503936767578125e+01 -9.810467720031738281e+00 -5.394243597984313965e-01 4.512065410614013672e+00 1.191792368888854980e+00 8.516137599945068359e-01
5.470000000000000000e+03 3.719189453125000000e+01 -1.025608158111572266e+01 -1.687870472669601440e-01 3.414965152740478516e+00 9.738534688949584961e-01 6.443694233894348145e-01
5.471000000000000000e+03 4.524954223632812500e+01 -4.166860580444335938e+00 -1.021447300910949707e+00 9.415834426879882812e+00 2.518316030502319336e+00 5.050821304321289062e-01
5.472000000000000000e+03 4.592378997802734375e+01 -4.336101055145263672e+00 -1.069016337394714355e+00 8.816981315612792969e+00 2.324389696121215820e+00 4.067431390285491943e-01
5.473000000000000000e+03 7.470850944519042969e+00 2.631225204467773438e+01 -2.840913645923137665e-02 -3.214983642101287842e-02 -1.816769316792488098e-02 1.025378331542015076e-01
5.474000000000000000e+03 8.196840286254882812e+00 2.711289405822753906e+01 -2.700541168451309204e-02 -2.742392383515834808e-02 -1.632880046963691711e-02 1.128399074077606201e-01
5.475000000000000000e+03 7.781989097595214844e+00 -2.630708694458007812e+01 6.606118381023406982e-02 -3.958260267972946167e-02 7.943575270473957062e-03 -4.512459039688110352e-03
5.476000000000000000e+03 7.109101867675781250e+01 -1.204925537109375000e+01 2.557490468025207520e-01 8.961470603942871094e+00 2.765165805816650391e+00 3.157154917716979980e-01
5.477000000000000000e+03 7.247740936279296875e+01 -1.162087535858154297e+01 1.374222338199615479e-01 8.518931388854980469e+00 2.596905946731567383e+00 6.777456998825073242e-01
5.478000000000000000e+03 3.954380798339843750e+01 -1.501887321472167969e+01 4.281521737575531006e-01 5.914797306060791016e+00 1.902884960174560547e+00 3.057144582271575928e-01
5.479000000000000000e+03 7.700119972229003906e+00 2.381383705139160156e+01 -4.341116920113563538e-02 -1.181918475776910782e-02 -1.656910590827465057e-02 8.306773006916046143e-02
5.480000000000000000e+03 7.668398380279541016e+00 2.467801475524902344e+01 -3.925906121730804443e-02 -1.791388355195522308e-02 -1.715188287198543549e-02 9.124118834733963013e-02
5.481000000000000000e+03 7.301675415039062500e+01 -2.549658393859863281e+01 -5.426177382469177246e-01 8.598749160766601562e+00 2.416839599609375000e+00 -1.182670354843139648e+00
5.482000000000000000e+03 6.007314300537109375e+01 -3.239855051040649414e+00 8.579670786857604980e-01 5.566422939300537109e-01 4.243828058242797852e-01 -7.989403605461120605e-01
5.483000000000000000e+03 6.301715087890625000e+01 -4.566031455993652344e+00 3.980116248130798340e-01 2.135052204132080078e+00 7.599191069602966309e-01 -8.681319952011108398e-01
5.484000000000000000e+03 7.156441497802734375e+01 2.497761344909667969e+01 -8.722551465034484863e-01 7.691304683685302734e+00 2.045714855194091797e+00 4.179116711020469666e-02
5.485000000000000000e+03 7.267078399658203125e+01 2.831495285034179688e+01 -5.865296125411987305e-01 7.116636276245117188e+00 1.959031939506530762e+00 -7.881605625152587891e-02
5.486000000000000000e+03 7.051463317871093750e+01 2.667099189758300781e+01 -9.234518408775329590e-01 6.952580928802490234e+00 1.808738708496093750e+00 -4.798920452594757080e-01
5.487000000000000000e+03 1.182059001922607422e+01 1.930324745178222656e+01 -8.675842732191085815e-02 2.553001418709754944e-02 -1.836852543056011200e-02 2.176376804709434509e-02
5.488000000000000000e+03 6.983963775634765625e+01 -1.034354877471923828e+01 -3.489194512367248535e-01 8.195976257324218750e+00 2.354117155075073242e+00 -2.952852249145507812e-01
5.489000000000000000e+03 6.958293151855468750e+01 -7.652450084686279297e+00 -6.041247844696044922e-01 7.013488292694091797e+00 1.922809123992919922e+00 -3.436147272586822510e-01
5.490000000000000000e+03 4.110507583618164062e+01 -1.111193752288818359e+01 -8.165059089660644531e-01 7.169846057891845703e+00 1.906002044677734375e+00 4.718647003173828125e-01
5.491000000000000000e+03 8.823833465576171875e+00 2.845688819885253906e+01 -1.363124232739210129e-02 -2.875772304832935333e-02 -1.271668914705514908e-02 1.240742206573486328e-01
5.492000000000000000e+03 8.071280479431152344e+00 2.868289375305175781e+01 -1.066378038376569748e-02 -4.203511774539947510e-02 -1.580966822803020477e-02 1.180204749107360840e-01
5.493000000000000000e+03 1.208147048950195312e+01 1.482842636108398438e+01 -2.729503624141216278e-02 -1.889387262053787708e-03 -8.755327202379703522e-03 -3.178473562002182007e-03
5.494000000000000000e+03 4.186423492431640625e+01 1.725534248352050781e+01 3.163601756095886230e-01 6.077382564544677734e+00 1.918122768402099609e+00 -1.137206077575683594e+00
5.495000000000000000e+03 7.119984436035156250e+01 3.154917001724243164e+00 -7.064465880393981934e-01 6.854773521423339844e+00 1.844498038291931152e+00 -1.105525493621826172e-01
5.496000000000000000e+03 7.140138244628906250e+01 2.153560256958007812e+01 1.840790174901485443e-02 8.704288482666015625e+00 2.616809129714965820e+00 5.892572402954101562e-01
5.497000000000000000e+03 5.008892822265625000e+01 -3.416874408721923828e+00 9.637083411216735840e-01 3.713098526000976562e+00 1.403042078018188477e+00 -5.395855307579040527e-01
5.498000000000000000e+03 7.258832454681396484e+00 -1.386353874206542969e+01 1.954225637018680573e-02 -8.289298973977565765e-03 3.375887172296643257e-03 -2.262109816074371338e-01
5.499000000000000000e+03 7.438534736633300781e+00 -2.896272277832031250e+01 8.483585901558399200e-03 -1.197433993220329285e-01 -3.337794542312622070e-02 1.567506790161132812e-02
5.500000000000000000e+03 4.181165695190429688e+01 -1.239616394042968750e+01 -3.256596624851226807e-01 7.624532699584960938e+00 2.189661979675292969e+00 3.591790497303009033e-01
5.501000000000000000e+03 2.604489517211914062e+01 -9.230797767639160156e+00 -1.509128212928771973e-01 -1.258176472038030624e-02 -4.904837533831596375e-02 -2.803313136100769043e-01
5.502000000000000000e+03 6.735540771484375000e+01 2.332945346832275391e+00 -5.555651187896728516e-01 4.867127895355224609e+00 1.293468832969665527e+00 3.459718227386474609e-01
5.503000000000000000e+03 7.218305206298828125e+01 -3.042601203918457031e+01 -8.256934881210327148e-01 7.626876354217529297e+00 2.040354728698730469e+00 -3.150115013122558594e-01
5.504000000000000000e+03 7.177135467529296875e+01 -2.763488769531250000e+01 -9.726743698120117188e-01 8.062159538269042969e+00 2.126845359802246094e+00 -5.963424444198608398e-01
5.505000000000000000e+03 4.184829330444335938e+01 -8.530987739562988281e+00 -1.870463132858276367e+00 8.077666282653808594e+00 1.862161040306091309e+00 9.745370149612426758e-01
5.506000000000000000e+03 4.047830200195312500e+01 -2.638165664672851562e+01 9.693759679794311523e-01 6.165060043334960938e+00 2.140330791473388672e+00 1.125801920890808105e+00
5.507000000000000000e+03 3.548612594604492188e+01 -1.152707290649414062e+01 3.861062824726104736e-01 2.019660949707031250e+00 7.217301726341247559e-01 1.928625404834747314e-01
5.508000000000000000e+03 4.284231185913085938e+01 -1.071126174926757812e+01 -1.225928664207458496e+00 8.413580894470214844e+00 2.156295776367187500e+00 4.029793441295623779e-01
5.509000000000000000e+03 7.252690887451171875e+01 2.087314414978027344e+01 3.843139111995697021e-01 8.390493392944335938e+00 2.632442235946655273e+00 8.187977075576782227e-01
5.510000000000000000e+03 7.153795623779296875e+01 2.060904312133789062e+01 5.890034437179565430e-01 8.808695793151855469e+00 2.819309949874877930e+00 6.765230298042297363e-01
5.511000000000000000e+03 6.620458984375000000e+01 -6.609865665435791016e+00 -1.684911996126174927e-01 4.539080619812011719e+00 1.311176776885986328e+00 -1.071580648422241211e+00
5.512000000000000000e+03 3.933370208740234375e+01 -1.330865097045898438e+01 9.417601674795150757e-02 5.598308086395263672e+00 1.707745194435119629e+00 2.551858425140380859e-01
5.513000000000000000e+03 9.648874282836914062e+00 8.071717262268066406e+00 -2.475461515132337809e-04 -4.031891934573650360e-03 -1.283831428736448288e-03 -2.571004733908921480e-04
5.514000000000000000e+03 1.142094612121582031e+01 7.795463562011718750e+00 2.537094114813953638e-04 -3.877016482874751091e-03 -1.086992211639881134e-03 9.723326656967401505e-04
5.515000000000000000e+03 7.255792236328125000e+01 1.912192535400390625e+01 1.096091747283935547e+00 8.572253227233886719e+00 2.900503396987915039e+00 5.275645256042480469e-01
5.516000000000000000e+03 7.561292648315429688e+00 1.126964473724365234e+01 -5.433646496385335922e-03 -4.190895240753889084e-03 -2.887362614274024963e-03 -2.583548484835773706e-04
5.517000000000000000e+03 7.061239624023437500e+01 2.945842027664184570e+00 -7.171798944473266602e-01 6.636085033416748047e+00 1.775671482086181641e+00 -3.251017257571220398e-02
5.518000000000000000e+03 6.839835166931152344e+00 -8.189222335815429688e+00 -6.137670204043388367e-02 -4.083505272865295410e-02 -3.066352754831314087e-02 -2.146528810262680054e-01
5.519000000000000000e+03 1.228299331665039062e+01 7.662697792053222656e+00 -7.253485091496258974e-05 -3.822219325229525566e-03 -1.168426242657005787e-03 1.454676850698888302e-03
5.520000000000000000e+03 1.316032791137695312e+01 7.572430610656738281e+00 7.124947733245790005e-04 -2.674812916666269302e-03 -5.886954604648053646e-04 2.419871045276522636e-03
5.521000000000000000e+03 6.335953903198242188e+01 -4.991358757019042969e+00 3.447550237178802490e-01 2.313227176666259766e+00 7.973946332931518555e-01 -9.415071606636047363e-01
5.522000000000000000e+03 6.383428955078125000e+01 -5.216615200042724609e+00 2.605623006820678711e-01 2.652826070785522461e+00 8.740164637565612793e-01 -9.546200633049011230e-01
5.523000000000000000e+03 7.264131164550781250e+01 -2.437224388122558594e+01 -2.636870443820953369e-01 8.831282615661621094e+00 2.570278644561767578e+00 -1.291577935218811035e+00
5.524000000000000000e+03 6.984989929199218750e+01 -3.015484237670898438e+01 -1.067521452903747559e+00 6.690141677856445312e+00 1.686786055564880371e+00 1.458891034126281738e-01
5.525000000000000000e+03 4.744836425781250000e+01 -3.396714925765991211e+00 -1.649804413318634033e-02 7.362874507904052734e+00 2.203912973403930664e+00 -3.296937420964241028e-02
5.526000000000000000e+03 8.808231353759765625e+00 -2.899860191345214844e+01 8.890362456440925598e-03 4.795792978256940842e-03 4.105846397578716278e-03 -1.407735701650381088e-02
5.527000000000000000e+03 8.684606552124023438e+00 -2.726176643371582031e+01 4.931175336241722107e-02 4.423086345195770264e-02 2.806278504431247711e-02 -1.765025965869426727e-02
5.528000000000000000e+03 4.357703399658203125e+01 -1.096042251586914062e+01 -1.169087171554565430e+00 8.773483276367187500e+00 2.281318902969360352e+00 3.573940992355346680e-01
5.529000000000000000e+03 4.367494583129882812e+01 -9.060315132141113281e+00 -2.125927448272705078e+00 8.988236427307128906e+00 2.058692693710327148e+00 5.934370160102844238e-01
5.530000000000000000e+03 4.366184997558593750e+01 1.799603462219238281e+01 1.904254853725433350e-01 6.653581142425537109e+00 2.053202152252197266e+00 -4.510240554809570312e-01
5.531000000000000000e+03 1.020691204071044922e+01 -3.317171096801757812e+01 -3.259170427918434143e-02 2.025935985147953033e-02 -3.699702909216284752e-03 -4.796016588807106018e-02
5.532000000000000000e+03 6.949707794189453125e+01 -8.417522430419921875e+00 -5.855225920677185059e-01 7.246688365936279297e+00 1.998349666595458984e+00 -4.030956327915191650e-01
5.533000000000000000e+03 7.276715850830078125e+01 -7.555314064025878906e+00 -5.092564821243286133e-01 7.735974788665771484e+00 2.168015480041503906e+00 4.731537699699401855e-01
5.534000000000000000e+03 6.678981781005859375e+01 2.796707725524902344e+01 -4.073941409587860107e-01 4.474247455596923828e+00 1.220055937767028809e+00 -1.183556556701660156e+00
5.535000000000000000e+03 2.682529449462890625e+01 -1.053863811492919922e+01 1.778286993503570557e-01 -7.204554975032806396e-02 3.173494338989257812e-02 -2.662558257579803467e-01
5.536000000000000000e+03 2.662027931213378906e+01 -9.662985801696777344e+00 -5.281586199998855591e-02 -5.770872533321380615e-02 -3.315737843513488770e-02 -2.885095775127410889e-01
5.537000000000000000e+03 4.670506668090820312e+01 -5.380425930023193359e+00 -1.667589306831359863e+00 7.985510349273681641e+00 1.895376324653625488e+00 5.359315276145935059e-01
5.538000000000000000e+03 4.801200103759765625e+01 -5.481147289276123047e+00 -1.397756576538085938e+00 6.312102317810058594e+00 1.474303603172302246e+00 5.013072490692138672e-01
5.539000000000000000e+03 4.855003356933593750e+01 -4.253650665283203125e+00 -3.543735444545745850e-01 5.652195453643798828e+00 1.589346528053283691e+00 1.071721836924552917e-01
5.540000000000000000e+03 4.431217575073242188e+01 -7.388428688049316406e+00 -2.507058382034301758e+00 9.277982711791992188e+00 2.031277418136596680e+00 7.444941401481628418e-01
5.541000000000000000e+03 6.999977874755859375e+01 -3.130439376831054688e+01 -9.184823036193847656e-01 6.543950080871582031e+00 1.687640309333801270e+00 1.627643704414367676e-01
5.542000000000000000e+03 1.054849815368652344e+01 7.952196121215820312e+00 -5.974435480311512947e-04 -4.323793109506368637e-03 -1.476371078751981258e-03 1.480511855334043503e-04
5.543000000000000000e+03 1.635978126525878906e+01 2.474412536621093750e+01 -1.703633219003677368e-01 6.970120221376419067e-02 -3.019863553345203400e-02 1.337413042783737183e-01
5.544000000000000000e+03 8.143447875976562500e+00 1.203863811492919922e+01 -8.395840413868427277e-03 -4.550660960376262665e-03 -3.883950412273406982e-03 5.745844682678580284e-04
5.545000000000000000e+03 6.142700195312500000e+01 -4.834922313690185547e+00 5.608347654342651367e-01 1.194944500923156738e+00 5.267337560653686523e-01 -8.901349902153015137e-01
5.546000000000000000e+03 6.210408782958984375e+01 -4.400594234466552734e+00 5.246330499649047852e-01 1.583084344863891602e+00 6.323152184486389160e-01 -8.429100513458251953e-01
5.547000000000000000e+03 6.682183837890625000e+01 -7.405511379241943359e+00 -2.771285474300384521e-01 5.208881378173828125e+00 1.479525923728942871e+00 -1.126196861267089844e+00
5.548000000000000000e+03 6.674193572998046875e+01 -8.102535247802734375e+00 -2.475411295890808105e-01 5.269342422485351562e+00 1.506540298461914062e+00 -1.273887395858764648e+00
5.549000000000000000e+03 1.163368701934814453e+01 1.096120357513427734e+01 -5.856825038790702820e-03 -5.953702609986066818e-03 -3.543158294633030891e-03 -2.485141740180552006e-04
5.550000000000000000e+03 3.321537017822265625e+01 -9.985257148742675781e+00 2.753202021121978760e-01 4.300948679447174072e-01 2.116245180368423462e-01 6.943169236183166504e-02
5.551000000000000000e+03 7.247350311279296875e+01 -2.603513145446777344e+01 -7.094861865043640137e-01 8.521313667297363281e+00 2.343548297882080078e+00 -1.004691004753112793e+00
5.552000000000000000e+03 7.001923370361328125e+01 5.755184650421142578e+00 -7.461374402046203613e-01 6.951568126678466797e+00 1.861629128456115723e+00 1.072279084473848343e-02
5.553000000000000000e+03 1.227464103698730469e+01 1.657539367675781250e+01 -4.893871396780014038e-02 6.208838429301977158e-03 -1.281896326690912247e-02 -2.056116005405783653e-03
5.554000000000000000e+03 8.429171562194824219e+00 1.675590324401855469e+01 -3.425649553537368774e-02 1.076620537787675858e-03 -9.953962638974189758e-03 1.438426598906517029e-02
5.555000000000000000e+03 4.458744049072265625e+01 2.027015495300292969e+01 -5.478028580546379089e-02 6.242380142211914062e+00 1.856279969215393066e+00 -2.078143656253814697e-01
5.556000000000000000e+03 5.906689071655273438e+01 -4.430986404418945312e+00 7.114415764808654785e-01 2.656130492687225342e-01 2.931163907051086426e-01 -9.912818074226379395e-01
5.557000000000000000e+03 6.039519500732421875e+01 -4.448583602905273438e+00 6.615966558456420898e-01 7.468029260635375977e-01 4.225198924541473389e-01 -8.970307707786560059e-01
5.558000000000000000e+03 1.161086750030517578e+01 9.157979011535644531e+00 -1.236672862432897091e-03 -4.706943873316049576e-03 -1.783085055649280548e-03 5.560682038776576519e-04
5.559000000000000000e+03 7.709306716918945312e+00 -2.812726211547851562e+01 2.483092807233333588e-02 -7.562348246574401855e-02 -1.523776724934577942e-02 1.107763871550559998e-02
5.560000000000000000e+03 1.115346431732177734e+01 1.432028007507324219e+01 -2.252625115215778351e-02 -2.818516455590724945e-03 -7.603430654853582382e-03 -1.130099641159176826e-03
5.561000000000000000e+03 1.087961006164550781e+01 1.188692951202392578e+01 -9.366394020617008209e-03 -5.640037823468446732e-03 -4.501929506659507751e-03 -7.679965347051620483e-04
5.562000000000000000e+03 7.230983734130859375e+01 -1.074985885620117188e+01 -1.208210363984107971e-01 8.382883071899414062e+00 2.478618621826171875e+00 6.218773126602172852e-01
5.563000000000000000e+03 4.174445724487304688e+01 2.598693275451660156e+01 -5.563058257102966309e-01 4.256006717681884766e+00 1.109910249710083008e+00 -6.016122698783874512e-01
5.564000000000000000e+03 4.525445938110351562e+01 2.303817176818847656e+01 -4.824518263339996338e-01 5.644199848175048828e+00 1.548524379730224609e+00 -7.849603891372680664e-02
5.565000000000000000e+03 1.198089694976806641e+01 9.702115058898925781e+00 -2.700747922062873840e-03 -5.239517427980899811e-03 -2.382079605013132095e-03 9.873565286397933960e-04
5.566000000000000000e+03 6.359863758087158203e+00 1.457644844055175781e+01 -1.364474277943372726e-02 -3.307437291368842125e-03 -5.085654091089963913e-03 5.834624636918306351e-03
5.567000000000000000e+03 7.014603424072265625e+01 2.386769294738769531e+01 -1.074800133705139160e+00 7.988187313079833984e+00 2.074016094207763672e+00 -3.098691403865814209e-01
5.568000000000000000e+03 7.125463104248046875e+01 2.282490921020507812e+01 -5.929170846939086914e-01 8.369692802429199219e+00 2.333032608032226562e+00 3.747119307518005371e-01
5.569000000000000000e+03 7.152197265625000000e+01 4.611545085906982422e+00 -7.009445428848266602e-01 7.183613777160644531e+00 1.944800853729248047e+00 -2.388800531625747681e-01
5.570000000000000000e+03 6.993957519531250000e+01 4.373780250549316406e+00 -7.692246437072753906e-01 6.619451522827148438e+00 1.755068063735961914e+00 5.469646677374839783e-02
5.571000000000000000e+03 7.298822021484375000e+01 6.494490146636962891e+00 -4.803801774978637695e-01 7.666502475738525391e+00 2.155836582183837891e+00 -6.187521219253540039e-01
5.572000000000000000e+03 7.295679473876953125e+01 2.917932128906250000e+01 -4.862679243087768555e-01 7.037147521972656250e+00 1.965263962745666504e+00 -1.167148798704147339e-01
5.573000000000000000e+03 6.861189270019531250e+01 2.629898262023925781e+01 -9.766967892646789551e-01 6.164802551269531250e+00 1.556431770324707031e+00 -1.100938200950622559e+00
5.574000000000000000e+03 7.164317321777343750e+01 2.866275978088378906e+01 -6.157926321029663086e-01 6.809428215026855469e+00 1.858090639114379883e+00 -3.087590634822845459e-01
5.575000000000000000e+03 6.885942840576171875e+01 2.529233360290527344e+01 -1.131031632423400879e+00 6.685094833374023438e+00 1.666218996047973633e+00 -1.069506406784057617e+00
5.576000000000000000e+03 7.243003845214843750e+01 3.061483573913574219e+01 -3.759858608245849609e-01 6.722672939300537109e+00 1.904006004333496094e+00 -2.609549462795257568e-01
5.577000000000000000e+03 4.295627212524414062e+01 1.849456024169921875e+01 1.238296180963516235e-01 6.181426525115966797e+00 1.891576766967773438e+00 -6.895987391471862793e-01
5.578000000000000000e+03 4.232020950317382812e+01 -7.148972988128662109e+00 -2.167934417724609375e+00 8.733548164367675781e+00 1.969684004783630371e+00 1.247411012649536133e+00
5.579000000000000000e+03 4.141434860229492188e+01 -7.753179550170898438e+00 -1.875743031501770020e+00 7.822573661804199219e+00 1.784049272537231445e+00 1.311340093612670898e+00
5.580000000000000000e+03 3.773590850830078125e+01 -1.126352500915527344e+01 -9.033779054880142212e-02 3.986464977264404297e+00 1.168838143348693848e+00 4.544264376163482666e-01
5.581000000000000000e+03 3.276183700561523438e+01 -1.072447681427001953e+01 4.725895226001739502e-01 3.169155716896057129e-01 2.368515282869338989e-01 -3.605889389291405678e-03
5.582000000000000000e+03 3.241297149658203125e+01 -1.140429878234863281e+01 6.201046705245971680e-01 2.376845777034759521e-01 2.573367655277252197e-01 -1.923405006527900696e-02
5.583000000000000000e+03 4.307610321044921875e+01 -7.394707679748535156e+00 -2.324279785156250000e+00 9.091961860656738281e+00 2.030304670333862305e+00 9.782243967056274414e-01
5.584000000000000000e+03 8.671143531799316406e+00 -2.625727081298828125e+01 8.027043938636779785e-02 6.915094703435897827e-02 4.482641816139221191e-02 -2.520387433469295502e-02
5.585000000000000000e+03 7.073434448242187500e+01 -2.886737823486328125e+01 -1.081563830375671387e+00 7.411857128143310547e+00 1.899088025093078613e+00 -1.863453686237335205e-01
5.586000000000000000e+03 1.685058021545410156e+01 2.738182067871093750e+01 -5.221291258931159973e-02 6.857293099164962769e-02 4.908006172627210617e-03 1.531646251678466797e-01
5.587000000000000000e+03 6.851970672607421875e+01 -3.308578491210937500e+01 -6.766352653503417969e-01 5.509316444396972656e+00 1.449804306030273438e+00 4.218575656414031982e-01
5.588000000000000000e+03 8.008723258972167969e+00 1.952005004882812500e+01 -4.582724347710609436e-02 3.172359662130475044e-03 -1.279646530747413635e-02 3.741774335503578186e-02
5.589000000000000000e+03 1.276915168762207031e+01 2.124531173706054688e+01 -1.252125650644302368e-01 4.619106650352478027e-02 -2.370645105838775635e-02 4.516653344035148621e-02
5.590000000000000000e+03 7.827574729919433594e+00 2.079568481445312500e+01 -4.703800380229949951e-02 6.303613190539181232e-04 -1.392229367047548294e-02 5.049996450543403625e-02
5.591000000000000000e+03 1.029765510559082031e+01 2.896199989318847656e+01 -8.649729192256927490e-03 -1.127012446522712708e-02 -5.975956097245216370e-03 1.340494006872177124e-01
5.592000000000000000e+03 8.418003082275390625e+00 3.071509361267089844e+01 1.009595673531293869e-02 -5.407083779573440552e-02 -1.319246366620063782e-02 1.168051138520240784e-01
5.593000000000000000e+03 4.226810073852539062e+01 -2.967452430725097656e+01 -2.901781797409057617e-01 5.762108802795410156e+00 1.641579151153564453e+00 2.576175928115844727e-01
5.594000000000000000e+03 1.568510150909423828e+01 2.382479095458984375e+01 -1.827849745750427246e-01 7.360963523387908936e-02 -3.275259956717491150e-02 1.094418019056320190e-01
5.595000000000000000e+03 9.545809745788574219e+00 -2.966185569763183594e+01 -4.285151604562997818e-03 5.735049769282341003e-02 1.591960340738296509e-02 -3.409794718027114868e-02
5.596000000000000000e+03 3.338109207153320312e+01 2.775679397583007812e+01 -3.769095614552497864e-02 1.746035814285278320e+00 5.125034451484680176e-01 -7.736186981201171875e-01
5.597000000000000000e+03 8.415726661682128906e+00 3.381148910522460938e+01 3.703757375478744507e-02 -6.860337406396865845e-02 -9.469741024076938629e-03 1.004837602376937866e-01
5.598000000000000000e+03 4.845862579345703125e+01 3.344927978515625000e+01 -5.395357012748718262e-01 3.774906158447265625e+00 9.706111550331115723e-01 5.596972703933715820e-01
5.599000000000000000e+03 7.118495178222656250e+01 3.350539779663085938e+01 -8.237528800964355469e-02 6.051829814910888672e+00 1.790836334228515625e+00 -3.791910707950592041e-01
5.600000000000000000e+03 1.095009326934814453e+01 -3.194200515747070312e+01 -2.697983384132385254e-02 1.051853075623512268e-01 2.346164174377918243e-02 -6.934621185064315796e-02
5.601000000000000000e+03 6.588056945800781250e+01 2.881952285766601562e+01 -1.543603688478469849e-01 3.946537494659423828e+00 1.137653112411499023e+00 -1.041399478912353516e+00
5.602000000000000000e+03 6.614066314697265625e+01 3.257198333740234375e+01 1.947124898433685303e-01 4.213962554931640625e+00 1.322602510452270508e+00 -5.638762712478637695e-01
5.603000000000000000e+03 5.896469116210937500e+01 3.649507904052734375e+01 4.806174635887145996e-01 3.113154888153076172e+00 1.078131675720214844e+00 2.630378603935241699e-01
5.604000000000000000e+03 5.762508010864257812e+01 3.109661102294921875e+01 3.038960397243499756e-01 2.473903179168701172e+00 8.333397507667541504e-01 8.321492075920104980e-01
5.605000000000000000e+03 3.159143447875976562e+01 2.597768211364746094e+01 4.556304588913917542e-02 1.187624454498291016e+00 3.699562549591064453e-01 -6.972343325614929199e-01
5.606000000000000000e+03 3.278860855102539062e+01 3.052911949157714844e+01 -6.242376565933227539e-02 1.695161223411560059e+00 4.898212552070617676e-01 -6.112672686576843262e-01
5.607000000000000000e+03 3.188408851623535156e+01 3.249239730834960938e+01 -4.645635560154914856e-02 1.613772511482238770e+00 4.701948463916778564e-01 -4.834409654140472412e-01
5.608000000000000000e+03 6.863951873779296875e+01 3.671556091308593750e+01 2.319106906652450562e-01 5.191040992736816406e+00 1.626885414123535156e+00 -2.763977646827697754e-01
5.609000000000000000e+03 1.208538246154785156e+01 3.525030136108398438e+01 8.752512931823730469e-02 2.422018907964229584e-03 2.698414400219917297e-02 9.490592032670974731e-02
5.610000000000000000e+03 2.277933120727539062e+01 -3.569182205200195312e+01 2.197600454092025757e-01 3.510136008262634277e-01 1.712321043014526367e-01 -4.822896793484687805e-02
5.611000000000000000e+03 1.912963485717773438e+01 3.221324920654296875e+01 1.239785999059677124e-01 1.846609264612197876e-01 9.259185940027236938e-02 6.706626713275909424e-02
5.612000000000000000e+03 4.655569458007812500e+01 2.724152946472167969e+01 -8.541874885559082031e-01 4.807665348052978516e+00 1.186043381690979004e+00 3.602669835090637207e-01
5.613000000000000000e+03 4.466725158691406250e+01 2.643871879577636719e+01 -7.568461298942565918e-01 4.810866832733154297e+00 1.216206192970275879e+00 -9.227494150400161743e-02
5.614000000000000000e+03 6.055670928955078125e+01 3.459927749633789062e+01 5.434296131134033203e-01 3.074665307998657227e+00 1.085428476333618164e+00 1.628829687833786011e-01
5.615000000000000000e+03 3.807313156127929688e+01 2.707254791259765625e+01 -3.247149586677551270e-01 3.111379861831665039e+00 8.359994292259216309e-01 -8.236085772514343262e-01
5.616000000000000000e+03 2.642119979858398438e+01 3.181713867187500000e+01 1.351666897535324097e-01 6.910617351531982422e-01 2.478685379028320312e-01 -2.453176677227020264e-01
5.617000000000000000e+03 4.555785369873046875e+01 2.888712120056152344e+01 -8.183218240737915039e-01 4.450044155120849609e+00 1.089516639709472656e+00 2.122578471899032593e-01
5.618000000000000000e+03 3.926160049438476562e+01 -3.817307281494140625e+01 -1.052765607833862305e+00 4.280475139617919922e+00 9.683127999305725098e-01 2.122512757778167725e-01
5.619000000000000000e+03 8.003601074218750000e+00 3.941738891601562500e+01 6.949744373559951782e-02 -1.016280651092529297e-01 -9.639184921979904175e-03 3.871894255280494690e-02
5.620000000000000000e+03 6.224150085449218750e+01 -4.120109176635742188e+01 6.495550870895385742e-01 2.082990884780883789e+00 8.197637796401977539e-01 8.191255480051040649e-02
5.621000000000000000e+03 6.476474761962890625e+01 -3.803143692016601562e+01 2.764908075332641602e-01 3.217639207839965820e+00 1.048238992691040039e+00 3.945350646972656250e-01
5.622000000000000000e+03 6.534019470214843750e+01 3.090382385253906250e+01 1.572499424219131470e-01 3.798753261566162109e+00 1.186800956726074219e+00 -6.972228288650512695e-01
5.623000000000000000e+03 6.434099578857421875e+01 3.328607559204101562e+01 3.824773430824279785e-01 3.668497800827026367e+00 1.215292572975158691e+00 -3.916894495487213135e-01
5.624000000000000000e+03 2.614184761047363281e+01 -3.936779403686523438e+01 1.804167777299880981e-01 1.046413302421569824e+00 3.680490255355834961e-01 1.585925519466400146e-01
5.625000000000000000e+03 4.994115829467773438e+01 -3.873509216308593750e+01 -3.632304072380065918e-01 2.520797729492187500e+00 6.472702026367187500e-01 -6.363880038261413574e-01
5.626000000000000000e+03 6.648514556884765625e+01 -3.654835891723632812e+01 -7.943134754896163940e-03 3.980379819869995117e+00 1.191730976104736328e+00 4.268120825290679932e-01
5.627000000000000000e+03 2.917371368408203125e+01 3.226474380493164062e+01 6.878610700368881226e-02 1.123822331428527832e+00 3.577825427055358887e-01 -3.764657974243164062e-01
5.628000000000000000e+03 4.261453628540039062e+01 -4.127876281738281250e+01 -1.128390431404113770e+00 4.129874706268310547e+00 9.004452228546142578e-01 -5.011446028947830200e-02
5.629000000000000000e+03 6.754924774169921875e+01 -7.473336696624755859e+00 -4.072996377944946289e-01 5.769850730895996094e+00 1.608765244483947754e+00 -9.650788307189941406e-01
5.630000000000000000e+03 6.478342437744140625e+01 -1.541128516197204590e+00 6.240914389491081238e-02 3.094918489456176758e+00 9.471982717514038086e-01 -2.419642210006713867e-01
5.631000000000000000e+03 3.554972839355468750e+01 -1.080958557128906250e+01 2.505749464035034180e-01 1.966385960578918457e+00 6.650882363319396973e-01 3.248758018016815186e-01
5.632000000000000000e+03 3.614203643798828125e+01 -1.167646217346191406e+01 2.956670820713043213e-01 2.569670200347900391e+00 8.596011400222778320e-01 2.357756197452545166e-01
5.633000000000000000e+03 6.526515197753906250e+01 -1.762627959251403809e+00 -1.935399882495403290e-02 3.459995746612548828e+00 1.032192468643188477e+00 -2.543879151344299316e-01
5.634000000000000000e+03 3.550720214843750000e+01 -1.006390666961669922e+01 1.008765473961830139e-01 1.835227370262145996e+00 5.808311700820922852e-01 4.374064207077026367e-01
5.635000000000000000e+03 3.488903427124023438e+01 -1.139523792266845703e+01 4.445647001266479492e-01 1.582132458686828613e+00 6.080091595649719238e-01 1.584219634532928467e-01
5.636000000000000000e+03 4.626454162597656250e+01 -5.664109706878662109e+00 -1.905673980712890625e+00 8.387082099914550781e+00 1.944422364234924316e+00 5.848120450973510742e-01
5.637000000000000000e+03 4.712154769897460938e+01 -5.645365715026855469e+00 -1.733780980110168457e+00 7.540982723236083984e+00 1.742160439491271973e+00 5.577661395072937012e-01
5.638000000000000000e+03 6.348331451416015625e+01 -2.390177965164184570e+00 3.396648764610290527e-01 2.316626548767089844e+00 7.968873977661132812e-01 -4.794406294822692871e-01
5.639000000000000000e+03 6.442967987060546875e+01 -5.397735595703125000e+00 1.623352915048599243e-01 3.073485612869262695e+00 9.707462787628173828e-01 -9.755049943923950195e-01
5.640000000000000000e+03 4.653593826293945312e+01 -4.560269832611083984e+00 -1.137112498283386230e+00 8.229794502258300781e+00 2.127804517745971680e+00 3.741486072540283203e-01
5.641000000000000000e+03 7.243049621582031250e+01 -3.973769903182983398e+00 -5.664875507354736328e-01 7.186078548431396484e+00 1.985877394676208496e+00 1.773924380540847778e-01
5.642000000000000000e+03 1.011998271942138672e+01 -8.602586746215820312e+00 -6.507399678230285645e-02 4.348396882414817810e-02 -6.477009505033493042e-03 -2.112931460142135620e-01
5.643000000000000000e+03 4.196800994873046875e+01 -2.412210083007812500e+01 1.313197612762451172e+00 7.009440898895263672e+00 2.496791601181030273e+00 1.102954149246215820e+00
5.644000000000000000e+03 4.137738037109375000e+01 2.072712326049804688e+01 -6.995051354169845581e-02 4.885932922363281250e+00 1.444794774055480957e+00 -1.029489398002624512e+00
5.645000000000000000e+03 8.292419433593750000e+00 2.644678115844726562e+01 -3.312724828720092773e-02 -2.113282121717929840e-02 -1.627802103757858276e-02 1.085794568061828613e-01
5.646000000000000000e+03 4.486637496948242188e+01 -6.436031341552734375e+00 -2.355797767639160156e+00 9.266302108764648438e+00 2.073151350021362305e+00 7.302981019020080566e-01
5.647000000000000000e+03 7.277240753173828125e+01 7.444318294525146484e+00 -4.069285094738006592e-01 7.775290012359619141e+00 2.210508346557617188e+00 -6.718705296516418457e-01
5.648000000000000000e+03 3.404117584228515625e+01 -1.164847469329833984e+01 5.797151327133178711e-01 1.003656268119812012e+00 4.750114381313323975e-01 7.537899166345596313e-02
5.649000000000000000e+03 7.220246124267578125e+01 2.021610069274902344e+01 7.324610948562622070e-01 8.677186012268066406e+00 2.822894096374511719e+00 7.132672071456909180e-01
5.650000000000000000e+03 7.178798675537109375e+01 2.359613800048828125e+01 -6.833845973014831543e-01 8.086187362670898438e+00 2.220840692520141602e+00 3.671447932720184326e-01
5.651000000000000000e+03 8.127602577209472656e+00 -8.569955825805664062e+00 -6.371592730283737183e-02 2.738168404903262854e-04 -1.903263293206691742e-02 -2.220378071069717407e-01
5.652000000000000000e+03 8.768593788146972656e+00 -9.996144294738769531e+00 -3.242758288979530334e-02 2.826990559697151184e-02 -1.247303793206810951e-03 -2.149609774351119995e-01
5.653000000000000000e+03 9.523137092590332031e+00 2.800247383117675781e+01 -2.476128935813903809e-02 -1.417601760476827621e-02 -1.168119255453348160e-02 1.273059099912643433e-01
5.654000000000000000e+03 6.537683868408203125e+01 -4.271074771881103516e+00 -1.969782821834087372e-02 3.730422019958496094e+00 1.113217234611511230e+00 -7.130672931671142578e-01
5.655000000000000000e+03 4.273353958129882812e+01 -8.039237022399902344e+00 -2.187007665634155273e+00 8.746656417846679688e+00 1.967894554138183594e+00 9.417455196380615234e-01
5.656000000000000000e+03 7.221768951416015625e+01 7.810209751129150391e+00 -3.936817049980163574e-01 7.822301864624023438e+00 2.228586196899414062e+00 -6.227021217346191406e-01
5.657000000000000000e+03 6.673996734619140625e+01 7.370591759681701660e-01 -3.811501562595367432e-01 4.393867015838623047e+00 1.203814983367919922e+00 1.810616701841354370e-01
5.658000000000000000e+03 6.554235839843750000e+01 -3.527438044548034668e-01 -1.349238455295562744e-01 3.616602420806884766e+00 1.044503569602966309e+00 1.001154421828687191e-03
5.659000000000000000e+03 6.148755264282226562e+01 -3.080584287643432617e+00 6.708632707595825195e-01 1.189027547836303711e+00 5.579672455787658691e-01 -7.010614871978759766e-01
5.660000000000000000e+03 8.511561393737792969e+00 2.484530830383300781e+01 -4.602811485528945923e-02 -7.975558750331401825e-03 -1.620110124349594116e-02 9.786651283502578735e-02
5.661000000000000000e+03 8.838939666748046875e+00 2.736898612976074219e+01 -2.807385288178920746e-02 -1.962634176015853882e-02 -1.431005913764238358e-02 1.180104091763496399e-01
5.662000000000000000e+03 7.209077453613281250e+01 -1.726401209831237793e+00 -5.707710385322570801e-01 6.932408332824707031e+00 1.908491134643554688e+00 4.878025129437446594e-02
5.663000000000000000e+03 7.240770721435546875e+01 6.933576107025146484e+00 -4.902330636978149414e-01 7.683227062225341797e+00 2.157898187637329102e+00 -5.835633873939514160e-01
5.664000000000000000e+03 7.219787597656250000e+00 1.620666122436523438e+01 -2.388568781316280365e-02 -2.535552484914660454e-03 -7.926371879875659943e-03 1.307788304984569550e-02
5.665000000000000000e+03 7.287670135498046875e+01 5.128535270690917969e+00 -5.644721388816833496e-01 7.503044605255126953e+00 2.081571817398071289e+00 -4.851989150047302246e-01
5.666000000000000000e+03 7.253572845458984375e+01 6.108691215515136719e+00 -5.598660707473754883e-01 7.564668655395507812e+00 2.101440906524658203e+00 -5.235191583633422852e-01
5.667000000000000000e+03 6.922213745117187500e+01 3.899690151214599609e+00 -7.559846043586730957e-01 6.169648647308349609e+00 1.624099254608154297e+00 2.006485164165496826e-01
5.668000000000000000e+03 7.289377593994140625e+01 4.527069568634033203e+00 -5.775689482688903809e-01 7.442754268646240234e+00 2.059555530548095703e+00 -4.177695214748382568e-01
5.669000000000000000e+03 7.212749481201171875e+01 -6.795548796653747559e-01 -5.825941562652587891e-01 6.904676914215087891e+00 1.896624803543090820e+00 -1.500754849985241890e-03
5.670000000000000000e+03 6.913349151611328125e+01 -6.202213287353515625e+00 -5.850591659545898438e-01 6.384873390197753906e+00 1.739944219589233398e+00 -4.015333652496337891e-01
5.671000000000000000e+03 6.500828552246093750e+01 -2.241266727447509766e+00 3.116120956838130951e-02 3.351278305053710938e+00 1.014731884002685547e+00 -3.538967072963714600e-01
5.672000000000000000e+03 7.297859191894531250e+01 -8.635439872741699219e+00 -4.054493904113769531e-01 7.910533428192138672e+00 2.251525163650512695e+00 6.002188920974731445e-01
5.673000000000000000e+03 7.133895874023437500e+01 -1.031689739227294922e+01 -2.760156989097595215e-01 8.369478225708007812e+00 2.428038597106933594e+00 3.296213448047637939e-01
5.674000000000000000e+03 7.185909271240234375e+01 -4.022712230682373047e+00 -5.906668901443481445e-01 7.034460544586181641e+00 1.933138132095336914e+00 1.246004849672317505e-01
5.675000000000000000e+03 7.031716918945312500e+01 -6.949391841888427734e+00 -6.301246881484985352e-01 7.094789028167724609e+00 1.939399242401123047e+00 -1.185641437768936157e-01
5.676000000000000000e+03 6.795176696777343750e+01 2.866107702255249023e+00 -6.419647932052612305e-01 5.292433261871337891e+00 1.395140528678894043e+00 3.389368951320648193e-01
5.677000000000000000e+03 3.793978500366210938e+01 -1.044234943389892578e+01 -3.101555705070495605e-01 4.166382312774658203e+00 1.156867980957031250e+00 6.687436103820800781e-01
5.678000000000000000e+03 7.254425048828125000e+01 -5.561710357666015625e+00 -5.643573999404907227e-01 7.406486988067626953e+00 2.052639007568359375e+00 2.891062796115875244e-01
5.679000000000000000e+03 7.218210601806640625e+01 1.359314680099487305e+00 -6.179490685462951660e-01 6.994876861572265625e+00 1.913078308105468750e+00 -1.029020100831985474e-01
5.680000000000000000e+03 7.282439422607421875e+01 8.964245319366455078e-01 -5.568111538887023926e-01 7.157558441162109375e+00 1.980224251747131348e+00 -9.206132590770721436e-02
5.681000000000000000e+03 7.114230155944824219e+00 -1.097392749786376953e+01 -1.975238136947154999e-02 -3.220918774604797363e-02 -1.558847073465585709e-02 -2.286147475242614746e-01
5.682000000000000000e+03 7.900123119354248047e+00 -1.052918338775634766e+01 -2.637517452239990234e-02 -7.129614823497831821e-04 -8.126441389322280884e-03 -2.229601889848709106e-01
5.683000000000000000e+03 7.710408210754394531e+00 -1.117763900756835938e+01 -1.714750565588474274e-02 -3.405105788260698318e-03 -6.165783852338790894e-03 -2.237754911184310913e-01
5.684000000000000000e+03 1.096904277801513672e+01 1.761208343505859375e+01 -5.818185210227966309e-02 1.128020323812961578e-02 -1.407049503177404404e-02 1.033149007707834244e-02
5.685000000000000000e+03 6.786846160888671875e+01 1.814136981964111328e+00 -5.752467513084411621e-01 5.137685775756835938e+00 1.368731617927551270e+00 2.501864433288574219e-01
5.686000000000000000e+03 8.975000381469726562e+00 1.805371093750000000e+01 -4.622175171971321106e-02 6.215960253030061722e-03 -1.200173702090978622e-02 2.222612686455249786e-02
5.687000000000000000e+03 7.812620639801025391e+00 8.946706771850585938e+00 -1.645615906454622746e-03 -3.829227061942219734e-03 -1.642452902160584927e-03 -1.467355177737772465e-03
5.688000000000000000e+03 9.457321166992187500e+00 1.686871147155761719e+01 -4.110397025942802429e-02 4.464667756110429764e-03 -1.099179033190011978e-02 1.212723180651664734e-02
5.689000000000000000e+03 1.237923336029052734e+01 1.746443176269531250e+01 -6.537451595067977905e-02 1.289863977581262589e-02 -1.574276387691497803e-02 -3.393888764549046755e-04
5.690000000000000000e+03 7.222814178466796875e+01 4.576875686645507812e+00 -6.400816440582275391e-01 7.320348262786865234e+00 2.004080057144165039e+00 -3.495642840862274170e-01
5.691000000000000000e+03 6.856828308105468750e+01 3.390785932540893555e+00 -7.108200192451477051e-01 5.740868568420410156e+00 1.509014606475830078e+00 2.860678136348724365e-01
5.692000000000000000e+03 1.161248970031738281e+01 1.269961929321289062e+01 -1.336077600717544556e-02 -5.412559024989604950e-03 -5.632000509649515152e-03 -1.588227110914885998e-03
5.693000000000000000e+03 9.395572662353515625e+00 1.050909614562988281e+01 -4.944137297570705414e-03 -5.411587189882993698e-03 -3.106717253103852272e-03 -7.689035846851766109e-04
5.694000000000000000e+03 7.451490402221679688e+00 1.284911060333251953e+01 -9.785477072000503540e-03 -4.034710116684436798e-03 -4.146056249737739563e-03 1.753299846313893795e-03
5.695000000000000000e+03 9.434798240661621094e+00 2.504868698120117188e+01 -5.296418070793151855e-02 1.682040048763155937e-03 -1.538464240729808807e-02 1.060520559549331665e-01
5.696000000000000000e+03 8.543878555297851562e+00 2.396721076965332031e+01 -5.167840048670768738e-02 -2.803727518767118454e-03 -1.634463854134082794e-02 8.947328478097915649e-02
5.697000000000000000e+03 6.730156707763671875e+01 1.286265730857849121e+00 -4.854114055633544922e-01 4.763123035430908203e+00 1.283313512802124023e+00 2.336754947900772095e-01
5.698000000000000000e+03 1.293005657196044922e+01 2.661832427978515625e+01 -6.194942444562911987e-02 3.821272030472755432e-02 -7.121010683476924896e-03 1.420324593782424927e-01
5.699000000000000000e+03 9.467445373535156250e+00 -8.587771415710449219e+00 -6.496483087539672852e-02 3.172400221228599548e-02 -9.972249157726764679e-03 -2.152766436338424683e-01
5.700000000000000000e+03 3.855350112915039062e+01 -1.065383529663085938e+01 -4.064742922782897949e-01 4.727691650390625000e+00 1.296365261077880859e+00 6.325953602790832520e-01
5.701000000000000000e+03 7.233358001708984375e+01 2.498033142089843750e+01 -7.611438035964965820e-01 7.741899967193603516e+00 2.094226837158203125e+00 2.471378296613693237e-01
5.702000000000000000e+03 7.075231933593750000e+01 2.486765861511230469e+01 -1.014089226722717285e+00 7.663946628570556641e+00 1.994957327842712402e+00 -2.100454568862915039e-01
5.703000000000000000e+03 7.021972656250000000e+01 -7.670000076293945312e+00 -6.253455281257629395e-01 7.266477584838867188e+00 1.992339491844177246e+00 -1.559508740901947021e-01
5.704000000000000000e+03 8.971356391906738281e+00 -3.040284729003906250e+01 -1.181884203106164932e-02 -1.397476531565189362e-02 -7.738082204014062881e-03 -2.021338976919651031e-02
5.705000000000000000e+03 3.809616470336914062e+01 -1.240543079376220703e+01 6.247263029217720032e-02 4.397193908691406250e+00 1.337899923324584961e+00 2.870120704174041748e-01
5.706000000000000000e+03 3.912994003295898438e+01 -1.063405227661132812e+01 -5.575304627418518066e-01 5.324336051940917969e+00 1.430041670799255371e+00 6.746029853820800781e-01
5.707000000000000000e+03 4.047281646728515625e+01 -1.376332187652587891e+01 1.921013146638870239e-01 6.538301944732666016e+00 2.019120931625366211e+00 3.204792439937591553e-01
5.708000000000000000e+03 7.251696014404296875e+01 2.741263771057128906e+01 -6.731041073799133301e-01 7.234191894531250000e+00 1.968326449394226074e+00 -3.802287578582763672e-02
5.709000000000000000e+03 7.278382110595703125e+01 2.154370880126953125e+01 7.750367373228073120e-02 8.297558784484863281e+00 2.512518644332885742e+00 8.009384274482727051e-01
5.710000000000000000e+03 7.161132049560546875e+01 4.662514626979827881e-01 -6.328560709953308105e-01 6.760562896728515625e+00 1.838312029838562012e+00 -3.357147425413131714e-02
5.711000000000000000e+03 6.993096923828125000e+01 -4.081912040710449219e-01 -6.092236638069152832e-01 6.111837863922119141e+00 1.650784373283386230e+00 7.963869720697402954e-03
5.712000000000000000e+03 7.016533660888671875e+01 -9.196521759033203125e+00 -5.259020328521728516e-01 7.800228595733642578e+00 2.182297945022583008e+00 -1.696454882621765137e-01
5.713000000000000000e+03 7.104380035400390625e+01 -9.661797523498535156e+00 -4.306806325912475586e-01 8.112734794616699219e+00 2.304616212844848633e+00 1.859312802553176880e-01
5.714000000000000000e+03 4.401267242431640625e+01 -5.404267787933349609e+00 -1.938157916069030762e+00 9.752968788146972656e+00 2.344443082809448242e+00 9.111432433128356934e-01
5.715000000000000000e+03 7.089955902099609375e+01 2.303362607955932617e+00 -6.919839978218078613e-01 6.665082931518554688e+00 1.791929602622985840e+00 -4.848296940326690674e-02
5.716000000000000000e+03 8.081400871276855469e+00 -9.210777282714843750e+00 -5.027533322572708130e-02 3.760049366974271834e-05 -1.507132034748792648e-02 -2.222876250743865967e-01
5.717000000000000000e+03 1.053924846649169922e+01 -7.477143764495849609e+00 -1.066789850592613220e-01 4.541069641709327698e-02 -1.838048733770847321e-02 -2.097610086202621460e-01
5.718000000000000000e+03 4.794041442871093750e+01 -3.982304334640502930e+00 -3.755197525024414062e-01 6.555819988250732422e+00 1.854090094566345215e+00 1.329019516706466675e-01
5.719000000000000000e+03 4.749642944335937500e+01 -4.438313007354736328e+00 -7.793167233467102051e-01 7.090040206909179688e+00 1.893217086791992188e+00 2.150574326515197754e-01
5.720000000000000000e+03 7.082423400878906250e+01 -9.024641990661621094e+00 -5.193349123001098633e-01 7.899384975433349609e+00 2.214015007019042969e+00 9.364219009876251221e-02
5.721000000000000000e+03 1.125512790679931641e+01 1.499189949035644531e+01 -3.034534305334091187e-02 -5.586357438005506992e-04 -9.271193295717239380e-03 -9.992527775466442108e-04
5.722000000000000000e+03 9.423430442810058594e+00 1.460867214202880859e+01 -2.359038405120372772e-02 -2.237312262877821922e-03 -7.748308591544628143e-03 3.725317772477865219e-03
5.723000000000000000e+03 7.147918701171875000e+01 2.467754364013671875e+00 -6.732611060142517090e-01 6.865115642547607422e+00 1.857556343078613281e+00 -1.006203293800354004e-01
5.724000000000000000e+03 4.362868881225585938e+01 -6.110537052154541016e+00 -2.209892749786376953e+00 9.549175262451171875e+00 2.201784849166870117e+00 1.010810494422912598e+00
5.725000000000000000e+03 3.682015228271484375e+01 -1.186447715759277344e+01 1.917602717876434326e-01 3.175443410873413086e+00 1.010161042213439941e+00 2.639111876487731934e-01
5.726000000000000000e+03 4.099027633666992188e+01 -1.274505901336669922e+01 -1.593479216098785400e-01 7.008216381072998047e+00 2.054660558700561523e+00 3.499330878257751465e-01
5.727000000000000000e+03 4.017016601562500000e+01 -1.311049365997314453e+01 4.821372218430042267e-03 6.277651309967041016e+00 1.884741902351379395e+00 3.262366652488708496e-01
5.728000000000000000e+03 1.287681770324707031e+01 2.234051704406738281e+01 -1.280025243759155273e-01 5.075988173484802246e-02 -2.317279390990734100e-02 7.173602283000946045e-02
5.729000000000000000e+03 4.226470184326171875e+01 -1.129547214508056641e+01 -8.760529756546020508e-01 8.038890838623046875e+00 2.148851394653320312e+00 3.752250075340270996e-01
5.730000000000000000e+03 6.844162750244140625e+01 2.325790882110595703e+00 -6.555424332618713379e-01 5.530628681182861328e+00 1.462525844573974609e+00 2.381263375282287598e-01
5.731000000000000000e+03 7.183181762695312500e+01 1.851876258850097656e+00 -6.477038860321044922e-01 6.914954185485839844e+00 1.880175113677978516e+00 -1.051436141133308411e-01
5.732000000000000000e+03 7.183241271972656250e+01 -2.674644851684570312e+01 -9.156267642974853516e-01 8.351366043090820312e+00 2.230721712112426758e+00 -7.488769888877868652e-01
5.733000000000000000e+03 7.109426879882812500e+01 6.134020328521728516e+00 -6.726689934730529785e-01 7.358071327209472656e+00 2.005620718002319336e+00 -2.601154148578643799e-01
5.734000000000000000e+03 4.209112167358398438e+01 2.027327346801757812e+01 -5.304876342415809631e-02 5.323792934417724609e+00 1.581223249435424805e+00 -8.967307806015014648e-01
5.735000000000000000e+03 7.129208374023437500e+01 -8.342131614685058594e+00 -5.577255487442016602e-01 7.751061916351318359e+00 2.158000946044921875e+00 1.951819062232971191e-01
5.736000000000000000e+03 6.384567642211914062e+01 -4.672913551330566406e+00 2.712136209011077881e-01 2.659061670303344727e+00 8.790825605392456055e-01 -8.798819184303283691e-01
5.737000000000000000e+03 8.202761650085449219e+00 -2.958879661560058594e+01 -1.656471984460949898e-03 -6.378665566444396973e-02 -1.963293738663196564e-02 2.000212669372558594e-03
5.738000000000000000e+03 4.179993438720703125e+01 -9.598856925964355469e+00 -1.545740365982055664e+00 7.809863567352294922e+00 1.879237055778503418e+00 7.409422397613525391e-01
5.739000000000000000e+03 4.067326354980468750e+01 -9.459012985229492188e+00 -1.304423213005065918e+00 6.878520965576171875e+00 1.672229290008544922e+00 8.957040905952453613e-01
5.740000000000000000e+03 9.945250511169433594e+00 1.532078170776367188e+01 -2.904327586293220520e-02 2.232727129012346268e-04 -8.646001107990741730e-03 3.978826571255922318e-03
5.741000000000000000e+03 7.729736804962158203e+00 2.288204765319824219e+01 -4.663780331611633301e-02 -6.814610678702592850e-03 -1.603572443127632141e-02 7.317433506250381470e-02
5.742000000000000000e+03 1.151896953582763672e+01 1.666395187377929688e+01 -4.986879602074623108e-02 6.867539137601852417e-03 -1.290037762373685837e-02 1.838019699789583683e-03
5.743000000000000000e+03 7.940858840942382812e+00 1.666114616394042969e+01 -3.056299500167369843e-02 -3.030865336768329144e-04 -9.259824641048908234e-03 1.484096236526966095e-02
5.744000000000000000e+03 1.061597537994384766e+01 8.732792854309082031e+00 -8.509558392688632011e-04 -4.611340351402759552e-03 -1.638688845559954643e-03 1.465739042032510042e-04
5.745000000000000000e+03 1.031065177917480469e+01 9.928774833679199219e+00 -2.846925286576151848e-03 -5.338294431567192078e-03 -2.455565845593810081e-03 -4.595347563736140728e-04
5.746000000000000000e+03 1.267558765411376953e+01 2.024724197387695312e+01 -1.108650192618370056e-01 3.734572976827621460e-02 -2.205578610301017761e-02 2.888386510312557220e-02
5.747000000000000000e+03 7.927876472473144531e+00 2.200551223754882812e+01 -4.968258738517761230e-02 -1.054132822901010513e-03 -1.522101648151874542e-02 6.381008028984069824e-02
5.748000000000000000e+03 4.007462692260742188e+01 -1.003828239440917969e+01 -9.633063077926635742e-01 6.257295131683349609e+00 1.588196754455566406e+00 8.166386485099792480e-01
5.749000000000000000e+03 4.208243179321289062e+01 -7.855967521667480469e+00 -2.058024883270263672e+00 8.374741554260253906e+00 1.895015120506286621e+00 1.118429422378540039e+00
5.750000000000000000e+03 7.223793792724609375e+01 5.154892444610595703e+00 -6.268276572227478027e-01 7.401060581207275391e+00 2.032269954681396484e+00 -3.884240984916687012e-01
5.751000000000000000e+03 7.107811737060546875e+01 2.342854690551757812e+01 -8.168315291404724121e-01 8.254651069641113281e+00 2.231345891952514648e+00 1.574179828166961670e-01
5.752000000000000000e+03 6.028632354736328125e+01 -3.753613471984863281e+00 7.741402983665466309e-01 6.563584804534912109e-01 4.291496276855468750e-01 -8.446647524833679199e-01
5.753000000000000000e+03 6.113659286499023438e+01 -4.128823757171630859e+00 6.460861563682556152e-01 1.071617245674133301e+00 5.153110027313232422e-01 -8.321232795715332031e-01
5.754000000000000000e+03 1.164697265625000000e+01 1.184871196746826172e+01 -8.021718822419643402e-03 -5.930077284574508667e-03 -4.185538738965988159e-03 -7.090696017257869244e-04
5.755000000000000000e+03 4.395305633544921875e+01 1.975023460388183594e+01 -4.788965918123722076e-03 6.215565204620361328e+00 1.863232970237731934e+00 -4.033634960651397705e-01
5.756000000000000000e+03 4.423716735839843750e+01 2.240254974365234375e+01 -3.745459616184234619e-01 5.570473670959472656e+00 1.558778285980224609e+00 -3.282687664031982422e-01
5.757000000000000000e+03 1.012404823303222656e+01 1.052316093444824219e+01 -4.884183406829833984e-03 -5.097519140690565109e-03 -2.994510810822248459e-03 -2.240408648503944278e-04
5.758000000000000000e+03 1.147696781158447266e+01 8.501271247863769531e+00 -1.036947127431631088e-03 -4.789228085428476334e-03 -1.747852540574967861e-03 7.794721168465912342e-04
5.759000000000000000e+03 1.080812740325927734e+01 1.275398826599121094e+01 -1.271807774901390076e-02 -5.040371324867010117e-03 -5.327534396201372147e-03 -5.355043103918433189e-04
5.760000000000000000e+03 1.161197948455810547e+01 1.346216392517089844e+01 -1.588504202663898468e-02 -4.585056565701961517e-03 -6.141029763966798782e-03 -1.738698221743106842e-03
5.761000000000000000e+03 8.532204627990722656e+00 1.050785827636718750e+01 -4.460663069039583206e-03 -4.672891926020383835e-03 -2.740066498517990112e-03 -5.780307692475616932e-04
5.762000000000000000e+03 4.343335723876953125e+01 1.913694572448730469e+01 6.547368317842483521e-02 6.192924499511718750e+00 1.877519369125366211e+00 -5.520142912864685059e-01
5.763000000000000000e+03 4.449217987060546875e+01 1.925052833557128906e+01 8.872740715742111206e-02 6.559751987457275391e+00 1.994543790817260742e+00 -1.958097219467163086e-01
5.764000000000000000e+03 7.174759674072265625e+01 -2.859136581420898438e+01 -9.934406280517578125e-01 7.846342563629150391e+00 2.055870532989501953e+00 -4.527447521686553955e-01
5.765000000000000000e+03 7.707985877990722656e+00 1.350423049926757812e+01 -1.351556088775396347e-02 -3.709478769451379776e-03 -5.167511757463216782e-03 2.812975551933050156e-03
5.766000000000000000e+03 9.505026817321777344e+00 2.166401863098144531e+01 -6.966685503721237183e-02 1.466802600771188736e-02 -1.649964787065982819e-02 6.307066977024078369e-02
5.767000000000000000e+03 8.836668968200683594e+00 2.159276771545410156e+01 -6.138399988412857056e-02 8.836567401885986328e-03 -1.576422899961471558e-02 6.063453480601310730e-02
5.768000000000000000e+03 7.076375579833984375e+01 3.020786094665527344e+01 -4.443936645984649658e-01 6.300217151641845703e+00 1.756747126579284668e+00 -4.862551987171173096e-01
5.769000000000000000e+03 6.830562591552734375e+01 2.744062042236328125e+01 -7.543529272079467773e-01 5.683600425720214844e+00 1.478774309158325195e+00 -1.084557175636291504e+00
5.770000000000000000e+03 4.170152282714843750e+01 2.342628479003906250e+01 -3.665632307529449463e-01 4.627618789672851562e+00 1.278316736221313477e+00 -8.116066455841064453e-01
5.771000000000000000e+03 4.240647125244140625e+01 -9.310759544372558594e+00 -1.779259920120239258e+00 8.283395767211914062e+00 1.951240897178649902e+00 7.210355997085571289e-01
5.772000000000000000e+03 1.603520965576171875e+01 2.643587493896484375e+01 -9.146086871623992920e-02 6.442450731992721558e-02 -8.110907860100269318e-03 1.530482321977615356e-01
5.773000000000000000e+03 7.073758697509765625e+01 4.610836029052734375e+00 -7.491984963417053223e-01 6.935560226440429688e+00 1.855908513069152832e+00 -1.005437374114990234e-01
5.774000000000000000e+03 6.993171691894531250e+01 2.466447639465332031e+01 -1.111720800399780273e+00 7.492380142211914062e+00 1.914197802543640137e+00 -5.428311228752136230e-01
5.775000000000000000e+03 6.680303192138671875e+01 3.004358673095703125e+01 -1.337166726589202881e-01 4.508868217468261719e+00 1.312545537948608398e+00 -8.703098893165588379e-01
5.776000000000000000e+03 6.954918670654296875e+01 2.655698966979980469e+01 -9.631050229072570801e-01 6.597256660461425781e+00 1.690245389938354492e+00 -8.002014756202697754e-01
5.777000000000000000e+03 1.248276805877685547e+01 1.836610794067382812e+01 -7.939905673265457153e-02 2.017000131309032440e-02 -1.776871643960475922e-02 6.175497081130743027e-03
5.778000000000000000e+03 8.469573974609375000e+00 1.767382240295410156e+01 -4.035991430282592773e-02 2.884980523958802223e-03 -1.124248001724481583e-02 2.079790458083152771e-02
5.779000000000000000e+03 4.172138595581054688e+01 2.161499977111816406e+01 -1.869197487831115723e-01 4.889388084411621094e+00 1.410740494728088379e+00 -9.176309108734130859e-01
5.780000000000000000e+03 6.912540435791015625e+01 2.916004371643066406e+01 -5.081803798675537109e-01 5.723196029663085938e+00 1.564504623413085938e+00 -7.740619182586669922e-01
5.781000000000000000e+03 1.686069869995117188e+01 2.933317565917968750e+01 2.188480086624622345e-02 8.175168186426162720e-02 3.109094500541687012e-02 1.394730955362319946e-01
5.782000000000000000e+03 6.781320953369140625e+01 2.879337501525878906e+01 -4.340713024139404297e-01 5.121063709259033203e+00 1.406097769737243652e+00 -9.832555651664733887e-01
5.783000000000000000e+03 9.309047698974609375e+00 2.945889854431152344e+01 -2.662093378603458405e-03 -2.777224034070968628e-02 -9.130300022661685944e-03 1.277330666780471802e-01
5.784000000000000000e+03 6.873991394042968750e+01 3.335287094116210938e+01 1.327268779277801514e-02 5.278923511505126953e+00 1.587658882141113281e+00 -4.634797275066375732e-01
5.785000000000000000e+03 6.776525878906250000e+01 3.159189414978027344e+01 -7.275803387165069580e-02 4.906529426574707031e+00 1.450131416320800781e+00 -6.695259213447570801e-01
5.786000000000000000e+03 5.573518753051757812e+01 3.198817253112792969e+01 1.314206570386886597e-01 2.825625896453857422e+00 8.871139287948608398e-01 9.401006102561950684e-01
5.787000000000000000e+03 5.044323348999023438e+01 3.090176010131835938e+01 -5.680515170097351074e-01 3.868522405624389648e+00 9.901412725448608398e-01 9.625389575958251953e-01
5.788000000000000000e+03 9.140751838684082031e+00 2.674850082397460938e+01 -3.554728627204895020e-02 -1.261536497622728348e-02 -1.444879546761512756e-02 1.173907443881034851e-01
5.789000000000000000e+03 1.418088531494140625e+01 2.327169609069824219e+01 -1.533624231815338135e-01 6.508366763591766357e-02 -2.648362703621387482e-02 9.223644435405731201e-02
5.790000000000000000e+03 1.292657089233398438e+01 -3.631560134887695312e+01 8.920789696276187897e-04 9.973699599504470825e-02 3.018872253596782684e-02 -9.673380106687545776e-02
5.791000000000000000e+03 3.581671524047851562e+01 2.776996231079101562e+01 -1.699426323175430298e-01 2.387370586395263672e+00 6.652283668518066406e-01 -8.199569582939147949e-01
5.792000000000000000e+03 2.527782249450683594e+01 3.460535430908203125e+01 1.575752347707748413e-01 6.910708546638488770e-01 2.545938193798065186e-01 -1.488031297922134399e-01
5.793000000000000000e+03 2.288558387756347656e+01 3.340112686157226562e+01 1.694188565015792847e-01 4.222874343395233154e-01 1.775118857622146606e-01 -5.767814069986343384e-02
5.794000000000000000e+03 2.107348442077636719e+01 3.253100585937500000e+01 1.507911533117294312e-01 2.560800015926361084e-01 1.220613420009613037e-01 -4.689991474151611328e-03
5.795000000000000000e+03 2.127405738830566406e+01 3.063121223449707031e+01 1.183216795325279236e-01 1.985602676868438721e-01 9.506458044052124023e-02 1.157441083341836929e-02
5.796000000000000000e+03 4.361353302001953125e+01 2.822409057617187500e+01 -7.348565459251403809e-01 4.312550067901611328e+00 1.073307991027832031e+00 -1.709798574447631836e-01
5.797000000000000000e+03 1.108856582641601562e+01 3.039223098754882812e+01 1.404844969511032104e-02 -8.476907387375831604e-03 1.671462669037282467e-03 1.349665075540542603e-01
5.798000000000000000e+03 9.686695098876953125e+00 3.085831642150878906e+01 1.745226420462131500e-02 -3.159193322062492371e-02 -4.241900984197854996e-03 1.266973018646240234e-01
5.799000000000000000e+03 4.735438156127929688e+01 2.974691581726074219e+01 -7.932512760162353516e-01 4.337799072265625000e+00 1.063364267349243164e+00 5.345056056976318359e-01
5.800000000000000000e+03 4.245595169067382812e+01 2.250310707092285156e+01 -3.146009147167205811e-01 4.999317646026611328e+00 1.405414938926696777e+00 -7.465539574623107910e-01
5.801000000000000000e+03 3.964059066772460938e+01 2.756869125366210938e+01 -4.528846442699432373e-01 3.503875017166137695e+00 9.152971506118774414e-01 -7.122014164924621582e-01
5.802000000000000000e+03 4.005498123168945312e+01 2.589437675476074219e+01 -4.094305932521820068e-01 3.737484931945800781e+00 9.984163045883178711e-01 -7.841110229492187500e-01
5.803000000000000000e+03 6.171069717407226562e+01 -3.859737014770507812e+01 5.804348587989807129e-01 1.895169615745544434e+00 7.426813840866088867e-01 1.975719332695007324e-01
5.804000000000000000e+03 5.897634887695312500e+01 3.285552215576171875e+01 4.535351991653442383e-01 2.714140176773071289e+00 9.503026008605957031e-01 4.465785622596740723e-01
5.805000000000000000e+03 5.704153060913085938e+01 3.417868423461914062e+01 3.111860454082489014e-01 2.920038461685180664e+00 9.693673849105834961e-01 6.073271632194519043e-01
5.806000000000000000e+03 4.155112075805664062e+01 2.783168029785156250e+01 -6.019234061241149902e-01 3.978340148925781250e+00 1.012925028800964355e+00 -4.923814237117767334e-01
5.807000000000000000e+03 3.446670913696289062e+01 2.912545967102050781e+01 -1.313704103231430054e-01 2.037100791931152344e+00 5.717191100120544434e-01 -7.316557168960571289e-01
5.808000000000000000e+03 6.258298492431640625e+01 3.558800888061523438e+01 5.061824917793273926e-01 3.553346157073974609e+00 1.217858552932739258e+00 -8.259582519531250000e-02
5.809000000000000000e+03 3.920093154907226562e+01 -1.190141773223876953e+01 -2.481938302516937256e-01 5.397489547729492188e+00 1.544788718223571777e+00 4.293866157531738281e-01
5.810000000000000000e+03 3.929519653320312500e+01 -1.256054973602294922e+01 -7.159450650215148926e-02 5.485663414001464844e+00 1.624220609664916992e+00 3.343747556209564209e-01
5.811000000000000000e+03 7.138336944580078125e+01 -3.308981895446777344e+00 -5.956417918205261230e-01 6.821309566497802734e+00 1.867700338363647461e+00 5.557099729776382446e-02
5.812000000000000000e+03 6.585345458984375000e+01 -1.050819158554077148e+00 -1.549242734909057617e-01 3.833448648452758789e+00 1.103557348251342773e+00 -9.922266006469726562e-02
5.813000000000000000e+03 7.206884002685546875e+01 -2.856680870056152344e+00 -5.754485726356506348e-01 6.972448348999023438e+00 1.919100046157836914e+00 8.739224076271057129e-02
5.814000000000000000e+03 6.419381713867187500e+01 -2.589107751846313477e+00 1.878264397382736206e-01 2.837737560272216797e+00 9.076691865921020508e-01 -4.706490635871887207e-01
5.815000000000000000e+03 6.504412078857421875e+01 -5.647275924682617188e+00 3.669977188110351562e-02 3.560227155685424805e+00 1.079078078269958496e+00 -9.954924583435058594e-01
5.816000000000000000e+03 3.911656570434570312e+01 -1.127093791961669922e+01 -3.744460046291351318e-01 5.384805202484130859e+00 1.503107786178588867e+00 5.131467580795288086e-01
5.817000000000000000e+03 3.844926071166992188e+01 -1.134387111663818359e+01 -2.173385024070739746e-01 4.673341751098632812e+00 1.336800932884216309e+00 5.031396746635437012e-01
5.818000000000000000e+03 7.989318370819091797e+00 -1.322094535827636719e+01 1.111923810094594955e-02 4.288305714726448059e-02 1.620068773627281189e-02 -2.168038785457611084e-01
5.819000000000000000e+03 8.243509292602539062e+00 1.312494850158691406e+01 -1.153432484716176987e-02 -4.180312622338533401e-03 -4.714391194283962250e-03 1.625583390705287457e-03
5.820000000000000000e+03 7.184887695312500000e+01 -4.740943431854248047e+00 -5.965018868446350098e-01 7.125407218933105469e+00 1.958671569824218750e+00 1.474725008010864258e-01
5.821000000000000000e+03 7.174148559570312500e+01 -6.324635982513427734e+00 -6.123721003532409668e-01 7.354758739471435547e+00 2.022716045379638672e+00 1.913232058286666870e-01
5.822000000000000000e+03 6.252539825439453125e+01 -3.317732334136962891e+00 4.970374703407287598e-01 1.797567963600158691e+00 6.883816123008728027e-01 -6.792491078376770020e-01
5.823000000000000000e+03 7.759922027587890625e+00 -1.405778980255126953e+01 2.365181036293506622e-02 4.085966199636459351e-02 1.935344189405441284e-02 -2.177714258432388306e-01
5.824000000000000000e+03 6.639061737060546875e+01 -5.854916095733642578e+00 -2.094853222370147705e-01 4.608336448669433594e+00 1.319655299186706543e+00 -9.065510630607604980e-01
5.825000000000000000e+03 1.007250976562500000e+01 2.726965332031250000e+01 -3.560291603207588196e-02 -2.450344152748584747e-03 -1.141597796231508255e-02 1.254279613494873047e-01
5.826000000000000000e+03 7.188642883300781250e+01 -3.395522356033325195e+00 -5.915766954421997070e-01 6.963680744171142578e+00 1.911631107330322266e+00 9.110897779464721680e-02
5.827000000000000000e+03 6.824618530273437500e+01 -7.547515869140625000e+00 -5.015051364898681641e-01 6.272253990173339844e+00 1.731224656105041504e+00 -7.686692476272583008e-01
5.828000000000000000e+03 7.229909515380859375e+01 5.683267593383789062e+00 -6.047527790069580078e-01 7.486147403717041016e+00 2.064418315887451172e+00 -4.538066089153289795e-01
5.829000000000000000e+03 7.028633880615234375e+01 3.625075101852416992e+00 -7.448192834854125977e-01 6.606173992156982422e+00 1.758406400680541992e+00 -6.106627173721790314e-03
5.830000000000000000e+03 6.964471435546875000e+01 3.264297485351562500e+00 -7.423443198204040527e-01 6.291013240814208984e+00 1.664600610733032227e+00 1.100598350167274475e-01
5.831000000000000000e+03 7.159636688232421875e+01 -1.104660511016845703e+01 -6.777267903089523315e-02 8.557312011718750000e+00 2.546861886978149414e+00 4.406439661979675293e-01
5.832000000000000000e+03 7.156884002685546875e+01 -2.678798675537109375e+00 -5.897326469421386719e-01 6.831476688385009766e+00 1.872523188591003418e+00 5.337837338447570801e-02
5.833000000000000000e+03 6.536503601074218750e+01 -3.088641166687011719e+00 -3.168569505214691162e-02 3.663504600524902344e+00 1.089545726776123047e+00 -4.783671796321868896e-01
5.834000000000000000e+03 6.585732269287109375e+01 -3.070487022399902344e+00 -1.106146499514579773e-01 3.952735185623168945e+00 1.152636170387268066e+00 -4.517803192138671875e-01
5.835000000000000000e+03 6.968113708496093750e+01 -6.925291061401367188e+00 -6.237777471542358398e-01 6.839441299438476562e+00 1.864699006080627441e+00 -2.942011654376983643e-01
5.836000000000000000e+03 7.182842254638671875e+01 -5.526228427886962891e+00 -6.051419973373413086e-01 7.237811088562011719e+00 1.989800810813903809e+00 1.792907714843750000e-01
5.837000000000000000e+03 7.204217529296875000e+01 2.723057270050048828e+00 -6.413678526878356934e-01 7.065252780914306641e+00 1.927165508270263672e+00 -1.812714487314224243e-01
5.838000000000000000e+03 7.920485496520996094e+00 1.595687103271484375e+01 -2.575814165174961090e-02 -1.127729774452745914e-03 -8.065761066973209381e-03 1.140698697417974472e-02
5.839000000000000000e+03 6.902919006347656250e+01 2.815318822860717773e+00 -7.058259844779968262e-01 5.898366928100585938e+00 1.557762265205383301e+00 1.949833333492279053e-01
5.840000000000000000e+03 7.137200164794921875e+01 1.374654650688171387e+00 -6.548095345497131348e-01 6.741281032562255859e+00 1.825941443443298340e+00 -5.038518831133842468e-02
5.841000000000000000e+03 8.626836776733398438e+00 -1.070876884460449219e+01 -2.146351896226406097e-02 3.307177498936653137e-02 3.482477273792028427e-03 -2.141915410757064819e-01
5.842000000000000000e+03 9.247466087341308594e+00 1.740550422668457031e+01 -4.398825764656066895e-02 5.342189222574234009e-03 -1.159381959587335587e-02 1.669281162321567535e-02
5.843000000000000000e+03 1.258580493927001953e+01 1.929189300537109375e+01 -9.774273633956909180e-02 2.940600365400314331e-02 -2.050102129578590393e-02 1.423448510468006134e-02
5.844000000000000000e+03 8.597689628601074219e+00 1.880821990966796875e+01 -4.838780686259269714e-02 5.400616209954023361e-03 -1.289615686982870102e-02 3.031283430755138397e-02
5.845000000000000000e+03 9.552177429199218750e+00 9.706153869628906250e+00 -2.685817424207925797e-03 -5.072425119578838348e-03 -2.327472670003771782e-03 -3.001651784870773554e-04
5.846000000000000000e+03 8.347070693969726562e+00 1.130979442596435547e+01 -6.451912224292755127e-03 -4.713803064078092575e-03 -3.349714679643511772e-03 -3.168932162225246429e-04
5.847000000000000000e+03 1.087880420684814453e+01 1.361065673828125000e+01 -1.875103637576103210e-02 -4.175111651420593262e-03 -6.877844221889972687e-03 -1.091551384888589382e-03
5.848000000000000000e+03 8.072461128234863281e+00 1.266078853607177734e+01 -1.066710241138935089e-02 -4.200180061161518097e-03 -4.460184834897518158e-03 1.147667644545435905e-03
5.849000000000000000e+03 8.687666893005371094e+00 2.228451919555664062e+01 -5.963784828782081604e-02 5.750330630689859390e-03 -1.616625487804412842e-02 7.024449110031127930e-02
5.850000000000000000e+03 1.193270874023437500e+01 2.116994285583496094e+01 -1.079809144139289856e-01 3.838367760181427002e-02 -2.087916992604732513e-02 5.028934776782989502e-02
5.851000000000000000e+03 1.043147754669189453e+01 2.522846603393554688e+01 -6.121207773685455322e-02 1.524724066257476807e-02 -1.378945168107748032e-02 1.147888004779815674e-01
5.852000000000000000e+03 1.316313552856445312e+01 2.355084228515625000e+01 -1.285289376974105835e-01 5.450823158025741577e-02 -2.220621146261692047e-02 9.627439081668853760e-02
5.853000000000000000e+03 6.681447601318359375e+01 -3.213452696800231934e-01 -3.281642794609069824e-01 4.407064437866210938e+00 1.223670005798339844e+00 2.661799639463424683e-02
5.854000000000000000e+03 6.838549041748046875e+01 1.285729408264160156e+00 -5.939319729804992676e-01 5.407266139984130859e+00 1.444000244140625000e+00 1.648123115301132202e-01
5.855000000000000000e+03 1.127380084991455078e+01 2.417951774597167969e+01 -8.557385951280593872e-02 3.044384717941284180e-02 -1.653900370001792908e-02 1.033560037612915039e-01
5.856000000000000000e+03 6.484398651123046875e+01 -4.752267837524414062e+00 7.795994728803634644e-02 3.362264394760131836e+00 1.032067298889160156e+00 -8.432423472404479980e-01
5.857000000000000000e+03 7.146278381347656250e+01 -2.119627237319946289e+00 -5.817219018936157227e-01 6.759904384613037109e+00 1.853454709053039551e+00 3.428961336612701416e-02
5.858000000000000000e+03 7.259950256347656250e+01 -1.152827620506286621e+00 -5.466368794441223145e-01 7.074776172637939453e+00 1.958441734313964844e+00 3.517705202102661133e-02
5.859000000000000000e+03 7.039483642578125000e+01 2.087349653244018555e+00 -7.042550444602966309e-01 6.434658050537109375e+00 1.719120979309082031e+00 1.248663105070590973e-02
5.860000000000000000e+03 1.077678012847900391e+01 -7.981802463531494141e+00 -8.691642433404922485e-02 5.134070292115211487e-02 -1.067271549254655838e-02 -2.091526240110397339e-01
5.861000000000000000e+03 6.353592300415039062e+01 -4.246185779571533203e+00 3.256604373455047607e-01 2.482377529144287109e+00 8.424113988876342773e-01 -8.208958506584167480e-01
5.862000000000000000e+03 7.062314605712890625e+01 2.571514511108398438e+01 -9.950155019760131836e-01 7.287868499755859375e+00 1.887855887413024902e+00 -3.788856863975524902e-01
5.863000000000000000e+03 6.836464691162109375e+01 2.701038718223571777e-01 -5.419962406158447266e-01 5.348392486572265625e+00 1.441918969154357910e+00 7.577696442604064941e-02
5.864000000000000000e+03 7.246653747558593750e+01 -8.247462272644042969e+00 -4.881571233272552490e-01 7.859235763549804688e+00 2.211323499679565430e+00 4.682807028293609619e-01
5.865000000000000000e+03 7.819427490234375000e+00 1.519379901885986328e+01 -2.150853909552097321e-02 -2.505791373550891876e-03 -7.204299326986074448e-03 7.658026646822690964e-03
5.866000000000000000e+03 1.029748344421386719e+01 1.698582649230957031e+01 -4.648957401514053345e-02 6.256563123315572739e-03 -1.206990238279104233e-02 9.609133005142211914e-03
5.867000000000000000e+03 1.131819915771484375e+01 1.579203796386718750e+01 -3.657179325819015503e-02 2.174407942220568657e-03 -1.031921524554491043e-02 7.497317274101078510e-04
5.868000000000000000e+03 7.160660552978515625e+01 3.958249568939208984e+00 -7.090392708778381348e-01 7.092194557189941406e+00 1.914946556091308594e+00 -2.043660879135131836e-01
5.869000000000000000e+03 7.076455688476562500e+01 -8.364292144775390625e+00 -5.920395851135253906e-01 7.659564018249511719e+00 2.120257377624511719e+00 2.419690042734146118e-02
5.870000000000000000e+03 7.015280914306640625e+01 -8.410157203674316406e+00 -5.885262489318847656e-01 7.481481552124023438e+00 2.067886590957641602e+00 -1.730985939502716064e-01
5.871000000000000000e+03 6.699578857421875000e+01 -3.776371717453002930e+00 -2.943443059921264648e-01 4.727477550506591797e+00 1.329940080642700195e+00 -4.729893803596496582e-01
5.872000000000000000e+03 6.730420684814453125e+01 2.634086608886718750e-01 -4.283078312873840332e-01 4.722868919372558594e+00 1.288368225097656250e+00 1.116655319929122925e-01
5.873000000000000000e+03 6.181121444702148438e+01 -3.731370925903320312e+00 6.013481020927429199e-01 1.367992758750915527e+00 5.908022522926330566e-01 -7.724853157997131348e-01
5.874000000000000000e+03 6.784329223632812500e+01 -1.902098953723907471e-01 -4.676755368709564209e-01 5.027580738067626953e+00 1.367971539497375488e+00 3.996697068214416504e-02
5.875000000000000000e+03 7.040940856933593750e+01 -1.040800333023071289e+00 -6.050491333007812500e-01 6.322578907012939453e+00 1.715258955955505371e+00 1.195950433611869812e-03
5.876000000000000000e+03 1.137232208251953125e+01 1.015806865692138672e+01 -2.806160598993301392e-03 -5.592975299805402756e-03 -2.519740723073482513e-03 1.453939603379694745e-05
5.877000000000000000e+03 9.485166549682617188e+00 -9.287669181823730469e+00 -4.463018849492073059e-02 3.675682470202445984e-02 -2.362008439376950264e-03 -2.121541053056716919e-01
5.878000000000000000e+03 1.033455657958984375e+01 1.765461921691894531e+01 -5.303704738616943359e-02 9.690463542938232422e-03 -1.300397515296936035e-02 1.419413555413484573e-02
5.879000000000000000e+03 4.393813323974609375e+01 -8.245408058166503906e+00 -2.380570411682128906e+00 9.160901069641113281e+00 2.034099340438842773e+00 6.558452248573303223e-01
5.880000000000000000e+03 4.269056701660156250e+01 -9.767976760864257812e+00 -1.651454210281372070e+00 8.399805068969726562e+00 2.024505138397216797e+00 5.873550176620483398e-01
5.881000000000000000e+03 1.059025573730468750e+01 1.471737480163574219e+01 -2.741554565727710724e-02 -1.459425664506852627e-03 -8.662491105496883392e-03 6.797466194257140160e-04
5.882000000000000000e+03 7.151662445068359375e+01 2.576623535156250000e+01 -8.940982818603515625e-01 7.478108406066894531e+00 1.975203037261962891e+00 -8.020865172147750854e-02
5.883000000000000000e+03 3.971923828125000000e+01 -1.063139533996582031e+01 -7.014291882514953613e-01 5.873961448669433594e+00 1.551759719848632812e+00 6.877917051315307617e-01
5.884000000000000000e+03 4.119438171386718750e+01 -1.005858230590820312e+01 -1.225244522094726562e+00 7.276344299316406250e+00 1.815329909324645996e+00 6.934724450111389160e-01
5.885000000000000000e+03 4.150226593017578125e+01 -1.173747730255126953e+01 -5.747430324554443359e-01 7.444268703460693359e+00 2.060857772827148438e+00 3.864135444164276123e-01
5.886000000000000000e+03 4.225082015991210938e+01 -1.019118499755859375e+01 -1.382027029991149902e+00 8.071749687194824219e+00 2.006916761398315430e+00 5.328649282455444336e-01
5.887000000000000000e+03 7.084385681152343750e+01 1.714044094085693359e+00 -6.763976216316223145e-01 6.591877460479736328e+00 1.774643898010253906e+00 -2.554548718035221100e-02
5.888000000000000000e+03 4.294819641113281250e+01 -9.343082427978515625e+00 -1.909997940063476562e+00 8.670250892639160156e+00 2.028075933456420898e+00 6.547437906265258789e-01
5.889000000000000000e+03 4.570018005371093750e+01 -5.004741191864013672e+00 -1.558359861373901367e+00 8.891528129577636719e+00 2.199950456619262695e+00 5.280812978744506836e-01
5.890000000000000000e+03 7.357037353515625000e+01 2.797357177734375000e+01 -5.271046161651611328e-01 7.297728538513183594e+00 2.031187295913696289e+00 7.425379008054733276e-02
5.891000000000000000e+03 6.766217803955078125e+01 -6.749102592468261719e+00 -4.235315918922424316e-01 5.665356159210205078e+00 1.572547316551208496e+00 -8.206405639648437500e-01
5.892000000000000000e+03 1.024619197845458984e+01 2.174429512023925781e+01 -8.080562949180603027e-02 2.273510769009590149e-02 -1.742115616798400879e-02 6.237024068832397461e-02
5.893000000000000000e+03 1.014173221588134766e+01 1.401813793182373047e+01 -1.999004930257797241e-02 -2.760555129498243332e-03 -6.825181189924478531e-03 8.242237381637096405e-04
5.894000000000000000e+03 7.219384765625000000e+01 -7.255832672119140625e+00 -5.674030184745788574e-01 7.642083644866943359e+00 2.122404336929321289e+00 3.437786102294921875e-01
5.895000000000000000e+03 4.502037811279296875e+01 -4.865342140197753906e+00 -1.538136959075927734e+00 9.441927909851074219e+00 2.371137380599975586e+00 6.324371099472045898e-01
5.896000000000000000e+03 4.344989776611328125e+01 -9.554745674133300781e+00 -1.919214248657226562e+00 8.831668853759765625e+00 2.073736429214477539e+00 5.614364743232727051e-01
5.897000000000000000e+03 7.043895721435546875e+01 2.776121902465820312e+01 -7.768622040748596191e-01 6.589492321014404297e+00 1.743788957595825195e+00 -5.407676100730895996e-01
5.898000000000000000e+03 1.086353397369384766e+01 1.110887432098388672e+01 -5.834120791405439377e-03 -5.539441946893930435e-03 -3.412068821489810944e-03 -2.975393435917794704e-04
5.899000000000000000e+03 8.294452667236328125e+00 2.133501434326171875e+01 -5.433195456862449646e-02 3.411842277273535728e-03 -1.527603343129158020e-02 5.675717070698738098e-02
5.900000000000000000e+03 6.330878067016601562e+01 -3.138202667236328125e+00 3.686044216156005859e-01 2.231959104537963867e+00 7.801690697669982910e-01 -6.132223010063171387e-01
5.901000000000000000e+03 4.404778671264648438e+01 2.096240043640136719e+01 -1.654854267835617065e-01 5.900254726409912109e+00 1.720430850982666016e+00 -3.878949284553527832e-01
5.902000000000000000e+03 1.531303882598876953e+01 2.542066955566406250e+01 -1.225289478898048401e-01 6.574413925409317017e-02 -1.703544333577156067e-02 1.422857195138931274e-01
5.903000000000000000e+03 9.432201385498046875e+00 2.412689208984375000e+01 -6.110864877700805664e-02 8.326173759996891022e-03 -1.583474315702915192e-02 9.629932790994644165e-02
5.904000000000000000e+03 9.528378486633300781e+00 1.178190135955810547e+01 -8.985524997115135193e-03 -5.212076939642429352e-03 -4.259280860424041748e-03 -3.029817307833582163e-04
5.905000000000000000e+03 7.194162750244140625e+01 2.967769622802734375e+01 -4.818054437637329102e-01 6.716059684753417969e+00 1.870276212692260742e+00 -2.854713797569274902e-01
5.906000000000000000e+03 8.635492324829101562e+00 1.351291370391845703e+01 -1.522053312510251999e-02 -3.829349763691425323e-03 -5.714965052902698517e-03 2.418260322883725166e-03
5.907000000000000000e+03 9.068615913391113281e+00 1.300781726837158203e+01 -1.263917516916990280e-02 -4.192884080111980438e-03 -5.049617495387792587e-03 8.647681097500026226e-04
5.908000000000000000e+03 7.195691680908203125e+01 -7.938227176666259766e+00 -5.440375208854675293e-01 7.745584964752197266e+00 2.160464286804199219e+00 3.416954278945922852e-01
5.909000000000000000e+03 7.158329772949218750e+01 -7.079917907714843750e+00 -5.968496203422546387e-01 7.481260776519775391e+00 2.065323352813720703e+00 2.025151401758193970e-01
5.910000000000000000e+03 7.155235290527343750e+01 -1.126718878746032715e+00 -5.975489020347595215e-01 6.736586570739746094e+00 1.841711282730102539e+00 2.407651208341121674e-02
5.911000000000000000e+03 7.228909301757812500e+01 8.709049224853515625e-01 -6.008880138397216797e-01 7.009679794311523438e+00 1.922637462615966797e+00 -8.543521910905838013e-02
5.912000000000000000e+03 7.183714294433593750e+01 1.016760706901550293e+00 -6.268204450607299805e-01 6.855467319488525391e+00 1.868594050407409668e+00 -6.941048800945281982e-02
5.913000000000000000e+03 7.053990173339843750e+01 1.065516322851181030e-01 -6.333210468292236328e-01 6.391698837280273438e+00 1.727513313293457031e+00 2.934541087597608566e-03
5.914000000000000000e+03 7.829027175903320312e+00 1.446442985534667969e+01 -1.807105541229248047e-02 -2.893785713240504265e-03 -6.289452314376831055e-03 5.499308928847312927e-03
5.915000000000000000e+03 4.045882797241210938e+01 2.193386650085449219e+01 -1.455041468143463135e-01 4.367272853851318359e+00 1.266530632972717285e+00 -1.057835578918457031e+00
5.916000000000000000e+03 1.174604129791259766e+01 1.840866088867187500e+01 -7.514160126447677612e-02 1.898550800979137421e-02 -1.684682816267013550e-02 1.163747627288103104e-02
5.917000000000000000e+03 1.488517189025878906e+01 2.726890754699707031e+01 -5.530627071857452393e-02 5.667521059513092041e-02 4.106818814761936665e-04 1.546428352594375610e-01
5.918000000000000000e+03 1.579448318481445312e+01 2.837265205383300781e+01 -1.780866086483001709e-02 6.409938633441925049e-02 1.388721726834774017e-02 1.535497903823852539e-01
5.919000000000000000e+03 4.258763504028320312e+01 2.418109321594238281e+01 -4.918176531791687012e-01 4.792270183563232422e+00 1.290135741233825684e+00 -6.156820058822631836e-01
5.920000000000000000e+03 6.934577941894531250e+01 2.772725486755371094e+01 -7.790933847427368164e-01 6.149690151214599609e+00 1.611178994178771973e+00 -8.339584469795227051e-01
5.921000000000000000e+03 1.216931533813476562e+01 3.206912231445312500e+01 4.826230183243751526e-02 4.441944416612386703e-03 1.581127382814884186e-02 1.286480724811553955e-01
5.922000000000000000e+03 1.594833850860595703e+01 3.061630249023437500e+01 5.058439821004867554e-02 7.751280814409255981e-02 3.842916339635848999e-02 1.389573365449905396e-01
5.923000000000000000e+03 1.353695487976074219e+01 3.715483093261718750e+01 1.157518327236175537e-01 4.208001494407653809e-02 4.734955355525016785e-02 6.803729385137557983e-02
5.924000000000000000e+03 1.013208103179931641e+01 -4.027643585205078125e+01 -4.283461719751358032e-03 -9.822715073823928833e-02 -3.075318224728107452e-02 -2.289073169231414795e-02
5.925000000000000000e+03 4.084391021728515625e+01 3.000693511962890625e+01 -5.783862471580505371e-01 3.560575008392333984e+00 8.946565985679626465e-01 -4.265595972537994385e-01
5.926000000000000000e+03 4.481435394287109375e+01 3.064038848876953125e+01 -7.463780641555786133e-01 4.095494270324707031e+00 1.004734754562377930e+00 1.174159049987792969e-01
5.927000000000000000e+03 2.403849029541015625e+01 3.771791839599609375e+01 1.687839478254318237e-01 6.386420726776123047e-01 2.422278076410293579e-01 -6.595356762409210205e-02
5.928000000000000000e+03 1.741791725158691406e+01 3.154989624023437500e+01 8.952781558036804199e-02 1.198549643158912659e-01 6.281483173370361328e-02 1.102638840675354004e-01
5.929000000000000000e+03 4.334453582763671875e+01 2.535006713867187500e+01 -6.299346685409545898e-01 4.748599052429199219e+00 1.235599279403686523e+00 -3.841605782508850098e-01
5.930000000000000000e+03 6.504756164550781250e+01 3.538853454589843750e+01 3.833872079849243164e-01 4.038813114166259766e+00 1.326660037040710449e+00 -2.972368001937866211e-01
5.931000000000000000e+03 2.862863159179687500e+01 3.513847351074218750e+01 6.887235492467880249e-02 1.139495253562927246e+00 3.625102937221527100e-01 -2.514868974685668945e-01
5.932000000000000000e+03 4.080276107788085938e+01 -3.274834823608398438e+01 -7.392668128013610840e-01 5.148879051208496094e+00 1.322883725166320801e+00 2.700411677360534668e-01
5.933000000000000000e+03 3.413386917114257812e+01 3.200970840454101562e+01 -1.683573871850967407e-01 2.066013813018798828e+00 5.692969560623168945e-01 -5.539981126785278320e-01
5.934000000000000000e+03 3.209355545043945312e+01 3.508433914184570312e+01 -7.239150255918502808e-02 1.697709202766418457e+00 4.875952899456024170e-01 -3.375232815742492676e-01
5.935000000000000000e+03 1.772857475280761719e+01 -4.149816513061523438e+01 1.605122089385986328e-01 2.323841154575347900e-01 1.178689002990722656e-01 -2.902069129049777985e-02
5.936000000000000000e+03 7.118677520751953125e+01 -4.714064598083496094e+00 -6.127725243568420410e-01 6.924062728881835938e+00 1.893387079238891602e+00 5.466248095035552979e-02
5.937000000000000000e+03 6.479239654541015625e+01 -2.696636676788330078e+00 8.703006058931350708e-02 3.182997703552246094e+00 9.810083508491516113e-01 -4.510550200939178467e-01
5.938000000000000000e+03 6.651554870605468750e+01 -5.064819812774658203e+00 -2.257610112428665161e-01 4.565681934356689453e+00 1.301976323127746582e+00 -7.335656881332397461e-01
5.939000000000000000e+03 6.589879608154296875e+01 -1.798427581787109375e+00 -1.360427737236022949e-01 3.903271198272705078e+00 1.130168557167053223e+00 -2.593933343887329102e-01
5.940000000000000000e+03 6.976892089843750000e+01 -6.224919319152832031e+00 -6.129665374755859375e-01 6.703327178955078125e+00 1.827108263969421387e+00 -2.323162853717803955e-01
5.941000000000000000e+03 7.126584625244140625e+01 -3.983834743499755859e+00 -6.142020821571350098e-01 6.845090866088867188e+00 1.869266629219055176e+00 4.434312134981155396e-02
5.942000000000000000e+03 9.476027488708496094e+00 1.119318962097167969e+01 -6.301626563072204590e-03 -5.114662926644086838e-03 -3.424886846914887428e-03 -1.170969480881467462e-04
5.943000000000000000e+03 6.334923553466796875e+01 -3.784209728240966797e+00 3.614253103733062744e-01 2.306774139404296875e+00 8.004598617553710938e-01 -7.267460227012634277e-01
5.944000000000000000e+03 6.658198547363281250e+01 -1.031627297401428223e+00 -2.704168558120727539e-01 4.278705120086669922e+00 1.202486515045166016e+00 -8.368093520402908325e-02
5.945000000000000000e+03 4.136884307861328125e+01 -9.021110534667968750e+00 -1.607285022735595703e+00 7.534247398376464844e+00 1.778088688850402832e+00 9.551897048950195312e-01
5.946000000000000000e+03 4.064219665527343750e+01 -1.053269386291503906e+01 -9.575245380401611328e-01 6.800608158111572266e+00 1.752925038337707520e+00 6.273805499076843262e-01
5.947000000000000000e+03 7.155587768554687500e+01 5.257165431976318359e+00 -6.813287734985351562e-01 7.282129287719726562e+00 1.980240225791931152e+00 -3.023945689201354980e-01
5.948000000000000000e+03 8.570646286010742188e+00 1.272152423858642578e+01 -1.137120462954044342e-02 -4.474690183997154236e-03 -4.753768444061279297e-03 1.065436983481049538e-03
5.949000000000000000e+03 6.407989501953125000e+01 -3.245739936828613281e+00 2.219886630773544312e-01 2.791789770126342773e+00 9.041334986686706543e-01 -5.955988168716430664e-01
5.950000000000000000e+03 9.417941093444824219e+00 2.324804115295410156e+01 -6.708858162164688110e-02 1.191358268260955811e-02 -1.655250042676925659e-02 8.501750230789184570e-02
5.951000000000000000e+03 7.105319213867187500e+01 -2.550028800964355469e+00 -6.007587909698486328e-01 6.624675750732421875e+00 1.807175159454345703e+00 1.780278980731964111e-02
5.952000000000000000e+03 3.984760284423828125e+01 -1.175878238677978516e+01 -3.669004440307617188e-01 5.970434188842773438e+00 1.681060075759887695e+00 4.504896998405456543e-01
5.953000000000000000e+03 1.037804603576660156e+01 2.629883766174316406e+01 -4.734762012958526611e-02 5.627627484500408173e-03 -1.251599751412868500e-02 1.224874779582023621e-01
5.954000000000000000e+03 7.094551086425781250e+01 3.849253654479980469e+00 -7.378008961677551270e-01 6.866947174072265625e+00 1.838743805885314941e+00 -9.701550751924514771e-02
5.955000000000000000e+03 7.177570343017578125e+01 3.323208093643188477e+00 -6.852238178253173828e-01 7.049646377563476562e+00 1.909326672554016113e+00 -1.827559173107147217e-01
5.956000000000000000e+03 7.065070343017578125e+01 -3.883349180221557617e+00 -6.015061736106872559e-01 6.603043079376220703e+00 1.800461053848266602e+00 -2.231810241937637329e-02
5.957000000000000000e+03 6.902852630615234375e+01 -6.887103557586669922e+00 -5.788438916206359863e-01 6.521535873413085938e+00 1.782807588577270508e+00 -4.674011468887329102e-01
5.958000000000000000e+03 7.003334808349609375e+01 2.643443346023559570e+00 -7.164115309715270996e-01 6.352831840515136719e+00 1.690926194190979004e+00 4.583919048309326172e-02
5.959000000000000000e+03 8.818383216857910156e+00 1.712175559997558594e+01 -3.848628699779510498e-02 3.474855562672019005e-03 -1.050342991948127747e-02 1.608476787805557251e-02
5.960000000000000000e+03 9.132213592529296875e+00 1.665586662292480469e+01 -3.709273040294647217e-02 2.381551312282681465e-03 -1.041335426270961761e-02 1.194742415100336075e-02
5.961000000000000000e+03 1.104044628143310547e+01 1.929208564758300781e+01 -7.817884534597396851e-02 2.158192545175552368e-02 -1.697907596826553345e-02 2.586967311799526215e-02
5.962000000000000000e+03 8.626541137695312500e+00 1.501000404357910156e+01 -2.305144071578979492e-02 -1.606733771041035652e-03 -7.397452369332313538e-03 6.030156742781400681e-03
5.963000000000000000e+03 9.359225273132324219e+00 1.240275859832763672e+01 -1.092903781682252884e-02 -4.960541147738695145e-03 -4.766873549669981003e-03 2.823783433996140957e-04
5.964000000000000000e+03 1.188379478454589844e+01 2.021986961364746094e+01 -9.936939179897308350e-02 3.253548219799995422e-02 -2.005017362534999847e-02 3.295308351516723633e-02
5.965000000000000000e+03 3.855279922485351562e+01 -1.200739860534667969e+01 -1.072285994887351990e-01 4.790137767791748047e+00 1.404872775077819824e+00 3.787484467029571533e-01
5.966000000000000000e+03 6.532306671142578125e+01 -5.066414833068847656e+00 -7.432661019265651703e-03 3.714636564254760742e+00 1.112161159515380859e+00 -8.777399659156799316e-01
5.967000000000000000e+03 7.107377624511718750e+01 -5.064146518707275391e-01 -6.111720204353332520e-01 6.574358463287353516e+00 1.788955926895141602e+00 -3.740394895430654287e-04
5.968000000000000000e+03 6.863451385498046875e+01 -1.256287932395935059e+00 -5.075185298919677734e-01 5.506134033203125000e+00 1.499584555625915527e+00 -5.706008523702621460e-02
5.969000000000000000e+03 6.893073272705078125e+01 1.772951841354370117e+00 -6.528806686401367188e-01 5.731920242309570312e+00 1.523711919784545898e+00 1.513642221689224243e-01
5.970000000000000000e+03 7.095125579833984375e+01 -6.989119052886962891e+00 -6.304643154144287109e-01 7.306538105010986328e+00 2.002822160720825195e+00 3.310981020331382751e-02
5.971000000000000000e+03 1.104953670501708984e+01 2.189060783386230469e+01 -9.171350300312042236e-02 2.961163036525249481e-02 -1.863056048750877380e-02 6.561944633722305298e-02
5.972000000000000000e+03 9.348505973815917969e+00 2.595243453979492188e+01 -4.432911798357963562e-02 -4.079149570316076279e-03 -1.452247984707355499e-02 1.125937327742576599e-01
5.973000000000000000e+03 1.218879795074462891e+01 2.388904190063476562e+01 -1.037899255752563477e-01 4.319192841649055481e-02 -1.817939803004264832e-02 1.011113673448562622e-01
5.974000000000000000e+03 8.794031143188476562e+00 2.096980285644531250e+01 -5.933385342359542847e-02 8.940414525568485260e-03 -1.511803176254034042e-02 5.316618084907531738e-02
5.975000000000000000e+03 9.379146575927734375e+00 1.913978385925292969e+01 -5.753164738416671753e-02 1.076847966760396957e-02 -1.402894966304302216e-02 3.153531625866889954e-02
5.976000000000000000e+03 1.051319217681884766e+01 1.604914855957031250e+01 -3.885317593812942505e-02 2.759557683020830154e-03 -1.082808524370193481e-02 4.196267109364271164e-03
5.977000000000000000e+03 1.083620452880859375e+01 1.681646728515625000e+01 -4.685831069946289062e-02 6.739345844835042953e-03 -1.203568931668996811e-02 6.312241777777671814e-03
5.978000000000000000e+03 6.890655517578125000e+01 7.418442368507385254e-01 -6.044753789901733398e-01 5.650461196899414062e+00 1.513795733451843262e+00 8.994780480861663818e-02
5.979000000000000000e+03 6.659593963623046875e+01 -1.792665243148803711e+00 -2.481937408447265625e-01 4.330329895019531250e+00 1.224640846252441406e+00 -2.033796757459640503e-01
5.980000000000000000e+03 4.001214981079101562e+01 -1.239918804168701172e+01 -2.119416296482086182e-01 6.114303588867187500e+00 1.770708680152893066e+00 3.692409098148345947e-01
5.981000000000000000e+03 6.947514343261718750e+01 2.234683752059936523e+00 -7.055765986442565918e-01 6.064304351806640625e+00 1.607618331909179688e+00 1.169182509183883667e-01
5.982000000000000000e+03 4.075351333618164062e+01 -1.210843658447265625e+01 -3.770600557327270508e-01 6.793632984161376953e+00 1.924971938133239746e+00 3.911714851856231689e-01
5.983000000000000000e+03 8.146102905273437500e+00 1.392670631408691406e+01 -1.509038079530000687e-02 -3.699866356328129768e-03 -5.637074355036020279e-03 3.255362156778573990e-03
5.984000000000000000e+03 6.942545318603515625e+01 1.786349713802337646e-01 -6.083736419677734375e-01 5.903676509857177734e+00 1.588590860366821289e+00 3.854226320981979370e-02
5.985000000000000000e+03 6.993247222900390625e+01 1.674990773200988770e+00 -6.816176176071166992e-01 6.206704139709472656e+00 1.657525897026062012e+00 5.292744189500808716e-02
5.986000000000000000e+03 1.020995235443115234e+01 2.253088951110839844e+01 -8.077823370695114136e-02 2.243922464549541473e-02 -1.750170439481735229e-02 7.597801834344863892e-02
5.987000000000000000e+03 1.192837524414062500e+01 2.217808341979980469e+01 -1.097964420914649963e-01 4.157445207238197327e-02 -2.046659775078296661e-02 6.930522620677947998e-02
5.988000000000000000e+03 1.364108371734619141e+01 2.480604553222656250e+01 -1.131104603409767151e-01 5.520498752593994141e-02 -1.737164147198200226e-02 1.244020164012908936e-01
5.989000000000000000e+03 4.170931625366210938e+01 -1.066337966918945312e+01 -1.126665115356445312e+00 7.661783695220947266e+00 1.960535645484924316e+00 5.213398337364196777e-01
5.990000000000000000e+03 7.101160430908203125e+01 7.195692658424377441e-01 -6.484011411666870117e-01 6.574133872985839844e+00 1.777719736099243164e+00 -1.297751255333423615e-02
5.991000000000000000e+03 1.469298267364501953e+01 2.435363006591796875e+01 -1.465892791748046875e-01 6.667492538690567017e-02 -2.397430874407291412e-02 1.185619607567787170e-01
5.992000000000000000e+03 9.643168449401855469e+00 1.340760707855224609e+01 -1.635331287980079651e-02 -4.227936733514070511e-03 -6.174374837428331375e-03 1.155351870693266392e-03
5.993000000000000000e+03 1.016697311401367188e+01 1.115938568115234375e+01 -6.645142566412687302e-03 -5.768783390522003174e-03 -3.724177833646535873e-03 -6.412338116206228733e-04
5.994000000000000000e+03 4.627624893188476562e+01 -5.123403072357177734e+00 -1.553459882736206055e+00 8.437274932861328125e+00 2.065144538879394531e+00 4.939043223857879639e-01
5.995000000000000000e+03 7.094184112548828125e+01 -1.619876742362976074e+00 -5.843113064765930176e-01 6.534937381744384766e+00 1.785187840461730957e+00 3.860540455207228661e-03
5.996000000000000000e+03 7.043998718261718750e+01 1.175473690032958984e+00 -6.654559373855590820e-01 6.388659477233886719e+00 1.716961026191711426e+00 8.380463346838951111e-03
5.997000000000000000e+03 6.943255615234375000e+01 1.214538812637329102e+00 -6.536119580268859863e-01 5.951294898986816406e+00 1.589304804801940918e+00 8.502009510993957520e-02
5.998000000000000000e+03 1.003232860565185547e+01 1.265992546081542969e+01 -1.260151620954275131e-02 -4.892506171017885208e-03 -5.248206667602062225e-03 -2.643189218360930681e-04
5.999000000000000000e+03 9.303510665893554688e+00 1.586644363403320312e+01 -3.261036798357963562e-02 8.331952849403023720e-04 -9.533151984214782715e-03 7.262662053108215332e-03
6.000000000000000000e+03 8.673048019409179688e+00 1.573040390014648438e+01 -2.873161248862743378e-02 -2.729607513174414635e-04 -8.701371960341930389e-03 8.398943580687046051e-03
6.001000000000000000e+03 1.022167873382568359e+01 2.008547401428222656e+01 -7.407248020172119141e-02 1.942820288240909576e-02 -1.639328338205814362e-02 3.940898180007934570e-02
6.002000000000000000e+03 1.023130893707275391e+01 1.924271392822265625e+01 -6.794074177742004395e-02 1.648545265197753906e-02 -1.543658692389726639e-02 3.015242703258991241e-02
6.003000000000000000e+03 7.211349487304687500e+01 -8.865743637084960938e+00 -4.548790752887725830e-01 7.956289768218994141e+00 2.250423192977905273e+00 4.402428865432739258e-01
6.004000000000000000e+03 9.342587471008300781e+00 2.003582763671875000e+01 -6.187508627772331238e-02 1.236674375832080841e-02 -1.485250331461429596e-02 4.147391021251678467e-02
6.005000000000000000e+03 1.119391727447509766e+01 2.801748657226562500e+01 -2.769641205668449402e-02 7.151774596422910690e-03 -6.163391750305891037e-03 1.387267708778381348e-01
6.006000000000000000e+03 4.152671051025390625e+01 2.455560874938964844e+01 -4.499705731868743896e-01 4.397796154022216797e+00 1.184347748756408691e+00 -7.566516399383544922e-01
6.007000000000000000e+03 1.034525299072265625e+01 2.422311210632324219e+01 -7.303673774003982544e-02 1.987601257860660553e-02 -1.594821549952030182e-02 1.021698936820030212e-01
6.008000000000000000e+03 1.361398506164550781e+01 2.812972259521484375e+01 -2.828193083405494690e-02 3.862028941512107849e-02 3.101507667452096939e-03 1.511632651090621948e-01
6.009000000000000000e+03 1.469724655151367188e+01 2.946971130371093750e+01 1.331913657486438751e-02 5.104827880859375000e-02 1.931022480130195618e-02 1.501224189996719360e-01
6.010000000000000000e+03 1.362485790252685547e+01 3.366599273681640625e+01 8.663813024759292603e-02 3.343689441680908203e-02 3.602250665426254272e-02 1.135131418704986572e-01
6.011000000000000000e+03 5.456227874755859375e+01 3.523938369750976562e+01 1.051298007369041443e-01 3.121098518371582031e+00 9.678685069084167480e-01 6.360036730766296387e-01
6.012000000000000000e+03 1.652832412719726562e+01 3.326246261596679688e+01 1.175956428050994873e-01 1.159326657652854919e-01 7.005849480628967285e-02 1.060658916831016541e-01
6.013000000000000000e+03 4.290185165405273438e+01 3.024615478515625000e+01 -6.835770606994628906e-01 3.868911743164062500e+00 9.556003808975219727e-01 -1.657959520816802979e-01
6.014000000000000000e+03 6.392444229125976562e+01 -3.853813171386718750e+00 2.477252036333084106e-01 2.693069696426391602e+00 8.822385072708129883e-01 -6.960257291793823242e-01
6.015000000000000000e+03 6.531496429443359375e+01 -2.596197128295898438e+00 -2.454027161002159119e-02 3.557121276855468750e+00 1.059774279594421387e+00 -4.143187701702117920e-01
6.016000000000000000e+03 7.135665893554687500e+01 -8.837359428405761719e+00 -5.093267560005187988e-01 7.889672756195068359e+00 2.214103698730468750e+00 2.366992235183715820e-01
6.017000000000000000e+03 7.023580932617187500e+01 -2.990147590637207031e+00 -5.889069437980651855e-01 6.326796531677246094e+00 1.721366882324218750e+00 -6.461101770401000977e-02
6.018000000000000000e+03 6.662200927734375000e+01 -2.554993152618408203e+00 -2.390249073505401611e-01 4.400950908660888672e+00 1.248577833175659180e+00 -3.265710771083831787e-01
6.019000000000000000e+03 6.835455322265625000e+01 -6.824541568756103516e+00 -5.216791033744812012e-01 6.122905254364013672e+00 1.680367946624755859e+00 -6.515175700187683105e-01
6.020000000000000000e+03 6.478167724609375000e+01 -3.254782676696777344e+00 9.586074203252792358e-02 3.229210138320922852e+00 9.975212812423706055e-01 -5.614130496978759766e-01
6.021000000000000000e+03 1.023594665527343750e+01 2.333189392089843750e+01 -7.846821844577789307e-02 2.197301574051380157e-02 -1.694856025278568268e-02 8.775335550308227539e-02
6.022000000000000000e+03 8.757273674011230469e+00 1.216945838928222656e+01 -9.416148066520690918e-03 -4.530108999460935593e-03 -4.183877259492874146e-03 4.518066707532852888e-04
6.023000000000000000e+03 9.593850135803222656e+00 1.830721664428710938e+01 -5.317965149879455566e-02 9.275961667299270630e-03 -1.317110750824213028e-02 2.262293174862861633e-02
6.024000000000000000e+03 9.757126808166503906e+00 1.758958244323730469e+01 -4.840113595128059387e-02 7.402441930025815964e-03 -1.229960843920707703e-02 1.593023724853992462e-02
6.025000000000000000e+03 1.029083824157714844e+01 1.842080879211425781e+01 -6.084579229354858398e-02 1.295362785458564758e-02 -1.436764933168888092e-02 2.081217058002948761e-02
6.026000000000000000e+03 9.861351966857910156e+00 1.698932838439941406e+01 -4.444746673107147217e-02 6.035214755684137344e-03 -1.152367517352104187e-02 1.228163111954927444e-02
6.027000000000000000e+03 1.002616405487060547e+01 1.648990058898925781e+01 -3.848485648632049561e-02 3.708185628056526184e-03 -1.043300144374370575e-02 8.189324289560317993e-03
6.028000000000000000e+03 4.017331695556640625e+01 -1.096084308624267578e+01 -7.108609676361083984e-01 6.346687793731689453e+00 1.690748095512390137e+00 6.001974344253540039e-01
6.029000000000000000e+03 3.969512176513671875e+01 -1.118910312652587891e+01 -4.868687987327575684e-01 5.804685592651367188e+00 1.595345020294189453e+00 5.390487313270568848e-01
6.030000000000000000e+03 7.082743072509765625e+01 -3.175583124160766602e+00 -5.999108552932739258e-01 6.596436023712158203e+00 1.798957467079162598e+00 3.104503965005278587e-03
6.031000000000000000e+03 7.050744628906250000e+01 -2.254355669021606445e+00 -5.953322052955627441e-01 6.397426605224609375e+00 1.740628242492675781e+00 -1.095365919172763824e-02
6.032000000000000000e+03 7.042745971679687500e+01 -5.451780796051025391e+00 -6.231083869934082031e-01 6.780323982238769531e+00 1.847164750099182129e+00 -8.320032060146331787e-02
6.033000000000000000e+03 6.723175048828125000e+01 -1.138185143470764160e+00 -3.622468411922454834e-01 4.712855339050292969e+00 1.305182576179504395e+00 -6.744629889726638794e-02
6.034000000000000000e+03 1.159617996215820312e+01 2.667607498168945312e+01 -5.082061141729354858e-02 2.223861403763294220e-02 -8.574599400162696838e-03 1.348285377025604248e-01
6.035000000000000000e+03 1.100667762756347656e+01 2.331235885620117188e+01 -9.062362462282180786e-02 3.157027065753936768e-02 -1.771600730717182159e-02 9.194324165582656860e-02
6.036000000000000000e+03 1.149745464324951172e+01 2.530089950561523438e+01 -7.605948299169540405e-02 3.001178801059722900e-02 -1.381430961191654205e-02 1.204923912882804871e-01
6.037000000000000000e+03 9.049762725830078125e+00 1.398176765441894531e+01 -1.780874282121658325e-02 -3.115131985396146774e-03 -6.277162581682205200e-03 2.660883124917745590e-03
6.038000000000000000e+03 7.112931823730468750e+01 -5.482520580291748047e+00 -6.272718310356140137e-01 7.028800964355468750e+00 1.920458793640136719e+00 5.185130238533020020e-02
6.039000000000000000e+03 6.584181976318359375e+01 -5.169447422027587891e+00 -1.060738340020179749e-01 4.085135936737060547e+00 1.193718552589416504e+00 -8.529875874519348145e-01
6.040000000000000000e+03 9.451507568359375000e+00 2.243562126159667969e+01 -7.001680135726928711e-02 1.468574628233909607e-02 -1.659931614995002747e-02 7.269348949193954468e-02
6.041000000000000000e+03 6.996282196044921875e+01 6.625705361366271973e-01 -6.472128629684448242e-01 6.152724742889404297e+00 1.651653528213500977e+00 3.471650183200836182e-02
6.042000000000000000e+03 1.108138179779052734e+01 2.103605461120605469e+01 -9.196074306964874268e-02 2.986303716897964478e-02 -1.862931251525878906e-02 5.096093565225601196e-02
6.043000000000000000e+03 1.163959884643554688e+01 2.298643875122070312e+01 -1.054532974958419800e-01 3.903263062238693237e-02 -1.992619968950748444e-02 8.472337573766708374e-02
6.044000000000000000e+03 1.101512527465820312e+01 1.843845176696777344e+01 -6.749513745307922363e-02 1.621483452618122101e-02 -1.538409013301134109e-02 1.763377152383327484e-02
6.045000000000000000e+03 6.710175323486328125e+01 -5.913898468017578125e+00 -3.265441954135894775e-01 5.085238456726074219e+00 1.427608251571655273e+00 -8.102042078971862793e-01
6.046000000000000000e+03 6.949209594726562500e+01 -5.069739341735839844e+00 -5.884342789649963379e-01 6.341520786285400391e+00 1.725925922393798828e+00 -2.458560615777969360e-01
6.047000000000000000e+03 6.923443603515625000e+01 -2.366319656372070312e+00 -5.350057482719421387e-01 5.824816703796386719e+00 1.586943268775939941e+00 -1.080556288361549377e-01
6.048000000000000000e+03 7.105970001220703125e+01 -6.251044750213623047e+00 -6.289473772048950195e-01 7.157234191894531250e+00 1.958486080169677734e+00 5.200131237506866455e-02
6.049000000000000000e+03 7.049739074707031250e+01 -4.651086330413818359e+00 -6.200363636016845703e-01 6.662078380584716797e+00 1.812612533569335938e+00 -6.722597032785415649e-02
6.050000000000000000e+03 1.106646251678466797e+01 2.016045379638671875e+01 -8.598675578832626343e-02 2.612420171499252319e-02 -1.795876584947109222e-02 3.782917931675910950e-02
6.051000000000000000e+03 1.417969512939453125e+01 2.606135749816894531e+01 -8.905918896198272705e-02 5.481928586959838867e-02 -1.027197018265724182e-02 1.440076529979705811e-01
6.052000000000000000e+03 1.257703781127929688e+01 2.515535354614257812e+01 -9.381216019392013550e-02 4.249950125813484192e-02 -1.539379823952913284e-02 1.228689104318618774e-01
6.053000000000000000e+03 1.235639476776123047e+01 2.922392654418945312e+01 -2.577686915174126625e-03 1.883335039019584656e-02 4.876698832958936691e-03 1.451498568058013916e-01
6.054000000000000000e+03 1.352414321899414062e+01 3.071971130371093750e+01 3.355630487203598022e-02 3.179898485541343689e-02 1.960658654570579529e-02 1.426988691091537476e-01
6.055000000000000000e+03 7.151525878906250000e+01 2.763139724731445312e+01 -7.499305009841918945e-01 7.002481937408447266e+00 1.875765442848205566e+00 -2.597640454769134521e-01
6.056000000000000000e+03 1.530453777313232422e+01 3.518600082397460938e+01 1.312432438135147095e-01 8.625372499227523804e-02 6.524909287691116333e-02 8.832244575023651123e-02
6.057000000000000000e+03 3.952755355834960938e+01 -3.552134704589843750e+01 -9.700470566749572754e-01 4.627063274383544922e+00 1.097104787826538086e+00 2.917303442955017090e-01
6.058000000000000000e+03 4.251852416992187500e+01 3.227679061889648438e+01 -6.372244954109191895e-01 3.635675907135009766e+00 8.995354175567626953e-01 -1.045579016208648682e-01
6.059000000000000000e+03 6.798871612548828125e+01 -5.277637481689453125e+00 -4.502031803131103516e-01 5.572214126586914062e+00 1.536603331565856934e+00 -5.407654643058776855e-01
6.060000000000000000e+03 6.498755645751953125e+01 -3.814777851104736328e+00 5.856611207127571106e-02 3.431598186492919922e+00 1.047049283981323242e+00 -6.479757428169250488e-01
6.061000000000000000e+03 6.554555511474609375e+01 -3.489784955978393555e+00 -5.411599203944206238e-02 3.806700468063354492e+00 1.125775337219238281e+00 -5.325443744659423828e-01
6.062000000000000000e+03 1.094679737091064453e+01 2.262929916381835938e+01 -9.280463308095932007e-02 3.143874928355216980e-02 -1.840976439416408539e-02 7.430949807167053223e-02
6.063000000000000000e+03 1.016592311859130859e+01 1.186394214630126953e+01 -8.928153663873672485e-03 -5.287393461912870407e-03 -4.264664370566606522e-03 -2.463024284224957228e-04
6.064000000000000000e+03 7.040170288085937500e+01 -6.221957683563232422e+00 -6.380444169044494629e-01 6.947950363159179688e+00 1.892971754074096680e+00 -1.050493866205215454e-01
6.065000000000000000e+03 6.985354614257812500e+01 -2.126156806945800781e+00 -5.740873217582702637e-01 6.137189865112304688e+00 1.668930649757385254e+00 -4.652209207415580750e-02
6.066000000000000000e+03 6.738494873046875000e+01 -2.472896575927734375e+00 -3.465907275676727295e-01 4.837996482849121094e+00 1.347421765327453613e+00 -2.553124427795410156e-01
6.067000000000000000e+03 8.444223403930664062e+00 1.437254810333251953e+01 -1.985732465982437134e-02 -2.856539329513907433e-03 -6.814159452915191650e-03 4.476836882531642914e-03
6.068000000000000000e+03 6.981932830810546875e+01 -4.478203773498535156e+00 -5.927116870880126953e-01 6.364594936370849609e+00 1.731564998626708984e+00 -1.613450050354003906e-01
6.069000000000000000e+03 6.885591125488281250e+01 -2.775966227054595947e-01 -5.591544508934020996e-01 5.601742744445800781e+00 1.512776494026184082e+00 2.248314768075942993e-02
6.070000000000000000e+03 6.967816162109375000e+01 -1.477023482322692871e+00 -5.702424645423889160e-01 6.038123130798339844e+00 1.640364289283752441e+00 -3.720334172248840332e-02
6.071000000000000000e+03 1.025138187408447266e+01 2.092648315429687500e+01 -7.732923328876495361e-02 2.087169885635375977e-02 -1.693725958466529846e-02 5.181983113288879395e-02
6.072000000000000000e+03 6.830482482910156250e+01 -2.780442714691162109e+00 -4.556130170822143555e-01 5.411145210266113281e+00 1.486659646034240723e+00 -2.020193934440612793e-01
6.073000000000000000e+03 6.929314422607421875e+01 -8.602023720741271973e-01 -5.692947506904602051e-01 5.840662479400634766e+00 1.581410288810729980e+00 -1.372044160962104797e-02
6.074000000000000000e+03 6.740885925292968750e+01 -6.351070404052734375e-01 -4.030775427818298340e-01 4.808498859405517578e+00 1.321626424789428711e+00 -1.544964499771595001e-02
6.075000000000000000e+03 6.728513336181640625e+01 -1.756642818450927734e+00 -3.502556681632995605e-01 4.725553512573242188e+00 1.312589287757873535e+00 -1.505977213382720947e-01
6.076000000000000000e+03 6.593298339843750000e+01 -3.858339071273803711e+00 -1.173867061734199524e-01 4.068354606628417969e+00 1.185290336608886719e+00 -5.847086310386657715e-01
6.077000000000000000e+03 6.727095794677734375e+01 -5.087699413299560547e+00 -3.496270477771759033e-01 5.067035198211669922e+00 1.415222406387329102e+00 -6.366683244705200195e-01
6.078000000000000000e+03 6.780075073242187500e+01 -6.013189315795898438e+00 -4.458444118499755859e-01 5.585038185119628906e+00 1.541758179664611816e+00 -6.771645545959472656e-01
6.079000000000000000e+03 6.861237335205078125e+01 -4.008864879608154297e+00 -4.976149201393127441e-01 5.678961753845214844e+00 1.554404020309448242e+00 -3.139498233795166016e-01
6.080000000000000000e+03 9.475613594055175781e+00 2.088463783264160156e+01 -6.772745400667190552e-02 1.431033574044704437e-02 -1.602513529360294342e-02 5.138909444212913513e-02
6.081000000000000000e+03 4.530018234252929688e+01 3.524481964111328125e+01 -5.652151703834533691e-01 3.587065219879150391e+00 9.065549969673156738e-01 1.386653184890747070e-01
6.082000000000000000e+03 1.537182712554931641e+01 3.934067535400390625e+01 1.562954187393188477e-01 1.169462352991104126e-01 8.197249472141265869e-02 3.194879367947578430e-02
6.083000000000000000e+03 6.215941238403320312e+01 3.797160339355468750e+01 5.346236824989318848e-01 3.599486112594604492e+00 1.240232944488525391e+00 -6.544840522110462189e-03
6.084000000000000000e+03 6.892975616455078125e+01 -3.518815279006958008e+00 -5.270758867263793945e-01 5.764965534210205078e+00 1.571366906166076660e+00 -2.231475412845611572e-01
6.085000000000000000e+03 6.816426086425781250e+01 -2.193598031997680664e+00 -4.600058197975158691e-01 5.309584617614746094e+00 1.454873681068420410e+00 -1.592298001050949097e-01
6.086000000000000000e+03 6.941712188720703125e+01 -3.652711868286132812e+00 -5.661543011665344238e-01 6.068418025970458984e+00 1.650678992271423340e+00 -1.681780070066452026e-01
6.087000000000000000e+03 6.979212951660156250e+01 -5.543123245239257812e+00 -6.120250225067138672e-01 6.550863742828369141e+00 1.781651616096496582e+00 -2.138743251562118530e-01
6.088000000000000000e+03 6.847809600830078125e+01 -6.120908737182617188e+00 -5.290279388427734375e-01 6.030701637268066406e+00 1.650502085685729980e+00 -5.441952943801879883e-01
6.089000000000000000e+03 6.923574829101562500e+01 -5.583630084991455078e+00 -5.824419856071472168e-01 6.299574851989746094e+00 1.715139865875244141e+00 -3.382788896560668945e-01
6.090000000000000000e+03 6.641982269287109375e+01 -3.294129848480224609e+00 -1.970139145851135254e-01 4.313412189483642578e+00 1.234919548034667969e+00 -4.430999457836151123e-01
6.091000000000000000e+03 6.853170776367187500e+01 -3.214439868927001953e+00 -4.793203771114349365e-01 5.550575256347656250e+00 1.521376490592956543e+00 -2.440857142210006714e-01
6.092000000000000000e+03 6.864640045166015625e+01 -5.446664333343505859e+00 -5.327857732772827148e-01 5.990664958953857422e+00 1.637363791465759277e+00 -4.433396160602569580e-01
6.093000000000000000e+03 6.828996276855468750e+01 -6.929078698158264160e-01 -4.970904886722564697e-01 5.313990592956542969e+00 1.445070028305053711e+00 -1.570720411837100983e-02
6.094000000000000000e+03 6.885163879394531250e+01 -2.804687023162841797e+00 -5.133475065231323242e-01 5.701991558074951172e+00 1.556593179702758789e+00 -1.462720036506652832e-01
6.095000000000000000e+03 6.891838836669921875e+01 -1.845703601837158203e+00 -5.266306996345520020e-01 5.669423103332519531e+00 1.542837738990783691e+00 -8.734124898910522461e-02
6.096000000000000000e+03 6.635260009765625000e+01 -4.356895923614501953e+00 -1.925205439329147339e-01 4.373826026916503906e+00 1.254391670227050781e+00 -6.451951861381530762e-01
6.097000000000000000e+03 6.796726989746093750e+01 -1.576553106307983398e+00 -4.465614855289459229e-01 5.162081718444824219e+00 1.414656043052673340e+00 -1.087430417537689209e-01
6.098000000000000000e+03 4.019424819946289062e+01 3.260798645019531250e+01 -5.162473320960998535e-01 3.196557521820068359e+00 8.040930628776550293e-01 -3.170432150363922119e-01
6.099000000000000000e+03 4.427004241943359375e+01 3.245419311523437500e+01 -6.640247106552124023e-01 3.810635328292846680e+00 9.439831972122192383e-01 4.895052686333656311e-02
6.100000000000000000e+03 4.835470199584960938e+01 3.128197860717773438e+01 -6.975795626640319824e-01 4.080852985382080078e+00 1.014981985092163086e+00 6.537149548530578613e-01
6.101000000000000000e+03 6.759696960449218750e+01 -4.285409927368164062e+00 -3.796295523643493652e-01 5.155409336090087891e+00 1.432733893394470215e+00 -4.825756549835205078e-01
6.102000000000000000e+03 6.919613647460937500e+01 -4.248917579650878906e+00 -5.547983646392822266e-01 6.036130905151367188e+00 1.644399762153625488e+00 -2.424950301647186279e-01
6.103000000000000000e+03 6.807786560058593750e+01 -3.656821012496948242e+00 -4.474833607673645020e-01 5.362730026245117188e+00 1.474573969841003418e+00 -3.374065160751342773e-01
6.104000000000000000e+03 6.763391113281250000e+01 -3.152774572372436523e+00 -3.749178647994995117e-01 5.043869495391845703e+00 1.400685548782348633e+00 -3.131568431854248047e-01
6.105000000000000000e+03 5.197052001953125000e+01 3.852804946899414062e+01 -5.340685695409774780e-02 3.304898977279663086e+00 9.754476547241210938e-01 3.315613567829132080e-01
6.106000000000000000e+03 4.758408737182617188e+01 4.116617202758789062e+01 -3.394962847232818604e-01 3.368506908416748047e+00 9.087031483650207520e-01 7.275521755218505859e-02
6.107000000000000000e+03 4.825396347045898438e+01 3.587970733642578125e+01 -4.294791519641876221e-01 3.537175178527832031e+00 9.323087930679321289e-01 3.837036788463592529e-01
6.108000000000000000e+03 2.029368019104003906e+01 3.726383209228515625e+01 1.845317482948303223e-01 3.505387902259826660e-01 1.605211645364761353e-01 1.486427732743322849e-03
6.109000000000000000e+03 3.886210632324218750e+01 2.956420707702636719e+01 -4.511137008666992188e-01 3.213820934295654297e+00 8.288121819496154785e-01 -6.068202853202819824e-01
6.110000000000000000e+03 3.589048004150390625e+01 3.049392700195312500e+01 -2.430243194103240967e-01 2.388499021530151367e+00 6.436424255371093750e-01 -6.387658715248107910e-01
6.111000000000000000e+03 1.738726806640625000e+01 3.651830291748046875e+01 1.703517585992813110e-01 1.864502429962158203e-01 1.070405989885330200e-01 5.699529498815536499e-02
6.112000000000000000e+03 3.244667053222656250e+01 3.794844055175781250e+01 -1.004541218280792236e-01 1.760078787803649902e+00 4.978874027729034424e-01 -2.068473696708679199e-01
6.113000000000000000e+03 4.717761611938476562e+01 -4.135799026489257812e+01 -7.158776521682739258e-01 3.287325859069824219e+00 7.714344859123229980e-01 -1.331044733524322510e-01
6.114000000000000000e+03 6.653997802734375000e+01 -4.085222625732421875e+01 3.054672181606292725e-01 4.110125541687011719e+00 1.324677824974060059e+00 1.020148545503616333e-01
6.115000000000000000e+03 4.268962478637695312e+01 4.079524993896484375e+01 -4.508068859577178955e-01 3.115979194641113281e+00 7.995516657829284668e-01 -4.072264302521944046e-03
6.116000000000000000e+03 3.545384597778320312e+01 3.412973403930664062e+01 -2.649677097797393799e-01 2.351583957672119141e+00 6.259848475456237793e-01 -4.272482693195343018e-01
6.117000000000000000e+03 2.056394767761230469e+01 2.183806800842285156e+01 -5.965427756309509277e-01 -6.440047174692153931e-02 -1.982829719781875610e-01 -2.727427333593368530e-02
6.118000000000000000e+03 3.711450576782226562e+00 -4.054402160644531250e+01 -1.823301776312291622e-03 -5.236827135086059570e-01 -1.576518118381500244e-01 1.012213295325636864e-03
6.119000000000000000e+03 7.543313598632812500e+01 -4.025294113159179688e+01 -3.652635216712951660e-02 8.293012619018554688e+00 2.476945877075195312e+00 -5.148746073246002197e-02
6.120000000000000000e+03 2.661355972290039062e+01 2.187924766540527344e+01 -5.235865116119384766e-01 1.330839097499847412e-02 -1.530834287405014038e-01 -1.115266932174563408e-03
6.121000000000000000e+03 1.096847915649414062e+01 -1.479997634887695312e+01 3.860139846801757812e-02 3.451599776744842529e-01 1.151284128427505493e-01 -5.984967201948165894e-02
6.122000000000000000e+03 1.402984976768493652e+00 4.196649169921875000e+01 7.074883673340082169e-03 -3.409165441989898682e-01 -1.001524999737739563e-01 6.321654189378023148e-03
6.123000000000000000e+03 2.032187938690185547e+00 4.090804672241210938e+01 -2.618194557726383209e-03 -3.088668584823608398e-01 -9.344550967216491699e-02 3.607144812121987343e-03
6.124000000000000000e+03 2.084445381164550781e+01 3.458030700683593750e+01 1.832225173711776733e-01 3.345822393894195557e-01 1.553414165973663330e-01 -8.066613227128982544e-03
6.125000000000000000e+03 2.059157371520996094e+01 2.249456644058227539e+00 -2.015274221776053309e-04 1.308419159613549709e-04 -2.120565477525815368e-05 1.654079533182084560e-04
6.126000000000000000e+03 2.079147148132324219e+01 1.567516207695007324e+00 2.574932586867362261e-04 3.849427157547324896e-04 1.927307894220575690e-04 8.494203211739659309e-05
6.127000000000000000e+03 2.366461992263793945e+00 3.817660522460937500e+01 8.890284225344657898e-03 -2.698203623294830322e-01 -7.827901840209960938e-02 2.499520406126976013e-02
6.128000000000000000e+03 2.099636650085449219e+01 2.945749759674072266e+00 -2.549877099227160215e-04 -9.123483323492109776e-05 -1.038667687680572271e-04 -6.364982982631772757e-05
6.129000000000000000e+03 7.889896392822265625e+01 3.865634155273437500e+01 7.883162470534443855e-04 7.953848361968994141e+00 2.386391162872314453e+00 -3.009041585028171539e-02
6.130000000000000000e+03 6.879922485351562500e+01 2.120485687255859375e+01 -1.210296973586082458e-01 9.254143714904785156e+00 2.739934206008911133e+00 -6.080149412155151367e-01
6.131000000000000000e+03 4.813337707519531250e+01 1.442292779684066772e-01 2.385352373123168945e+00 7.793052196502685547e+00 3.053521394729614258e+00 -1.701256394386291504e+00
6.132000000000000000e+03 4.743119430541992188e+01 4.545979201793670654e-01 2.222147464752197266e+00 9.156965255737304688e+00 3.413733720779418945e+00 -9.949019551277160645e-01
6.133000000000000000e+03 7.612490844726562500e+01 -4.171524429321289062e+01 -1.557285711169242859e-02 8.889847755432128906e+00 2.662282466888427734e+00 -6.529954075813293457e-02
6.134000000000000000e+03 2.516350746154785156e+01 2.436509132385253906e+01 -2.144541591405868530e-01 8.524247258901596069e-02 -3.876350820064544678e-02 -9.098516404628753662e-02
6.135000000000000000e+03 2.576272010803222656e+01 2.402316093444824219e+01 -2.222077250480651855e-01 1.024296432733535767e-01 -3.593342751264572144e-02 -1.280385106801986694e-01
6.136000000000000000e+03 1.970217823982238770e+00 3.961606979370117188e+01 5.104010459035634995e-03 -3.056954741477966309e-01 -9.017743915319442749e-02 1.307817641645669937e-02
6.137000000000000000e+03 6.224310874938964844e+00 -3.623296356201171875e+01 -2.391462773084640503e-02 -3.349838554859161377e-01 -1.076695397496223450e-01 1.187710370868444443e-02
6.138000000000000000e+03 4.319598770141601562e+01 3.401603317260742188e+01 -6.018327474594116211e-01 3.582944154739379883e+00 8.943334221839904785e-01 -2.816882915794849396e-02
6.139000000000000000e+03 6.015214157104492188e+01 -3.448424911499023438e+01 -7.228277623653411865e-02 9.546365737915039062e-01 2.647061347961425781e-01 2.120462507009506226e-01
6.140000000000000000e+03 4.318959808349609375e+01 -3.301625823974609375e+01 -8.998871445655822754e-01 4.985297203063964844e+00 1.225623011589050293e+00 -2.447278350591659546e-01
6.141000000000000000e+03 5.764277267456054688e+01 -8.004186630249023438e+00 -7.783077359199523926e-01 2.336041033267974854e-01 -1.634110808372497559e-01 -3.350394666194915771e-01
6.142000000000000000e+03 1.995541191101074219e+01 2.238662242889404297e+00 2.995188988279551268e-04 6.050861557014286518e-04 2.713815192691981792e-04 2.621994644869118929e-04
6.143000000000000000e+03 7.821581268310546875e+01 3.841330337524414062e+01 1.583451591432094574e-02 7.780644893646240234e+00 2.338943719863891602e+00 -5.451572313904762268e-02
6.144000000000000000e+03 7.587091827392578125e+01 -3.825967025756835938e+01 -2.257097885012626648e-02 8.475300788879394531e+00 2.535818815231323242e+00 -7.732228934764862061e-02
6.145000000000000000e+03 3.296808624267578125e+01 2.155619239807128906e+01 1.785063892602920532e-01 1.071956276893615723e+00 3.751387894153594971e-01 -7.744656801223754883e-01
6.146000000000000000e+03 2.955623149871826172e+00 -3.577740478515625000e+01 -8.425518870353698730e-03 -5.759301781654357910e-01 -1.753067076206207275e-01 1.649061404168605804e-02
6.147000000000000000e+03 2.091411018371582031e+01 -6.488263607025146484e+00 -3.479319810867309570e-01 8.901198953390121460e-02 -7.767599821090698242e-02 -3.679426759481430054e-02
6.148000000000000000e+03 2.190957450866699219e+01 -1.145707416534423828e+01 3.271973431110382080e-01 2.694774605333805084e-02 1.062435284256935120e-01 -2.112587690353393555e-01
6.149000000000000000e+03 5.733902740478515625e+01 -6.762819766998291016e+00 -3.494554460048675537e-01 1.575720608234405518e-01 -5.756501480937004089e-02 -8.529973030090332031e-01
6.150000000000000000e+03 2.680532264709472656e+01 2.478304672241210938e+01 -7.960990816354751587e-02 2.688775956630706787e-01 5.678030475974082947e-02 -2.530202865600585938e-01
6.151000000000000000e+03 9.404921531677246094e+00 3.245398330688476562e+01 3.228192776441574097e-02 -4.479389637708663940e-02 -3.753591328859329224e-03 1.150686517357826233e-01
6.152000000000000000e+03 6.571259307861328125e+01 -2.795787811279296875e+01 -1.057019710540771484e+00 3.723717689514160156e+00 8.000094294548034668e-01 7.973110079765319824e-01
6.153000000000000000e+03 6.935490417480468750e+01 1.049319839477539062e+01 3.306106626987457275e-01 8.640462875366210938e+00 2.691322088241577148e+00 3.648763597011566162e-01
6.154000000000000000e+03 7.020867919921875000e+01 1.135025882720947266e+01 5.848008394241333008e-01 9.122353553771972656e+00 2.912146329879760742e+00 -1.348039135336875916e-02
6.155000000000000000e+03 7.043724822998046875e+01 1.326142787933349609e+01 1.127503037452697754e+00 9.912650108337402344e+00 3.312045812606811523e+00 -2.982750535011291504e-02
6.156000000000000000e+03 7.049739837646484375e+01 1.510367202758789062e+01 1.391749501228332520e+00 1.050487327575683594e+01 3.568986654281616211e+00 3.873812779784202576e-02
6.157000000000000000e+03 4.567724227905273438e+01 5.408978462219238281e+00 1.447603940963745117e+00 1.371413707733154297e+01 4.548522472381591797e+00 6.081342697143554688e-02
6.158000000000000000e+03 4.549015808105468750e+01 6.656393051147460938e+00 1.416604161262512207e+00 1.369885540008544922e+01 4.534637928009033203e+00 2.183532416820526123e-01
6.159000000000000000e+03 4.450941848754882812e+01 3.438320636749267578e+00 1.913945198059082031e+00 1.457958602905273438e+01 4.948059082031250000e+00 6.144500374794006348e-01
6.160000000000000000e+03 4.412206649780273438e+01 3.031831979751586914e+00 1.929224371910095215e+00 1.515519332885742188e+01 5.125325202941894531e+00 1.021504998207092285e+00
6.161000000000000000e+03 2.332857894897460938e+01 -5.579229354858398438e+00 -5.767533779144287109e-01 1.284400373697280884e-01 -1.344939917325973511e-01 4.809948429465293884e-02
6.162000000000000000e+03 2.005531692504882812e+01 2.337293815612792969e+01 -3.404789268970489502e-01 7.397874724119901657e-03 -9.992431849241256714e-02 1.143697947263717651e-01
6.163000000000000000e+03 9.766009330749511719e+00 -1.335447406768798828e+01 2.048175036907196045e-02 1.677788496017456055e-01 5.647817999124526978e-02 -1.537729054689407349e-01
6.164000000000000000e+03 8.427804946899414062e+00 -1.525160312652587891e+01 4.859296604990959167e-02 1.281327009201049805e-01 5.301769822835922241e-02 -2.021866589784622192e-01
6.165000000000000000e+03 9.660647392272949219e+00 -5.262341976165771484e+00 -1.766184866428375244e-01 2.927661128342151642e-02 -4.420256242156028748e-02 -1.760837286710739136e-01
6.166000000000000000e+03 8.350739479064941406e+00 -2.039816856384277344e+01 1.812505722045898438e-01 1.519495546817779541e-01 9.996003657579421997e-02 -1.638152897357940674e-01
6.167000000000000000e+03 9.917439460754394531e+00 -2.479666137695312500e+01 1.546985954046249390e-01 2.681484818458557129e-01 1.268541216850280762e-01 -8.590275794267654419e-02
6.168000000000000000e+03 2.061751174926757812e+01 -1.101940345764160156e+01 2.916883230209350586e-01 4.353234916925430298e-02 1.005662009119987488e-01 -1.694290041923522949e-01
6.169000000000000000e+03 4.507951736450195312e+01 -1.029021501541137695e+00 1.492511272430419922e+00 1.076618671417236328e+01 3.677609443664550781e+00 5.060006976127624512e-01
6.170000000000000000e+03 1.969352722167968750e+01 2.921198272705078125e+01 5.577586218714714050e-02 1.139640361070632935e-01 5.092196911573410034e-02 8.612912148237228394e-02
6.171000000000000000e+03 4.899244308471679688e+01 -3.480842590332031250e+00 5.198036432266235352e-01 5.274579524993896484e+00 1.738314867019653320e+00 -3.132686018943786621e-01
6.172000000000000000e+03 5.417482757568359375e+01 2.470569801330566406e+01 -4.802321493625640869e-01 3.067754030227661133e+00 7.762565612792968750e-01 2.045854568481445312e+00
6.173000000000000000e+03 4.791641998291015625e+01 -6.635777473449707031e+00 -2.190057516098022461e+00 6.479644298553466797e+00 1.286875963211059570e+00 7.641655802726745605e-01
6.174000000000000000e+03 5.903102493286132812e+01 -3.327599716186523438e+01 -4.099796116352081299e-01 2.540973126888275146e-01 -4.676469042897224426e-02 -7.734031230211257935e-02
6.175000000000000000e+03 5.433764266967773438e+01 -2.869800567626953125e+00 1.848575830459594727e+00 -1.278685182332992554e-01 5.162122249603271484e-01 -1.144511580467224121e+00
6.176000000000000000e+03 5.483861923217773438e+01 -3.251058578491210938e+00 1.491408109664916992e+00 -2.653956711292266846e-01 3.678037226200103760e-01 -1.229946255683898926e+00
6.177000000000000000e+03 9.231297492980957031e+00 -1.336320209503173828e+01 1.449842751026153564e-02 1.397118568420410156e-01 4.626308381557464600e-02 -1.808180510997772217e-01
6.178000000000000000e+03 8.624136924743652344e+00 -1.370570850372314453e+01 1.706945523619651794e-02 1.047182157635688782e-01 3.653630241751670837e-02 -1.990175396203994751e-01
6.179000000000000000e+03 2.590147495269775391e+00 3.448982620239257812e+01 7.574303075671195984e-03 -2.228015363216400146e-01 -6.456816941499710083e-02 4.682016745209693909e-02
6.180000000000000000e+03 4.456941604614257812e+01 4.797627925872802734e+00 1.462951183319091797e+00 1.509824180603027344e+01 4.968358039855957031e+00 2.009465247392654419e-01
6.181000000000000000e+03 7.402583122253417969e+00 3.048458862304687500e+01 4.322038963437080383e-03 -6.930025666952133179e-02 -1.949346438050270081e-02 1.106586083769798279e-01
6.182000000000000000e+03 4.810633468627929688e+01 1.657001113891601562e+01 9.918001890182495117e-01 8.551961898803710938e+00 2.863128662109375000e+00 1.887269496917724609e+00
6.183000000000000000e+03 5.776485061645507812e+01 -4.399426460266113281e+00 7.520515918731689453e-01 -2.465527504682540894e-02 2.182188928127288818e-01 -1.115626215934753418e+00
6.184000000000000000e+03 4.818095779418945312e+01 -5.886072158813476562e+00 -1.656294941902160645e+00 6.033524513244628906e+00 1.313168883323669434e+00 6.292184591293334961e-01
6.185000000000000000e+03 5.580394744873046875e+00 3.224105072021484375e+01 7.629816420376300812e-03 -1.204724386334419250e-01 -3.385278582572937012e-02 9.051849693059921265e-02
6.186000000000000000e+03 4.521182632446289062e+01 -1.558922529220581055e+00 1.021563887596130371e+00 1.028981018066406250e+01 3.393412351608276367e+00 3.730780184268951416e-01
6.187000000000000000e+03 4.833288955688476562e+01 1.715837287902832031e+01 1.056419372558593750e+00 8.238438606262207031e+00 2.788457393646240234e+00 1.895153284072875977e+00
6.188000000000000000e+03 4.465870666503906250e+01 -1.402895569801330566e+00 1.219865083694458008e+00 1.101352787017822266e+01 3.670017719268798828e+00 7.489579319953918457e-01
6.189000000000000000e+03 4.444028854370117188e+01 -1.978528857231140137e+00 7.971956133842468262e-01 1.087236690521240234e+01 3.500868797302246094e+00 7.770660519599914551e-01
6.190000000000000000e+03 7.097718048095703125e+01 1.480270385742187500e+01 1.310162901878356934e+00 1.002390289306640625e+01 3.400219678878784180e+00 -6.469516549259424210e-03
6.191000000000000000e+03 7.439055919647216797e+00 2.958541297912597656e+01 -7.334436522796750069e-04 -6.121693179011344910e-02 -1.858511380851268768e-02 1.122344657778739929e-01
6.192000000000000000e+03 7.360679626464843750e+00 2.878956794738769531e+01 -6.296702660620212555e-03 -5.447207391262054443e-02 -1.823063381016254425e-02 1.142124086618423462e-01
6.193000000000000000e+03 4.427159881591796875e+01 -1.090934944152832031e+01 -1.220988869667053223e+00 9.101827621459960938e+00 2.364251613616943359e+00 3.591718077659606934e-01
6.194000000000000000e+03 7.157175445556640625e+01 1.446748828887939453e+01 1.265055298805236816e+00 9.352884292602539062e+00 3.185381889343261719e+00 -2.570272088050842285e-01
6.195000000000000000e+03 6.628153228759765625e+01 -1.018689918518066406e+01 1.791854500770568848e-01 5.279848098754882812e+00 1.637710094451904297e+00 -1.959627628326416016e+00
6.196000000000000000e+03 1.771893692016601562e+01 -6.740944862365722656e+00 -2.362295985221862793e-01 8.889583498239517212e-02 -4.420012980699539185e-02 -1.128422394394874573e-01
6.197000000000000000e+03 5.913370132446289062e+01 -5.825076580047607422e+00 3.320299983024597168e-01 3.917355835437774658e-01 2.171296626329421997e-01 -9.313340187072753906e-01
6.198000000000000000e+03 5.878510665893554688e+01 -6.409827232360839844e+00 8.776186406612396240e-02 3.482351899147033691e-01 1.307991147041320801e-01 -8.414927721023559570e-01
6.199000000000000000e+03 7.014044952392578125e+01 -1.086109066009521484e+01 -1.955993622541427612e-01 8.568149566650390625e+00 2.511765003204345703e+00 -8.573479950428009033e-02
6.200000000000000000e+03 4.975425338745117188e+01 -3.820964336395263672e+00 5.173000097274780273e-01 4.007189750671386719e+00 1.357346892356872559e+00 -3.152576684951782227e-01
6.201000000000000000e+03 1.072446441650390625e+01 -2.650263595581054688e+01 9.271522611379623413e-02 2.879680097103118896e-01 1.142049729824066162e-01 -9.712505340576171875e-02
6.202000000000000000e+03 7.190606689453125000e+01 1.307134437561035156e+01 9.331856369972229004e-01 8.961882591247558594e+00 2.968520402908325195e+00 -4.800859689712524414e-01
6.203000000000000000e+03 1.237358665466308594e+01 -9.006196022033691406e+00 -1.811827346682548523e-02 7.393373548984527588e-02 1.674463972449302673e-02 -1.890621334314346313e-01
6.204000000000000000e+03 4.431074905395507812e+01 -4.645710945129394531e+00 -1.446669220924377441e+00 9.885628700256347656e+00 2.531687974929809570e+00 7.914307117462158203e-01
6.205000000000000000e+03 4.334503555297851562e+01 -8.250791549682617188e+00 -2.260199785232543945e+00 8.994771957397460938e+00 2.020371437072753906e+00 7.732075452804565430e-01
6.206000000000000000e+03 7.175444793701171875e+01 2.197322082519531250e+01 -2.094028592109680176e-01 8.564932823181152344e+00 2.506659030914306641e+00 6.389426589012145996e-01
6.207000000000000000e+03 7.144194793701171875e+01 2.231688690185546875e+01 -3.822009861469268799e-01 8.542203903198242188e+00 2.448000907897949219e+00 4.644441604614257812e-01
6.208000000000000000e+03 6.953659057617187500e+01 -2.716311264038085938e+01 -1.227917432785034180e+00 7.444078445434570312e+00 1.864848256111145020e+00 7.787343114614486694e-02
6.209000000000000000e+03 6.973676300048828125e+01 2.555448341369628906e+01 -1.091530561447143555e+00 7.070292472839355469e+00 1.793628573417663574e+00 -6.881319880485534668e-01
6.210000000000000000e+03 3.407529830932617188e+01 2.496376800537109375e+01 1.253500115126371384e-02 1.792727351188659668e+00 5.415787100791931152e-01 -9.051845669746398926e-01
6.211000000000000000e+03 4.296733093261718750e+01 -2.549814987182617188e+01 8.603314757347106934e-01 7.005297660827636719e+00 2.359688758850097656e+00 6.651839017868041992e-01
6.212000000000000000e+03 4.333724594116210938e+01 -2.646957778930664062e+01 4.677942991256713867e-01 6.783011436462402344e+00 2.175241708755493164e+00 4.299195110797882080e-01
6.213000000000000000e+03 9.263989448547363281e+00 -2.839145660400390625e+01 2.429171651601791382e-02 7.345804572105407715e-02 2.932492829859256744e-02 -2.801264636218547821e-02
6.214000000000000000e+03 5.832790374755859375e+01 -4.306519985198974609e+00 7.861138582229614258e-01 7.896426320075988770e-02 2.595234513282775879e-01 -1.048672318458557129e+00
6.215000000000000000e+03 7.201841735839843750e+01 -1.677424430847167969e+01 1.781804084777832031e+00 9.634510040283203125e+00 3.424894332885742188e+00 -1.822149455547332764e-01
6.216000000000000000e+03 6.735617828369140625e+01 -2.803125572204589844e+01 -1.200992226600646973e+00 5.534868717193603516e+00 1.300162911415100098e+00 7.241009473800659180e-01
6.217000000000000000e+03 4.694913864135742188e+01 1.546080875396728516e+01 8.181723952293395996e-01 8.913032531738281250e+00 2.919361591339111328e+00 1.485279202461242676e+00
6.218000000000000000e+03 8.433712005615234375e+00 -5.842321872711181641e+00 -1.337473243474960327e-01 1.029651053249835968e-02 -3.703524544835090637e-02 -1.876937150955200195e-01
6.219000000000000000e+03 5.966623306274414062e+01 -6.089359760284423828e+00 3.036499619483947754e-01 4.840793907642364502e-01 2.363187968730926514e-01 -8.673461079597473145e-01
6.220000000000000000e+03 7.247757720947265625e+01 -2.353908538818359375e+01 5.993622541427612305e-02 9.008061408996582031e+00 2.720399379730224609e+00 -1.355054974555969238e+00
6.221000000000000000e+03 7.601071166992187500e+01 2.064664077758789062e+01 2.163114547729492188e-01 7.294964790344238281e+00 2.253382921218872070e+00 7.375834584236145020e-01
6.222000000000000000e+03 1.173297119140625000e+01 -7.258195400238037109e+00 -1.256228834390640259e-01 5.905594304203987122e-02 -1.997007988393306732e-02 -2.020169049501419067e-01
6.223000000000000000e+03 7.392432403564453125e+01 -2.971173286437988281e+01 -6.440650224685668945e-01 8.215491294860839844e+00 2.271427869796752930e+00 -6.301823258399963379e-01
6.224000000000000000e+03 2.847154808044433594e+01 -1.204181671142578125e+01 5.636292099952697754e-01 -1.248718574643135071e-01 1.316272020339965820e-01 -1.595195531845092773e-01
6.225000000000000000e+03 7.249962615966796875e+01 1.293753528594970703e+01 8.531603217124938965e-01 8.556963920593261719e+00 2.823037147521972656e+00 -5.620179772377014160e-01
6.226000000000000000e+03 5.962818527221679688e+01 -4.606200218200683594e+00 6.775639057159423828e-01 4.784500002861022949e-01 3.468041718006134033e-01 -9.401348829269409180e-01
6.227000000000000000e+03 6.563321113586425781e+00 -2.236830711364746094e+01 1.280631721019744873e-01 -1.406482011079788208e-01 -3.775509307160973549e-03 -7.220096141099929810e-02
6.228000000000000000e+03 6.961598968505859375e+01 -2.833227729797363281e+01 -1.184637069702148438e+00 7.053523063659667969e+00 1.760665893554687500e+00 9.544850140810012817e-02
6.229000000000000000e+03 4.246947479248046875e+01 -8.699091911315917969e+00 -1.968629717826843262e+00 8.432019233703613281e+00 1.939016819000244141e+00 8.551615476608276367e-01
6.230000000000000000e+03 6.691201686859130859e+00 2.865227508544921875e+01 -6.939447484910488129e-03 -6.454348564147949219e-02 -2.144487947225570679e-02 1.051882058382034302e-01
6.231000000000000000e+03 1.648881149291992188e+01 1.979007339477539062e+01 -1.805687993764877319e-01 3.598156198859214783e-02 -4.337617009878158569e-02 -3.761011734604835510e-02
6.232000000000000000e+03 4.260779953002929688e+01 -1.703108787536621094e+01 1.072728276252746582e+00 8.707148551940917969e+00 2.933963060379028320e+00 7.650523781776428223e-01
6.233000000000000000e+03 7.244614410400390625e+01 1.248161888122558594e+01 7.455320358276367188e-01 8.563038825988769531e+00 2.792571306228637695e+00 -6.456826925277709961e-01
6.234000000000000000e+03 3.581075286865234375e+01 2.252855682373046875e+01 1.358133405447006226e-01 2.234838724136352539e+00 7.111955881118774414e-01 -1.109957814216613770e+00
6.235000000000000000e+03 3.632026672363281250e+01 2.464201164245605469e+01 -5.710968747735023499e-02 2.531982421875000000e+00 7.424618005752563477e-01 -1.032510519027709961e+00
6.236000000000000000e+03 7.476173400878906250e+00 2.713614845275878906e+01 -2.384221553802490234e-02 -3.676572069525718689e-02 -1.818238012492656708e-02 1.065051928162574768e-01
6.237000000000000000e+03 3.440187835693359375e+01 -1.110014820098876953e+01 4.615190625190734863e-01 1.196571350097656250e+00 4.974271357059478760e-01 1.469918340444564819e-01
6.238000000000000000e+03 2.293848419189453125e+01 -9.385432243347167969e+00 -5.277542397379875183e-02 6.873866915702819824e-02 4.788973834365606308e-03 -1.884654611349105835e-01
6.239000000000000000e+03 2.745004272460937500e+01 -1.117152976989746094e+01 3.250343501567840576e-01 -1.067713052034378052e-01 6.547890603542327881e-02 -2.440389096736907959e-01
6.240000000000000000e+03 4.141714859008789062e+01 -1.395540332794189453e+01 2.680546939373016357e-01 7.359206199645996094e+00 2.288178205490112305e+00 3.705507516860961914e-01
6.241000000000000000e+03 4.205726623535156250e+01 -1.537219619750976562e+01 7.421099543571472168e-01 8.019077301025390625e+00 2.628356218338012695e+00 5.477353334426879883e-01
6.242000000000000000e+03 1.502221775054931641e+01 6.995756626129150391e+00 3.207451663911342621e-05 -6.263415561988949776e-04 -1.782801118679344654e-04 2.653572708368301392e-03
6.243000000000000000e+03 6.346810913085937500e+01 2.587911415100097656e+01 -3.019005060195922852e-01 1.678220987319946289e+00 4.128961563110351562e-01 -9.769856333732604980e-01
6.244000000000000000e+03 4.123341751098632812e+01 -8.431197166442871094e+00 -1.701314091682434082e+00 7.476922035217285156e+00 1.732682347297668457e+00 1.144300103187561035e+00
6.245000000000000000e+03 6.622699260711669922e+00 -9.618323326110839844e+00 -3.789919242262840271e-02 -5.836641415953636169e-02 -2.887968160212039948e-02 -2.245771288871765137e-01
6.246000000000000000e+03 3.489344787597656250e+01 -1.082515621185302734e+01 3.567205667495727539e-01 1.498661398887634277e+00 5.566145777702331543e-01 2.344559878110885620e-01
6.247000000000000000e+03 8.939808845520019531e+00 -6.504822731018066406e+00 -1.261141151189804077e-01 1.761544868350028992e-02 -3.254959732294082642e-02 -2.001853883266448975e-01
6.248000000000000000e+03 7.303237152099609375e+01 -2.648622512817382812e+01 -6.465021967887878418e-01 8.491830825805664062e+00 2.353598594665527344e+00 -1.051895022392272949e+00
6.249000000000000000e+03 3.775941085815429688e+01 2.322000122070312500e+01 -4.977807030081748962e-02 3.103381156921386719e+00 9.160808920860290527e-01 -1.131801366806030273e+00
6.250000000000000000e+03 7.539027404785156250e+01 -2.379246139526367188e+01 3.974123671650886536e-02 8.212847709655761719e+00 2.475776910781860352e+00 -1.344653606414794922e+00
6.251000000000000000e+03 7.306697082519531250e+01 -2.598213386535644531e+01 -5.982199907302856445e-01 8.529993057250976562e+00 2.379531860351562500e+00 -1.136397480964660645e+00
6.252000000000000000e+03 7.370622253417968750e+01 -2.590464401245117188e+01 -4.810099005699157715e-01 8.515784263610839844e+00 2.410432338714599609e+00 -1.199271559715270996e+00
6.253000000000000000e+03 7.269046020507812500e+01 8.830919265747070312e+00 -1.749986708164215088e-01 7.975446701049804688e+00 2.340134382247924805e+00 -7.552917003631591797e-01
6.254000000000000000e+03 1.546364402770996094e+01 1.817847061157226562e+01 -9.350501745939254761e-02 1.308278366923332214e-02 -2.412667125463485718e-02 -3.165310621261596680e-02
6.255000000000000000e+03 1.469308280944824219e+01 2.027602005004882812e+01 -1.554289460182189941e-01 4.937828704714775085e-02 -3.181519731879234314e-02 8.619354106485843658e-03
6.256000000000000000e+03 1.414865112304687500e+01 2.031683540344238281e+01 -1.386899352073669434e-01 4.523999989032745361e-02 -2.803498320281505585e-02 1.511167269200086594e-02
6.257000000000000000e+03 4.310651016235351562e+01 1.736578750610351562e+01 2.728803455829620361e-01 6.658087730407714844e+00 2.079290390014648438e+00 -6.354275345802307129e-01
6.258000000000000000e+03 7.420829010009765625e+01 1.381416606903076172e+01 7.232322096824645996e-01 7.914423942565917969e+00 2.591296672821044922e+00 -5.458595156669616699e-01
6.259000000000000000e+03 4.005795669555664062e+01 -8.894186973571777344e+00 -1.254870176315307617e+00 6.336909294128417969e+00 1.524611711502075195e+00 1.149703502655029297e+00
6.260000000000000000e+03 4.412109375000000000e+01 1.397398662567138672e+01 5.357385873794555664e-01 9.004446983337402344e+00 2.862055540084838867e+00 -1.364530716091394424e-02
6.261000000000000000e+03 7.395333099365234375e+01 -2.671493339538574219e+01 -5.624731183052062988e-01 8.444574356079101562e+00 2.364630460739135742e+00 -1.088357686996459961e+00
6.262000000000000000e+03 7.524678802490234375e+01 1.435328865051269531e+01 5.869993567466735840e-01 7.465553760528564453e+00 2.415766000747680664e+00 -4.183610975742340088e-01
6.263000000000000000e+03 7.440070343017578125e+01 -2.612173271179199219e+01 -4.342751801013946533e-01 8.467129707336425781e+00 2.409856319427490234e+00 -1.212884545326232910e+00
6.264000000000000000e+03 6.521802520751953125e+01 -1.234527468681335449e+00 -2.834456786513328552e-02 3.400116920471191406e+00 1.011531710624694824e+00 -1.681129187345504761e-01
6.265000000000000000e+03 7.083406829833984375e+01 -7.688779830932617188e+00 -6.109895706176757812e-01 7.458571434020996094e+00 2.054274559020996094e+00 3.010705113410949707e-02
6.266000000000000000e+03 7.141694641113281250e+01 -7.758739948272705078e+00 -5.967150926589965820e-01 7.627789974212646484e+00 2.109322309494018555e+00 1.867221295833587646e-01
6.267000000000000000e+03 7.555197143554687500e+01 7.224175930023193359e+00 -1.978984177112579346e-01 7.678311347961425781e+00 2.244123935699462891e+00 -7.861431837081909180e-01
6.268000000000000000e+03 5.515638828277587891e+00 2.606805610656738281e+01 -1.868439652025699615e-02 -5.460298061370849609e-02 -2.198621258139610291e-02 8.320724219083786011e-02
6.269000000000000000e+03 6.573187255859375000e+01 -4.677586078643798828e+00 -8.676971495151519775e-02 3.974722146987915039e+00 1.166385650634765625e+00 -7.702339291572570801e-01
6.270000000000000000e+03 7.502644348144531250e+01 -1.650224113464355469e+01 8.679728507995605469e-01 7.795907974243164062e+00 2.599164247512817383e+00 1.014433428645133972e-01
6.271000000000000000e+03 7.503250122070312500e+01 -1.585803127288818359e+01 8.182056546211242676e-01 7.792718887329101562e+00 2.583277463912963867e+00 2.710135579109191895e-01
6.272000000000000000e+03 7.499134826660156250e+01 -1.515128135681152344e+01 7.331531643867492676e-01 7.812438964843750000e+00 2.563677549362182617e+00 4.417945444583892822e-01
6.273000000000000000e+03 3.777008056640625000e+01 2.173204040527343750e+01 9.170811623334884644e-02 3.107192277908325195e+00 9.596701264381408691e-01 -1.231949329376220703e+00
6.274000000000000000e+03 1.224102592468261719e+01 9.071698188781738281e+00 -1.146987779065966606e-03 -4.957246594130992889e-03 -1.831270288676023483e-03 1.007702783681452274e-03
6.275000000000000000e+03 7.171538543701171875e+01 -8.493509292602539062e+00 -5.235776305198669434e-01 7.855856895446777344e+00 2.199683904647827148e+00 3.147040009498596191e-01
6.276000000000000000e+03 6.889968109130859375e+01 -4.830868244171142578e+00 -5.290022492408752441e-01 5.985598087310791016e+00 1.636978864669799805e+00 -3.323845863342285156e-01
6.277000000000000000e+03 6.826704406738281250e+01 -4.595508098602294922e+00 -4.764991402626037598e-01 5.621377468109130859e+00 1.543463468551635742e+00 -4.294733107089996338e-01
6.278000000000000000e+03 7.288035583496093750e+01 3.921559095382690430e+00 -5.894709229469299316e-01 7.376597881317138672e+00 2.036138057708740234e+00 -3.636804521083831787e-01
6.279000000000000000e+03 7.281079864501953125e+01 5.683144092559814453e+00 -5.526895523071289062e-01 7.553585529327392578e+00 2.100268840789794922e+00 -5.136430859565734863e-01
6.280000000000000000e+03 6.180353641510009766e+00 1.931149482727050781e+01 -2.814039774239063263e-02 -7.779751904308795929e-03 -1.077604480087757111e-02 3.295371308922767639e-02
6.281000000000000000e+03 7.484413146972656250e+01 6.596607208251953125e+00 -2.952540814876556396e-01 7.704272747039794922e+00 2.222705602645874023e+00 -7.438510060310363770e-01
6.282000000000000000e+03 1.090233135223388672e+01 9.469313621520996094e+00 -2.729649422690272331e-03 -5.186111666262149811e-03 -2.374728210270404816e-03 3.543604107107967138e-04
6.283000000000000000e+03 7.280332183837890625e+01 3.363918542861938477e+00 -6.058020591735839844e-01 7.305860519409179688e+00 2.010017633438110352e+00 -2.956597805023193359e-01
6.284000000000000000e+03 6.928569030761718750e+01 -3.161216497421264648e+00 -5.490865111351013184e-01 5.968390941619873047e+00 1.625791311264038086e+00 -1.459248811006546021e-01
6.285000000000000000e+03 8.086977958679199219e+00 1.722518348693847656e+01 -3.413845971226692200e-02 1.132515608333051205e-03 -9.901783429086208344e-03 1.885806210339069366e-02
6.286000000000000000e+03 6.776518249511718750e+01 -1.029536366462707520e+00 -4.238804876804351807e-01 5.012136936187744141e+00 1.376477003097534180e+00 -5.573841556906700134e-02
6.287000000000000000e+03 6.967488098144531250e+01 -2.740656614303588867e+00 -5.662083625793457031e-01 6.117480754852294922e+00 1.665381789207458496e+00 -9.639372676610946655e-02
6.288000000000000000e+03 7.238756561279296875e+01 2.157784223556518555e+00 -6.163011789321899414e-01 7.106033325195312500e+00 1.946919679641723633e+00 -1.604925841093063354e-01
6.289000000000000000e+03 7.429587554931640625e+01 -5.082033634185791016e+00 -4.076068401336669922e-01 7.631344795227050781e+00 2.167121410369873047e+00 4.249091744422912598e-01
6.290000000000000000e+03 8.812134742736816406e+00 1.629110145568847656e+01 -3.250746801495552063e-02 1.280760858207941055e-03 -9.368012659251689911e-03 1.243226882070302963e-02
6.291000000000000000e+03 7.173794555664062500e+01 -1.120372265577316284e-01 -6.039557456970214844e-01 6.801586151123046875e+00 1.859289050102233887e+00 -3.217160934582352638e-03
6.292000000000000000e+03 7.216588592529296875e+01 3.163480162620544434e-01 -5.766566395759582520e-01 6.964643478393554688e+00 1.916396021842956543e+00 -4.873275384306907654e-02
6.293000000000000000e+03 8.986931800842285156e+00 1.154860305786132812e+01 -7.784216199070215225e-03 -5.115277599543333054e-03 -3.869848093017935753e-03 -2.756658068392425776e-04
6.294000000000000000e+03 7.285956573486328125e+01 -3.130159616470336914e+00 -5.295568704605102539e-01 7.233036041259765625e+00 2.011043787002563477e+00 1.543803215026855469e-01
6.295000000000000000e+03 7.460791110992431641e+00 1.205296230316162109e+01 -7.764640264213085175e-03 -4.065798595547676086e-03 -3.549131564795970917e-03 5.142099107615649700e-04
6.296000000000000000e+03 9.551244735717773438e+00 1.637739181518554688e+01 -3.669296205043792725e-02 3.246751148253679276e-03 -1.003386266529560089e-02 9.532408788800239563e-03
6.297000000000000000e+03 1.105858802795410156e+01 -5.865809917449951172e-01 -3.065124750137329102e-01 -1.800088939489796758e-04 -9.200774133205413818e-02 2.960243821144104004e-02
6.298000000000000000e+03 1.167972469329833984e+01 -1.452614903450012207e+00 -3.493936061859130859e-01 1.461311709135770798e-02 -1.004341468214988708e-01 -1.184677984565496445e-02
6.299000000000000000e+03 1.025387477874755859e+01 -1.193646550178527832e+00 -2.755145132541656494e-01 2.113566920161247253e-02 -7.631365209817886353e-02 -2.181394398212432861e-02
6.300000000000000000e+03 1.239226341247558594e+01 -1.585148334503173828e+00 -3.918012380599975586e-01 1.341248676180839539e-02 -1.135166212916374207e-01 -6.007994525134563446e-03
6.301000000000000000e+03 1.251665687561035156e+01 -8.556226491928100586e-01 -4.116273224353790283e-01 -4.108070861548185349e-03 -1.247206181287765503e-01 4.776039347052574158e-02
6.302000000000000000e+03 1.178777027130126953e+01 -7.200965881347656250e-01 -3.586229383945465088e-01 -2.770459046587347984e-03 -1.084180176258087158e-01 3.892689198255538940e-02
6.303000000000000000e+03 1.096688938140869141e+01 -1.322091937065124512e+00 -3.075839579105377197e-01 1.801859214901924133e-02 -8.686961233615875244e-02 -1.891575008630752563e-02
6.304000000000000000e+03 1.032922649383544922e+01 -4.551429152488708496e-01 -2.515231668949127197e-01 6.174095440655946732e-03 -7.360472530126571655e-02 1.591719314455986023e-02
6.305000000000000000e+03 8.661221504211425781e+00 -1.128501772880554199e+00 -2.031004130840301514e-01 8.364797569811344147e-03 -5.842068418860435486e-02 -3.356010094285011292e-02
6.306000000000000000e+03 8.720003128051757812e+00 -3.885017633438110352e-01 -2.100266963243484497e-01 1.358310924842953682e-03 -6.260051578283309937e-02 -1.105599757283926010e-02
6.307000000000000000e+03 9.549606323242187500e+00 -3.893687427043914795e-01 -2.223867774009704590e-01 7.095063105225563049e-03 -6.458751112222671509e-02 -1.026045647449791431e-03
6.308000000000000000e+03 7.889697074890136719e+00 -3.882405161857604980e-01 -1.826052218675613403e-01 9.894468821585178375e-04 -5.448473244905471802e-02 -1.376578677445650101e-02
6.309000000000000000e+03 7.058670520782470703e+00 -3.882131278514862061e-01 -1.506297290325164795e-01 -7.675115921301767230e-05 -4.521194472908973694e-02 -1.490274723619222641e-02
6.310000000000000000e+03 6.228112220764160156e+00 -3.882330358028411865e-01 -1.175634860992431641e-01 -2.382156089879572392e-04 -3.534051030874252319e-02 -1.458715461194515228e-02
6.311000000000000000e+03 5.397459506988525391e+00 -3.882989287376403809e-01 -8.583570271730422974e-02 -6.616464816033840179e-04 -2.594920434057712555e-02 -1.362510677427053452e-02
6.312000000000000000e+03 4.566254138946533203e+00 -3.882672786712646484e-01 -5.713611468672752380e-02 -9.617866599000990391e-04 -1.742937043309211731e-02 -1.182871870696544647e-02
6.313000000000000000e+03 3.735541105270385742e+00 -3.881431519985198975e-01 -3.306873142719268799e-02 -1.170560601167380810e-03 -1.027178764343261719e-02 -9.450507350265979767e-03
6.314000000000000000e+03 2.905454397201538086e+00 -3.881077766418457031e-01 -1.492555253207683563e-02 -1.412872690707445145e-03 -4.901527427136898041e-03 -6.549756508320569992e-03
6.315000000000000000e+03 2.075164079666137695e+00 -3.881983160972595215e-01 -3.746686968952417374e-03 -1.492129056714475155e-03 -1.571644796058535576e-03 -3.276479197666049004e-03
6.316000000000000000e+03 1.245145082473754883e+00 -3.885309398174285889e-01 4.484792298171669245e-04 -1.051680417731404305e-03 -1.809603563742712140e-04 -3.925373021047562361e-04
6.317000000000000000e+03 4.151333570480346680e-01 -3.893930315971374512e-01 4.498571506701409817e-04 3.567571111489087343e-04 2.419842785457149148e-04 4.007508978247642517e-04
6.318000000000000000e+03 4.123342633247375488e-01 -1.129392981529235840e+00 -1.120475004427134991e-03 5.270515102893114090e-04 -1.780270540621131659e-04 -2.043113490799441934e-04
6.319000000000000000e+03 9.485227584838867188e+00 -1.129368782043457031e+00 -2.398358881473541260e-01 1.663705892860889435e-02 -6.695964932441711426e-02 -2.402270771563053131e-02
6.320000000000000000e+03 7.836514472961425781e+00 -1.128240466117858887e+00 -1.757691502571105957e-01 2.542959293350577354e-03 -5.196785554289817810e-02 -4.088981822133064270e-02
6.321000000000000000e+03 7.011085987091064453e+00 -1.128213167190551758e+00 -1.466948688030242920e-01 5.328542902134358883e-04 -4.384860396385192871e-02 -4.243691265583038330e-02
6.322000000000000000e+03 6.186125755310058594e+00 -1.128233075141906738e+00 -1.182496994733810425e-01 -1.744067179970443249e-03 -3.599812835454940796e-02 -4.196654260158538818e-02
6.323000000000000000e+03 5.361071109771728516e+00 -1.128298878669738770e+00 -9.102988243103027344e-02 -3.063683863729238510e-03 -2.822807058691978455e-02 -3.872116655111312866e-02
6.324000000000000000e+03 4.535463809967041016e+00 -1.128267288208007812e+00 -6.641479581594467163e-02 -4.452265799045562744e-03 -2.126011811196804047e-02 -3.405659645795822144e-02
6.325000000000000000e+03 3.710349321365356445e+00 -1.128143191337585449e+00 -4.495444148778915405e-02 -5.640449002385139465e-03 -1.517846807837486267e-02 -2.762332558631896973e-02
6.326000000000000000e+03 2.885860681533813477e+00 -1.128107786178588867e+00 -2.762249112129211426e-02 -6.556322798132896423e-03 -1.025364454835653305e-02 -1.987475901842117310e-02
6.327000000000000000e+03 2.061168670654296875e+00 -1.128198385238647461e+00 -1.453060936182737350e-02 -6.833655759692192078e-03 -6.409279536455869675e-03 -1.148348487913608551e-02
6.328000000000000000e+03 1.236747741699218750e+00 -1.128530979156494141e+00 -5.623105913400650024e-03 -5.155148450285196304e-03 -3.233476309105753899e-03 -3.833504160866141319e-03
