# el_label, x, y, sXX, sYY, sZZ, sXY
1.000000000000000000e+00 7.231793975830078125e+01 1.955071830749511719e+01 -3.237612172961235046e-02 -2.725990295410156250e+00 -8.275099396705627441e-01 -2.006706714630126953e+00
2.000000000000000000e+00 7.212206268310546875e+01 1.951538276672363281e+01 2.281049013137817383e+00 1.120796322822570801e+00 1.020553588867187500e+00 1.083633303642272949e+00
3.000000000000000000e+00 7.192617797851562500e+01 1.948004531860351562e+01 6.920430064201354980e-01 -3.270730078220367432e-01 1.094910055398941040e-01 2.320560365915298462e-01
4.000000000000000000e+00 7.173030090332031250e+01 1.944470787048339844e+01 7.551372796297073364e-02 2.338750362396240234e-01 9.281662851572036743e-02 3.049975335597991943e-01
5.000000000000000000e+00 7.233387756347656250e+01 1.949452972412109375e+01 1.300037479400634766e+01 -1.711163163185119629e+00 3.386763572692871094e+00 3.835524082183837891e+00
6.000000000000000000e+00 7.214862823486328125e+01 1.942173576354980469e+01 5.529730319976806641e+00 9.200732707977294922e-01 1.934941053390502930e+00 2.175462961196899414e+00
7.000000000000000000e+00 7.196337890625000000e+01 1.934893989562988281e+01 4.807424068450927734e+00 1.250185966491699219e+00 1.817283034324645996e+00 2.700708866119384766e+00
8.000000000000000000e+00 7.177812957763671875e+01 1.927614402770996094e+01 3.489907026290893555e+00 5.763316750526428223e-01 1.219871640205383301e+00 1.844168066978454590e+00
9.000000000000000000e+00 7.236045837402343750e+01 1.944252204895019531e+01 1.618705940246582031e+01 4.469447135925292969e+00 6.196951866149902344e+00 1.056990528106689453e+01
1.000000000000000000e+01 7.219291687011718750e+01 1.933505249023437500e+01 1.002276992797851562e+01 2.777580022811889648e+00 3.840105056762695312e+00 6.215776920318603516e+00
1.100000000000000000e+01 7.202539062500000000e+01 1.922758483886718750e+01 6.869149208068847656e+00 2.972667694091796875e+00 2.952545166015625000e+00 4.745498180389404297e+00
1.200000000000000000e+01 7.185785675048828125e+01 1.912011718750000000e+01 5.802519798278808594e+00 2.629080295562744141e+00 2.529479980468750000e+00 4.419996738433837891e+00
1.300000000000000000e+01 7.239664459228515625e+01 1.939668083190917969e+01 1.628590774536132812e+01 1.205675411224365234e+01 8.502799034118652344e+00 1.517477989196777344e+01
1.400000000000000000e+01 7.225324249267578125e+01 1.925865364074707031e+01 1.060001373291015625e+01 7.694390773773193359e+00 5.488321304321289062e+00 9.855707168579101562e+00
1.500000000000000000e+01 7.210983276367187500e+01 1.912062454223632812e+01 8.260479927062988281e+00 6.211976051330566406e+00 4.341736793518066406e+00 7.693750858306884766e+00
1.600000000000000000e+01 7.196643066406250000e+01 1.898259544372558594e+01 6.480567932128906250e+00 5.375630855560302734e+00 3.556859731674194336e+00 6.406924247741699219e+00
1.700000000000000000e+01 7.244107055664062500e+01 1.935876464843750000e+01 1.360590076446533203e+01 2.086801910400390625e+01 1.034217643737792969e+01 1.724249267578125000e+01
1.800000000000000000e+01 7.232727813720703125e+01 1.919545745849609375e+01 9.824700355529785156e+00 1.370974636077880859e+01 7.060334205627441406e+00 1.216409492492675781e+01
1.900000000000000000e+01 7.221349334716796875e+01 1.903215026855468750e+01 7.492588996887207031e+00 1.099103450775146484e+01 5.545086860656738281e+00 9.575694084167480469e+00
2.000000000000000000e+01 7.209970092773437500e+01 1.886884307861328125e+01 6.223805427551269531e+00 9.389403343200683594e+00 4.683962821960449219e+00 8.189173698425292969e+00
2.100000000000000000e+01 7.249202728271484375e+01 1.933022117614746094e+01 1.057826709747314453e+01 2.927108573913574219e+01 1.195480537414550781e+01 1.671980857849121094e+01
2.200000000000000000e+01 7.241220855712890625e+01 1.914788627624511719e+01 7.745546817779541016e+00 2.017497062683105469e+01 8.376154899597167969e+00 1.244841194152832031e+01
2.300000000000000000e+01 7.233238983154296875e+01 1.896555137634277344e+01 6.117508888244628906e+00 1.628264808654785156e+01 6.720046997070312500e+00 1.030260086059570312e+01
2.400000000000000000e+01 7.225257110595703125e+01 1.878321647644042969e+01 4.898207664489746094e+00 1.408269500732421875e+01 5.694270610809326172e+00 8.694488525390625000e+00
2.500000000000000000e+01 7.254756164550781250e+01 1.931214523315429688e+01 7.803909301757812500e+00 3.636541748046875000e+01 1.325079822540283203e+01 1.377378559112548828e+01
2.600000000000000000e+01 7.250476837158203125e+01 1.911775970458984375e+01 5.937689304351806641e+00 2.607583427429199219e+01 9.604057312011718750e+00 1.107961273193359375e+01
2.700000000000000000e+01 7.246197509765625000e+01 1.892337417602539062e+01 4.363939285278320312e+00 2.128530883789062500e+01 7.694774150848388672e+00 9.320149421691894531e+00
2.800000000000000000e+01 7.241918182373046875e+01 1.872898674011230469e+01 3.543307542800903320e+00 1.858735084533691406e+01 6.639197349548339844e+00 8.171885490417480469e+00
2.900000000000000000e+01 7.260556030273437500e+01 1.930522727966308594e+01 6.748557567596435547e+00 4.141236877441406250e+01 1.444827842712402344e+01 9.375027656555175781e+00
3.000000000000000000e+01 7.260142517089843750e+01 1.910622978210449219e+01 4.589464187622070312e+00 3.064094734191894531e+01 1.056912326812744141e+01 8.207377433776855469e+00
3.100000000000000000e+01 7.259729766845703125e+01 1.890723037719726562e+01 3.374025583267211914e+00 2.547578620910644531e+01 8.654943466186523438e+00 7.183411121368408203e+00
3.200000000000000000e+01 7.259317016601562500e+01 1.870823287963867188e+01 2.354198217391967773e+00 2.208084297180175781e+01 7.330512523651123047e+00 6.259785175323486328e+00
3.300000000000000000e+01 7.266378784179687500e+01 1.930973243713378906e+01 7.260087966918945312e+00 4.391767120361328125e+01 1.535332775115966797e+01 4.328080654144287109e+00
3.400000000000000000e+01 7.269847869873046875e+01 1.911373710632324219e+01 4.688560485839843750e+00 3.363932037353515625e+01 1.149836444854736328e+01 4.662188053131103516e+00
3.500000000000000000e+01 7.273316955566406250e+01 1.891774368286132812e+01 3.111009836196899414e+00 2.814072990417480469e+01 9.375521659851074219e+00 4.138391971588134766e+00
3.600000000000000000e+01 7.276786041259765625e+01 1.872174835205078125e+01 2.167741298675537109e+00 2.477623748779296875e+01 8.083193778991699219e+00 3.695852279663085938e+00
3.700000000000000000e+01 7.272003173828125000e+01 1.932548713684082031e+01 9.686902999877929688e+00 4.427614212036132812e+01 1.618891334533691406e+01 -1.939625889062881470e-01
3.800000000000000000e+01 7.279221343994140625e+01 1.913999748229980469e+01 5.957200050354003906e+00 3.470022583007812500e+01 1.219722843170166016e+01 9.424987435340881348e-01
3.900000000000000000e+01 7.286440277099609375e+01 1.895450592041015625e+01 4.129990577697753906e+00 2.945012474060058594e+01 1.007403469085693359e+01 1.010480999946594238e+00
4.000000000000000000e+01 7.293658447265625000e+01 1.876901626586914062e+01 2.925656318664550781e+00 2.594780921936035156e+01 8.662039756774902344e+00 9.167234897613525391e-01
4.100000000000000000e+01 7.277213287353515625e+01 1.935189247131347656e+01 1.323758220672607422e+01 4.276922225952148438e+01 1.680204200744628906e+01 -3.611484527587890625e+00
4.200000000000000000e+01 7.287904357910156250e+01 1.918400382995605469e+01 8.493474006652832031e+00 3.429231262207031250e+01 1.283573627471923828e+01 -2.148542881011962891e+00
4.300000000000000000e+01 7.298596191406250000e+01 1.901611518859863281e+01 6.146719932556152344e+00 2.920746040344238281e+01 1.060625362396240234e+01 -1.711084485054016113e+00
4.400000000000000000e+01 7.309287261962890625e+01 1.884822654724121094e+01 4.698907375335693359e+00 2.588258171081542969e+01 9.174447059631347656e+00 -1.529202818870544434e+00
4.500000000000000000e+01 7.281809234619140625e+01 1.938793182373046875e+01 1.742556571960449219e+01 4.036191940307617188e+01 1.733624458312988281e+01 -5.434211730957031250e+00
4.600000000000000000e+01 7.295564270019531250e+01 1.924407196044921875e+01 1.168880081176757812e+01 3.262136077880859375e+01 1.329304885864257812e+01 -4.184781074523925781e+00
4.700000000000000000e+01 7.309319305419921875e+01 1.910021018981933594e+01 8.982722282409667969e+00 2.795980072021484375e+01 1.108275699615478516e+01 -3.532677888870239258e+00
4.800000000000000000e+01 7.323075103759765625e+01 1.895634841918945312e+01 7.099105358123779297e+00 2.479537391662597656e+01 9.568343162536621094e+00 -3.202823162078857422e+00
4.900000000000000000e+01 7.285615539550781250e+01 1.943223190307617188e+01 2.136353683471679688e+01 3.758506774902343750e+01 1.768458175659179688e+01 -5.717183589935302734e+00
5.000000000000000000e+01 7.301908111572265625e+01 1.931790161132812500e+01 1.515717124938964844e+01 3.046599960327148438e+01 1.368695163726806641e+01 -4.828267097473144531e+00
5.100000000000000000e+01 7.318201446533203125e+01 1.920357322692871094e+01 1.192191410064697266e+01 2.606066703796386719e+01 1.139477443695068359e+01 -4.242601871490478516e+00
5.200000000000000000e+01 7.334494018554687500e+01 1.908924484252929688e+01 9.879625320434570312e+00 2.326082420349121094e+01 9.942134857177734375e+00 -3.809945821762084961e+00
5.300000000000000000e+01 7.288486480712890625e+01 1.948309326171875000e+01 2.457889556884765625e+01 3.524139785766601562e+01 1.794608879089355469e+01 -4.639870166778564453e+00
5.400000000000000000e+01 7.306693267822265625e+01 1.940267181396484375e+01 1.817927551269531250e+01 2.826924324035644531e+01 1.393455505371093750e+01 -4.172444343566894531e+00
5.500000000000000000e+01 7.324900817871093750e+01 1.932225036621093750e+01 1.457187461853027344e+01 2.423420143127441406e+01 1.164182281494140625e+01 -3.721134185791015625e+00
5.600000000000000000e+01 7.343107604980468750e+01 1.924183082580566406e+01 1.223197078704833984e+01 2.153162193298339844e+01 1.012907791137695312e+01 -3.358161687850952148e+00
5.700000000000000000e+01 7.290312194824218750e+01 1.953857040405273438e+01 2.667857170104980469e+01 3.364863967895507812e+01 1.809816360473632812e+01 -2.594482421875000000e+00
5.800000000000000000e+01 7.309736633300781250e+01 1.949513435363769531e+01 2.023426246643066406e+01 2.665855789184570312e+01 1.406784629821777344e+01 -2.475997209548950195e+00
5.900000000000000000e+01 7.329161071777343750e+01 1.945170021057128906e+01 1.642807197570800781e+01 2.288524627685546875e+01 1.179399585723876953e+01 -2.206595659255981445e+00
6.000000000000000000e+01 7.348585510253906250e+01 1.940826416015625000e+01 1.385358810424804688e+01 2.014746284484863281e+01 1.020031547546386719e+01 -2.015722751617431641e+00
6.100000000000000000e+01 7.291023254394531250e+01 1.959654235839843750e+01 2.739112663269042969e+01 3.296504974365234375e+01 1.810685348510742188e+01 -8.094919472932815552e-02
6.200000000000000000e+01 7.310921478271484375e+01 1.959175300598144531e+01 2.100163078308105469e+01 2.608898162841796875e+01 1.412718391418457031e+01 -1.509117782115936279e-01
6.300000000000000000e+01 7.330820465087890625e+01 1.958696556091308594e+01 1.709920883178710938e+01 2.224551200866699219e+01 1.180341625213623047e+01 -1.585055887699127197e-01
6.400000000000000000e+01 7.350717926025390625e+01 1.958217811584472656e+01 1.456341171264648438e+01 1.970822525024414062e+01 1.028149127960205078e+01 -2.110019624233245850e-01
6.500000000000000000e+01 7.290592193603515625e+01 1.965478706359863281e+01 2.671798706054687500e+01 3.343857192993164062e+01 1.804696846008300781e+01 2.474795579910278320e+00
6.600000000000000000e+01 7.310202789306640625e+01 1.968883132934570312e+01 2.028949546813964844e+01 2.651893234252929688e+01 1.404252815246582031e+01 2.208166837692260742e+00
6.700000000000000000e+01 7.329814147949218750e+01 1.972287368774414062e+01 1.652343750000000000e+01 2.266689491271972656e+01 1.175710010528564453e+01 1.905237436294555664e+00
6.800000000000000000e+01 7.349424743652343750e+01 1.975691604614257812e+01 1.396084022521972656e+01 2.012057685852050781e+01 1.022442531585693359e+01 1.648855924606323242e+00
6.900000000000000000e+01 7.289035034179687500e+01 1.971108055114746094e+01 2.464706230163574219e+01 3.485892486572265625e+01 1.785179710388183594e+01 4.593476295471191406e+00
7.000000000000000000e+01 7.307608032226562500e+01 1.978265190124511719e+01 1.827308082580566406e+01 2.798468399047851562e+01 1.387732887268066406e+01 4.048384666442871094e+00
7.100000000000000000e+01 7.326181030273437500e+01 1.985422325134277344e+01 1.470633316040039062e+01 2.394280433654785156e+01 1.159474182128906250e+01 3.455441951751708984e+00
7.200000000000000000e+01 7.344753265380859375e+01 1.992579269409179688e+01 1.229501533508300781e+01 2.126539802551269531e+01 1.006812477111816406e+01 3.142560005187988281e+00
7.300000000000000000e+01 7.286412048339843750e+01 1.976326560974121094e+01 2.139902496337890625e+01 3.713329315185546875e+01 1.755969619750976562e+01 5.835441589355468750e+00
7.400000000000000000e+01 7.303235626220703125e+01 1.986962509155273438e+01 1.525633049011230469e+01 3.004164695739746094e+01 1.358939266204833984e+01 4.853888034820556641e+00
7.500000000000000000e+01 7.320059967041015625e+01 1.997598457336425781e+01 1.201193046569824219e+01 2.581601524353027344e+01 1.134838390350341797e+01 4.152264595031738281e+00
7.600000000000000000e+01 7.336884307861328125e+01 2.008234405517578125e+01 9.915610313415527344e+00 2.283511543273925781e+01 9.825218200683593750e+00 3.718160152435302734e+00
7.700000000000000000e+01 7.282823181152343750e+01 1.980934333801269531e+01 1.735825347900390625e+01 3.979044723510742188e+01 1.714461135864257812e+01 5.769237041473388672e+00
7.800000000000000000e+01 7.297254180908203125e+01 1.994642257690429688e+01 1.172531032562255859e+01 3.226504516601562500e+01 1.319710636138916016e+01 4.365875720977783203e+00
7.900000000000000000e+01 7.311685943603515625e+01 2.008350181579589844e+01 8.977859497070312500e+00 2.765694808959960938e+01 1.099044227600097656e+01 3.678031206130981445e+00
8.000000000000000000e+01 7.326117706298828125e+01 2.022058105468750000e+01 7.215182304382324219e+00 2.458274650573730469e+01 9.539379119873046875e+00 3.262494087219238281e+00
8.100000000000000000e+01 7.278405761718750000e+01 1.984755325317382812e+01 1.301954650878906250e+01 4.228636169433593750e+01 1.659177207946777344e+01 4.145207881927490234e+00
8.200000000000000000e+01 7.289892578125000000e+01 2.001010513305664062e+01 8.357312202453613281e+00 3.398401641845703125e+01 1.270239830017089844e+01 2.516816854476928711e+00
8.300000000000000000e+01 7.301378631591796875e+01 2.017265701293945312e+01 6.062528133392333984e+00 2.901127243041992188e+01 1.052214050292968750e+01 2.027785778045654297e+00
8.400000000000000000e+01 7.312865447998046875e+01 2.033521080017089844e+01 4.725765705108642578e+00 2.576570510864257812e+01 9.147440910339355469e+00 1.740058779716491699e+00
8.500000000000000000e+01 7.273329162597656250e+01 1.987643241882324219e+01 9.222704887390136719e+00 4.388881301879882812e+01 1.593345546722412109e+01 9.348630905151367188e-01
8.600000000000000000e+01 7.281430816650390625e+01 2.005823707580566406e+01 5.584810733795166016e+00 3.463039016723632812e+01 1.206455993652343750e+01 -4.352539777755737305e-01
8.700000000000000000e+01 7.289533233642578125e+01 2.024003982543945312e+01 3.899420976638793945e+00 2.936348152160644531e+01 9.978870391845703125e+00 -6.127724647521972656e-01
8.800000000000000000e+01 7.297635650634765625e+01 2.042184448242187500e+01 2.681592941284179688e+00 2.594284439086914062e+01 8.587330818176269531e+00 -6.135787367820739746e-01
8.900000000000000000e+01 7.267787170410156250e+01 1.989487457275390625e+01 6.474987983703613281e+00 4.386708068847656250e+01 1.510262012481689453e+01 -3.520767450332641602e+00
9.000000000000000000e+01 7.272194671630859375e+01 2.008897399902343750e+01 4.050154209136962891e+00 3.372404098510742188e+01 1.133225822448730469e+01 -4.037470340728759766e+00
9.100000000000000000e+01 7.276602172851562500e+01 2.028307342529296875e+01 2.598676443099975586e+00 2.840272521972656250e+01 9.300420761108398438e+00 -3.758049249649047852e+00
9.200000000000000000e+01 7.281010437011718750e+01 2.047717285156250000e+01 1.692740321159362793e+00 2.490877342224121094e+01 7.980454444885253906e+00 -3.401600122451782227e+00
9.300000000000000000e+01 7.261992645263671875e+01 1.990217399597167969e+01 5.476290702819824219e+00 4.163511657714843750e+01 1.413342189788818359e+01 -8.443366050720214844e+00
9.400000000000000000e+01 7.262536621093750000e+01 2.010114097595214844e+01 3.750149726867675781e+00 3.112562751770019531e+01 1.046273326873779297e+01 -7.720694065093994141e+00
9.500000000000000000e+01 7.263081359863281250e+01 2.030010604858398438e+01 2.510654211044311523e+00 2.589132690429687500e+01 8.520593643188476562e+00 -6.777024745941162109e+00
9.600000000000000000e+01 7.263625335693359375e+01 2.049907302856445312e+01 1.664495706558227539e+00 2.267447662353515625e+01 7.301691532135009766e+00 -6.085975170135498047e+00
9.700000000000000000e+01 7.256166076660156250e+01 1.989805412292480469e+01 6.310072422027587891e+00 3.704571533203125000e+01 1.300673580169677734e+01 -1.303786945343017578e+01
9.800000000000000000e+01 7.252826690673828125e+01 2.009427261352539062e+01 4.648610115051269531e+00 2.685483360290527344e+01 9.451033592224121094e+00 -1.065238857269287109e+01
9.900000000000000000e+01 7.249487304687500000e+01 2.029049110412597656e+01 3.414641141891479492e+00 2.207805442810058594e+01 7.647808551788330078e+00 -9.219120979309082031e+00
1.000000000000000000e+02 7.246147155761718750e+01 2.048671150207519531e+01 2.562257766723632812e+00 1.911850929260253906e+01 6.504230499267578125e+00 -8.049624443054199219e+00
1.010000000000000000e+02 7.250531768798828125e+01 1.988266944885253906e+01 8.576245307922363281e+00 3.040057563781738281e+01 1.169304561614990234e+01 -1.614254951477050781e+01
1.020000000000000000e+02 7.243436431884765625e+01 2.006863212585449219e+01 6.391360759735107422e+00 2.131123161315917969e+01 8.310777664184570312e+00 -1.242742729187011719e+01
1.030000000000000000e+02 7.236340332031250000e+01 2.025459480285644531e+01 4.879641532897949219e+00 1.724989891052246094e+01 6.638862133026123047e+00 -1.037987709045410156e+01
1.040000000000000000e+02 7.229244232177734375e+01 2.044055747985839844e+01 3.939105749130249023e+00 1.487984275817871094e+01 5.645684242248535156e+00 -9.108361244201660156e+00
1.050000000000000000e+02 7.245304870605468750e+01 1.985660934448242188e+01 1.161348152160644531e+01 2.237014007568359375e+01 1.019508647918701172e+01 -1.719260597229003906e+01
1.060000000000000000e+02 7.234724426269531250e+01 2.002519989013671875e+01 8.183670043945312500e+00 1.515881156921386719e+01 7.002744674682617188e+00 -1.243194770812988281e+01
1.070000000000000000e+02 7.224143981933593750e+01 2.019379043579101562e+01 6.406144618988037109e+00 1.201233959197998047e+01 5.525545120239257812e+00 -1.023002529144287109e+01
1.080000000000000000e+02 7.213563537597656250e+01 2.036237907409667969e+01 5.146390914916992188e+00 1.040910053253173828e+01 4.666647434234619141e+00 -8.690587043762207031e+00
1.090000000000000000e+02 7.240685272216796875e+01 1.982087326049804688e+01 1.396697807312011719e+01 1.418527317047119141e+01 8.445674896240234375e+00 -1.567501354217529297e+01
1.100000000000000000e+02 7.227024841308593750e+01 1.996563911437988281e+01 9.491702079772949219e+00 9.037446975708007812e+00 5.558744907379150391e+00 -1.080858325958251953e+01
1.110000000000000000e+02 7.213365173339843750e+01 2.011040306091308594e+01 7.051389217376708984e+00 7.186802387237548828e+00 4.271457195281982422e+00 -8.505465507507324219e+00
1.120000000000000000e+02 7.199704742431640625e+01 2.025516700744628906e+01 5.768806457519531250e+00 6.152901172637939453e+00 3.576512336730957031e+00 -7.230368614196777344e+00
1.130000000000000000e+02 7.236849975585937500e+01 1.977682495117187500e+01 1.492540931701660156e+01 6.648823738098144531e+00 6.472270011901855469e+00 -1.187969493865966797e+01
1.140000000000000000e+02 7.220632171630859375e+01 1.989222526550292969e+01 8.884347915649414062e+00 4.018895626068115234e+00 3.870973110198974609e+00 -7.635731697082519531e+00
1.150000000000000000e+02 7.204415130615234375e+01 2.000762557983398438e+01 6.617846012115478516e+00 3.366132020950317383e+00 2.995193481445312500e+00 -5.902567863464355469e+00
1.160000000000000000e+02 7.188198089599609375e+01 2.012302780151367188e+01 5.010950565338134766e+00 2.844347715377807617e+00 2.356589555740356445e+00 -4.966649532318115234e+00
1.170000000000000000e+02 7.233945465087890625e+01 1.972615432739257812e+01 1.225177860260009766e+01 1.032726407051086426e+00 3.985351562500000000e+00 -6.633357524871826172e+00
1.180000000000000000e+02 7.215791320800781250e+01 1.980777359008789062e+01 6.590581417083740234e+00 6.125286817550659180e-01 2.160933017730712891e+00 -3.694004297256469727e+00
1.190000000000000000e+02 7.197637939453125000e+01 1.988939285278320312e+01 3.805893182754516602e+00 1.228197693824768066e+00 1.510227203369140625e+00 -2.971332073211669922e+00
1.200000000000000000e+02 7.179484558105468750e+01 1.997101402282714844e+01 3.182169437408447266e+00 1.074016690254211426e+00 1.276855826377868652e+00 -2.981779336929321289e+00
1.210000000000000000e+02 7.232083129882812500e+01 1.967079734802246094e+01 6.122853279113769531e+00 -2.500147819519042969e+00 1.086811542510986328e+00 -3.578067719936370850e-01
1.220000000000000000e+02 7.212687683105468750e+01 1.971551132202148438e+01 3.510928452014923096e-01 -9.745016694068908691e-03 1.024043485522270203e-01 -6.324810385704040527e-01
1.230000000000000000e+02 7.193292236328125000e+01 1.976022720336914062e+01 8.110451102256774902e-01 5.185763835906982422e-01 3.988864421844482422e-01 -1.408242464065551758e+00
1.240000000000000000e+02 7.173896789550781250e+01 1.980494308471679688e+01 -2.554188072681427002e-01 -9.476094692945480347e-02 -1.050539314746856689e-01 -8.713809251785278320e-01
1.250000000000000000e+02 7.231333923339843750e+01 1.961287307739257812e+01 -9.333272933959960938e+00 -2.114489793777465820e+00 -3.434328794479370117e+00 2.481616497039794922e+00
1.260000000000000000e+02 7.211438751220703125e+01 1.961897277832031250e+01 -3.511909961700439453e+00 8.606942892074584961e-01 -7.953647375106811523e-01 -7.434333562850952148e-01
1.270000000000000000e+02 7.191544342041015625e+01 1.962507247924804688e+01 -4.114910125732421875e+00 -4.521047472953796387e-01 -1.370104432106018066e+00 -4.321955144405364990e-02
1.280000000000000000e+02 7.171649169921875000e+01 1.963117218017578125e+01 -3.927274465560913086e+00 2.485429346561431885e-01 -1.103619456291198730e+00 -2.488962411880493164e-01
1.290000000000000000e+02 6.927221679687500000e+01 1.875404167175292969e+01 -2.043978571891784668e-01 3.161340951919555664e-02 -5.183533579111099243e-02 -1.736722290515899658e-01
1.300000000000000000e+02 6.792875671386718750e+01 1.804537010192871094e+01 4.432567860931158066e-03 -5.968592166900634766e-01 -1.777279824018478394e-01 -1.753263771533966064e-01
1.310000000000000000e+02 6.953913879394531250e+01 1.863031387329101562e+01 2.169088721275329590e-01 1.531562060117721558e-01 1.110195219516754150e-01 2.552954293787479401e-02
1.320000000000000000e+02 6.849324035644531250e+01 1.791501235961914062e+01 1.891442537307739258e-01 -2.375813759863376617e-02 4.961583390831947327e-02 -1.451718062162399292e-01
1.330000000000000000e+02 6.823494720458984375e+01 1.875766181945800781e+01 -1.454066336154937744e-01 -9.252248704433441162e-02 -7.137873768806457520e-02 -1.954094767570495605e-01
1.340000000000000000e+02 6.950635528564453125e+01 1.901886940002441406e+01 -6.025120019912719727e-01 1.128956675529479980e-01 -1.468849033117294312e-01 -2.638643980026245117e-01
1.350000000000000000e+02 6.939924621582031250e+01 1.920338630676269531e+01 -1.088409900665283203e+00 5.577543051913380623e-04 -3.263556659221649170e-01 -2.974963784217834473e-01
1.360000000000000000e+02 6.908036804199218750e+01 1.803389167785644531e+01 6.155284047126770020e-01 6.345412135124206543e-01 3.750208914279937744e-01 2.500622868537902832e-01
1.370000000000000000e+02 6.954476165771484375e+01 1.817595291137695312e+01 8.617067933082580566e-01 3.729110360145568848e-01 3.703853487968444824e-01 4.418392777442932129e-01
1.380000000000000000e+02 6.954486083984375000e+01 1.882643508911132812e+01 -2.702113986015319824e-01 4.932173714041709900e-02 -6.626690179109573364e-02 -1.327704936265945435e-01
1.390000000000000000e+02 6.874830627441406250e+01 1.895863342285156250e+01 -5.906352996826171875e-01 -7.133962213993072510e-02 -1.985924690961837769e-01 -2.922839820384979248e-01
1.400000000000000000e+02 6.951770782470703125e+01 1.840636062622070312e+01 6.167939305305480957e-01 3.443204462528228760e-01 2.883343100547790527e-01 2.611948549747467041e-01
1.410000000000000000e+02 6.917862701416015625e+01 1.901253128051757812e+01 -7.807796597480773926e-01 -1.015686690807342529e-01 -2.647044956684112549e-01 -2.531692087650299072e-01
1.420000000000000000e+02 6.947002410888671875e+01 1.793091201782226562e+01 9.988567233085632324e-01 6.657538414001464844e-01 4.993831813335418701e-01 5.851615071296691895e-01
1.430000000000000000e+02 6.905859375000000000e+01 1.834830856323242188e+01 1.168170273303985596e-01 2.393292486667633057e-01 1.068438813090324402e-01 -1.421858668327331543e-01
1.440000000000000000e+02 6.863771820068359375e+01 1.840355300903320312e+01 -2.426623180508613586e-02 -2.102036327123641968e-01 -7.034096121788024902e-02 -3.267762660980224609e-01
1.450000000000000000e+02 6.894884490966796875e+01 1.862869071960449219e+01 -5.465850234031677246e-03 -1.710288785398006439e-02 -6.770621053874492645e-03 -2.854977846145629883e-01
1.460000000000000000e+02 7.154199218750000000e+01 2.039020919799804688e+01 3.606193065643310547e+00 2.642592906951904297e+00 1.874635696411132812e+00 -4.067410945892333984e+00
1.470000000000000000e+02 6.953749084472656250e+01 2.055966186523437500e+01 -6.668307185173034668e-01 5.296873450279235840e-01 -4.114301502704620361e-02 -1.939657703042030334e-02
1.480000000000000000e+02 7.225136566162109375e+01 2.095468330383300781e+01 1.766217350959777832e+00 1.344359207153320312e+01 4.562942981719970703e+00 -6.752141475677490234e+00
1.490000000000000000e+02 7.286994934082031250e+01 2.068650054931640625e+01 1.039246559143066406e+00 2.252773666381835938e+01 7.070095062255859375e+00 -2.937009811401367188e+00
1.500000000000000000e+02 7.358419799804687500e+01 2.060509872436523438e+01 4.470267772674560547e+00 2.026689529418945312e+01 7.421148777008056641e+00 2.601101398468017578e+00
1.510000000000000000e+02 7.335340881347656250e+01 1.877545738220214844e+01 5.497099399566650391e+00 2.266630554199218750e+01 8.449021339416503906e+00 -2.765196084976196289e+00
1.520000000000000000e+02 7.248468780517578125e+01 1.842420387268066406e+01 1.960842132568359375e+00 1.791606712341308594e+01 5.963072776794433594e+00 6.070364952087402344e+00
1.530000000000000000e+02 7.093540191650390625e+01 1.931695365905761719e+01 -9.671076536178588867e-01 -5.525802262127399445e-03 -2.917900383472442627e-01 2.466130070388317108e-02
1.540000000000000000e+02 6.973607635498046875e+01 1.926571655273437500e+01 -1.281387925148010254e+00 -8.518218994140625000e-02 -4.099710285663604736e-01 -1.459446102380752563e-01
1.550000000000000000e+02 7.364502716064453125e+01 2.001579856872558594e+01 1.039753627777099609e+01 1.934152984619140625e+01 8.921719551086425781e+00 2.854908943176269531e+00
1.560000000000000000e+02 7.252020263671875000e+01 2.081462669372558594e+01 1.314595103263854980e+00 1.782382392883300781e+01 5.741525650024414062e+00 -6.100044727325439453e+00
1.570000000000000000e+02 6.988481140136718750e+01 1.979043960571289062e+01 -2.711101531982421875e+00 -1.944656819105148315e-01 -8.716701865196228027e-01 -1.592562645673751831e-01
1.580000000000000000e+02 6.990699768066406250e+01 1.954335403442382812e+01 -3.789042949676513672e+00 1.129262149333953857e-01 -1.102834939956665039e+00 -2.144975513219833374e-01
1.590000000000000000e+02 6.987615966796875000e+01 2.031348037719726562e+01 -8.655767440795898438e-01 3.741708993911743164e-01 -1.474217623472213745e-01 -1.255845278501510620e-01
1.600000000000000000e+02 7.071301269531250000e+01 1.961759185791015625e+01 -4.091487407684326172e+00 -2.505512163043022156e-02 -1.234962701797485352e+00 -1.482815444469451904e-01
1.610000000000000000e+02 6.967494201660156250e+01 1.973995399475097656e+01 -2.351598978042602539e+00 -1.165175959467887878e-01 -7.404349446296691895e-01 1.433912664651870728e-01
1.620000000000000000e+02 7.029631042480468750e+01 2.079836082458496094e+01 7.799603343009948730e-01 9.609057307243347168e-01 5.222598314285278320e-01 -1.265385985374450684e+00
1.630000000000000000e+02 7.128859710693359375e+01 2.070300102233886719e+01 2.683969259262084961e+00 2.797257661819458008e+00 1.644368052482604980e+00 -3.762715101242065430e+00
1.640000000000000000e+02 7.150068664550781250e+01 1.964692878723144531e+01 -3.917761325836181641e+00 -2.022112309932708740e-01 -1.235991835594177246e+00 -1.959011405706405640e-01
1.650000000000000000e+02 7.305194091796875000e+01 2.062523841857910156e+01 1.843586206436157227e+00 2.341887664794921875e+01 7.578738689422607422e+00 -7.282455563545227051e-01
1.660000000000000000e+02 7.171428680419921875e+01 2.024425888061523438e+01 4.241148948669433594e+00 2.768964052200317383e+00 2.103033781051635742e+00 -4.567569732666015625e+00
1.670000000000000000e+02 7.138699340820312500e+01 2.021300315856933594e+01 2.128156185150146484e+00 1.145679950714111328e+00 9.821508526802062988e-01 -2.366514444351196289e+00
1.680000000000000000e+02 7.134334564208984375e+01 1.938332939147949219e+01 -6.144626140594482422e-01 3.219671174883842468e-02 -1.746797859668731689e-01 8.127203583717346191e-02
1.690000000000000000e+02 7.196627044677734375e+01 1.871710395812988281e+01 5.080358028411865234e+00 7.888884544372558594e+00 3.890772819519042969e+00 7.081794261932373047e+00
1.700000000000000000e+02 7.289617156982421875e+01 1.846580123901367188e+01 1.396291255950927734e+00 2.218329238891601562e+01 7.073874950408935547e+00 2.286699056625366211e+00
1.710000000000000000e+02 7.364879608154296875e+01 1.898219490051269531e+01 8.452433586120605469e+00 1.957408905029296875e+01 8.407957077026367188e+00 -3.267198085784912109e+00
1.720000000000000000e+02 6.978694152832031250e+01 1.885003280639648438e+01 -1.213390156626701355e-01 1.690108925104141235e-01 1.430156081914901733e-02 -1.526221930980682373e-01
1.730000000000000000e+02 6.992774963378906250e+01 1.801140785217285156e+01 1.355404615402221680e+00 1.223208189010620117e+00 7.735838890075683594e-01 1.122743129730224609e+00
1.740000000000000000e+02 7.010328674316406250e+01 1.826977348327636719e+01 1.426945805549621582e+00 8.863036632537841797e-01 6.939748525619506836e-01 1.010870456695556641e+00
1.750000000000000000e+02 6.989685058593750000e+01 1.822886085510253906e+01 1.077224731445312500e+00 8.505688309669494629e-01 5.783380866050720215e-01 6.712408661842346191e-01
1.760000000000000000e+02 6.993276977539062500e+01 1.928025245666503906e+01 -1.362708806991577148e+00 2.678389474749565125e-02 -4.007774591445922852e-01 -1.844439208507537842e-01
1.770000000000000000e+02 7.231737518310546875e+01 1.849403381347656250e+01 2.832724571228027344e+00 1.533178138732910156e+01 5.449351787567138672e+00 7.111902713775634766e+00
1.780000000000000000e+02 7.213018035888671875e+01 1.858260154724121094e+01 4.071815490722656250e+00 1.177199840545654297e+01 4.753143787384033203e+00 7.706332206726074219e+00
1.790000000000000000e+02 7.108181762695312500e+01 1.825348663330078125e+01 2.898742198944091797e+00 2.890029907226562500e+00 1.736631631851196289e+00 3.181678771972656250e+00
1.800000000000000000e+02 7.031013488769531250e+01 1.831142425537109375e+01 1.595874309539794922e+00 1.019019603729248047e+00 7.844681739807128906e-01 1.181409716606140137e+00
1.810000000000000000e+02 7.013513183593750000e+01 1.803608894348144531e+01 1.561555862426757812e+00 1.210491657257080078e+00 8.316142559051513672e-01 1.310927391052246094e+00
1.820000000000000000e+02 7.393610382080078125e+01 1.995261383056640625e+01 9.499282836914062500e+00 1.654792594909667969e+01 7.814162731170654297e+00 2.101424694061279297e+00
1.830000000000000000e+02 7.401022338867187500e+01 1.959948921203613281e+01 1.069985103607177734e+01 1.592129135131835938e+01 7.986342906951904297e+00 -4.466093704104423523e-02
1.840000000000000000e+02 6.951222991943359375e+01 2.077060699462890625e+01 -2.092392593622207642e-01 7.713708281517028809e-01 1.686394661664962769e-01 -3.063047826290130615e-01
1.850000000000000000e+02 6.972406768798828125e+01 2.055780982971191406e+01 -4.339489936828613281e-01 5.338847041130065918e-01 2.998070418834686279e-02 -2.595005631446838379e-01
1.860000000000000000e+02 7.185016632080078125e+01 2.039612770080566406e+01 4.692648887634277344e+00 5.134372711181640625e+00 2.948106527328491211e+00 -6.264088153839111328e+00
1.870000000000000000e+02 7.268647003173828125e+01 2.072210884094238281e+01 1.010788679122924805e+00 2.058618164062500000e+01 6.479091167449951172e+00 -5.154784202575683594e+00
1.880000000000000000e+02 7.242417144775390625e+01 2.099400711059570312e+01 1.116689682006835938e+00 1.554517364501953125e+01 4.998558998107910156e+00 -6.356169223785400391e+00
1.890000000000000000e+02 7.050645446777343750e+01 1.960766029357910156e+01 -3.977058649063110352e+00 -3.567156195640563965e-02 -1.203819036483764648e+00 -1.740407049655914307e-01
1.900000000000000000e+02 7.117149353027343750e+01 1.978584671020507812e+01 -2.504241466522216797e+00 6.670243293046951294e-02 -7.312616705894470215e-01 -1.991775333881378174e-01
1.910000000000000000e+02 7.217549896240234375e+01 2.065381050109863281e+01 3.207745552062988281e+00 1.239544391632080078e+01 4.680956840515136719e+00 -7.855245590209960938e+00
1.920000000000000000e+02 7.377823638916015625e+01 1.969272994995117188e+01 1.202937412261962891e+01 1.748504257202148438e+01 8.854325294494628906e+00 7.071961760520935059e-01
1.930000000000000000e+02 7.319986724853515625e+01 1.865946578979492188e+01 3.553796768188476562e+00 2.344387245178222656e+01 8.099300384521484375e+00 -1.362205862998962402e+00
1.940000000000000000e+02 7.314653015136718750e+01 1.834175682067871094e+01 1.460871696472167969e+00 2.100671577453613281e+01 6.740276336669921875e+00 2.233998328447341919e-01
1.950000000000000000e+02 7.127153778076171875e+01 1.834510231018066406e+01 3.359864950180053711e+00 3.607464790344238281e+00 2.090198993682861328e+00 3.827979326248168945e+00
1.960000000000000000e+02 7.159629058837890625e+01 1.921182823181152344e+01 2.693455457687377930e+00 8.286775946617126465e-01 1.056639909744262695e+00 1.666749119758605957e+00
1.970000000000000000e+02 7.348598480224609375e+01 1.890547561645507812e+01 7.642552852630615234e+00 2.136360359191894531e+01 8.701847076416015625e+00 -3.478700399398803711e+00
1.980000000000000000e+02 7.153684997558593750e+01 1.941259765625000000e+01 -3.560020029544830322e-01 2.582649514079093933e-02 -9.905264526605606079e-02 1.208647564053535461e-01
1.990000000000000000e+02 7.114429473876953125e+01 1.935382080078125000e+01 -8.052209019660949707e-01 3.550834581255912781e-02 -2.309137731790542603e-01 3.629507869482040405e-02
2.000000000000000000e+02 7.261231994628906250e+01 1.853445625305175781e+01 1.747010350227355957e+00 2.041132164001464844e+01 6.647499561309814453e+00 5.606327533721923828e+00
2.010000000000000000e+02 7.367858886718750000e+01 1.955848312377929688e+01 1.294138431549072266e+01 1.820527458190917969e+01 9.343997955322265625e+00 -3.423343896865844727e-01
2.020000000000000000e+02 7.160069274902343750e+01 2.007091140747070312e+01 2.487839460372924805e+00 8.881795406341552734e-01 1.012805700302124023e+00 -2.424149751663208008e+00
2.030000000000000000e+02 7.276426696777343750e+01 2.096748352050781250e+01 3.915481269359588623e-01 1.885877037048339844e+01 5.775095939636230469e+00 -3.817268848419189453e+00
2.040000000000000000e+02 7.199828338623046875e+01 2.054359245300292969e+01 4.230242729187011719e+00 8.803334236145019531e+00 3.910073041915893555e+00 -7.620380401611328125e+00
2.050000000000000000e+02 7.205532073974609375e+01 2.091892242431640625e+01 2.469309806823730469e+00 1.085155582427978516e+01 3.996259689331054688e+00 -6.860720157623291016e+00
2.060000000000000000e+02 7.355936431884765625e+01 2.018767738342285156e+01 8.473883628845214844e+00 2.072715187072753906e+01 8.760311126708984375e+00 3.428627252578735352e+00
2.070000000000000000e+02 7.236856842041015625e+01 2.070804023742675781e+01 2.043612241744995117e+00 1.633431625366210938e+01 5.513378143310546875e+00 -7.378972053527832031e+00
2.080000000000000000e+02 7.087902832031250000e+01 2.085716819763183594e+01 1.896493792533874512e+00 2.118522167205810547e+00 1.204504728317260742e+00 -2.701735734939575195e+00
2.090000000000000000e+02 7.340303802490234375e+01 2.051930236816406250e+01 4.444405555725097656e+00 2.185482597351074219e+01 7.889769554138183594e+00 2.242850303649902344e+00
2.100000000000000000e+02 7.321978759765625000e+01 2.054372024536132812e+01 3.311167716979980469e+00 2.329235649108886719e+01 7.981057167053222656e+00 1.284078836441040039e+00
2.110000000000000000e+02 7.330132293701171875e+01 2.078861045837402344e+01 1.802590608596801758e+00 2.087906074523925781e+01 6.804495334625244141e+00 6.189221739768981934e-01
2.120000000000000000e+02 7.347012329101562500e+01 1.854524612426757812e+01 3.795388936996459961e+00 2.068958282470703125e+01 7.345491409301757812e+00 -2.279613733291625977e+00
2.130000000000000000e+02 7.331224822998046875e+01 1.843424797058105469e+01 2.475958824157714844e+00 2.120558738708496094e+01 7.104464054107666016e+00 -1.083633065223693848e+00
2.140000000000000000e+02 7.297853851318359375e+01 1.826736068725585938e+01 8.830682039260864258e-01 2.063413619995117188e+01 6.455161094665527344e+00 1.697736859321594238e+00
2.150000000000000000e+02 7.383003997802734375e+01 1.939573478698730469e+01 1.133597469329833984e+01 1.717086219787597656e+01 8.552051544189453125e+00 -1.345182776451110840e+00
2.160000000000000000e+02 7.378370666503906250e+01 2.030144500732421875e+01 7.246565341949462891e+00 1.838789367675781250e+01 7.690337657928466797e+00 2.999752283096313477e+00
2.170000000000000000e+02 7.366419982910156250e+01 1.938384437561035156e+01 1.239521503448486328e+01 1.855515670776367188e+01 9.285111427307128906e+00 -1.861165881156921387e+00
2.180000000000000000e+02 7.398506164550781250e+01 1.924075317382812500e+01 9.579257011413574219e+00 1.622825622558593750e+01 7.742253780364990234e+00 -1.978926062583923340e+00
2.190000000000000000e+02 7.386968231201171875e+01 2.012910842895507812e+01 8.674488067626953125e+00 1.731980895996093750e+01 7.798289299011230469e+00 2.764133691787719727e+00
2.200000000000000000e+02 7.383294677734375000e+01 1.892918014526367188e+01 8.021613121032714844e+00 1.789212989807128906e+01 7.774123191833496094e+00 -3.168620109558105469e+00
2.210000000000000000e+02 7.398521423339843750e+01 1.977812767028808594e+01 1.034278011322021484e+01 1.603692436218261719e+01 7.913911342620849609e+00 1.048814773559570312e+00
2.220000000000000000e+02 7.312992858886718750e+01 2.086455154418945312e+01 9.881736040115356445e-01 2.101246643066406250e+01 6.600191593170166016e+00 -8.125975131988525391e-01
2.230000000000000000e+02 7.345955657958984375e+01 2.071167755126953125e+01 2.692365169525146484e+00 2.087285804748535156e+01 7.069567203521728516e+00 1.613107681274414062e+00
2.240000000000000000e+02 7.258973693847656250e+01 2.100020980834960938e+01 5.895733833312988281e-01 1.764060020446777344e+01 5.469052314758300781e+00 -5.065165996551513672e+00
2.250000000000000000e+02 7.361231231689453125e+01 1.866659927368164062e+01 5.046424388885498047e+00 1.969833564758300781e+01 7.423428058624267578e+00 -3.000688791275024414e+00
2.260000000000000000e+02 7.262374114990234375e+01 1.837668609619140625e+01 1.328435659408569336e+00 1.906957817077636719e+01 6.119403839111328125e+00 4.675106525421142578e+00
2.270000000000000000e+02 7.280357360839843750e+01 1.821719932556152344e+01 8.403182029724121094e-01 1.923081016540527344e+01 6.021338462829589844e+00 3.239238023757934570e+00
2.280000000000000000e+02 7.098535919189453125e+01 1.843452072143554688e+01 2.816366195678710938e+00 2.064645290374755859e+00 1.464303493499755859e+00 2.612182855606079102e+00
2.290000000000000000e+02 7.071724700927734375e+01 1.990348052978515625e+01 -1.744155526161193848e+00 7.300385832786560059e-02 -5.013455152511596680e-01 -3.030318915843963623e-01
2.300000000000000000e+02 7.092053222656250000e+01 1.961435317993164062e+01 -4.204030513763427734e+00 8.268345892429351807e-02 -1.236404061317443848e+00 -2.016458660364151001e-01
2.310000000000000000e+02 7.026837921142578125e+01 1.984643173217773438e+01 -2.416278600692749023e+00 -6.833893060684204102e-02 -7.453852891921997070e-01 -1.354115009307861328e-01
2.320000000000000000e+02 7.126753997802734375e+01 1.999643135070800781e+01 7.904376089572906494e-02 2.321687936782836914e-01 9.336376935243606567e-02 -9.954277276992797852e-01
2.330000000000000000e+02 7.151882934570312500e+01 1.987167167663574219e+01 -2.886150181293487549e-01 2.163951992988586426e-01 -2.166594564914703369e-02 -1.022604942321777344e+00
2.340000000000000000e+02 7.261673736572265625e+01 1.819669342041015625e+01 1.042915225028991699e+00 1.793421554565429688e+01 5.693139076232910156e+00 4.451610565185546875e+00
2.350000000000000000e+02 7.222228240966796875e+01 1.821298408508300781e+01 2.219121217727661133e+00 1.305256080627441406e+01 4.581504821777343750e+00 6.309524059295654297e+00
2.360000000000000000e+02 7.157369995117187500e+01 1.814443397521972656e+01 3.134836912155151367e+00 6.255682945251464844e+00 2.817155838012695312e+00 5.002909660339355469e+00
2.370000000000000000e+02 7.181136322021484375e+01 1.859155464172363281e+01 4.682224750518798828e+00 6.815891265869140625e+00 3.449434995651245117e+00 6.218532562255859375e+00
2.380000000000000000e+02 7.052705383300781250e+01 1.837100219726562500e+01 1.936818003654479980e+00 1.198878288269042969e+00 9.407088756561279297e-01 1.494562983512878418e+00
2.390000000000000000e+02 7.097885131835937500e+01 1.809244537353515625e+01 2.657576560974121094e+00 2.978619575500488281e+00 1.690858840942382812e+00 2.992867231369018555e+00
2.400000000000000000e+02 7.034281921386718750e+01 1.806154823303222656e+01 1.906472802162170410e+00 1.474495172500610352e+00 1.014290332794189453e+00 1.637906312942504883e+00
2.410000000000000000e+02 7.242475128173828125e+01 1.819964790344238281e+01 1.452462553977966309e+00 1.592095756530761719e+01 5.212026119232177734e+00 5.776133060455322266e+00
2.420000000000000000e+02 6.999771881103515625e+01 1.869829940795898438e+01 6.575367450714111328e-01 2.208421677350997925e-01 2.635136842727661133e-01 2.172495722770690918e-01
2.430000000000000000e+02 7.194426727294921875e+01 1.842293167114257812e+01 3.759619951248168945e+00 9.441319465637207031e+00 3.960281848907470703e+00 6.628818511962890625e+00
2.440000000000000000e+02 7.178583526611328125e+01 1.815151786804199219e+01 3.141886711120605469e+00 8.162517547607421875e+00 3.391321182250976562e+00 5.848022460937500000e+00
2.450000000000000000e+02 7.068310546875000000e+01 1.902775573730468750e+01 4.101274609565734863e-01 1.979466080665588379e-01 1.824222207069396973e-01 3.858917355537414551e-01
2.460000000000000000e+02 7.012837982177734375e+01 1.929230117797851562e+01 -1.433464169502258301e+00 -5.656661000102758408e-03 -4.317362606525421143e-01 -1.370458304882049561e-01
2.470000000000000000e+02 7.014451599121093750e+01 1.906255149841308594e+01 -4.834406971931457520e-01 1.067988872528076172e-01 -1.129925400018692017e-01 -3.112699836492538452e-02
2.480000000000000000e+02 6.982979583740234375e+01 2.002026176452636719e+01 -1.639651656150817871e+00 9.446422755718231201e-02 -4.635562300682067871e-01 1.390203088521957397e-01
2.490000000000000000e+02 6.955957794189453125e+01 2.035447502136230469e+01 -9.259303212165832520e-01 3.095125854015350342e-01 -1.849253177642822266e-01 1.647894829511642456e-01
2.500000000000000000e+02 6.992352294921875000e+01 2.052575111389160156e+01 -2.815287113189697266e-01 3.604738116264343262e-01 2.368352748453617096e-02 -2.572907209396362305e-01
2.510000000000000000e+02 7.163034057617187500e+01 2.070319938659667969e+01 3.497868299484252930e+00 5.024042606353759766e+00 2.556573152542114258e+00 -5.366376399993896484e+00
2.520000000000000000e+02 7.163350677490234375e+01 2.092084693908691406e+01 2.912314891815185547e+00 6.098785877227783203e+00 2.703330278396606445e+00 -5.547324180603027344e+00
2.530000000000000000e+02 7.034603118896484375e+01 2.052062988281250000e+01 3.392305374145507812e-01 6.158278584480285645e-01 2.865175306797027588e-01 -8.327053189277648926e-01
2.540000000000000000e+02 7.013609313964843750e+01 2.050392341613769531e+01 -4.688491672277450562e-02 4.465863108634948730e-01 1.199104189872741699e-01 -6.002032160758972168e-01
2.550000000000000000e+02 7.125463867187500000e+01 2.090251731872558594e+01 2.774909973144531250e+00 3.423031806945800781e+00 1.859382510185241699e+00 -4.033943176269531250e+00
2.560000000000000000e+02 7.093747711181640625e+01 2.061260604858398438e+01 1.928413987159729004e+00 1.579114079475402832e+00 1.052258372306823730e+00 -2.394994258880615234e+00
2.570000000000000000e+02 7.068565368652343750e+01 2.083691406250000000e+01 1.591377973556518555e+00 1.603914022445678711e+00 9.585875868797302246e-01 -2.226704835891723633e+00
2.580000000000000000e+02 7.095328521728515625e+01 1.985638618469238281e+01 -1.817996144294738770e+00 5.598713830113410950e-02 -5.286027193069458008e-01 -2.928371727466583252e-01
2.590000000000000000e+02 7.181793212890625000e+01 2.068056678771972656e+01 3.779052495956420898e+00 7.200379371643066406e+00 3.293829679489135742e+00 -6.474429607391357422e+00
2.600000000000000000e+02 7.101238250732421875e+01 2.009606552124023438e+01 -5.413083732128143311e-02 4.056060910224914551e-01 1.054425686597824097e-01 -1.007995009422302246e+00
2.610000000000000000e+02 7.072215270996093750e+01 1.930296516418457031e+01 -1.118029594421386719e+00 -1.830748980864882469e-03 -3.359581232070922852e-01 3.349051624536514282e-02
2.620000000000000000e+02 7.032160949707031250e+01 1.930628204345703125e+01 -1.416671991348266602e+00 2.539782598614692688e-02 -4.173822700977325439e-01 -1.003759503364562988e-01
2.630000000000000000e+02 7.032751464843750000e+01 1.908222198486328125e+01 -4.291189014911651611e-01 9.436877071857452393e-02 -1.004250422120094299e-01 4.935966804623603821e-02
2.640000000000000000e+02 7.010702514648437500e+01 1.956133842468261719e+01 -3.818635225296020508e+00 -1.125667616724967957e-01 -1.179360628128051758e+00 -2.187223136425018311e-01
2.650000000000000000e+02 7.055383300781250000e+01 1.808848571777343750e+01 2.224422454833984375e+00 1.864658713340759277e+00 1.226724386215209961e+00 2.041849613189697266e+00
2.660000000000000000e+02 7.168827819824218750e+01 1.902471733093261719e+01 4.703649997711181641e+00 2.112923860549926758e+00 2.044972181320190430e+00 3.585420608520507812e+00
2.670000000000000000e+02 7.175773620605468750e+01 1.834536170959472656e+01 3.569014549255371094e+00 7.366103649139404297e+00 3.280535459518432617e+00 5.831985473632812500e+00
2.680000000000000000e+02 7.142746734619140625e+01 1.845533370971679688e+01 3.632543563842773438e+00 4.196538925170898438e+00 2.348724603652954102e+00 4.207851409912109375e+00
2.690000000000000000e+02 6.972027587890625000e+01 2.036478042602539062e+01 -7.396216988563537598e-01 2.948736846446990967e-01 -1.334244012832641602e-01 2.048199437558650970e-02
2.700000000000000000e+02 7.054349517822265625e+01 2.055378341674804688e+01 7.261556982994079590e-01 7.070386409759521484e-01 4.299583137035369873e-01 -1.247627496719360352e+00
2.710000000000000000e+02 7.121691131591796875e+01 2.041618537902832031e+01 2.251735925674438477e+00 1.392018914222717285e+00 1.093126416206359863e+00 -2.599454641342163086e+00
2.720000000000000000e+02 6.990320587158203125e+01 2.078041648864746094e+01 2.034384310245513916e-01 7.488042712211608887e-01 2.856728136539459229e-01 -7.018963694572448730e-01
2.730000000000000000e+02 7.128019714355468750e+01 1.886670684814453125e+01 3.050312757492065430e+00 1.410953998565673828e+00 1.338380098342895508e+00 2.331560373306274414e+00
2.740000000000000000e+02 7.061417388916015625e+01 2.029720878601074219e+01 -3.712995350360870361e-02 4.329767227172851562e-01 1.187540292739868164e-01 -7.993210554122924805e-01
2.750000000000000000e+02 7.105247497558593750e+01 1.885423660278320312e+01 2.244149446487426758e+00 9.550610184669494629e-01 9.597631096839904785e-01 1.595678210258483887e+00
2.760000000000000000e+02 7.011916351318359375e+01 1.883650016784667969e+01 2.806034684181213379e-01 1.965010762214660645e-01 1.431313604116439819e-01 1.531191468238830566e-01
2.770000000000000000e+02 7.018366241455078125e+01 2.022069931030273438e+01 -8.895397782325744629e-01 1.997833698987960815e-01 -2.069269269704818726e-01 -2.305584996938705444e-01
2.780000000000000000e+02 6.970417022705078125e+01 1.951964569091796875e+01 -3.944541931152343750e+00 -5.256108641624450684e-01 -1.341045856475830078e+00 -4.743825197219848633e-01
2.790000000000000000e+02 7.181448364257812500e+01 1.885987281799316406e+01 5.539203166961669922e+00 4.632760047912597656e+00 3.051589012145996094e+00 5.698221206665039062e+00
2.800000000000000000e+02 7.169718170166015625e+01 2.053223991394042969e+01 4.133864879608154297e+00 4.849308013916015625e+00 2.694952011108398438e+00 -5.572867870330810547e+00
2.810000000000000000e+02 7.041271972656250000e+01 2.022511482238769531e+01 -5.749240517616271973e-01 2.211073637008666992e-01 -1.061450168490409851e-01 -5.325379967689514160e-01
2.820000000000000000e+02 7.100759124755859375e+01 2.035364341735839844e+01 1.307395935058593750e+00 8.732791543006896973e-01 6.542025208473205566e-01 -1.697868704795837402e+00
2.830000000000000000e+02 7.076155853271484375e+01 1.840626907348632812e+01 2.376549959182739258e+00 1.569439530372619629e+00 1.183796763420104980e+00 1.999037861824035645e+00
2.840000000000000000e+02 7.008545684814453125e+01 1.980750846862792969e+01 -2.691173553466796875e+00 5.479156598448753357e-02 -7.909145951271057129e-01 -3.903114423155784607e-02
2.850000000000000000e+02 6.970629882812500000e+01 2.077824401855468750e+01 -9.752307832241058350e-02 5.952501893043518066e-01 1.493181437253952026e-01 -3.299922943115234375e-01
2.860000000000000000e+02 6.959172821044921875e+01 2.015438842773437500e+01 -1.246925354003906250e+00 1.809077709913253784e-01 -3.198052644729614258e-01 1.407200247049331665e-01
2.870000000000000000e+02 6.963556671142578125e+01 1.995218276977539062e+01 -2.185460329055786133e+00 9.008381515741348267e-02 -6.286129355430603027e-01 1.915767639875411987e-01
2.880000000000000000e+02 7.010038757324218750e+01 2.078514099121093750e+01 5.239826440811157227e-01 8.354418873786926270e-01 4.078273475170135498e-01 -9.008707404136657715e-01
2.890000000000000000e+02 7.049082183837890625e+01 2.081696128845214844e+01 1.156039714813232422e+00 1.227993488311767578e+00 7.152099609375000000e-01 -1.591977953910827637e+00
2.900000000000000000e+02 7.074038696289062500e+01 2.058653640747070312e+01 1.269447684288024902e+00 1.030484914779663086e+00 6.899797916412353516e-01 -1.681033968925476074e+00
2.910000000000000000e+02 7.112263488769531250e+01 2.065201759338378906e+01 2.312585830688476562e+00 2.174654722213745117e+00 1.346172094345092773e+00 -3.022243976593017578e+00
2.920000000000000000e+02 7.030596923828125000e+01 1.958328437805175781e+01 -3.884657382965087891e+00 1.969484798610210419e-02 -1.159488677978515625e+00 -1.755282431840896606e-01
2.930000000000000000e+02 7.047518157958984375e+01 1.991197967529296875e+01 -1.994709491729736328e+00 5.622343346476554871e-02 -5.815458297729492188e-01 -1.639989912509918213e-01
2.940000000000000000e+02 7.111489105224609375e+01 1.960232353210449219e+01 -4.199754714965820312e+00 1.207023859024047852e-02 -1.256305336952209473e+00 -3.181728720664978027e-01
2.950000000000000000e+02 7.129568481445312500e+01 1.962672233581542969e+01 -3.957218885421752930e+00 -8.673830889165401459e-03 -1.189767837524414062e+00 -3.650063574314117432e-01
2.960000000000000000e+02 6.976203155517578125e+01 1.905677795410156250e+01 -6.578495502471923828e-01 -5.390365049242973328e-02 -2.135259658098220825e-01 -1.788550466299057007e-01
2.970000000000000000e+02 6.995101928710937500e+01 1.906841087341308594e+01 -6.336262822151184082e-01 6.042606756091117859e-02 -1.719600707292556763e-01 -1.096629276871681213e-01
2.980000000000000000e+02 6.982057952880859375e+01 1.864758300781250000e+01 4.659038484096527100e-01 3.553144931793212891e-01 2.463655024766921997e-01 2.324672639369964600e-01
2.990000000000000000e+02 6.986087799072265625e+01 1.844227600097656250e+01 9.172319173812866211e-01 3.449136614799499512e-01 3.786436617374420166e-01 4.103059470653533936e-01
3.000000000000000000e+02 7.006274414062500000e+01 1.850153541564941406e+01 9.755393266677856445e-01 6.092051863670349121e-01 4.754233360290527344e-01 5.736747980117797852e-01
3.010000000000000000e+02 7.106798553466796875e+01 2.087984848022460938e+01 2.306771278381347656e+00 2.810780525207519531e+00 1.535265564918518066e+00 -3.356081962585449219e+00
3.020000000000000000e+02 7.138291931152343750e+01 2.053998756408691406e+01 3.124655723571777344e+00 2.718635082244873047e+00 1.752987265586853027e+00 -3.793017148971557617e+00
3.030000000000000000e+02 7.145262908935546875e+01 2.070714569091796875e+01 3.276061534881591797e+00 3.880501508712768555e+00 2.146968841552734375e+00 -4.624822616577148438e+00
3.040000000000000000e+02 7.144225311279296875e+01 2.091548156738281250e+01 2.833339214324951172e+00 4.629151821136474609e+00 2.238747358322143555e+00 -4.783997535705566406e+00
3.050000000000000000e+02 7.184073638916015625e+01 2.091175270080566406e+01 2.953706979751586914e+00 8.126628875732421875e+00 3.324100732803344727e+00 -6.429446220397949219e+00
3.060000000000000000e+02 7.294734191894531250e+01 2.092575836181640625e+01 4.779163599014282227e-01 2.039560127258300781e+01 6.262055397033691406e+00 -2.432918071746826172e+00
3.070000000000000000e+02 7.368424224853515625e+01 2.046020317077636719e+01 5.735956668853759766e+00 1.934935760498046875e+01 7.525594711303710938e+00 2.910917520523071289e+00
3.080000000000000000e+02 7.370514678955078125e+01 1.983791160583496094e+01 1.180521488189697266e+01 1.826132965087890625e+01 9.019963264465332031e+00 1.701566338539123535e+00
3.090000000000000000e+02 7.400599670410156250e+01 1.941562080383300781e+01 1.005016994476318359e+01 1.592447853088378906e+01 7.792394638061523438e+00 -1.054680943489074707e+00
3.100000000000000000e+02 7.383123016357421875e+01 1.955988693237304688e+01 1.143066596984863281e+01 1.689958381652832031e+01 8.499074935913085938e+00 -3.311303853988647461e-01
3.110000000000000000e+02 7.383123016357421875e+01 1.922123336791992188e+01 1.000489521026611328e+01 1.733442306518554688e+01 8.201795578002929688e+00 -2.335652828216552734e+00
3.120000000000000000e+02 7.391813659667968750e+01 1.908853340148925781e+01 8.697037696838378906e+00 1.700450706481933594e+01 7.710463523864746094e+00 -2.696508407592773438e+00
3.130000000000000000e+02 7.051744079589843750e+01 1.931284523010253906e+01 -1.300852060317993164e+00 6.422755122184753418e-02 -3.709873557090759277e-01 -1.380296051502227783e-02
3.140000000000000000e+02 7.049821472167968750e+01 1.908658790588378906e+01 -2.800402641296386719e-01 1.369857192039489746e-01 -4.291636124253273010e-02 9.584186226129531860e-02
3.150000000000000000e+02 7.086534881591796875e+01 1.892847251892089844e+01 1.224397301673889160e+00 4.351168274879455566e-01 4.978542327880859375e-01 8.678488731384277344e-01
3.160000000000000000e+02 7.141062164306640625e+01 1.915633773803710938e+01 1.946341872215270996e+00 5.444880127906799316e-01 7.472490072250366211e-01 1.229534268379211426e+00
3.170000000000000000e+02 7.121068572998046875e+01 1.910842514038085938e+01 1.357556939125061035e+00 3.891853690147399902e-01 5.240226984024047852e-01 1.006206393241882324e+00
3.180000000000000000e+02 7.150284576416015625e+01 1.893610954284667969e+01 3.862608194351196289e+00 1.960944652557373047e+00 1.747065901756286621e+00 3.076606988906860352e+00
3.190000000000000000e+02 7.164601898193359375e+01 1.874713897705078125e+01 4.695759296417236328e+00 3.835246801376342773e+00 2.559301853179931641e+00 4.714295387268066406e+00
3.200000000000000000e+02 7.133390045166015625e+01 1.863754463195800781e+01 3.741584777832031250e+00 2.537556409835815430e+00 1.883742332458496094e+00 3.328907728195190430e+00
3.210000000000000000e+02 7.077275848388671875e+01 1.810898971557617188e+01 2.471837997436523438e+00 2.434586763381958008e+00 1.471927523612976074e+00 2.535829067230224609e+00
3.220000000000000000e+02 7.116407012939453125e+01 1.808811187744140625e+01 2.796491622924804688e+00 3.861765146255493164e+00 1.997477054595947266e+00 3.675189256668090820e+00
3.230000000000000000e+02 7.136013793945312500e+01 1.812877655029296875e+01 2.947226524353027344e+00 4.941465854644775391e+00 2.366607666015625000e+00 4.283382415771484375e+00
3.240000000000000000e+02 7.200225067138671875e+01 1.819222831726074219e+01 2.801465511322021484e+00 1.047049236297607422e+01 3.981587409973144531e+00 6.266225337982177734e+00
3.250000000000000000e+02 7.277005767822265625e+01 1.839110183715820312e+01 1.128871679306030273e+00 2.023084640502929688e+01 6.407915592193603516e+00 3.714146614074707031e+00
3.260000000000000000e+02 7.303475189208984375e+01 1.856700897216796875e+01 2.177784919738769531e+00 2.338295173645019531e+01 7.668220996856689453e+00 6.608867049217224121e-01
3.270000000000000000e+02 7.374028778076171875e+01 1.878371238708496094e+01 6.316602230072021484e+00 1.902887535095214844e+01 7.603642940521240234e+00 -3.316283702850341797e+00
3.280000000000000000e+02 7.276892852783203125e+01 1.854650306701660156e+01 1.520744442939758301e+00 2.256404495239257812e+01 7.225436687469482422e+00 3.592290401458740234e+00
3.290000000000000000e+02 7.345516204833984375e+01 2.034230041503906250e+01 6.241449356079101562e+00 2.196797180175781250e+01 8.462826728820800781e+00 3.119042873382568359e+00
3.300000000000000000e+02 7.363760375976562500e+01 1.919557762145996094e+01 1.078873729705810547e+01 1.933759880065917969e+01 9.037900924682617188e+00 -3.056600570678710938e+00
3.310000000000000000e+02 7.167385864257812500e+01 1.848292350769042969e+01 4.251458644866943359e+00 5.688299179077148438e+00 2.981927394866943359e+00 5.457544326782226562e+00
3.320000000000000000e+02 7.158622741699218750e+01 1.834734153747558594e+01 3.626612663269042969e+00 5.486257553100585938e+00 2.733860969543457031e+00 4.974548339843750000e+00
3.330000000000000000e+02 6.995615386962890625e+01 1.887052917480468750e+01 -7.976843416690826416e-02 1.271464228630065918e-01 1.421339716762304306e-02 3.040549904108047485e-02
3.340000000000000000e+02 7.029096984863281250e+01 1.874602699279785156e+01 7.601826786994934082e-01 3.623236119747161865e-01 3.367518782615661621e-01 4.436714947223663330e-01
3.350000000000000000e+02 7.041362762451171875e+01 1.891294288635253906e+01 4.004677832126617432e-01 1.767702251672744751e-01 1.731714010238647461e-01 2.736835181713104248e-01
3.360000000000000000e+02 7.058512115478515625e+01 1.878388023376464844e+01 1.269799113273620605e+00 5.715135335922241211e-01 5.523937940597534180e-01 8.672005534172058105e-01
3.370000000000000000e+02 7.079386138916015625e+01 2.035101699829101562e+01 6.842798590660095215e-01 6.405705809593200684e-01 3.974551260471343994e-01 -1.243052005767822266e+00
3.380000000000000000e+02 7.000096893310546875e+01 2.014837837219238281e+01 -1.185694336891174316e+00 -7.980154827237129211e-03 -3.581023216247558594e-01 -1.342792958021163940e-01
3.390000000000000000e+02 7.100648498535156250e+01 1.906555366516113281e+01 1.031273961067199707e+00 3.540939092636108398e-01 4.156103730201721191e-01 8.182483315467834473e-01
3.400000000000000000e+02 6.975038146972656250e+01 2.020157814025878906e+01 -1.282116055488586426e+00 1.126194596290588379e-01 -3.508490025997161865e-01 7.028207927942276001e-02
3.410000000000000000e+02 7.026200103759765625e+01 1.854036331176757812e+01 1.269652009010314941e+00 6.072689294815063477e-01 5.630762577056884766e-01 7.867057323455810547e-01
3.420000000000000000e+02 7.044416046142578125e+01 1.860540962219238281e+01 1.446348667144775391e+00 6.867939233779907227e-01 6.399427652359008789e-01 9.192768931388854980e-01
3.430000000000000000e+02 7.115781402587890625e+01 1.853579521179199219e+01 3.278933525085449219e+00 2.152723312377929688e+00 1.629497170448303223e+00 2.955292701721191406e+00
3.440000000000000000e+02 7.014498901367187500e+01 2.000567436218261719e+01 -1.770001888275146484e+00 8.962921798229217529e-02 -5.041118264198303223e-01 -1.101385578513145447e-01
3.450000000000000000e+02 7.078415679931640625e+01 1.868570899963378906e+01 1.900526165962219238e+00 8.030480742454528809e-01 8.110722899436950684e-01 1.332029700279235840e+00
3.460000000000000000e+02 7.100125885009765625e+01 1.864454841613769531e+01 2.629309892654418945e+00 1.381617069244384766e+00 1.203278064727783203e+00 2.049451112747192383e+00
3.470000000000000000e+02 7.152367401123046875e+01 1.860441970825195312e+01 4.143120765686035156e+00 3.900682926177978516e+00 2.413141012191772461e+00 4.401333808898925781e+00
3.480000000000000000e+02 7.077088165283203125e+01 2.014354515075683594e+01 -3.677016794681549072e-01 2.922474741935729980e-01 -2.263626083731651306e-02 -7.635331749916076660e-01
3.490000000000000000e+02 1.718122100830078125e+01 -1.225537300109863281e+01 -1.072172880172729492e+00 -9.574574977159500122e-02 -3.503755629062652588e-01 -7.118668407201766968e-02
3.500000000000000000e+02 1.837144088745117188e+01 -1.277803802490234375e+01 -2.998379766941070557e-01 5.882703885436058044e-02 -7.230328023433685303e-02 5.354641377925872803e-02
3.510000000000000000e+02 1.991088867187500000e+01 -1.228026390075683594e+01 -2.580631673336029053e-01 1.153024211525917053e-01 -4.282822459936141968e-02 -1.197401210665702820e-01
3.520000000000000000e+02 2.204598045349121094e+01 -1.415062522888183594e+01 1.797953844070434570e-01 8.511260151863098145e-03 5.649199336767196655e-02 -9.888821840286254883e-02
3.530000000000000000e+02 3.087641334533691406e+01 -1.326456546783447266e+01 6.354621648788452148e-01 1.628759205341339111e-01 2.395014315843582153e-01 -4.219646751880645752e-01
3.540000000000000000e+02 2.998748970031738281e+01 -1.490663623809814453e+01 1.363207817077636719e+00 1.876226067543029785e-02 4.145910441875457764e-01 -2.574679553508758545e-01
3.550000000000000000e+02 2.921207618713378906e+01 -8.461459159851074219e+00 -8.083799481391906738e-01 -1.363079696893692017e-01 -2.834063768386840820e-01 -4.186032116413116455e-01
3.560000000000000000e+02 2.971130752563476562e+01 -5.981741905212402344e+00 -1.943688869476318359e+00 -3.154056370258331299e-01 -6.777283549308776855e-01 2.360394410789012909e-02
3.570000000000000000e+02 2.893254089355468750e+01 -5.019952297210693359e+00 -1.720536470413208008e+00 -2.986975610256195068e-01 -6.057702302932739258e-01 4.068503379821777344e-01
3.580000000000000000e+02 2.798441123962402344e+01 -4.257543087005615234e+00 -7.476947307586669922e-01 -1.600480526685714722e-01 -2.723228335380554199e-01 3.805628418922424316e-01
3.590000000000000000e+02 2.589849662780761719e+01 -2.914824724197387695e+00 -3.763325214385986328e-01 3.673209995031356812e-02 -1.018801182508468628e-01 1.204906776547431946e-01
3.600000000000000000e+02 2.595135688781738281e+01 -3.763676166534423828e+00 -5.256979465484619141e-01 9.592746943235397339e-02 -1.289311498403549194e-01 9.082613885402679443e-02
3.610000000000000000e+02 2.639580917358398438e+01 -6.219979763031005859e+00 -8.873755335807800293e-01 2.106973528861999512e-01 -2.030034512281417847e-01 -2.657234370708465576e-01
3.620000000000000000e+02 2.839423942565917969e+01 -1.129432010650634766e+01 -4.596657305955886841e-02 8.883033692836761475e-02 1.285912841558456421e-02 -4.727182388305664062e-01
3.630000000000000000e+02 2.601180076599121094e+01 -1.461722278594970703e+01 7.693653106689453125e-01 4.047745093703269958e-02 2.429528236389160156e-01 -1.701636910438537598e-01
3.640000000000000000e+02 2.725762557983398438e+01 -1.352740192413330078e+01 6.314879655838012695e-01 9.328681975603103638e-02 2.174324393272399902e-01 -3.528020381927490234e-01
3.650000000000000000e+02 3.043240737915039062e+01 -1.180496501922607422e+01 1.985303461551666260e-01 4.523782059550285339e-02 7.313045114278793335e-02 -3.604852855205535889e-01
3.660000000000000000e+02 3.126273918151855469e+01 -1.492781925201416016e+01 1.588595271110534668e+00 1.568159461021423340e-01 5.236233472824096680e-01 -3.622429966926574707e-01
3.670000000000000000e+02 3.502475357055664062e+01 -1.328698730468750000e+01 6.149877905845642090e-01 -1.486091315746307373e-01 1.399136036634445190e-01 -5.012746155261993408e-02
3.680000000000000000e+02 3.283554840087890625e+01 -8.418709754943847656e+00 -9.432472586631774902e-01 -2.747728824615478516e-01 -3.654060363769531250e-01 -1.977713257074356079e-01
3.690000000000000000e+02 3.226906585693359375e+01 -5.517504692077636719e+00 -2.565492391586303711e+00 -1.577007472515106201e-01 -8.169579505920410156e-01 -2.858479619026184082e-01
3.700000000000000000e+02 3.501344680786132812e+01 -4.775799751281738281e+00 -2.159072637557983398e+00 -1.561225354671478271e-01 -6.945585012435913086e-01 -6.265324354171752930e-01
3.710000000000000000e+02 3.090899658203125000e+01 -5.543598651885986328e+00 -2.547480821609497070e+00 -1.799357980489730835e-01 -8.182250261306762695e-01 3.067456185817718506e-02
3.720000000000000000e+02 3.327518844604492188e+01 -1.567531967163085938e+01 1.685975909233093262e+00 4.496693313121795654e-01 6.406936049461364746e-01 -6.145341396331787109e-01
3.730000000000000000e+02 3.421014785766601562e+01 -1.647443199157714844e+01 1.051400661468505859e+00 4.778743088245391846e-01 4.587824642658233643e-01 -6.713685989379882812e-01
3.740000000000000000e+02 3.510906982421875000e+01 -1.730983352661132812e+01 5.639559626579284668e-01 1.379500478506088257e-01 2.105718106031417847e-01 -3.861368596553802490e-01
3.750000000000000000e+02 3.625188446044921875e+01 -1.773900604248046875e+01 5.057415366172790527e-01 -2.239622175693511963e-01 8.453380316495895386e-02 -3.537801802158355713e-01
3.760000000000000000e+02 3.758922576904296875e+01 -1.778839111328125000e+01 5.216190218925476074e-01 -3.155256807804107666e-01 6.182800233364105225e-02 -3.855479955673217773e-01
3.770000000000000000e+02 3.615183639526367188e+01 -2.038135719299316406e+01 1.421233266592025757e-02 -7.451849579811096191e-01 -2.192917913198471069e-01 -7.465071976184844971e-02
3.780000000000000000e+02 3.746369552612304688e+01 -1.901329231262207031e+01 3.165904283523559570e-01 -2.952978610992431641e-01 6.387769244611263275e-03 -4.014276564121246338e-01
3.790000000000000000e+02 3.622467422485351562e+01 -2.317986679077148438e+01 -8.456764370203018188e-02 -1.074246287345886230e+00 -3.476441800594329834e-01 -1.690319776535034180e-01
3.800000000000000000e+02 3.588157272338867188e+01 -2.727230453491210938e+01 -1.447604000568389893e-01 -6.228962540626525879e-01 -2.302969843149185181e-01 -1.787355393171310425e-01
3.810000000000000000e+02 3.740303039550781250e+01 -2.583789253234863281e+01 -1.158631145954132080e-01 -4.223382771015167236e-01 -1.614604145288467407e-01 -2.083794958889484406e-02
3.820000000000000000e+02 3.632397842407226562e+01 -3.101942634582519531e+01 1.857070475816726685e-01 -2.647608518600463867e-01 -2.371614426374435425e-02 6.976480595767498016e-03
3.830000000000000000e+02 3.822467041015625000e+01 -3.818891143798828125e+01 3.900594711303710938e-01 -3.551507368683815002e-02 1.063633188605308533e-01 1.246969122439622879e-02
3.840000000000000000e+02 3.777191925048828125e+01 -4.105276107788085938e+01 4.127409756183624268e-01 -4.078776016831398010e-02 1.115859672427177429e-01 4.836759530007839203e-03
3.850000000000000000e+02 4.245549011230468750e+01 -4.104294204711914062e+01 4.171494245529174805e-01 1.322094798088073730e-01 1.648076772689819336e-01 -7.749713957309722900e-03
3.860000000000000000e+02 4.227782440185546875e+01 -3.798708343505859375e+01 3.699937164783477783e-01 1.531456261873245239e-01 1.569418013095855713e-01 -6.907430011779069901e-03
3.870000000000000000e+02 4.154182434082031250e+01 -3.517297363281250000e+01 3.074992001056671143e-01 1.620755642652511597e-01 1.408724188804626465e-01 1.166556682437658310e-02
3.880000000000000000e+02 3.890435409545898438e+01 -2.983260154724121094e+01 1.437956839799880981e-01 -5.399885773658752441e-02 2.693904936313629150e-02 1.091889962553977966e-01
3.890000000000000000e+02 3.953996276855468750e+01 -2.795773315429687500e+01 7.033930718898773193e-02 2.021043188869953156e-02 2.716492116451263428e-02 8.823444694280624390e-02
3.900000000000000000e+02 3.883264160156250000e+01 -1.988205146789550781e+01 2.464595884084701538e-01 -1.213129907846450806e-01 3.754398226737976074e-02 -3.812962472438812256e-01
3.910000000000000000e+02 3.907206726074218750e+01 -1.657440567016601562e+01 5.993583202362060547e-01 -1.722480952739715576e-01 1.281330585479736328e-01 -3.047044575214385986e-01
3.920000000000000000e+02 3.888305282592773438e+01 -1.323046112060546875e+01 4.411778151988983154e-01 -2.182777673006057739e-01 6.687001883983612061e-02 -6.721518933773040771e-02
3.930000000000000000e+02 4.048884963989257812e+01 -8.816997528076171875e+00 -3.983033001422882080e-01 -1.001142486929893494e-01 -1.495252698659896851e-01 -7.243965566158294678e-02
3.940000000000000000e+02 3.910144424438476562e+01 -6.501455307006835938e+00 -1.104969859123229980e+00 -2.742500305175781250e-01 -4.137659668922424316e-01 -2.662575244903564453e-01
3.950000000000000000e+02 4.009666442871093750e+01 -3.721012830734252930e+00 -1.680292606353759766e+00 -5.815472006797790527e-01 -6.785519719123840332e-01 -6.864028573036193848e-01
3.960000000000000000e+02 4.177870559692382812e+01 -4.215886592864990234e-01 -3.992396891117095947e-01 -2.988472282886505127e-01 -2.094260752201080322e-01 -3.694300055503845215e-01
3.970000000000000000e+02 3.442839813232421875e+01 -2.778435516357421875e+01 -2.334696501493453979e-01 -6.003875732421875000e-01 -2.501571774482727051e-01 -2.989541888236999512e-01
3.980000000000000000e+02 3.304466247558593750e+01 -3.117291259765625000e+01 1.771533936262130737e-01 -2.805700302124023438e-01 -3.102499060332775116e-02 -1.368849575519561768e-01
3.990000000000000000e+02 3.550662231445312500e+01 -3.513979721069335938e+01 3.660535514354705811e-01 -1.748018115758895874e-01 5.737552419304847717e-02 -1.921813189983367920e-02
4.000000000000000000e+02 3.463343048095703125e+01 -3.768183517456054688e+01 3.866543173789978027e-01 -1.271394491195678711e-01 7.785446196794509888e-02 -3.905852138996124268e-02
4.010000000000000000e+02 3.330241775512695312e+01 -4.078508377075195312e+01 3.821719288825988770e-01 -9.927236288785934448e-02 8.486986905336380005e-02 -1.885902322828769684e-02
4.020000000000000000e+02 3.090709877014160156e+01 -3.021646881103515625e+01 4.347341507673263550e-02 -9.446241706609725952e-02 -1.529670041054487228e-02 -1.100968793034553528e-01
4.030000000000000000e+02 3.162567138671875000e+01 -3.228375625610351562e+01 2.491368800401687622e-01 -2.131173014640808105e-01 1.080587692558765411e-02 -1.510692536830902100e-01
4.040000000000000000e+02 3.169998550415039062e+01 -3.636802673339843750e+01 3.540678024291992188e-01 -1.449595838785171509e-01 6.273246556520462036e-02 -9.911499172449111938e-02
4.050000000000000000e+02 2.990084648132324219e+01 -3.917813110351562500e+01 3.281192183494567871e-01 -5.585803836584091187e-02 8.167835325002670288e-02 -6.506336480379104614e-02
4.060000000000000000e+02 2.680832099914550781e+01 -4.089363098144531250e+01 2.624760270118713379e-01 2.656127884984016418e-02 8.671119064092636108e-02 -3.602797165513038635e-02
4.070000000000000000e+02 2.802792930603027344e+01 -3.085298919677734375e+01 2.951106429100036621e-01 -3.036041511222720146e-03 8.762238174676895142e-02 -5.121800675988197327e-02
4.080000000000000000e+02 2.654910659790039062e+01 -3.089681243896484375e+01 3.880252242088317871e-01 9.446809999644756317e-03 1.192416101694107056e-01 -5.915674939751625061e-02
4.090000000000000000e+02 2.765593147277832031e+01 -3.670219421386718750e+01 2.745060324668884277e-01 6.061356514692306519e-03 8.417021483182907104e-02 -1.334524452686309814e-01
4.100000000000000000e+02 2.641944503784179688e+01 -3.304359817504882812e+01 3.220706284046173096e-01 4.425636306405067444e-02 1.098980978131294250e-01 -1.498618125915527344e-01
4.110000000000000000e+02 2.475697898864746094e+01 -3.246466445922851562e+01 3.680096566677093506e-01 8.255227655172348022e-02 1.351685822010040283e-01 -1.433573216199874878e-01
4.120000000000000000e+02 2.383958435058593750e+01 -3.380397033691406250e+01 3.139210939407348633e-01 1.330291628837585449e-01 1.340850740671157837e-01 -1.748476624488830566e-01
4.130000000000000000e+02 2.314661598205566406e+01 -3.837636184692382812e+01 1.840264499187469482e-01 1.284543275833129883e-01 9.374423325061798096e-02 -9.704964607954025269e-02
4.140000000000000000e+02 2.271271514892578125e+01 -4.098441314697265625e+01 1.470178812742233276e-01 1.438730359077453613e-01 8.726727962493896484e-02 -2.722775191068649292e-02
4.150000000000000000e+02 2.228170013427734375e+01 -3.023516845703125000e+01 6.030755639076232910e-01 9.446498006582260132e-02 2.092621624469757080e-01 -1.965208351612091064e-01
4.160000000000000000e+02 2.039434814453125000e+01 -3.130694580078125000e+01 4.482082724571228027e-01 2.237315475940704346e-01 2.015819400548934937e-01 -2.464948147535324097e-01
4.170000000000000000e+02 1.604876708984375000e+01 -3.131143188476562500e+01 2.834816575050354004e-01 1.978243589401245117e-01 1.443918049335479736e-01 -1.604239195585250854e-01
4.180000000000000000e+02 1.079774284362792969e+01 -3.313635635375976562e+01 1.102285981178283691e-01 -1.096037775278091431e-01 1.874470326583832502e-04 -5.369910225272178650e-02
4.190000000000000000e+02 4.779296398162841797e+00 -3.134586906433105469e+01 4.693017527461051941e-02 -5.233601331710815430e-01 -1.429289877414703369e-01 -5.351661890745162964e-02
4.200000000000000000e+02 8.854495286941528320e-01 -3.043759155273437500e+01 1.986622810363769531e-04 -8.593556880950927734e-01 -2.577471137046813965e-01 -1.482454035431146622e-02
4.210000000000000000e+02 2.613385200500488281e+00 -3.025930976867675781e+01 2.378274127840995789e-02 -6.804479360580444336e-01 -1.969995647668838501e-01 -4.472742602229118347e-02
4.220000000000000000e+02 8.248749971389770508e-01 -3.472982025146484375e+01 3.128201933577656746e-03 -8.899409770965576172e-01 -2.660438418388366699e-01 5.370850558392703533e-04
4.230000000000000000e+02 2.162111997604370117e+00 -3.611753845214843750e+01 1.309879124164581299e-02 -7.786042094230651855e-01 -2.296516299247741699e-01 1.015801727771759033e-02
4.240000000000000000e+02 5.965558052062988281e+00 -3.788265991210937500e+01 1.303495746105909348e-02 -4.463464915752410889e-01 -1.299934536218643188e-01 -1.006525009870529175e-02
4.250000000000000000e+02 8.086056709289550781e+00 -4.111889266967773438e+01 -9.487411938607692719e-03 -3.280440568923950195e-01 -1.012594401836395264e-01 -4.096744116395711899e-03
4.260000000000000000e+02 1.249862194061279297e+01 -4.125949478149414062e+01 2.735206391662359238e-03 -3.961764648556709290e-02 -1.106473244726657867e-02 -1.850414904765784740e-03
4.270000000000000000e+02 1.677831077575683594e+01 -4.122847747802734375e+01 4.426772147417068481e-02 1.207637116312980652e-01 4.950943216681480408e-02 -1.689348556101322174e-02
4.280000000000000000e+02 1.620213508605957031e+01 -3.868003845214843750e+01 5.685880780220031738e-02 1.132488027215003967e-01 5.103228241205215454e-02 -4.787388816475868225e-02
4.290000000000000000e+02 1.605860900878906250e+01 -3.605084609985351562e+01 9.414700418710708618e-02 1.358827501535415649e-01 6.900892406702041626e-02 -7.328689098358154297e-02
4.300000000000000000e+02 1.169318485260009766e+01 -2.071524047851562500e+01 1.301758736371994019e-01 3.368245903402566910e-03 4.006323590874671936e-02 -1.792225092649459839e-01
4.310000000000000000e+02 1.165901184082031250e+01 -1.816867828369140625e+01 2.163632772862911224e-02 -6.650250554084777832e-01 -1.930166184902191162e-01 -1.007331386208534241e-01
4.320000000000000000e+02 1.014225006103515625e+01 -1.632803344726562500e+01 -3.712586462497711182e-01 -4.753463864326477051e-01 -2.539815008640289307e-01 -3.936060369014739990e-01
4.330000000000000000e+02 1.053212833404541016e+01 -1.469604492187500000e+01 -5.424247980117797852e-01 -5.318153500556945801e-01 -3.222720324993133545e-01 -3.841778337955474854e-01
4.340000000000000000e+02 4.213992118835449219e+00 -1.200581836700439453e+01 -1.243808269500732422e-01 4.261064901947975159e-02 -2.453105337917804718e-02 -4.528062045574188232e-02
4.350000000000000000e+02 6.051852107048034668e-01 -1.068447875976562500e+01 -4.694170318543910980e-03 3.480830490589141846e-01 1.030166596174240112e-01 6.995060946792364120e-03
4.360000000000000000e+02 1.806332826614379883e+00 -1.067556667327880859e+01 -2.712819911539554596e-02 2.240310907363891602e-01 5.907086655497550964e-02 1.748569682240486145e-02
4.370000000000000000e+02 6.168373227119445801e-01 -1.209266376495361328e+01 -7.070915773510932922e-03 3.487029075622558594e-01 1.024895980954170227e-01 -6.573050748556852341e-03
4.380000000000000000e+02 1.863783001899719238e+00 -1.347455596923828125e+01 -3.268483653664588928e-02 1.826481074094772339e-01 4.498897865414619446e-02 -6.010891869664192200e-02
4.390000000000000000e+02 4.377483367919921875e+00 -1.747764778137207031e+01 -7.565865665674209595e-02 -1.342538595199584961e-01 -6.297376006841659546e-02 -3.066472113132476807e-01
4.400000000000000000e+02 9.856980323791503906e+00 -1.781386756896972656e+01 -1.932116448879241943e-01 -3.714731931686401367e-01 -1.694054454565048218e-01 -4.100045561790466309e-01
4.410000000000000000e+02 1.122621250152587891e+01 -2.208687591552734375e+01 2.496965378522872925e-01 3.281670436263084412e-02 8.475397527217864990e-02 -2.708544135093688965e-01
4.420000000000000000e+02 6.239643096923828125e-01 -1.632050132751464844e+01 -4.025957081466913223e-03 1.525551229715347290e-01 4.455875232815742493e-02 -5.043673142790794373e-02
4.430000000000000000e+02 3.123401641845703125e+00 -1.759593963623046875e+01 -3.466865047812461853e-02 -9.567855298519134521e-02 -3.910415992140769958e-02 -2.424720674753189087e-01
4.440000000000000000e+02 4.435838699340820312e+00 -1.894338417053222656e+01 -2.393447235226631165e-02 -2.098940312862396240e-01 -7.014854997396469116e-02 -3.346955776214599609e-01
4.450000000000000000e+02 1.028179454803466797e+01 -2.350903320312500000e+01 3.107297420501708984e-01 -1.230372041463851929e-01 5.630776286125183105e-02 -2.941345572471618652e-01
4.460000000000000000e+02 1.330123996734619141e+01 -2.381406974792480469e+01 3.793611228466033936e-01 3.746055960655212402e-01 2.261900156736373901e-01 -3.684931099414825439e-01
4.470000000000000000e+02 1.522150611877441406e+01 -2.782478713989257812e+01 4.157007336616516113e-01 2.652037441730499268e-01 2.042713463306427002e-01 -3.109310567378997803e-01
4.480000000000000000e+02 1.621665382385253906e+01 -2.667225074768066406e+01 4.639323949813842773e-01 3.971168100833892822e-01 2.583147585391998291e-01 -4.207013249397277832e-01
4.490000000000000000e+02 1.827300834655761719e+01 -2.864019584655761719e+01 6.467046141624450684e-01 3.438348770141601562e-01 2.971618473529815674e-01 -3.982200920581817627e-01
4.500000000000000000e+02 1.127248764038085938e+01 -1.577102565765380859e+01 -4.356081485748291016e-01 -9.296666979789733887e-01 -4.095824658870697021e-01 -4.394406080245971680e-01
4.510000000000000000e+02 1.010063171386718750e+01 -1.203704166412353516e+01 -4.843216836452484131e-01 -3.385654687881469727e-01 -2.468661367893218994e-01 -1.403761506080627441e-01
4.520000000000000000e+02 6.257479190826416016e+00 -4.927492618560791016e+00 2.691948786377906799e-02 -2.095760591328144073e-02 1.788564375601708889e-03 1.222864985466003418e-01
4.530000000000000000e+02 5.965148806571960449e-01 -6.461596012115478516e+00 -2.548312302678823471e-03 2.009642571210861206e-01 5.952478572726249695e-02 2.977500669658184052e-02
4.540000000000000000e+02 1.774035811424255371e+00 -7.915514945983886719e+00 -1.212407648563385010e-02 1.859132200479507446e-01 5.213674530386924744e-02 6.493307650089263916e-02
4.550000000000000000e+02 1.226999473571777344e+01 -1.500075531005859375e+01 -5.414640903472900391e-01 -1.132930159568786621e+00 -5.023182630538940430e-01 -6.661249995231628418e-01
4.560000000000000000e+02 1.261904430389404297e+01 -1.154623794555664062e+01 -6.116718649864196777e-01 -5.349375009536743164e-01 -3.439828157424926758e-01 -2.399091571569442749e-01
4.570000000000000000e+02 1.183732604980468750e+01 -4.964855670928955078e+00 2.421596460044384003e-02 -1.268286556005477905e-01 -3.078380972146987915e-02 -5.442677065730094910e-03
4.580000000000000000e+02 1.446686744689941406e+01 -2.683506965637207031e+00 2.010789960622787476e-01 -1.269509177654981613e-02 5.651517212390899658e-02 -8.385922759771347046e-02
4.590000000000000000e+02 1.145718002319335938e+01 -2.826810121536254883e+00 1.894673407077789307e-01 -5.079419910907745361e-02 4.160194471478462219e-02 9.104172699153423309e-03
4.600000000000000000e+02 7.908776760101318359e+00 -2.591927051544189453e+00 1.463931351900100708e-01 -2.864302508533000946e-02 3.532503545284271240e-02 7.346075028181076050e-02
4.610000000000000000e+02 5.287313461303710938e+00 -5.774616718292236328e+00 -4.961833474226295948e-04 5.598553456366062164e-03 1.530711073428392410e-03 1.243400201201438904e-01
4.620000000000000000e+02 7.962697505950927734e+00 -5.740412235260009766e+00 -9.107872843742370605e-03 -7.797943800687789917e-02 -2.612619288265705109e-02 1.000033020973205566e-01
4.630000000000000000e+02 8.591790199279785156e+00 -1.169706439971923828e+01 -3.662289977073669434e-01 -2.098570168018341064e-01 -1.728258132934570312e-01 -8.261383324861526489e-02
4.640000000000000000e+02 1.338196372985839844e+01 -1.236450862884521484e+01 -9.006159305572509766e-01 -6.166990399360656738e-01 -4.551944732666015625e-01 -4.630338847637176514e-01
4.650000000000000000e+02 1.241241455078125000e+01 -1.319362354278564453e+01 -7.307962775230407715e-01 -7.216295003890991211e-01 -4.357277452945709229e-01 -4.625601172447204590e-01
4.660000000000000000e+02 1.606357765197753906e+01 -1.162110900878906250e+01 -1.179876446723937988e+00 -4.238480627536773682e-01 -4.811173677444458008e-01 -3.637242317199707031e-01
4.670000000000000000e+02 1.768600845336914062e+01 -1.132391643524169922e+01 -7.263164520263671875e-01 -4.374991357326507568e-02 -2.310198992490768433e-01 -3.966152071952819824e-01
4.680000000000000000e+02 1.506835556030273438e+01 -9.376133918762207031e+00 -4.186805784702301025e-01 -3.725273311138153076e-01 -2.373623698949813843e-01 -3.013435006141662598e-01
4.690000000000000000e+02 5.567165374755859375e+01 -7.366516590118408203e+00 -2.282560765743255615e-01 -3.416114151477813721e-01 -1.709602475166320801e-01 3.792293071746826172e-01
4.700000000000000000e+02 5.632270812988281250e+01 -9.166533470153808594e+00 -5.544167757034301758e-01 -2.830208241939544678e-01 -2.512312829494476318e-01 3.969719409942626953e-01
4.710000000000000000e+02 5.686584091186523438e+01 -8.004887580871582031e+00 -3.726394772529602051e-01 -2.866584956645965576e-01 -1.977893859148025513e-01 3.907597064971923828e-01
4.720000000000000000e+02 5.573641967773437500e+01 -2.861991882324218750e+00 -5.948637127876281738e-01 -3.549609482288360596e-01 -2.849473953247070312e-01 1.704602241516113281e-01
4.730000000000000000e+02 5.598607254028320312e+01 6.506411433219909668e-01 -1.257999181747436523e+00 -3.556858301162719727e-01 -4.841054975986480713e-01 -5.602881312370300293e-01
4.740000000000000000e+02 6.152206420898437500e+01 1.797717571258544922e+00 -3.342318534851074219e-01 6.955063343048095703e-02 -7.940436899662017822e-02 -1.844468563795089722e-01
4.750000000000000000e+02 6.516595458984375000e+01 3.433815956115722656e+00 -2.247794866561889648e-01 1.468251109123229980e+00 3.730414807796478271e-01 1.639459580183029175e-01
4.760000000000000000e+02 6.613722229003906250e+01 4.393832683563232422e+00 -2.975125014781951904e-01 1.965390443801879883e+00 5.003633499145507812e-01 2.603794336318969727e-01
4.770000000000000000e+02 7.172876739501953125e+01 2.754682540893554688e+00 -2.432520836591720581e-01 5.624152660369873047e+00 1.614270091056823730e+00 2.226947695016860962e-01
4.780000000000000000e+02 7.575854492187500000e+01 1.909902095794677734e+00 -1.088488325476646423e-01 8.054139137268066406e+00 2.383587121963500977e+00 8.680953085422515869e-02
4.790000000000000000e+02 7.815838623046875000e+01 3.070737600326538086e+00 -2.783492021262645721e-02 9.538719177246093750e+00 2.853265047073364258e+00 -1.299852039664983749e-02
4.800000000000000000e+02 7.938561248779296875e+01 5.680495738983154297e+00 -1.487199962139129639e-02 1.030337715148925781e+01 3.086551666259765625e+00 -7.455608993768692017e-02
4.810000000000000000e+02 7.939642333984375000e+01 7.076308250427246094e+00 -1.723724976181983948e-02 1.019952106475830078e+01 3.054685354232788086e+00 -1.118022650480270386e-01
4.820000000000000000e+02 7.942317199707031250e+01 8.468157768249511719e+00 -2.103413082659244537e-02 1.000203990936279297e+01 2.994301557540893555e+00 -1.575923860073089600e-01
4.830000000000000000e+02 7.836845397949218750e+01 1.005823802947998047e+01 -1.567612737417221069e-01 9.127575874328613281e+00 2.691244363784790039e+00 -5.472433567047119141e-01
4.840000000000000000e+02 7.627847290039062500e+01 1.051211643218994141e+01 -5.863901972770690918e-01 8.647173881530761719e+00 2.418235063552856445e+00 -7.824692726135253906e-01
4.850000000000000000e+02 6.901241302490234375e+01 1.673778533935546875e+01 6.125812530517578125e-01 1.304124116897583008e+00 5.750116109848022461e-01 9.944650530815124512e-01
4.860000000000000000e+02 6.981542968750000000e+01 1.728369522094726562e+01 1.298102498054504395e+00 1.752284288406372070e+00 9.151160717010498047e-01 1.514183402061462402e+00
4.870000000000000000e+02 6.908726501464843750e+01 1.202043533325195312e+01 7.369114458560943604e-02 3.906447410583496094e+00 1.194041609764099121e+00 9.207928180694580078e-01
4.880000000000000000e+02 6.728324127197265625e+01 9.064586639404296875e+00 -3.360521793365478516e-01 2.523045063018798828e+00 6.560978889465332031e-01 4.319030642509460449e-01
4.890000000000000000e+02 6.618130493164062500e+01 6.224979877471923828e+00 -4.221887290477752686e-01 1.797587752342224121e+00 4.126197099685668945e-01 2.612251341342926025e-01
4.900000000000000000e+02 6.608292388916015625e+01 2.534749746322631836e+00 -1.664458215236663818e-01 2.079770326614379883e+00 5.739973783493041992e-01 2.530921101570129395e-01
4.910000000000000000e+02 5.748895645141601562e+01 -9.839908599853515625e+00 -6.249023675918579102e-01 -2.021658867597579956e-01 -2.481204718351364136e-01 4.160840809345245361e-01
4.920000000000000000e+02 6.028170394897460938e+01 -9.797389030456542969e+00 -7.448045015335083008e-01 -1.328239887952804565e-01 -2.632885575294494629e-01 4.998359084129333496e-01
4.930000000000000000e+02 6.063398361206054688e+01 -7.052630424499511719e+00 -1.328965723514556885e-01 -2.968325093388557434e-02 -4.877394810318946838e-02 4.070639610290527344e-01
4.940000000000000000e+02 6.123103332519531250e+01 -4.037879467010498047e+00 3.538545593619346619e-02 2.110626101493835449e-01 7.393442094326019287e-02 2.760478854179382324e-01
4.950000000000000000e+02 5.966374588012695312e+01 -1.014998912811279297e+00 -2.887603342533111572e-01 -1.439237445592880249e-01 -1.298052221536636353e-01 -9.208080591633915901e-04
4.960000000000000000e+02 5.973927307128906250e+01 1.412151098251342773e+00 -5.623090267181396484e-01 -2.944869995117187500e-01 -2.570388019084930420e-01 -3.450146019458770752e-01
4.970000000000000000e+02 6.240269088745117188e+01 -1.144980335235595703e+01 -1.668856978416442871e+00 -2.386881597340106964e-02 -5.078177452087402344e-01 3.780121505260467529e-01
4.980000000000000000e+02 6.551215362548828125e+01 -1.216895103454589844e+01 -1.390438079833984375e+00 3.438296914100646973e-01 -3.139825165271759033e-01 1.889404058456420898e-01
4.990000000000000000e+02 6.647615051269531250e+01 -1.303124141693115234e+01 -3.866686522960662842e-01 1.485604763031005859e+00 3.296808600425720215e-01 -3.932977318763732910e-01
5.000000000000000000e+02 6.731294250488281250e+01 -1.202167320251464844e+01 -1.204311609268188477e+00 3.682552814483642578e+00 7.434723973274230957e-01 -5.714484453201293945e-01
5.010000000000000000e+02 6.891200256347656250e+01 -1.155691623687744141e+01 -1.005969285964965820e+00 4.925163269042968750e+00 1.175758242607116699e+00 -3.286138549447059631e-02
5.020000000000000000e+02 6.953761291503906250e+01 -1.730863189697265625e+01 7.234615683555603027e-01 7.738360404968261719e+00 2.538546562194824219e+00 2.412274926900863647e-01
5.030000000000000000e+02 7.466849517822265625e+01 -2.051187515258789062e+01 5.571471452713012695e-01 6.661725044250488281e+00 2.165661573410034180e+00 3.090669810771942139e-01
5.040000000000000000e+02 7.937337493896484375e+01 -2.074657249450683594e+01 2.777391858398914337e-02 6.501519203186035156e+00 1.958787918090820312e+00 2.893731929361820221e-02
5.050000000000000000e+02 7.812507629394531250e+01 -2.046255111694335938e+01 1.003802493214607239e-01 6.660173416137695312e+00 2.028166055679321289e+00 1.272333711385726929e-01
5.060000000000000000e+02 7.936321258544921875e+01 -1.934764099121093750e+01 1.753662340342998505e-02 6.623806476593017578e+00 1.992402911186218262e+00 8.126819878816604614e-02
5.070000000000000000e+02 7.819663238525390625e+01 -1.617521095275878906e+01 5.902466177940368652e-02 7.251566886901855469e+00 2.193177461624145508e+00 4.426791369915008545e-01
5.080000000000000000e+02 7.625125122070312500e+01 -1.370631980895996094e+01 -2.923185564577579498e-02 7.464408397674560547e+00 2.230552911758422852e+00 8.473427295684814453e-01
5.090000000000000000e+02 7.053434753417968750e+01 -1.081219387054443359e+01 -8.069149255752563477e-01 5.720800399780273438e+00 1.474165678024291992e+00 3.277927935123443604e-01
5.100000000000000000e+02 6.825614166259765625e+01 -7.907582759857177734e+00 -5.100255012512207031e-01 3.774903774261474609e+00 9.794635176658630371e-01 -1.489195823669433594e-01
5.110000000000000000e+02 6.301716613769531250e+01 -5.740723133087158203e+00 6.530695594847202301e-03 6.578647494316101074e-01 1.993186324834823608e-01 2.296718209981918335e-01
5.120000000000000000e+02 6.495383453369140625e+01 -5.946903228759765625e+00 7.044808007776737213e-03 1.492894887924194336e+00 4.499819278717041016e-01 2.106688730418682098e-02
5.130000000000000000e+02 6.287858200073242188e+01 -8.157455444335937500e+00 -2.654171884059906006e-01 3.511187136173248291e-01 2.571046166121959686e-02 2.707982361316680908e-01
5.140000000000000000e+02 6.477203369140625000e+01 -1.109806442260742188e+01 -1.284160971641540527e+00 2.142055034637451172e-01 -3.209866583347320557e-01 1.021325588226318359e-01
5.150000000000000000e+02 6.835458374023437500e+01 -1.017521572113037109e+01 -8.775583505630493164e-01 4.114456176757812500e+00 9.710692763328552246e-01 -1.894875615835189819e-01
5.160000000000000000e+02 6.702641296386718750e+01 -9.357784271240234375e+00 -6.681745052337646484e-01 2.781159162521362305e+00 6.338953971862792969e-01 -3.831069767475128174e-01
5.170000000000000000e+02 6.822905731201171875e+01 -1.590307331085205078e+01 5.252329111099243164e-01 7.631659507751464844e+00 2.447067737579345703e+00 -9.917770624160766602e-01
5.180000000000000000e+02 6.964895629882812500e+01 -1.611443710327148438e+01 5.537998080253601074e-01 7.101704120635986328e+00 2.296651124954223633e+00 6.349085569381713867e-01
5.190000000000000000e+02 6.950193786621093750e+01 -1.982068061828613281e+01 1.561666727066040039e+00 7.944080829620361328e+00 2.851724147796630859e+00 1.244713306427001953e+00
5.200000000000000000e+02 7.939924621582031250e+01 -2.493580818176269531e+01 -2.082701306790113449e-03 6.638544082641601562e+00 1.990938425064086914e+00 -6.161590665578842163e-02
5.210000000000000000e+02 7.822382354736328125e+01 -2.465741348266601562e+01 3.755839914083480835e-02 6.637125492095947266e+00 2.002405166625976562e+00 -1.389652192592620850e-01
5.220000000000000000e+02 6.832423400878906250e+01 -1.852348899841308594e+01 1.081977337598800659e-01 9.588996887207031250e+00 2.909158468246459961e+00 1.876641511917114258e-01
5.230000000000000000e+02 6.705028533935546875e+01 -2.296265983581542969e+01 1.580034494400024414e+00 5.016057014465332031e+00 1.978827476501464844e+00 2.463876962661743164e+00
5.240000000000000000e+02 6.831324768066406250e+01 -2.241929435729980469e+01 1.268015980720520020e+00 7.056509017944335938e+00 2.497357606887817383e+00 1.884742259979248047e+00
5.250000000000000000e+02 7.215125274658203125e+01 -2.613494873046875000e+01 -8.207343518733978271e-02 6.263872146606445312e+00 1.854539632797241211e+00 4.748674854636192322e-02
5.260000000000000000e+02 7.446093750000000000e+01 -3.012878799438476562e+01 -1.463090777397155762e-01 6.218085289001464844e+00 1.821532845497131348e+00 -1.613866165280342102e-02
5.270000000000000000e+02 7.926708984375000000e+01 -3.326885604858398438e+01 -1.903040148317813873e-02 7.207347869873046875e+00 2.156495094299316406e+00 -1.197599433362483978e-02
5.280000000000000000e+02 7.606231689453125000e+01 -3.367230606079101562e+01 -7.322581112384796143e-02 6.400459766387939453e+00 1.898170232772827148e+00 1.001445390284061432e-02
5.290000000000000000e+02 7.928890228271484375e+01 -3.187683486938476562e+01 1.873635570518672466e-03 7.179242134094238281e+00 2.154334783554077148e+00 -3.351814299821853638e-02
5.300000000000000000e+02 7.785963439941406250e+01 -3.153170967102050781e+01 -3.122882917523384094e-02 6.846372604370117188e+00 2.044543266296386719e+00 -6.029388681054115295e-02
5.310000000000000000e+02 7.518169403076171875e+01 -3.261609649658203125e+01 -9.484615176916122437e-02 6.249115943908691406e+00 1.846280932426452637e+00 -5.295530892908573151e-03
5.320000000000000000e+02 6.701953125000000000e+01 -2.511878967285156250e+01 3.757523000240325928e-01 4.503802776336669922e+00 1.463866591453552246e+00 1.631609320640563965e+00
5.330000000000000000e+02 6.612284851074218750e+01 -2.817387771606445312e+01 1.235295459628105164e-02 3.407463312149047852e+00 1.025944828987121582e+00 1.051393032073974609e+00
5.340000000000000000e+02 6.404502105712890625e+01 -3.043190002441406250e+01 1.215688660740852356e-01 2.139461994171142578e+00 6.783092617988586426e-01 8.468810915946960449e-01
5.350000000000000000e+02 6.367461776733398438e+01 -3.535599517822265625e+01 4.323526620864868164e-01 2.239185333251953125e+00 8.014614582061767578e-01 4.876939654350280762e-01
5.360000000000000000e+02 6.351465988159179688e+01 -3.816976165771484375e+01 5.425621271133422852e-01 2.227674961090087891e+00 8.310711383819580078e-01 2.824010252952575684e-01
5.370000000000000000e+02 6.284423065185546875e+01 -4.109354782104492188e+01 6.596249938011169434e-01 2.081156015396118164e+00 8.222343325614929199e-01 7.667635381221771240e-02
5.380000000000000000e+02 6.741906738281250000e+01 -4.121743011474609375e+01 3.573002219200134277e-01 3.527221918106079102e+00 1.165356636047363281e+00 8.435762673616409302e-02
5.390000000000000000e+02 6.738368225097656250e+01 -3.846907806396484375e+01 2.994525730609893799e-01 3.568967819213867188e+00 1.160526037216186523e+00 2.696893513202667236e-01
5.400000000000000000e+02 6.579103088378906250e+01 -3.454002380371093750e+01 2.201963365077972412e-01 3.078377485275268555e+00 9.895721077919006348e-01 5.251824855804443359e-01
5.410000000000000000e+02 6.901209259033203125e+01 -3.120404243469238281e+01 -1.473828554153442383e-01 4.605323314666748047e+00 1.337382078170776367e+00 5.719909071922302246e-01
5.420000000000000000e+02 7.256774139404296875e+01 -2.771572685241699219e+01 -1.864843666553497314e-01 6.138192653656005859e+00 1.785512447357177734e+00 9.212181717157363892e-02
5.430000000000000000e+02 6.794112396240234375e+01 -2.631134033203125000e+01 -1.157548949122428894e-01 4.921977996826171875e+00 1.441866874694824219e+00 9.513898491859436035e-01
5.440000000000000000e+02 4.938913726806640625e+01 -1.662905961275100708e-01 -1.268103241920471191e+00 9.312774240970611572e-02 -3.524926304817199707e-01 5.629123747348785400e-02
5.450000000000000000e+02 5.011699676513671875e+01 -8.976509571075439453e-01 -1.379455566406250000e+00 1.604210585355758667e-02 -4.090240299701690674e-01 -1.850359514355659485e-02
5.460000000000000000e+02 5.161967468261718750e+01 -1.952778548002243042e-02 -2.098500728607177734e+00 -1.526029109954833984e-01 -6.753311157226562500e-01 2.407517731189727783e-01
5.470000000000000000e+02 4.719393539428710938e+01 -1.573660731315612793e+00 -1.024860143661499023e+00 2.800847887992858887e-01 -2.234325855970382690e-01 -1.791139692068099976e-01
5.480000000000000000e+02 5.074619293212890625e+01 -7.332484245300292969e+00 -1.340015530586242676e-01 3.660600483417510986e-01 6.961754709482192993e-02 2.209022790193557739e-01
5.490000000000000000e+02 5.446852874755859375e+01 -6.791678428649902344e+00 -2.182692289352416992e-01 -2.399838417768478394e-01 -1.374759227037429810e-01 4.045965075492858887e-01
5.500000000000000000e+02 5.512377929687500000e+01 -8.519084930419921875e+00 -4.531579911708831787e-01 -2.266798466444015503e-01 -2.039513438940048218e-01 3.100329339504241943e-01
5.510000000000000000e+02 5.263980102539062500e+01 -7.342912197113037109e+00 -4.860817641019821167e-02 5.181262269616127014e-02 9.613339207135140896e-04 2.711274921894073486e-01
5.520000000000000000e+02 4.637592697143554688e+01 -1.155204677581787109e+01 2.895643711090087891e-01 8.244045972824096680e-01 3.341906964778900146e-01 3.066329061985015869e-01
5.530000000000000000e+02 4.852424240112304688e+01 -1.068653964996337891e+01 5.501098036766052246e-01 9.916480183601379395e-01 4.625273346900939941e-01 6.371134519577026367e-01
5.540000000000000000e+02 4.959855270385742188e+01 -9.717213630676269531e+00 5.494632720947265625e-01 6.160331368446350098e-01 3.496489226818084717e-01 5.438245534896850586e-01
5.550000000000000000e+02 5.066991806030273438e+01 -8.857419013977050781e+00 5.043089985847473145e-01 4.014655053615570068e-01 2.717323601245880127e-01 4.219902753829956055e-01
5.560000000000000000e+02 4.766934585571289062e+01 -1.188326168060302734e+01 4.212673306465148926e-01 1.255677580833435059e+00 5.030834674835205078e-01 6.072773933410644531e-01
5.570000000000000000e+02 4.256108093261718750e+01 -8.424121856689453125e+00 -3.960422873497009277e-01 1.406551599502563477e-01 -7.661613821983337402e-02 -6.387137621641159058e-02
5.580000000000000000e+02 4.352952575683593750e+01 -1.050817394256591797e+01 1.167298527434468269e-03 2.947615385055541992e-01 8.877864480018615723e-02 3.976918011903762817e-02
5.590000000000000000e+02 4.217759704589843750e+01 -1.211909103393554688e+01 1.993477642536163330e-01 1.658206582069396973e-01 1.095505282282829285e-01 1.781586557626724243e-02
5.600000000000000000e+02 4.419500350952148438e+01 -1.409151935577392578e+01 3.174764811992645264e-01 6.549037694931030273e-01 2.917140722274780273e-01 1.374104171991348267e-01
5.610000000000000000e+02 4.487000274658203125e+01 -1.708041954040527344e+01 1.609298139810562134e-01 1.103388667106628418e+00 3.792955577373504639e-01 8.795336820185184479e-03
5.620000000000000000e+02 4.601876831054687500e+01 -2.017401695251464844e+01 1.197314560413360596e-01 1.709699392318725586e+00 5.488292574882507324e-01 -1.772215515375137329e-01
5.630000000000000000e+02 4.623229980468750000e+01 -1.729668617248535156e+01 6.799869984388351440e-02 1.396296620368957520e+00 4.392885863780975342e-01 7.966078072786331177e-02
5.640000000000000000e+02 4.604636001586914062e+01 -1.872342300415039062e+01 6.251163035631179810e-02 1.498037695884704590e+00 4.681648015975952148e-01 -3.856185823678970337e-02
5.650000000000000000e+02 4.422037124633789062e+01 -1.163622665405273438e+01 1.700213402509689331e-01 4.588791131973266602e-01 1.886701285839080811e-01 1.178006231784820557e-01
5.660000000000000000e+02 4.639002990722656250e+01 -2.287222290039062500e+01 3.566213250160217285e-01 1.866918563842773438e+00 6.670619845390319824e-01 -5.520126819610595703e-01
5.670000000000000000e+02 4.618908691406250000e+01 -2.156244087219238281e+01 1.389760822057723999e-01 1.872766256332397461e+00 6.035227179527282715e-01 -3.569692671298980713e-01
5.680000000000000000e+02 4.457402038574218750e+01 -2.054798889160156250e+01 2.291404306888580322e-01 1.177886009216308594e+00 4.221079349517822266e-01 -2.822255492210388184e-01
5.690000000000000000e+02 4.183031463623046875e+01 -2.236540794372558594e+01 1.877167224884033203e-01 4.904468953609466553e-01 2.034490853548049927e-01 -2.362985312938690186e-01
5.700000000000000000e+02 4.470462799072265625e+01 -2.439703178405761719e+01 3.011891543865203857e-01 1.010265827178955078e+00 3.934364914894104004e-01 -1.918550878763198853e-01
5.710000000000000000e+02 4.315850067138671875e+01 -2.733507537841796875e+01 1.454128623008728027e-01 6.022541522979736328e-01 2.243001013994216919e-01 -1.119250059127807617e-02
5.720000000000000000e+02 4.706298446655273438e+01 -2.938111114501953125e+01 1.774147450923919678e-01 7.938371300697326660e-01 2.913755774497985840e-01 -2.729047834873199463e-01
5.730000000000000000e+02 5.332052230834960938e+01 -3.612702178955078125e+01 5.534055829048156738e-01 3.587284088134765625e-01 2.736401855945587158e-01 -2.675431072711944580e-01
5.740000000000000000e+02 5.521470260620117188e+01 -3.904315948486328125e+01 7.531554102897644043e-01 5.359603762626647949e-01 3.867347240447998047e-01 -8.264986425638198853e-02
5.750000000000000000e+02 5.847088623046875000e+01 -4.079310607910156250e+01 8.011989593505859375e-01 9.915241003036499023e-01 5.378168821334838867e-01 2.036345750093460083e-02
5.760000000000000000e+02 6.008410263061523438e+01 -3.770917892456054688e+01 7.141566872596740723e-01 1.228358149528503418e+00 5.827544331550598145e-01 1.347908526659011841e-01
5.770000000000000000e+02 5.749806594848632812e+01 -3.652045059204101562e+01 7.412025928497314453e-01 6.744768023490905762e-01 4.247038364410400391e-01 -2.208669111132621765e-02
5.780000000000000000e+02 5.534102249145507812e+01 -3.003261184692382812e+01 -1.762477159500122070e-01 3.218608722090721130e-02 -4.321848973631858826e-02 -1.773607581853866577e-01
5.790000000000000000e+02 5.012763977050781250e+01 -2.764183998107910156e+01 5.031820535659790039e-01 6.115099787712097168e-01 3.344075977802276611e-01 -5.287147164344787598e-01
5.800000000000000000e+02 5.157841873168945312e+01 -3.097948074340820312e+01 2.011280059814453125e-01 4.701755046844482422e-01 2.013910561800003052e-01 -3.992205858230590820e-01
5.810000000000000000e+02 4.566025543212890625e+01 -2.587100791931152344e+01 2.697961330413818359e-01 9.749636650085449219e-01 3.734279572963714600e-01 -2.292141020298004150e-01
5.820000000000000000e+02 4.737910079956054688e+01 -2.478167152404785156e+01 5.796449780464172363e-01 1.458464622497558594e+00 6.114328503608703613e-01 -7.245368957519531250e-01
5.830000000000000000e+02 6.609828186035156250e+01 2.126437377929687500e+01 -2.862180471420288086e+00 -8.586585521697998047e-01 -1.116251707077026367e+00 1.249323129653930664e+00
5.840000000000000000e+02 6.493148803710937500e+01 2.184602546691894531e+01 -3.435552597045898438e+00 -4.660315513610839844e-01 -1.170475244522094727e+00 1.028316020965576172e+00
5.850000000000000000e+02 6.230866622924804688e+01 2.263059806823730469e+01 -3.344735860824584961e+00 -2.104708254337310791e-01 -1.066561937332153320e+00 5.958557128906250000e-01
5.860000000000000000e+02 5.496702194213867188e+01 2.159672355651855469e+01 -1.649521827697753906e+00 -1.528900861740112305e-01 -5.407235622406005859e-01 -3.583564162254333496e-01
5.870000000000000000e+02 5.244160079956054688e+01 2.021411705017089844e+01 -7.603835463523864746e-01 -2.800418138504028320e-01 -3.121276199817657471e-01 -3.910422921180725098e-01
5.880000000000000000e+02 5.083356857299804688e+01 1.779363250732421875e+01 -1.203847154974937439e-01 -9.387079626321792603e-02 -6.427665054798126221e-02 -1.115477532148361206e-01
5.890000000000000000e+02 4.938541412353515625e+01 1.363354492187500000e+01 -1.055225264281034470e-02 1.598416641354560852e-02 1.629573875106871128e-03 -9.187426185235381126e-04
5.900000000000000000e+02 4.858771133422851562e+01 9.518009185791015625e+00 3.739263396710157394e-03 1.099603530019521713e-02 4.420589655637741089e-03 4.758216440677642822e-03
5.910000000000000000e+02 4.689470291137695312e+01 5.768036842346191406e+00 2.891582669690251350e-03 2.884911664295941591e-04 9.540221653878688812e-04 5.661458708345890045e-04
5.920000000000000000e+02 4.839376068115234375e+01 8.135492324829101562e+00 -3.325893485452979803e-04 5.452333483844995499e-03 1.535923220217227936e-03 2.910914132371544838e-03
5.930000000000000000e+02 6.760919189453125000e+01 2.172790718078613281e+01 -1.344169616699218750e+00 4.748638272285461426e-01 -2.607917487621307373e-01 3.699310123920440674e-02
5.940000000000000000e+02 6.938869476318359375e+01 2.109862327575683594e+01 -4.755192995071411133e-02 8.331832885742187500e-01 2.356894016265869141e-01 -4.542689025402069092e-01
5.950000000000000000e+02 7.066897583007812500e+01 2.113807487487792969e+01 1.724761009216308594e+00 2.350048780441284180e+00 1.222442984580993652e+00 -2.635977268218994141e+00
5.960000000000000000e+02 7.156071472167968750e+01 2.142140197753906250e+01 1.796345472335815430e+00 7.125005722045898438e+00 2.676405429840087891e+00 -5.170306205749511719e+00
5.970000000000000000e+02 7.165263366699218750e+01 2.660160064697265625e+01 -1.017911076545715332e+00 6.856705665588378906e+00 1.751638412475585938e+00 -1.602016806602478027e+00
5.980000000000000000e+02 7.335132598876953125e+01 3.236264801025390625e+01 -2.690947353839874268e-01 6.534522056579589844e+00 1.879628300666809082e+00 -5.097677111625671387e-01
5.990000000000000000e+02 6.997060394287109375e+01 3.497091674804687500e+01 2.168607711791992188e-01 4.593460083007812500e+00 1.443096280097961426e+00 -5.851788520812988281e-01
6.000000000000000000e+02 7.092401885986328125e+01 3.799559402465820312e+01 3.469612598419189453e-01 5.048022747039794922e+00 1.618495225906372070e+00 -3.391696512699127197e-01
6.010000000000000000e+02 7.189167022705078125e+01 4.103931427001953125e+01 3.435494005680084229e-01 5.449073791503906250e+00 1.737787008285522461e+00 -8.384726941585540771e-02
6.020000000000000000e+02 6.743881988525390625e+01 4.113805007934570312e+01 6.797233223915100098e-01 3.516403675079345703e+00 1.258838057518005371e+00 -1.005120649933815002e-01
6.030000000000000000e+02 6.741392517089843750e+01 3.831037902832031250e+01 6.176075935363769531e-01 3.450833559036254883e+00 1.220532417297363281e+00 -2.901771664619445801e-01
6.040000000000000000e+02 6.898381805419921875e+01 3.218371963500976562e+01 1.147683784365653992e-01 4.055297374725341797e+00 1.251019716262817383e+00 -9.299028515815734863e-01
6.050000000000000000e+02 6.970435333251953125e+01 2.724483489990234375e+01 -4.144422113895416260e-01 4.629714488983154297e+00 1.264581680297851562e+00 -1.695753574371337891e+00
6.060000000000000000e+02 6.712361907958984375e+01 2.276920318603515625e+01 -9.958944320678710938e-01 5.843051075935363770e-01 -1.234767958521842957e-01 -5.567942857742309570e-01
6.070000000000000000e+02 6.763268280029296875e+01 2.091424369812011719e+01 -1.344133377075195312e+00 3.052847981452941895e-01 -3.116545677185058594e-01 4.679517149925231934e-01
6.080000000000000000e+02 6.695755004882812500e+01 2.091556167602539062e+01 -1.897786140441894531e+00 -5.849498510360717773e-01 -7.448207736015319824e-01 9.185730814933776855e-01
6.090000000000000000e+02 7.344488525390625000e+01 2.109441947937011719e+01 9.435343146324157715e-01 1.891619682312011719e+01 5.957919120788574219e+00 4.864806830883026123e-01
6.100000000000000000e+02 7.416562652587890625e+01 2.023710632324218750e+01 7.296374797821044922e+00 1.572673034667968750e+01 6.906931877136230469e+00 2.557728290557861328e+00
6.110000000000000000e+02 7.432376861572265625e+01 1.963368415832519531e+01 8.849302291870117188e+00 1.424831962585449219e+01 6.929286479949951172e+00 9.585089236497879028e-02
6.120000000000000000e+02 7.384288024902343750e+01 1.840529823303222656e+01 3.734415769577026367e+00 1.791741371154785156e+01 6.495548725128173828e+00 -2.757238149642944336e+00
6.130000000000000000e+02 6.542570495605468750e+01 8.844425201416015625e+00 -2.769428193569183350e-01 4.903599917888641357e-01 6.402514874935150146e-02 9.308691136538982391e-03
6.140000000000000000e+02 6.341979598999023438e+01 6.926272392272949219e+00 -7.054721117019653320e-01 -3.195468783378601074e-01 -3.075056970119476318e-01 -5.235323309898376465e-01
6.150000000000000000e+02 6.443197631835937500e+01 7.868165969848632812e+00 -5.360539555549621582e-01 -4.151936620473861694e-02 -1.732719838619232178e-01 -3.061745166778564453e-01
6.160000000000000000e+02 6.423601531982421875e+01 4.317065238952636719e+00 -3.297179937362670898e-01 7.821195721626281738e-01 1.357204765081405640e-01 6.464501377195119858e-03
6.170000000000000000e+02 6.430253601074218750e+01 6.103091716766357422e+00 -4.970073103904724121e-01 4.538334608078002930e-01 -1.295216009020805359e-02 -1.077463626861572266e-01
6.180000000000000000e+02 6.239627075195312500e+01 6.009109497070312500e+00 -8.216438889503479004e-01 -4.785701632499694824e-01 -3.900642096996307373e-01 -6.373338103294372559e-01
6.190000000000000000e+02 6.135574722290039062e+01 3.397237062454223633e+00 -4.881770908832550049e-01 -2.343956679105758667e-01 -2.167718261480331421e-01 -4.304342865943908691e-01
6.200000000000000000e+02 5.840663528442382812e+01 2.230357408523559570e+00 -8.484368920326232910e-01 -6.599279642105102539e-01 -4.525094330310821533e-01 -6.807382106781005859e-01
6.210000000000000000e+02 5.726390075683593750e+01 1.319575786590576172e+00 -1.064935088157653809e+00 -5.618918538093566895e-01 -4.880480766296386719e-01 -6.272315979003906250e-01
6.220000000000000000e+02 5.680290985107421875e+01 -5.421607494354248047e-01 -8.900240659713745117e-01 -4.152042865753173828e-01 -3.915685117244720459e-01 -2.187015861272811890e-01
6.230000000000000000e+02 5.164716339111328125e+01 -1.025426745414733887e+00 -1.352262139320373535e+00 -2.322167456150054932e-01 -4.753436446189880371e-01 -9.365352801978588104e-03
6.240000000000000000e+02 5.083358764648437500e+01 -9.286618232727050781e-01 -1.418061375617980957e+00 -1.114559248089790344e-01 -4.588551819324493408e-01 -4.218409582972526550e-02
6.250000000000000000e+02 5.009750366210937500e+01 -1.525247395038604736e-01 -1.267667770385742188e+00 3.326566517353057861e-02 -3.703206181526184082e-01 9.585473686456680298e-02
6.260000000000000000e+02 4.789507675170898438e+01 -8.370801210403442383e-01 -1.056272864341735840e+00 2.366121262311935425e-01 -2.458982318639755249e-01 -7.551812380552291870e-02
6.270000000000000000e+02 4.633697509765625000e+01 -5.182258784770965576e-02 -8.546930551528930664e-01 1.317988336086273193e-01 -2.168682664632797241e-01 -1.539412736892700195e-01
6.280000000000000000e+02 4.262290954589843750e+01 3.107871115207672119e-01 -3.326854109764099121e-01 -1.135929003357887268e-01 -1.338834911584854126e-01 -2.612545192241668701e-01
6.290000000000000000e+02 4.215185165405273438e+01 -2.068114995956420898e+00 -1.182015299797058105e+00 -9.473516792058944702e-02 -3.830251395702362061e-01 -6.109294891357421875e-01
6.300000000000000000e+02 4.374891281127929688e+01 -2.707972526550292969e+00 -1.086019515991210938e+00 1.969353705644607544e-01 -2.667252421379089355e-01 -3.702535927295684814e-01
6.310000000000000000e+02 4.439263534545898438e+01 -2.411617279052734375e+00 -1.081785440444946289e+00 2.641910314559936523e-01 -2.452783286571502686e-01 -3.739909231662750244e-01
6.320000000000000000e+02 4.361278915405273438e+01 -3.977999210357666016e+00 -1.126096844673156738e+00 2.610713541507720947e-01 -2.595076262950897217e-01 -2.987278103828430176e-01
6.330000000000000000e+02 4.754562377929687500e+01 -7.263052463531494141e+00 -3.721601963043212891e-01 5.458409786224365234e-01 5.210424587130546570e-02 2.014143019914627075e-02
6.340000000000000000e+02 4.051855468750000000e+01 -2.425465583801269531e+00 -1.443070411682128906e+00 -8.142138719558715820e-01 -6.771852970123291016e-01 -9.212455749511718750e-01
6.350000000000000000e+02 4.008675765991210938e+01 -5.195084571838378906e+00 -1.300976157188415527e+00 -2.924644052982330322e-01 -4.780321717262268066e-01 -3.017631471157073975e-01
6.360000000000000000e+02 3.885764312744140625e+01 -3.681796073913574219e+00 -2.135632038116455078e+00 -6.043997406959533691e-01 -8.220095038414001465e-01 -8.851626515388488770e-01
6.370000000000000000e+02 3.631670761108398438e+01 -4.364062309265136719e+00 -2.110210418701171875e+00 -2.196661233901977539e-01 -6.989629864692687988e-01 -6.114578247070312500e-01
6.380000000000000000e+02 3.545837402343750000e+01 -6.005278587341308594e+00 -1.829391121864318848e+00 -1.998437941074371338e-01 -6.087704896926879883e-01 -3.815269768238067627e-01
6.390000000000000000e+02 3.504270935058593750e+01 -7.704860687255859375e+00 -1.076116681098937988e+00 -2.669600248336791992e-01 -4.029230177402496338e-01 -1.864184588193893433e-01
6.400000000000000000e+02 3.733465194702148438e+01 -1.055367851257324219e+01 -9.386938065290451050e-02 -2.526244223117828369e-01 -1.039481386542320251e-01 -2.015226148068904877e-02
6.410000000000000000e+02 3.953752517700195312e+01 -1.001663208007812500e+01 -1.500559151172637939e-01 -1.698607951402664185e-01 -9.597501903772354126e-02 -3.640891984105110168e-02
6.420000000000000000e+02 2.500469970703125000e+01 -3.019853353500366211e+00 -3.748069405555725098e-01 6.740059703588485718e-02 -9.222190082073211670e-02 5.291213095188140869e-02
6.430000000000000000e+02 2.163289833068847656e+01 -4.243478775024414062e+00 -3.234437108039855957e-01 7.830628752708435059e-02 -7.354123145341873169e-02 -1.792431026697158813e-01
6.440000000000000000e+02 2.169623947143554688e+01 -5.039495944976806641e+00 -3.936913907527923584e-01 1.121475920081138611e-01 -8.446314185857772827e-02 -2.163384407758712769e-01
6.450000000000000000e+02 2.243617820739746094e+01 -1.185637283325195312e+01 -1.340123116970062256e-01 1.232610940933227539e-01 -3.225364722311496735e-03 -2.984161078929901123e-01
6.460000000000000000e+02 2.075127220153808594e+01 -3.456950902938842773e+00 -2.162142544984817505e-01 3.660190850496292114e-02 -5.388370156288146973e-02 -1.626167744398117065e-01
6.470000000000000000e+02 1.815163612365722656e+01 -4.043090820312500000e+00 -9.936533123254776001e-02 1.708381250500679016e-02 -2.468445524573326111e-02 -2.288324385881423950e-01
6.480000000000000000e+02 1.871023368835449219e+01 -5.538527488708496094e+00 -2.535975277423858643e-01 2.523755654692649841e-02 -6.850799173116683960e-02 -3.102777898311614990e-01
6.490000000000000000e+02 1.814847373962402344e+01 -1.043215084075927734e+01 -5.718946456909179688e-01 -3.101688809692859650e-02 -1.808734685182571411e-01 -3.788863718509674072e-01
6.500000000000000000e+02 1.750989341735839844e+01 -3.196557998657226562e+00 2.014871872961521149e-02 1.911707036197185516e-02 1.177973672747612000e-02 -1.718709915876388550e-01
6.510000000000000000e+02 1.596781826019287109e+01 -2.959375381469726562e+00 1.256059557199478149e-01 3.685472765937447548e-03 3.878742828965187073e-02 -1.324497610330581665e-01
6.520000000000000000e+02 1.642822074890136719e+01 -6.101005554199218750e+00 -1.977803558111190796e-01 -1.017495617270469666e-01 -8.985897153615951538e-02 -2.774338722229003906e-01
6.530000000000000000e+02 1.553310585021972656e+01 -6.664773464202880859e+00 -1.740348041057586670e-01 -1.651477366685867310e-01 -1.017547622323036194e-01 -2.558794021606445312e-01
6.540000000000000000e+02 8.650751113891601562e+00 -2.595927953720092773e+00 1.620043218135833740e-01 -3.810177370905876160e-02 3.717076405882835388e-02 6.436619162559509277e-02
6.550000000000000000e+02 4.917747497558593750e+00 -1.856640934944152832e+00 1.009015366435050964e-01 1.787353889085352421e-03 3.080666624009609222e-02 7.399903237819671631e-02
6.560000000000000000e+02 3.467705011367797852e+00 -2.721603155136108398e+00 4.902458935976028442e-02 2.418375387787818909e-02 2.196250297129154205e-02 8.350834995508193970e-02
6.570000000000000000e+02 4.901050567626953125e+00 -2.566810846328735352e+00 8.093779534101486206e-02 6.185813341289758682e-03 2.613708190619945526e-02 9.132689237594604492e-02
6.580000000000000000e+02 4.180246829986572266e+00 -2.622411012649536133e+00 6.409793347120285034e-02 1.307519059628248215e-02 2.315193600952625275e-02 8.734142780303955078e-02
6.590000000000000000e+02 6.296218037605285645e-01 -1.914002227783203125e+01 -1.725885522319003940e-04 -1.154392436146736145e-01 -3.468355163931846619e-02 -6.588562577962875366e-02
6.600000000000000000e+02 1.902235150337219238e+00 -2.046082687377929688e+01 2.813484054058790207e-03 -2.587943077087402344e-01 -7.679424434900283813e-02 -1.841801404953002930e-01
6.610000000000000000e+02 4.639201641082763672e+00 -2.418559837341308594e+01 1.003508120775222778e-01 -4.173886775970458984e-01 -9.511135518550872803e-02 -2.551317214965820312e-01
6.620000000000000000e+02 9.354989051818847656e+00 -2.696363449096679688e+01 2.382503300905227661e-01 -1.838808059692382812e-01 1.631085388362407684e-02 -1.874005347490310669e-01
6.630000000000000000e+02 1.430055618286132812e+01 -2.684148788452148438e+01 3.762180805206298828e-01 2.606131136417388916e-01 1.910493671894073486e-01 -3.075862228870391846e-01
6.640000000000000000e+02 1.137873935699462891e+01 -2.653714370727539062e+01 3.095632791519165039e-01 -1.516461372375488281e-03 9.241404384374618530e-02 -2.086006402969360352e-01
6.650000000000000000e+02 6.424286961555480957e-01 -2.195035934448242188e+01 1.336907385848462582e-03 -4.052478969097137451e-01 -1.211732923984527588e-01 -6.309290975332260132e-02
6.660000000000000000e+02 1.975949168205261230e+00 -2.320892524719238281e+01 1.755333691835403442e-02 -4.587374329566955566e-01 -1.323552280664443970e-01 -1.593760550022125244e-01
6.670000000000000000e+02 7.308584213256835938e+00 -2.925338554382324219e+01 1.398519277572631836e-01 -3.268196880817413330e-01 -5.609032511711120605e-02 -1.209433153271675110e-01
6.680000000000000000e+02 8.308655738830566406e+00 -2.812985801696777344e+01 1.945231705904006958e-01 -2.539175450801849365e-01 -1.781831867992877960e-02 -1.573806256055831909e-01
6.690000000000000000e+02 7.528120279312133789e-01 -2.757879066467285156e+01 2.199176931753754616e-03 -7.874300479888916016e-01 -2.355692535638809204e-01 -2.774163149297237396e-02
6.700000000000000000e+02 2.380507707595825195e+00 -2.879260826110839844e+01 1.766843721270561218e-02 -6.772157549858093262e-01 -1.978641897439956665e-01 -6.596279144287109375e-02
6.710000000000000000e+02 5.211790561676025391e+00 -2.810135650634765625e+01 9.517926722764968872e-02 -4.642674326896667480e-01 -1.107264459133148193e-01 -1.410454660654067993e-01
6.720000000000000000e+02 7.407526373863220215e-01 -3.610207366943359375e+01 4.452588502317667007e-03 -8.827103972434997559e-01 -2.634773254394531250e-01 7.470725569874048233e-03
6.730000000000000000e+02 7.583988904953002930e-01 -3.744457626342773438e+01 1.887793419882655144e-03 -8.617148995399475098e-01 -2.579481303691864014e-01 1.356947794556617737e-02
6.740000000000000000e+02 4.825417041778564453e+00 -4.033870697021484375e+01 -1.086483150720596313e-02 -5.815430879592895508e-01 -1.777223795652389526e-01 -1.950735971331596375e-02
6.750000000000000000e+02 1.983134388923645020e+00 -4.164395904541015625e+01 -3.766636922955513000e-02 -7.903831005096435547e-01 -2.484148442745208740e-01 1.067500002682209015e-02
6.760000000000000000e+02 1.239581704139709473e+00 -4.011259078979492188e+01 2.171797119081020355e-02 -8.066852092742919922e-01 -2.354901731014251709e-01 3.036819398403167725e-02
6.770000000000000000e+02 1.926885795593261719e+01 -3.973128128051757812e+01 8.336471766233444214e-02 1.720523983240127563e-01 7.662513107061386108e-02 -4.579986259341239929e-02
6.780000000000000000e+02 2.059515380859375000e+01 -3.720219421386718750e+01 1.505694538354873657e-01 1.796984970569610596e-01 9.908038377761840820e-02 -1.017734408378601074e-01
6.790000000000000000e+02 2.063919258117675781e+01 -3.376146316528320312e+01 2.746786475181579590e-01 2.101757973432540894e-01 1.454563289880752563e-01 -1.695513427257537842e-01
6.800000000000000000e+02 4.379473495483398438e+01 -3.351759338378906250e+01 2.370955497026443481e-01 3.551173806190490723e-01 1.776638776063919067e-01 -3.964160382747650146e-02
6.810000000000000000e+02 4.227073287963867188e+01 -3.191178703308105469e+01 1.902110874652862549e-01 2.561697959899902344e-01 1.339142769575119019e-01 5.041694268584251404e-02
6.820000000000000000e+02 4.474407196044921875e+01 -2.832322311401367188e+01 1.652652025222778320e-01 6.997981667518615723e-01 2.595190107822418213e-01 -9.510719776153564453e-02
6.830000000000000000e+02 4.714995574951171875e+01 -4.092313766479492188e+01 4.811664521694183350e-01 2.680249214172363281e-01 2.247574180364608765e-01 -2.951215766370296478e-02
6.840000000000000000e+02 4.648178100585937500e+01 -3.768442535400390625e+01 4.147676825523376465e-01 3.083233535289764404e-01 2.169273048639297485e-01 -1.050539165735244751e-01
6.850000000000000000e+02 4.656814575195312500e+01 -3.439929199218750000e+01 2.636740505695343018e-01 4.255357682704925537e-01 2.067629396915435791e-01 -1.515639275312423706e-01
6.860000000000000000e+02 4.726300811767578125e+01 -3.187633323669433594e+01 1.686155050992965698e-01 6.037858128547668457e-01 2.317204028367996216e-01 -2.157144993543624878e-01
6.870000000000000000e+02 5.165773010253906250e+01 -4.067381668090820312e+01 6.564005017280578613e-01 4.001082181930541992e-01 3.169526159763336182e-01 -7.570719718933105469e-02
6.880000000000000000e+02 5.028030776977539062e+01 -3.735592269897460938e+01 4.846660196781158447e-01 3.928069174289703369e-01 2.632418870925903320e-01 -2.061954140663146973e-01
6.890000000000000000e+02 4.961870956420898438e+01 -3.464927673339843750e+01 3.471041321754455566e-01 4.492366015911102295e-01 2.389022111892700195e-01 -2.951079308986663818e-01
6.900000000000000000e+02 7.186830902099609375e+01 -4.119766235351562500e+01 1.145164519548416138e-01 5.087882518768310547e+00 1.560719609260559082e+00 4.093831777572631836e-02
6.910000000000000000e+02 7.098421478271484375e+01 -3.863167953491210938e+01 1.142267882823944092e-01 4.844145298004150391e+00 1.487511634826660156e+00 1.466240435838699341e-01
6.920000000000000000e+02 7.109878540039062500e+01 -3.388345336914062500e+01 -7.990609854459762573e-02 5.012450218200683594e+00 1.479763269424438477e+00 2.930396497249603271e-01
6.930000000000000000e+02 7.503177642822265625e+01 -4.045323944091796875e+01 5.824375152587890625e-02 6.081220149993896484e+00 1.841839194297790527e+00 -5.680862441658973694e-02
6.940000000000000000e+02 7.373625183105468750e+01 -3.834936904907226562e+01 2.453529462218284607e-02 5.583713054656982422e+00 1.682474493980407715e+00 5.080470070242881775e-02
6.950000000000000000e+02 7.797675323486328125e+01 -4.165835952758789062e+01 1.286794990301132202e-01 6.848778724670410156e+00 2.093237400054931641e+00 3.597941622138023376e-02
6.960000000000000000e+02 7.908282470703125000e+01 -3.737863540649414062e+01 -9.946051985025405884e-03 7.092326641082763672e+00 2.124714136123657227e+00 5.125356838107109070e-02
6.970000000000000000e+02 7.715177917480468750e+01 -3.817716979980468750e+01 -5.968816205859184265e-02 6.704120159149169922e+00 1.993329524993896484e+00 1.340926438570022583e-01
6.980000000000000000e+02 7.932514190673828125e+01 -2.910668754577636719e+01 -3.784798085689544678e-03 7.039326667785644531e+00 2.110662460327148438e+00 -5.823832005262374878e-02
6.990000000000000000e+02 7.807720184326171875e+01 -2.740404319763183594e+01 -4.843488801270723343e-03 6.753959655761718750e+00 2.024734735488891602e+00 -1.653949022293090820e-01
7.000000000000000000e+02 7.578235626220703125e+01 -2.641072654724121094e+01 3.793084062635898590e-03 6.565444946289062500e+00 1.970771431922912598e+00 -2.061928063631057739e-01
7.010000000000000000e+02 6.831358337402343750e+01 -1.986738967895507812e+01 9.034985303878784180e-01 1.109836673736572266e+01 3.600559711456298828e+00 1.358486413955688477e+00
7.020000000000000000e+02 7.941664123535156250e+01 -1.515541458129882812e+01 1.531791524030268192e-03 7.550565719604492188e+00 2.265629291534423828e+00 1.742369383573532104e-01
7.030000000000000000e+02 7.826876068115234375e+01 -1.481932163238525391e+01 1.065928116440773010e-02 7.543096065521240234e+00 2.266126632690429688e+00 4.851469397544860840e-01
7.040000000000000000e+02 7.430863189697265625e+01 -9.621043205261230469e+00 -3.698023259639739990e-01 7.170665740966796875e+00 2.040259122848510742e+00 6.426524519920349121e-01
7.050000000000000000e+02 7.081487274169921875e+01 -8.723824501037597656e+00 -6.088019609451293945e-01 5.529807090759277344e+00 1.476301550865173340e+00 2.178610861301422119e-01
7.060000000000000000e+02 6.914492034912109375e+01 -2.792097568511962891e+00 -1.055614873766899109e-01 4.029664039611816406e+00 1.177230834960937500e+00 1.757044792175292969e-01
7.070000000000000000e+02 6.396239089965820312e+01 7.334295511245727539e-01 -6.102975085377693176e-02 1.067286610603332520e+00 3.018770813941955566e-01 1.116137802600860596e-01
7.080000000000000000e+02 6.557486724853515625e+01 -1.175475835800170898e+00 1.775168627500534058e-02 1.936644315719604492e+00 5.863187909126281738e-01 1.896656453609466553e-01
7.090000000000000000e+02 7.941091156005859375e+01 -1.240767097473144531e+01 -2.590101212263107300e-03 8.408977508544921875e+00 2.521916151046752930e+00 1.659387946128845215e-01
7.100000000000000000e+02 7.822874450683593750e+01 -1.079236507415771484e+01 -4.798403009772300720e-02 8.409556388854980469e+00 2.508471727371215820e+00 4.111148715019226074e-01
7.110000000000000000e+02 7.596299743652343750e+01 -9.109075546264648438e+00 -2.276833802461624146e-01 7.781120777130126953e+00 2.266031265258789062e+00 5.517287254333496094e-01
7.120000000000000000e+02 7.117910766601562500e+01 -3.302431106567382812e+00 -1.724580675363540649e-01 5.247117519378662109e+00 1.522397875785827637e+00 2.151410877704620361e-01
7.130000000000000000e+02 6.771331024169921875e+01 6.330952048301696777e-01 -1.005150899291038513e-01 3.113800525665283203e+00 9.039856195449829102e-01 2.543431520462036133e-01
7.140000000000000000e+02 6.698529815673828125e+01 1.630239725112915039e+00 -1.213935017585754395e-01 2.701310634613037109e+00 7.739751338958740234e-01 2.710546553134918213e-01
7.150000000000000000e+02 7.940592956542968750e+01 -9.635504722595214844e+00 -6.535791326314210892e-03 9.142442703247070312e+00 2.740772247314453125e+00 1.169919297099113464e-01
7.160000000000000000e+02 7.816174316406250000e+01 -6.671209335327148438e+00 -4.690244793891906738e-02 8.990131378173828125e+00 2.682968854904174805e+00 2.222631722688674927e-01
7.170000000000000000e+02 7.450399780273437500e+01 -1.623489022254943848e+00 -1.026559621095657349e-01 7.212677001953125000e+00 2.133006334304809570e+00 2.171310633420944214e-01
7.180000000000000000e+02 7.220386505126953125e+01 1.386702537536621094e+00 -1.432768106460571289e-01 5.892297267913818359e+00 1.724706053733825684e+00 2.083226144313812256e-01
7.190000000000000000e+02 7.107839965820312500e+01 8.622595667839050293e-01 -1.450954079627990723e-01 5.175690174102783203e+00 1.509178519248962402e+00 2.713132202625274658e-01
7.200000000000000000e+02 7.938174438476562500e+01 -5.474877357482910156e+00 -1.113157533109188080e-02 9.813523292541503906e+00 2.940717458724975586e+00 4.881040751934051514e-02
7.210000000000000000e+02 7.812403106689453125e+01 -3.902693033218383789e+00 -3.132447227835655212e-02 9.213695526123046875e+00 2.754711389541625977e+00 1.287974417209625244e-01
7.220000000000000000e+02 7.579402160644531250e+01 -7.641919255256652832e-01 -6.574136018753051758e-02 7.974391460418701172e+00 2.372595071792602539e+00 1.751569360494613647e-01
7.230000000000000000e+02 7.477590942382812500e+01 -5.867488980293273926e-01 -8.404871821403503418e-02 7.429556846618652344e+00 2.203652381896972656e+00 1.702962815761566162e-01
7.240000000000000000e+02 7.937593078613281250e+01 -2.694968700408935547e+00 -9.137400425970554352e-03 1.006508541107177734e+01 3.016784429550170898e+00 1.910563372075557709e-02
7.250000000000000000e+02 7.815687561035156250e+01 2.922500073909759521e-01 -1.950894296169281006e-02 9.454161643981933594e+00 2.830395936965942383e+00 4.604686051607131958e-02
7.260000000000000000e+02 7.948110961914062500e+01 1.122818660736083984e+01 -2.768330462276935577e-02 9.093663215637207031e+00 2.719794034957885742e+00 -3.110469281673431396e-01
7.270000000000000000e+02 7.848511505126953125e+01 1.270494270324707031e+01 -2.162899821996688843e-01 8.237630844116210938e+00 2.406402111053466797e+00 -1.053424477577209473e+00
7.280000000000000000e+02 7.638268280029296875e+01 1.167042446136474609e+01 -7.320557832717895508e-01 8.785785675048828125e+00 2.416118860244750977e+00 -1.057886838912963867e+00
7.290000000000000000e+02 7.949152374267578125e+01 1.536419200897216797e+01 3.422368317842483521e-03 5.376945495605468750e+00 1.614110469818115234e+00 -6.613306403160095215e-01
7.300000000000000000e+02 7.951315307617187500e+01 1.675704956054687500e+01 2.358901314437389374e-02 3.670457839965820312e+00 1.108214020729064941e+00 -6.344723701477050781e-01
7.310000000000000000e+02 7.747456359863281250e+01 1.530767154693603516e+01 -2.798601388931274414e-01 8.038200378417968750e+00 2.327502250671386719e+00 -2.151429653167724609e+00
7.320000000000000000e+02 7.782379913330078125e+01 1.939507675170898438e+01 1.396774053573608398e+00 5.854201316833496094e+00 2.175292491912841797e+00 -1.837762892246246338e-01
7.330000000000000000e+02 7.816782379150390625e+01 2.384611892700195312e+01 -2.278665006160736084e-01 6.935733795166015625e+00 2.012360334396362305e+00 1.687059283256530762e+00
7.340000000000000000e+02 7.800650787353515625e+01 2.676687622070312500e+01 -4.037813246250152588e-01 7.996293067932128906e+00 2.277753591537475586e+00 8.894044756889343262e-01
7.350000000000000000e+02 7.937349700927734375e+01 3.066885757446289062e+01 -2.372118644416332245e-02 8.856886863708496094e+00 2.649949550628662109e+00 5.619250610470771790e-02
7.360000000000000000e+02 7.792084503173828125e+01 3.331605529785156250e+01 -3.480397164821624756e-02 8.260470390319824219e+00 2.467699766159057617e+00 -9.367826581001281738e-02
7.370000000000000000e+02 7.724319458007812500e+01 3.668703460693359375e+01 -2.532674558460712433e-02 8.027511596679687500e+00 2.400655508041381836e+00 -1.609013676643371582e-01
7.380000000000000000e+02 7.889495849609375000e+01 3.883245849609375000e+01 8.106838911771774292e-02 8.157929420471191406e+00 2.471699237823486328e+00 -9.061712771654129028e-02
7.390000000000000000e+02 7.800685119628906250e+01 4.164422225952148438e+01 1.868827342987060547e-01 7.896027088165283203e+00 2.424872875213623047e+00 -5.253423750400543213e-02
7.400000000000000000e+02 7.514210510253906250e+01 4.024540328979492188e+01 1.911529749631881714e-01 6.871477603912353516e+00 2.118789196014404297e+00 -1.822196505963802338e-02
7.410000000000000000e+02 7.394898986816406250e+01 3.520895385742187500e+01 2.610242366790771484e-02 6.415844917297363281e+00 1.932584166526794434e+00 -3.636030852794647217e-01
7.420000000000000000e+02 7.468904113769531250e+01 3.322093200683593750e+01 -1.797492504119873047e-01 6.902479648590087891e+00 2.016819000244140625e+00 -3.514858782291412354e-01
7.430000000000000000e+02 7.583036804199218750e+01 3.106201934814453125e+01 -3.299408257007598877e-01 7.604325771331787109e+00 2.182315349578857422e+00 -1.311391592025756836e-01
7.440000000000000000e+02 7.491094970703125000e+01 2.765849876403808594e+01 -1.034605741500854492e+00 8.308338165283203125e+00 2.182119607925415039e+00 7.502458244562149048e-02
7.450000000000000000e+02 7.269869232177734375e+01 2.250716590881347656e+01 -1.114512920379638672e+00 1.260852813720703125e+01 3.448204755783081055e+00 -2.799748182296752930e+00
7.460000000000000000e+02 7.363747406005859375e+01 2.098269081115722656e+01 1.885869503021240234e+00 1.857482910156250000e+01 6.138209342956542969e+00 1.597798109054565430e+00
7.470000000000000000e+02 6.272503280639648438e+01 4.093538284301757812e+01 9.422713518142700195e-01 1.723761081695556641e+00 7.998096942901611328e-01 -4.621913284063339233e-02
7.480000000000000000e+02 6.371042251586914062e+01 3.794762802124023438e+01 8.632566332817077637e-01 1.967107295989990234e+00 8.491091728210449219e-01 -2.075165510177612305e-01
7.490000000000000000e+02 6.480844116210937500e+01 3.544235610961914062e+01 7.051383256912231445e-01 2.252952337265014648e+00 8.874272108078002930e-01 -4.304682016372680664e-01
7.500000000000000000e+02 6.320529174804687500e+01 2.979893112182617188e+01 3.333311378955841064e-01 1.046239614486694336e+00 4.138712286949157715e-01 -4.152470529079437256e-01
7.510000000000000000e+02 6.516918945312500000e+01 2.768237495422363281e+01 1.204201672226190567e-02 1.237051963806152344e+00 3.747282028198242188e-01 -8.524806499481201172e-01
7.520000000000000000e+02 6.363763809204101562e+01 2.227917098999023438e+01 -3.353266000747680664e+00 -2.802894115447998047e-01 -1.090066552162170410e+00 7.696753144264221191e-01
7.530000000000000000e+02 5.788008880615234375e+01 4.088080215454101562e+01 9.918622374534606934e-01 6.581230759620666504e-01 4.949955940246582031e-01 4.768020939081907272e-03
7.540000000000000000e+02 6.108318710327148438e+01 3.625912475585937500e+01 8.568626046180725098e-01 1.119889020919799805e+00 5.930255055427551270e-01 -6.916316598653793335e-02
7.550000000000000000e+02 5.989915847778320312e+01 3.376027679443359375e+01 7.068282365798950195e-01 6.045176982879638672e-01 3.934037983417510986e-01 3.017541021108627319e-02
7.560000000000000000e+02 6.212286758422851562e+01 3.258084869384765625e+01 6.313049793243408203e-01 1.107995271682739258e+00 5.217900872230529785e-01 -1.885239481925964355e-01
7.570000000000000000e+02 6.089580535888671875e+01 2.666268730163574219e+01 -6.373018622398376465e-01 -8.095230907201766968e-02 -2.154762595891952515e-01 1.994517445564270020e-01
7.580000000000000000e+02 5.899377059936523438e+01 2.254147148132324219e+01 -2.939915895462036133e+00 -1.160556524991989136e-01 -9.167914390563964844e-01 -1.582381427288055420e-01
7.590000000000000000e+02 5.957432174682617188e+01 2.346611404418945312e+01 -2.567701339721679688e+00 -2.635403275489807129e-01 -8.493725061416625977e-01 1.487806588411331177e-01
7.600000000000000000e+02 5.780485153198242188e+01 3.770808792114257812e+01 8.979741930961608887e-01 5.657362937927246094e-01 4.391131699085235596e-01 6.649228930473327637e-02
7.610000000000000000e+02 5.705908966064453125e+01 3.478134536743164062e+01 7.011380791664123535e-01 3.109476864337921143e-01 3.036257326602935791e-01 1.704228222370147705e-01
7.620000000000000000e+02 5.587488555908203125e+01 2.818354225158691406e+01 -3.102976381778717041e-01 -9.173367917537689209e-02 -1.206093952059745789e-01 4.549514949321746826e-01
7.630000000000000000e+02 5.773274612426757812e+01 2.229533767700195312e+01 -2.342058897018432617e+00 -4.961809888482093811e-02 -7.175030708312988281e-01 -2.953098416328430176e-01
7.640000000000000000e+02 5.338210678100585938e+01 4.103364944458007812e+01 8.432441949844360352e-01 5.977914109826087952e-02 2.709070146083831787e-01 7.134726643562316895e-02
7.650000000000000000e+02 5.406220626831054688e+01 3.824823379516601562e+01 8.188062906265258789e-01 1.351582109928131104e-01 2.861893475055694580e-01 1.963468194007873535e-01
7.660000000000000000e+02 5.368532943725585938e+01 3.549229431152343750e+01 6.618438363075256348e-01 7.544369250535964966e-02 2.211862653493881226e-01 2.936052083969116211e-01
7.670000000000000000e+02 5.347414398193359375e+01 3.260764694213867188e+01 3.276526331901550293e-01 2.770337974652647972e-03 9.912689030170440674e-02 4.070611596107482910e-01
7.680000000000000000e+02 5.225044631958007812e+01 2.229935836791992188e+01 -9.659659266471862793e-01 -5.479666870087385178e-03 -2.914336621761322021e-01 1.536424458026885986e-02
7.690000000000000000e+02 5.387902450561523438e+01 2.290312385559082031e+01 -1.244423627853393555e+00 -1.098903864622116089e-01 -4.062942266464233398e-01 2.238016016781330109e-02
7.700000000000000000e+02 5.084373855590820312e+01 3.945397949218750000e+01 7.190930843353271484e-01 -8.430760353803634644e-02 1.904356479644775391e-01 1.279287785291671753e-01
7.710000000000000000e+02 5.016949462890625000e+01 3.629305267333984375e+01 5.368649363517761230e-01 -9.323357045650482178e-02 1.330894231796264648e-01 2.844734489917755127e-01
7.720000000000000000e+02 4.987910079956054688e+01 3.317123794555664062e+01 3.074173033237457275e-01 -6.098750978708267212e-02 7.392893731594085693e-02 3.949029445648193359e-01
7.730000000000000000e+02 4.931599044799804688e+01 3.040183448791503906e+01 2.205245196819305420e-02 -1.760648563504219055e-02 1.333789783529937267e-03 4.456658065319061279e-01
7.740000000000000000e+02 4.865427398681640625e+01 2.585449600219726562e+01 -4.406276643276214600e-01 8.629944920539855957e-02 -1.062984615564346313e-01 3.282273411750793457e-01
7.750000000000000000e+02 4.909008407592773438e+01 2.198286437988281250e+01 -6.199398040771484375e-01 1.172624304890632629e-01 -1.508032083511352539e-01 5.527441948652267456e-02
7.760000000000000000e+02 4.708138275146484375e+01 4.065053939819335938e+01 5.733084082603454590e-01 -1.621168255805969238e-01 1.233574673533439636e-01 7.424489408731460571e-02
7.770000000000000000e+02 4.646129608154296875e+01 3.713593673706054688e+01 4.406075477600097656e-01 -1.506987810134887695e-01 8.697263151407241821e-02 2.195174396038055420e-01
7.780000000000000000e+02 4.612647628784179688e+01 3.396501159667968750e+01 2.549022734165191650e-01 -1.059186682105064392e-01 4.469507560133934021e-02 3.062251806259155273e-01
7.790000000000000000e+02 4.587767410278320312e+01 3.110220718383789062e+01 7.610194385051727295e-02 -4.332757368683815002e-02 9.832310490310192108e-03 3.509630560874938965e-01
7.800000000000000000e+02 4.580941772460937500e+01 2.835572052001953125e+01 -1.510945856571197510e-01 3.590136766433715820e-02 -3.455796465277671814e-02 3.459472358226776123e-01
7.810000000000000000e+02 4.698104095458984375e+01 2.384775161743164062e+01 -4.623442888259887695e-01 1.307567059993743896e-01 -9.947627037763595581e-02 1.798619329929351807e-01
7.820000000000000000e+02 4.811278152465820312e+01 1.923263168334960938e+01 -3.707547187805175781e-01 5.076235905289649963e-02 -9.599770605564117432e-02 -1.040895655751228333e-01
7.830000000000000000e+02 4.854571914672851562e+01 1.733294296264648438e+01 -1.632355153560638428e-01 -1.797943934798240662e-02 -5.436448752880096436e-02 -9.620661288499832153e-02
7.840000000000000000e+02 4.791042709350585938e+01 1.373480606079101562e+01 -2.088795974850654602e-02 -1.032451167702674866e-02 -9.363740682601928711e-03 -1.321227103471755981e-02
7.850000000000000000e+02 4.741809082031250000e+01 3.854987382888793945e+00 -6.659580685663968325e-05 -2.088264445774257183e-04 -8.262667688541114330e-05 -8.918347157305106521e-05
7.860000000000000000e+02 4.513871765136718750e+01 4.014146327972412109e+00 7.874078000895678997e-04 1.350701204501092434e-04 2.767433761619031429e-04 1.295806141570210457e-04
7.870000000000000000e+02 4.827019500732421875e+01 3.892085313796997070e+00 8.208194631151854992e-04 -4.820558024221099913e-05 2.317841717740520835e-04 2.314350422238931060e-05
7.880000000000000000e+02 4.246764373779296875e+01 4.090304565429687500e+01 3.894124031066894531e-01 -1.952374428510665894e-01 5.825249105691909790e-02 4.763986915349960327e-02
7.890000000000000000e+02 4.235861968994140625e+01 3.766141891479492188e+01 3.349044322967529297e-01 -1.687478572130203247e-01 4.984696581959724426e-02 1.520555168390274048e-01
7.900000000000000000e+02 4.221811294555664062e+01 3.445840835571289062e+01 2.094782292842864990e-01 -1.186314970254898071e-01 2.725401893258094788e-02 2.242604494094848633e-01
7.910000000000000000e+02 4.216918563842773438e+01 3.140385627746582031e+01 6.009338423609733582e-02 -6.008825078606605530e-02 1.540213247608335223e-06 2.614171802997589111e-01
7.920000000000000000e+02 4.238721084594726562e+01 2.615935516357421875e+01 -2.053370773792266846e-01 6.021093949675559998e-02 -4.353784397244453430e-02 2.195977568626403809e-01
7.930000000000000000e+02 4.246002960205078125e+01 2.277634429931640625e+01 -2.760101258754730225e-01 8.697039633989334106e-02 -5.671191588044166565e-02 1.179535463452339172e-01
7.940000000000000000e+02 4.466349029541015625e+01 1.847313117980957031e+01 -2.600314319133758545e-01 6.260530650615692139e-02 -5.922783538699150085e-02 -1.648443564772605896e-02
7.950000000000000000e+02 4.339275360107421875e+01 1.742521667480468750e+01 -1.974844932556152344e-01 4.620328173041343689e-02 -4.538436606526374817e-02 -5.033306777477264404e-03
7.960000000000000000e+02 4.207656860351562500e+01 1.332970809936523438e+01 -5.338611826300621033e-02 5.451359786093235016e-03 -1.438042707741260529e-02 7.403588853776454926e-03
7.970000000000000000e+02 4.199499893188476562e+01 8.979388236999511719e+00 4.487008787691593170e-03 1.070302817970514297e-02 4.557011183351278305e-03 -6.866609212011098862e-03
7.980000000000000000e+02 4.248344421386718750e+01 6.195944786071777344e+00 8.143811719492077827e-04 6.991583504714071751e-04 4.540618683677166700e-04 -7.160842069424688816e-04
7.990000000000000000e+02 4.355316925048828125e+01 4.188145637512207031e+00 5.639377632178366184e-04 -1.142637920565903187e-04 1.349022059002891183e-04 3.557785821612924337e-04
8.000000000000000000e+02 3.777643966674804688e+01 4.101922988891601562e+01 2.606939971446990967e-01 -1.785953491926193237e-01 2.462959475815296173e-02 3.091272898018360138e-02
8.010000000000000000e+02 3.809968566894531250e+01 3.796185684204101562e+01 2.314998358488082886e-01 -1.640603095293045044e-01 2.023185789585113525e-02 9.755913168191909790e-02
8.020000000000000000e+02 3.809975814819335938e+01 3.483259582519531250e+01 1.658863276243209839e-01 -1.317802667617797852e-01 1.023181993514299393e-02 1.570449918508529663e-01
8.030000000000000000e+02 3.800923919677734375e+01 3.173389625549316406e+01 5.793781951069831848e-02 -8.035995066165924072e-02 -6.726639345288276672e-03 1.797079592943191528e-01
8.040000000000000000e+02 3.894778442382812500e+01 2.575919342041015625e+01 -1.368187516927719116e-01 1.114661991596221924e-02 -3.770164027810096741e-02 1.587588191032409668e-01
8.050000000000000000e+02 3.926800918579101562e+01 2.265201568603515625e+01 -2.075760513544082642e-01 4.423623532056808472e-02 -4.900194704532623291e-02 1.029082387685775757e-01
8.060000000000000000e+02 3.994033432006835938e+01 1.885942077636718750e+01 -2.118457555770874023e-01 5.122095718979835510e-02 -4.818743839859962463e-02 5.570671707391738892e-02
8.070000000000000000e+02 3.986563110351562500e+01 1.685429382324218750e+01 -1.575137823820114136e-01 2.997215650975704193e-02 -3.826248645782470703e-02 3.843060508370399475e-02
8.080000000000000000e+02 3.555875015258789062e+01 1.687693977355957031e+01 -1.415374726057052612e-01 -5.619474872946739197e-02 -5.931966751813888550e-02 9.057042747735977173e-02
8.090000000000000000e+02 3.982494354248046875e+01 1.286863231658935547e+01 -2.130214497447013855e-02 6.618976593017578125e-03 -4.404950421303510666e-03 6.903462111949920654e-03
8.100000000000000000e+02 3.876363372802734375e+01 1.394531726837158203e+01 -4.746985062956809998e-02 -7.472946774214506149e-03 -1.648283936083316803e-02 2.365584298968315125e-02
8.110000000000000000e+02 3.978306198120117188e+01 1.489106178283691406e+01 -9.342772513628005981e-02 1.352682523429393768e-02 -2.397026866674423218e-02 2.918724156916141510e-02
8.120000000000000000e+02 4.142214584350585938e+01 1.030839061737060547e+01 5.855260416865348816e-03 1.392757706344127655e-02 5.934851244091987610e-03 -8.984629996120929718e-03
8.130000000000000000e+02 3.782648849487304688e+01 2.904816627502441406e+01 -3.082175552845001221e-02 -4.354816675186157227e-02 -2.231097780168056488e-02 1.701638698577880859e-01
8.140000000000000000e+02 3.706010055541992188e+01 2.711743354797363281e+01 -9.247564524412155151e-02 -2.225517854094505310e-02 -3.441924601793289185e-02 1.496533602476119995e-01
8.150000000000000000e+02 3.460197830200195312e+01 2.448488426208496094e+01 -1.144093573093414307e-01 -3.808087855577468872e-02 -4.574707150459289551e-02 1.064154952764511108e-01
8.160000000000000000e+02 3.769686508178710938e+01 1.904132843017578125e+01 -1.920815408229827881e-01 1.764694415032863617e-02 -5.233037844300270081e-02 6.838537007570266724e-02
8.170000000000000000e+02 3.442131805419921875e+01 1.777038574218750000e+01 -1.746371984481811523e-01 -7.005941867828369141e-02 -7.340898364782333374e-02 1.088075414299964905e-01
8.180000000000000000e+02 3.665826034545898438e+01 1.593299674987792969e+01 -1.080725044012069702e-01 -4.037047922611236572e-02 -4.453289508819580078e-02 6.723839789628982544e-02
8.190000000000000000e+02 3.770654296875000000e+01 1.694889831542968750e+01 -1.488425135612487793e-01 -6.078709266148507595e-04 -4.483511671423912048e-02 5.947678163647651672e-02
8.200000000000000000e+02 3.339895629882812500e+01 4.104635238647460938e+01 1.744564771652221680e-01 -1.556695103645324707e-01 5.636087618768215179e-03 2.089045941829681396e-02
8.210000000000000000e+02 3.420670318603515625e+01 3.823891067504882812e+01 1.711735874414443970e-01 -1.512376517057418823e-01 5.980781745165586472e-03 7.197029143571853638e-02
8.220000000000000000e+02 3.398114395141601562e+01 3.540127944946289062e+01 1.254156976938247681e-01 -1.314015686511993408e-01 -1.795758842490613461e-03 9.991366416215896606e-02
8.230000000000000000e+02 3.365377807617187500e+01 3.246354293823242188e+01 6.509368866682052612e-02 -1.057900413870811462e-01 -1.220890507102012634e-02 1.190789341926574707e-01
8.240000000000000000e+02 3.541847229003906250e+01 2.855156707763671875e+01 -1.850264519453048706e-02 -5.920338630676269531e-02 -2.331180870532989502e-02 1.483128219842910767e-01
8.250000000000000000e+02 3.384690475463867188e+01 2.281095886230468750e+01 -1.516831219196319580e-01 -3.742060065269470215e-02 -5.673111975193023682e-02 8.910031616687774658e-02
8.260000000000000000e+02 3.200886154174804688e+01 1.937101173400878906e+01 -2.395347803831100464e-01 -7.640966773033142090e-02 -9.478333592414855957e-02 1.273526251316070557e-01
8.270000000000000000e+02 3.292189025878906250e+01 2.047363090515136719e+01 -2.012739479541778564e-01 -5.520471930503845215e-02 -7.694359868764877319e-02 9.252663701772689819e-02
8.280000000000000000e+02 3.324023818969726562e+01 1.860367393493652344e+01 -2.088649570941925049e-01 -7.709675282239913940e-02 -8.578851073980331421e-02 1.225559860467910767e-01
8.290000000000000000e+02 3.087622833251953125e+01 3.946055221557617188e+01 1.313007920980453491e-01 -1.400141119956970215e-01 -2.613996388390660286e-03 3.440709784626960754e-02
8.300000000000000000e+02 3.014310836791992188e+01 3.634174346923828125e+01 9.663518518209457397e-02 -1.234528645873069763e-01 -8.045304566621780396e-03 6.596894562244415283e-02
8.310000000000000000e+02 2.963058280944824219e+01 3.339035797119140625e+01 5.994970723986625671e-02 -1.089943498373031616e-01 -1.471339166164398193e-02 8.491376042366027832e-02
8.320000000000000000e+02 2.904100036621093750e+01 3.059772872924804688e+01 1.873053982853889465e-02 -9.283813834190368652e-02 -2.223227918148040771e-02 9.495449066162109375e-02
8.330000000000000000e+02 2.973064231872558594e+01 2.645284461975097656e+01 -5.571597442030906677e-02 -7.304532825946807861e-02 -3.862839192152023315e-02 1.007899567484855652e-01
8.340000000000000000e+02 2.795482635498046875e+01 2.134167480468750000e+01 -1.858575642108917236e-01 -3.308376297354698181e-02 -6.568239629268646240e-02 7.421256601810455322e-02
8.350000000000000000e+02 3.041882324218750000e+01 2.217097473144531250e+01 -1.628016680479049683e-01 -6.569174677133560181e-02 -6.854802370071411133e-02 9.530892968177795410e-02
8.360000000000000000e+02 2.709616851806640625e+01 4.071534347534179688e+01 1.000165864825248718e-01 -1.219732984900474548e-01 -6.587012670934200287e-03 1.707175187766551971e-02
8.370000000000000000e+02 2.640368652343750000e+01 3.730252075195312500e+01 7.555095851421356201e-02 -1.097091287374496460e-01 -1.024745032191276550e-02 4.515351727604866028e-02
8.380000000000000000e+02 2.581889533996582031e+01 3.416180038452148438e+01 4.616060107946395874e-02 -9.477823227643966675e-02 -1.458529010415077209e-02 6.402537226676940918e-02
8.390000000000000000e+02 2.296983718872070312e+01 3.095670700073242188e+01 6.593678146600723267e-03 -6.704925000667572021e-02 -1.813667081296443939e-02 6.379514187574386597e-02
8.400000000000000000e+02 2.635048103332519531e+01 2.349190902709960938e+01 -1.124549731612205505e-01 -4.413739219307899475e-02 -4.697770997881889343e-02 7.488764822483062744e-02
8.410000000000000000e+02 2.341018676757812500e+01 2.190019035339355469e+01 -1.166614219546318054e-01 -1.062575820833444595e-02 -3.818615153431892395e-02 2.501690573990345001e-02
8.420000000000000000e+02 2.640476226806640625e+01 2.166601943969726562e+01 -1.660960018634796143e-01 -3.122349455952644348e-02 -5.919585004448890686e-02 5.716285109519958496e-02
8.430000000000000000e+02 2.259720611572265625e+01 4.101779937744140625e+01 6.080570071935653687e-02 -9.353970736265182495e-02 -9.820202365517616272e-03 7.367701735347509384e-03
8.440000000000000000e+02 2.253402709960937500e+01 3.800697708129882812e+01 5.453845858573913574e-02 -8.956065773963928223e-02 -1.050665881484746933e-02 3.054377995431423187e-02
8.450000000000000000e+02 2.205510139465332031e+01 3.502714538574218750e+01 3.378062322735786438e-02 -7.788430154323577881e-02 -1.323110330849885941e-02 4.590509086847305298e-02
8.460000000000000000e+02 2.400179481506347656e+01 2.517375373840332031e+01 -6.724117696285247803e-02 -3.956186771392822266e-02 -3.204091265797615051e-02 7.050575315952301025e-02
8.470000000000000000e+02 2.356714820861816406e+01 2.355483245849609375e+01 -8.889898657798767090e-02 -2.456810697913169861e-02 -3.404012694954872131e-02 4.919907823204994202e-02
8.480000000000000000e+02 2.195158767700195312e+01 2.194098472595214844e+01 -8.227936923503875732e-02 -4.785047378391027451e-03 -2.611932530999183655e-02 1.257351227104663849e-02
8.490000000000000000e+02 1.830193710327148438e+01 4.113689422607421875e+01 3.428265452384948730e-02 -6.626994162797927856e-02 -9.596185758709907532e-03 7.227330468595027924e-03
8.500000000000000000e+02 1.893905639648437500e+01 3.852899551391601562e+01 3.427516669034957886e-02 -6.939662247896194458e-02 -1.053643599152565002e-02 1.944182068109512329e-02
8.510000000000000000e+02 1.853381347656250000e+01 3.598355865478515625e+01 2.655868977308273315e-02 -6.167868152260780334e-02 -1.053599640727043152e-02 2.836273238062858582e-02
8.520000000000000000e+02 1.977549552917480469e+01 3.037268447875976562e+01 -7.884643040597438812e-03 -4.400662705302238464e-02 -1.556738186627626419e-02 4.920136928558349609e-02
8.530000000000000000e+02 2.099379730224609375e+01 2.773824691772460938e+01 -2.718167006969451904e-02 -3.640799969434738159e-02 -1.907690055668354034e-02 5.495254695415496826e-02
8.540000000000000000e+02 2.024756050109863281e+01 2.405713462829589844e+01 -5.670506134629249573e-02 -7.436665706336498260e-03 -1.924251765012741089e-02 3.490804880857467651e-02
8.550000000000000000e+02 1.915353393554687500e+01 1.943591308593750000e+01 4.186869598925113678e-03 9.826796129345893860e-03 4.204099997878074646e-03 3.885781625285744667e-03
8.560000000000000000e+02 1.868673706054687500e+01 1.808562469482421875e+01 2.358115452807396650e-04 1.173928100615739822e-02 3.592527937144041061e-03 3.977713175117969513e-03
8.570000000000000000e+02 1.981926727294921875e+01 2.063781356811523438e+01 -2.249043621122837067e-02 4.892739001661539078e-03 -5.279309116303920746e-03 -1.109233126044273376e-03
8.580000000000000000e+02 1.583177471160888672e+01 3.971606445312500000e+01 2.427021972835063934e-02 -5.267545208334922791e-02 -8.521568961441516876e-03 9.099891409277915955e-03
8.590000000000000000e+02 1.523527812957763672e+01 3.685229492187500000e+01 1.553923822939395905e-02 -4.564449191093444824e-02 -9.031576104462146759e-03 1.687403768301010132e-02
8.600000000000000000e+02 1.497649955749511719e+01 3.408251953125000000e+01 8.810438215732574463e-03 -3.865003585815429688e-02 -8.951879106462001801e-03 2.394386567175388336e-02
8.610000000000000000e+02 1.476506423950195312e+01 3.153725814819335938e+01 -2.255507046356797218e-03 -2.941581979393959045e-02 -9.501397609710693359e-03 2.603404223918914795e-02
8.620000000000000000e+02 1.358614826202392578e+01 2.313750648498535156e+01 -1.379459444433450699e-02 -4.301709588617086411e-03 -5.428891163319349289e-03 6.883358582854270935e-03
8.630000000000000000e+02 1.619445610046386719e+01 1.956287765502929688e+01 -6.445230450481176376e-03 -3.202974330633878708e-04 -2.029658528044819832e-03 1.050994032993912697e-04
8.640000000000000000e+02 1.717241096496582031e+01 1.515331840515136719e+01 1.923012197948992252e-03 2.950059249997138977e-03 1.461921376176178455e-03 2.450878964737057686e-03
8.650000000000000000e+02 1.709594154357910156e+01 1.369471740722656250e+01 -4.074540338478982449e-04 2.135376213118433952e-03 5.183767061680555344e-04 1.226935652084648609e-03
8.660000000000000000e+02 1.632460403442382812e+01 9.437482833862304688e+00 -3.050675150007009506e-04 4.456255119293928146e-04 4.216739398543722928e-05 4.824324860237538815e-04
8.670000000000000000e+02 1.667220687866210938e+01 7.088280677795410156e+00 -4.412484122440218925e-04 2.548752527218312025e-04 -5.591195076704025269e-05 2.131914370693266392e-04
8.680000000000000000e+02 1.518348312377929688e+01 1.647873163223266602e+00 2.268058451591059566e-04 9.509604751656297594e-06 7.089463178999722004e-05 6.757751543773338199e-05
8.690000000000000000e+02 1.362970447540283203e+01 1.206369161605834961e+00 7.536252087447792292e-05 -3.027433922397904098e-05 1.352645540464436635e-05 2.916109588113613427e-05
8.700000000000000000e+02 1.580562114715576172e+01 8.065220713615417480e-01 1.316151028731837869e-04 3.469538933131843805e-05 4.989314766135066748e-05 3.727632793015800416e-05
8.710000000000000000e+02 1.720652770996093750e+01 5.778165459632873535e-01 9.021168807521462440e-05 5.300796692608855665e-05 4.296589395380578935e-05 1.812024493119679391e-05
8.720000000000000000e+02 1.909931755065917969e+01 1.194661021232604980e+00 6.956641300348564982e-05 1.001631899271160364e-04 5.091887942398898304e-05 3.625473937063361518e-06
8.730000000000000000e+02 1.947590446472167969e+01 6.896560668945312500e+00 -6.392830982804298401e-04 1.449548290111124516e-04 -1.482984807807952166e-04 3.049985389225184917e-05
8.740000000000000000e+02 2.057609558105468750e+01 5.015673160552978516e+00 7.259492122102528811e-05 1.949101715581491590e-04 8.025152783375233412e-05 1.531351736048236489e-04
8.750000000000000000e+02 1.916328239440917969e+01 8.185650825500488281e+00 6.675943732261657715e-04 3.845127357635647058e-04 3.156321472488343716e-04 5.595679976977407932e-05
8.760000000000000000e+02 1.759383010864257812e+01 9.501246452331542969e+00 6.758231320418417454e-04 7.874896400608122349e-04 4.389938258100301027e-04 5.224497872404754162e-04
8.770000000000000000e+02 1.508168697357177734e+01 9.272843360900878906e+00 7.526677800342440605e-04 2.922692801803350449e-04 3.134811122436076403e-04 9.310104651376605034e-04
8.780000000000000000e+02 1.206245040893554688e+01 4.082273864746093750e+01 1.366119924932718277e-02 -3.803198784589767456e-02 -7.311236113309860229e-03 3.510156646370887756e-03
8.790000000000000000e+02 1.180790233612060547e+01 3.747151947021484375e+01 9.962187148630619049e-03 -3.304996713995933533e-02 -6.926333997398614883e-03 1.163817849010229111e-02
8.800000000000000000e+02 1.203014945983886719e+01 3.431735992431640625e+01 3.886476857587695122e-03 -2.800082042813301086e-02 -7.234303280711174011e-03 1.587386988103389740e-02
8.810000000000000000e+02 1.256040096282958984e+01 2.970775032043457031e+01 -5.814492702484130859e-03 -1.922306232154369354e-02 -7.511266507208347321e-03 1.859244704246520996e-02
8.820000000000000000e+02 1.313006210327148438e+01 2.830056953430175781e+01 -1.106490939855575562e-02 -1.471592672169208527e-02 -7.734250742942094803e-03 1.929466985166072845e-02
8.830000000000000000e+02 1.125878906250000000e+01 1.848885917663574219e+01 -2.689872868359088898e-03 -3.555567003786563873e-03 -1.873631961643695831e-03 -2.673200215213000774e-04
8.840000000000000000e+02 1.188753318786621094e+01 1.704961204528808594e+01 -8.262686314992606640e-04 -3.462935099378228188e-03 -1.286761136725544930e-03 -9.679739741841331124e-05
8.850000000000000000e+02 1.347387313842773438e+01 1.285369873046875000e+01 1.424447866156697273e-03 -1.353958272375166416e-03 2.114686139975674450e-05 8.775872993282973766e-04
8.860000000000000000e+02 1.471263790130615234e+01 1.046090602874755859e+01 3.245297411922365427e-04 -2.143682795576751232e-04 3.304843994555994868e-05 7.121512899175286293e-04
8.870000000000000000e+02 1.151410007476806641e+01 5.694918155670166016e+00 2.704646612983196974e-04 -1.562936231493949890e-04 3.425130853429436684e-05 1.474708842579275370e-04
8.880000000000000000e+02 1.211991691589355469e+01 1.481099367141723633e+00 1.667535980232059956e-04 -5.783911547041498125e-05 3.267434294684790075e-05 3.187775291735306382e-05
8.890000000000000000e+02 1.297481060028076172e+01 1.992524147033691406e+00 1.148645314970053732e-04 -5.120825881022028625e-05 1.909688035084400326e-05 2.604624751256778836e-05
8.900000000000000000e+02 7.505676746368408203e+00 4.126876831054687500e+01 5.195874720811843872e-03 -2.198803797364234924e-02 -5.037649068981409073e-03 1.522033242508769035e-03
8.910000000000000000e+02 8.757290840148925781e+00 3.708171844482421875e+01 5.392444320023059845e-03 -2.352899126708507538e-02 -5.440963897854089737e-03 7.220760453492403030e-03
8.920000000000000000e+02 8.649464607238769531e+00 3.049051475524902344e+01 -1.920569455251097679e-03 -1.297703664749860764e-02 -4.469281528145074844e-03 1.064858585596084595e-02
8.930000000000000000e+02 1.027068614959716797e+01 3.096180152893066406e+01 -1.340305432677268982e-03 -1.777617447078227997e-02 -5.734943784773349762e-03 1.325953565537929535e-02
8.940000000000000000e+02 1.001740074157714844e+01 2.658104896545410156e+01 -7.149029057472944260e-03 -8.653812110424041748e-03 -4.740852396935224533e-03 9.531782940030097961e-03
8.950000000000000000e+02 9.803400039672851562e+00 2.305391311645507812e+01 -5.760133732110261917e-03 -4.460901953279972076e-03 -3.066310659050941467e-03 3.452462842687964439e-03
8.960000000000000000e+02 9.081729888916015625e+00 2.009447860717773438e+01 -2.547380281612277031e-03 -2.844234695658087730e-03 -1.617484493181109428e-03 3.050749946851283312e-04
8.970000000000000000e+02 9.783841133117675781e+00 1.418067169189453125e+01 9.082317701540887356e-04 -2.145938109606504440e-03 -3.713119367603212595e-04 -6.160534103401005268e-04
8.980000000000000000e+02 7.195532321929931641e+00 1.072335529327392578e+01 8.456391515210270882e-04 -5.969831254333257675e-04 7.459680637111887336e-05 -5.742838839069008827e-04
8.990000000000000000e+02 8.819956779479980469e+00 5.492346286773681641e+00 1.791446993593126535e-04 -2.480396942701190710e-04 -2.066850356641225517e-05 -1.715514081297442317e-04
9.000000000000000000e+02 7.620960712432861328e+00 1.859071493148803711e+00 1.971831079572439194e-04 -7.083632954163476825e-05 3.790403570747002959e-05 -8.416707714786753058e-05
9.010000000000000000e+02 6.890654087066650391e+00 1.865614175796508789e+00 2.792275045067071915e-04 3.609377745306119323e-05 9.459638386033475399e-05 -7.355256821028888226e-05
9.020000000000000000e+02 8.412639617919921875e+00 2.558758497238159180e+00 1.884279481600970030e-04 -9.618940384825691581e-05 2.767156183836050332e-05 -9.065638005267828703e-05
9.030000000000000000e+02 1.135865783691406250e+01 1.627125024795532227e+00 3.104979114141315222e-04 5.104832780489232391e-06 9.468082862440496683e-05 7.232925418065860868e-05
9.040000000000000000e+02 5.279685497283935547e+00 3.800735473632812500e+01 2.346950117498636246e-03 -1.549719832837581635e-02 -3.945074509829282761e-03 4.312440287321805954e-03
9.050000000000000000e+02 6.860391139984130859e+00 3.920380783081054688e+01 3.916333895176649094e-03 -2.056380175054073334e-02 -4.994240589439868927e-03 3.845716360956430435e-03
9.060000000000000000e+02 6.536393165588378906e+00 3.618070983886718750e+01 1.767406705766916275e-03 -1.547717954963445663e-02 -4.112931899726390839e-03 6.390873342752456665e-03
9.070000000000000000e+02 7.095578193664550781e+00 3.419411087036132812e+01 1.509118475951254368e-03 -1.576867885887622833e-02 -4.277868196368217468e-03 7.241897284984588623e-03
9.080000000000000000e+02 6.844205379486083984e+00 2.909871482849121094e+01 -2.051432384178042412e-03 -8.400985039770603180e-03 -3.135725157335400581e-03 7.408467121422290802e-03
9.090000000000000000e+02 5.305507183074951172e+00 2.910176658630371094e+01 -1.870061852969229221e-03 -6.028025876730680466e-03 -2.369426190853118896e-03 5.051620770245790482e-03
9.100000000000000000e+02 6.632949829101562500e+00 2.317451095581054688e+01 -2.587357768788933754e-03 -2.622593892738223076e-03 -1.562985475175082684e-03 1.909485668875277042e-03
9.110000000000000000e+02 7.970709800720214844e+00 2.162833023071289062e+01 -3.006771905347704887e-03 -2.889345167204737663e-03 -1.768835121765732765e-03 1.214661635458469391e-03
9.120000000000000000e+02 5.968518257141113281e+00 1.720424652099609375e+01 7.233762153191491961e-05 -8.087840396910905838e-04 -2.209339290857315063e-04 -1.044775126501917839e-03
9.130000000000000000e+02 5.109132766723632812e+00 1.221015548706054688e+01 7.723616436123847961e-04 -1.463320659240707755e-04 1.878088805824518204e-04 -9.329651365987956524e-04
9.140000000000000000e+02 5.085859775543212891e+00 1.108200168609619141e+01 1.405611255904659629e-04 -6.373037467710673809e-05 2.304922782059293240e-05 -8.339778869412839413e-04
9.150000000000000000e+02 4.349956512451171875e+00 8.420613288879394531e+00 4.893976147286593914e-04 2.025375724770128727e-04 2.075805532513186336e-04 -4.612057819031178951e-04
9.160000000000000000e+02 3.969255208969116211e+00 1.897326588630676270e+00 1.675115490797907114e-04 6.561444024555385113e-05 6.993779970798641443e-05 -9.752577898325398564e-05
9.170000000000000000e+02 4.691134452819824219e+00 2.677475929260253906e+00 2.294961595907807350e-04 6.028727148077450693e-05 8.693502604728564620e-05 -1.511422888142988086e-04
9.180000000000000000e+02 6.160733699798583984e+00 1.874765872955322266e+00 1.561846875119954348e-04 -6.393629155354574323e-05 2.767451951513066888e-05 -8.891121251508593559e-05
9.190000000000000000e+02 4.252921104431152344e+00 3.974573898315429688e+01 1.656778040342032909e-03 -1.385924033820629120e-02 -3.660738701000809669e-03 1.451666234061121941e-03
9.200000000000000000e+02 1.867988228797912598e+00 3.710377502441406250e+01 -4.045473542646504939e-05 -8.434413000941276550e-03 -2.542460570111870766e-03 1.775150885805487633e-03
9.210000000000000000e+02 2.128338575363159180e+00 3.339540100097656250e+01 1.412984856870025396e-04 -4.806219134479761124e-03 -1.399476197548210621e-03 2.503803232684731483e-03
9.220000000000000000e+02 2.246926069259643555e+00 3.051671218872070312e+01 -9.186435636365786195e-05 -2.007337054237723351e-03 -6.297604413703083992e-04 2.538938773795962334e-03
9.230000000000000000e+02 2.208965539932250977e+00 2.617424774169921875e+01 -6.367520545609295368e-04 1.634464017115533352e-03 2.993136004079133272e-04 1.142425462603569031e-03
9.240000000000000000e+02 2.139579296112060547e+00 2.330387115478515625e+01 -5.876658833585679531e-04 2.888361923396587372e-03 6.902088061906397343e-04 1.748287759255617857e-04
9.250000000000000000e+02 1.988542318344116211e+00 1.906101036071777344e+01 1.194133365061134100e-04 3.041750984266400337e-03 9.483493049629032612e-04 -6.351668853312730789e-04
9.260000000000000000e+02 1.855671286582946777e+00 1.626744079589843750e+01 2.856253122445195913e-04 2.416592091321945190e-03 8.106651948764920235e-04 -7.479414925910532475e-04
9.270000000000000000e+02 1.758102297782897949e+00 1.350459003448486328e+01 3.587598621379584074e-04 1.622276846319437027e-03 5.943109863437712193e-04 -6.358116515912115574e-04
9.280000000000000000e+02 1.739565372467041016e+00 1.074436187744140625e+01 3.460886073298752308e-04 9.326350409537553787e-04 3.836170944850891829e-04 -4.587940347846597433e-04
9.290000000000000000e+02 1.768917083740234375e+00 6.546515464782714844e+00 -1.539417280582711101e-04 2.984259626828134060e-04 4.334526965976692736e-05 -2.137949923053383827e-04
9.300000000000000000e+02 3.209896087646484375e+00 2.701272726058959961e+00 1.653589715715497732e-04 9.264466643799096346e-05 7.740109140286222100e-05 -9.219702769769355655e-05
9.310000000000000000e+02 4.357317090034484863e-01 2.191125631332397461e+00 -1.168263697763904929e-04 5.597899416898144409e-06 -3.336854206281714141e-05 -2.072520510409958661e-05
9.320000000000000000e+02 7.858344316482543945e-01 4.002777481079101562e+01 4.629467366612516344e-05 -8.984511718153953552e-03 -2.681465120986104012e-03 4.556206404231488705e-04
9.330000000000000000e+02 1.994551277160644531e+01 4.059293866157531738e-01 5.782747393823228776e-05 7.569384615635499358e-05 4.005639493698254228e-05 -4.507329322223085910e-06
9.340000000000000000e+02 2.216045188903808594e+01 2.257994651794433594e+00 2.192091051256284118e-05 -1.587934457347728312e-05 1.812469918149872683e-06 9.892706657410599291e-06
9.350000000000000000e+02 2.146216583251953125e+01 3.988418817520141602e+00 -8.987567707663401961e-05 -2.310480631422251463e-04 -9.627712279325351119e-05 -9.944581688614562154e-05
9.360000000000000000e+02 2.230894851684570312e+01 1.430637240409851074e+00 -2.980206409120000899e-05 -5.666366268997080624e-05 -2.593971839814912528e-05 2.408623004157561809e-05
9.370000000000000000e+02 1.859989738464355469e+01 1.092954730987548828e+01 8.189938380382955074e-04 1.437569269910454750e-03 6.769689498469233513e-04 1.999692758545279503e-04
9.380000000000000000e+02 1.843951606750488281e+01 1.233924484252929688e+01 -8.404384134337306023e-04 2.335484139621257782e-03 4.485136887524276972e-04 1.707936171442270279e-04
9.390000000000000000e+02 1.838261795043945312e+01 1.519306373596191406e+01 -1.011724700219929218e-03 5.548182409256696701e-03 1.360937254503369331e-03 8.633821853436529636e-04
9.400000000000000000e+02 1.729660987854003906e+01 1.663949012756347656e+01 4.294087702874094248e-04 3.304751357063651085e-03 1.120247994549572468e-03 2.539544831961393356e-03
9.410000000000000000e+02 1.803568840026855469e+01 2.098656082153320312e+01 -2.235227450728416443e-02 4.896372091025114059e-03 -5.236770492047071457e-03 9.803754510357975960e-04
9.420000000000000000e+02 2.018083763122558594e+01 2.215687942504882812e+01 -4.762926325201988220e-02 1.924053882248699665e-03 -1.371156238019466400e-02 1.119725219905376434e-02
9.430000000000000000e+02 4.266757202148437500e+01 4.267305374145507812e+00 2.852742909453809261e-04 -7.846673543099313974e-05 6.204227247508242726e-05 -1.296981645282357931e-04
9.440000000000000000e+02 4.910395431518554688e+01 1.225090122222900391e+01 3.044005017727613449e-03 2.034073323011398315e-02 7.015421520918607712e-03 5.514134652912616730e-03
9.450000000000000000e+02 4.966017532348632812e+01 1.506160926818847656e+01 -2.713770605623722076e-02 -2.272804966196417809e-03 -8.823153562843799591e-03 -2.194954641163349152e-02
9.460000000000000000e+02 4.940795898437500000e+01 1.852696800231933594e+01 -2.847812771797180176e-01 -1.823255419731140137e-02 -9.090414643287658691e-02 -1.394205540418624878e-01
9.470000000000000000e+02 5.359439849853515625e+01 2.106364822387695312e+01 -1.325935959815979004e+00 -2.657890617847442627e-01 -4.775175154209136963e-01 -4.142135381698608398e-01
9.480000000000000000e+02 5.874991226196289062e+01 -3.129518318176269531e+01 1.737677007913589478e-01 2.878025472164154053e-01 1.384710818529129028e-01 8.647342026233673096e-02
9.490000000000000000e+02 5.972922897338867188e+01 -2.921354103088378906e+01 -4.074907004833221436e-01 1.036117151379585266e-01 -9.116369485855102539e-02 -2.532577142119407654e-02
9.500000000000000000e+02 6.411444091796875000e+01 -2.799028396606445312e+01 1.887182444334030151e-01 1.906857609748840332e+00 6.286727786064147949e-01 9.044880867004394531e-01
9.510000000000000000e+02 6.519262695312500000e+01 -2.482859230041503906e+01 9.580528140068054199e-01 2.129627466201782227e+00 9.263041019439697266e-01 1.390085697174072266e+00
9.520000000000000000e+02 3.654378128051757812e+01 -1.406534576416015625e+01 7.073987126350402832e-01 -2.709963619709014893e-01 1.309206932783126831e-01 -7.968170940876007080e-02
9.530000000000000000e+02 3.545492553710937500e+01 -1.046788692474365234e+01 -1.614806056022644043e-01 -2.409523725509643555e-01 -1.207298934459686279e-01 -5.104834213852882385e-02
9.540000000000000000e+02 3.427167129516601562e+01 -1.097986316680908203e+01 -2.564715407788753510e-02 -1.367420703172683716e-01 -4.871676489710807800e-02 -7.590498775243759155e-02
9.550000000000000000e+02 2.577149772644042969e+01 -1.029712200164794922e+01 -2.649558484554290771e-01 1.703386157751083374e-01 -2.838516607880592346e-02 -4.709928333759307861e-01
9.560000000000000000e+02 1.077421283721923828e+01 -1.301397228240966797e+01 -5.703521370887756348e-01 -4.580853581428527832e-01 -3.085312545299530029e-01 -2.600879669189453125e-01
9.570000000000000000e+02 4.283403396606445312e+00 -1.486857986450195312e+01 -1.348100155591964722e-01 -2.416308782994747162e-02 -4.769193008542060852e-02 -1.963667422533035278e-01
9.580000000000000000e+02 9.187431335449218750e+00 -1.697134399414062500e+01 -2.531809210777282715e-01 -3.838509023189544678e-01 -1.911095529794692993e-01 -4.457648098468780518e-01
9.590000000000000000e+02 8.574234008789062500e+00 -1.594707202911376953e+01 -3.319393992424011230e-01 -2.818273901939392090e-01 -1.841300427913665771e-01 -3.776280581951141357e-01
9.600000000000000000e+02 3.989474868774414062e+01 -1.399849510192871094e+01 4.926924705505371094e-01 -1.113997921347618103e-01 1.143878102302551270e-01 -9.363740682601928711e-02
9.610000000000000000e+02 3.886405563354492188e+01 -1.783029365539550781e+01 4.743517339229583740e-01 -1.558509320020675659e-01 9.555023908615112305e-02 -3.812075257301330566e-01
9.620000000000000000e+02 4.454669952392578125e+01 -1.848828697204589844e+01 1.933190077543258667e-01 1.108607292175292969e+00 3.905779123306274414e-01 -1.662528365850448608e-01
9.630000000000000000e+02 3.879505920410156250e+01 -2.470858955383300781e+01 -6.034267693758010864e-02 -1.012927070260047913e-01 -4.849061369895935059e-02 -5.605914816260337830e-02
9.640000000000000000e+02 4.171693420410156250e+01 -2.736534690856933594e+01 1.005178615450859070e-01 3.698586225509643555e-01 1.411129534244537354e-01 4.177012294530868530e-02
9.650000000000000000e+02 3.561550903320312500e+01 -2.580110740661621094e+01 -1.968536078929901123e-01 -8.950748443603515625e-01 -3.275785446166992188e-01 -3.221473991870880127e-01
9.660000000000000000e+02 3.907827377319335938e+01 -2.079738044738769531e+01 1.465121805667877197e-01 -3.268788754940032959e-02 3.414728492498397827e-02 -3.267816007137298584e-01
9.670000000000000000e+02 4.055874252319335938e+01 -3.300776290893554688e+01 2.342812269926071167e-01 1.263298094272613525e-01 1.081833094358444214e-01 6.651775538921356201e-02
9.680000000000000000e+02 3.756079864501953125e+01 -3.039808654785156250e+01 1.755887717008590698e-01 -1.918921023607254028e-01 -4.890997428447008133e-03 5.569707974791526794e-02
9.690000000000000000e+02 4.732803726196289062e+01 -2.692311286926269531e+01 2.427744418382644653e-01 1.079780220985412598e+00 3.967664241790771484e-01 -4.123583137989044189e-01
9.700000000000000000e+02 4.915802001953125000e+01 -2.896775245666503906e+01 3.234206140041351318e-01 6.801454424858093262e-01 3.010698258876800537e-01 -3.829511106014251709e-01
9.710000000000000000e+02 7.328409194946289062e+00 -3.149328041076660156e+01 9.575452655553817749e-02 -3.458199501037597656e-01 -7.501962780952453613e-02 -7.595394551753997803e-02
9.720000000000000000e+02 5.978487014770507812e+00 -3.282730102539062500e+01 4.943903535604476929e-02 -4.645033180713653564e-01 -1.245192810893058777e-01 -3.651808947324752808e-02
9.730000000000000000e+02 9.025021553039550781e+00 -3.827300262451171875e+01 1.093260385096073151e-02 -2.570064067840576172e-01 -7.382214814424514771e-02 -7.995950989425182343e-03
9.740000000000000000e+02 1.263446807861328125e+01 -3.866876602172851562e+01 2.624712325632572174e-02 -2.843896485865116119e-02 -6.575526786036789417e-04 -2.108136378228664398e-02
9.750000000000000000e+02 9.554294586181640625e+00 -3.065162658691406250e+01 1.575120091438293457e-01 -1.726825684309005737e-01 -4.551168996840715408e-03 -9.272539615631103516e-02
9.760000000000000000e+02 7.646728992462158203e+00 -3.435654449462890625e+01 4.998545721173286438e-02 -3.294823169708251953e-01 -8.384905755519866943e-02 -3.300698101520538330e-02
9.770000000000000000e+02 1.292114925384521484e+01 -3.600997543334960938e+01 6.619929522275924683e-02 -8.641774766147136688e-03 1.726725697517395020e-02 -4.006046429276466370e-02
9.780000000000000000e+02 1.122078704833984375e+01 -3.088959312438964844e+01 1.883371919393539429e-01 -6.710656732320785522e-02 3.636918589472770691e-02 -9.880142658948898315e-02
9.790000000000000000e+02 3.571971130371093750e+01 -3.314047622680664062e+01 3.005093336105346680e-01 -2.079180926084518433e-01 2.777737006545066833e-02 -9.175718761980533600e-03
9.800000000000000000e+02 3.841900634765625000e+01 -3.550725173950195312e+01 3.517573475837707520e-01 -3.826262801885604858e-02 9.404841810464859009e-02 2.629508450627326965e-02
9.810000000000000000e+02 4.405036163330078125e+01 -3.114102172851562500e+01 1.645311713218688965e-01 4.817921221256256104e-01 1.938969939947128296e-01 -5.280588567256927490e-02
9.820000000000000000e+02 6.176255416870117188e+01 -3.004175186157226562e+01 7.303866744041442871e-02 9.325403571128845215e-01 3.016737103462219238e-01 5.246595740318298340e-01
9.830000000000000000e+02 6.100217437744140625e+01 -3.505791091918945312e+01 5.867621898651123047e-01 1.305494189262390137e+00 5.676769018173217773e-01 3.218544125556945801e-01
9.840000000000000000e+02 5.761396408081054688e+01 -3.345029067993164062e+01 5.165406465530395508e-01 3.645214736461639404e-01 2.643186450004577637e-01 -5.178504437208175659e-02
9.850000000000000000e+02 6.096247863769531250e+01 -3.272099685668945312e+01 3.904314935207366943e-01 1.100916504859924316e+00 4.474044144153594971e-01 4.183114469051361084e-01
9.860000000000000000e+02 6.619748687744140625e+01 -3.030474662780761719e+01 -2.943367697298526764e-02 3.320082902908325195e+00 9.871947765350341797e-01 8.646360635757446289e-01
9.870000000000000000e+02 6.689517974853515625e+01 -3.262963104248046875e+01 1.667287386953830719e-02 3.641706705093383789e+00 1.097513914108276367e+00 6.479475498199462891e-01
9.880000000000000000e+02 6.796853637695312500e+01 -3.573637771606445312e+01 1.561527550220489502e-01 3.846211433410644531e+00 1.200709223747253418e+00 4.275875389575958252e-01
9.890000000000000000e+02 5.686282730102539062e+01 -2.995246315002441406e+01 -4.015713632106781006e-01 2.314447611570358276e-02 -1.135280653834342957e-01 -1.452756822109222412e-01
9.900000000000000000e+02 5.385016250610351562e+01 -2.980243110656738281e+01 6.205913424491882324e-02 1.039879322052001953e-01 4.981411993503570557e-02 -2.101573646068572998e-01
9.910000000000000000e+02 3.427841186523437500e+01 -3.024001312255859375e+01 1.191710233688354492e-01 -4.158175885677337646e-01 -8.899397403001785278e-02 -1.155093088746070862e-01
9.920000000000000000e+02 9.360161781311035156e+00 -2.481611061096191406e+01 2.703356444835662842e-01 -1.868309229612350464e-01 2.505141310393810272e-02 -2.506893277168273926e-01
9.930000000000000000e+02 4.760757446289062500e+00 -2.548971176147460938e+01 1.023276820778846741e-01 -4.421050250530242920e-01 -1.019332036375999451e-01 -2.138439118862152100e-01
9.940000000000000000e+02 8.989082336425781250e+00 -1.992689132690429688e+01 6.475418061017990112e-02 -3.260244727134704590e-01 -7.838109135627746582e-02 -4.127704799175262451e-01
9.950000000000000000e+02 4.682637214660644531e+00 -2.281258964538574219e+01 7.417424023151397705e-02 -3.685459494590759277e-01 -8.831151574850082397e-02 -3.040414154529571533e-01
9.960000000000000000e+02 7.574371337890625000e+01 -7.799748897552490234e+00 -1.845438927412033081e-01 7.736558437347412109e+00 2.265604496002197266e+00 4.545555114746093750e-01
9.970000000000000000e+02 7.178604125976562500e+01 -7.281645774841308594e+00 -4.466729760169982910e-01 5.882866382598876953e+00 1.630858063697814941e+00 2.688349187374114990e-01
9.980000000000000000e+02 6.949085998535156250e+01 -7.725028514862060547e+00 -4.973072707653045654e-01 4.602434158325195312e+00 1.231538057327270508e+00 3.309460356831550598e-02
9.990000000000000000e+02 6.014716339111328125e+01 -3.140488147735595703e+00 -8.226275444030761719e-02 -3.433533385396003723e-02 -3.497942909598350525e-02 2.110179066658020020e-01
1.000000000000000000e+03 5.852342605590820312e+01 -3.599528789520263672e+00 -1.776402145624160767e-01 -2.747011482715606689e-01 -1.357024013996124268e-01 2.758578360080718994e-01
1.001000000000000000e+03 5.352154922485351562e+01 -1.755698442459106445e+00 -1.111368656158447266e+00 -2.736762464046478271e-01 -4.155134856700897217e-01 9.168925136327743530e-02
1.002000000000000000e+03 5.006949234008789062e+01 -1.634435176849365234e+00 -1.159844875335693359e+00 4.708936065435409546e-02 -3.338266611099243164e-01 -1.077694222331047058e-01
1.003000000000000000e+03 4.936677169799804688e+01 -2.320910453796386719e+00 -1.040122985839843750e+00 1.519901454448699951e-01 -2.664398550987243652e-01 -1.303001046180725098e-01
1.004000000000000000e+03 5.227873611450195312e+01 -2.255149364471435547e+00 -9.879653453826904297e-01 -2.125463187694549561e-01 -3.601534962654113770e-01 5.823760479688644409e-02
1.005000000000000000e+03 4.727741241455078125e+01 -2.346423625946044922e+00 -1.033473491668701172e+00 3.109869062900543213e-01 -2.167459726333618164e-01 -2.218296080827713013e-01
1.006000000000000000e+03 2.798307418823242188e+01 -6.046108245849609375e+00 -1.232894182205200195e+00 1.384768784046173096e-01 -3.283251821994781494e-01 -2.493592500686645508e-01
1.007000000000000000e+03 2.578872871398925781e+01 -5.617103576660156250e+00 -9.407970905303955078e-01 2.515079379081726074e-01 -2.067867368459701538e-01 -1.131152808666229248e-01
1.008000000000000000e+03 2.262683296203613281e+01 -4.957505226135253906e+00 -4.431085288524627686e-01 1.390899121761322021e-01 -9.120558202266693115e-02 -1.846838891506195068e-01
1.009000000000000000e+03 1.885031890869140625e+01 -4.863773345947265625e+00 -2.022982835769653320e-01 2.384620346128940582e-02 -5.353562533855438232e-02 -2.786267101764678955e-01
1.010000000000000000e+03 1.174431419372558594e+01 -6.185393810272216797e+00 -5.922408774495124817e-02 -1.855572164058685303e-01 -7.343439012765884399e-02 -1.853472925722599030e-02
1.011000000000000000e+03 1.009915637969970703e+01 -5.664042472839355469e+00 -1.444759033620357513e-02 -1.312382966279983521e-01 -4.370576515793800354e-02 5.644644796848297119e-02
1.012000000000000000e+03 1.156571388244628906e+01 -2.156893014907836914e+00 2.479947358369827271e-01 -3.350506722927093506e-02 6.434690207242965698e-02 -8.746951934881508350e-04
1.013000000000000000e+03 8.698513031005859375e+00 -1.862055778503417969e+00 2.040938735008239746e-01 -2.651676908135414124e-02 5.327313393354415894e-02 4.314070567488670349e-02
1.014000000000000000e+03 4.086231231689453125e+00 -1.065811061859130859e+01 -9.889893233776092529e-02 6.143173575401306152e-02 -1.124015823006629944e-02 1.682208478450775146e-02
1.015000000000000000e+03 3.338523101806640625e+01 -7.441932201385498047e+00 -1.328808188438415527e+00 -2.725151777267456055e-01 -4.803970158100128174e-01 -1.771210134029388428e-01
1.016000000000000000e+03 4.016425704956054688e+01 -6.479741573333740234e+00 -9.635705351829528809e-01 -2.135655134916305542e-01 -3.531408011913299561e-01 -2.290724813938140869e-01
1.017000000000000000e+03 4.125144195556640625e+01 -6.508758544921875000e+00 -8.856198787689208984e-01 -7.413075864315032959e-02 -2.879251837730407715e-01 -1.379809081554412842e-01
1.018000000000000000e+03 5.990299224853515625e+01 -8.347949028015136719e+00 -3.867170512676239014e-01 -1.466848552227020264e-01 -1.600205749273300171e-01 4.888306558132171631e-01
1.019000000000000000e+03 7.598062133789062500e+01 -1.035905933380126953e+01 -1.952040493488311768e-01 7.728524684906005859e+00 2.259996175765991211e+00 6.524795889854431152e-01
1.020000000000000000e+03 6.991294860839843750e+01 -1.494562530517578125e+01 2.675884403288364410e-02 6.951525688171386719e+00 2.093485355377197266e+00 6.268117427825927734e-01
1.021000000000000000e+03 7.310806274414062500e+01 -1.381798934936523438e+01 -1.182578951120376587e-01 6.953409194946289062e+00 2.050545454025268555e+00 1.050058126449584961e+00
1.022000000000000000e+03 7.559287261962890625e+01 -1.441332817077636719e+01 2.953969314694404602e-02 7.275823593139648438e+00 2.191608905792236328e+00 9.136267900466918945e-01
1.023000000000000000e+03 7.509786224365234375e+01 -1.744662666320800781e+01 3.915749788284301758e-01 6.910825729370117188e+00 2.190720319747924805e+00 7.699438929557800293e-01
1.024000000000000000e+03 7.434920501708984375e+01 -1.671226882934570312e+01 3.592405617237091064e-01 6.964324474334716797e+00 2.197069406509399414e+00 9.113896489143371582e-01
1.025000000000000000e+03 7.497625732421875000e+01 -2.154789352416992188e+01 4.364654421806335449e-01 6.660683155059814453e+00 2.129144668579101562e+00 1.529531627893447876e-01
1.026000000000000000e+03 7.063547515869140625e+01 -2.480160331726074219e+01 6.886582076549530029e-02 6.348405838012695312e+00 1.925181508064270020e+00 2.807253003120422363e-01
1.027000000000000000e+03 7.145849609375000000e+01 -2.316323852539062500e+01 5.976604223251342773e-01 6.735373497009277344e+00 2.199910163879394531e+00 5.319013074040412903e-02
1.028000000000000000e+03 7.531696319580078125e+01 -2.817979621887207031e+01 -8.384177088737487793e-02 6.479277610778808594e+00 1.918630838394165039e+00 -1.577930748462677002e-01
1.029000000000000000e+03 6.301129150390625000e+01 -2.903938484191894531e+01 1.109092980623245239e-01 1.413395285606384277e+00 4.572913646697998047e-01 6.868872642517089844e-01
1.030000000000000000e+03 6.785721588134765625e+01 2.361685943603515625e+01 -5.129943490028381348e-01 1.621677517890930176e+00 3.326049447059631348e-01 -1.337314605712890625e+00
1.031000000000000000e+03 7.117897033691406250e+01 2.152419662475585938e+01 1.798404693603515625e+00 5.156034946441650391e+00 2.086331844329833984e+00 -4.265104293823242188e+00
1.032000000000000000e+03 4.720336532592773438e+01 2.219097328186035156e+01 -4.863057732582092285e-01 1.348198056221008301e-01 -1.054457873106002808e-01 8.956627547740936279e-02
1.033000000000000000e+03 4.037660980224609375e+01 2.107302474975585938e+01 -2.326053231954574585e-01 6.223858147859573364e-02 -5.111002177000045776e-02 8.250566571950912476e-02
1.034000000000000000e+03 3.652229690551757812e+01 2.007993888854980469e+01 -1.902278661727905273e-01 1.226247753947973251e-03 -5.670048296451568604e-02 7.649499177932739258e-02
1.035000000000000000e+03 1.507726669311523438e+01 2.234995269775390625e+01 -1.704083755612373352e-02 -2.869077259674668312e-03 -5.972974002361297607e-03 6.269461475312709808e-03
1.036000000000000000e+03 1.290277004241943359e+01 1.919840431213378906e+01 -4.952470306307077408e-03 -3.563178004696965218e-03 -2.554694656282663345e-03 9.132122067967429757e-05
1.037000000000000000e+03 5.098571777343750000e+00 2.319740676879882812e+01 -2.062794752418994904e-03 -1.174305682070553303e-03 -9.711300954222679138e-04 1.020330586470663548e-03
1.038000000000000000e+03 6.210537433624267578e+00 1.870609855651855469e+01 -1.227947301231324673e-03 -1.157836872152984142e-03 -7.157352520152926445e-04 -9.760877001099288464e-04
1.039000000000000000e+03 1.044021129608154297e+01 1.643364143371582031e+01 -5.013399641029536724e-04 -2.839402295649051666e-03 -1.002222648821771145e-03 -5.391692393459379673e-04
1.040000000000000000e+03 1.233475494384765625e+01 1.814439582824707031e+01 -1.368173514492809772e-03 -3.334731562063097954e-03 -1.410871511325240135e-03 -1.763302861945703626e-04
1.041000000000000000e+03 3.880147933959960938e+01 1.794235229492187500e+01 -1.786441206932067871e-01 2.696806192398071289e-02 -4.550281912088394165e-02 5.282705277204513550e-02
1.042000000000000000e+03 4.728041076660156250e+01 1.835299873352050781e+01 -2.807213068008422852e-01 3.453342989087104797e-02 -7.385636866092681885e-02 -7.518900185823440552e-02
1.043000000000000000e+03 6.760671734809875488e-01 2.054815292358398438e+01 1.541349629405885935e-04 5.261895712465047836e-03 1.624809112399816513e-03 -1.833781716413795948e-04
1.044000000000000000e+03 7.023674774169921875e+01 1.289459323883056641e+01 -2.555165588855743408e-01 5.257973670959472656e+00 1.500737071037292480e+00 1.304329752922058105e+00
1.045000000000000000e+03 7.101774597167968750e+01 1.214586639404296875e+01 -5.666248798370361328e-01 6.114695549011230469e+00 1.664421200752258301e+00 9.751273393630981445e-01
1.046000000000000000e+03 7.054915618896484375e+01 1.107474517822265625e+01 -4.459239244461059570e-01 5.435500144958496094e+00 1.496872901916503906e+00 7.422008514404296875e-01
1.047000000000000000e+03 7.104489135742187500e+01 6.936107158660888672e+00 -5.222399234771728516e-01 5.429303169250488281e+00 1.472118854522705078e+00 2.273598909378051758e-01
1.048000000000000000e+03 6.985631561279296875e+01 2.979452848434448242e+00 -2.635869085788726807e-01 4.448906898498535156e+00 1.255596041679382324e+00 2.781521677970886230e-01
1.049000000000000000e+03 7.120852661132812500e+01 1.006490421295166016e+01 -6.196415424346923828e-01 5.871559143066406250e+00 1.575575232505798340e+00 4.309763610363006592e-01
1.050000000000000000e+03 7.604624176025390625e+01 9.387693405151367188e+00 -4.960513114929199219e-01 8.459445953369140625e+00 2.389018297195434570e+00 -5.506871342658996582e-01
1.051000000000000000e+03 7.349184417724609375e+01 1.089973354339599609e+01 -9.661716222763061523e-01 7.857902526855468750e+00 2.067519426345825195e+00 -6.322842836380004883e-02
1.052000000000000000e+03 6.815692138671875000e+01 1.377069282531738281e+01 1.918819397687911987e-01 2.925181627273559570e+00 9.351190328598022461e-01 9.492837190628051758e-01
1.053000000000000000e+03 6.819944763183593750e+01 8.125536918640136719e+00 -4.665688574314117432e-01 3.385966777801513672e+00 8.758193850517272949e-01 4.051152765750885010e-01
1.054000000000000000e+03 6.885260772705078125e+01 5.508747577667236328e+00 -4.233780801296234131e-01 3.926848888397216797e+00 1.051041245460510254e+00 3.443378508090972900e-01
1.055000000000000000e+03 7.569102478027343750e+01 6.083559989929199219e+00 -2.471770048141479492e-01 8.130674362182617188e+00 2.365049123764038086e+00 -1.471387296915054321e-01
1.056000000000000000e+03 7.563861846923828125e+01 7.526751995086669922e+00 -3.946797847747802734e-01 8.164630889892578125e+00 2.330985307693481445e+00 -2.794989347457885742e-01
1.057000000000000000e+03 7.010394287109375000e+01 9.599160194396972656e+00 -4.865571856498718262e-01 4.995918273925781250e+00 1.352808356285095215e+00 4.288977980613708496e-01
1.058000000000000000e+03 7.442960357666015625e+01 3.283787488937377930e+00 -1.966313570737838745e-01 7.310836315155029297e+00 2.134261608123779297e+00 8.060228824615478516e-02
1.059000000000000000e+03 5.401568222045898438e+01 -7.193663120269775391e-01 -1.492187261581420898e+00 -2.571685612201690674e-01 -5.248067378997802734e-01 -1.207195743918418884e-01
1.060000000000000000e+03 6.823091888427734375e+01 -1.967947721481323242e+00 -5.258471891283988953e-02 3.450734853744506836e+00 1.019445061683654785e+00 1.929505914449691772e-01
1.061000000000000000e+03 7.245365142822265625e+01 -2.871609687805175781e+00 -1.465623378753662109e-01 6.009779453277587891e+00 1.758965134620666504e+00 2.273236662149429321e-01
1.062000000000000000e+03 7.559754180908203125e+01 -2.122454404830932617e+00 -8.048184216022491455e-02 7.800724506378173828e+00 2.316072702407836914e+00 2.038607746362686157e-01
1.063000000000000000e+03 4.075041294097900391e+00 -3.549023056030273438e+01 1.760059967637062073e-02 -6.180818080902099609e-01 -1.801443547010421753e-01 -1.007632445544004440e-02
1.064000000000000000e+03 9.930618286132812500e+00 -3.554832077026367188e+01 6.039078906178474426e-02 -1.782273501157760620e-01 -3.535097092390060425e-02 -2.511872351169586182e-02
1.065000000000000000e+03 7.938339996337890625e+01 2.375627517700195312e+01 -3.945682570338249207e-02 5.175718307495117188e+00 1.540878534317016602e+00 7.168106436729431152e-01
1.066000000000000000e+03 6.741283416748046875e+01 2.778087997436523438e+01 -5.300160124897956848e-02 2.871137142181396484e+00 8.454406261444091797e-01 -1.373386144638061523e+00
1.067000000000000000e+03 4.907107543945312500e+01 2.379587173461914062e+01 -6.075524091720581055e-01 1.245634928345680237e-01 -1.448966711759567261e-01 1.842818856239318848e-01
1.068000000000000000e+03 4.535784912109375000e+01 2.358392524719238281e+01 -3.845781385898590088e-01 1.193808466196060181e-01 -7.955918461084365845e-02 1.640814244747161865e-01
1.069000000000000000e+03 3.426980972290039062e+01 2.571426773071289062e+01 -9.429015964269638062e-02 -4.477741196751594543e-02 -4.172027111053466797e-02 1.096894219517707825e-01
1.070000000000000000e+03 2.201704025268554688e+01 2.379042434692382812e+01 -6.762664765119552612e-02 -1.565692201256752014e-02 -2.498507127165794373e-02 4.572084546089172363e-02
1.071000000000000000e+03 1.475386714935302734e+01 2.365476417541503906e+01 -1.743313297629356384e-02 -4.594749305397272110e-03 -6.608364637941122055e-03 9.770160540938377380e-03
1.072000000000000000e+03 1.293663787841796875e+01 2.394945144653320312e+01 -1.337720360606908798e-02 -5.686811171472072601e-03 -5.719204433262348175e-03 8.444253355264663696e-03
1.073000000000000000e+03 1.008440113067626953e+01 2.482254981994628906e+01 -8.165383711457252502e-03 -6.265514995902776718e-03 -4.329269286245107651e-03 6.323658395558595657e-03
1.074000000000000000e+03 5.169540882110595703e+00 2.465867805480957031e+01 -1.672929967753589153e-03 -1.960851019248366356e-03 -1.090134261175990105e-03 2.216443885117769241e-03
1.075000000000000000e+03 7.086890935897827148e-01 2.337582206726074219e+01 8.771652210270985961e-05 5.578658077865839005e-03 1.699912361800670624e-03 6.085414133849553764e-05
1.076000000000000000e+03 7.938037872314453125e+01 2.793161964416503906e+01 -7.002046704292297363e-02 8.331100463867187500e+00 2.478323936462402344e+00 2.270477414131164551e-01
1.077000000000000000e+03 7.600331878662109375e+01 2.651410865783691406e+01 -1.004105091094970703e+00 8.692380905151367188e+00 2.306482791900634766e+00 8.485543727874755859e-01
1.078000000000000000e+03 6.869490814208984375e+01 2.972802352905273438e+01 -1.053094044327735901e-01 3.816152572631835938e+00 1.113252997398376465e+00 -1.267731547355651855e+00
1.079000000000000000e+03 7.255670166015625000e+01 3.080583190917968750e+01 -4.441677927970886230e-01 6.368058204650878906e+00 1.777167201042175293e+00 -6.613082885742187500e-01
1.080000000000000000e+03 6.268418884277343750e+01 2.803224182128906250e+01 -6.211358308792114258e-02 4.387742578983306885e-01 1.129982024431228638e-01 -2.368330508470535278e-01
1.081000000000000000e+03 5.655033493041992188e+01 2.984198760986328125e+01 7.513835281133651733e-02 -1.299348473548889160e-02 1.864345930516719818e-02 4.028992056846618652e-01
1.082000000000000000e+03 5.408515930175781250e+01 2.993188285827636719e+01 3.225428983569145203e-02 -3.219032660126686096e-02 1.918913767440244555e-05 4.903896450996398926e-01
1.083000000000000000e+03 5.084627532958984375e+01 2.728347015380859375e+01 -3.575737178325653076e-01 2.544930577278137207e-02 -9.963732957839965820e-02 4.396730661392211914e-01
1.084000000000000000e+03 4.262804794311523438e+01 2.854036521911621094e+01 -9.362606704235076904e-02 9.748586453497409821e-03 -2.516324445605278015e-02 2.577452063560485840e-01
1.085000000000000000e+03 3.273619842529296875e+01 2.972697067260742188e+01 7.052535191178321838e-03 -8.586654067039489746e-02 -2.364420145750045776e-02 1.191449761390686035e-01
1.086000000000000000e+03 2.648280525207519531e+01 2.606573104858398438e+01 -6.140498444437980652e-02 -5.931513383984565735e-02 -3.621603548526763916e-02 8.464341610670089722e-02
1.087000000000000000e+03 2.163186264038085938e+01 2.951393508911132812e+01 -8.176338858902454376e-03 -4.994150996208190918e-02 -1.743535511195659637e-02 5.687244236469268799e-02
1.088000000000000000e+03 1.910052299499511719e+01 2.833056068420410156e+01 -1.753423362970352173e-02 -3.131151571869850159e-02 -1.465372461825609207e-02 4.380731657147407532e-02
1.089000000000000000e+03 1.423265933990478516e+01 2.952907752990722656e+01 -7.520361803472042084e-03 -2.115792594850063324e-02 -8.603486232459545135e-03 2.372719533741474152e-02
1.090000000000000000e+03 1.090323829650878906e+01 2.905481529235839844e+01 -5.696454551070928574e-03 -1.440421771258115768e-02 -6.030201446264982224e-03 1.442671008408069611e-02
1.091000000000000000e+03 9.475235939025878906e+00 2.816123199462890625e+01 -4.850137978792190552e-03 -1.103508006781339645e-02 -4.765565507113933563e-03 1.006958354264497757e-02
1.092000000000000000e+03 7.340223789215087891e-01 2.621736335754394531e+01 4.456020906218327582e-05 4.706530366092920303e-03 1.425327151082456112e-03 4.106543201487511396e-04
1.093000000000000000e+03 7.934563446044921875e+01 3.203854370117187500e+01 -3.175709396600723267e-02 8.888133049011230469e+00 2.656912803649902344e+00 -4.997868090867996216e-03
1.094000000000000000e+03 7.692728424072265625e+01 3.071211242675781250e+01 -2.519414424896240234e-01 8.023706436157226562e+00 2.331529617309570312e+00 7.428593188524246216e-02
1.095000000000000000e+03 6.732035064697265625e+01 3.546740722656250000e+01 5.137966871261596680e-01 3.347332715988159180e+00 1.158338785171508789e+00 -5.281205773353576660e-01
1.096000000000000000e+03 6.402889251708984375e+01 3.156210517883300781e+01 4.689532816410064697e-01 1.658643007278442383e+00 6.382789015769958496e-01 -5.010508298873901367e-01
1.097000000000000000e+03 2.561947822570800781e+01 3.131556892395019531e+01 1.635733805596828461e-02 -8.145204186439514160e-02 -1.952841132879257202e-02 7.387509196996688843e-02
1.098000000000000000e+03 2.096913719177246094e+01 3.250725936889648438e+01 1.497709564864635468e-02 -6.264436990022659302e-02 -1.430018153041601181e-02 5.101921409368515015e-02
1.099000000000000000e+03 1.796584129333496094e+01 3.346554565429687500e+01 1.176503300666809082e-02 -5.057797953486442566e-02 -1.164388377219438553e-02 3.492297604680061340e-02
1.100000000000000000e+03 1.227296352386474609e+01 3.168849945068359375e+01 -5.785129615105688572e-04 -2.300055697560310364e-02 -7.073721382766962051e-03 1.843561045825481415e-02
1.101000000000000000e+03 5.368794441223144531e+00 3.063447380065917969e+01 -7.199019892141222954e-04 -7.916303351521492004e-03 -2.590861404314637184e-03 6.127172615379095078e-03
1.102000000000000000e+03 7.435241937637329102e-01 3.048807716369628906e+01 -1.207605964737012982e-04 1.054789754562079906e-03 2.802087401505559683e-04 8.151393267326056957e-04
1.103000000000000000e+03 9.329654693603515625e+00 3.432262802124023438e+01 3.098803572356700897e-03 -2.148916758596897125e-02 -5.517108831554651260e-03 1.143061555922031403e-02
1.104000000000000000e+03 5.245731353759765625e+00 3.386881256103515625e+01 4.772506654262542725e-04 -1.094221230596303940e-02 -3.139488399028778076e-03 6.018180865794420242e-03
1.105000000000000000e+03 6.974107623100280762e-01 3.332138061523437500e+01 -1.208393150591291487e-04 -2.272334415465593338e-03 -7.179521489888429642e-04 8.700269972905516624e-04
1.106000000000000000e+03 7.894772338867187500e+01 3.742344665527343750e+01 -6.260366644710302353e-04 8.290977478027343750e+00 2.487105369567871094e+00 -1.497791707515716553e-01
1.107000000000000000e+03 7.585769653320312500e+01 3.582839202880859375e+01 -3.037265874445438385e-02 7.181341648101806641e+00 2.145290613174438477e+00 -1.530824601650238037e-01
1.108000000000000000e+03 6.354699730873107910e-01 3.742779541015625000e+01 3.315105277579277754e-04 -7.175447884947061539e-03 -2.053181175142526627e-03 5.862756515853106976e-04
1.109000000000000000e+03 4.084679126739501953e+00 1.344699192047119141e+01 6.074557895772159100e-04 3.907971840817481279e-04 2.994758833665400743e-04 -1.007354701869189739e-03
1.110000000000000000e+03 7.844040870666503906e+00 1.405596923828125000e+01 1.028560334816575050e-03 -1.603787182830274105e-03 -1.725680340314283967e-04 -8.918600506149232388e-04
1.111000000000000000e+03 1.320846176147460938e+01 1.458594703674316406e+01 1.619423390366137028e-03 -2.232092199847102165e-03 -1.838006428442895412e-04 9.789336472749710083e-04
1.112000000000000000e+03 6.149448156356811523e-01 1.632210159301757812e+01 -2.613920369185507298e-04 3.478874918073415756e-03 9.652448352426290512e-04 -3.155192534904927015e-04
1.113000000000000000e+03 4.007314682006835938e+00 1.093387126922607422e+01 5.935147055424749851e-04 2.824124530889093876e-04 2.627781650517135859e-04 -7.427507662214338779e-04
1.114000000000000000e+03 8.018037796020507812e+00 1.111562728881835938e+01 5.025533610023558140e-04 -8.215850684791803360e-04 -9.570951078785583377e-05 -5.498784012161195278e-04
1.115000000000000000e+03 1.341944980621337891e+01 1.001526737213134766e+01 9.164948714897036552e-04 -2.483358257450163364e-04 2.004477137234061956e-04 8.822756935842335224e-04
1.116000000000000000e+03 5.859649181365966797e-01 1.351341629028320312e+01 -2.707978419493883848e-04 2.169179497286677361e-03 5.695145227946341038e-04 -2.574695390649139881e-04
1.117000000000000000e+03 7.994794368743896484e+00 6.023814678192138672e+00 1.686585746938362718e-04 -2.221101894974708557e-04 -1.603548298589885235e-05 -2.878381928894668818e-04
1.118000000000000000e+03 1.267681026458740234e+01 8.481060981750488281e+00 7.071569561958312988e-04 -2.541959984228014946e-04 1.358882873319089413e-04 5.910224281251430511e-04
1.119000000000000000e+03 1.537032413482666016e+01 8.165963172912597656e+00 -1.276052353205159307e-04 7.302252925001084805e-05 -1.637481182115152478e-05 3.616658505052328110e-04
1.120000000000000000e+03 5.867627859115600586e-01 9.295129776000976562e+00 2.340568171348422766e-04 8.004074916243553162e-04 3.103392955381423235e-04 -1.321760792052373290e-04
1.121000000000000000e+03 9.082339286804199219e+00 1.846593022346496582e+00 2.059764374280348420e-04 -6.366494926624000072e-05 4.269344935892149806e-05 -4.865378286922350526e-05
1.122000000000000000e+03 1.058439826965332031e+01 1.759362936019897461e+00 2.043815038632601500e-04 -5.919805334997363389e-05 4.355503551778383553e-05 7.912783075880724937e-06
1.123000000000000000e+03 2.001008987426757812e+01 3.977415561676025391e+00 -4.517405614024028182e-05 5.227145720709813759e-06 -1.198407244373811409e-05 -8.301695925183594227e-05
1.124000000000000000e+03 1.603461074829101562e+01 2.218655347824096680e+00 1.789749949239194393e-04 3.413136073504574597e-05 6.393190415110439062e-05 3.628051854320801795e-05
1.125000000000000000e+03 5.825509428977966309e-01 6.478882789611816406e+00 1.726635673549026251e-04 3.169989795424044132e-04 1.468987611588090658e-04 -6.922466127434745431e-05
1.126000000000000000e+03 4.240534973144531250e+01 1.442417335510253906e+01 -8.450655639171600342e-02 1.080384012311697006e-02 -2.211081422865390778e-02 5.251907277852296829e-03
1.127000000000000000e+03 4.635460662841796875e+01 1.496037769317626953e+01 -8.573389053344726562e-02 -7.364907301962375641e-03 -2.792963944375514984e-02 -3.206978738307952881e-02
1.128000000000000000e+03 4.449608612060546875e+01 9.589097976684570312e+00 3.758737351745367050e-03 -9.271400980651378632e-03 -1.653798972256481647e-03 -9.761604596860706806e-04
1.129000000000000000e+03 4.735233306884765625e+01 9.633435249328613281e+00 1.508383778855204582e-03 -4.477199981920421124e-04 3.181991050951182842e-04 5.870644934475421906e-03
1.130000000000000000e+03 4.348160934448242188e+01 7.802972793579101562e+00 4.155990201979875565e-03 -1.244108076207339764e-03 8.735646260902285576e-04 -3.725488437339663506e-03
1.131000000000000000e+03 1.426970577239990234e+01 -2.475508880615234375e+01 4.124143421649932861e-01 3.801240622997283936e-01 2.377615272998809814e-01 -3.893938958644866943e-01
1.132000000000000000e+03 6.362007141113281250e+01 -1.156295299530029297e+01 -1.914356827735900879e+00 -1.483339518308639526e-01 -6.188072562217712402e-01 4.288549721240997314e-01
1.133000000000000000e+03 2.106360244750976562e+01 -1.266579437255859375e+01 -1.176890283823013306e-01 7.515338063240051270e-02 -1.276069413870573044e-02 -1.713158041238784790e-01
1.134000000000000000e+03 2.471167755126953125e+01 -1.335733890533447266e+01 3.211981058120727539e-01 7.846407592296600342e-02 1.198986545205116272e-01 -2.807476818561553955e-01
1.135000000000000000e+03 2.867873764038085938e+01 -1.482383918762207031e+01 1.232668161392211914e+00 6.729957461357116699e-02 3.899902999401092529e-01 -2.497152835130691528e-01
1.136000000000000000e+03 3.253463745117187500e+01 -1.451238441467285156e+01 1.332588672637939453e+00 3.107212483882904053e-01 4.929929673671722412e-01 -3.812516033649444580e-01
1.137000000000000000e+03 3.606888580322265625e+01 -1.907459449768066406e+01 1.301805824041366577e-01 -4.268071949481964111e-01 -8.898798376321792603e-02 -1.785027831792831421e-01
1.138000000000000000e+03 3.625784301757812500e+01 -2.174981117248535156e+01 -2.339407056570053101e-02 -8.990821838378906250e-01 -2.767428755760192871e-01 -8.767358958721160889e-02
1.139000000000000000e+03 3.594561004638671875e+01 -2.455646705627441406e+01 -1.378826051950454712e-01 -1.088865160942077637e+00 -3.680243194103240967e-01 -2.756081223487854004e-01
1.140000000000000000e+03 3.336813354492187500e+01 -2.865308189392089844e+01 -1.855182349681854248e-01 -3.379815220832824707e-01 -1.570499390363693237e-01 -2.597450911998748779e-01
1.141000000000000000e+03 3.220130920410156250e+01 -2.950548744201660156e+01 -9.595538675785064697e-02 -2.270778715610504150e-01 -9.690997749567031860e-02 -1.730726063251495361e-01
1.142000000000000000e+03 2.949901771545410156e+01 -3.064746856689453125e+01 1.809814423322677612e-01 -4.663632810115814209e-02 4.030353575944900513e-02 -6.755813956260681152e-02
1.143000000000000000e+03 2.508525848388671875e+01 -3.075581932067871094e+01 4.858613610267639160e-01 4.514674097299575806e-02 1.593024283647537231e-01 -9.304800629615783691e-02
1.144000000000000000e+03 2.366059684753417969e+01 -3.053629875183105469e+01 5.516886711120605469e-01 6.011835113167762756e-02 1.835421025753021240e-01 -1.466086357831954956e-01
1.145000000000000000e+03 2.094161415100097656e+01 -2.979314422607421875e+01 6.427552103996276855e-01 1.365852355957031250e-01 2.338021248579025269e-01 -2.555955648422241211e-01
1.146000000000000000e+03 1.719622993469238281e+01 -2.766245079040527344e+01 5.483863353729248047e-01 4.009559750556945801e-01 2.848027050495147705e-01 -4.319573342800140381e-01
1.147000000000000000e+03 1.241225624084472656e+01 -2.284058189392089844e+01 2.961433529853820801e-01 2.781752645969390869e-01 1.722955852746963501e-01 -3.031097650527954102e-01
1.148000000000000000e+03 1.166219711303710938e+01 -1.944846534729003906e+01 -9.081783704459667206e-03 -3.282791674137115479e-01 -1.012082919478416443e-01 -9.743528813123703003e-02
1.149000000000000000e+03 1.412505149841308594e+01 -1.313106441497802734e+01 -1.167135119438171387e+00 -6.988665461540222168e-01 -5.598005056381225586e-01 -8.141441941261291504e-01
1.150000000000000000e+03 5.867783737182617188e+01 -1.041898918151855469e+01 -8.055980801582336426e-01 -1.609065532684326172e-01 -2.899513840675354004e-01 4.140394628047943115e-01
1.151000000000000000e+03 6.245819091796875000e+01 -1.032587051391601562e+01 -9.861891269683837891e-01 -7.225321978330612183e-02 -3.175326883792877197e-01 5.133707523345947266e-01
1.152000000000000000e+03 6.736347961425781250e+01 -1.394728660583496094e+01 2.396464496850967407e-01 4.138422012329101562e+00 1.313420534133911133e+00 -9.822580218315124512e-01
1.153000000000000000e+03 6.832135009765625000e+01 -1.718653106689453125e+01 3.885401785373687744e-01 9.283311843872070312e+00 2.901555538177490234e+00 -3.866668045520782471e-01
1.154000000000000000e+03 6.421694946289062500e+01 -2.578707122802734375e+01 6.530655026435852051e-01 1.397719025611877441e+00 6.152353882789611816e-01 9.677170515060424805e-01
1.155000000000000000e+03 6.210955429077148438e+01 -2.763706588745117188e+01 9.760361909866333008e-02 5.206271409988403320e-01 1.854692250490188599e-01 3.153045773506164551e-01
1.156000000000000000e+03 6.097859191894531250e+01 -2.850760459899902344e+01 -1.522306948900222778e-01 2.796820700168609619e-01 3.823540732264518738e-02 1.321238577365875244e-01
1.157000000000000000e+03 5.834491729736328125e+01 -2.968849372863769531e+01 -5.226143002510070801e-01 -1.347170444205403328e-03 -1.571884304285049438e-01 -1.047027260065078735e-01
1.158000000000000000e+03 5.516587448120117188e+01 -3.224745941162109375e+01 3.130775094032287598e-01 1.624576002359390259e-01 1.426605284214019775e-01 -3.190124928951263428e-01
1.159000000000000000e+03 4.915435791015625000e+01 -2.666735458374023438e+01 5.214624404907226562e-01 7.747280597686767578e-01 3.888571560382843018e-01 -5.957252383232116699e-01
1.160000000000000000e+03 4.824151611328125000e+01 -2.569280433654785156e+01 5.652687549591064453e-01 9.204590916633605957e-01 4.457183480262756348e-01 -7.240871787071228027e-01
1.161000000000000000e+03 4.643270492553710938e+01 -1.592103862762451172e+01 8.519899100065231323e-02 1.391570329666137695e+00 4.430308043956756592e-01 2.026084214448928833e-01
1.162000000000000000e+03 4.672147750854492188e+01 -1.456100654602050781e+01 1.689800322055816650e-01 1.384670019149780273e+00 4.660950303077697754e-01 3.458549678325653076e-01
1.163000000000000000e+03 6.894948577880859375e+01 2.104396057128906250e+01 -4.879129230976104736e-01 8.008361458778381348e-01 9.387696534395217896e-02 -1.031847223639488220e-01
1.164000000000000000e+03 6.985167694091796875e+01 2.110489082336425781e+01 5.188537240028381348e-01 1.143156051635742188e+00 4.986029267311096191e-01 -9.877688288688659668e-01
1.165000000000000000e+03 7.210276031494140625e+01 2.149669647216796875e+01 7.858664393424987793e-01 1.127993202209472656e+01 3.619739532470703125e+00 -5.426280021667480469e+00
1.166000000000000000e+03 7.281418609619140625e+01 2.128183364868164062e+01 -2.333494722843170166e-01 1.736562347412109375e+01 5.139681816101074219e+00 -3.236164569854736328e+00
1.167000000000000000e+03 7.303058624267578125e+01 2.126260375976562500e+01 -1.801692098379135132e-01 1.803950119018554688e+01 5.357799530029296875e+00 -2.122448682785034180e+00
1.168000000000000000e+03 7.399821472167968750e+01 2.066767501831054688e+01 4.364784717559814453e+00 1.702445983886718750e+01 6.416773319244384766e+00 2.740130901336669922e+00
1.169000000000000000e+03 7.384086608886718750e+01 2.085211944580078125e+01 3.069472551345825195e+00 1.780761528015136719e+01 6.263125896453857422e+00 2.445963144302368164e+00
1.170000000000000000e+03 7.409342956542968750e+01 2.044791412353515625e+01 5.945178508758544922e+00 1.627295303344726562e+01 6.665439128875732422e+00 2.820296049118041992e+00
1.171000000000000000e+03 7.420111846923828125e+01 2.003511428833007812e+01 8.223897933959960938e+00 1.514311599731445312e+01 7.010104179382324219e+00 1.956612586975097656e+00
1.172000000000000000e+03 7.430722808837890625e+01 1.939882278442382812e+01 8.634852409362792969e+00 1.440593719482421875e+01 6.912236690521240234e+00 -9.796979427337646484e-01
1.173000000000000000e+03 7.419046020507812500e+01 1.897018241882324219e+01 7.428925514221191406e+00 1.544472694396972656e+01 6.862095832824707031e+00 -2.559327363967895508e+00
1.174000000000000000e+03 7.417935180664062500e+01 1.811102676391601562e+01 2.675393342971801758e+00 1.586140727996826172e+01 5.561040401458740234e+00 -2.665841579437255859e+00
1.175000000000000000e+03 7.350519561767578125e+01 1.812382125854492188e+01 1.521298527717590332e+00 1.868457794189453125e+01 6.061762809753417969e+00 -1.181954026222229004e+00
1.176000000000000000e+03 7.330908966064453125e+01 1.801944923400878906e+01 8.069634437561035156e-01 1.881740570068359375e+01 5.887310504913330078e+00 -1.501858048141002655e-02
1.177000000000000000e+03 7.075840759277343750e+01 1.773466682434082031e+01 2.084688425064086914e+00 3.188571691513061523e+00 1.581978082656860352e+00 2.717043399810791016e+00
1.178000000000000000e+03 7.039759063720703125e+01 1.743290138244628906e+01 1.877289175987243652e+00 2.752091407775878906e+00 1.388814210891723633e+00 2.358147621154785156e+00
1.179000000000000000e+03 7.012484741210937500e+01 1.771145057678222656e+01 1.694569945335388184e+00 1.729151606559753418e+00 1.027116417884826660e+00 1.632502913475036621e+00
1.180000000000000000e+03 6.798584747314453125e+01 1.691585731506347656e+01 6.783814728260040283e-02 -3.926114141941070557e-01 -9.743198007345199585e-02 2.304099500179290771e-01
1.181000000000000000e+03 6.832170867919921875e+01 1.511417388916015625e+01 1.538279950618743896e-01 1.766517639160156250e+00 5.761036872863769531e-01 8.393035531044006348e-01
1.182000000000000000e+03 6.782508850097656250e+01 1.235853481292724609e+01 2.764440476894378662e-01 3.169669151306152344e+00 1.033833980560302734e+00 8.866695165634155273e-01
1.183000000000000000e+03 6.723519897460937500e+01 1.103952598571777344e+01 2.757191956043243408e-01 2.539650917053222656e+00 8.446110486984252930e-01 7.528775334358215332e-01
1.184000000000000000e+03 6.135479354858398438e+01 5.127053737640380859e+00 -8.035555481910705566e-01 -5.233291387557983398e-01 -3.980654180049896240e-01 -6.721341609954833984e-01
1.185000000000000000e+03 6.033526611328125000e+01 4.232287406921386719e+00 -7.489097118377685547e-01 -5.699251294136047363e-01 -3.956504464149475098e-01 -6.778864264488220215e-01
1.186000000000000000e+03 5.482179641723632812e+01 9.254072606563568115e-02 -1.548398852348327637e+00 -2.667900919914245605e-01 -5.445566773414611816e-01 -3.714365661144256592e-01
1.187000000000000000e+03 4.862887573242187500e+01 -1.421866714954376221e-01 -1.085396647453308105e+00 1.999455988407135010e-01 -2.656353116035461426e-01 3.912566229701042175e-02
1.188000000000000000e+03 4.710223388671875000e+01 -9.588659554719924927e-02 -9.347956180572509766e-01 1.475425958633422852e-01 -2.361759096384048462e-01 -8.081595599651336670e-02
1.189000000000000000e+03 4.557132339477539062e+01 1.182233542203903198e-02 -7.980888485908508301e-01 1.120892390608787537e-01 -2.057998776435852051e-01 -2.286497354507446289e-01
1.190000000000000000e+03 4.480237579345703125e+01 7.412974536418914795e-02 -7.081357240676879883e-01 1.004383042454719543e-01 -1.823092252016067505e-01 -2.745300531387329102e-01
1.191000000000000000e+03 4.330393600463867188e+01 2.255288362503051758e-01 -4.857644140720367432e-01 -2.450132742524147034e-02 -1.530797183513641357e-01 -3.182071149349212646e-01
1.192000000000000000e+03 4.124719238281250000e+01 -1.361894845962524414e+00 -6.550759673118591309e-01 -6.286100149154663086e-01 -3.851057887077331543e-01 -6.243426203727722168e-01
1.193000000000000000e+03 3.761918640136718750e+01 -4.026363372802734375e+00 -2.241328477859497070e+00 -2.717539668083190918e-01 -7.539247274398803711e-01 -7.316185235977172852e-01
1.194000000000000000e+03 3.367774200439453125e+01 -5.254186153411865234e+00 -2.414451837539672852e+00 -2.694755494594573975e-01 -8.051782250404357910e-01 -4.892973899841308594e-01
1.195000000000000000e+03 2.686078453063964844e+01 -2.759591817855834961e+00 -2.788992226123809814e-01 -1.031001210212707520e-01 -1.145998015999794006e-01 1.608364284038543701e-01
1.196000000000000000e+03 2.329725646972656250e+01 -3.275681257247924805e+00 -3.513860702514648438e-01 6.829156726598739624e-02 -8.492834866046905518e-02 -3.144992515444755554e-02
1.197000000000000000e+03 2.243712425231933594e+01 -3.400861501693725586e+00 -3.093683421611785889e-01 5.332362651824951172e-02 -7.681341469287872314e-02 -8.473223447799682617e-02
1.198000000000000000e+03 2.158518218994140625e+01 -3.463494062423706055e+00 -2.725289762020111084e-01 4.148339480161666870e-02 -6.931367516517639160e-02 -1.222537234425544739e-01
1.199000000000000000e+03 1.829299163818359375e+01 -3.306082248687744141e+00 -3.932284563779830933e-02 1.939039491117000580e-02 -5.979734938591718674e-03 -1.831055730581283569e-01
1.200000000000000000e+03 1.909857368469238281e+01 -3.383373260498046875e+00 -1.016781255602836609e-01 3.091608174145221710e-02 -2.122861333191394806e-02 -1.880237460136413574e-01
1.201000000000000000e+03 1.673569679260253906e+01 -3.080262660980224609e+00 7.667108625173568726e-02 7.969211786985397339e-03 2.539208903908729553e-02 -1.544125229120254517e-01
1.202000000000000000e+03 1.521189594268798828e+01 -2.826495885848999023e+00 1.668531298637390137e-01 -6.922237109392881393e-03 4.797926917672157288e-02 -1.116805821657180786e-01
1.203000000000000000e+03 1.227030849456787109e+01 -2.278728723526000977e+00 2.448754608631134033e-01 -2.833516895771026611e-02 6.496208906173706055e-02 -2.050502039492130280e-02
1.204000000000000000e+03 1.298990726470947266e+01 -2.406281471252441406e+00 2.412791401147842407e-01 -2.492211014032363892e-02 6.490711122751235962e-02 -3.823859989643096924e-02
1.205000000000000000e+03 1.372618198394775391e+01 -2.542089700698852539e+00 2.243387997150421143e-01 -2.018242143094539642e-02 6.124691292643547058e-02 -6.341962516307830811e-02
1.206000000000000000e+03 1.016214275360107422e+01 -1.931363821029663086e+00 2.368144243955612183e-01 -3.641352429986000061e-02 6.012027338147163391e-02 2.177505940198898315e-02
1.207000000000000000e+03 7.189326763153076172e+00 -1.860249519348144531e+00 1.620150804519653320e-01 -1.070199534296989441e-02 4.539392516016960144e-02 6.556061655282974243e-02
1.208000000000000000e+03 6.431015491485595703e+00 -1.857779979705810547e+00 1.425384581089019775e-01 -7.531432900577783585e-03 4.050210863351821899e-02 7.175856083631515503e-02
1.209000000000000000e+03 7.945745468139648438e+00 -1.859842181205749512e+00 1.816525608301162720e-01 -1.920004561543464661e-02 4.873575270175933838e-02 5.589973926544189453e-02
1.210000000000000000e+03 2.673872709274291992e+00 -1.943742752075195312e+00 4.023590311408042908e-02 1.847551390528678894e-02 1.761342585086822510e-02 5.430800840258598328e-02
1.211000000000000000e+03 1.923923373222351074e+00 -1.993968129158020020e+00 2.540421113371849060e-02 2.562406286597251892e-02 1.530848257243633270e-02 4.419764876365661621e-02
1.212000000000000000e+03 1.876231312751770020e+00 -5.101332664489746094e+00 3.629465820267796516e-03 1.029731333255767822e-01 3.198077902197837830e-02 7.641730457544326782e-02
1.213000000000000000e+03 1.169714450836181641e+00 -2.080824136734008789e+00 9.705892764031887054e-03 3.155748173594474792e-02 1.237901300191879272e-02 2.585880458354949951e-02
1.214000000000000000e+03 3.964114785194396973e-01 -2.172834157943725586e+00 3.305453108623623848e-03 2.045495621860027313e-02 7.128122728317975998e-03 8.501313626766204834e-03
1.215000000000000000e+03 9.089698195457458496e-01 -3.877417373657226562e+01 -3.067137906327843666e-03 -8.399009108543395996e-01 -2.528904080390930176e-01 1.158286072313785553e-02
1.216000000000000000e+03 9.262160658836364746e-01 -3.332155609130859375e+01 1.498985104262828827e-03 -8.873120546340942383e-01 -2.657439112663269043e-01 -3.179977647960186005e-03
1.217000000000000000e+03 9.501026868820190430e-01 -3.188566398620605469e+01 6.825110409408807755e-03 -8.780072331428527832e-01 -2.613546252250671387e-01 -9.226966649293899536e-03
1.218000000000000000e+03 8.099141120910644531e-01 -2.899927520751953125e+01 6.185653619468212128e-03 -8.304042816162109375e-01 -2.472655922174453735e-01 -1.965888962149620056e-02
1.219000000000000000e+03 7.110884189605712891e-01 -2.616591644287109375e+01 7.367402315139770508e-03 -7.255527377128601074e-01 -2.154556065797805786e-01 -3.636400401592254639e-02
1.220000000000000000e+03 1.929301261901855469e+00 -2.183849143981933594e+01 1.382840145379304886e-02 -3.639801740646362305e-01 -1.050455346703529358e-01 -1.723431050777435303e-01
1.221000000000000000e+03 1.890618562698364258e+00 -1.907099151611328125e+01 -4.961145110428333282e-03 -1.483052968978881836e-01 -4.597993195056915283e-02 -1.791829615831375122e-01
1.222000000000000000e+03 1.842051386833190918e+00 -1.207289218902587891e+01 -2.808131650090217590e-02 2.142611742019653320e-01 5.585395917296409607e-02 -1.978385820984840393e-02
1.223000000000000000e+03 5.953986644744873047e-01 -9.279234886169433594e+00 -4.617385100573301315e-03 3.184694051742553711e-01 9.415560960769653320e-02 1.806124858558177948e-02
1.224000000000000000e+03 1.797258138656616211e+00 -6.531487464904785156e+00 -3.499670652672648430e-03 1.493058800697326660e-01 4.374186322093009949e-02 7.409545779228210449e-02
1.225000000000000000e+03 1.358253598213195801e+00 -3.228055953979492188e+00 9.378186427056789398e-03 6.041069328784942627e-02 2.093666419386863708e-02 5.009832605719566345e-02
1.226000000000000000e+03 7.701792907714843750e+01 3.910269927978515625e+01 -1.424085907638072968e-02 7.841536045074462891e+00 2.348188638687133789e+00 -2.533833682537078857e-01
1.227000000000000000e+03 7.604406738281250000e+01 3.744082260131835938e+01 -1.444506645202636719e-02 7.410412311553955078e+00 2.218790054321289062e+00 -1.510226279497146606e-01
1.228000000000000000e+03 7.930587768554687500e+01 3.473642730712890625e+01 -1.749086566269397736e-02 8.718671798706054688e+00 2.610354423522949219e+00 -5.189597606658935547e-02
1.229000000000000000e+03 7.938701629638671875e+01 2.930035018920898438e+01 -2.565138787031173706e-02 8.695442199707031250e+00 2.600937366485595703e+00 1.123980283737182617e-01
1.230000000000000000e+03 7.814105224609375000e+01 2.809129142761230469e+01 -2.415483444929122925e-01 8.167528152465820312e+00 2.377794027328491211e+00 4.735006093978881836e-01
1.231000000000000000e+03 7.800133514404296875e+01 2.535095024108886719e+01 -4.198138415813446045e-01 7.689777374267578125e+00 2.180989027023315430e+00 1.321506977081298828e+00
1.232000000000000000e+03 7.836754608154296875e+01 2.237161064147949219e+01 1.608029752969741821e-01 5.811455249786376953e+00 1.791677474975585938e+00 1.630108475685119629e+00
1.233000000000000000e+03 7.953278350830078125e+01 1.953116416931152344e+01 1.316130310297012329e-01 1.506355881690979004e+00 4.913906753063201904e-01 1.170122716575860977e-02
1.234000000000000000e+03 7.867331695556640625e+01 1.820447540283203125e+01 4.992120265960693359e-01 4.322926998138427734e+00 1.446641683578491211e+00 -1.001192092895507812e+00
1.235000000000000000e+03 7.846504211425781250e+01 1.542894744873046875e+01 -8.775716274976730347e-02 6.692061901092529297e+00 1.981291413307189941e+00 -1.688271641731262207e+00
1.236000000000000000e+03 7.844159698486328125e+01 1.138833427429199219e+01 -1.732761263847351074e-01 8.774767875671386719e+00 2.580447435379028320e+00 -7.748469710350036621e-01
1.237000000000000000e+03 7.945570373535156250e+01 9.853856086730957031e+00 -3.335194662213325500e-02 9.657732009887695312e+00 2.887313842773437500e+00 -2.257750630378723145e-01
1.238000000000000000e+03 7.826213836669921875e+01 8.693998336791992188e+00 -1.241177991032600403e-01 9.333404541015625000e+00 2.762785911560058594e+00 -3.714496791362762451e-01
1.239000000000000000e+03 7.815370178222656250e+01 5.876811504364013672e+00 -7.543351501226425171e-02 9.504640579223632812e+00 2.828762054443359375e+00 -1.307257264852523804e-01
1.240000000000000000e+03 7.938464355468750000e+01 2.889237165451049805e+00 -6.837370339781045914e-03 1.032843399047851562e+01 3.096478939056396484e+00 -2.564970403909683228e-02
1.241000000000000000e+03 7.938053894042968750e+01 1.029530987143516541e-01 -1.145878806710243225e-02 1.023597049713134766e+01 3.067353487014770508e+00 -2.447270380798727274e-04
1.242000000000000000e+03 7.814624023437500000e+01 -1.117574334144592285e+00 -2.679294720292091370e-02 9.391915321350097656e+00 2.809536695480346680e+00 7.810106873512268066e-02
1.243000000000000000e+03 7.813775634765625000e+01 -5.287272453308105469e+00 -3.425974026322364807e-02 9.118991851806640625e+00 2.725419521331787109e+00 1.681852191686630249e-01
1.244000000000000000e+03 7.938959503173828125e+01 -6.863475799560546875e+00 -4.157263785600662231e-03 9.641025543212890625e+00 2.891060352325439453e+00 6.489074230194091797e-02
1.245000000000000000e+03 7.819377899169921875e+01 -8.043805122375488281e+00 -4.196128994226455688e-02 8.840225219726562500e+00 2.639479160308837891e+00 2.681539058685302734e-01
1.246000000000000000e+03 7.822454071044921875e+01 -1.215856361389160156e+01 -3.747626394033432007e-02 8.143099784851074219e+00 2.431687116622924805e+00 4.599626958370208740e-01
1.247000000000000000e+03 7.712084197998046875e+01 -1.330300140380859375e+01 -5.432387813925743103e-02 7.679521083831787109e+00 2.287559032440185547e+00 7.056476473808288574e-01
1.248000000000000000e+03 7.939512634277343750e+01 -1.654276657104492188e+01 1.276757661253213882e-02 7.157228469848632812e+00 2.150998830795288086e+00 1.535356193780899048e-01
1.249000000000000000e+03 7.811808013916015625e+01 -1.759076499938964844e+01 7.840757817029953003e-02 6.991581439971923828e+00 2.120996713638305664e+00 3.642438948154449463e-01
1.250000000000000000e+03 7.818302917480468750e+01 -2.187204170227050781e+01 8.563715964555740356e-02 6.596116065979003906e+00 2.004525899887084961e+00 -2.144358586519956589e-03
1.251000000000000000e+03 7.939906311035156250e+01 -2.354239654541015625e+01 2.036221511662006378e-02 6.527243137359619141e+00 1.964281678199768066e+00 -4.554396495223045349e-02
1.252000000000000000e+03 7.938455963134765625e+01 -2.632893371582031250e+01 1.033662538975477219e-02 6.779200077056884766e+00 2.036861181259155273e+00 -7.379221916198730469e-02
1.253000000000000000e+03 7.796804809570312500e+01 -2.877251815795898438e+01 -3.917896002531051636e-02 6.801531791687011719e+00 2.028705835342407227e+00 -1.465458273887634277e-01
1.254000000000000000e+03 7.789622497558593750e+01 -3.014946937561035156e+01 -3.962728381156921387e-02 6.839709758758544922e+00 2.040024757385253906e+00 -1.039101332426071167e-01
1.255000000000000000e+03 7.781091308593750000e+01 -3.291112136840820312e+01 -3.224376589059829712e-02 6.829507350921630859e+00 2.039179086685180664e+00 -3.199919313192367554e-02
1.256000000000000000e+03 7.915694427490234375e+01 -3.601236343383789062e+01 -2.396984957158565521e-02 7.166336536407470703e+00 2.142709970474243164e+00 2.753491513431072235e-02
1.257000000000000000e+03 7.867138671875000000e+01 -4.012617111206054688e+01 -5.992537736892700195e-02 6.902111053466796875e+00 2.052655696868896484e+00 1.026213690638542175e-01
1.258000000000000000e+03 5.285348892211914062e-01 3.614648818969726562e+00 1.248971966560930014e-04 7.089050632202997804e-05 5.873631016584113240e-05 -2.310421768925152719e-05
1.259000000000000000e+03 1.712033867835998535e+00 5.113597393035888672e+00 2.209725207649171352e-04 1.894569577416405082e-04 1.231288479175418615e-04 -1.367071672575548291e-04
1.260000000000000000e+03 1.793041348457336426e+00 7.950472354888916016e+00 2.788540441542863846e-04 4.809475503861904144e-04 2.279404870932921767e-04 -2.803743118420243263e-04
1.261000000000000000e+03 5.810028910636901855e-01 1.070329475402832031e+01 -2.350039867451414466e-04 1.155388774350285530e-03 2.761154319159686565e-04 -1.679466804489493370e-04
1.262000000000000000e+03 1.736220240592956543e+00 1.212807941436767578e+01 -2.081534330500289798e-04 1.261413330212235451e-03 3.159779589623212814e-04 -5.814298638142645359e-04
1.263000000000000000e+03 1.800513148307800293e+00 1.488348484039306641e+01 -2.405123377684503794e-04 2.014848170801997185e-03 5.323007353581488132e-04 -8.008579025045037270e-04
1.264000000000000000e+03 1.921263098716735840e+00 1.765874481201171875e+01 -3.111934929620474577e-04 2.745733829215168953e-03 7.303621387109160423e-04 -8.469352615065872669e-04
1.265000000000000000e+03 7.230755686759948730e-01 2.479541397094726562e+01 -2.418865478830412030e-04 5.298265255987644196e-03 1.516913645900785923e-03 2.040366525761783123e-04
1.266000000000000000e+03 7.415711283683776855e-01 2.764024543762207031e+01 -2.104776940541341901e-04 3.770457580685615540e-03 1.067993929609656334e-03 5.503967404365539551e-04
1.267000000000000000e+03 2.250141382217407227e+00 2.906859588623046875e+01 -5.101010319776833057e-04 -6.539378082379698753e-04 -3.492116520646959543e-04 2.079154364764690399e-03
1.268000000000000000e+03 7.291317582130432129e-01 3.190862274169921875e+01 9.101346222450956702e-05 -5.499015096575021744e-04 -1.376664149574935436e-04 8.735121809877455235e-04
1.269000000000000000e+03 1.969008445739746094e+00 3.477007675170898438e+01 1.071047336154151708e-05 -6.010962650179862976e-03 -1.800075639039278030e-03 2.319245599210262299e-03
1.270000000000000000e+03 2.802336931228637695e+00 3.632329177856445312e+01 5.271671107038855553e-04 -8.885215967893600464e-03 -2.507414901629090309e-03 2.852710662409663200e-03
1.271000000000000000e+03 7.390260696411132812e-01 3.873635482788085938e+01 -1.067160847014747560e-04 -8.190171793103218079e-03 -2.489066217094659805e-03 4.301622102502733469e-04
1.272000000000000000e+03 9.821455001831054688e+00 1.831745982170104980e+00 3.486914793029427528e-04 7.758063475193921477e-06 1.069348654709756374e-04 2.906237568822689354e-05
1.273000000000000000e+03 9.156821250915527344e+00 2.540279150009155273e+00 3.808581968769431114e-04 -8.954422810347750783e-06 1.115711347665637732e-04 9.229078386852052063e-06
1.274000000000000000e+03 5.429334163665771484e+00 1.884217143058776855e+00 2.192821702919900417e-04 5.261693149805068970e-05 8.156973490258678794e-05 -1.097663916880264878e-04
1.275000000000000000e+03 3.240805387496948242e+00 1.903231739997863770e+00 2.093719558615703136e-05 -2.752536056505050510e-05 -1.976449311769101769e-06 -5.136130130267702043e-05
1.276000000000000000e+03 2.519438505172729492e+00 1.909569859504699707e+00 1.458991027902811766e-04 6.060335726942867041e-05 6.195073365233838558e-05 -8.233663538703694940e-05
1.277000000000000000e+03 1.187029719352722168e+00 2.022863626480102539e+00 -3.114949140581302345e-05 -1.208430330734699965e-05 -1.297013750445330516e-05 3.723261761479079723e-05
1.278000000000000000e+03 1.245077133178710938e+01 2.826536178588867188e+00 1.984081900445744395e-04 -4.525140320765785873e-05 4.594703568727709353e-05 6.154748552944511175e-05
1.279000000000000000e+03 1.288014793395996094e+01 1.337387323379516602e+00 2.522972354199737310e-04 4.566000825434457511e-06 7.705896859988570213e-05 1.005746526061557233e-04
1.280000000000000000e+03 1.436223602294921875e+01 1.078765511512756348e+00 2.093484799843281507e-04 2.693577016543713398e-06 6.361262057907879353e-05 7.832336996216326952e-05
1.281000000000000000e+03 1.719027519226074219e+01 1.234569072723388672e+00 -5.886044891667552292e-05 -4.736816663353238255e-06 -1.907917976495809853e-05 2.349327405681833625e-05
1.282000000000000000e+03 1.650922966003417969e+01 6.798743605613708496e-01 -1.572923611092846841e-05 -3.350139013491570950e-05 -1.476918805565219373e-05 3.708733856910839677e-05
1.283000000000000000e+03 1.790160179138183594e+01 4.941263794898986816e-01 -3.828215267276391387e-05 -3.993047721451148391e-05 -2.346378823858685791e-05 2.364185093028936535e-05
1.284000000000000000e+03 1.927310180664062500e+01 3.980922400951385498e-01 -4.175230060354806483e-05 -6.114672578405588865e-05 -3.086970900767482817e-05 -2.294555315529578365e-06
1.285000000000000000e+03 2.129565238952636719e+01 4.109500050544738770e-01 6.015283361193723977e-05 5.922561831539496779e-05 3.581353666959330440e-05 -2.450587817293126136e-05
1.286000000000000000e+03 2.332736778259277344e+01 6.940878629684448242e-01 1.895423702080734074e-05 -1.240141136804595590e-04 -3.151796408928930759e-05 -8.982690815173555166e-06
1.287000000000000000e+03 2.394951057434082031e+01 8.760469555854797363e-01 7.426898810081183910e-05 9.470470831729471684e-05 5.069210965302772820e-05 5.975531894364394248e-05
1.288000000000000000e+03 1.883735275268554688e+01 9.536082267761230469e+00 -7.101755472831428051e-04 8.035593782551586628e-04 2.801515074679628015e-05 -5.968839559500338510e-06
1.289000000000000000e+03 1.836468315124511719e+01 1.375815200805664062e+01 1.204629079438745975e-03 3.704656381160020828e-03 1.472785603255033493e-03 7.100079092197120190e-04
1.290000000000000000e+03 1.846339225769042969e+01 1.664347457885742188e+01 2.192768966779112816e-03 8.621682412922382355e-03 3.244335297495126724e-03 2.169780666008591652e-03
1.291000000000000000e+03 2.486630439758300781e+01 2.172514724731445312e+01 -1.370990127325057983e-01 -1.392798405140638351e-02 -4.530809819698333740e-02 3.760253265500068665e-02
1.292000000000000000e+03 2.938086128234863281e+01 2.070405197143554688e+01 -2.195180505514144897e-01 -4.111678898334503174e-02 -7.819045335054397583e-02 9.215937554836273193e-02
1.293000000000000000e+03 3.773054504394531250e+01 1.496163177490234375e+01 -7.724363356828689575e-02 -2.303416654467582703e-02 -3.008333966135978699e-02 4.636127501726150513e-02
1.294000000000000000e+03 4.073641204833984375e+01 1.163427352905273438e+01 -7.228355854749679565e-03 1.243785023689270020e-02 1.562848221510648727e-03 -4.655581898987293243e-03
1.295000000000000000e+03 4.234965515136718750e+01 7.581708908081054688e+00 1.781694707460701466e-03 4.534707404673099518e-03 1.894920598715543747e-03 -3.225499531254172325e-03
1.296000000000000000e+03 4.588039398193359375e+01 3.930956125259399414e+00 -1.213645809912122786e-04 3.293474946985952556e-05 -2.652894909260794520e-05 -1.881611533463001251e-04
1.297000000000000000e+03 4.662041091918945312e+01 3.859941244125366211e+00 5.117141990922391415e-04 2.056852390523999929e-04 2.152198430849239230e-04 1.357133714918745682e-05
1.298000000000000000e+03 4.666908645629882812e+01 4.879669666290283203e+00 -2.153595269192010164e-04 2.234176645288243890e-04 2.417439191049197689e-06 3.330758772790431976e-04
1.299000000000000000e+03 4.883411788940429688e+01 1.088197040557861328e+01 -6.203545490279793739e-04 1.666321046650409698e-02 4.812856670469045639e-03 6.284590344876050949e-03
1.300000000000000000e+03 5.636850357055664062e+01 2.198927116394042969e+01 -2.022027254104614258e+00 -1.115700379014015198e-01 -6.400792002677917480e-01 -2.911617159843444824e-01
1.301000000000000000e+03 4.150392150878906250e+01 3.701517581939697266e-01 -1.000853255391120911e-01 -3.087662458419799805e-01 -1.226554736495018005e-01 -1.729947924613952637e-01
1.302000000000000000e+03 4.198232269287109375e+01 4.089545905590057373e-01 -2.198779881000518799e-01 -1.398947834968566895e-01 -1.079318299889564514e-01 -2.088723331689834595e-01
1.303000000000000000e+03 6.830766296386718750e+01 2.096300506591796875e+01 -1.105059266090393066e+00 5.387013554573059082e-01 -1.699073761701583862e-01 2.931053042411804199e-01
1.304000000000000000e+03 7.163567352294921875e+01 2.117819595336914062e+01 2.415096998214721680e+00 7.147472858428955078e+00 2.868770837783813477e+00 -5.616528034210205078e+00
1.305000000000000000e+03 7.200154113769531250e+01 2.117928123474121094e+01 1.670432209968566895e+00 1.036070632934570312e+01 3.609341621398925781e+00 -6.144922733306884766e+00
1.306000000000000000e+03 7.182402038574218750e+01 2.117952919006347656e+01 2.065943717956542969e+00 8.707157135009765625e+00 3.231930255889892578e+00 -5.909214973449707031e+00
1.307000000000000000e+03 7.047495269775390625e+01 2.113993453979492188e+01 1.382552981376647949e+00 1.951035976409912109e+00 1.000076651573181152e+00 -2.163007497787475586e+00
1.308000000000000000e+03 7.027108764648437500e+01 2.114943122863769531e+01 1.130651593208312988e+00 1.591461896896362305e+00 8.166340589523315430e-01 -1.740928888320922852e+00
1.309000000000000000e+03 7.124256896972656250e+01 2.118463897705078125e+01 2.329334735870361328e+00 4.433977603912353516e+00 2.028993606567382812e+00 -4.309893608093261719e+00
1.310000000000000000e+03 7.104328155517578125e+01 2.113554573059082031e+01 2.223429918289184570e+00 3.439837455749511719e+00 1.698980212211608887e+00 -3.632945299148559570e+00
1.311000000000000000e+03 7.409072875976562500e+01 2.121072196960449219e+01 1.923590660095214844e+00 1.626107215881347656e+01 5.455399036407470703e+00 2.186670303344726562e+00
1.312000000000000000e+03 7.273165893554687500e+01 2.158624267578125000e+01 -4.999446272850036621e-01 1.544690132141113281e+01 4.484086990356445312e+00 -3.556211948394775391e+00
1.313000000000000000e+03 7.409753417968750000e+01 1.876848030090332031e+01 6.290669441223144531e+00 1.621723556518554688e+01 6.752371311187744141e+00 -3.025454998016357422e+00
1.314000000000000000e+03 7.426689147949218750e+01 1.984779548645019531e+01 8.687320709228515625e+00 1.452728939056396484e+01 6.964383125305175781e+00 1.096477866172790527e+00
1.315000000000000000e+03 7.260772705078125000e+01 2.128902244567871094e+01 -1.994446478784084320e-02 1.592085647583007812e+01 4.770273685455322266e+00 -4.528965950012207031e+00
1.316000000000000000e+03 7.310010528564453125e+01 1.795086479187011719e+01 3.451778590679168701e-01 1.847727203369140625e+01 5.646735191345214844e+00 1.208547592163085938e+00
1.317000000000000000e+03 7.231604003906250000e+01 2.162531661987304688e+01 1.406428664922714233e-01 1.280305957794189453e+01 3.883110761642456055e+00 -4.864914894104003906e+00
1.318000000000000000e+03 7.288208770751953125e+01 1.791572570800781250e+01 1.913739740848541260e-01 1.770936203002929688e+01 5.370220661163330078e+00 2.475459098815917969e+00
1.319000000000000000e+03 7.265674591064453125e+01 1.789232826232910156e+01 3.130595684051513672e-01 1.629102325439453125e+01 4.981225013732910156e+00 3.808256387710571289e+00
1.320000000000000000e+03 6.936925506591796875e+01 1.755219459533691406e+01 9.959014058113098145e-01 1.031761050224304199e+00 6.082987189292907715e-01 7.726487517356872559e-01
1.321000000000000000e+03 7.243079376220703125e+01 1.789692878723144531e+01 7.505013942718505859e-01 1.449077606201171875e+01 4.572383403778076172e+00 4.784854888916015625e+00
1.322000000000000000e+03 7.178568267822265625e+01 1.787444496154785156e+01 2.243258237838745117e+00 8.705840110778808594e+00 3.284729480743408203e+00 5.301879405975341797e+00
1.323000000000000000e+03 7.034364318847656250e+01 1.774862098693847656e+01 1.803775787353515625e+00 2.037524700164794922e+00 1.152390122413635254e+00 1.958979249000549316e+00
1.324000000000000000e+03 7.221586608886718750e+01 1.790819168090820312e+01 1.309866189956665039e+00 1.249026489257812500e+01 4.140039443969726562e+00 5.332719326019287109e+00
1.325000000000000000e+03 7.098500823974609375e+01 1.775199127197265625e+01 2.322048187255859375e+00 4.229253768920898438e+00 1.965390682220458984e+00 3.427112102508544922e+00
1.326000000000000000e+03 7.170920562744140625e+01 1.757600593566894531e+01 1.638270735740661621e+00 8.414810180664062500e+00 3.015924215316772461e+00 4.632873535156250000e+00
1.327000000000000000e+03 7.200136566162109375e+01 1.788132667541503906e+01 1.778643608093261719e+00 1.066450214385986328e+01 3.732943773269653320e+00 5.441416740417480469e+00
1.328000000000000000e+03 7.135317230224609375e+01 1.747045135498046875e+01 1.798552155494689941e+00 6.396821498870849609e+00 2.458612203598022461e+00 4.178818702697753906e+00
1.329000000000000000e+03 6.860929107666015625e+01 1.726619148254394531e+01 4.470381736755371094e-01 4.832783341407775879e-01 2.790949344635009766e-01 3.595549464225769043e-01
1.330000000000000000e+03 6.854386138916015625e+01 1.612486267089843750e+01 2.184143364429473877e-01 1.006995677947998047e+00 3.676230311393737793e-01 8.344252705574035645e-01
1.331000000000000000e+03 5.073090744018554688e+01 -3.482028096914291382e-02 -1.676965832710266113e+00 -2.569567263126373291e-01 -5.801767706871032715e-01 2.920758128166198730e-01
1.332000000000000000e+03 4.866609191894531250e+01 -1.563366770744323730e+00 -1.101017594337463379e+00 2.308571338653564453e-01 -2.610481381416320801e-01 -1.017214283347129822e-01
1.333000000000000000e+03 6.614728546142578125e+01 2.244591140747070312e+01 -1.717989921569824219e+00 -3.758142516016960144e-02 -5.266714096069335938e-01 7.378778886049985886e-03
1.334000000000000000e+03 4.403358459472656250e+01 1.386064589023590088e-01 -6.204921603202819824e-01 4.917548224329948425e-02 -1.713950037956237793e-01 -2.976133227348327637e-01
1.335000000000000000e+03 2.197830581665039062e+01 4.501152634620666504e-01 -4.404194260132499039e-05 -5.785137545899488032e-05 -3.056799323530867696e-05 1.659104782447684556e-05
1.336000000000000000e+03 2.146430778503417969e+01 2.382360458374023438e+00 -9.603417129255831242e-05 -1.358774752588942647e-04 -6.957349251024425030e-05 -6.988160748733207583e-05
1.337000000000000000e+03 2.061907768249511719e+01 4.118398725986480713e-01 -6.442879384849220514e-05 -6.473616667790338397e-05 -3.874948743032291532e-05 -1.244416580448159948e-06
1.338000000000000000e+03 2.077918624877929688e+01 2.389621019363403320e+00 1.859006442828103900e-05 1.421790948370471597e-04 4.823074777959845960e-05 -3.858985292026773095e-05
1.339000000000000000e+03 2.168386459350585938e+01 1.398366093635559082e+00 7.509828719776123762e-05 6.658475467702373862e-05 4.250491474522277713e-05 -1.265914670511847362e-05
1.340000000000000000e+03 6.824066925048828125e+01 2.162029457092285156e+01 -7.328829765319824219e-01 8.712580204010009766e-01 4.151251912117004395e-02 -1.925893425941467285e-01
1.341000000000000000e+03 6.880580139160156250e+01 2.158867263793945312e+01 -3.462739586830139160e-01 1.058513760566711426e+00 2.136719524860382080e-01 -4.828600585460662842e-01
1.342000000000000000e+03 9.442835807800292969e+00 -1.872138619422912598e+00 2.221014648675918579e-01 -3.433362394571304321e-02 5.633035302162170410e-02 3.442724794149398804e-02
1.343000000000000000e+03 1.076263427734375000e+01 -2.733669042587280273e+00 1.914088577032089233e-01 -5.308535322546958923e-02 4.149704799056053162e-02 2.473660930991172791e-02
1.344000000000000000e+03 1.086310577392578125e+01 -2.039970874786376953e+00 2.450564205646514893e-01 -3.765984252095222473e-02 6.221897155046463013e-02 1.244571898132562637e-02
1.345000000000000000e+03 1.137145709991455078e+01 -3.500168561935424805e+00 1.390571147203445435e-01 -7.464763522148132324e-02 1.932284422218799591e-02 1.409902516752481461e-02
1.346000000000000000e+03 1.007137966156005859e+01 -2.658942461013793945e+00 1.848004609346389771e-01 -5.024914070963859558e-02 4.036539793014526367e-02 4.121231287717819214e-02
1.347000000000000000e+03 1.215498733520507812e+01 -2.933941125869750977e+00 1.873026788234710693e-01 -5.154063552618026733e-02 4.072861373424530029e-02 -1.054496411234140396e-02
1.348000000000000000e+03 1.783474731445312500e+01 1.186908841133117676e+00 1.269399799639359117e-04 4.447289029485546052e-05 5.142385998624376953e-05 8.903579328034538776e-06
1.349000000000000000e+03 1.859234237670898438e+01 4.253199398517608643e-01 4.990142406313680112e-05 7.357060530921444297e-05 3.704160917550325394e-05 -2.791296765281003900e-06
1.350000000000000000e+03 1.544304656982421875e+01 3.217370033264160156e+00 3.948342346120625734e-04 -2.182125899707898498e-05 1.119038934120908380e-04 1.994601771002635360e-04
1.351000000000000000e+03 1.972432708740234375e+01 1.279916644096374512e+00 -7.352211832767352462e-05 -6.243767711566761136e-05 -4.078793790540657938e-05 -7.943815035105217248e-06
1.352000000000000000e+03 2.266404724121093750e+01 5.480253696441650391e-01 1.327675636275671422e-05 5.794367098133079708e-05 2.136612783942837268e-05 -3.556461524567566812e-05
1.353000000000000000e+03 2.324187850952148438e+01 1.966633200645446777e+00 -9.614884038455784321e-05 -1.818594319047406316e-04 -8.340248314198106527e-05 -8.539068949175998569e-05
1.354000000000000000e+03 8.607320785522460938e+00 3.980938673019409180e+00 1.707955962046980858e-04 -1.520650548627600074e-04 5.619159765046788380e-06 -1.189014728879556060e-04
1.355000000000000000e+03 6.932053089141845703e+00 2.594601154327392578e+00 1.779092126525938511e-04 -8.814740431262180209e-05 2.692854104680009186e-05 -1.277913979720324278e-04
1.356000000000000000e+03 4.703429698944091797e+00 3.475972175598144531e+00 7.774782716296613216e-05 -3.290246968390420079e-05 1.345360669802175835e-05 -1.336984714725986123e-04
1.357000000000000000e+03 2.466555118560791016e+00 2.726347446441650391e+00 -1.601997246325481683e-05 -2.579771899036131799e-05 -1.254530798178166151e-05 -3.441199805820360780e-05
1.358000000000000000e+03 7.006283283233642578e+00 3.317284345626831055e+00 3.469493531156331301e-04 -2.953494913526810706e-06 1.031987630994990468e-04 -9.252019663108512759e-05
1.359000000000000000e+03 8.350896835327148438e+00 1.853639364242553711e+00 3.329495957586914301e-04 1.842792516981717199e-05 1.054132590070366859e-04 -2.673155722732190043e-05
1.360000000000000000e+03 7.672908306121826172e+00 2.574297428131103516e+00 3.423774032853543758e-04 7.180819920904468745e-06 1.048674675985239446e-04 -5.353478627512231469e-05
1.361000000000000000e+03 4.698316574096679688e+00 1.891908407211303711e+00 8.348406117875128984e-05 -3.928499063476920128e-05 1.325972152699250728e-05 -7.587919390061870217e-05
1.362000000000000000e+03 3.950343608856201172e+00 2.691484689712524414e+00 1.535334013169631362e-05 2.283162530147819780e-06 5.290950866765342653e-06 -1.093719693017192185e-04
1.363000000000000000e+03 3.939349174499511719e+00 3.503268718719482422e+00 2.735584275797009468e-04 6.728096923325210810e-05 1.022518190438859165e-04 -1.889627019409090281e-04
1.364000000000000000e+03 1.692034363746643066e+00 2.645898818969726562e+00 2.490750630386173725e-04 1.447616377845406532e-04 1.181510087917558849e-04 -7.506302790716290474e-05
1.365000000000000000e+03 1.832536935806274414e+00 1.891252398490905762e+00 -7.470227865269407630e-05 4.264279050403274596e-05 -9.617846444598399103e-06 -5.016064096707850695e-05
1.366000000000000000e+03 4.594617843627929688e+01 4.964208602905273438e+00 1.653798855841159821e-03 -3.491770621621981263e-05 4.856643499806523323e-04 5.686010699719190598e-04
1.367000000000000000e+03 4.438776016235351562e+01 4.097762107849121094e+00 -3.103412163909524679e-04 2.126278413925319910e-04 -2.931400922534521669e-05 -1.784725318429991603e-04
1.368000000000000000e+03 1.508857250213623047e+01 9.453314542770385742e-01 1.333113777945982292e-05 -2.036999103438574821e-05 -2.111656158376717940e-06 5.095313463243655860e-05
1.369000000000000000e+03 1.588300037384033203e+01 1.491163492202758789e+00 -5.424675464382744394e-07 -1.723610330373048782e-05 -5.333571607479825616e-06 7.741928129689767957e-05
1.370000000000000000e+03 1.656065559387207031e+01 -3.808958768844604492e+00 5.140545312315225601e-03 -9.650333784520626068e-03 -1.352936611510813236e-03 -1.848239451646804810e-01
1.371000000000000000e+03 1.430308151245117188e+01 -3.344250440597534180e+00 1.291998326778411865e-01 -3.745997324585914612e-02 2.752195671200752258e-02 -9.363153576850891113e-02
1.372000000000000000e+03 1.285850811004638672e+01 -3.052908658981323242e+00 1.730253547430038452e-01 -4.461715370416641235e-02 3.852246329188346863e-02 -3.526435419917106628e-02
1.373000000000000000e+03 5.674150943756103516e+00 -1.854554653167724609e+00 1.201194301247596741e-01 -9.000396821647882462e-04 3.576581925153732300e-02 7.461824268102645874e-02
1.374000000000000000e+03 8.622726440429687500e+00 -3.351339578628540039e+00 1.203204989433288574e-01 -5.066927894949913025e-02 2.089536748826503754e-02 7.608936727046966553e-02
1.375000000000000000e+03 4.166308403015136719e+00 -1.873127579689025879e+00 8.042304217815399170e-02 8.196692913770675659e-03 2.658591978251934052e-02 7.030814886093139648e-02
1.376000000000000000e+03 4.901546478271484375e+00 -3.250797748565673828e+00 6.615854799747467041e-02 5.913302302360534668e-03 2.162155508995056152e-02 1.039703860878944397e-01
1.377000000000000000e+03 3.420068740844726562e+00 -1.904489159584045410e+00 5.703745037317276001e-02 1.334539800882339478e-02 2.111485414206981659e-02 6.130786240100860596e-02
1.378000000000000000e+03 1.001632690429687500e+01 -3.384536504745483398e+00 1.368004828691482544e-01 -6.579124182462692261e-02 2.130277454853057861e-02 4.822501540184020996e-02
1.379000000000000000e+03 6.393848419189453125e+00 -2.583472728729248047e+00 1.127637997269630432e-01 -9.471654891967773438e-03 3.098764456808567047e-02 8.936943113803863525e-02
1.380000000000000000e+03 7.153879165649414062e+00 -2.591658115386962891e+00 1.299049854278564453e-01 -1.977259851992130280e-02 3.303971514105796814e-02 8.398301899433135986e-02
1.381000000000000000e+03 3.604632854461669922e+00 -3.549978256225585938e+00 3.885841742157936096e-02 2.865347824990749359e-02 2.025356888771057129e-02 9.854943305253982544e-02
1.382000000000000000e+03 5.162507891654968262e-01 -3.551748037338256836e+00 3.971499856561422348e-03 7.348733395338058472e-02 2.323764935135841370e-02 2.121695131063461304e-02
1.383000000000000000e+03 6.102442741394042969e-01 -5.004193305969238281e+00 3.022535704076290131e-03 1.317145228385925293e-01 4.042111709713935852e-02 2.903484366834163666e-02
1.384000000000000000e+03 4.637713623046875000e+01 -8.116479516029357910e-01 -9.391364455223083496e-01 2.024217545986175537e-01 -2.210144102573394775e-01 -2.069426476955413818e-01
1.385000000000000000e+03 4.786682891845703125e+01 -1.195826977491378784e-01 -1.013709306716918945e+00 1.667918115854263306e-01 -2.540752589702606201e-01 -1.489598397165536880e-02
1.386000000000000000e+03 4.864684677124023438e+01 -8.490425348281860352e-01 -1.164486646652221680e+00 1.921114623546600342e-01 -2.917125523090362549e-01 -6.565939635038375854e-02
1.387000000000000000e+03 4.713761138916015625e+01 -8.272053003311157227e-01 -9.934116601943969727e-01 2.116260677576065063e-01 -2.345356792211532593e-01 -1.453804224729537964e-01
1.388000000000000000e+03 4.938988494873046875e+01 -8.704834580421447754e-01 -1.184921741485595703e+00 1.569139808416366577e-01 -3.084023296833038330e-01 -2.535819448530673981e-02
1.389000000000000000e+03 4.561244201660156250e+01 -7.908972501754760742e-01 -8.869059085845947266e-01 1.883016973733901978e-01 -2.095812559127807617e-01 -2.704016864299774170e-01
1.390000000000000000e+03 4.401762771606445312e+01 -7.922384142875671387e-01 -7.884775996208190918e-01 9.425506740808486938e-02 -2.082667499780654907e-01 -3.942673206329345703e-01
1.391000000000000000e+03 4.323885345458984375e+01 -6.754266619682312012e-01 -7.304320335388183594e-01 1.247740723192691803e-02 -2.153863757848739624e-01 -4.270184636116027832e-01
1.392000000000000000e+03 4.483530044555664062e+01 -7.771998643875122070e-01 -8.608434200286865234e-01 1.546206772327423096e-01 -2.118668258190155029e-01 -3.402161002159118652e-01
1.393000000000000000e+03 1.734653472900390625e+01 -3.934013128280639648e+00 -4.476061835885047913e-02 1.861728145740926266e-03 -1.286966633051633835e-02 -2.099283933639526367e-01
1.394000000000000000e+03 1.504320144653320312e+01 -3.510232686996459961e+00 9.337442368268966675e-02 -3.165141865611076355e-02 1.851690001785755157e-02 -1.230406910181045532e-01
1.395000000000000000e+03 1.974850845336914062e+01 -5.012002468109130859e+00 -2.653713226318359375e-01 5.673615634441375732e-02 -6.259055435657501221e-02 -2.792202532291412354e-01
1.396000000000000000e+03 1.453477096557617188e+01 2.508471727371215820e+00 3.363521245773881674e-04 -6.676441898889606819e-06 9.890271030599251390e-05 1.726596965454518795e-04
1.397000000000000000e+03 1.150793933868408203e+01 2.322502851486206055e+00 1.790566020645201206e-04 -9.169802069664001465e-05 2.620757186377886683e-05 4.712754889624193311e-05
1.398000000000000000e+03 1.224888515472412109e+01 2.152199506759643555e+00 2.982778241857886314e-04 6.617222879867767915e-06 9.146851516561582685e-05 1.312963722739368677e-04
1.399000000000000000e+03 1.071686553955078125e+01 2.440697431564331055e+00 3.658241184893995523e-04 -1.712615267024375498e-05 1.046093893819488585e-04 7.340138836298137903e-05
1.400000000000000000e+03 1.992291259765625000e+01 -3.427704334259033203e+00 -1.635462492704391479e-01 2.937870658934116364e-02 -4.025026410818099976e-02 -1.759685277938842773e-01
1.401000000000000000e+03 2.073785972595214844e+01 -4.264265537261962891e+00 -2.744959294795989990e-01 6.029167398810386658e-02 -6.426128000020980835e-02 -2.047504931688308716e-01
1.402000000000000000e+03 1.898787498474121094e+01 -4.132964611053466797e+00 -1.584411561489105225e-01 2.899064682424068451e-02 -3.883515298366546631e-02 -2.350739389657974243e-01
1.403000000000000000e+03 1.985322952270507812e+01 -4.217494964599609375e+00 -2.188917398452758789e-01 4.932998865842819214e-02 -5.086852610111236572e-02 -2.339178025722503662e-01
1.404000000000000000e+03 2.340050506591796875e+01 -4.052464008331298828e+00 -4.186660647392272949e-01 1.065888702869415283e-01 -9.362315386533737183e-02 -7.126954197883605957e-02
1.405000000000000000e+03 2.507300949096679688e+01 -3.794059038162231445e+00 -4.857006669044494629e-01 9.890653192996978760e-02 -1.160382404923439026e-01 4.069487005472183228e-02
1.406000000000000000e+03 2.414807128906250000e+01 -3.144126892089843750e+00 -3.661595880985260010e-01 7.639949768781661987e-02 -8.692802488803863525e-02 1.468242798000574112e-02
1.407000000000000000e+03 2.424065399169921875e+01 -3.915963888168334961e+00 -4.696103036403656006e-01 1.218330711126327515e-01 -1.043331697583198547e-01 -1.713029108941555023e-02
1.408000000000000000e+03 4.823333358764648438e+01 5.262736320495605469e+00 -8.649217779748141766e-04 2.060970473394263536e-05 -2.532936050556600094e-04 1.301945303566753864e-05
1.409000000000000000e+03 4.209639739990234375e+01 4.455161094665527344e+00 9.524822235107421875e-05 3.693853795994073153e-04 1.393900747643783689e-04 -5.321392673067748547e-04
1.410000000000000000e+03 4.356772994995117188e+01 6.391307830810546875e+00 2.733003580942749977e-03 2.643788175191730261e-04 8.992147049866616726e-04 -1.421089516952633858e-03
1.411000000000000000e+03 1.956166267395019531e+01 -1.334638214111328125e+01 -8.752033859491348267e-02 1.776441372931003571e-02 -2.092677727341651917e-02 -5.553524568676948547e-02
1.412000000000000000e+03 1.915933990478515625e+01 -1.085838413238525391e+01 -5.105885863304138184e-01 8.833501487970352173e-02 -1.266760677099227905e-01 -3.639850616455078125e-01
1.413000000000000000e+03 6.822134399414062500e+01 -1.271008110046386719e+01 -1.077272772789001465e+00 4.903300285339355469e+00 1.147808194160461426e+00 -3.644629940390586853e-02
1.414000000000000000e+03 1.510948657989501953e+01 -1.083089256286621094e+01 -6.909247636795043945e-01 -4.729856848716735840e-01 -3.491731584072113037e-01 -3.714755177497863770e-01
1.415000000000000000e+03 6.978500366210937500e+01 -2.219182968139648438e+01 9.588644504547119141e-01 7.545550823211669922e+00 2.551324605941772461e+00 4.529064595699310303e-01
1.416000000000000000e+03 6.813782501220703125e+01 -2.111087608337402344e+01 1.840089440345764160e+00 9.365564346313476562e+00 3.361696243286132812e+00 2.617938041687011719e+00
1.417000000000000000e+03 6.248775100708007812e+01 2.619165992736816406e+01 -6.085043549537658691e-01 -2.851605787873268127e-02 -1.911061257123947144e-01 -2.856510505080223083e-02
1.418000000000000000e+03 6.096223449707031250e+01 2.291132354736328125e+01 -3.304966211318969727e+00 -3.123995661735534668e-01 -1.085209727287292480e+00 3.020924627780914307e-01
1.419000000000000000e+03 5.045506286621093750e+01 -5.834185123443603516e+00 -4.565042555332183838e-01 2.845764756202697754e-01 -5.157832801342010498e-02 1.149072498083114624e-01
1.420000000000000000e+03 5.175059127807617188e+01 -8.172902107238769531e+00 3.119139671325683594e-01 2.109196782112121582e-01 1.568500846624374390e-01 2.587624192237854004e-01
1.421000000000000000e+03 6.379481506347656250e+01 2.394238662719726562e+01 -1.734182000160217285e+00 -1.046755760908126831e-01 -5.516572594642639160e-01 1.607111543416976929e-01
1.422000000000000000e+03 6.238006591796875000e+01 2.437470626831054688e+01 -1.747470855712890625e+00 -2.486359030008316040e-01 -5.988320112228393555e-01 1.367862820625305176e-01
1.423000000000000000e+03 6.509204864501953125e+01 2.325757789611816406e+01 -1.631278038024902344e+00 -1.509097069501876831e-01 -5.346563458442687988e-01 8.426570892333984375e-02
1.424000000000000000e+03 3.432396697998046875e+01 -1.486230468750000000e+01 1.014728307723999023e+00 3.254969418048858643e-02 3.141834139823913574e-01 -1.027800887823104858e-01
1.425000000000000000e+03 5.119713211059570312e+01 -2.857465362548828125e+01 5.027247667312622070e-01 4.777660965919494629e-01 2.941472530364990234e-01 -4.362036883831024170e-01
1.426000000000000000e+03 5.026719284057617188e+01 -2.999386978149414062e+01 2.473060786724090576e-01 5.588334798812866211e-01 2.418418526649475098e-01 -3.739890754222869873e-01
1.427000000000000000e+03 5.327375411987304688e+01 -6.208212375640869141e+00 -2.956368327140808105e-01 -9.417501091957092285e-02 -1.169435530900955200e-01 3.270633816719055176e-01
1.428000000000000000e+03 5.387747573852539062e+01 -8.017671585083007812e+00 -1.438229531049728394e-01 -9.257794171571731567e-02 -7.092027366161346436e-02 2.332454919815063477e-01
1.429000000000000000e+03 6.424470520019531250e+01 -1.001794815063476562e+01 -5.807064771652221680e-01 4.422375261783599854e-01 -4.154069349169731140e-02 4.863541200757026672e-02
1.430000000000000000e+03 4.619057464599609375e+01 -2.434705352783203125e+01 4.531384110450744629e-01 1.486992359161376953e+00 5.820392370223999023e-01 -4.781436920166015625e-01
1.431000000000000000e+03 4.630875015258789062e+01 -2.742330932617187500e+01 2.552861869335174561e-01 8.442509174346923828e-01 3.298611342906951904e-01 -2.521098554134368896e-01
1.432000000000000000e+03 6.851770019531250000e+01 -1.458380889892578125e+01 1.423979848623275757e-01 6.047250747680664062e+00 1.856894612312316895e+00 -4.412412047386169434e-01
1.433000000000000000e+03 4.477424240112304688e+01 -2.306877708435058594e+01 3.656955957412719727e-01 1.073141336441040039e+00 4.316510558128356934e-01 -2.857101261615753174e-01
1.434000000000000000e+03 6.032963943481445312e+01 -3.080344963073730469e+01 1.009924709796905518e-01 5.626164674758911133e-01 1.990826725959777832e-01 3.653063178062438965e-01
1.435000000000000000e+03 4.768046951293945312e+01 -9.803752899169921875e+00 1.909887343645095825e-01 7.872709631919860840e-01 2.934779226779937744e-01 2.789091169834136963e-01
1.436000000000000000e+03 4.645399093627929688e+01 -1.037874889373779297e+01 1.862740814685821533e-01 7.324032187461853027e-01 2.756032049655914307e-01 2.188593596220016479e-01
1.437000000000000000e+03 5.848436737060546875e+01 -7.447687149047851562e+00 -2.915973365306854248e-01 -2.425907254219055176e-01 -1.602564156055450439e-01 4.521662890911102295e-01
1.438000000000000000e+03 1.133269023895263672e+01 -2.428838920593261719e+01 3.354878425598144531e-01 -2.603769302368164062e-03 9.986522048711776733e-02 -2.430945336818695068e-01
1.439000000000000000e+03 1.166361618041992188e+01 -1.693194198608398438e+01 -2.074831277132034302e-01 -1.050991177558898926e+00 -3.775422871112823486e-01 -3.213848769664764404e-01
1.440000000000000000e+03 6.948759460449218750e+01 -1.856138992309570312e+01 8.292759060859680176e-01 8.831347465515136719e+00 2.898186922073364258e+00 8.277222514152526855e-01
1.441000000000000000e+03 3.767631912231445312e+01 -2.342120361328125000e+01 -1.094780564308166504e-01 -4.357539415359497070e-01 -1.635695993900299072e-01 -1.520280241966247559e-01
1.442000000000000000e+03 6.138174438476562500e+01 -1.013305282592773438e+01 -8.804443478584289551e-01 -5.975216254591941833e-02 -2.820589542388916016e-01 4.973131120204925537e-01
1.443000000000000000e+03 4.548883056640625000e+01 -1.432596206665039062e+01 2.382601499557495117e-01 1.003159880638122559e+00 3.724260330200195312e-01 2.365221381187438965e-01
1.444000000000000000e+03 4.711970138549804688e+01 -1.321526718139648438e+01 2.490085959434509277e-01 1.368687152862548828e+00 4.853087067604064941e-01 4.991408288478851318e-01
1.445000000000000000e+03 4.984664154052734375e+01 -8.133824348449707031e+00 9.926997870206832886e-02 4.773098230361938477e-01 1.729739457368850708e-01 2.466738075017929077e-01
1.446000000000000000e+03 7.103152465820312500e+01 -2.195128059387207031e+01 1.073748707771301270e+00 6.746057987213134766e+00 2.345942020416259766e+00 3.094666898250579834e-01
1.447000000000000000e+03 4.535352706909179688e+01 -1.094755935668945312e+01 1.407983005046844482e-01 5.991146564483642578e-01 2.219738811254501343e-01 1.499722301959991455e-01
1.448000000000000000e+03 5.244312667846679688e+01 -2.930164718627929688e+01 3.254794478416442871e-01 2.394765019416809082e-01 1.694867908954620361e-01 -3.118924498558044434e-01
1.449000000000000000e+03 5.707122421264648438e+01 -3.176197052001953125e+01 2.620922327041625977e-01 1.114709675312042236e-01 1.120689585804939270e-01 -1.543785035610198975e-01
1.450000000000000000e+03 5.321979904174804688e+01 -3.195520782470703125e+01 2.768975496292114258e-01 2.881568670272827148e-01 1.695163249969482422e-01 -4.075293242931365967e-01
1.451000000000000000e+03 1.312212181091308594e+01 -1.401830577850341797e+01 -8.949784040451049805e-01 -9.879757165908813477e-01 -5.648862123489379883e-01 -8.158763647079467773e-01
1.452000000000000000e+03 1.147948932647705078e+01 -1.399279117584228516e+01 -6.509288549423217773e-01 -6.560509204864501953e-01 -3.920939266681671143e-01 -3.841394186019897461e-01
1.453000000000000000e+03 6.115123367309570312e+01 -1.123220443725585938e+01 -1.347289919853210449e+00 -8.449784666299819946e-02 -4.295363426208496094e-01 4.039532542228698730e-01
1.454000000000000000e+03 5.921009826660156250e+01 -9.233334541320800781e+00 -5.676844716072082520e-01 -1.708948612213134766e-01 -2.215737998485565186e-01 5.089516043663024902e-01
1.455000000000000000e+03 6.318183898925781250e+01 -2.671725654602050781e+01 3.409892022609710693e-01 8.585369586944580078e-01 3.598578572273254395e-01 5.879614949226379395e-01
1.456000000000000000e+03 6.513785552978515625e+01 -2.697762107849121094e+01 2.642905712127685547e-01 2.548298358917236328e+00 8.437767028808593750e-01 1.109034061431884766e+00
1.457000000000000000e+03 1.519742584228515625e+01 -1.239900588989257812e+01 -1.435893177986145020e+00 -4.419539868831634521e-01 -5.633541345596313477e-01 -6.102547645568847656e-01
1.458000000000000000e+03 6.612699890136718750e+01 -2.387020492553710938e+01 1.241721630096435547e+00 2.991855144500732422e+00 1.270073056221008301e+00 1.894558191299438477e+00
1.459000000000000000e+03 6.897653961181640625e+01 -2.379078865051269531e+01 3.383513987064361572e-01 6.181841850280761719e+00 1.956058025360107422e+00 7.684800028800964355e-01
1.460000000000000000e+03 5.807241821289062500e+01 -8.604959487915039062e+00 -4.732899069786071777e-01 -2.489280253648757935e-01 -2.166653871536254883e-01 4.588473141193389893e-01
1.461000000000000000e+03 3.664437103271484375e+01 -5.595806121826171875e+00 -1.740297198295593262e+00 -2.203548699617385864e-01 -5.881956219673156738e-01 -5.400863289833068848e-01
1.462000000000000000e+03 3.815301895141601562e+01 -2.843928718566894531e+01 3.287376090884208679e-02 -2.014127522706985474e-01 -5.056170001626014709e-02 6.536247581243515015e-02
1.463000000000000000e+03 6.792625427246093750e+01 -2.433687973022460938e+01 1.397309750318527222e-01 5.695293903350830078e+00 1.750507473945617676e+00 1.243295907974243164e+00
1.464000000000000000e+03 5.990229034423828125e+01 -1.088792419433593750e+01 -1.056001186370849609e+00 -1.025647893548011780e-01 -3.475697934627532959e-01 4.219873249530792236e-01
1.465000000000000000e+03 4.515144348144531250e+01 -1.570255470275878906e+01 2.113467007875442505e-01 1.049271464347839355e+00 3.781854510307312012e-01 1.340764909982681274e-01
1.466000000000000000e+03 4.470616912841796875e+01 -2.181060600280761719e+01 3.251228034496307373e-01 1.241547346115112305e+00 4.700010418891906738e-01 -3.415075242519378662e-01
1.467000000000000000e+03 4.811582565307617188e+01 -2.796876716613769531e+01 2.933264374732971191e-01 8.037881255149841309e-01 3.291343748569488525e-01 -4.173990488052368164e-01
1.468000000000000000e+03 2.327372741699218750e+01 -3.227509307861328125e+01 3.976447284221649170e-01 1.303884983062744141e-01 1.584099680185317993e-01 -1.678181141614913940e-01
1.469000000000000000e+03 2.334999084472656250e+01 -1.434846401214599609e+01 3.472931385040283203e-01 3.465274348855018616e-02 1.145837679505348206e-01 -1.141225919127464294e-01
1.470000000000000000e+03 2.345798683166503906e+01 -1.319467830657958984e+01 1.725265532732009888e-01 5.859548971056938171e-02 6.933661550283432007e-02 -2.466607093811035156e-01
1.471000000000000000e+03 1.956586265563964844e+01 -2.933149909973144531e+01 6.618473529815673828e-01 2.388918995857238770e-01 2.702217698097229004e-01 -3.279190659523010254e-01
1.472000000000000000e+03 2.173948669433593750e+01 -3.201944351196289062e+01 4.087632596492767334e-01 1.692384332418441772e-01 1.734005063772201538e-01 -2.040923982858657837e-01
1.473000000000000000e+03 2.993546676635742188e+01 -3.277982330322265625e+01 2.631443142890930176e-01 -1.037896052002906799e-01 4.780641570687294006e-02 -1.409327983856201172e-01
1.474000000000000000e+03 1.022397994995117188e+01 -2.037962913513183594e+01 1.242871731519699097e-01 -2.935378253459930420e-01 -5.077520012855529785e-02 -3.877384662628173828e-01
1.475000000000000000e+03 3.662542343139648438e+01 -1.642218399047851562e+01 8.490124940872192383e-01 -2.628285884857177734e-01 1.758551597595214844e-01 -3.314707577228546143e-01
1.476000000000000000e+03 3.563113784790039062e+01 -1.624381256103515625e+01 1.013752102851867676e+00 -2.106120884418487549e-01 2.409420162439346313e-01 -3.763319551944732666e-01
1.477000000000000000e+03 1.049632835388183594e+01 -1.923529815673828125e+01 1.612328551709651947e-02 -3.397468924522399902e-01 -9.708707779645919800e-02 -3.376163840293884277e-01
1.478000000000000000e+03 2.078085517883300781e+01 -1.382344436645507812e+01 6.445973366498947144e-02 5.376265570521354675e-02 3.546671569347381592e-02 -6.743079423904418945e-02
1.479000000000000000e+03 3.673417282104492188e+01 -2.890465927124023438e+01 6.596212834119796753e-02 -3.160854876041412354e-01 -7.503701001405715942e-02 2.910981327295303345e-02
1.480000000000000000e+03 1.612153816223144531e+01 -2.890975189208984375e+01 4.603818356990814209e-01 2.697109878063201904e-01 2.190278470516204834e-01 -2.714059650897979736e-01
1.481000000000000000e+03 2.224227142333984375e+01 -1.296911144256591797e+01 4.557839035987854004e-02 8.562524616718292236e-02 3.936108946800231934e-02 -1.955661475658416748e-01
1.482000000000000000e+03 1.911105346679687500e+01 -3.097629356384277344e+01 4.153020977973937988e-01 2.630954384803771973e-01 2.035192549228668213e-01 -2.452496141195297241e-01
1.483000000000000000e+03 2.734718894958496094e+01 -1.472742462158203125e+01 1.004200816154479980e+00 2.318013831973075867e-02 3.082142770290374756e-01 -2.017684280872344971e-01
1.484000000000000000e+03 2.467695426940917969e+01 -1.448961067199707031e+01 5.558162331581115723e-01 1.327383052557706833e-02 1.707270294427871704e-01 -1.442415565252304077e-01
1.485000000000000000e+03 3.379658126831054688e+01 -1.380731678009033203e+01 7.297977209091186523e-01 9.352152794599533081e-02 2.469957768917083740e-01 -1.347835510969161987e-01
1.486000000000000000e+03 2.820476341247558594e+01 -3.300778579711914062e+01 2.852532565593719482e-01 -1.517740730196237564e-02 8.102275431156158447e-02 -1.387675255537033081e-01
1.487000000000000000e+03 2.851336860656738281e+01 -1.354678249359130859e+01 7.192222476005554199e-01 6.016930565237998962e-02 2.338174730539321899e-01 -3.612689971923828125e-01
1.488000000000000000e+03 3.752566146850585938e+01 -2.018480110168457031e+01 9.603952616453170776e-02 -3.500307500362396240e-01 -7.619737088680267334e-02 -3.005315065383911133e-01
1.489000000000000000e+03 1.524752140045166016e+01 -2.569879722595214844e+01 4.308175742626190186e-01 3.826613128185272217e-01 2.440436631441116333e-01 -4.051735401153564453e-01
1.490000000000000000e+03 3.776068115234375000e+01 -2.136886215209960938e+01 1.869180239737033844e-02 -4.073634743690490723e-01 -1.166014969348907471e-01 -2.472301721572875977e-01
1.491000000000000000e+03 1.331836986541748047e+01 -2.597624588012695312e+01 3.491421341896057129e-01 2.326966822147369385e-01 1.745516508817672729e-01 -2.828387022018432617e-01
1.492000000000000000e+03 6.827141571044921875e+01 1.007991981506347656e+01 -2.005281597375869751e-01 3.378993749618530273e+00 9.535396695137023926e-01 4.818055331707000732e-01
1.493000000000000000e+03 6.635454559326171875e+01 9.899640083312988281e+00 3.320853039622306824e-02 1.330720901489257812e+00 4.091788232326507568e-01 4.321070611476898193e-01
1.494000000000000000e+03 5.581076431274414062e+01 -1.145215988159179688e+00 -8.943706154823303223e-01 -3.457594513893127441e-01 -3.720390200614929199e-01 -6.050295755267143250e-02
1.495000000000000000e+03 5.280840682983398438e+01 -1.285661160945892334e-01 -1.982616662979125977e+00 -1.347207427024841309e-01 -6.352012157440185547e-01 -8.680535852909088135e-02
1.496000000000000000e+03 5.257553863525390625e+01 -1.259043335914611816e+00 -1.273807644844055176e+00 -3.065215647220611572e-01 -4.740987718105316162e-01 6.184522435069084167e-02
1.497000000000000000e+03 5.935894012451171875e+01 3.278164386749267578e+00 -7.122167348861694336e-01 -6.303201913833618164e-01 -4.027610719203948975e-01 -6.945250630378723145e-01
1.498000000000000000e+03 6.231226348876953125e+01 4.280781269073486328e+00 -4.881821870803833008e-01 -1.131501942873001099e-01 -1.803997159004211426e-01 -3.621250689029693604e-01
1.499000000000000000e+03 6.629536437988281250e+01 8.051323890686035156e+00 -3.991307020187377930e-01 1.631097078323364258e+00 3.695898950099945068e-01 2.794508039951324463e-01
1.500000000000000000e+03 6.109318923950195312e+01 9.322424530982971191e-01 -2.749185562133789062e-01 4.709668457508087158e-02 -6.834656000137329102e-02 -1.223245039582252502e-01
1.501000000000000000e+03 5.156774139404296875e+01 1.905894088745117188e+01 -3.006272614002227783e-01 -1.896527856588363647e-01 -1.470840126276016235e-01 -2.222039401531219482e-01
1.502000000000000000e+03 3.111794281005859375e+01 -6.850804328918457031e+00 -1.529609441757202148e+00 -3.159785568714141846e-01 -5.536764264106750488e-01 -2.224961072206497192e-01
1.503000000000000000e+03 3.897807693481445312e+01 -5.182862281799316406e+00 -1.337383389472961426e+00 -4.173571765422821045e-01 -5.264222025871276855e-01 -4.206543266773223877e-01
1.504000000000000000e+03 7.938878631591796875e+01 -2.214397239685058594e+01 9.389949031174182892e-03 6.472820281982421875e+00 1.944663166999816895e+00 -8.709033019840717316e-03
1.505000000000000000e+03 7.818296813964843750e+01 -2.603161239624023438e+01 3.139300970360636711e-03 6.701212406158447266e+00 2.011305570602416992e+00 -1.647479832172393799e-01
1.506000000000000000e+03 7.743939971923828125e+01 -3.553170776367187500e+01 -3.606816381216049194e-02 6.763076782226562500e+00 2.018102645874023438e+00 2.004582621157169342e-02
1.507000000000000000e+03 7.922135925292968750e+01 -3.464867401123046875e+01 3.046828496735543013e-04 7.204762458801269531e+00 2.161520004272460938e+00 1.411727978847920895e-03
1.508000000000000000e+03 7.930274200439453125e+01 -3.049002838134765625e+01 -1.195196155458688736e-02 7.120986461639404297e+00 2.132710456848144531e+00 -4.052449762821197510e-02
1.509000000000000000e+03 7.764595794677734375e+01 -3.423468780517578125e+01 -3.992947563529014587e-02 6.792569637298583984e+00 2.025791883468627930e+00 -6.411189679056406021e-04
1.510000000000000000e+03 7.656393432617187500e+01 -3.928594207763671875e+01 -7.775044068694114685e-03 6.681674957275390625e+00 2.002169847488403320e+00 3.993963077664375305e-02
1.511000000000000000e+03 7.896687316894531250e+01 -3.874950027465820312e+01 4.229179117828607559e-03 7.013340950012207031e+00 2.105271100997924805e+00 5.107491835951805115e-02
1.512000000000000000e+03 7.935586547851562500e+01 -2.772173309326171875e+01 -8.975795470178127289e-03 6.922343730926513672e+00 2.074010372161865234e+00 -7.096119970083236694e-02
1.513000000000000000e+03 7.796850585937500000e+01 3.455244827270507812e+01 -7.238523662090301514e-02 8.174846649169921875e+00 2.430738449096679688e+00 -1.658679991960525513e-01
1.514000000000000000e+03 7.920737457275390625e+01 3.606272888183593750e+01 -4.792734608054161072e-02 8.521102905273437500e+00 2.541952610015869141e+00 -1.218752712011337280e-01
1.515000000000000000e+03 7.821816253662109375e+01 -2.327667808532714844e+01 4.700996726751327515e-02 6.599251747131347656e+00 1.993878483772277832e+00 -8.314714580774307251e-02
1.516000000000000000e+03 7.659278869628906250e+01 -2.838780021667480469e+01 -5.817084386944770813e-02 6.613786220550537109e+00 1.966684579849243164e+00 -1.702014654874801636e-01
1.517000000000000000e+03 7.949466705322265625e+01 1.259888267517089844e+01 -4.897921532392501831e-02 8.234217643737792969e+00 2.455571651458740234e+00 -4.192485213279724121e-01
1.518000000000000000e+03 7.729958343505859375e+01 1.028134727478027344e+01 -3.593494594097137451e-01 8.825538635253906250e+00 2.539856910705566406e+00 -7.392110228538513184e-01
1.519000000000000000e+03 7.949624633789062500e+01 1.397601985931396484e+01 -5.713262036442756653e-02 6.985270500183105469e+00 2.078441381454467773e+00 -5.738488435745239258e-01
1.520000000000000000e+03 7.850007629394531250e+01 1.403609848022460938e+01 -2.284502834081649780e-01 7.572585105895996094e+00 2.203240394592285156e+00 -1.370058894157409668e+00
1.521000000000000000e+03 7.954434967041015625e+01 1.814382171630859375e+01 1.380068659782409668e-01 2.122563362121582031e+00 6.781710386276245117e-01 -4.051662981510162354e-01
1.522000000000000000e+03 7.949806213378906250e+01 2.092935180664062500e+01 1.437375247478485107e-01 2.095470428466796875e+00 6.717623472213745117e-01 4.068830013275146484e-01
1.523000000000000000e+03 7.944388580322265625e+01 2.233747863769531250e+01 6.018247082829475403e-02 3.542741537094116211e+00 1.080877184867858887e+00 6.862496733665466309e-01
1.524000000000000000e+03 7.934578704833984375e+01 2.517182159423828125e+01 -7.933016866445541382e-02 6.595199584960937500e+00 1.954760789871215820e+00 5.899783968925476074e-01
1.525000000000000000e+03 7.935114288330078125e+01 2.655905723571777344e+01 -9.161644428968429565e-02 7.636739730834960938e+00 2.263536930084228516e+00 4.105563163757324219e-01
1.526000000000000000e+03 7.812393188476562500e+01 3.069196701049804688e+01 -1.174049749970436096e-01 8.336434364318847656e+00 2.465708732604980469e+00 1.114942431449890137e-01
1.527000000000000000e+03 7.815421295166015625e+01 2.939119911193847656e+01 -1.260697841644287109e-01 8.281565666198730469e+00 2.446648836135864258e+00 2.645105123519897461e-01
1.528000000000000000e+03 7.932393646240234375e+01 3.339586257934570312e+01 2.279455307871103287e-03 8.824502944946289062e+00 2.648034572601318359e+00 -3.422237560153007507e-02
1.529000000000000000e+03 7.854010772705078125e+01 1.684808921813964844e+01 1.571438908576965332e-01 5.576089382171630859e+00 1.719969987869262695e+00 -1.619370341300964355e+00
1.530000000000000000e+03 7.695477294921875000e+01 1.828077912330627441e+00 -5.438775196671485901e-02 8.767909049987792969e+00 2.614056348800659180e+00 5.517918616533279419e-02
1.531000000000000000e+03 7.938394165039062500e+01 4.284136295318603516e+00 -1.087056566029787064e-02 1.033941268920898438e+01 3.098562717437744141e+00 -4.546356201171875000e-02
1.532000000000000000e+03 7.815375518798828125e+01 4.469272613525390625e+00 -4.639682918787002563e-02 9.531344413757324219e+00 2.845484256744384766e+00 -5.462384223937988281e-02
1.533000000000000000e+03 7.937218475341796875e+01 -1.794326591491699219e+01 1.655476354062557220e-02 6.846069335937500000e+00 2.058787345886230469e+00 1.191720440983772278e-01
1.534000000000000000e+03 7.701974487304687500e+01 -2.167505073547363281e+01 1.936542391777038574e-01 6.645336627960205078e+00 2.051697254180908203e+00 4.859200492501258850e-02
1.535000000000000000e+03 7.941894531250000000e+01 -1.377988433837890625e+01 -3.705208422616124153e-03 7.987829208374023438e+00 2.395237207412719727e+00 1.732110232114791870e-01
1.536000000000000000e+03 7.940857696533203125e+01 -1.102467918395996094e+01 -1.676501519978046417e-02 8.802118301391601562e+00 2.635605812072753906e+00 1.461583524942398071e-01
1.537000000000000000e+03 7.826285552978515625e+01 -1.349457073211669922e+01 -1.421139482408761978e-02 7.860727787017822266e+00 2.353954792022705078e+00 4.911758601665496826e-01
1.538000000000000000e+03 7.939923095703125000e+01 -8.250039100646972656e+00 -1.716263778507709503e-02 9.421301841735839844e+00 2.821241855621337891e+00 9.142696857452392578e-02
1.539000000000000000e+03 7.699888610839843750e+01 -1.196795845031738281e+01 -8.230765908956527710e-02 7.841491222381591797e+00 2.327755212783813477e+00 6.757910847663879395e-01
1.540000000000000000e+03 7.937683868408203125e+01 -4.085627079010009766e+00 -3.081924282014369965e-03 9.953306198120117188e+00 2.985067367553710938e+00 3.179984912276268005e-02
1.541000000000000000e+03 7.937776947021484375e+01 -1.298376798629760742e+00 1.420165877789258957e-03 1.015769100189208984e+01 3.047733306884765625e+00 9.015277959406375885e-03
1.542000000000000000e+03 7.688400268554687500e+01 -5.121509075164794922e+00 -9.917983412742614746e-02 8.420879364013671875e+00 2.496510028839111328e+00 2.580606639385223389e-01
1.543000000000000000e+03 7.938378143310546875e+01 1.497497916221618652e+00 -1.582204247824847698e-03 1.029356765747070312e+01 3.087595462799072266e+00 -1.679219678044319153e-02
1.544000000000000000e+03 7.876526641845703125e+01 4.016493225097656250e+01 -1.163421794772148132e-01 7.975690841674804688e+00 2.357804536819458008e+00 -1.501937955617904663e-01
1.545000000000000000e+03 7.817776489257812500e+01 7.292601108551025391e+00 -8.894551545381546021e-02 9.442136764526367188e+00 2.805957317352294922e+00 -2.380485236644744873e-01
1.546000000000000000e+03 7.812962341308593750e+01 -2.517182111740112305e+00 -1.334855519235134125e-02 9.303862571716308594e+00 2.787154197692871094e+00 1.048138737678527832e-01
1.547000000000000000e+03 7.822275543212890625e+01 -9.412483215332031250e+00 -6.557548046112060547e-02 8.656786918640136719e+00 2.577363252639770508e+00 3.368179202079772949e-01
1.548000000000000000e+03 7.808533477783203125e+01 -1.903565788269042969e+01 9.609828889369964600e-02 6.799688816070556641e+00 2.068736076354980469e+00 2.494016438722610474e-01
1.549000000000000000e+03 3.226464462280273438e+01 -6.917662620544433594e+00 -1.609169483184814453e+00 -3.514794707298278809e-01 -5.881947278976440430e-01 -2.173214256763458252e-01
1.550000000000000000e+03 2.697395133972167969e+01 -3.817020177841186523e+00 -5.437695384025573730e-01 -5.906160548329353333e-02 -1.808493435382843018e-01 1.884875744581222534e-01
1.551000000000000000e+03 4.826055526733398438e+01 6.701437950134277344e+00 1.846731058321893215e-03 1.435267389751970768e-03 9.845995809882879257e-04 1.152315177023410797e-03
1.552000000000000000e+03 4.716948699951171875e+01 6.870299339294433594e+00 6.765993894077837467e-04 7.099879439920186996e-05 2.242794580524787307e-04 2.079861005768179893e-03
1.553000000000000000e+03 5.817565917968750000e+01 2.390942382812500000e+01 -1.680316805839538574e+00 -9.172488749027252197e-02 -5.316125154495239258e-01 2.537628114223480225e-01
1.554000000000000000e+03 4.725394439697265625e+01 8.254502296447753906e+00 4.818014334887266159e-03 -2.160272997571155429e-04 1.380596193484961987e-03 4.385935608297586441e-03
1.555000000000000000e+03 5.096851730346679688e+01 2.122818374633789062e+01 -7.838347554206848145e-01 6.194387748837471008e-02 -2.165672630071640015e-01 -6.181117519736289978e-02
1.556000000000000000e+03 4.754780578613281250e+01 1.099044799804687500e+01 2.944628940895199776e-03 -4.954827018082141876e-04 7.347438950091600418e-04 5.801605526357889175e-03
1.557000000000000000e+03 4.788912582397460938e+01 1.514946079254150391e+01 -6.825122237205505371e-02 -1.725380308926105499e-02 -2.565150707960128784e-02 -4.121434688568115234e-02
1.558000000000000000e+03 2.232500314712524414e+00 2.761724472045898438e+01 -2.512842766009271145e-04 6.268945871852338314e-04 1.126830975408665836e-04 1.768127316609025002e-03
1.559000000000000000e+03 2.213832139968872070e+00 3.196415328979492188e+01 -1.605201396159827709e-04 -3.561123274266719818e-03 -1.116493018344044685e-03 2.571831224486231804e-03
1.560000000000000000e+03 6.452989578247070312e-01 3.471538925170898438e+01 2.763091179076582193e-04 -3.950944170355796814e-03 -1.102390582673251629e-03 7.413623388856649399e-04
1.561000000000000000e+03 2.321317911148071289e+00 3.821780395507812500e+01 7.513438467867672443e-04 -9.946778416633605957e-03 -2.758630551397800446e-03 1.723584253340959549e-03
1.562000000000000000e+03 2.482105255126953125e+00 -3.489181900024414062e+01 1.231551263481378555e-02 -7.452058196067810059e-01 -2.198670953512191772e-01 2.308758208528161049e-03
1.563000000000000000e+03 6.940652728080749512e-01 2.196132659912109375e+01 -2.391100715612992644e-04 5.537644494324922562e-03 1.589560299180448055e-03 -9.974482964025810361e-05
1.564000000000000000e+03 2.178363561630249023e+00 2.473542022705078125e+01 -2.228703961009159684e-04 2.404867904260754585e-03 6.545992800965905190e-04 7.383800693787634373e-04
1.565000000000000000e+03 7.468326687812805176e-01 2.906543731689453125e+01 2.413899528619367629e-05 2.544827060773968697e-03 7.706898031756281853e-04 7.509950664825737476e-04
1.566000000000000000e+03 1.767204880714416504e+00 3.601929855346679688e+01 3.454807738307863474e-04 -7.043867837637662888e-03 -2.009516116231679916e-03 1.916439039632678032e-03
1.567000000000000000e+03 5.995987057685852051e-01 3.608565139770507812e+01 -2.629728405736386776e-04 -5.628981161862611771e-03 -1.767586218193173409e-03 7.128628785721957684e-04
1.568000000000000000e+03 2.227028131484985352e+00 -2.738196754455566406e+01 2.825012244284152985e-02 -6.502565145492553711e-01 -1.866019219160079956e-01 -8.413277566432952881e-02
1.569000000000000000e+03 2.879028797149658203e+00 -3.343682479858398438e+01 1.954924687743186951e-02 -6.954568624496459961e-01 -2.027722895145416260e-01 -1.827920600771903992e-02
1.570000000000000000e+03 1.779801726341247559e+00 -9.291367530822753906e+00 -1.623064652085304260e-02 2.128777354955673218e-01 5.899412930011749268e-02 4.570839554071426392e-02
1.571000000000000000e+03 6.232806444168090820e-01 -1.350152778625488281e+01 -5.609904415905475616e-03 3.172889947891235352e-01 9.350372105836868286e-02 -2.104052342474460602e-02
1.572000000000000000e+03 6.265314817428588867e-01 -1.773108100891113281e+01 -4.752513486891984940e-03 2.710060216486454010e-02 6.704426370561122894e-03 -6.035334989428520203e-02
1.573000000000000000e+03 1.860820174217224121e+00 -1.626989173889160156e+01 -2.635479532182216644e-02 5.355658754706382751e-02 8.160537108778953552e-03 -1.383173316717147827e-01
1.574000000000000000e+03 2.888499259948730469e+00 -3.763250112533569336e+00 2.269315905869007111e-02 5.418054014444351196e-02 2.306210994720458984e-02 9.027019143104553223e-02
1.575000000000000000e+03 6.336719393730163574e-01 -2.054640007019042969e+01 7.092220475897192955e-04 -2.623040378093719482e-01 -7.847844809293746948e-02 -6.520562618970870972e-02
1.576000000000000000e+03 1.876052856445312500e+00 -1.767122840881347656e+01 -1.572444476187229156e-02 -4.377525299787521362e-02 -1.784990914165973663e-02 -1.668956130743026733e-01
1.577000000000000000e+03 6.579990386962890625e-01 -2.335207748413085938e+01 5.816337186843156815e-03 -5.335721373558044434e-01 -1.583267450332641602e-01 -5.488215759396553040e-02
1.578000000000000000e+03 2.114206314086914062e+00 -2.598473358154296875e+01 2.281153760850429535e-02 -6.048165559768676758e-01 -1.746015101671218872e-01 -1.096089854836463928e-01
1.579000000000000000e+03 1.609191775321960449e+00 3.696724653244018555e+00 -1.261201978195458651e-04 7.265882595675066113e-05 -1.603840973984915763e-05 -9.457785927224904299e-05
1.580000000000000000e+03 2.047683000564575195e+00 2.046916007995605469e+01 -4.450786218512803316e-04 3.147776937112212181e-03 8.108094916678965092e-04 -5.390639416873455048e-04
1.581000000000000000e+03 6.562027335166931152e-01 1.913753509521484375e+01 -2.403798862360417843e-04 4.766136407852172852e-03 1.357726985588669777e-03 -2.788703714031726122e-04
1.582000000000000000e+03 6.352897882461547852e-01 1.772866058349609375e+01 2.354302559979259968e-04 4.163938574492931366e-03 1.319810631684958935e-03 -2.818813372869044542e-04
1.583000000000000000e+03 5.986326336860656738e-01 1.491731071472167969e+01 2.935619850177317858e-04 2.806552452966570854e-03 9.300343226641416550e-04 -2.680679317563772202e-04
1.584000000000000000e+03 1.765160560607910156e+00 9.350682258605957031e+00 -1.760889281285926700e-04 6.534560816362500191e-04 1.432101416867226362e-04 -3.583077632356435061e-04
1.585000000000000000e+03 5.903611779212951660e-01 7.887200832366943359e+00 -1.774218544596806169e-04 5.141065339557826519e-04 1.010054038488306105e-04 -1.020370327751152217e-04
1.586000000000000000e+03 3.187005519866943359e+00 -3.924735641479492188e+01 1.356835756450891495e-02 -7.579506635665893555e-01 -2.233146876096725464e-01 1.344077195972204208e-02
1.587000000000000000e+03 2.497504711151123047e+00 -3.826758193969726562e+01 5.333389621227979660e-03 -7.648297548294067383e-01 -2.278489172458648682e-01 3.432719781994819641e-02
1.588000000000000000e+03 2.933129072189331055e+00 -3.183498382568359375e+01 1.464968547224998474e-02 -6.730450987815856934e-01 -1.975186318159103394e-01 -2.961922623217105865e-02
1.589000000000000000e+03 2.032886505126953125e+00 -2.458790397644042969e+01 2.775967121124267578e-02 -5.404807329177856445e-01 -1.538163125514984131e-01 -1.336004287004470825e-01
1.590000000000000000e+03 6.801034808158874512e-01 -2.475582122802734375e+01 2.292597666382789612e-03 -6.411764025688171387e-01 -1.916651427745819092e-01 -4.681846499443054199e-02
1.591000000000000000e+03 1.859375715255737305e+00 -1.487264537811279297e+01 -3.056386858224868774e-02 1.300361156463623047e-01 2.984167262911796570e-02 -1.008172035217285156e-01
1.592000000000000000e+03 6.228896379470825195e-01 -1.491057586669921875e+01 -8.124039508402347565e-03 2.517760694026947021e-01 7.309560477733612061e-02 -3.662789240479469299e-02
1.593000000000000000e+03 3.000814676284790039e+00 -6.673737525939941406e+00 -1.253630127757787704e-02 9.688270837068557739e-02 2.530392259359359741e-02 1.000424847006797791e-01
1.594000000000000000e+03 5.911691784858703613e-01 -7.875335693359375000e+00 -1.328620244748890400e-03 2.666009664535522461e-01 7.958170771598815918e-02 2.502076700329780579e-02
1.595000000000000000e+03 2.036693334579467773e+00 -2.941739082336425781e+00 2.238938398659229279e-02 3.847184404730796814e-02 1.825836859643459320e-02 6.101277470588684082e-02
1.596000000000000000e+03 5.611007213592529297e-01 5.060653209686279297e+00 -1.272401423193514347e-04 1.623069401830434799e-04 1.052004063240019605e-05 -5.260834586806595325e-05
1.597000000000000000e+03 5.796471238136291504e-01 1.210980796813964844e+01 2.924027503468096256e-04 1.616800902411341667e-03 5.727610550820827484e-04 -2.036927762674167752e-04
1.598000000000000000e+03 2.097782373428344727e+00 2.188424110412597656e+01 -8.138952398439869285e-05 3.152286866679787636e-03 9.212692384608089924e-04 -1.375183346681296825e-04
1.599000000000000000e+03 1.772354888916015625e+01 1.958262062072753906e+01 -6.545262411236763000e-03 6.402428261935710907e-04 -1.771505805663764477e-03 -2.750709652900695801e-03
1.600000000000000000e+03 1.776013374328613281e+01 1.913139939308166504e+00 -1.319799484917894006e-04 5.966848038951866329e-05 -2.169344043068122119e-05 8.330286800628527999e-05
1.601000000000000000e+03 2.787315750122070312e+01 2.467107963562011719e+01 -9.279467910528182983e-02 -5.968512222170829773e-02 -4.574394226074218750e-02 8.521164208650588989e-02
1.602000000000000000e+03 1.796487426757812500e+01 6.999675750732421875e+00 5.828910507261753082e-04 3.780993574764579535e-04 2.882971020881086588e-04 2.367669221712276340e-04
1.603000000000000000e+03 1.734639549255371094e+01 1.086540031433105469e+01 -5.453146877698600292e-04 1.111116725951433182e-03 1.697406260063871741e-04 5.383347161114215851e-04
1.604000000000000000e+03 2.282591247558593750e+01 1.615987300872802734e+00 -2.610025330795906484e-05 9.309786400990560651e-05 2.009928357438184321e-05 -3.614602974266745150e-05
1.605000000000000000e+03 2.238625717163085938e+01 2.971474647521972656e+00 7.805799396010115743e-05 1.694104139460250735e-04 7.424052455462515354e-05 1.221774291479960084e-04
1.606000000000000000e+03 1.793843460083007812e+01 5.880482673645019531e+00 -5.130824865773320198e-04 3.037231508642435074e-04 -6.280779052758589387e-05 1.030221028486266732e-04
1.607000000000000000e+03 1.937559700012207031e+01 5.657448291778564453e+00 4.035333986394107342e-04 4.116411219001747668e-06 1.222949504153802991e-04 -8.494786015944555402e-05
1.608000000000000000e+03 4.402269744873046875e+01 1.096945953369140625e+01 -6.624361965805292130e-03 -1.088106539100408554e-02 -5.251628346741199493e-03 -7.758731953799724579e-04
1.609000000000000000e+03 4.266536331176757812e+01 1.064889144897460938e+01 -5.590067594312131405e-04 -1.971847843378782272e-03 -7.592564215883612633e-04 -3.166030626744031906e-03
1.610000000000000000e+03 1.782711982727050781e+01 8.200953483581542969e+00 -5.802894011139869690e-04 4.849049146287143230e-04 -2.861535176634788513e-05 2.003355184569954872e-04
1.611000000000000000e+03 1.844800376892089844e+01 2.478210926055908203e+00 7.587319123558700085e-05 4.755469853989779949e-05 3.702836693264544010e-05 1.573731860844418406e-04
1.612000000000000000e+03 2.093447875976562500e+01 3.241475105285644531e+00 1.273347443202510476e-04 8.956986130215227604e-05 6.507138459710404277e-05 6.851048965472728014e-05
1.613000000000000000e+03 3.076295089721679688e+01 2.466596031188964844e+01 -9.821005165576934814e-02 -6.744049489498138428e-02 -4.969516396522521973e-02 9.693840146064758301e-02
1.614000000000000000e+03 3.072006416320800781e+01 2.007185363769531250e+01 -2.523585855960845947e-01 -6.397813558578491211e-02 -9.490101039409637451e-02 1.126793101429939270e-01
1.615000000000000000e+03 3.420406723022460938e+01 1.973023986816406250e+01 -1.960244178771972656e-01 -4.327437281608581543e-02 -7.178963720798492432e-02 9.114526212215423584e-02
1.616000000000000000e+03 4.438656997680664062e+01 5.141681194305419922e+00 1.746789901517331600e-03 1.864964870037510991e-04 5.799859063699841499e-04 -4.892965080216526985e-04
1.617000000000000000e+03 4.083097076416015625e+01 1.389387226104736328e+01 -6.557541340589523315e-02 1.101792603731155396e-02 -1.636724732816219330e-02 1.499918755143880844e-02
1.618000000000000000e+03 3.659280776977539062e+01 1.794971656799316406e+01 -1.695021092891693115e-01 -1.300440263003110886e-02 -5.475195124745368958e-02 7.273636013269424438e-02
1.619000000000000000e+03 3.164758300781250000e+01 2.124953651428222656e+01 -1.819390654563903809e-01 -6.555473059415817261e-02 -7.424813508987426758e-02 9.464483708143234253e-02
1.620000000000000000e+03 4.252127075195312500e+01 -6.025865674018859863e-01 -5.705830454826354980e-01 -1.881898045539855957e-01 -2.276318520307540894e-01 -4.661182761192321777e-01
1.621000000000000000e+03 3.877340698242187500e+01 1.592169284820556641e+01 -1.210358589887619019e-01 7.534974254667758942e-03 -3.405026718974113464e-02 4.241247847676277161e-02
1.622000000000000000e+03 6.651266479492187500e+01 -1.116524028778076172e+01 -8.792124390602111816e-01 2.295473098754882812e+00 4.248781800270080566e-01 -6.993634700775146484e-01
1.623000000000000000e+03 4.351971435546875000e+01 -1.681892776489257812e+01 3.007787764072418213e-01 7.298024296760559082e-01 3.091743588447570801e-01 -1.019446104764938354e-01
1.624000000000000000e+03 5.804158401489257812e+01 2.573087811470031738e-02 -6.442329883575439453e-01 -4.254017472267150879e-01 -3.208904266357421875e-01 -2.662679851055145264e-01
1.625000000000000000e+03 2.578090095520019531e+01 -4.534617900848388672e+00 -6.692721843719482422e-01 1.175022423267364502e-01 -1.655309796333312988e-01 4.790473356842994690e-02
1.626000000000000000e+03 7.191392517089843750e+01 2.137598609924316406e+01 1.469770789146423340e+00 9.617040634155273438e+00 3.326043367385864258e+00 -5.616863250732421875e+00
1.627000000000000000e+03 7.085990905761718750e+01 2.113864326477050781e+01 1.973534822463989258e+00 2.777399063110351562e+00 1.425280213356018066e+00 -3.100271224975585938e+00
1.628000000000000000e+03 7.177304077148437500e+01 2.158863067626953125e+01 1.216913938522338867e+00 8.746333122253417969e+00 2.988974094390869141e+00 -5.153578758239746094e+00
1.629000000000000000e+03 6.963224029541015625e+01 2.110527610778808594e+01 2.618610560894012451e-01 1.050059080123901367e+00 3.935760259628295898e-01 -7.490433454513549805e-01
1.630000000000000000e+03 7.140824127197265625e+01 1.787709999084472656e+01 2.689745187759399414e+00 5.962344646453857422e+00 2.595626831054687500e+00 4.599518299102783203e+00
1.631000000000000000e+03 7.054532623291015625e+01 1.773138809204101562e+01 1.978635549545288086e+00 2.602009773254394531e+00 1.374193549156188965e+00 2.398066520690917969e+00
1.632000000000000000e+03 7.158853912353515625e+01 1.790021705627441406e+01 2.607509136199951172e+00 6.991689205169677734e+00 2.879759311676025391e+00 4.981224536895751953e+00
1.633000000000000000e+03 7.011503601074218750e+01 1.732045555114746094e+01 1.569536924362182617e+00 2.427925109863281250e+00 1.199238538742065430e+00 1.985023856163024902e+00
1.634000000000000000e+03 7.117034149169921875e+01 1.711250305175781250e+01 1.325143694877624512e+00 6.041586399078369141e+00 2.210019111633300781e+00 3.562333106994628906e+00
1.635000000000000000e+03 7.326880645751953125e+01 1.750206375122070312e+01 -3.403488397598266602e-01 1.631350517272949219e+01 4.791946887969970703e+00 6.855709552764892578e-01
1.636000000000000000e+03 7.426082611083984375e+01 1.918025970458984375e+01 8.211755752563476562e+00 1.478541946411132812e+01 6.899152755737304688e+00 -1.838387608528137207e+00
1.637000000000000000e+03 7.354299926757812500e+01 1.758573913574218750e+01 3.540906310081481934e-02 1.647324752807617188e+01 4.952596664428710938e+00 -4.004733264446258545e-01
1.638000000000000000e+03 7.448142242431640625e+01 2.001747894287109375e+01 7.479258060455322266e+00 1.387311935424804688e+01 6.405713081359863281e+00 1.563107609748840332e+00
1.639000000000000000e+03 7.362415313720703125e+01 2.148060417175292969e+01 1.347415745258331299e-01 1.688763809204101562e+01 5.106714248657226562e+00 4.716728031635284424e-01
1.640000000000000000e+03 7.378437805175781250e+01 1.774588394165039062e+01 8.514307737350463867e-01 1.659223175048828125e+01 5.233098983764648438e+00 -1.455892443656921387e+00
1.641000000000000000e+03 7.448286437988281250e+01 2.057962989807128906e+01 5.082798480987548828e+00 1.443781661987304688e+01 5.856184482574462891e+00 2.571786403656005859e+00
1.642000000000000000e+03 7.315804290771484375e+01 2.163632202148437500e+01 -6.040343046188354492e-01 1.632036590576171875e+01 4.714899539947509766e+00 -1.681325912475585938e+00
1.643000000000000000e+03 7.476709747314453125e+01 1.962095260620117188e+01 7.072807312011718750e+00 1.266187286376953125e+01 5.920403957366943359e+00 2.245927043259143829e-02
1.644000000000000000e+03 6.980958557128906250e+01 2.147376060485839844e+01 6.366592049598693848e-01 1.677507638931274414e+00 6.942500472068786621e-01 -1.361914753913879395e+00
1.645000000000000000e+03 1.069247627258300781e+01 -3.430772304534912109e+00 1.367237120866775513e-01 -6.829492002725601196e-02 2.052863501012325287e-02 3.652739524841308594e-02
1.646000000000000000e+03 9.371989250183105469e+00 -2.613946199417114258e+00 1.764093786478042603e-01 -4.558513686060905457e-02 3.924727067351341248e-02 4.996413737535476685e-02
1.647000000000000000e+03 2.005651855468750000e+01 2.360337018966674805e+00 -1.328532380284741521e-04 -5.656941357301548123e-05 -5.682679693563841283e-05 3.417940024519339204e-05
1.648000000000000000e+03 1.847379684448242188e+01 1.161133646965026855e+00 -4.553902908810414374e-05 -3.494835254969075322e-05 -2.414621485513634980e-05 4.218142203171737492e-05
1.649000000000000000e+03 2.036372566223144531e+01 1.355619311332702637e+00 1.001335549517534673e-04 8.533924119547009468e-05 5.564183811657130718e-05 -1.846006853156723082e-05
1.650000000000000000e+03 6.786524963378906250e+01 2.304684638977050781e+01 -5.455057024955749512e-01 1.262074708938598633e+00 2.149707078933715820e-01 -1.005131244659423828e+00
1.651000000000000000e+03 6.694309234619140625e+01 2.195731925964355469e+01 -1.800724625587463379e+00 1.309338957071304321e-01 -5.009372234344482422e-01 3.679127991199493408e-02
1.652000000000000000e+03 1.445476341247558594e+01 1.776670455932617188e+00 -6.104354497438180260e-07 2.418988515273667872e-06 5.425658855529036373e-07 5.931715713813900948e-05
1.653000000000000000e+03 1.654517364501953125e+01 1.335154771804809570e+00 1.325130142504349351e-04 5.114632949698716402e-05 5.509780021384358406e-05 5.371821680455468595e-05
1.654000000000000000e+03 1.717424583435058594e+01 1.892708420753479004e+00 2.234135463368147612e-04 1.777522084012161940e-05 7.235663360916078091e-05 1.292652596021071076e-04
1.655000000000000000e+03 6.836676788330078125e+01 2.295714950561523438e+01 -3.828961551189422607e-01 1.698992729187011719e+00 3.948289752006530762e-01 -1.301940202713012695e+00
1.656000000000000000e+03 1.131001758575439453e+01 -4.176211357116699219e+00 8.163661509752273560e-02 -9.211727976799011230e-02 -3.144199261441826820e-03 2.032681927084922791e-02
1.657000000000000000e+03 1.204930782318115234e+01 -3.592923402786254883e+00 1.273750811815261841e-01 -6.894483417272567749e-02 1.752907410264015198e-02 -7.114443462342023849e-03
1.658000000000000000e+03 6.249854087829589844e+00 3.366470336914062500e+00 1.714159006951376796e-04 -9.399179543834179640e-05 2.322723412362392992e-05 -1.715927646728232503e-04
1.659000000000000000e+03 5.440389633178710938e+00 2.653972864151000977e+00 1.240965648321434855e-04 -5.784634777228347957e-05 1.987506402656435966e-05 -1.184509601444005966e-04
1.660000000000000000e+03 3.909401416778564453e+00 4.348580360412597656e+00 -2.169561776099726558e-05 9.551094080961775035e-06 -3.643357331384322606e-06 -1.353124243905767798e-04
1.661000000000000000e+03 3.209416627883911133e+00 3.481629371643066406e+00 -6.131631380412727594e-05 8.183164754882454872e-05 6.154600669106002897e-06 -1.714163372525945306e-04
1.662000000000000000e+03 9.247429847717285156e+00 3.237476825714111328e+00 1.838965254137292504e-04 -1.370210811728611588e-04 1.406263345415936783e-05 -5.881933975615538657e-05
1.663000000000000000e+03 6.189503192901611328e+00 2.623705863952636719e+00 2.719118492677807808e-04 3.946325523429550231e-05 9.341253462480381131e-05 -1.166076690424233675e-04
1.664000000000000000e+03 9.922305107116699219e+00 2.508180141448974609e+00 1.940507063409313560e-04 -9.785164002096280456e-05 2.885972207877784967e-05 -2.535051498853135854e-05
1.665000000000000000e+03 1.002592372894287109e+01 3.200487613677978516e+00 4.144222766626626253e-04 -2.657738332345616072e-05 1.163534689112566411e-04 4.930173599859699607e-05
1.666000000000000000e+03 4.493610763549804688e+01 -1.590216159820556641e+00 -9.519226551055908203e-01 2.286159694194793701e-01 -2.169920057058334351e-01 -3.518127799034118652e-01
1.667000000000000000e+03 4.281512451171875000e+01 -1.354818701744079590e+00 -8.639218807220458984e-01 -6.645339727401733398e-02 -2.791125774383544922e-01 -5.489051342010498047e-01
1.668000000000000000e+03 4.738408279418945312e+01 5.031628608703613281e+00 3.825269523076713085e-04 2.525347372284159064e-05 1.223341387230902910e-04 2.666424261406064034e-04
1.669000000000000000e+03 1.357435131072998047e+01 -3.189244747161865234e+00 1.582405716180801392e-01 -4.595695063471794128e-02 3.368508815765380859e-02 -5.974555760622024536e-02
1.670000000000000000e+03 1.412078857421875000e+01 -4.002695560455322266e+00 7.028739154338836670e-02 -7.554987072944641113e-02 -1.578744268044829369e-03 -9.655915945768356323e-02
1.671000000000000000e+03 1.636886787414550781e+01 -4.564385414123535156e+00 -5.432173237204551697e-02 -4.018313437700271606e-02 -2.835145965218544006e-02 -2.116375118494033813e-01
1.672000000000000000e+03 1.272520351409912109e+01 -3.702751398086547852e+00 1.191296726465225220e-01 -7.561962306499481201e-02 1.305301487445831299e-02 -3.286791220307350159e-02
1.673000000000000000e+03 1.341382026672363281e+01 -3.833492279052734375e+00 9.582794457674026489e-02 -6.641472131013870239e-02 8.823967538774013519e-03 -6.251931190490722656e-02
1.674000000000000000e+03 5.642611026763916016e+00 -2.569545269012451172e+00 9.926217794418334961e-02 -3.701844485476613045e-03 2.866810001432895660e-02 9.210187196731567383e-02
1.675000000000000000e+03 7.107013702392578125e+00 -4.132995128631591797e+00 6.359917670488357544e-02 -3.435624390840530396e-02 8.772878907620906830e-03 1.096924915909767151e-01
1.676000000000000000e+03 4.721208572387695312e+00 -3.887212991714477539e+00 4.287063330411911011e-02 1.609726436436176300e-02 1.769036985933780670e-02 1.112987399101257324e-01
1.677000000000000000e+03 6.352857589721679688e+00 -3.337979555130004883e+00 8.588422834873199463e-02 -1.450166665017604828e-02 2.141476795077323914e-02 1.048046424984931946e-01
1.678000000000000000e+03 2.747815608978271484e+00 -2.840239763259887695e+00 3.295968845486640930e-02 3.365188837051391602e-02 1.998347230255603790e-02 7.058110088109970093e-02
1.679000000000000000e+03 4.276515007019042969e+00 -3.381322622299194336e+00 5.027952790260314941e-02 2.041140757501125336e-02 2.120728045701980591e-02 1.022261828184127808e-01
1.680000000000000000e+03 2.029829025268554688e+00 -3.881232023239135742e+00 1.607321947813034058e-02 6.587954610586166382e-02 2.458582818508148193e-02 7.128132134675979614e-02
1.681000000000000000e+03 1.000176239013671875e+01 -4.124750614166259766e+00 8.710969239473342896e-02 -8.222983777523040771e-02 1.463955501094460487e-03 5.836904421448707581e-02
1.682000000000000000e+03 7.124918937683105469e+00 -3.348886251449584961e+00 9.629019349813461304e-02 -2.669617533683776855e-02 2.087820507586002350e-02 9.733726829290390015e-02
1.683000000000000000e+03 7.885932922363281250e+00 -3.349304676055908203e+00 1.092406809329986572e-01 -3.915316984057426453e-02 2.102625370025634766e-02 9.013534337282180786e-02
1.684000000000000000e+03 4.793369293212890625e+01 -1.560847640037536621e+00 -1.083526253700256348e+00 2.577017545700073242e-01 -2.477473616600036621e-01 -1.561991125345230103e-01
1.685000000000000000e+03 4.937667846679687500e+01 -1.587524890899658203e+00 -1.198555350303649902e+00 1.539140939712524414e-01 -3.133923709392547607e-01 -1.072420999407768250e-01
1.686000000000000000e+03 4.569460678100585938e+01 -1.586647152900695801e+00 -9.744051098823547363e-01 2.491526305675506592e-01 -2.175757288932800293e-01 -2.970036864280700684e-01
1.687000000000000000e+03 4.342596817016601562e+01 -1.990052103996276855e+00 -1.097181439399719238e+00 1.438378989696502686e-01 -2.860030829906463623e-01 -4.755882024765014648e-01
1.688000000000000000e+03 1.717180061340332031e+01 -4.689690113067626953e+00 -1.078370511531829834e-01 -2.122212760150432587e-02 -3.871775418519973755e-02 -2.474436163902282715e-01
1.689000000000000000e+03 1.579338932037353516e+01 -3.669549942016601562e+00 5.212679877877235413e-02 -2.046109735965728760e-02 9.499710984528064728e-03 -1.563220322132110596e-01
1.690000000000000000e+03 1.458702087402343750e+01 -4.911558628082275391e+00 -2.336144261062145233e-02 -1.137284263968467712e-01 -4.112696275115013123e-02 -1.433216482400894165e-01
1.691000000000000000e+03 1.172372150421142578e+01 3.071303367614746094e+00 3.960563626606017351e-04 -3.426827970542944968e-05 1.085364274331368506e-04 1.379623572574928403e-04
1.692000000000000000e+03 6.945600128173828125e+01 1.713779449462890625e+01 9.513836503028869629e-01 1.588431477546691895e+00 7.619445323944091797e-01 1.093558907508850098e+00
1.693000000000000000e+03 1.484386920928955078e+01 -4.209043025970458984e+00 3.083560429513454437e-02 -6.071227043867111206e-02 -8.963000029325485229e-03 -1.393379122018814087e-01
1.694000000000000000e+03 2.071874427795410156e+01 -5.098637580871582031e+00 -3.265745043754577637e-01 9.178590774536132812e-02 -7.043658196926116943e-02 -2.675426602363586426e-01
1.695000000000000000e+03 2.252666091918945312e+01 -4.167961597442626953e+00 -3.890419304370880127e-01 9.823393076658248901e-02 -8.724240213632583618e-02 -1.185451224446296692e-01
1.696000000000000000e+03 4.654805755615234375e+01 -2.376781225204467773e+00 -1.014172554016113281e+00 3.246263861656188965e-01 -2.068638354539871216e-01 -2.448566704988479614e-01
1.697000000000000000e+03 1.371564102172851562e+01 1.881954073905944824e+00 2.914649958256632090e-04 -1.227238499268423766e-05 8.375778270419687033e-05 1.512307790108025074e-04
1.698000000000000000e+03 1.306693172454833984e+01 2.612266778945922852e+00 3.383584262337535620e-04 -1.575185888214036822e-05 9.678197238827124238e-05 2.165334153687581420e-04
1.699000000000000000e+03 5.075634765625000000e+01 -1.746516823768615723e+00 -1.146059393882751465e+00 -7.856641709804534912e-02 -3.673877418041229248e-01 -4.710795730352401733e-02
1.700000000000000000e+03 2.435817527770996094e+01 -4.675889492034912109e+00 -5.468142032623291016e-01 1.518222689628601074e-01 -1.184975802898406982e-01 -5.812986195087432861e-02
1.701000000000000000e+03 2.647917556762695312e+01 -4.854017257690429688e+00 -8.391143083572387695e-01 1.396739631891250610e-01 -2.098321020603179932e-01 1.261417716741561890e-01
1.702000000000000000e+03 2.274393463134765625e+01 -5.758989334106445312e+00 -5.139822959899902344e-01 1.743785738945007324e-01 -1.018811091780662537e-01 -2.278074771165847778e-01
1.703000000000000000e+03 2.352348327636718750e+01 -4.840595722198486328e+00 -5.281019806861877441e-01 1.639560759067535400e-01 -1.092437803745269775e-01 -1.126724332571029663e-01
1.704000000000000000e+03 1.799461555480957031e+01 -4.794577598571777344e+00 -1.556167304515838623e-01 7.416859734803438187e-03 -4.445996135473251343e-02 -2.632678449153900146e-01
1.705000000000000000e+03 1.374921894073486328e+01 3.234454154968261719e+00 3.254249168094247580e-04 1.163741762866266072e-04 1.325397315667942166e-04 2.102466678479686379e-04
1.706000000000000000e+03 4.517877197265625000e+01 5.041886329650878906e+00 7.401400944218039513e-04 -4.817279404960572720e-04 7.752364035695791245e-05 -3.062266332563012838e-04
1.707000000000000000e+03 6.937183380126953125e+01 1.583167076110839844e+01 3.040120303630828857e-01 2.891647815704345703e+00 9.586979150772094727e-01 1.576509594917297363e+00
1.708000000000000000e+03 7.090746307373046875e+01 -1.641524124145507812e+01 4.787046611309051514e-01 7.154311656951904297e+00 2.289904832839965820e+00 7.978160977363586426e-01
1.709000000000000000e+03 6.923011016845703125e+01 -1.326753234863281250e+01 -6.600773930549621582e-01 5.591351985931396484e+00 1.479382395744323730e+00 3.504169583320617676e-01
1.710000000000000000e+03 6.502458190917968750e+01 -9.080970764160156250e+00 -4.590871036052703857e-01 1.046094775199890137e+00 1.761022955179214478e-01 -1.165397390723228455e-01
1.711000000000000000e+03 1.770412635803222656e+01 3.719810724258422852e+00 -3.012230736203491688e-04 1.767042558640241623e-04 -3.735564314411021769e-05 1.415848382748663425e-04
1.712000000000000000e+03 9.388783454895019531e+00 -1.880343627929687500e+01 -5.567444488406181335e-02 -3.934250771999359131e-01 -1.347298622131347656e-01 -4.655462205410003662e-01
1.713000000000000000e+03 2.370340538024902344e+01 -1.101660633087158203e+01 -1.910283416509628296e-01 1.640993654727935791e-01 -8.078690618276596069e-03 -3.968906700611114502e-01
1.714000000000000000e+03 6.047461318969726562e+01 2.466976642608642578e+00 -5.500228404998779297e-01 -2.902945876121520996e-01 -2.520952224731445312e-01 -4.495812058448791504e-01
1.715000000000000000e+03 6.330389785766601562e+01 5.175712585449218750e+00 -4.904696345329284668e-01 1.282253712415695190e-01 -1.086732745170593262e-01 -2.476102113723754883e-01
1.716000000000000000e+03 1.343932819366455078e+01 -2.796212005615234375e+01 3.312817215919494629e-01 1.464993059635162354e-01 1.433343142271041870e-01 -2.240739911794662476e-01
1.717000000000000000e+03 1.418518161773681641e+01 -2.884214401245117188e+01 3.413409292697906494e-01 1.617863774299621582e-01 1.509381979703903198e-01 -2.077098339796066284e-01
1.718000000000000000e+03 1.668622398376464844e+01 -1.075269603729248047e+01 -6.431934237480163574e-01 -2.679607868194580078e-01 -2.733462750911712646e-01 -4.107908308506011963e-01
1.719000000000000000e+03 6.233844375610351562e+01 2.580287218093872070e+00 -3.229384124279022217e-01 1.957887858152389526e-01 -3.814488649368286133e-02 -1.826971173286437988e-01
1.720000000000000000e+03 4.164486312866210938e+01 -3.042880058288574219e+00 -1.355787992477416992e+00 -6.983396410942077637e-02 -4.276865720748901367e-01 -4.465624392032623291e-01
1.721000000000000000e+03 4.415142822265625000e+01 -1.671228051185607910e+00 -9.794920086860656738e-01 1.623446047306060791e-01 -2.451442182064056396e-01 -4.363780319690704346e-01
1.722000000000000000e+03 2.722853088378906250e+01 -5.359949588775634766e+00 -1.260685324668884277e+00 1.777785420417785645e-01 -3.248720169067382812e-01 2.465008385479450226e-02
1.723000000000000000e+03 2.871001243591308594e+01 -6.890815258026123047e+00 -1.118782281875610352e+00 -5.389264598488807678e-02 -3.518024682998657227e-01 -3.259296417236328125e-01
1.724000000000000000e+03 6.162951660156250000e+01 -9.078107833862304688e+00 -5.050978660583496094e-01 -3.916231915354728699e-02 -1.632780581712722778e-01 4.758082926273345947e-01
1.725000000000000000e+03 6.067026901245117188e+01 -8.867013931274414062e+00 -4.745975136756896973e-01 -8.938387781381607056e-02 -1.691944152116775513e-01 4.979533255100250244e-01
1.726000000000000000e+03 6.741662597656250000e+01 -1.042591285705566406e+01 -8.978622555732727051e-01 3.343580245971679688e+00 7.337154150009155273e-01 -4.443668723106384277e-01
1.727000000000000000e+03 3.760633087158203125e+01 -2.707960700988769531e+01 -6.345649715512990952e-03 -3.437582254409790039e-01 -1.050311625003814697e-01 1.663383282721042633e-02
1.728000000000000000e+03 1.277394294738769531e+01 -1.000303649902343750e+01 -4.364462494850158691e-01 -4.285530149936676025e-01 -2.594997882843017578e-01 -1.525685489177703857e-01
1.729000000000000000e+03 1.430748558044433594e+01 -1.158038616180419922e+01 -8.286209702491760254e-01 -5.438773036003112793e-01 -4.117494821548461914e-01 -3.601958155632019043e-01
1.730000000000000000e+03 2.357519531250000000e+01 -1.207918739318847656e+01 -7.630667649209499359e-03 1.292999237775802612e-01 3.650077432394027710e-02 -3.261895179748535156e-01
1.731000000000000000e+03 2.931092643737792969e+01 -1.214319324493408203e+01 2.429111301898956299e-01 8.055304735898971558e-02 9.703925251960754395e-02 -4.588448703289031982e-01
1.732000000000000000e+03 5.803146362304687500e+01 -5.864875316619873047e+00 -1.621004194021224976e-01 -2.916339933872222900e-01 -1.361203193664550781e-01 4.164871573448181152e-01
1.733000000000000000e+03 6.771423339843750000e+01 2.244587516784667969e+01 -9.521045684814453125e-01 9.047659635543823242e-01 -1.420159358531236649e-02 -6.815878748893737793e-01
1.734000000000000000e+03 4.335551071166992188e+01 -1.251316165924072266e+01 2.388895153999328613e-01 3.497475385665893555e-01 1.765911132097244263e-01 6.666661798954010010e-02
1.735000000000000000e+03 1.877650642395019531e+01 -1.182381820678710938e+01 -6.218194365501403809e-01 1.186056733131408691e-01 -1.509641259908676147e-01 -1.822218298912048340e-01
1.736000000000000000e+03 1.723616027832031250e+01 -9.954305648803710938e+00 -5.838572978973388672e-01 -1.477071493864059448e-01 -2.194693386554718018e-01 -4.402392804622650146e-01
1.737000000000000000e+03 6.271631240844726562e+01 -3.180847167968750000e+01 2.372127771377563477e-01 1.641004204750061035e+00 5.634651184082031250e-01 6.810134649276733398e-01
1.738000000000000000e+03 2.051996612548828125e+01 -1.024080848693847656e+01 -4.180365502834320068e-01 1.452549993991851807e-01 -8.183446526527404785e-02 -3.811075091361999512e-01
1.739000000000000000e+03 6.343138122558593750e+01 -1.039292716979980469e+01 -6.877441406250000000e-01 3.484519198536872864e-02 -1.958696842193603516e-01 3.107675313949584961e-01
1.740000000000000000e+03 2.022792434692382812e+01 -1.123861026763916016e+01 -4.377291798591613770e-01 1.514260172843933105e-01 -8.589094877243041992e-02 -2.750902175903320312e-01
1.741000000000000000e+03 6.953012084960937500e+01 -2.499956512451171875e+01 8.213514089584350586e-02 6.091377258300781250e+00 1.852053761482238770e+00 6.837004423141479492e-01
1.742000000000000000e+03 6.529846954345703125e+01 7.061208248138427734e+00 -4.566135406494140625e-01 9.399979114532470703e-01 1.450152993202209473e-01 7.058195769786834717e-02
1.743000000000000000e+03 6.798088073730468750e+01 6.323534488677978516e+00 -4.479857683181762695e-01 3.203910589218139648e+00 8.267774581909179688e-01 3.841013312339782715e-01
1.744000000000000000e+03 4.332979202270507812e+01 1.327799987792968750e+01 -5.201274901628494263e-02 3.568626998458057642e-04 -1.549676619470119476e-02 -2.432607579976320267e-03
1.745000000000000000e+03 4.215493392944335938e+01 1.201591873168945312e+01 -2.088496647775173187e-02 8.589040953665971756e-04 -6.007818505167961121e-03 1.542070414870977402e-03
1.746000000000000000e+03 2.715265655517578125e+01 -1.233251380920410156e+01 2.728291153907775879e-01 9.037865698337554932e-02 1.089623346924781799e-01 -4.363048970699310303e-01
1.747000000000000000e+03 1.652809143066406250e+01 2.254257774353027344e+01 -2.325737662613391876e-02 -6.960406317375600338e-04 -7.186025381088256836e-03 8.397587575018405914e-03
1.748000000000000000e+03 1.822873306274414062e+01 2.252438735961914062e+01 -3.316031023859977722e-02 3.503913758322596550e-03 -8.896918967366218567e-03 1.107660215348005295e-02
1.749000000000000000e+03 4.332166671752929688e+01 -2.453112030029296875e+01 2.486416995525360107e-01 7.121040821075439453e-01 2.882237434387207031e-01 -1.392643898725509644e-01
1.750000000000000000e+03 4.333111572265625000e+01 -2.326286506652832031e+01 2.475658357143402100e-01 7.778336405754089355e-01 3.076198399066925049e-01 -1.867873370647430420e-01
1.751000000000000000e+03 4.507693862915039062e+01 6.917124748229980469e+00 3.724459558725357056e-03 -1.618236768990755081e-03 6.318668602034449577e-04 -1.049807411618530750e-03
1.752000000000000000e+03 4.604948806762695312e+01 5.972416400909423828e+00 6.490573287010192871e-04 -2.755978202912956476e-04 1.120378437917679548e-04 7.093651674949796870e-06
1.753000000000000000e+03 1.715357208251953125e+01 1.226593017578125000e+01 1.051377854309976101e-03 1.707733375951647758e-03 8.277333690784871578e-04 1.264528138563036919e-03
1.754000000000000000e+03 3.545803833007812500e+01 -2.949518966674804688e+01 1.305901110172271729e-01 -4.125118851661682129e-01 -8.457653224468231201e-02 -2.276716567575931549e-02
1.755000000000000000e+03 4.662274932861328125e+01 -2.617836380004882812e+01 1.898560822010040283e-01 1.120816826820373535e+00 3.932018578052520752e-01 -3.104699254035949707e-01
1.756000000000000000e+03 6.936686706542968750e+01 1.497298145294189453e+01 2.676936686038970947e-01 3.528688669204711914e+00 1.138914704322814941e+00 1.741629362106323242e+00
1.757000000000000000e+03 5.189140701293945312e+01 -3.390151214599609375e+01 3.722512722015380859e-01 3.671900928020477295e-01 2.218324095010757446e-01 -3.546781539916992188e-01
1.758000000000000000e+03 2.598608970642089844e+01 -1.346374702453613281e+01 4.875684082508087158e-01 5.196529999375343323e-02 1.618601083755493164e-01 -3.142935633659362793e-01
1.759000000000000000e+03 3.428891754150390625e+01 -6.572653293609619141e+00 -1.675297975540161133e+00 -2.280688136816024780e-01 -5.710099935531616211e-01 -2.450268119573593140e-01
1.760000000000000000e+03 3.697440719604492188e+01 -6.770865440368652344e+00 -1.269699931144714355e+00 -3.006189167499542236e-01 -4.710956811904907227e-01 -3.082162737846374512e-01
1.761000000000000000e+03 6.393071746826171875e+01 2.581519126892089844e+01 -6.174597740173339844e-01 2.546328306198120117e-01 -1.088480874896049500e-01 -3.438867926597595215e-01
1.762000000000000000e+03 7.639253997802734375e+01 -3.121778869628906250e+01 -8.467571437358856201e-02 6.551521778106689453e+00 1.940053820610046387e+00 -7.256399095058441162e-02
1.763000000000000000e+03 7.643494415283203125e+01 -3.256103515625000000e+01 -5.837203562259674072e-02 6.540913581848144531e+00 1.944762468338012695e+00 -2.703721262514591217e-02
1.764000000000000000e+03 7.645855712890625000e+01 -2.979903602600097656e+01 -9.912395477294921875e-02 6.564542770385742188e+00 1.939625620841979980e+00 -1.256543993949890137e-01
1.765000000000000000e+03 7.862537384033203125e+01 1.955208587646484375e+01 6.058779358863830566e-01 4.082248687744140625e+00 1.406437993049621582e+00 -2.494204603135585785e-02
1.766000000000000000e+03 7.681042480468750000e+01 -2.702471351623535156e+01 -2.391620166599750519e-02 6.645530700683593750e+00 1.986484408378601074e+00 -2.017929702997207642e-01
1.767000000000000000e+03 7.710095977783203125e+01 -2.441583824157714844e+01 6.694965809583663940e-02 6.637115001678466797e+00 2.011219263076782227e+00 -1.577321141958236694e-01
1.768000000000000000e+03 7.706048583984375000e+01 -2.572778320312500000e+01 3.649939596652984619e-02 6.642239570617675781e+00 2.003621816635131836e+00 -1.963103711605072021e-01
1.769000000000000000e+03 7.853243255615234375e+01 2.094665527343750000e+01 5.700198411941528320e-01 4.590935230255126953e+00 1.548286557197570801e+00 9.348967075347900391e-01
1.770000000000000000e+03 7.676490783691406250e+01 2.530385017395019531e+01 -8.411735892295837402e-01 8.610547065734863281e+00 2.330812215805053711e+00 1.414576053619384766e+00
1.771000000000000000e+03 7.703186798095703125e+01 2.398353576660156250e+01 -4.830098152160644531e-01 8.434369087219238281e+00 2.385407686233520508e+00 1.936301469802856445e+00
1.772000000000000000e+03 7.751863861083984375e+01 1.404613113403320312e+01 -4.862347543239593506e-01 8.254706382751464844e+00 2.330541610717773438e+00 -1.768112778663635254e+00
1.773000000000000000e+03 7.707778930664062500e+01 -2.307032966613769531e+01 1.280493289232254028e-01 6.619620800018310547e+00 2.024301052093505859e+00 -9.147211164236068726e-02
1.774000000000000000e+03 7.707638549804687500e+01 8.956052780151367188e+00 -3.011769354343414307e-01 8.810027122497558594e+00 2.552655220031738281e+00 -5.047017335891723633e-01
1.775000000000000000e+03 7.582913970947265625e+01 2.829105949401855469e+01 -7.921448349952697754e-01 8.170969963073730469e+00 2.213647365570068359e+00 2.951541543006896973e-01
1.776000000000000000e+03 7.673187255859375000e+01 2.727645301818847656e+01 -7.124996185302734375e-01 8.343081474304199219e+00 2.289174556732177734e+00 7.624773383140563965e-01
1.777000000000000000e+03 7.747222900390625000e+01 1.279361152648925781e+01 -4.896658062934875488e-01 8.550252914428710938e+00 2.418176174163818359e+00 -1.406517386436462402e+00
1.778000000000000000e+03 7.740610504150390625e+01 1.154461097717285156e+01 -4.413221180438995361e-01 8.734997749328613281e+00 2.488102674484252930e+00 -1.044850468635559082e+00
1.779000000000000000e+03 7.689190673828125000e+01 2.951975822448730469e+01 -3.363245427608489990e-01 8.087659835815429688e+00 2.325400352478027344e+00 2.767429351806640625e-01
1.780000000000000000e+03 7.696417236328125000e+01 4.514782428741455078e-01 -4.513109102845191956e-02 8.722515106201171875e+00 2.603215217590332031e+00 9.954501688480377197e-02
1.781000000000000000e+03 7.816062927246093750e+01 1.685493707656860352e+00 -2.407401055097579956e-02 9.507542610168457031e+00 2.845040559768676758e+00 2.658837288618087769e-02
1.782000000000000000e+03 7.685784149169921875e+01 -1.721135902404785156e+01 1.885760724544525146e-01 7.029466629028320312e+00 2.165412902832031250e+00 5.916056036949157715e-01
1.783000000000000000e+03 7.716753387451171875e+01 -1.448403263092041016e+01 3.821375966072082520e-02 7.472798824310302734e+00 2.253303766250610352e+00 7.005723118782043457e-01
1.784000000000000000e+03 7.700991058349609375e+01 -1.575192165374755859e+01 8.710527420043945312e-02 7.271800994873046875e+00 2.207671880722045898e+00 6.814354062080383301e-01
1.785000000000000000e+03 7.692046356201171875e+01 -6.513186454772949219e+00 -8.706895262002944946e-02 8.365533828735351562e+00 2.483539581298828125e+00 3.170068860054016113e-01
1.786000000000000000e+03 7.698146820068359375e+01 -7.880651950836181641e+00 -1.184699460864067078e-01 8.301831245422363281e+00 2.455008506774902344e+00 3.928632438182830811e-01
1.787000000000000000e+03 7.694154357910156250e+01 -9.435448646545410156e-01 -4.723297059535980225e-02 8.643099784851074219e+00 2.578759908676147461e+00 1.243158504366874695e-01
1.788000000000000000e+03 7.692028808593750000e+01 7.511287212371826172e+00 -2.419542968273162842e-01 8.778845787048339844e+00 2.561067581176757812e+00 -3.164287805557250977e-01
1.789000000000000000e+03 7.692231750488281250e+01 6.027564525604248047e+00 -1.642888486385345459e-01 8.780520439147949219e+00 2.584869384765625000e+00 -1.548349410295486450e-01
1.790000000000000000e+03 7.692727661132812500e+01 4.605826377868652344e+00 -1.034681200981140137e-01 8.794312477111816406e+00 2.607253074645996094e+00 -7.033644616603851318e-02
1.791000000000000000e+03 7.687667846679687500e+01 -2.335849761962890625e+00 -5.005042999982833862e-02 8.569040298461914062e+00 2.555696964263916016e+00 1.642070412635803223e-01
1.792000000000000000e+03 7.551795959472656250e+01 -3.563241720199584961e+00 -9.700072556734085083e-02 7.729902744293212891e+00 2.289870738983154297e+00 2.482804358005523682e-01
1.793000000000000000e+03 7.706098175048828125e+01 -9.222823143005371094e+00 -1.261744201183319092e-01 8.197597503662109375e+00 2.421427011489868164e+00 4.773348569869995117e-01
1.794000000000000000e+03 7.707139587402343750e+01 -1.057996654510498047e+01 -1.345516741275787354e-01 8.052434921264648438e+00 2.375365018844604492e+00 5.779447555541992188e-01
1.795000000000000000e+03 7.677614593505859375e+01 -1.874383735656738281e+01 2.345299720764160156e-01 6.846460819244384766e+00 2.124297380447387695e+00 4.327410757541656494e-01
1.796000000000000000e+03 7.689471435546875000e+01 -2.025230598449707031e+01 2.428585886955261230e-01 6.714660167694091797e+00 2.087255477905273438e+00 2.227064222097396851e-01
1.797000000000000000e+03 7.801587677001953125e+01 3.200053405761718750e+01 -1.146528199315071106e-01 8.302610397338867188e+00 2.456387281417846680e+00 -1.521022990345954895e-02
1.798000000000000000e+03 7.668945312500000000e+01 3.186154365539550781e+01 -2.240619659423828125e-01 7.737130641937255859e+00 2.253920555114746094e+00 -9.600333869457244873e-02
1.799000000000000000e+03 7.766468048095703125e+01 1.715555000305175781e+01 5.472213029861450195e-01 7.036100864410400391e+00 2.274996757507324219e+00 -2.091734170913696289e+00
1.800000000000000000e+03 7.710042572021484375e+01 1.633268356323242188e+01 3.088330477476119995e-02 8.295572280883789062e+00 2.497936725616455078e+00 -2.373217821121215820e+00
1.801000000000000000e+03 7.693779754638671875e+01 3.208668708801269531e+00 -7.782713323831558228e-02 8.786965370178222656e+00 2.612741708755493164e+00 6.159869022667407990e-03
1.802000000000000000e+03 7.684738159179687500e+01 -3.725614547729492188e+00 -4.963168129324913025e-02 8.495049476623535156e+00 2.533625364303588867e+00 2.024669945240020752e-01
1.803000000000000000e+03 3.783673858642578125e+01 -5.327151298522949219e+00 -1.577956318855285645e+00 -4.185884296894073486e-01 -5.989634394645690918e-01 -5.667241811752319336e-01
1.804000000000000000e+03 4.777700805664062500e+01 1.235202503204345703e+01 -8.778723888099193573e-03 -3.508819267153739929e-03 -3.686262760311365128e-03 -6.078143487684428692e-04
1.805000000000000000e+03 5.013753509521484375e+01 1.647228813171386719e+01 -5.685739591717720032e-02 -3.258384764194488525e-02 -2.683237381279468536e-02 -5.062468722462654114e-02
1.806000000000000000e+03 2.971409416198730469e+01 -1.345518016815185547e+01 8.315182328224182129e-01 8.573165535926818848e-02 2.751749753952026367e-01 -4.171252846717834473e-01
1.807000000000000000e+03 4.081889343261718750e+01 1.581209468841552734e+01 -1.280563324689865112e-01 2.536422200500965118e-02 -3.080763295292854309e-02 2.492990344762802124e-02
1.808000000000000000e+03 3.786615133285522461e+00 3.057218551635742188e+01 -7.072940934449434280e-04 -5.034869071096181870e-03 -1.722648972645401955e-03 3.960441797971725464e-03
1.809000000000000000e+03 3.758884668350219727e+00 3.207643890380859375e+01 -7.344363984884694219e-05 -6.395739503204822540e-03 -1.940754940733313560e-03 4.426435101777315140e-03
1.810000000000000000e+03 3.600852012634277344e+00 2.323997879028320312e+01 -6.764422869309782982e-04 6.947880610823631287e-04 5.503733973455382511e-06 6.517743458971381187e-04
1.811000000000000000e+03 3.657099246978759766e+00 2.468500709533691406e+01 -1.320291659794747829e-03 1.411598532286006957e-05 -3.918526927009224892e-04 1.238287426531314850e-03
1.812000000000000000e+03 3.809701681137084961e+00 3.714299392700195312e+01 8.320239139720797539e-04 -1.178951282054185867e-02 -3.287246683612465858e-03 3.250735811889171600e-03
1.813000000000000000e+03 3.700450658798217773e+00 2.614067077636718750e+01 -8.573608356527984142e-04 -8.941183914430439472e-04 -5.254437564872205257e-04 2.208891790360212326e-03
1.814000000000000000e+03 3.738351345062255859e+00 2.760789299011230469e+01 -1.286268001422286034e-03 -2.061008941382169724e-03 -1.004183082841336727e-03 2.793046878650784492e-03
1.815000000000000000e+03 3.769994258880615234e+00 2.908279037475585938e+01 -6.627840339206159115e-04 -3.439859952777624130e-03 -1.230793190188705921e-03 3.728618612512946129e-03
1.816000000000000000e+03 3.645682334899902344e+00 -2.710818862915039062e+01 5.417566746473312378e-02 -5.462518930435180664e-01 -1.476228833198547363e-01 -1.353039592504501343e-01
1.817000000000000000e+03 3.474858999252319336e+00 -2.575469779968261719e+01 6.669095903635025024e-02 -5.144077539443969727e-01 -1.343150436878204346e-01 -1.668196618556976318e-01
1.818000000000000000e+03 4.172094821929931641e+00 -2.985935783386230469e+01 4.470180720090866089e-02 -5.595184564590454102e-01 -1.544449925422668457e-01 -7.671310752630233765e-02
1.819000000000000000e+03 3.838851451873779297e+00 -2.846403312683105469e+01 5.885649845004081726e-02 -5.593877434730529785e-01 -1.501593738794326782e-01 -1.000812947750091553e-01
1.820000000000000000e+03 3.386624336242675781e+00 -3.663925170898437500e+01 1.542537100613117218e-02 -6.738890409469604492e-01 -1.975390911102294922e-01 -3.396770916879177094e-03
1.821000000000000000e+03 2.976299047470092773e+00 -1.066931343078613281e+01 -5.646439641714096069e-02 1.310672312974929810e-01 2.238084934651851654e-02 1.907273009419441223e-02
1.822000000000000000e+03 2.941953897476196289e+00 -9.315333366394042969e+00 -4.400121793150901794e-02 1.301114708185195923e-01 2.583307586610317230e-02 5.864333733916282654e-02
1.823000000000000000e+03 3.101898431777954102e+00 -1.345674133300781250e+01 -7.293958961963653564e-02 8.556620031595230103e-02 3.787983907386660576e-03 -9.402930736541748047e-02
1.824000000000000000e+03 3.049807071685791016e+00 -1.205052661895751953e+01 -7.485895603895187378e-02 1.160750091075897217e-01 1.236481685191392899e-02 -3.424576669931411743e-02
1.825000000000000000e+03 3.116217374801635742e+00 -5.401255130767822266e+00 6.243470590561628342e-03 7.066769152879714966e-02 2.307334914803504944e-02 1.067416071891784668e-01
1.826000000000000000e+03 3.167247056961059570e+00 -2.036874008178710938e+01 9.669099003076553345e-03 -2.595596909523010254e-01 -7.496717572212219238e-02 -2.710906267166137695e-01
1.827000000000000000e+03 3.155871152877807617e+00 -1.899674224853515625e+01 -1.881633326411247253e-02 -1.783413887023925781e-01 -5.914731696248054504e-02 -2.683977484703063965e-01
1.828000000000000000e+03 3.304382085800170898e+00 -2.302796554565429688e+01 4.716936498880386353e-02 -4.080785214900970459e-01 -1.082727462053298950e-01 -2.345422208309173584e-01
1.829000000000000000e+03 3.219699382781982422e+00 -2.170096397399902344e+01 2.884399145841598511e-02 -3.430038094520568848e-01 -9.424794465303421021e-02 -2.621798217296600342e-01
1.830000000000000000e+03 4.387615680694580078e+00 1.604929351806640625e+01 3.643206146080046892e-04 3.555968578439205885e-04 2.159752475563436747e-04 -1.145983114838600159e-03
1.831000000000000000e+03 3.241188526153564453e+00 1.756323623657226562e+01 1.583533012308180332e-04 1.466108602471649647e-03 4.873385769315063953e-04 -9.712941246107220650e-04
1.832000000000000000e+03 2.926739454269409180e+00 1.348673820495605469e+01 -1.535002666059881449e-04 1.031772000715136528e-03 2.634815173223614693e-04 -9.853910887613892555e-04
1.833000000000000000e+03 3.007534503936767578e+00 1.482717132568359375e+01 4.185336001683026552e-04 1.195802586153149605e-03 4.843008355237543583e-04 -9.810865158215165138e-04
1.834000000000000000e+03 3.023643255233764648e+00 6.621774673461914062e+00 3.466071793809533119e-04 2.120602439390495420e-04 1.676002284511923790e-04 -3.125603252556174994e-04
1.835000000000000000e+03 3.068115949630737305e+00 8.051977157592773438e+00 -9.995212894864380360e-05 2.668020024430006742e-04 5.005496495869010687e-05 -4.207372840028256178e-04
1.836000000000000000e+03 3.365121126174926758e+00 -2.438235282897949219e+01 5.434708669781684875e-02 -4.654102921485900879e-01 -1.233189627528190613e-01 -2.083339393138885498e-01
1.837000000000000000e+03 3.077870845794677734e+00 -1.621044921875000000e+01 -6.195347756147384644e-02 -2.136050909757614136e-02 -2.499419637024402618e-02 -2.094259411096572876e-01
1.838000000000000000e+03 3.079712867736816406e+00 -1.484552001953125000e+01 -7.787644863128662109e-02 4.550805687904357910e-02 -9.710517711937427521e-03 -1.500727832317352295e-01
1.839000000000000000e+03 2.957915544509887695e+00 -7.983292579650878906e+00 -2.452042326331138611e-02 1.177342459559440613e-01 2.796414680778980255e-02 8.510180562734603882e-02
1.840000000000000000e+03 2.876985549926757812e+00 5.248137950897216797e+00 -9.830939234234392643e-05 1.109941731556318700e-04 3.805434971582144499e-06 -2.153186069335788488e-04
1.841000000000000000e+03 2.885104894638061523e+00 1.081760883331298828e+01 -1.183225977001711726e-04 6.396733806468546391e-04 1.564052508911117911e-04 -6.879882421344518661e-04
1.842000000000000000e+03 3.116371154785156250e+00 1.618409919738769531e+01 -2.915738150477409363e-04 1.355553045868873596e-03 3.191937576048076153e-04 -1.182148233056068420e-03
1.843000000000000000e+03 3.453758478164672852e+00 2.038068008422851562e+01 -2.818780776578933001e-04 1.401569461449980736e-03 3.359074180480092764e-04 -4.866691015195101500e-04
1.844000000000000000e+03 3.533352851867675781e+00 2.180703735351562500e+01 -1.030394574627280235e-03 1.103937509469687939e-03 2.206288991146720946e-05 -1.260487479157745838e-04
1.845000000000000000e+03 3.357761383056640625e+00 1.896345329284667969e+01 -5.855825147591531277e-04 1.429105759598314762e-03 2.530569909140467644e-04 -9.752525365911424160e-04
1.846000000000000000e+03 2.882608890533447266e+00 1.215575122833251953e+01 4.814303538296371698e-04 8.119351696223020554e-04 3.880096483044326305e-04 -7.647573947906494141e-04
1.847000000000000000e+03 2.945369005203247070e+00 9.454485893249511719e+00 4.463364020921289921e-04 4.630603361874818802e-04 2.728190156631171703e-04 -5.274980212561786175e-04
1.848000000000000000e+03 6.570349121093750000e+01 2.438750648498535156e+01 -8.856984972953796387e-01 5.403126478195190430e-01 -1.036157608032226562e-01 -5.331823825836181641e-01
1.849000000000000000e+03 6.521463012695312500e+01 2.590645027160644531e+01 -4.276228249073028564e-01 8.008629083633422852e-01 1.119720190763473511e-01 -6.860802173614501953e-01
1.850000000000000000e+03 2.830481147766113281e+01 -1.236277198791503906e+01 3.716919720172882080e-01 1.048111394047737122e-01 1.429509371519088745e-01 -4.671615362167358398e-01
1.851000000000000000e+03 7.082730865478515625e+01 -2.083629417419433594e+01 1.200730681419372559e+00 7.228782176971435547e+00 2.528853893280029297e+00 6.386928558349609375e-01
1.852000000000000000e+03 4.132559204101562500e+01 -4.147215843200683594e+00 -1.254776716232299805e+00 -1.522741168737411499e-01 -4.221152365207672119e-01 -3.429393470287322998e-01
1.853000000000000000e+03 4.269332122802734375e+01 -3.519768476486206055e+00 -1.159943580627441406e+00 8.689166605472564697e-02 -3.219155669212341309e-01 -3.807860016822814941e-01
1.854000000000000000e+03 7.020182037353515625e+01 1.202206039428710938e+01 -3.351251780986785889e-01 5.209012508392333984e+00 1.462166190147399902e+00 1.021890521049499512e+00
1.855000000000000000e+03 6.927969360351562500e+01 1.327575683593750000e+01 1.421166956424713135e-01 3.889198541641235352e+00 1.209394574165344238e+00 1.377844095230102539e+00
1.856000000000000000e+03 1.060842514038085938e+01 -1.724211883544921875e+01 -2.424467056989669800e-01 -5.792423486709594727e-01 -2.465067058801651001e-01 -4.234721064567565918e-01
1.857000000000000000e+03 9.535682678222656250e+00 -1.533132553100585938e+01 -4.464178383350372314e-01 -4.290181398391723633e-01 -2.626307904720306396e-01 -3.615008890628814697e-01
1.858000000000000000e+03 4.596300506591796875e+01 9.725842475891113281e+00 4.427026957273483276e-03 -7.953912951052188873e-03 -1.058065798133611679e-03 3.411687910556793213e-03
1.859000000000000000e+03 4.602619934082031250e+01 8.299127578735351562e+00 3.979464061558246613e-03 -4.210180137306451797e-03 -6.921488966327160597e-05 2.509145764634013176e-03
1.860000000000000000e+03 6.912696838378906250e+01 9.023218154907226562e+00 -4.296140670776367188e-01 4.124466896057128906e+00 1.108455777168273926e+00 4.330322146415710449e-01
1.861000000000000000e+03 4.388430404663085938e+01 -1.968989753723144531e+01 2.315987646579742432e-01 9.767618179321289062e-01 3.625081777572631836e-01 -2.616780400276184082e-01
1.862000000000000000e+03 4.321337890625000000e+01 -2.200762557983398438e+01 2.889313399791717529e-01 7.116459608078002930e-01 3.001731932163238525e-01 -2.570709288120269775e-01
1.863000000000000000e+03 6.585216522216796875e+01 -1.007825946807861328e+01 -5.796889066696166992e-01 1.590553164482116699e+00 3.032592833042144775e-01 -4.093619883060455322e-01
1.864000000000000000e+03 5.908598709106445312e+01 2.703284263610839844e+01 -5.538469552993774414e-01 -1.334780305624008179e-01 -2.061975002288818359e-01 3.386064767837524414e-01
1.865000000000000000e+03 6.093473434448242188e+01 2.479366111755371094e+01 -1.411001920700073242e+00 -3.424248695373535156e-01 -5.260280370712280273e-01 2.522016763687133789e-01
1.866000000000000000e+03 4.327148818969726562e+01 -1.812136268615722656e+01 2.784193456172943115e-01 7.253758311271667480e-01 3.011385500431060791e-01 -1.937122195959091187e-01
1.867000000000000000e+03 1.607857322692871094e+01 1.658891487121582031e+01 2.538096625357866287e-03 -1.073026141966693103e-04 7.292381487786769867e-04 2.575443824753165245e-03
1.868000000000000000e+03 4.861707687377929688e+01 2.048011970520019531e+01 -5.181157588958740234e-01 9.624781459569931030e-02 -1.265603899955749512e-01 -5.971802026033401489e-02
1.869000000000000000e+03 1.897108650207519531e+01 4.544621467590332031e+00 -2.829044242389500141e-04 1.895203167805448174e-04 -2.801523442030884326e-05 2.115585812134668231e-04
1.870000000000000000e+03 1.941537094116210938e+01 2.125164508819580078e+00 1.365149655612185597e-04 8.734490984352305532e-05 6.715796189382672310e-05 1.349829381069866940e-05
1.871000000000000000e+03 3.743443679809570312e+01 -2.467514038085937500e+01 -1.495487391948699951e-01 -5.089042782783508301e-01 -1.975359022617340088e-01 -9.906309098005294800e-02
1.872000000000000000e+03 4.656136703491210938e+01 1.369835758209228516e+01 -4.251382127404212952e-02 -1.612417772412300110e-02 -1.759140007197856903e-02 -2.033508755266666412e-02
1.873000000000000000e+03 2.543155097961425781e+01 2.460742759704589844e+01 -8.084827661514282227e-02 -4.822849854826927185e-02 -3.872303292155265808e-02 7.223357260227203369e-02
1.874000000000000000e+03 5.016052627563476562e+01 1.983578491210937500e+01 -5.034469962120056152e-01 8.948525413870811462e-03 -1.483495384454727173e-01 -1.771132498979568481e-01
1.875000000000000000e+03 1.569193649291992188e+01 1.365727996826171875e+01 1.725360401906073093e-03 4.730889922939240932e-04 6.595348240807652473e-04 2.056716941297054291e-03
1.876000000000000000e+03 1.593456172943115234e+01 1.514020061492919922e+01 4.517071065492928028e-04 3.578294708859175444e-04 2.428609732305631042e-04 1.802281825803220272e-03
1.877000000000000000e+03 7.020429992675781250e+01 -2.345270156860351562e+01 5.034106373786926270e-01 6.751095294952392578e+00 2.176351785659790039e+00 4.824511408805847168e-01
1.878000000000000000e+03 5.626908874511718750e+01 -6.141284465789794922e+00 -2.312031537294387817e-01 -3.398960530757904053e-01 -1.713297665119171143e-01 4.146195948123931885e-01
1.879000000000000000e+03 3.015221214294433594e+01 -7.015413761138916016e+00 -1.389073848724365234e+00 -2.221418619155883789e-01 -4.833647012710571289e-01 -3.048526048660278320e-01
1.880000000000000000e+03 4.532645416259765625e+01 -2.717006111145019531e+01 1.622678637504577637e-01 8.878980278968811035e-01 3.150497674942016602e-01 -1.807389259338378906e-01
1.881000000000000000e+03 6.610154724121093750e+01 -2.601956558227539062e+01 3.549709916114807129e-01 3.304968118667602539e+00 1.097981810569763184e+00 1.363789796829223633e+00
1.882000000000000000e+03 6.868667602539062500e+01 -2.547188568115234375e+01 9.579670429229736328e-02 5.409843444824218750e+00 1.651692032814025879e+00 9.181172251701354980e-01
1.883000000000000000e+03 5.915552520751953125e+01 -3.292709350585937500e+01 4.794214665889739990e-01 5.530400276184082031e-01 3.097384572029113770e-01 1.507668197154998779e-01
1.884000000000000000e+03 6.715661621093750000e+01 7.195823192596435547e+00 -4.540916383266448975e-01 2.513494014739990234e+00 6.178207397460937500e-01 3.495671153068542480e-01
1.885000000000000000e+03 4.704799652099609375e+01 -8.728042602539062500e+00 -1.030448451638221741e-01 6.169276237487792969e-01 1.541648358106613159e-01 1.156088933348655701e-01
1.886000000000000000e+03 4.589289855957031250e+01 -9.264828681945800781e+00 -7.843694090843200684e-02 5.841961503028869629e-01 1.517277657985687256e-01 6.595934927463531494e-02
1.887000000000000000e+03 4.448800277709960938e+01 6.216584205627441406e+00 1.820552395656704903e-03 -1.638841466046869755e-03 5.451328615890815854e-05 -5.754402372986078262e-04
1.888000000000000000e+03 4.474406051635742188e+01 8.093018531799316406e+00 6.183737888932228088e-03 -4.612412303686141968e-03 4.713976231869310141e-04 -3.509568341542035341e-04
1.889000000000000000e+03 6.707520294189453125e+01 -2.724249458312988281e+01 -5.063736066222190857e-02 4.176244258880615234e+00 1.237682104110717773e+00 1.132880568504333496e+00
1.890000000000000000e+03 3.490353012084960938e+01 -1.571572875976562500e+01 1.174358248710632324e+00 -8.704839646816253662e-02 3.261929452419281006e-01 -2.496109157800674438e-01
1.891000000000000000e+03 2.228563880920410156e+01 -3.521376419067382812e+01 2.371313720941543579e-01 1.668770462274551392e-01 1.212025210261344910e-01 -1.558516472578048706e-01
1.892000000000000000e+03 5.353646469116210938e+01 2.666275215148925781e+01 -5.394208431243896484e-01 -2.177375555038452148e-02 -1.683583855628967285e-01 4.712636172771453857e-01
1.893000000000000000e+03 5.115492248535156250e+01 2.392993545532226562e+01 -7.638730406761169434e-01 8.710435032844543457e-02 -2.030306011438369751e-01 2.368965893983840942e-01
1.894000000000000000e+03 7.073301696777343750e+01 -1.750696754455566406e+01 8.172647953033447266e-01 7.441269397735595703e+00 2.477560281753540039e+00 1.015808463096618652e+00
1.895000000000000000e+03 7.064146423339843750e+01 -1.862870788574218750e+01 1.287506222724914551e+00 7.166496276855468750e+00 2.536200761795043945e+00 8.415734171867370605e-01
1.896000000000000000e+03 4.524702835083007812e+01 6.010728359222412109e+00 2.386091044172644615e-03 -2.691907866392284632e-04 6.350700859911739826e-04 8.957934333011507988e-04
1.897000000000000000e+03 6.521287536621093750e+01 5.256967544555664062e+00 -3.641295731067657471e-01 1.240724921226501465e+00 2.629786133766174316e-01 1.316204965114593506e-01
1.898000000000000000e+03 5.798526763916015625e+01 2.530333328247070312e+01 -1.298618912696838379e+00 -1.332486420869827271e-01 -4.295602738857269287e-01 3.521306514739990234e-01
1.899000000000000000e+03 5.945163345336914062e+01 2.514223480224609375e+01 -1.400082230567932129e+00 -2.871537804603576660e-01 -5.061708092689514160e-01 4.341154992580413818e-01
1.900000000000000000e+03 6.940946197509765625e+01 1.074155521392822266e+01 -2.310682088136672974e-01 4.353654861450195312e+00 1.236775994300842285e+00 6.286197304725646973e-01
1.901000000000000000e+03 9.774353027343750000e+00 -2.157334327697753906e+01 2.083850353956222534e-01 -2.713424265384674072e-01 -1.888721995055675507e-02 -3.447660207748413086e-01
1.902000000000000000e+03 1.231908130645751953e+01 -2.512986183166503906e+01 3.274748027324676514e-01 1.469883620738983154e-01 1.423389464616775513e-01 -2.430801689624786377e-01
1.903000000000000000e+03 1.243183708190917969e+01 -2.732452201843261719e+01 3.140445649623870850e-01 8.711444586515426636e-02 1.203477084636688232e-01 -2.058645933866500854e-01
1.904000000000000000e+03 3.543057250976562500e+01 1.888703536987304688e+01 -1.873826086521148682e-01 -2.713182009756565094e-02 -6.435433030128479004e-02 8.469495922327041626e-02
1.905000000000000000e+03 5.502390289306640625e+01 -1.798784852027893066e+00 -8.602569699287414551e-01 -3.680787980556488037e-01 -3.685007095336914062e-01 2.773725613951683044e-02
1.906000000000000000e+03 3.209173583984375000e+01 -1.298373222351074219e+01 5.153856277465820312e-01 1.221696436405181885e-01 1.912665814161300659e-01 -2.535524964332580566e-01
1.907000000000000000e+03 4.314457321166992188e+01 9.269799232482910156e+00 6.307533476501703262e-03 -2.880065934732556343e-03 1.028240309096872807e-03 -4.956298507750034332e-03
1.908000000000000000e+03 1.780997276306152344e+01 4.797150611877441406e+00 4.694258677773177624e-04 5.941413292021024972e-06 1.426101807737722993e-04 5.078242247691377997e-05
1.909000000000000000e+03 4.046912002563476562e+01 -2.579284858703613281e+01 5.202508345246315002e-02 2.042904496192932129e-01 7.689465582370758057e-02 -2.333827316761016846e-03
1.910000000000000000e+03 5.745891571044921875e+01 -1.700334787368774414e+00 -4.675059914588928223e-01 -3.792304992675781250e-01 -2.540209591388702393e-01 5.237558111548423767e-02
1.911000000000000000e+03 1.389605426788330078e+01 2.109671401977539062e+01 -1.016415003687143326e-02 -3.660173853859305382e-03 -4.147297237068414688e-03 2.738547045737504959e-03
1.912000000000000000e+03 2.943932723999023438e+01 -7.587382316589355469e+00 -1.158500552177429199e+00 -2.135428637266159058e-01 -4.116130173206329346e-01 -3.709882199764251709e-01
1.913000000000000000e+03 4.900760650634765625e+01 -3.146563339233398438e+01 1.923080980777740479e-01 5.835462808609008789e-01 2.327563166618347168e-01 -3.071561157703399658e-01
1.914000000000000000e+03 5.027812576293945312e+01 -3.263368225097656250e+01 2.286061793565750122e-01 4.798626303672790527e-01 2.125406414270401001e-01 -3.543276488780975342e-01
1.915000000000000000e+03 5.149336624145507812e+01 -6.512929916381835938e+00 -2.426680773496627808e-01 2.269755601882934570e-01 -4.707757849246263504e-03 2.475095093250274658e-01
1.916000000000000000e+03 5.212244033813476562e+01 -5.583414554595947266e+00 -3.963920772075653076e-01 5.844550579786300659e-02 -1.013839691877365112e-01 2.431554198265075684e-01
1.917000000000000000e+03 2.497451019287109375e+01 2.330087089538574219e+01 -1.148502454161643982e-01 -3.197750449180603027e-02 -4.404832422733306885e-02 6.090307608246803284e-02
1.918000000000000000e+03 2.234043121337890625e+01 2.555464935302734375e+01 -5.577223375439643860e-02 -2.946214377880096436e-02 -2.557031251490116119e-02 5.827556177973747253e-02
1.919000000000000000e+03 2.051731872558593750e+01 2.591946792602539062e+01 -3.985159099102020264e-02 -2.209402993321418762e-02 -1.858368515968322754e-02 4.734292998909950256e-02
1.920000000000000000e+03 7.116683197021484375e+01 -1.534061717987060547e+01 2.798230051994323730e-01 6.808056831359863281e+00 2.126363992691040039e+00 9.436404705047607422e-01
1.921000000000000000e+03 3.415869903564453125e+01 -3.257548141479492188e+01 2.954014539718627930e-01 -2.938138842582702637e-01 4.762707394547760487e-04 -7.384340465068817139e-02
1.922000000000000000e+03 3.515357971191406250e+01 -3.164826393127441406e+01 2.594787180423736572e-01 -3.026417195796966553e-01 -1.294890325516462326e-02 -1.644448377192020416e-02
1.923000000000000000e+03 1.475578022003173828e+01 1.770049476623535156e+01 -1.127593452110886574e-03 -2.149216597899794579e-03 -9.830429917201399803e-04 4.556970379780977964e-04
1.924000000000000000e+03 7.058853149414062500e+01 2.142916297912597656e+01 1.586096286773681641e+00 2.729750633239746094e+00 1.294754028320312500e+00 -2.803242921829223633e+00
1.925000000000000000e+03 7.086993408203125000e+01 1.735002708435058594e+01 1.794167637825012207e+00 4.497257709503173828e+00 1.887427687644958496e+00 3.298946619033813477e+00
1.926000000000000000e+03 7.151965332031250000e+01 1.702244949340820312e+01 8.624027967453002930e-01 7.941418170928955078e+00 2.641146421432495117e+00 3.892416238784790039e+00
1.927000000000000000e+03 7.204107666015625000e+01 1.759075164794921875e+01 1.048652529716491699e+00 1.086436939239501953e+01 3.573906660079956055e+00 4.782284736633300781e+00
1.928000000000000000e+03 7.005998992919921875e+01 2.111731719970703125e+01 7.668609619140625000e-01 1.360664010047912598e+00 6.382575035095214844e-01 -1.375334143638610840e+00
1.929000000000000000e+03 7.298715972900390625e+01 1.750840568542480469e+01 -4.422855675220489502e-01 1.595635223388671875e+01 4.654220104217529297e+00 1.936952590942382812e+00
1.930000000000000000e+03 7.276155853271484375e+01 2.213451576232910156e+01 -9.158540964126586914e-01 1.352512168884277344e+01 3.782780408859252930e+00 -2.943089008331298828e+00
1.931000000000000000e+03 7.232717132568359375e+01 2.208673286437988281e+01 -3.788104653358459473e-01 1.185784149169921875e+01 3.443709373474121094e+00 -3.930359363555908203e+00
1.932000000000000000e+03 7.385594177246093750e+01 2.134402656555175781e+01 9.884356260299682617e-01 1.682775688171386719e+01 5.344857692718505859e+00 1.457038640975952148e+00
1.933000000000000000e+03 7.399938201904296875e+01 1.791234779357910156e+01 1.689848184585571289e+00 1.640033340454101562e+01 5.427054405212402344e+00 -2.173122167587280273e+00
1.934000000000000000e+03 7.465497589111328125e+01 1.907290649414062500e+01 6.674094676971435547e+00 1.323331069946289062e+01 5.972221374511718750e+00 -1.774654030799865723e+00
1.935000000000000000e+03 7.456167602539062500e+01 1.882681655883789062e+01 5.947504043579101562e+00 1.378542327880859375e+01 5.919878482818603516e+00 -2.476603507995605469e+00
1.936000000000000000e+03 7.433174133300781250e+01 1.833958244323730469e+01 3.933203458786010742e+00 1.518207168579101562e+01 5.734582424163818359e+00 -2.877049684524536133e+00
1.937000000000000000e+03 7.445771026611328125e+01 1.858063316345214844e+01 5.071654796600341797e+00 1.447901725769042969e+01 5.865201950073242188e+00 -2.857485532760620117e+00
1.938000000000000000e+03 7.454598236083984375e+01 1.783298492431640625e+01 2.011247873306274414e+00 1.422686481475830078e+01 4.871433734893798828e+00 -2.641884565353393555e+00
1.939000000000000000e+03 7.398114776611328125e+01 1.857843780517578125e+01 5.014158725738525391e+00 1.713636779785156250e+01 6.645157814025878906e+00 -3.131069421768188477e+00
1.940000000000000000e+03 7.478955078125000000e+01 2.079231071472167969e+01 3.910503149032592773e+00 1.322434520721435547e+01 5.140454769134521484e+00 2.517906427383422852e+00
1.941000000000000000e+03 9.331409454345703125e+00 -3.360898494720458984e+00 1.293822228908538818e-01 -5.879039317369461060e-02 2.117754891514778137e-02 6.627960503101348877e-02
1.942000000000000000e+03 1.065763282775878906e+01 -4.137910842895507812e+00 9.073347598314285278e-02 -8.951702713966369629e-02 3.649361315183341503e-04 3.534754365682601929e-02
1.943000000000000000e+03 6.924135589599609375e+01 2.212173461914062500e+01 1.598578095436096191e-01 1.798357129096984863e+00 5.874645113945007324e-01 -1.347670435905456543e+00
1.944000000000000000e+03 1.953099060058593750e+01 3.237382650375366211e+00 1.788327208487316966e-04 4.349257869762368500e-05 6.669759022770449519e-05 5.717323074350133538e-05
1.945000000000000000e+03 6.828007507324218750e+01 2.228858757019042969e+01 -6.277930140495300293e-01 1.234875679016113281e+00 1.821248084306716919e-01 -7.470609545707702637e-01
1.946000000000000000e+03 9.327178001403808594e+00 -4.123063564300537109e+00 8.370560407638549805e-02 -7.619405537843704224e-02 2.253465354442596436e-03 7.036984711885452271e-02
1.947000000000000000e+03 1.127617359161376953e+01 -4.836592197418212891e+00 4.442077875137329102e-02 -1.166961193084716797e-01 -2.168260328471660614e-02 1.563561707735061646e-02
1.948000000000000000e+03 1.012210655212402344e+01 3.894408464431762695e+00 2.074275253107771277e-04 -2.071600029012188315e-04 8.025717335158333299e-08 2.489525286364369094e-05
1.949000000000000000e+03 7.106853008270263672e+00 4.027603149414062500e+00 1.916542823892086744e-04 -1.323196047451347113e-04 1.780040292942430824e-05 -2.045575674856081605e-04
1.950000000000000000e+03 1.195309543609619141e+01 -4.264191627502441406e+00 7.842672616243362427e-02 -1.020941436290740967e-01 -7.100223097950220108e-03 -9.334057569503784180e-03
1.951000000000000000e+03 7.754929542541503906e+00 3.286572933197021484e+00 1.832154957810416818e-04 -1.185394357889890671e-04 1.940281799761578441e-05 -1.442804204998537898e-04
1.952000000000000000e+03 8.499075889587402344e+00 3.264378309249877930e+00 4.214315849822014570e-04 -3.889117579092271626e-05 1.147621223935857415e-04 -1.986690404010005295e-05
1.953000000000000000e+03 9.353859901428222656e+00 3.947413921356201172e+00 5.012403707951307297e-04 -8.939252438722178340e-05 1.235543604707345366e-04 -3.278806389062083326e-06
1.954000000000000000e+03 5.554512023925781250e+00 4.190459728240966797e+00 1.667646574787795544e-04 -8.257789158960804343e-05 2.525602758396416903e-05 -2.177898131776601076e-04
1.955000000000000000e+03 5.479039192199707031e+00 3.424356698989868164e+00 2.636617864482104778e-04 5.706454248866066337e-05 9.621789649827405810e-05 -1.718447892926633358e-04
1.956000000000000000e+03 6.341235637664794922e+00 4.092411994934082031e+00 3.416196268517524004e-04 -6.041810138412984088e-06 1.006733436952345073e-04 -1.464434899389743805e-04
1.957000000000000000e+03 3.037265300750732422e+00 4.229512691497802734e+00 3.576384915504604578e-04 1.515633775852620602e-04 1.527605636510998011e-04 -1.611774932825937867e-04
1.958000000000000000e+03 1.259330272674560547e+01 -4.368172168731689453e+00 6.166024506092071533e-02 -9.213801473379135132e-02 -9.143331088125705719e-03 -3.103463165462017059e-02
1.959000000000000000e+03 4.416634082794189453e+00 -4.661258697509765625e+00 2.587067522108554840e-02 2.731522917747497559e-02 1.595577225089073181e-02 1.179047524929046631e-01
1.960000000000000000e+03 3.453985452651977539e+00 -4.372217655181884766e+00 2.183155342936515808e-02 4.774811118841171265e-02 2.087390050292015076e-02 1.044648066163063049e-01
1.961000000000000000e+03 4.241266250610351562e+00 -5.666482448577880859e+00 -4.835317668039351702e-04 3.848220407962799072e-02 1.139960158616304398e-02 1.192196011543273926e-01
1.962000000000000000e+03 8.651881217956542969e+00 -4.913823127746582031e+00 3.306297957897186279e-02 -8.049445599317550659e-02 -1.422944292426109314e-02 8.941325545310974121e-02
1.963000000000000000e+03 7.883569240570068359e+00 -4.131347656250000000e+00 7.010359317064285278e-02 -5.092805996537208557e-02 5.752659402787685394e-03 9.757485240697860718e-02
1.964000000000000000e+03 6.302688598632812500e+00 -4.119923114776611328e+00 5.428225547075271606e-02 -1.741727814078330994e-02 1.105949282646179199e-02 1.133735924959182739e-01
1.965000000000000000e+03 5.596994400024414062e+00 -3.304733276367187500e+00 7.280880212783813477e-02 -9.966372745111584663e-04 2.154364995658397675e-02 1.048291996121406555e-01
1.966000000000000000e+03 5.493275642395019531e+00 -4.058964729309082031e+00 5.030916258692741394e-02 2.815645893861074001e-05 1.510119531303644180e-02 1.171003356575965881e-01
1.967000000000000000e+03 4.798731994628906250e+01 -2.286667108535766602e+00 -1.034909009933471680e+00 3.065521419048309326e-01 -2.185070663690567017e-01 -1.637850850820541382e-01
1.968000000000000000e+03 1.390920066833496094e+01 -4.640812397003173828e+00 1.542461756616830826e-02 -9.458576887845993042e-02 -2.374834567308425903e-02 -1.012809723615646362e-01
1.969000000000000000e+03 1.385375118255615234e+01 4.434806346893310547e+00 4.436706949491053820e-04 -1.913790474645793438e-04 7.568749424535781145e-05 1.878020120784640312e-04
1.970000000000000000e+03 1.534514045715332031e+01 -5.235275268554687500e+00 -7.035087049007415771e-02 -9.222573041915893555e-02 -4.877297952771186829e-02 -1.935900747776031494e-01
1.971000000000000000e+03 1.558804416656494141e+01 -4.414520263671875000e+00 -1.326717529445886612e-02 -5.422247573733329773e-02 -2.024689503014087677e-02 -1.744611114263534546e-01
1.972000000000000000e+03 1.377334499359130859e+01 2.564609766006469727e+00 2.684213723114226013e-05 -2.932262032118160278e-05 -7.441445859512896277e-07 4.101419472135603428e-05
1.973000000000000000e+03 1.437663269042968750e+01 3.960287809371948242e+00 1.901883078971877694e-04 2.802184608299285173e-04 1.411220291629433632e-04 3.251993621233850718e-04
1.974000000000000000e+03 1.085270977020263672e+01 3.151165962219238281e+00 1.960232184501364827e-04 -1.509283756604418159e-04 1.352845174551475793e-05 1.171986059489427134e-05
1.975000000000000000e+03 1.530628967285156250e+01 2.404452562332153320e+00 -6.031119846738874912e-05 4.475933383218944073e-05 -4.665559572458732873e-06 1.127604409703053534e-04
1.976000000000000000e+03 1.456369495391845703e+01 3.265701293945312500e+00 -2.114258495566900820e-05 -8.696534496266394854e-05 -3.243237733840942383e-05 -2.698073330975603312e-06
1.977000000000000000e+03 4.644909286499023438e+01 -1.583661556243896484e+00 -9.958055615425109863e-01 2.644055485725402832e-01 -2.194200158119201660e-01 -2.443148791790008545e-01
1.978000000000000000e+03 4.577836227416992188e+01 -2.410481929779052734e+00 -1.017403602600097656e+00 3.084055781364440918e-01 -2.126994132995605469e-01 -3.008256852626800537e-01
1.979000000000000000e+03 7.055386352539062500e+01 1.358553314208984375e+01 -3.195263147354125977e-01 5.633912563323974609e+00 1.594315886497497559e+00 1.566195249557495117e+00
1.980000000000000000e+03 2.082915687561035156e+01 -5.937300205230712891e+00 -3.886866271495819092e-01 1.043341979384422302e-01 -8.530572801828384399e-02 -2.929845154285430908e-01
1.981000000000000000e+03 7.181167602539062500e+01 1.299241638183593750e+01 -8.781487941741943359e-01 7.306388854980468750e+00 1.928472042083740234e+00 9.672148227691650391e-01
1.982000000000000000e+03 1.581228446960449219e+01 -1.008583641052246094e+01 -6.108226180076599121e-01 -4.272778034210205078e-01 -3.114301264286041260e-01 -3.703621029853820801e-01
1.983000000000000000e+03 1.349695205688476562e+01 -1.079757404327392578e+01 -5.856378078460693359e-01 -5.058179497718811035e-01 -3.274367153644561768e-01 -2.751158177852630615e-01
1.984000000000000000e+03 1.783987236022949219e+01 -5.599515914916992188e+00 -2.038197219371795654e-01 -1.351743098348379135e-02 -6.520114839076995850e-02 -3.043634891510009766e-01
1.985000000000000000e+03 4.868649291992187500e+01 -2.278685331344604492e+00 -1.076072931289672852e+00 2.465911358594894409e-01 -2.488445341587066650e-01 -1.479884088039398193e-01
1.986000000000000000e+03 4.999814605712890625e+01 -2.329352855682373047e+00 -1.075357556343078613e+00 9.148603677749633789e-02 -2.951614558696746826e-01 -9.906371682882308960e-02
1.987000000000000000e+03 1.994503974914550781e+01 -6.229435920715332031e+00 -3.349171578884124756e-01 9.275338798761367798e-02 -7.264912873506546021e-02 -3.445387780666351318e-01
1.988000000000000000e+03 4.299353408813476562e+01 -2.646039724349975586e+00 -1.164153814315795898e+00 1.405572593212127686e-01 -3.070789575576782227e-01 -4.048317968845367432e-01
1.989000000000000000e+03 1.185618019104003906e+01 3.896827697753906250e+00 1.906530087580904365e-04 -2.503813593648374081e-04 -1.791850445442833006e-05 6.920714804437011480e-05
1.990000000000000000e+03 1.094052410125732422e+01 3.854844093322753906e+00 4.186018486507236958e-04 8.617375897301826626e-06 1.281657750951126218e-04 8.907349547371268272e-05
1.991000000000000000e+03 2.368770790100097656e+01 -5.639670372009277344e+00 -5.782483220100402832e-01 1.998082399368286133e-01 -1.135320216417312622e-01 -2.058255821466445923e-01
1.992000000000000000e+03 1.697650718688964844e+01 2.529513835906982422e+00 -6.640100764343515038e-05 -4.171710679656825960e-05 -3.243543324060738087e-05 -8.151966903824359179e-05
1.993000000000000000e+03 1.835695075988769531e+01 1.854619026184082031e+00 9.031895751832053065e-05 8.873793558450415730e-05 5.371706720325164497e-05 -4.004688889835961163e-05
1.994000000000000000e+03 1.634234619140625000e+01 2.983996868133544922e+00 -1.190863695228472352e-04 1.702515000943094492e-04 1.534954026283230633e-05 1.931820588652044535e-04
1.995000000000000000e+03 2.179718399047851562e+01 -5.843557357788085938e+00 -4.296137094497680664e-01 1.479418128728866577e-01 -8.450157195329666138e-02 -2.845727503299713135e-01
1.996000000000000000e+03 7.145858001708984375e+01 8.116125106811523438e+00 -5.740072727203369141e-01 5.857865333557128906e+00 1.585157394409179688e+00 2.092769891023635864e-01
1.997000000000000000e+03 2.387677955627441406e+01 -1.000022125244140625e+01 -3.316667675971984863e-01 1.997941434383392334e-01 -3.956178575754165649e-02 -4.233354032039642334e-01
1.998000000000000000e+03 2.132192420959472656e+01 -1.157306194305419922e+01 -2.348710894584655762e-01 1.438274830579757690e-01 -2.731307968497276306e-02 -2.622013986110687256e-01
1.999000000000000000e+03 1.949585342407226562e+01 -9.908243179321289062e+00 -4.906757771968841553e-01 8.630655705928802490e-02 -1.213107630610466003e-01 -3.803160488605499268e-01
2.000000000000000000e+03 4.609598922729492188e+01 7.045488357543945312e+00 4.750455264002084732e-03 -1.801761565729975700e-03 8.846081327646970749e-04 1.719784922897815704e-03
2.001000000000000000e+03 7.296019744873046875e+01 -1.816956710815429688e+01 7.566706538200378418e-01 6.873864650726318359e+00 2.289160728454589844e+00 8.251010179519653320e-01
2.002000000000000000e+03 7.207798767089843750e+01 -1.677674102783203125e+01 6.274415850639343262e-01 6.959251403808593750e+00 2.276007890701293945e+00 1.068531274795532227e+00
2.003000000000000000e+03 1.603115653991699219e+01 1.074194622039794922e+01 8.993676165118813515e-04 6.622575456276535988e-04 4.684875311795622110e-04 1.167133683338761330e-03
2.004000000000000000e+03 1.887427330017089844e+01 1.914581418037414551e+00 -5.934350338065996766e-05 -4.762884054798632860e-05 -3.209170245099812746e-05 6.014860446157399565e-06
2.005000000000000000e+03 3.976213455200195312e+01 -1.916146659851074219e+01 3.165790140628814697e-01 4.903037473559379578e-02 1.096828132867813110e-01 -3.725882768630981445e-01
2.006000000000000000e+03 3.869986724853515625e+01 -1.893797302246093750e+01 3.532018065452575684e-01 -1.821989417076110840e-01 5.130085721611976624e-02 -3.812915086746215820e-01
2.007000000000000000e+03 1.169388389587402344e+01 -1.229821681976318359e+01 -6.385641098022460938e-01 -4.990752041339874268e-01 -3.412917852401733398e-01 -2.485219538211822510e-01
2.008000000000000000e+03 6.659196472167968750e+01 2.495957756042480469e+01 -4.028623402118682861e-01 1.296283245086669922e+00 2.680262923240661621e-01 -1.040858149528503418e+00
2.009000000000000000e+03 6.647321319580078125e+01 2.338243103027343750e+01 -1.116202354431152344e+00 4.427231848239898682e-01 -2.020437568426132202e-01 -4.843992292881011963e-01
2.010000000000000000e+03 7.342200469970703125e+01 -3.440583419799804688e+01 -8.102265745401382446e-02 5.706590175628662109e+00 1.687670230865478516e+00 1.083986982703208923e-01
2.011000000000000000e+03 7.556990814208984375e+01 -3.493498229980468750e+01 -5.845539271831512451e-02 6.284488677978515625e+00 1.867810010910034180e+00 2.151208929717540741e-02
2.012000000000000000e+03 7.570659637451171875e+01 3.284440755844116211e+00 -1.264231652021408081e-01 8.057032585144042969e+00 2.379182815551757812e+00 2.277185209095478058e-02
2.013000000000000000e+03 4.556233215332031250e+01 2.103317451477050781e+01 -3.875211775302886963e-01 1.161674931645393372e-01 -8.140610903501510620e-02 4.682352393865585327e-02
2.014000000000000000e+03 1.373091220855712891e+01 1.715977287292480469e+01 -4.146035062149167061e-04 -3.341649891808629036e-03 -1.126876100897789001e-03 5.701778572984039783e-04
2.015000000000000000e+03 1.476331520080566406e+01 1.523442268371582031e+01 2.009718446061015129e-03 -1.176151796244084835e-03 2.500700356904417276e-04 1.858811476267874241e-03
2.016000000000000000e+03 4.044051647186279297e+00 -9.369891166687011719e+00 -7.034854590892791748e-02 6.547440588474273682e-02 -1.462241983972489834e-03 6.088289991021156311e-02
2.017000000000000000e+03 4.111973762512207031e+00 9.666727066040039062e+00 2.591633165138773620e-05 1.784377091098576784e-04 6.130621477495878935e-05 -6.836578249931335449e-04
2.018000000000000000e+03 6.742781066894531250e+01 2.334178924560546875e+01 -7.727758884429931641e-01 1.088155984878540039e+00 9.461403638124465942e-02 -9.161614775657653809e-01
2.019000000000000000e+03 6.633302307128906250e+01 2.624796295166015625e+01 -2.039305567741394043e-01 1.539491057395935059e+00 4.006681740283966064e-01 -1.061446070671081543e+00
2.020000000000000000e+03 7.413683319091796875e+01 -2.127451705932617188e+01 6.068011522293090820e-01 6.660699367523193359e+00 2.180250167846679688e+00 1.965814381837844849e-01
2.021000000000000000e+03 5.882800579071044922e+00 -2.513836097717285156e+01 1.410246640443801880e-01 -3.873209655284881592e-01 -7.388889044523239136e-02 -2.413161396980285645e-01
2.022000000000000000e+03 7.187062072753906250e+01 -2.457994461059570312e+01 1.946950554847717285e-01 6.469932556152343750e+00 1.999388337135314941e+00 8.510304987430572510e-02
2.023000000000000000e+03 3.620458602905273438e+01 -1.292495727539062500e+01 4.692561924457550049e-01 -2.418942600488662720e-01 6.820857524871826172e-02 -3.353455662727355957e-02
2.024000000000000000e+03 3.570846939086914062e+01 -1.531569290161132812e+01 9.565859436988830566e-01 -2.172868847846984863e-01 2.217897176742553711e-01 -1.465319544076919556e-01
2.025000000000000000e+03 7.036907196044921875e+01 -1.376896667480468750e+01 -3.327120244503021240e-01 6.427584171295166016e+00 1.828461647033691406e+00 6.326339840888977051e-01
2.026000000000000000e+03 7.745298004150390625e+01 2.019168090820312500e+01 1.436867952346801758e+00 6.533191204071044922e+00 2.391017675399780273e+00 5.859274864196777344e-01
2.027000000000000000e+03 7.605307006835937500e+01 2.132888603210449219e+01 1.990030884742736816e+00 1.004211711883544922e+01 3.609644412994384766e+00 2.282212734222412109e+00
2.028000000000000000e+03 7.788775634765625000e+01 1.827854919433593750e+01 9.053281545639038086e-01 5.934413433074951172e+00 2.051922321319580078e+00 -1.304816722869873047e+00
2.029000000000000000e+03 7.577214050292968750e+01 -1.161478805541992188e+01 -1.944565474987030029e-01 7.577750682830810547e+00 2.214988231658935547e+00 7.895178198814392090e-01
2.030000000000000000e+03 4.651583480834960938e+01 1.242938232421875000e+01 -1.521681621670722961e-02 -1.287876721471548080e-02 -8.428675122559070587e-03 -4.991633351892232895e-03
2.031000000000000000e+03 1.646572685241699219e+01 -9.380288124084472656e+00 -4.459006488323211670e-01 -2.424596846103668213e-01 -2.065081000328063965e-01 -4.168082177639007568e-01
2.032000000000000000e+03 7.373560333251953125e+01 -1.533738040924072266e+01 1.778143942356109619e-01 7.006225109100341797e+00 2.155211925506591797e+00 1.048867225646972656e+00
2.033000000000000000e+03 4.435569381713867188e+01 -2.712464141845703125e+01 1.328036040067672729e-01 7.235168814659118652e-01 2.568961381912231445e-01 -8.530288189649581909e-02
2.034000000000000000e+03 3.904244232177734375e+01 -2.687711143493652344e+01 -2.053886128123849630e-04 -8.000648766756057739e-02 -2.406356297433376312e-02 4.995290562510490417e-02
2.035000000000000000e+03 3.946427154541015625e+01 -2.158469200134277344e+01 1.021307334303855896e-01 1.219688262790441513e-02 3.429828584194183350e-02 -2.761237323284149170e-01
2.036000000000000000e+03 1.430203151702880859e+01 -1.007373142242431641e+01 -5.338944792747497559e-01 -4.583554863929748535e-01 -2.976749837398529053e-01 -2.651273906230926514e-01
2.037000000000000000e+03 1.214232063293457031e+01 -9.184644699096679688e+00 -3.158800005912780762e-01 -3.513642549514770508e-01 -2.001732736825942993e-01 -9.884251654148101807e-02
2.038000000000000000e+03 1.433647823333740234e+01 1.395611381530761719e+01 6.538776797242462635e-04 -1.037588110193610191e-03 -1.151131291408091784e-04 1.251278677955269814e-03
2.039000000000000000e+03 1.571549415588378906e+01 1.215565872192382812e+01 1.018485927488654852e-04 3.015936235897243023e-04 1.210326663567684591e-04 1.067950390279293060e-03
2.040000000000000000e+03 4.415524005889892578e+00 -2.030073738098144531e+01 5.731367506086826324e-03 -2.675206661224365234e-01 -7.853678613901138306e-02 -3.407857716083526611e-01
2.041000000000000000e+03 5.489482402801513672e+00 -2.078264999389648438e+01 4.442814737558364868e-02 -3.047784566879272461e-01 -7.810509204864501953e-02 -3.734457492828369141e-01
2.042000000000000000e+03 4.891418933868408203e+00 2.029479026794433594e+01 -1.318139489740133286e-03 -2.062413987005129457e-04 -4.573142796289175749e-04 -5.618275608867406845e-04
2.043000000000000000e+03 4.859674453735351562e+00 5.146945476531982422e+00 1.676745741860941052e-04 -3.365268639754503965e-05 4.020656706416048110e-05 -2.700262411963194609e-04
2.044000000000000000e+03 7.919128894805908203e+00 -1.942689895629882812e+01 -1.545749139040708542e-02 -3.099733293056488037e-01 -9.762924164533615112e-02 -4.633396863937377930e-01
2.045000000000000000e+03 5.538846206665039062e+01 2.335277557373046875e+01 -1.429691910743713379e+00 -7.623658329248428345e-02 -4.517785608768463135e-01 5.215507373213768005e-02
2.046000000000000000e+03 5.443159484863281250e+01 2.485918045043945312e+01 -1.055128574371337891e+00 -7.782429456710815430e-02 -3.398858606815338135e-01 3.066906630992889404e-01
2.047000000000000000e+03 9.850225448608398438e+00 -1.367899131774902344e+01 -5.194351673126220703e-01 -3.880185484886169434e-01 -2.722361087799072266e-01 -2.533692717552185059e-01
2.048000000000000000e+03 8.891515731811523438e+00 -1.431317996978759766e+01 -4.339576959609985352e-01 -2.857274115085601807e-01 -2.159055322408676147e-01 -2.740472555160522461e-01
2.049000000000000000e+03 9.108054161071777344e+00 -2.282531929016113281e+01 2.498520910739898682e-01 -2.247463315725326538e-01 7.531729061156511307e-03 -3.291805982589721680e-01
2.050000000000000000e+03 6.944117736816406250e+01 -1.032423877716064453e+01 -8.574365377426147461e-01 5.045008182525634766e+00 1.256271600723266602e+00 4.074182733893394470e-02
2.051000000000000000e+03 4.378464126586914062e+01 -1.544019412994384766e+01 2.943257093429565430e-01 6.795820593833923340e-01 2.921723127365112305e-01 2.287567965686321259e-02
2.052000000000000000e+03 1.554104328155517578e+01 7.138322353363037109e+00 6.296735373325645924e-04 2.678575110621750355e-04 2.692593261599540710e-04 5.868655280210077763e-04
2.053000000000000000e+03 1.655471611022949219e+01 8.220479011535644531e+00 6.435019313357770443e-04 4.748762585222721100e-04 3.355134685989469290e-04 5.924182478338479996e-04
2.054000000000000000e+03 6.354170227050781250e+01 -9.469704627990722656e+00 -5.681461095809936523e-01 3.714525997638702393e-01 -5.900805816054344177e-02 1.938993036746978760e-01
2.055000000000000000e+03 3.195394325256347656e+01 -8.137214660644531250e+00 -9.317721128463745117e-01 -2.675720751285552979e-01 -3.598032593727111816e-01 -2.432596236467361450e-01
2.056000000000000000e+03 4.077505874633789062e+01 -2.287627601623535156e+01 1.151401326060295105e-01 2.329771965742111206e-01 1.044351980090141296e-01 -1.723343729972839355e-01
2.057000000000000000e+03 4.070453262329101562e+01 -2.464086914062500000e+01 8.450784534215927124e-02 2.374425381422042847e-01 9.658510982990264893e-02 -7.905127108097076416e-02
2.058000000000000000e+03 5.576889038085937500e+01 -3.457711791992187500e+01 5.725386142730712891e-01 3.176883757114410400e-01 2.670680880546569824e-01 -2.218924760818481445e-01
2.059000000000000000e+03 2.709361648559570312e+01 -1.114525508880615234e+01 -6.592515856027603149e-02 1.025146022439002991e-01 1.097683142870664597e-02 -5.004662275314331055e-01
2.060000000000000000e+03 2.594899368286132812e+01 -1.232289886474609375e+01 1.891420930624008179e-01 1.095042154192924500e-01 8.959389477968215942e-02 -4.220085442066192627e-01
2.061000000000000000e+03 4.158758544921875000e+01 1.490305519104003906e+01 -1.057071387767791748e-01 1.774484477937221527e-02 -2.638868987560272217e-02 1.463941577821969986e-02
2.062000000000000000e+03 4.439072036743164062e+01 1.342228698730468750e+01 -5.332813039422035217e-02 -5.699871107935905457e-03 -1.770840026438236237e-02 -6.798106711357831955e-03
2.063000000000000000e+03 4.540962982177734375e+01 1.360279369354248047e+01 -5.295604839920997620e-02 -8.091345429420471191e-03 -1.831421814858913422e-02 -1.609971188008785248e-02
2.064000000000000000e+03 5.305248737335205078e+00 -1.187331295013427734e+01 -1.779754906892776489e-01 -1.424532383680343628e-02 -5.766624584794044495e-02 -4.860407486557960510e-02
2.065000000000000000e+03 7.442250061035156250e+01 7.383186817169189453e+00 -4.690626561641693115e-01 7.512798786163330078e+00 2.113120794296264648e+00 -1.633985489606857300e-01
2.066000000000000000e+03 3.819878005981445312e+01 -7.783915519714355469e+00 -8.406905531883239746e-01 -2.664111256599426270e-01 -3.321304917335510254e-01 -1.715244054794311523e-01
2.067000000000000000e+03 7.439860534667968750e+01 -2.575358390808105469e+01 4.613553360104560852e-02 6.525784492492675781e+00 1.971576094627380371e+00 -1.730355322360992432e-01
2.068000000000000000e+03 4.203848266601562500e+01 -2.349094581604003906e+01 1.988019943237304688e-01 4.767790734767913818e-01 2.026743143796920776e-01 -1.646482050418853760e-01
2.069000000000000000e+03 7.655966949462890625e+01 1.406017589569091797e+01 -8.252564668655395508e-01 9.117001533508300781e+00 2.487523555755615234e+00 -1.845326066017150879e+00
2.070000000000000000e+03 4.008493423461914062e+00 1.219065284729003906e+01 -3.452912642387673259e-05 3.852809895761311054e-04 1.052255538525059819e-04 -9.794123470783233643e-04
2.071000000000000000e+03 6.957062530517578125e+01 -2.101020812988281250e+01 1.566005110740661621e+00 7.379395008087158203e+00 2.683619976043701172e+00 4.857292175292968750e-01
2.072000000000000000e+03 7.516230773925781250e+01 -2.930176353454589844e+01 -1.343763023614883423e-01 6.374700069427490234e+00 1.872097134590148926e+00 -8.808799088001251221e-02
2.073000000000000000e+03 7.455579376220703125e+01 -8.084253311157226562e+00 -2.964604496955871582e-01 7.246825218200683594e+00 2.085109472274780273e+00 4.879169166088104248e-01
2.074000000000000000e+03 7.571914672851562500e+01 -1.663770103454589844e+01 2.506323456764221191e-01 7.035383701324462891e+00 2.185804843902587891e+00 7.745103836059570312e-01
2.075000000000000000e+03 7.581026458740234375e+01 5.687884092330932617e-01 -7.587637752294540405e-02 8.040541648864746094e+00 2.389399528503417969e+00 1.379480510950088501e-01
2.076000000000000000e+03 7.601848602294921875e+01 2.331816673278808594e+01 -6.077877283096313477e-01 1.005712413787841797e+01 2.834800958633422852e+00 1.993001222610473633e+00
2.077000000000000000e+03 2.790071487426757812e+01 2.807175636291503906e+01 -2.663935162127017975e-02 -7.559959590435028076e-02 -3.067168407142162323e-02 9.327734261751174927e-02
2.078000000000000000e+03 4.618868637084960938e+01 1.112750053405761719e+01 -5.485288798809051514e-03 -1.128694880753755569e-02 -5.031671375036239624e-03 1.224481151439249516e-03
2.079000000000000000e+03 4.811291503906250000e+01 -8.121951103210449219e+00 -1.403765380382537842e-01 6.241321563720703125e-01 1.451266855001449585e-01 1.045191586017608643e-01
2.080000000000000000e+03 5.740291213989257812e+01 -6.867478370666503906e+00 -2.285279184579849243e-01 -3.416731357574462891e-01 -1.710603237152099609e-01 4.365702271461486816e-01
2.081000000000000000e+03 4.351152801513671875e+01 1.217315673828125000e+01 -2.907233312726020813e-02 -6.904510315507650375e-03 -1.079305354505777359e-02 -1.319737406447529793e-03
2.082000000000000000e+03 3.631970405578613281e+00 3.357751083374023438e+01 2.509487094357609749e-04 -8.012007921934127808e-03 -2.328317612409591675e-03 4.085287451744079590e-03
2.083000000000000000e+03 3.338035106658935547e+00 3.503419113159179688e+01 3.984984068665653467e-04 -8.710830472409725189e-03 -2.493699779734015465e-03 3.512307535856962204e-03
2.084000000000000000e+03 5.751026916503906250e+01 2.682879829406738281e+01 -6.708933711051940918e-01 -1.248805299401283264e-01 -2.387321740388870239e-01 4.735050499439239502e-01
2.085000000000000000e+03 5.583542251586914062e+01 2.519972229003906250e+01 -9.975931644439697266e-01 -9.804200381040573120e-02 -3.286905586719512939e-01 3.400997221469879150e-01
2.086000000000000000e+03 3.803659057617187500e+01 -6.583545207977294922e+00 -1.140308499336242676e+00 -2.998559772968292236e-01 -4.320493638515472412e-01 -2.952410578727722168e-01
2.087000000000000000e+03 3.924224472045898438e+01 -7.731150150299072266e+00 -7.161207199096679688e-01 -2.254896610975265503e-01 -2.824831306934356689e-01 -1.516038924455642700e-01
2.088000000000000000e+03 3.105559921264648438e+01 -7.957132339477539062e+00 -1.070758819580078125e+00 -2.547818720340728760e-01 -3.976622223854064941e-01 -3.454976677894592285e-01
2.089000000000000000e+03 3.540680694580078125e+01 -1.435556983947753906e+01 7.980035543441772461e-01 -1.684037297964096069e-01 1.888799518346786499e-01 -1.001246720552444458e-01
2.090000000000000000e+03 7.069126129150390625e+01 -1.974614334106445312e+01 1.259700417518615723e+00 7.350287914276123047e+00 2.582996606826782227e+00 5.280361175537109375e-01
2.091000000000000000e+03 6.417617034912109375e+01 2.526739835739135742e+00 -1.886240690946578979e-01 1.013823509216308594e+00 2.475598454475402832e-01 7.310952246189117432e-02
2.092000000000000000e+03 5.105627059936523438e+01 -4.990056991577148438e+00 -5.683072805404663086e-01 1.559704840183258057e-01 -1.237010434269905090e-01 1.164615005254745483e-01
2.093000000000000000e+03 4.979192733764648438e+01 -6.636653423309326172e+00 -3.093118965625762939e-01 4.090996682643890381e-01 2.993632853031158447e-02 1.260896623134613037e-01
2.094000000000000000e+03 5.655248641967773438e+01 -2.274854183197021484e+00 -5.593482851982116699e-01 -4.068965911865234375e-01 -2.898734509944915771e-01 8.278836309909820557e-02
2.095000000000000000e+03 6.737943267822265625e+01 2.642276954650878906e+01 -1.633027046918869019e-01 2.441638469696044922e+00 6.835007071495056152e-01 -1.417674303054809570e+00
2.096000000000000000e+03 4.619237136840820312e+01 1.749557495117187500e+01 -2.118046879768371582e-01 2.747469395399093628e-02 -5.529899522662162781e-02 -5.823890492320060730e-02
2.097000000000000000e+03 4.738902664184570312e+01 1.648733520507812500e+01 -1.361111402511596680e-01 -1.052048522979021072e-02 -4.398948699235916138e-02 -6.629700213670730591e-02
2.098000000000000000e+03 5.504104232788085938e+01 -5.556702613830566406e+00 -2.872566878795623779e-01 -3.325133323669433594e-01 -1.859310120344161987e-01 3.612468838691711426e-01
2.099000000000000000e+03 5.380771636962890625e+01 -5.055500984191894531e+00 -4.108945429325103760e-01 -2.150526642799377441e-01 -1.877841651439666748e-01 3.163439333438873291e-01
2.100000000000000000e+03 6.512191772460937500e+01 -2.921368789672851562e+01 6.679045408964157104e-02 2.704509496688842773e+00 8.313900232315063477e-01 9.268363118171691895e-01
2.101000000000000000e+03 8.343374252319335938e+00 -2.404939079284667969e+01 2.409009486436843872e-01 -2.722270786762237549e-01 -9.397836402058601379e-03 -2.926579117774963379e-01
2.102000000000000000e+03 1.035756683349609375e+01 -2.565946769714355469e+01 2.899724841117858887e-01 -9.432251006364822388e-02 5.869499593973159790e-02 -2.301070392131805420e-01
2.103000000000000000e+03 4.243536376953125000e+01 -4.491935729980468750e+00 -1.177085399627685547e+00 1.055858954787254333e-01 -3.214498460292816162e-01 -3.017168939113616943e-01
2.104000000000000000e+03 5.148670959472656250e+01 -1.957427382469177246e+00 -1.097673892974853516e+00 -1.534696668386459351e-01 -3.753430843353271484e-01 9.738638065755367279e-03
2.105000000000000000e+03 6.533959960937500000e+01 -3.164643096923828125e+01 8.443091064691543579e-02 2.798738956451416016e+00 8.649509549140930176e-01 7.734095454216003418e-01
2.106000000000000000e+03 1.645581436157226562e+01 2.103295326232910156e+01 -1.621116325259208679e-02 -1.220516423927620053e-04 -4.899964667856693268e-03 2.182384021580219269e-03
2.107000000000000000e+03 4.122373580932617188e+01 -5.349073410034179688e+00 -1.181699395179748535e+00 -1.512671858072280884e-01 -3.998899757862091064e-01 -2.498409897089004517e-01
2.108000000000000000e+03 7.233222198486328125e+01 -1.577592945098876953e+01 2.893868386745452881e-01 6.974354267120361328e+00 2.179122209548950195e+00 1.031647086143493652e+00
2.109000000000000000e+03 3.303458023071289062e+01 -1.137192344665527344e+01 2.724145166575908661e-02 -6.473263353109359741e-02 -1.124735362827777863e-02 -1.787524819374084473e-01
2.110000000000000000e+03 3.464909362792968750e+01 -1.212677669525146484e+01 2.724502980709075928e-01 -1.472868174314498901e-01 3.754904121160507202e-02 -4.383258894085884094e-02
2.111000000000000000e+03 5.528630828857421875e+01 -4.360015392303466797e+00 -3.861061930656433105e-01 -3.262221813201904297e-01 -2.136985212564468384e-01 3.195816576480865479e-01
2.112000000000000000e+03 2.708769798278808594e+01 -6.915888309478759766e+00 -9.462655186653137207e-01 1.380007714033126831e-01 -2.424794137477874756e-01 -2.776315808296203613e-01
2.113000000000000000e+03 2.780753135681152344e+01 -7.747896194458007812e+00 -9.403532743453979492e-01 1.135157644748687744e-01 -2.480512559413909912e-01 -4.066022634506225586e-01
2.114000000000000000e+03 3.520537185668945312e+01 2.101782035827636719e+01 -1.872252225875854492e-01 -1.786089688539505005e-02 -6.152583658695220947e-02 8.149909228086471558e-02
2.115000000000000000e+03 2.912237548828125000e+01 2.324210929870605469e+01 -1.305153518915176392e-01 -5.908553302288055420e-02 -5.688026919960975647e-02 9.089109301567077637e-02
2.116000000000000000e+03 1.404419136047363281e+01 1.861835289001464844e+01 -2.437928691506385803e-03 -3.046202473342418671e-03 -1.645239302888512611e-03 5.248870729701593518e-05
2.117000000000000000e+03 1.607280158996582031e+01 1.806674003601074219e+01 -9.724665433168411255e-04 -2.019986510276794434e-03 -8.977359393611550331e-04 -1.248086045961827040e-04
2.118000000000000000e+03 6.831417846679687500e+01 -9.092719078063964844e+00 -6.877112388610839844e-01 4.002139091491699219e+00 9.943283796310424805e-01 -1.929480135440826416e-01
2.119000000000000000e+03 4.009862136840820312e+01 -1.797907447814941406e+01 4.352219998836517334e-01 4.093832895159721375e-02 1.428481042385101318e-01 -3.377169370651245117e-01
2.120000000000000000e+03 3.781499481201171875e+01 -1.648413658142089844e+01 6.995999217033386230e-01 -2.862406671047210693e-01 1.240077763795852661e-01 -3.215734958648681641e-01
2.121000000000000000e+03 4.809702301025390625e+01 -3.031207084655761719e+01 1.575306653976440430e-01 7.034386992454528809e-01 2.582908272743225098e-01 -2.816058993339538574e-01
2.122000000000000000e+03 6.214741706848144531e+00 -3.036907196044921875e+01 8.222231268882751465e-02 -4.219601154327392578e-01 -1.019213497638702393e-01 -8.421970903873443604e-02
2.123000000000000000e+03 4.785767078399658203e+00 3.553092193603515625e+01 1.333098625764250755e-03 -1.232706848531961441e-02 -3.298190888017416000e-03 4.958222620189189911e-03
2.124000000000000000e+03 3.309188079833984375e+01 -3.413219070434570312e+01 3.263357877731323242e-01 -2.051765620708465576e-01 3.634776547551155090e-02 -1.018045321106910706e-01
2.125000000000000000e+03 1.570418167114257812e+01 -3.343578338623046875e+01 1.831930279731750488e-01 1.588803976774215698e-01 1.026220247149467468e-01 -1.049356907606124878e-01
2.126000000000000000e+03 7.560802459716796875e+01 -3.799556732177734375e+01 -5.671869590878486633e-02 6.347225189208984375e+00 1.887151956558227539e+00 -6.505669653415679932e-02
2.127000000000000000e+03 1.563345050811767578e+01 4.020264625549316406e+00 -2.916124358307570219e-04 2.502482093404978514e-04 -1.240927031176397577e-05 6.192857108544558287e-05
2.128000000000000000e+03 1.663924980163574219e+01 5.996564388275146484e+00 5.922220880165696144e-04 1.472441217629238963e-04 2.218398731201887131e-04 3.277457726653665304e-04
2.129000000000000000e+03 1.167007446289062500e+01 -2.891804504394531250e+01 2.612983584403991699e-01 -1.471687946468591690e-02 7.397444546222686768e-02 -1.493506282567977905e-01
2.130000000000000000e+03 2.414216995239257812e+01 -3.657553100585937500e+01 2.237550318241119385e-01 1.143971756100654602e-01 1.014456599950790405e-01 -1.434988230466842651e-01
2.131000000000000000e+03 2.562099075317382812e+01 -3.502505111694335938e+01 2.677104771137237549e-01 7.551620900630950928e-02 1.029680073261260986e-01 -1.629006862640380859e-01
2.132000000000000000e+03 4.135123252868652344e+00 -8.093344688415527344e+00 -5.101846531033515930e-02 5.579226836562156677e-02 1.432141056284308434e-03 9.440480917692184448e-02
2.133000000000000000e+03 4.912894725799560547e+00 7.448218822479248047e+00 1.678684493526816368e-04 -4.816135333385318518e-05 3.591212589526548982e-05 -5.308348918333649635e-04
2.134000000000000000e+03 2.695025444030761719e+01 -8.449509620666503906e+00 -6.529805064201354980e-01 1.551826149225234985e-01 -1.493393629789352417e-01 -4.583886265754699707e-01
2.135000000000000000e+03 2.624068641662597656e+01 -7.637118339538574219e+00 -7.854394316673278809e-01 2.266423404216766357e-01 -1.676391363143920898e-01 -4.096345305442810059e-01
2.136000000000000000e+03 7.020861816406250000e+01 8.489925384521484375e+00 -5.333791375160217285e-01 4.980232238769531250e+00 1.334055900573730469e+00 3.428100347518920898e-01
2.137000000000000000e+03 6.988875579833984375e+01 -1.204967784881591797e+01 -9.028441309928894043e-01 5.751319885253906250e+00 1.454542756080627441e+00 3.068752884864807129e-01
2.138000000000000000e+03 6.081938552856445312e+01 -9.516536593437194824e-01 -1.825359910726547241e-01 8.825463801622390747e-02 -2.828440628945827484e-02 3.792367875576019287e-02
2.139000000000000000e+03 6.180059432983398438e+01 -8.033252716064453125e+00 -2.026033997535705566e-01 1.207184121012687683e-01 -2.456549741327762604e-02 3.651520013809204102e-01
2.140000000000000000e+03 3.596467590332031250e+01 -7.144146442413330078e+00 -1.234655022621154785e+00 -2.532163262367248535e-01 -4.463613927364349365e-01 -2.430845797061920166e-01
2.141000000000000000e+03 4.709259033203125000e+00 -3.410961532592773438e+01 3.217544779181480408e-02 -5.340965986251831055e-01 -1.505763530731201172e-01 -1.684922911226749420e-02
2.142000000000000000e+03 5.239349365234375000e+00 -1.548865032196044922e+01 -1.584082990884780884e-01 -9.168099611997604370e-02 -7.502678781747817993e-02 -2.590645551681518555e-01
2.143000000000000000e+03 3.892516708374023438e+01 2.011333847045898438e+01 -2.053774148225784302e-01 3.856540471315383911e-02 -5.004360154271125793e-02 7.250469177961349487e-02
2.144000000000000000e+03 3.777835845947265625e+01 2.133284378051757812e+01 -1.982371807098388672e-01 2.319650538265705109e-02 -5.251220241189002991e-02 8.224065601825714111e-02
2.145000000000000000e+03 7.489457702636718750e+01 -2.695673179626464844e+01 -5.816423892974853516e-02 6.502411842346191406e+00 1.933274388313293457e+00 -1.582837700843811035e-01
2.146000000000000000e+03 7.361465454101562500e+01 2.861341094970703125e+01 -9.237108230590820312e-01 7.511196136474609375e+00 1.976245522499084473e+00 -4.642114639282226562e-01
2.147000000000000000e+03 3.842386245727539062e+01 -2.233177757263183594e+01 -2.503808960318565369e-02 -2.595929205417633057e-01 -8.538930118083953857e-02 -2.194322645664215088e-01
2.148000000000000000e+03 4.327262496948242188e+01 -2.077401733398437500e+01 2.877053618431091309e-01 7.929559350013732910e-01 3.241983950138092041e-01 -3.154729604721069336e-01
2.149000000000000000e+03 6.707356262207031250e+01 5.374595642089843750e+00 -3.702231049537658691e-01 2.575481653213500977e+00 6.615775823593139648e-01 3.246533572673797607e-01
2.150000000000000000e+03 7.039995574951171875e+01 2.171722412109375000e+01 1.172645449638366699e+00 3.056639432907104492e+00 1.268785476684570312e+00 -2.609898090362548828e+00
2.151000000000000000e+03 7.061455535888671875e+01 2.198601722717285156e+01 1.178360462188720703e+00 4.011478424072265625e+00 1.556951761245727539e+00 -3.271449327468872070e+00
2.152000000000000000e+03 7.141233825683593750e+01 2.168920707702636719e+01 1.469700574874877930e+00 6.613059997558593750e+00 2.424828052520751953e+00 -4.649932861328125000e+00
2.153000000000000000e+03 7.176407623291015625e+01 1.715787124633789062e+01 7.605152130126953125e-01 8.970669746398925781e+00 2.919355392456054688e+00 4.113622665405273438e+00
2.154000000000000000e+03 7.189364624023437500e+01 1.743512725830078125e+01 1.022638559341430664e+00 9.818699836730957031e+00 3.252401590347290039e+00 4.471190452575683594e+00
2.155000000000000000e+03 7.338394927978515625e+01 2.155784797668457031e+01 -3.178926408290863037e-01 1.688439369201660156e+01 4.969950199127197266e+00 -5.243530869483947754e-01
2.156000000000000000e+03 7.333320617675781250e+01 1.702606582641601562e+01 -8.109853863716125488e-01 1.469474792480468750e+01 4.165128707885742188e+00 6.451367139816284180e-01
2.157000000000000000e+03 7.597193145751953125e+01 1.948724365234375000e+01 4.088497161865234375e+00 9.653733253479003906e+00 4.122669219970703125e+00 -1.721222847700119019e-01
2.158000000000000000e+03 7.337004089355468750e+01 2.188254165649414062e+01 -8.664606213569641113e-01 1.558456802368164062e+01 4.415432453155517578e+00 -7.961918115615844727e-01
2.159000000000000000e+03 7.435172271728515625e+01 1.756037330627441406e+01 1.064537286758422852e+00 1.464105319976806641e+01 4.711677074432373047e+00 -2.240276813507080078e+00
2.160000000000000000e+03 7.453522491455078125e+01 2.030304908752441406e+01 6.117341995239257812e+00 1.394771003723144531e+01 6.019515514373779297e+00 2.206372976303100586e+00
2.161000000000000000e+03 7.442894744873046875e+01 2.086557006835937500e+01 3.598654747009277344e+00 1.474362945556640625e+01 5.502685546875000000e+00 2.677215814590454102e+00
2.162000000000000000e+03 7.442333221435546875e+01 2.121695709228515625e+01 2.292356491088867188e+00 1.470355129241943359e+01 5.098772048950195312e+00 2.412611722946166992e+00
2.163000000000000000e+03 7.503559112548828125e+01 1.892384147644042969e+01 5.324048042297363281e+00 1.198565769195556641e+01 5.192911624908447266e+00 -1.839177966117858887e+00
2.164000000000000000e+03 7.692199707031250000e+01 1.987080574035644531e+01 2.284952402114868164e+00 7.656354904174804688e+00 2.982392072677612305e+00 1.963151097297668457e-01
2.165000000000000000e+03 7.053823089599609375e+01 1.706252670288085938e+01 1.361863136291503906e+00 3.994757175445556641e+00 1.606986165046691895e+00 2.690488338470458984e+00
2.166000000000000000e+03 7.012956237792968750e+01 1.691739273071289062e+01 1.081568837165832520e+00 3.005267143249511719e+00 1.226050853729248047e+00 2.065019130706787109e+00
2.167000000000000000e+03 6.879582977294921875e+01 2.220374107360839844e+01 -1.606724262237548828e-01 1.552362918853759766e+00 4.175071418285369873e-01 -1.011417269706726074e+00
2.168000000000000000e+03 1.067337894439697266e+01 -4.866996288299560547e+00 3.704807534813880920e-02 -1.083892360329627991e-01 -2.140234783291816711e-02 3.963377699255943298e-02
2.169000000000000000e+03 7.769013977050781250e+01 2.102074813842773438e+01 1.121547937393188477e+00 6.338524341583251953e+00 2.238021612167358398e+00 1.272429466247558594e+00
2.170000000000000000e+03 7.720288848876953125e+01 1.836620330810546875e+01 1.578153133392333984e+00 7.495364189147949219e+00 2.722055196762084961e+00 -1.463212370872497559e+00
2.171000000000000000e+03 4.744650363922119141e+00 4.295110702514648438e+00 2.523820439819246531e-04 1.051500876201316714e-04 1.072596423909999430e-04 -2.419418160570785403e-04
2.172000000000000000e+03 3.939444065093994141e+00 5.304272174835205078e+00 2.528321929275989532e-04 1.615537912584841251e-04 1.243157894350588322e-04 -3.071920946240425110e-04
2.173000000000000000e+03 8.622651100158691406e+00 -4.126225471496582031e+00 7.768697291612625122e-02 -6.374702602624893188e-02 4.181984812021255493e-03 8.852165937423706055e-02
2.174000000000000000e+03 4.594688034057617188e+01 -3.223069190979003906e+00 -1.019544005393981934e+00 3.509100973606109619e-01 -2.005901634693145752e-01 -2.706058919429779053e-01
2.175000000000000000e+03 4.503810119628906250e+01 -2.364722251892089844e+00 -1.033800721168518066e+00 2.842058241367340088e-01 -2.248784601688385010e-01 -3.426864743232727051e-01
2.176000000000000000e+03 7.749237060546875000e+01 2.216170692443847656e+01 3.848369717597961426e-01 7.307474136352539062e+00 2.307693481445312500e+00 2.028717279434204102e+00
2.177000000000000000e+03 7.510041046142578125e+01 2.054916381835937500e+01 4.364332199096679688e+00 1.208481502532958984e+01 4.934744358062744141e+00 2.109918355941772461e+00
2.178000000000000000e+03 9.485741615295410156e+00 4.690318107604980469e+00 1.620245748199522495e-04 -1.905689714476466179e-04 -8.563319170207250863e-06 -1.906742545543238521e-05
2.179000000000000000e+03 7.966377258300781250e+00 4.705286026000976562e+00 1.902051881188526750e-04 -1.790851674741134048e-04 3.336008148835389875e-06 -2.057867241092026234e-04
2.180000000000000000e+03 7.860589504241943359e+00 3.998761892318725586e+00 4.490266146603971720e-04 -7.308305066544562578e-05 1.127830691984854639e-04 -4.904203160549513996e-05
2.181000000000000000e+03 5.688827991485595703e+00 4.948062896728515625e+00 3.307306033093482256e-04 -1.264820275537203997e-05 9.542471525492146611e-05 -2.148583735106512904e-04
2.182000000000000000e+03 7.217724323272705078e+00 4.712656497955322266e+00 4.618367529474198818e-04 -9.836115350481122732e-05 1.090426812879741192e-04 -9.949443483492359519e-05
2.183000000000000000e+03 8.725787162780761719e+00 4.719594478607177734e+00 5.778577760793268681e-04 -1.645719021325930953e-04 1.239857665495947003e-04 -8.676080142322462052e-06
2.184000000000000000e+03 1.296978664398193359e+01 3.204019546508789062e+00 9.357338421978056431e-05 -1.419210748281329870e-04 -1.450430499971844256e-05 1.162963744718581438e-04
2.185000000000000000e+03 1.283097362518310547e+01 3.930577516555786133e+00 4.245454329065978527e-04 3.734172423719428480e-05 1.385661453241482377e-04 2.074025105684995651e-04
2.186000000000000000e+03 7.010575866699218750e+01 1.642229080200195312e+01 7.267964482307434082e-01 3.675585031509399414e+00 1.320714473724365234e+00 2.191902875900268555e+00
2.187000000000000000e+03 7.062447357177734375e+01 1.652615737915039062e+01 8.445165157318115234e-01 4.887430191040039062e+00 1.719584107398986816e+00 2.820586681365966797e+00
2.188000000000000000e+03 1.324869632720947266e+01 -4.468387126922607422e+00 4.946881905198097229e-02 -1.095153391361236572e-01 -1.801395602524280548e-02 -6.575441360473632812e-02
2.189000000000000000e+03 7.108836174011230469e+00 -4.935849189758300781e+00 2.776650525629520416e-02 -4.433639720082283020e-02 -4.970967303961515427e-03 1.117551103234291077e-01
2.190000000000000000e+03 2.286431694030761719e+01 -6.572835445404052734e+00 -5.252578854560852051e-01 2.017134726047515869e-01 -9.706331789493560791e-02 -3.099761903285980225e-01
2.191000000000000000e+03 4.202924728393554688e+00 -6.829308032989501953e+00 -2.229879610240459442e-02 4.559054598212242126e-02 6.987525150179862976e-03 1.127870157361030579e-01
2.192000000000000000e+03 1.662341880798339844e+01 4.914689540863037109e+00 -3.673647297546267509e-04 2.140173164661973715e-04 -4.600422471412457526e-05 1.321807067142799497e-04
2.193000000000000000e+03 1.494206619262695312e+01 4.391576290130615234e+00 3.349890757817775011e-04 -2.684631326701492071e-04 1.995778256969060749e-05 1.567504659760743380e-04
2.194000000000000000e+03 7.906755447387695312e+00 -4.929088592529296875e+00 3.086355142295360565e-02 -6.141982972621917725e-02 -9.166884236037731171e-03 1.046888008713722229e-01
2.195000000000000000e+03 1.321819496154785156e+01 -5.625019550323486328e+00 -3.675770759582519531e-02 -1.596698015928268433e-01 -5.892825126647949219e-02 -8.374673128128051758e-02
2.196000000000000000e+03 1.311513710021972656e+01 -5.077259540557861328e+00 -7.297906093299388885e-03 -1.247575655579566956e-01 -3.961664065718650818e-02 -6.630860269069671631e-02
2.197000000000000000e+03 1.224411582946777344e+01 5.182289600372314453e+00 5.007603322155773640e-04 -2.861067187041044235e-04 6.439608114305883646e-05 2.201714087277650833e-04
2.198000000000000000e+03 5.007477569580078125e+01 -4.397178649902343750e+00 -7.280406951904296875e-01 2.192412167787551880e-01 -1.526398509740829468e-01 5.778064951300621033e-03
2.199000000000000000e+03 1.698752784729003906e+01 -5.481619834899902344e+00 -1.582596600055694580e-01 -4.617912322282791138e-02 -6.133163347840309143e-02 -2.834994196891784668e-01
2.200000000000000000e+03 1.419411182403564453e+01 -5.581978321075439453e+00 -5.540461838245391846e-02 -1.365709900856018066e-01 -5.759268254041671753e-02 -1.346567869186401367e-01
2.201000000000000000e+03 1.582863616943359375e+01 -8.715742111206054688e+00 -3.893775939941406250e-01 -3.217775225639343262e-01 -2.133465409278869629e-01 -3.410431146621704102e-01
2.202000000000000000e+03 1.618392944335937500e+01 -5.364903450012207031e+00 -1.058764234185218811e-01 -8.869963884353637695e-02 -5.837281793355941772e-02 -2.358869910240173340e-01
2.203000000000000000e+03 2.549684143066406250e+01 -6.922639369964599609e+00 -7.946935296058654785e-01 2.344809472560882568e-01 -1.680637747049331665e-01 -2.772444486618041992e-01
2.204000000000000000e+03 2.457331657409667969e+01 -5.420904636383056641e+00 -7.064843177795410156e-01 2.271591573953628540e-01 -1.437975466251373291e-01 -1.184530034661293030e-01
2.205000000000000000e+03 6.765876770019531250e+01 2.432370758056640625e+01 -3.584036231040954590e-01 1.788011789321899414e+00 4.288824498653411865e-01 -1.399775266647338867e+00
2.206000000000000000e+03 5.359039783477783203e+00 -4.865424633026123047e+00 2.205002494156360626e-02 2.854236401617527008e-03 7.471278309822082520e-03 1.218911334872245789e-01
2.207000000000000000e+03 7.008164978027343750e+01 1.583474445343017578e+01 4.637960195541381836e-01 4.206387996673583984e+00 1.401055216789245605e+00 2.275374174118041992e+00
2.208000000000000000e+03 4.665545654296875000e+01 -3.213859319686889648e+00 -9.979976415634155273e-01 3.715135753154754639e-01 -1.879452168941497803e-01 -2.440463155508041382e-01
2.209000000000000000e+03 4.781140518188476562e+01 -4.015817165374755859e+00 -8.840821981430053711e-01 3.686031401157379150e-01 -1.546437144279479980e-01 -1.745489686727523804e-01
2.210000000000000000e+03 5.118264007568359375e+01 -2.820703983306884766e+00 -9.086959362030029297e-01 -5.345750600099563599e-02 -2.886460423469543457e-01 7.448621559888124466e-03
2.211000000000000000e+03 4.415839004516601562e+01 -3.421081066131591797e+00 -1.089565157890319824e+00 2.693295478820800781e-01 -2.460706830024719238e-01 -3.468758165836334229e-01
2.212000000000000000e+03 6.877589225769042969e+00 8.599391937255859375e+00 3.365388547535985708e-04 -5.197499995119869709e-04 -5.496334051713347435e-05 -4.994324408471584320e-04
2.213000000000000000e+03 4.195176124572753906e+00 6.434958934783935547e+00 1.475308235967531800e-04 9.658798080636188388e-05 7.323564204853028059e-05 -3.139934560749679804e-04
2.214000000000000000e+03 1.095525360107421875e+01 4.506918907165527344e+00 2.441011019982397556e-04 -2.667627704795449972e-04 -6.798505182814551517e-06 1.505573309259489179e-04
2.215000000000000000e+03 1.701788139343261719e+01 -6.840677738189697266e+00 -2.455322295427322388e-01 -8.455288410186767578e-02 -9.902553260326385498e-02 -3.449227511882781982e-01
2.216000000000000000e+03 2.298369216918945312e+01 -7.410178661346435547e+00 -5.518292188644409180e-01 2.210893779993057251e-01 -9.922195225954055786e-02 -3.464450240135192871e-01
2.217000000000000000e+03 1.023154544830322266e+01 4.600438117980957031e+00 5.401769303716719151e-04 -1.246066822204738855e-04 1.246710744453594089e-04 -1.322773096035234630e-05
2.218000000000000000e+03 1.943518066406250000e+01 -5.700667858123779297e+00 -3.152515590190887451e-01 5.548314377665519714e-02 -7.793052494525909424e-02 -3.117833733558654785e-01
2.219000000000000000e+03 4.360258102416992188e+01 -6.803147792816162109e+00 -6.840215325355529785e-01 2.747028470039367676e-01 -1.227956041693687439e-01 -1.179284080862998962e-01
2.220000000000000000e+03 4.939225387573242188e+01 -3.108875274658203125e+00 -9.548110961914062500e-01 2.025470733642578125e-01 -2.256792187690734863e-01 -1.031915843486785889e-01
2.221000000000000000e+03 5.067533874511718750e+01 -3.600089073181152344e+00 -8.158397078514099121e-01 9.006387740373611450e-02 -2.177327573299407959e-01 -3.050893777981400490e-03
2.222000000000000000e+03 1.913972854614257812e+01 -7.834623336791992188e+00 -4.162652492523193359e-01 4.264961928129196167e-02 -1.120846867561340332e-01 -4.076049029827117920e-01
2.223000000000000000e+03 2.531830978393554688e+01 -5.079122543334960938e+00 -7.051244974136352539e-01 1.907704174518585205e-01 -1.543062180280685425e-01 -2.490005642175674438e-02
2.224000000000000000e+03 8.266958236694335938e+00 -1.329685020446777344e+01 -3.990746736526489258e-01 -2.180465310811996460e-01 -1.851363629102706909e-01 -1.844408959150314331e-01
2.225000000000000000e+03 7.915155887603759766e+00 -1.494331455230712891e+01 -3.570533692836761475e-01 -2.284545451402664185e-01 -1.756523698568344116e-01 -2.987425327301025391e-01
2.226000000000000000e+03 5.286112976074218750e+01 -3.519434928894042969e+00 -6.901332736015319824e-01 -1.877411752939224243e-01 -2.633623480796813965e-01 1.688575893640518188e-01
2.227000000000000000e+03 5.891290664672851562e+01 -2.332480430603027344e+00 -2.306977212429046631e-01 -2.218523323535919189e-01 -1.357650160789489746e-01 1.382408291101455688e-01
2.228000000000000000e+03 5.800702285766601562e+01 -2.742490768432617188e+00 -3.250112533569335938e-01 -3.013131320476531982e-01 -1.878973096609115601e-01 1.794315725564956665e-01
2.229000000000000000e+03 7.135599517822265625e+01 -9.785197257995605469e+00 -6.884928345680236816e-01 5.953664302825927734e+00 1.579551339149475098e+00 3.671257793903350830e-01
2.230000000000000000e+03 2.102715492248535156e+01 -6.752805709838867188e+00 -4.194761514663696289e-01 1.370710283517837524e-01 -8.472153544425964355e-02 -3.607488274574279785e-01
2.231000000000000000e+03 2.388311004638671875e+01 -7.301694869995117188e+00 -6.346390247344970703e-01 2.425687164068222046e-01 -1.176211014389991760e-01 -3.426463007926940918e-01
2.232000000000000000e+03 1.872288322448730469e+01 3.626497030258178711e+00 3.236931806895881891e-04 -5.815913482365431264e-06 9.536317520542070270e-05 -7.931936852401122451e-05
2.233000000000000000e+03 4.116834259033203125e+01 -2.143602180480957031e+01 2.078143209218978882e-01 3.499198555946350098e-01 1.673202514648437500e-01 -2.678661644458770752e-01
2.234000000000000000e+03 5.703589630126953125e+01 -5.068330287933349609e+00 -2.197704017162322998e-01 -3.549581170082092285e-01 -1.724185645580291748e-01 3.743425607681274414e-01
2.235000000000000000e+03 5.629040145874023438e+01 -4.012151718139648438e+00 -3.427354097366333008e-01 -3.879874050617218018e-01 -2.192168533802032471e-01 2.962243556976318359e-01
2.236000000000000000e+03 2.840987968444824219e+01 -8.669272422790527344e+00 -6.952437758445739746e-01 4.858553409576416016e-02 -1.939974725246429443e-01 -4.986950755119323730e-01
2.237000000000000000e+03 6.707148742675781250e+01 3.531114101409912109e+00 -2.360314279794692993e-01 2.661294221878051758e+00 7.275788784027099609e-01 2.995819449424743652e-01
2.238000000000000000e+03 1.893627166748046875e+01 2.872566461563110352e+00 -2.418675139779224992e-04 9.816371311899274588e-05 -4.311114025767892599e-05 3.655828913906589150e-05
2.239000000000000000e+03 5.496569061279296875e+01 -3.375384330749511719e+00 -5.713406801223754883e-01 -3.634477555751800537e-01 -2.804365456104278564e-01 2.117787897586822510e-01
2.240000000000000000e+03 7.267324829101562500e+01 -1.479113483428955078e+01 1.096086874604225159e-01 6.894026756286621094e+00 2.101090669631958008e+00 1.054675221443176270e+00
2.241000000000000000e+03 7.201763153076171875e+01 -1.321535778045654297e+01 -3.330827355384826660e-01 6.738577365875244141e+00 1.921648383140563965e+00 9.199087619781494141e-01
2.242000000000000000e+03 6.326568603515625000e+01 3.422472953796386719e+00 -2.996332645416259766e-01 4.574272036552429199e-01 4.733818396925926208e-02 -1.037122160196304321e-01
2.243000000000000000e+03 1.426540088653564453e+01 7.984430789947509766e+00 6.492466782219707966e-04 1.088157659978605807e-04 2.274187281727790833e-04 7.357560680247843266e-04
2.244000000000000000e+03 1.663240814208984375e+01 -8.128277778625488281e+00 -3.360964059829711914e-01 -1.646638214588165283e-01 -1.502280682325363159e-01 -3.874483704566955566e-01
2.245000000000000000e+03 4.133415603637695312e+01 -1.691901969909667969e+01 4.260502159595489502e-01 2.129033803939819336e-01 1.916860789060592651e-01 -2.523555755615234375e-01
2.246000000000000000e+03 4.271849441528320312e+01 -1.925131225585937500e+01 2.945927381515502930e-01 6.674944758415222168e-01 2.886261641979217529e-01 -2.773624360561370850e-01
2.247000000000000000e+03 4.084607315063476562e+01 -1.974340629577636719e+01 3.071892559528350830e-01 2.332302182912826538e-01 1.621258407831192017e-01 -3.183768391609191895e-01
2.248000000000000000e+03 6.069869995117187500e+00 -1.647044372558593750e+01 -1.765495687723159790e-01 -1.632323712110519409e-01 -1.019345819950103760e-01 -3.397441804409027100e-01
2.249000000000000000e+03 7.689615249633789062e+00 -1.655926704406738281e+01 -2.447904050350189209e-01 -2.533878982067108154e-01 -1.494534909725189209e-01 -3.963881433010101318e-01
2.250000000000000000e+03 1.368070697784423828e+01 3.865631103515625000e+00 1.254123199032619596e-04 -1.830036926548928022e-04 -1.727741437207441777e-05 1.768018410075455904e-04
2.251000000000000000e+03 7.515092468261718750e+01 2.592901992797851562e+01 -1.342633962631225586e+00 9.219830513000488281e+00 2.363158941268920898e+00 6.061630845069885254e-01
2.252000000000000000e+03 7.346406555175781250e+01 2.247475051879882812e+01 -1.261389493942260742e+00 1.374136829376220703e+01 3.743993759155273438e+00 -7.596300840377807617e-01
2.253000000000000000e+03 7.686202239990234375e+01 2.182612609863281250e+01 9.242233633995056152e-01 8.563056945800781250e+00 2.846184015274047852e+00 2.169664382934570312e+00
2.254000000000000000e+03 7.685416412353515625e+01 2.298054504394531250e+01 -1.589366495609283447e-01 8.591285705566406250e+00 2.529704809188842773e+00 2.185560941696166992e+00
2.255000000000000000e+03 6.746292114257812500e+01 2.526072311401367188e+01 -2.537681460380554199e-01 2.040073156356811523e+00 5.358915328979492188e-01 -1.438130736351013184e+00
2.256000000000000000e+03 7.048825073242187500e+01 1.458313846588134766e+01 -9.247026592493057251e-02 5.495742321014404297e+00 1.620981574058532715e+00 2.050452232360839844e+00
2.257000000000000000e+03 4.507841491699218750e+01 1.159667873382568359e+01 -1.105866674333810806e-02 -1.209507044404745102e-02 -6.946121342480182648e-03 -2.128513529896736145e-03
2.258000000000000000e+03 4.456292724609375000e+01 1.245246028900146484e+01 -3.214348480105400085e-02 -8.962459862232208252e-03 -1.233178284019231796e-02 -7.343792822211980820e-03
2.259000000000000000e+03 6.396608352661132812e+01 -8.474322319030761719e+00 -2.296074628829956055e-01 6.793325543403625488e-01 1.349175274372100830e-01 1.278037279844284058e-01
2.260000000000000000e+03 1.454749107360839844e+01 7.077060699462890625e+00 2.574530481069814414e-05 -1.328555081272497773e-04 -3.213305899407714605e-05 1.735077239573001862e-04
2.261000000000000000e+03 1.554852581024169922e+01 6.188346862792968750e+00 -2.458931412547826767e-04 1.423774083377793431e-04 -3.105472205788828433e-05 2.377766359131783247e-04
2.262000000000000000e+03 4.237302780151367188e+01 -5.543253421783447266e+00 -9.904192090034484863e-01 1.081449910998344421e-01 -2.646822631359100342e-01 -1.950790584087371826e-01
2.263000000000000000e+03 5.157416152954101562e+01 -4.111999034881591797e+00 -6.769972443580627441e-01 2.732033655047416687e-02 -1.949030607938766479e-01 1.168667897582054138e-01
2.264000000000000000e+03 4.947804641723632812e+01 -5.222826957702636719e+00 -6.163330078125000000e-01 3.458096385002136230e-01 -8.115702122449874878e-02 8.554767817258834839e-03
2.265000000000000000e+03 7.568967437744140625e+01 4.676062583923339844e+00 -1.866979151964187622e-01 8.084222793579101562e+00 2.369257450103759766e+00 -4.457098990678787231e-02
2.266000000000000000e+03 1.768834114074707031e+01 -9.229813575744628906e+00 -4.630770981311798096e-01 -9.556774795055389404e-02 -1.675934493541717529e-01 -4.127374589443206787e-01
2.267000000000000000e+03 1.709359550476074219e+01 -8.783370018005371094e+00 -4.399214684963226318e-01 -1.700980663299560547e-01 -1.830058544874191284e-01 -3.996782302856445312e-01
2.268000000000000000e+03 7.662284088134765625e+01 1.509439945220947266e+01 -5.484127402305603027e-01 9.238120079040527344e+00 2.606912136077880859e+00 -2.221354246139526367e+00
2.269000000000000000e+03 7.538619995117187500e+01 1.285151290893554688e+01 -1.138722419738769531e+00 9.234637260437011719e+00 2.428774595260620117e+00 -1.075439333915710449e+00
2.270000000000000000e+03 1.360941600799560547e+01 -9.328564643859863281e+00 -3.711304962635040283e-01 -4.025736451148986816e-01 -2.321112453937530518e-01 -1.994377523660659790e-01
2.271000000000000000e+03 1.853061676025390625e+01 -9.554709434509277344e+00 -5.053779482841491699e-01 6.609100382775068283e-03 -1.496306508779525757e-01 -4.429050683975219727e-01
2.272000000000000000e+03 7.309636592864990234e+00 -2.044695472717285156e+01 6.410345435142517090e-02 -3.158432543277740479e-01 -7.552194595336914062e-02 -4.201151728630065918e-01
2.273000000000000000e+03 7.873757839202880859e+00 -2.220201873779296875e+01 1.740199178457260132e-01 -3.209278285503387451e-01 -4.407236725091934204e-02 -3.747288584709167480e-01
2.274000000000000000e+03 2.282280349731445312e+01 -9.790603637695312500e+00 -3.873049616813659668e-01 2.001684457063674927e-01 -5.614095553755760193e-02 -4.061129987239837646e-01
2.275000000000000000e+03 1.189649963378906250e+01 -1.068938446044921875e+01 -4.734525978565216064e-01 -4.189684391021728516e-01 -2.677263021469116211e-01 -1.490785032510757446e-01
2.276000000000000000e+03 4.372871875762939453e+00 -1.347024822235107422e+01 -1.403708606958389282e-01 6.401028484106063843e-03 -4.019095003604888916e-02 -1.265761405229568481e-01
2.277000000000000000e+03 7.484433746337890625e+01 -2.268160247802734375e+01 3.793360292911529541e-01 6.592413902282714844e+00 2.091524839401245117e+00 -3.478775173425674438e-02
2.278000000000000000e+03 7.595240783691406250e+01 -2.293423843383789062e+01 2.212409675121307373e-01 6.623963832855224609e+00 2.053561449050903320e+00 -6.185360252857208252e-02
2.279000000000000000e+03 1.660728073120117188e+01 3.876081466674804688e+00 4.342352622188627720e-04 -5.266501466394402087e-05 1.144710695371031761e-04 1.083967072190716863e-04
2.280000000000000000e+03 2.156757545471191406e+01 -1.054047298431396484e+01 -3.719691038131713867e-01 1.744750738143920898e-01 -5.924820527434349060e-02 -3.526839315891265869e-01
2.281000000000000000e+03 2.078019142150878906e+01 -9.296924591064453125e+00 -4.575968980789184570e-01 1.534684747457504272e-01 -9.123852849006652832e-02 -3.929434418678283691e-01
2.282000000000000000e+03 7.643818664550781250e+01 1.287842082977294922e+01 -8.272891044616699219e-01 8.963318824768066406e+00 2.440809011459350586e+00 -1.427671074867248535e+00
2.283000000000000000e+03 6.906733703613281250e+01 -2.738295555114746094e+01 -1.716971546411514282e-01 5.222442626953125000e+00 1.515223622322082520e+00 7.198206186294555664e-01
2.284000000000000000e+03 6.964266967773437500e+01 -2.619776916503906250e+01 -1.713005751371383667e-01 5.727322101593017578e+00 1.666806459426879883e+00 5.094928741455078125e-01
2.285000000000000000e+03 7.318759155273437500e+01 -2.079973983764648438e+01 8.274108767509460449e-01 6.666439056396484375e+00 2.248154878616333008e+00 3.611132204532623291e-01
2.286000000000000000e+03 7.170876312255859375e+01 -1.872940444946289062e+01 9.930101633071899414e-01 7.106256484985351562e+00 2.429780006408691406e+00 7.928041815757751465e-01
2.287000000000000000e+03 7.365089416503906250e+01 -8.845389366149902344e+00 -4.073217809200286865e-01 6.833664894104003906e+00 1.927902817726135254e+00 5.444494485855102539e-01
2.288000000000000000e+03 4.902953720092773438e+01 -7.414795398712158203e+00 -2.374269217252731323e-01 5.497848987579345703e-01 9.370739012956619263e-02 1.463377922773361206e-01
2.289000000000000000e+03 2.878460884094238281e+01 -1.023358821868896484e+01 -2.306526601314544678e-01 1.694410666823387146e-02 -6.411256641149520874e-02 -4.874148070812225342e-01
2.290000000000000000e+03 9.207068443298339844e+00 -1.267859077453613281e+01 -4.408062994480133057e-01 -2.748110294342041016e-01 -2.146851867437362671e-01 -1.616700887680053711e-01
2.291000000000000000e+03 5.433554458618164062e+01 -2.526555061340332031e+00 -8.244880437850952148e-01 -3.432232439517974854e-01 -3.503133952617645264e-01 1.252411901950836182e-01
2.292000000000000000e+03 5.002121925354003906e+00 2.174523544311523438e+01 -1.152496668510138988e-03 -5.279860924929380417e-04 -5.041448166593909264e-04 3.259685763623565435e-04
2.293000000000000000e+03 6.727216243743896484e+00 2.466880607604980469e+01 -3.560437355190515518e-03 -3.613842651247978210e-03 -2.152283908799290657e-03 3.022327553480863571e-03
2.294000000000000000e+03 4.292041015625000000e+01 -1.375621318817138672e+01 3.264316022396087646e-01 3.460105657577514648e-01 2.017326503992080688e-01 2.193465642631053925e-02
2.295000000000000000e+03 5.898757171630859375e+01 -6.532443523406982422e+00 -1.518216282129287720e-01 -2.416230887174606323e-01 -1.180334165692329407e-01 4.465715885162353516e-01
2.296000000000000000e+03 5.387269973754882812e+00 3.222723007202148438e+01 -2.655529824551194906e-04 -9.905903600156307220e-03 -3.051436971873044968e-03 5.860955454409122467e-03
2.297000000000000000e+03 4.881835937500000000e+01 -8.959318161010742188e+00 1.835487037897109985e-01 6.899682879447937012e-01 2.620550990104675293e-01 3.406346440315246582e-01
2.298000000000000000e+03 7.472981262207031250e+01 -1.594080734252929688e+01 2.757820188999176025e-01 7.021950721740722656e+00 2.189319849014282227e+00 9.776390194892883301e-01
2.299000000000000000e+03 7.596024322509765625e+01 -1.546323585510253906e+01 1.283810436725616455e-01 7.213649749755859375e+00 2.202609300613403320e+00 8.514608144760131836e-01
2.300000000000000000e+03 1.560497951507568359e+01 4.818066596984863281e+00 4.152249312028288841e-04 1.788442168617621064e-04 1.782207400538027287e-04 4.306328191887587309e-04
2.301000000000000000e+03 7.089096832275390625e+01 -2.632616043090820312e+01 -1.124867349863052368e-01 6.015743732452392578e+00 1.770977139472961426e+00 3.315288424491882324e-01
2.302000000000000000e+03 7.332473754882812500e+01 -2.594152832031250000e+01 -1.475203782320022583e-02 6.415383338928222656e+00 1.920189380645751953e+00 -6.444153934717178345e-02
2.303000000000000000e+03 3.646598052978515625e+01 -8.136161804199218750e+00 -7.980063557624816895e-01 -2.935895323753356934e-01 -3.274787664413452148e-01 -1.629829108715057373e-01
2.304000000000000000e+03 1.322344684600830078e+01 1.775395393371582031e+01 -1.688973978161811829e-03 -3.360284259542822838e-03 -1.514777424745261669e-03 2.095996751450002193e-04
2.305000000000000000e+03 3.164636421203613281e+01 -9.251358032226562500e+00 -6.226568222045898438e-01 -1.710158288478851318e-01 -2.381017953157424927e-01 -3.007656633853912354e-01
2.306000000000000000e+03 3.345692443847656250e+01 -9.015130043029785156e+00 -6.945856213569641113e-01 -2.526432573795318604e-01 -2.841686606407165527e-01 -1.444901525974273682e-01
2.307000000000000000e+03 4.018006134033203125e+01 -2.221253776550292969e+01 8.391571044921875000e-02 1.352974474430084229e-01 6.576395034790039062e-02 -2.531138658523559570e-01
2.308000000000000000e+03 4.885416412353515625e+01 -6.002436637878417969e+00 -5.296619534492492676e-01 4.579566121101379395e-01 -2.151160873472690582e-02 1.400924008339643478e-02
2.309000000000000000e+03 7.339941406250000000e+01 -1.623592948913574219e+01 4.128797054290771484e-01 6.913966655731201172e+00 2.198053836822509766e+00 1.044172525405883789e+00
2.310000000000000000e+03 3.175186729431152344e+01 -1.162687873840332031e+01 1.455152779817581177e-01 1.000787410885095596e-02 4.665694385766983032e-02 -3.258906304836273193e-01
2.311000000000000000e+03 3.337029647827148438e+01 -1.258150005340576172e+01 4.691708683967590332e-01 6.732913851737976074e-02 1.609500050544738770e-01 -1.444175839424133301e-01
2.312000000000000000e+03 2.677798080444335938e+01 -1.000360965728759766e+01 -3.369350135326385498e-01 1.456480026245117188e-01 -5.738610029220581055e-02 -5.104024410247802734e-01
2.313000000000000000e+03 3.078137397766113281e+01 -8.936120986938476562e+00 -6.354181766510009766e-01 -1.242338195443153381e-01 -2.278955876827239990e-01 -3.336426019668579102e-01
2.314000000000000000e+03 5.132683277130126953e+00 -8.374478340148925781e+00 -7.566614449024200439e-02 1.126742083579301834e-02 -1.931961625814437866e-02 8.859979361295700073e-02
2.315000000000000000e+03 4.321458053588867188e+01 -2.586695480346679688e+01 1.752058565616607666e-01 6.389097571372985840e-01 2.442346960306167603e-01 -4.706241562962532043e-02
2.316000000000000000e+03 6.319661331176757812e+01 1.698139548301696777e+00 -1.610494554042816162e-01 6.803928613662719727e-01 1.558030247688293457e-01 1.322051975876092911e-02
2.317000000000000000e+03 7.446032714843750000e+01 6.071924686431884766e+00 -3.595100939273834229e-01 7.447329998016357422e+00 2.126345872879028320e+00 -8.863835781812667847e-02
2.318000000000000000e+03 4.546266174316406250e+01 1.254917430877685547e+01 -2.748568169772624969e-02 -1.471839100122451782e-02 -1.266122143715620041e-02 -7.779713254421949387e-03
2.319000000000000000e+03 4.232928085327148438e+01 -1.684624862670898438e+01 3.635711073875427246e-01 4.437926113605499268e-01 2.422091215848922729e-01 -1.593061983585357666e-01
2.320000000000000000e+03 4.512712097167968750e+01 1.473551750183105469e+01 -8.604533225297927856e-02 1.312052365392446518e-03 -2.541998401284217834e-02 -2.075874805450439453e-02
2.321000000000000000e+03 4.204397964477539062e+01 1.657460021972656250e+01 -1.561592668294906616e-01 3.336464241147041321e-02 -3.683838993310928345e-02 1.479779090732336044e-02
2.322000000000000000e+03 5.432012176513671875e+01 -4.036430835723876953e+00 -5.144052505493164062e-01 -3.193668425083160400e-01 -2.501316368579864502e-01 2.581555247306823730e-01
2.323000000000000000e+03 5.947120666503906250e+01 2.022324502468109131e-01 -4.527913630008697510e-01 -2.551269233226776123e-01 -2.123754918575286865e-01 -1.805284321308135986e-01
2.324000000000000000e+03 5.850288391113281250e+01 -1.245653271675109863e+00 -4.303221702575683594e-01 -2.709537446498870850e-01 -2.103827744722366333e-01 1.867531985044479370e-02
2.325000000000000000e+03 4.449254226684570312e+01 -2.578759956359863281e+01 2.645105123519897461e-01 9.016773104667663574e-01 3.498563468456268311e-01 -1.323437839746475220e-01
2.326000000000000000e+03 5.242016792297363281e+00 1.335919570922851562e+01 2.665305873961187899e-05 -1.339178998023271561e-04 -3.217945413780398667e-05 -1.150955213233828545e-03
2.327000000000000000e+03 7.419483184814453125e+01 -2.461879920959472656e+01 1.869654506444931030e-01 6.515228748321533203e+00 2.010658264160156250e+00 -1.278794854879379272e-01
2.328000000000000000e+03 7.506438446044921875e+01 -2.442922019958496094e+01 1.557381302118301392e-01 6.588080883026123047e+00 2.023145675659179688e+00 -1.591136157512664795e-01
2.329000000000000000e+03 6.585224914550781250e+01 6.744595170021057129e-01 -5.532959103584289551e-02 2.031568288803100586e+00 5.928716063499450684e-01 2.189337015151977539e-01
2.330000000000000000e+03 6.221279144287109375e+01 1.014509320259094238e+00 -1.801060885190963745e-01 3.507574200630187988e-01 5.119539424777030945e-02 -3.891715407371520996e-02
2.331000000000000000e+03 4.188352966308593750e+01 -2.591282463073730469e+01 1.334863603115081787e-01 4.444493055343627930e-01 1.733807027339935303e-01 -2.192235551774501801e-02
2.332000000000000000e+03 6.189188480377197266e+00 -1.456401824951171875e+01 -2.483578175306320190e-01 -1.109306737780570984e-01 -1.077865436673164368e-01 -2.340867370367050171e-01
2.333000000000000000e+03 5.606946468353271484e+00 -1.325917148590087891e+01 -2.055530995130538940e-01 -5.474407970905303955e-02 -7.808915525674819946e-02 -1.400699764490127563e-01
2.334000000000000000e+03 7.150772094726562500e+01 1.248908901214599609e+01 -7.323275804519653320e-01 6.721236705780029297e+00 1.796672701835632324e+00 9.374945759773254395e-01
2.335000000000000000e+03 7.145111083984375000e+01 1.150947093963623047e+01 -6.968673467636108398e-01 6.418692111968994141e+00 1.716547369956970215e+00 6.847274899482727051e-01
2.336000000000000000e+03 4.704819107055664062e+01 2.079905700683593750e+01 -4.426545202732086182e-01 1.092268228530883789e-01 -1.000283136963844299e-01 9.855426847934722900e-03
2.337000000000000000e+03 4.679476928710937500e+01 1.948686218261718750e+01 -3.728905022144317627e-01 8.363176882266998291e-02 -8.677762001752853394e-02 -4.704302176833152771e-02
2.338000000000000000e+03 1.506815338134765625e+01 2.104123878479003906e+01 -1.186088845133781433e-02 -1.891462015919387341e-03 -4.125704988837242126e-03 2.383669139817357063e-03
2.339000000000000000e+03 7.364360809326171875e+01 2.210391998291015625e+01 -8.522042036056518555e-01 1.495576095581054688e+01 4.231066703796386719e+00 -8.843620121479034424e-02
2.340000000000000000e+03 7.419826507568359375e+01 -3.696870326995849609e+00 -1.344213932752609253e-01 7.045690536499023438e+00 2.073380708694458008e+00 2.582803964614868164e-01
2.341000000000000000e+03 4.100334167480468750e+01 1.771608734130859375e+01 -1.906440705060958862e-01 4.654316604137420654e-02 -4.323026910424232483e-02 2.685327641665935516e-02
2.342000000000000000e+03 6.799620819091796875e+01 4.543036460876464844e+00 -3.346686363220214844e-01 3.270466327667236328e+00 8.807392716407775879e-01 3.381853699684143066e-01
2.343000000000000000e+03 6.959364318847656250e+01 -9.000067710876464844e+00 -6.866434216499328613e-01 4.853993415832519531e+00 1.250205039978027344e+00 5.886365100741386414e-02
2.344000000000000000e+03 5.886960601806640625e+01 -3.458796310424804688e+01 6.055645942687988281e-01 6.809628009796142578e-01 3.859582245349884033e-01 1.091190502047538757e-01
2.345000000000000000e+03 4.242694091796875000e+01 -1.500462722778320312e+01 3.923999965190887451e-01 3.519681096076965332e-01 2.233104258775711060e-01 -6.281480193138122559e-02
2.346000000000000000e+03 4.178664398193359375e+01 -1.602675056457519531e+01 4.134869873523712158e-01 2.836899459362030029e-01 2.091530859470367432e-01 -1.550176739692687988e-01
2.347000000000000000e+03 7.461290740966796875e+01 3.158886718750000000e+01 -3.259800970554351807e-01 7.158031940460205078e+00 2.049615383148193359e+00 -3.046057820320129395e-01
2.348000000000000000e+03 6.100284576416015625e+01 2.860939979553222656e+01 2.011707052588462830e-02 1.984085887670516968e-01 6.555769592523574829e-02 3.831045702099800110e-02
2.349000000000000000e+03 1.301677608489990234e+01 -2.924349021911621094e+01 2.854655981063842773e-01 8.086938410997390747e-02 1.099004894495010376e-01 -1.556127369403839111e-01
2.350000000000000000e+03 6.460379791259765625e+01 2.898365783691406250e+01 1.611242443323135376e-01 1.337084889411926270e+00 4.494627416133880615e-01 -7.203139662742614746e-01
2.351000000000000000e+03 6.401203155517578125e+01 2.759392929077148438e+01 -2.587037347257137299e-02 7.492171525955200195e-01 2.170040458440780640e-01 -5.186988115310668945e-01
2.352000000000000000e+03 6.712145996093750000e+01 -2.941960525512695312e+01 -1.157486736774444580e-01 3.976363420486450195e+00 1.158184409141540527e+00 8.560636639595031738e-01
2.353000000000000000e+03 2.540687561035156250e+01 2.887461090087890625e+01 -1.260641217231750488e-02 -6.898335367441177368e-02 -2.447693049907684326e-02 8.240385353565216064e-02
2.354000000000000000e+03 7.605215549468994141e+00 -1.800385093688964844e+01 -1.243221461772918701e-01 -2.747542560100555420e-01 -1.197229176759719849e-01 -4.435889720916748047e-01
2.355000000000000000e+03 7.429851531982421875e+01 -2.845346641540527344e+01 -1.498244404792785645e-01 6.322470664978027344e+00 1.851793885231018066e+00 -6.290105730295181274e-02
2.356000000000000000e+03 3.673165893554687500e+01 -1.521152782440185547e+01 8.294782638549804688e-01 -2.956392765045166016e-01 1.601516902446746826e-01 -1.751018762588500977e-01
2.357000000000000000e+03 3.777194595336914062e+01 -1.380948829650878906e+01 5.764482617378234863e-01 -2.666136622428894043e-01 9.295038133859634399e-02 -8.076892048120498657e-02
2.358000000000000000e+03 4.263361930847167969e+00 -1.611891365051269531e+01 -1.012185513973236084e-01 -7.425417751073837280e-02 -5.264182016253471375e-02 -2.566065192222595215e-01
2.359000000000000000e+03 1.630659866333007812e+01 2.422074127197265625e+01 -2.557900734245777130e-02 -4.720154684036970139e-03 -9.089748375117778778e-03 1.579835265874862671e-02
2.360000000000000000e+03 6.059869003295898438e+01 -6.050359725952148438e+00 -9.967324882745742798e-02 -1.744709350168704987e-02 -3.513610363006591797e-02 3.947663903236389160e-01
2.361000000000000000e+03 2.589985084533691406e+01 -1.124634456634521484e+01 -8.478660881519317627e-02 1.441027522087097168e-01 1.779484190046787262e-02 -4.671326577663421631e-01
2.362000000000000000e+03 2.398052024841308594e+01 -9.093135833740234375e+00 -4.591126739978790283e-01 2.234905809164047241e-01 -7.068662345409393311e-02 -4.407480359077453613e-01
2.363000000000000000e+03 5.465006828308105469e+00 -2.927443695068359375e+01 8.666443079710006714e-02 -4.594417810440063477e-01 -1.118332073092460632e-01 -1.026164665818214417e-01
2.364000000000000000e+03 7.469499206542968750e+01 5.994013547897338867e-01 -1.079780980944633484e-01 7.362677097320556641e+00 2.176409721374511719e+00 1.496842652559280396e-01
2.365000000000000000e+03 7.362577819824218750e+01 4.531465470790863037e-01 -1.067524701356887817e-01 6.684306621551513672e+00 1.973266243934631348e+00 1.727356463670730591e-01
2.366000000000000000e+03 7.556378173828125000e+01 2.964718627929687500e+01 -5.917803049087524414e-01 7.820478916168212891e+00 2.168609619140625000e+00 2.217981219291687012e-02
2.367000000000000000e+03 7.383140563964843750e+01 -3.108817863464355469e+01 -1.650619953870773315e-01 5.994795322418212891e+00 1.748919963836669922e+00 6.863570958375930786e-02
2.368000000000000000e+03 7.506185150146484375e+01 -3.122699356079101562e+01 -1.370405405759811401e-01 6.227865695953369141e+00 1.827247500419616699e+00 -4.317479953169822693e-02
2.369000000000000000e+03 3.973753356933593750e+01 -3.130254364013671875e+01 1.959131360054016113e-01 3.230774402618408203e-02 6.846626102924346924e-02 9.039857983589172363e-02
2.370000000000000000e+03 4.171756362915039062e+01 -2.902778434753417969e+01 1.181525588035583496e-01 3.201074004173278809e-01 1.314779818058013916e-01 5.595194920897483826e-02
2.371000000000000000e+03 7.274547576904296875e+00 -2.718742561340332031e+01 1.727869957685470581e-01 -3.244619965553283691e-01 -4.550250619649887085e-02 -1.831027865409851074e-01
2.372000000000000000e+03 4.569964218139648438e+01 2.220649147033691406e+01 -4.013353884220123291e-01 1.193847730755805969e-01 -8.458518236875534058e-02 1.012977734208106995e-01
2.373000000000000000e+03 7.331778717041015625e+01 -3.632942581176757812e+01 -2.167838066816329956e-02 5.606785297393798828e+00 1.675532102584838867e+00 1.001129895448684692e-01
2.374000000000000000e+03 6.141360092163085938e+01 3.060622215270996094e+01 4.150777459144592285e-01 6.011319756507873535e-01 3.048629164695739746e-01 -8.624602854251861572e-02
2.375000000000000000e+03 7.528289031982421875e+01 -2.549447822570800781e+01 5.751898139715194702e-02 6.549265861511230469e+00 1.982035398483276367e+00 -1.779714822769165039e-01
2.376000000000000000e+03 7.444210052490234375e+01 -2.367742156982421875e+01 2.636153697967529297e-01 6.582823276519775391e+00 2.053931474685668945e+00 -8.911290764808654785e-02
2.377000000000000000e+03 5.413275241851806641e+00 1.456317520141601562e+01 6.485788035206496716e-04 -3.027931379619985819e-04 1.037356923916377127e-04 -1.136782462708652020e-03
2.378000000000000000e+03 4.212689876556396484e+00 1.472803592681884766e+01 -1.530834124423563480e-04 4.428921965882182121e-04 8.694263669895008206e-05 -1.256794319488108158e-03
2.379000000000000000e+03 3.317261123657226562e+01 2.404028320312500000e+01 -1.227314248681068420e-01 -4.916112124919891357e-02 -5.156776309013366699e-02 9.847974032163619995e-02
2.380000000000000000e+03 3.263235473632812500e+01 2.225312805175781250e+01 -1.609324216842651367e-01 -5.637357756495475769e-02 -6.519179791212081909e-02 9.075014293193817139e-02
2.381000000000000000e+03 3.724644470214843750e+01 -7.833001136779785156e+00 -8.389394879341125488e-01 -2.841688394546508789e-01 -3.369325101375579834e-01 -1.652130186557769775e-01
2.382000000000000000e+03 3.822714233398437500e+01 -8.971250534057617188e+00 -4.350481331348419189e-01 -2.610709369182586670e-01 -2.088357210159301758e-01 -7.992318272590637207e-02
2.383000000000000000e+03 6.256416320800781250e+00 -1.970638656616210938e+01 -4.154751077294349670e-03 -2.679760456085205078e-01 -8.163923770189285278e-02 -4.154395461082458496e-01
2.384000000000000000e+03 1.425367546081542969e+01 1.173759746551513672e+01 1.014868728816509247e-03 -1.625644217710942030e-04 2.556912950240075588e-04 1.352777704596519470e-03
2.385000000000000000e+03 7.308837890625000000e+01 2.741072082519531250e+01 -1.165924549102783203e+00 7.735340118408203125e+00 1.970824599266052246e+00 -7.710201740264892578e-01
2.386000000000000000e+03 8.380162239074707031e+00 -2.603752899169921875e+01 2.254593670368194580e-01 -2.517095804214477539e-01 -7.875064387917518616e-03 -2.238407731056213379e-01
2.387000000000000000e+03 2.283633613586425781e+01 2.729902458190917969e+01 -3.143191710114479065e-02 -4.589163511991500854e-02 -2.319706603884696960e-02 6.796190887689590454e-02
2.388000000000000000e+03 7.412361907958984375e+01 -1.861389350891113281e+01 6.453142762184143066e-01 6.748703002929687500e+00 2.218205213546752930e+00 6.706370711326599121e-01
2.389000000000000000e+03 1.227114200592041016e+01 1.530803871154785156e+01 4.095368203707039356e-04 -2.671986818313598633e-03 -6.787350284866988659e-04 1.324030836258316413e-05
2.390000000000000000e+03 7.087976837158203125e+01 2.219479751586914062e+01 9.733690023422241211e-01 5.104331493377685547e+00 1.823310256004333496e+00 -3.597088575363159180e+00
2.391000000000000000e+03 7.256597137451171875e+01 1.740630722045898438e+01 -1.314592212438583374e-01 1.383902263641357422e+01 4.112268924713134766e+00 3.576198816299438477e+00
2.392000000000000000e+03 7.021331787109375000e+01 2.153236579895019531e+01 1.258744478225708008e+00 2.061491727828979492e+00 9.960708618164062500e-01 -2.139392852783203125e+00
2.393000000000000000e+03 7.080652618408203125e+01 2.164415550231933594e+01 1.555040955543518066e+00 3.919426918029785156e+00 1.642340421676635742e+00 -3.416695356369018555e+00
2.394000000000000000e+03 7.210160064697265625e+01 2.210568046569824219e+01 -6.945130228996276855e-02 1.061163806915283203e+01 3.162655830383300781e+00 -4.186482429504394531e+00
2.395000000000000000e+03 7.558699798583984375e+01 1.913220024108886719e+01 4.675984859466552734e+00 1.054851436614990234e+01 4.567349910736083984e+00 -1.154169917106628418e+00
2.396000000000000000e+03 7.608095550537109375e+01 2.410595893859863281e+01 -8.793532252311706543e-01 9.690311431884765625e+00 2.643287420272827148e+00 1.710150361061096191e+00
2.397000000000000000e+03 7.515954589843750000e+01 1.920812797546386719e+01 5.665986061096191406e+00 1.149838161468505859e+01 5.149310111999511719e+00 -1.169340610504150391e+00
2.398000000000000000e+03 7.482951354980468750e+01 2.143917846679687500e+01 1.896802186965942383e+00 1.326685714721679688e+01 4.549098014831542969e+00 2.486023426055908203e+00
2.399000000000000000e+03 7.697710418701171875e+01 1.759526634216308594e+01 1.160537719726562500e+00 8.237224578857421875e+00 2.819328546524047852e+00 -2.276606798171997070e+00
2.400000000000000000e+03 7.689902496337890625e+01 2.045574569702148438e+01 2.074315547943115234e+00 7.876586914062500000e+00 2.985270738601684570e+00 1.148851037025451660e+00
2.401000000000000000e+03 7.498186492919921875e+01 1.760217475891113281e+01 1.627444505691528320e+00 1.280538177490234375e+01 4.329847812652587891e+00 -2.673511028289794922e+00
2.402000000000000000e+03 7.408180999755859375e+01 1.738649749755859375e+01 3.684782683849334717e-01 1.504468631744384766e+01 4.623949527740478516e+00 -1.636189699172973633e+00
2.403000000000000000e+03 7.602854156494140625e+01 1.981864356994628906e+01 4.105057239532470703e+00 9.569280624389648438e+00 4.102301597595214844e+00 2.692381441593170166e-01
2.404000000000000000e+03 7.217696380615234375e+01 2.186847305297851562e+01 7.010675966739654541e-02 1.144966220855712891e+01 3.455930471420288086e+00 -4.523221969604492188e+00
2.405000000000000000e+03 6.989200592041015625e+01 2.177361488342285156e+01 8.285826444625854492e-01 2.196668624877929688e+00 9.075754284858703613e-01 -1.911760807037353516e+00
2.406000000000000000e+03 6.887844848632812500e+01 2.287503433227539062e+01 -1.358367055654525757e-01 2.159751892089843750e+00 6.071745753288269043e-01 -1.563875913619995117e+00
2.407000000000000000e+03 6.958230590820312500e+01 2.350056076049804688e+01 -1.052235160022974014e-02 3.595972776412963867e+00 1.075635075569152832e+00 -2.313734531402587891e+00
2.408000000000000000e+03 6.935391235351562500e+01 2.274785614013671875e+01 1.898064762353897095e-01 2.563105583190917969e+00 8.258736133575439453e-01 -1.878406643867492676e+00
2.409000000000000000e+03 7.017374420166015625e+01 1.519391536712646484e+01 2.051165401935577393e-01 4.797846317291259766e+00 1.500888943672180176e+00 2.181334733963012695e+00
2.410000000000000000e+03 2.099094390869140625e+01 -8.416207313537597656e+00 -4.493390917778015137e-01 1.518358141183853149e-01 -8.925098180770874023e-02 -4.141331911087036133e-01
2.411000000000000000e+03 1.077312278747558594e+01 -5.626073360443115234e+00 -1.207832898944616318e-02 -1.425620466470718384e-01 -4.639211297035217285e-02 2.636386640369892120e-02
2.412000000000000000e+03 1.115449810028076172e+01 -7.431246280670166016e+00 -1.452955901622772217e-01 -2.246155291795730591e-01 -1.109733358025550842e-01 -9.955234825611114502e-03
2.413000000000000000e+03 6.981321716308593750e+01 1.412388229370117188e+01 2.678621374070644379e-02 4.385886669158935547e+00 1.323801875114440918e+00 1.745664358139038086e+00
2.414000000000000000e+03 7.197811126708984375e+01 1.620534133911132812e+01 -3.787619173526763916e-01 9.457973480224609375e+00 2.723763704299926758e+00 2.913161516189575195e+00
2.415000000000000000e+03 8.028769493103027344e+00 5.385251045227050781e+00 6.023764144629240036e-04 -1.853286812547594309e-04 1.251143112313002348e-04 -4.863675712840631604e-05
2.416000000000000000e+03 6.464781284332275391e+00 4.791705131530761719e+00 2.045587170869112015e-04 -1.142836481449194252e-04 2.708252031879965216e-05 -2.608488430269062519e-04
2.417000000000000000e+03 5.921210765838623047e+00 5.683074951171875000e+00 2.381333470111712813e-04 -4.698917109635658562e-05 5.734325168305076659e-05 -2.878624945878982544e-04
2.418000000000000000e+03 5.137630939483642578e+00 6.018424987792968750e+00 3.149262047372758389e-04 -5.636058267555199564e-05 7.756968989269807935e-05 -3.280598320998251438e-04
2.419000000000000000e+03 7.713679504394531250e+01 1.917277145385742188e+01 2.264463663101196289e+00 7.305746078491210938e+00 2.871062994003295898e+00 -5.322812795639038086e-01
2.420000000000000000e+03 1.382597351074218750e+01 6.185651779174804688e+00 -8.753467409405857325e-05 4.242716386215761304e-06 -2.498758658475708216e-05 9.432038496015593410e-05
2.421000000000000000e+03 1.353042984008789062e+01 5.467404842376708984e+00 6.459734286181628704e-04 -2.827714488375931978e-04 1.089605866582132876e-04 2.924683503806591034e-04
2.422000000000000000e+03 9.357885360717773438e+00 -4.898560047149658203e+00 3.667846322059631348e-02 -9.354180842638015747e-02 -1.705900393426418304e-02 7.794570177793502808e-02
2.423000000000000000e+03 7.700361633300781250e+01 2.110318183898925781e+01 1.724979996681213379e+00 8.003855705261230469e+00 2.918650627136230469e+00 1.699892759323120117e+00
2.424000000000000000e+03 7.527044677734375000e+01 2.025821876525878906e+01 4.743981838226318359e+00 1.136748790740966797e+01 4.833441257476806641e+00 1.502571821212768555e+00
2.425000000000000000e+03 7.122463989257812500e+01 1.326291370391845703e+01 -6.257851123809814453e-01 6.535846233367919922e+00 1.773018360137939453e+00 1.311619997024536133e+00
2.426000000000000000e+03 7.098833465576171875e+01 1.410727596282958984e+01 -4.835312366485595703e-01 6.312228202819824219e+00 1.748609066009521484e+00 1.773783206939697266e+00
2.427000000000000000e+03 2.491489028930664062e+01 -6.184639930725097656e+00 -7.099179625511169434e-01 2.356698215007781982e-01 -1.422744393348693848e-01 -2.510944604873657227e-01
2.428000000000000000e+03 2.475914001464843750e+01 -7.653449058532714844e+00 -6.325933337211608887e-01 2.433063834905624390e-01 -1.167860850691795349e-01 -3.810507655143737793e-01
2.429000000000000000e+03 7.148095607757568359e+00 -5.760805130004882812e+00 -7.923039607703685760e-03 -5.351213365793228149e-02 -1.843055151402950287e-02 1.153621971607208252e-01
2.430000000000000000e+03 2.388885879516601562e+01 -6.470836162567138672e+00 -6.277285218238830566e-01 2.234179824590682983e-01 -1.212931498885154724e-01 -2.570073604583740234e-01
2.431000000000000000e+03 1.610866546630859375e+01 -7.404812335968017578e+00 -2.807810902595520020e-01 -2.004611641168594360e-01 -1.443726718425750732e-01 -3.155673444271087646e-01
2.432000000000000000e+03 1.486392879486083984e+01 -6.043253421783447266e+00 -1.294446736574172974e-01 -1.614567041397094727e-01 -8.727041631937026978e-02 -1.972868293523788452e-01
2.433000000000000000e+03 4.636406326293945312e+01 -3.900329828262329102e+00 -9.549301862716674805e-01 3.855437934398651123e-01 -1.708159148693084717e-01 -2.380363494157791138e-01
2.434000000000000000e+03 4.740657424926757812e+01 -3.194431781768798828e+00 -9.759624004364013672e-01 3.635397851467132568e-01 -1.837267875671386719e-01 -1.940857172012329102e-01
2.435000000000000000e+03 5.263898086547851562e+01 -4.548853397369384766e+00 -5.501053929328918457e-01 -1.064338758587837219e-01 -1.969617754220962524e-01 2.231047600507736206e-01
2.436000000000000000e+03 5.055937194824218750e+01 -2.472736120223999023e+00 -1.008591055870056152e+00 2.075012028217315674e-02 -2.963522672653198242e-01 -5.322770774364471436e-02
2.437000000000000000e+03 1.442693424224853516e+01 -8.668867111206054688e+00 -3.467307388782501221e-01 -3.606535792350769043e-01 -2.122153043746948242e-01 -2.334546595811843872e-01
2.438000000000000000e+03 1.246597957611083984e+01 -5.098764419555664062e+00 1.093462761491537094e-02 -1.378110647201538086e-01 -3.806293010711669922e-02 -3.981353715062141418e-02
2.439000000000000000e+03 1.112486648559570312e+01 5.087547779083251953e+00 5.556492833420634270e-04 -2.690286200959235430e-04 8.598619024269282818e-05 5.049004903412424028e-05
2.440000000000000000e+03 1.165522861480712891e+01 4.641663551330566406e+00 4.086641420144587755e-04 -1.408083608112065122e-05 1.183749918709509075e-04 1.870587293524295092e-04
2.441000000000000000e+03 7.529463958740234375e+01 1.064762783050537109e+01 -7.963441014289855957e-01 8.385140419006347656e+00 2.276638984680175781e+00 -6.375241279602050781e-01
2.442000000000000000e+03 1.796022415161132812e+01 -6.422000885009765625e+00 -2.831216752529144287e-01 -3.437284380197525024e-02 -9.524835646152496338e-02 -3.349251747131347656e-01
2.443000000000000000e+03 1.964638710021972656e+01 -7.227727413177490234e+00 -3.681981563568115234e-01 7.363672554492950439e-02 -8.836843073368072510e-02 -3.836189508438110352e-01
2.444000000000000000e+03 4.477963256835937500e+01 -2.969315528869628906e+00 -1.051396965980529785e+00 3.017549514770507812e-01 -2.248925864696502686e-01 -3.161549568176269531e-01
2.445000000000000000e+03 4.482513809204101562e+01 -4.076105117797851562e+00 -1.016992688179016113e+00 3.536288738250732422e-01 -1.990091502666473389e-01 -2.635606527328491211e-01
2.446000000000000000e+03 7.097844696044921875e+01 1.272343540191650391e+01 -5.621385574340820312e-01 6.162303924560546875e+00 1.680049538612365723e+00 1.159169197082519531e+00
2.447000000000000000e+03 4.868542861938476562e+01 -2.956857919692993164e+00 -9.629143476486206055e-01 2.735327184200286865e-01 -2.068144977092742920e-01 -1.508252322673797607e-01
2.448000000000000000e+03 4.916366577148437500e+01 -3.912057876586914062e+00 -8.351192474365234375e-01 2.709488272666931152e-01 -1.692511141300201416e-01 -9.789630770683288574e-02
2.449000000000000000e+03 1.365176486968994141e+01 -5.219748020172119141e+00 -2.545590326189994812e-02 -1.420233249664306641e-01 -5.024376884102821350e-02 -1.039911732077598572e-01
2.450000000000000000e+03 7.642095947265625000e+01 1.592506408691406250e+01 -2.926540970802307129e-01 9.506110191345214844e+00 2.764036655426025391e+00 -2.406164407730102539e+00
2.451000000000000000e+03 2.479126739501953125e+01 -8.896883010864257812e+00 -5.135731697082519531e-01 2.331597805023193359e-01 -8.412402123212814331e-02 -4.358145892620086670e-01
2.452000000000000000e+03 1.213982009887695312e+01 9.491024017333984375e+00 6.400817073881626129e-04 -9.459126740694046021e-04 -9.174927981803193688e-05 2.915285294875502586e-04
2.453000000000000000e+03 1.386563491821289062e+01 8.964501380920410156e+00 3.535868600010871887e-04 -3.874626418109983206e-04 -1.016273836285108700e-05 4.905878449790179729e-04
2.454000000000000000e+03 6.700991821289062500e+01 2.398647117614746094e+01 -6.823354959487915039e-01 1.114265203475952148e+00 1.295788884162902832e-01 -1.009081244468688965e+00
2.455000000000000000e+03 7.519495391845703125e+01 2.171007919311523438e+01 1.330847382545471191e+00 1.205194282531738281e+01 4.014837265014648438e+00 2.425359249114990234e+00
2.456000000000000000e+03 7.643811035156250000e+01 2.239628982543945312e+01 3.037242889404296875e-01 9.285350799560546875e+00 2.876722335815429688e+00 2.270052194595336914e+00
2.457000000000000000e+03 5.963891220092773438e+01 -5.702478885650634766e+00 -9.036111831665039062e-02 -1.358142197132110596e-01 -6.785260140895843506e-02 3.913846909999847412e-01
2.458000000000000000e+03 7.579691314697265625e+01 2.502201461791992188e+01 -1.187107920646667480e+00 9.485645294189453125e+00 2.489561319351196289e+00 1.244322657585144043e+00
2.459000000000000000e+03 7.507070922851562500e+01 2.469315719604492188e+01 -1.425188183784484863e+00 1.018568229675292969e+01 2.628148317337036133e+00 8.802329301834106445e-01
2.460000000000000000e+03 7.447119140625000000e+01 1.507423210144042969e+01 -1.384470701217651367e+00 1.106223583221435547e+01 2.903329610824584961e+00 -9.296334981918334961e-01
2.461000000000000000e+03 5.923166275024414062e+01 -3.258164167404174805e+00 -1.647607088088989258e-01 -1.497015506029129028e-01 -9.433867782354354858e-02 2.352216243743896484e-01
2.462000000000000000e+03 5.717440795898437500e+01 -3.333556413650512695e+00 -3.299074470996856689e-01 -3.543054163455963135e-01 -2.052638530731201172e-01 2.529990971088409424e-01
2.463000000000000000e+03 6.346720695495605469e+00 -6.667920112609863281e+00 -4.153138771653175354e-02 -3.480879962444305420e-02 -2.290205657482147217e-02 1.168620437383651733e-01
2.464000000000000000e+03 1.333712291717529297e+01 -7.296185970306396484e+00 -1.913662701845169067e-01 -2.620942890644073486e-01 -1.360381692647933960e-01 -1.230097413063049316e-01
2.465000000000000000e+03 1.524978256225585938e+01 -8.021798133850097656e+00 -2.768150269985198975e-01 -2.658987939357757568e-01 -1.628141403198242188e-01 -2.811452150344848633e-01
2.466000000000000000e+03 4.359639358520507812e+01 1.520090103149414062e+01 -1.183930486440658569e-01 1.767496019601821899e-02 -3.021542727947235107e-02 -5.696403793990612030e-03
2.467000000000000000e+03 2.192406272888183594e+01 -6.678066253662109375e+00 -4.822780191898345947e-01 1.682103127241134644e-01 -9.422031044960021973e-02 -3.124947249889373779e-01
2.468000000000000000e+03 2.205040740966796875e+01 -7.589703083038330078e+00 -4.862125813961029053e-01 1.902716457843780518e-01 -8.878228813409805298e-02 -3.827184438705444336e-01
2.469000000000000000e+03 7.169657897949218750e+01 5.119707584381103516e+00 -3.945446014404296875e-01 5.725840091705322266e+00 1.599388599395751953e+00 1.968221068382263184e-01
2.470000000000000000e+03 6.889693450927734375e+01 7.158929347991943359e+00 -4.742391705513000488e-01 3.969641208648681641e+00 1.048620581626892090e+00 3.908860087394714355e-01
2.471000000000000000e+03 7.466094207763671875e+01 -1.358271694183349609e+01 -8.415162563323974609e-02 7.200678348541259766e+00 2.134958028793334961e+00 9.942783713340759277e-01
2.472000000000000000e+03 7.528552246093750000e+01 -1.270690536499023438e+01 -1.415462344884872437e-01 7.386140346527099609e+00 2.173378229141235352e+00 8.971651792526245117e-01
2.473000000000000000e+03 3.263733291625976562e+01 -9.305292129516601562e+00 -5.507642030715942383e-01 -1.841839253902435303e-01 -2.204844355583190918e-01 -2.202844917774200439e-01
2.474000000000000000e+03 1.881111526489257812e+01 -6.129860877990722656e+00 -2.850918173789978027e-01 3.967670723795890808e-02 -7.362453639507293701e-02 -3.558026552200317383e-01
2.475000000000000000e+03 1.878647804260253906e+01 -8.649366378784179688e+00 -4.280662536621093750e-01 5.802132654935121536e-03 -1.266792267560958862e-01 -4.074428379535675049e-01
2.476000000000000000e+03 2.179780769348144531e+01 -9.544795989990234375e+00 -4.086878001689910889e-01 1.838381439447402954e-01 -6.745490431785583496e-02 -4.069512784481048584e-01
2.477000000000000000e+03 2.262878227233886719e+01 -1.080033111572265625e+01 -2.560588419437408447e-01 1.735575646162033081e-01 -2.475037984549999237e-02 -3.632017076015472412e-01
2.478000000000000000e+03 5.235239982604980469e+00 9.977118492126464844e+00 6.518861628137528896e-04 -3.426096009206958115e-05 1.852875575423240662e-04 -6.645601824857294559e-04
2.479000000000000000e+03 7.369158172607421875e+01 -1.973794555664062500e+01 7.213594913482666016e-01 6.767703533172607422e+00 2.246718883514404297e+00 4.988955557346343994e-01
2.480000000000000000e+03 7.567396545410156250e+01 -2.019598007202148438e+01 4.129399955272674561e-01 6.719372272491455078e+00 2.139693737030029297e+00 3.213711678981781006e-01
2.481000000000000000e+03 7.527821350097656250e+01 1.378155422210693359e+01 -1.230235815048217773e+00 9.740400314331054688e+00 2.553049325942993164e+00 -1.230455279350280762e+00
2.482000000000000000e+03 6.503630828857421875e+01 1.598744511604309082e+00 -9.498906135559082031e-02 1.579254388809204102e+00 4.452795982360839844e-01 1.748911291360855103e-01
2.483000000000000000e+03 7.414669799804687500e+01 -1.444076919555664062e+01 4.795953631401062012e-02 7.071461200714111328e+00 2.135826110839843750e+00 1.033180713653564453e+00
2.484000000000000000e+03 7.315665435791015625e+01 -1.717892456054687500e+01 5.928931832313537598e-01 6.861140727996826172e+00 2.236210107803344727e+00 9.036459922790527344e-01
2.485000000000000000e+03 6.177294921875000000e+01 -5.866278171539306641e+00 2.909006318077445030e-03 2.472766041755676270e-01 7.505568116903305054e-02 3.032668828964233398e-01
2.486000000000000000e+03 5.123835563659667969e+00 -1.061768627166748047e+01 -1.367882490158081055e-01 4.029398784041404724e-03 -3.982765600085258484e-02 1.288597472012042999e-02
2.487000000000000000e+03 1.506489753723144531e+01 5.525631427764892578e+00 1.741936430335044861e-04 -1.051197468768805265e-04 2.072216921078506857e-05 -2.676227995834778994e-05
2.488000000000000000e+03 7.373916625976562500e+01 -1.041769409179687500e+01 -4.498201906681060791e-01 6.965754985809326172e+00 1.954780340194702148e+00 7.226905226707458496e-01
2.489000000000000000e+03 7.501229095458984375e+01 -9.166812896728515625e+00 -2.667866349220275879e-01 7.448022842407226562e+00 2.154370784759521484e+00 5.787764787673950195e-01
2.490000000000000000e+03 1.842413139343261719e+01 -7.208014011383056641e+00 -3.262926936149597168e-01 -1.092834630981087685e-03 -9.821566194295883179e-02 -3.950870633125305176e-01
2.491000000000000000e+03 5.342543601989746094e+00 -6.803916931152343750e+00 -3.779892995953559875e-02 3.308748826384544373e-03 -1.034705433994531631e-02 1.145276129245758057e-01
2.492000000000000000e+03 6.059701919555664062e+00 1.122707176208496094e+01 7.893499569036066532e-04 -3.438450803514569998e-04 1.336514542344957590e-04 -8.206643396988511086e-04
2.493000000000000000e+03 6.178739547729492188e+00 1.212696075439453125e+01 2.467810409143567085e-04 -4.453769070096313953e-04 -5.957876055617816746e-05 -8.318959153257310390e-04
2.494000000000000000e+03 7.455573272705078125e+01 1.899713993072509766e+00 -1.430721879005432129e-01 7.301956176757812500e+00 2.147665262222290039e+00 1.286963969469070435e-01
2.495000000000000000e+03 5.366881561279296875e+01 -3.276017665863037109e+00 -6.921842694282531738e-01 -2.656781375408172607e-01 -2.873587310314178467e-01 2.052458524703979492e-01
2.496000000000000000e+03 5.196378707885742188e+01 -3.201495170593261719e+00 -8.085290789604187012e-01 -1.097234040498733521e-01 -2.754757404327392578e-01 9.585550427436828613e-02
2.497000000000000000e+03 1.003081130981445312e+01 -4.885291576385498047e+00 3.918649256229400635e-02 -1.071600466966629028e-01 -2.039206586778163910e-02 5.403530225157737732e-02
2.498000000000000000e+03 4.134869384765625000e+01 -7.610492706298828125e+00 -6.539154648780822754e-01 -3.101301379501819611e-02 -2.054785490036010742e-01 -1.177123636007308960e-01
2.499000000000000000e+03 1.466340255737304688e+01 6.230475425720214844e+00 5.436029168777167797e-04 1.878086040960624814e-04 2.194234548369422555e-04 7.335307309404015541e-04
2.500000000000000000e+03 5.669684886932373047e+00 6.822329998016357422e+00 3.526088839862495661e-04 -1.412846870607609162e-07 1.057402841979637742e-04 -2.711338747758418322e-04
2.501000000000000000e+03 5.919851779937744141e+00 8.136648178100585938e+00 6.179295014590024948e-04 -9.426005271961912513e-05 1.571008324390277267e-04 -4.252353683114051819e-04
2.502000000000000000e+03 5.922898864746093750e+01 -4.121739864349365234e+00 -8.725337684154510498e-02 -1.746997833251953125e-01 -7.858594506978988647e-02 2.916684150695800781e-01
2.503000000000000000e+03 6.710949897766113281e+00 -1.278909397125244141e+01 -2.844890654087066650e-01 -1.102004796266555786e-01 -1.184068620204925537e-01 -1.279310584068298340e-01
2.504000000000000000e+03 7.533013916015625000e+01 8.727508544921875000e+00 -5.068663954734802246e-01 8.170886039733886719e+00 2.299205780029296875e+00 -3.911101222038269043e-01
2.505000000000000000e+03 7.092899322509765625e+01 -1.261927127838134766e+01 -6.596273779869079590e-01 6.293395519256591797e+00 1.690130472183227539e+00 6.977990269660949707e-01
2.506000000000000000e+03 7.153944396972656250e+01 -1.427087211608886719e+01 -1.042070835828781128e-01 6.800523757934570312e+00 2.008894920349121094e+00 9.952487349510192871e-01
2.507000000000000000e+03 1.305840015411376953e+01 4.739642143249511719e+00 7.530218135798349977e-05 9.270745067624375224e-06 2.537187720008660108e-05 2.066057204501703382e-04
2.508000000000000000e+03 1.031882572174072266e+01 -1.041086387634277344e+01 -3.695286512374877930e-01 -2.990807294845581055e-01 -2.005828171968460083e-01 -6.266347318887710571e-02
2.509000000000000000e+03 1.099280738830566406e+01 -1.137245750427246094e+01 -4.798764884471893311e-01 -3.906438350677490234e-01 -2.611561119556427002e-01 -1.308772265911102295e-01
2.510000000000000000e+03 3.651343154907226562e+01 -9.728445053100585938e+00 -3.178783059120178223e-01 -2.777342498302459717e-01 -1.786837577819824219e-01 -6.273452937602996826e-02
2.511000000000000000e+03 3.421351623535156250e+01 -8.378204345703125000e+00 -9.320075511932373047e-01 -2.488455623388290405e-01 -3.542559444904327393e-01 -1.722388863563537598e-01
2.512000000000000000e+03 2.768915367126464844e+01 -9.412123680114746094e+00 -5.132086873054504395e-01 9.453858435153961182e-02 -1.256010234355926514e-01 -4.928148984909057617e-01
2.513000000000000000e+03 7.514754486083984375e+01 9.669866561889648438e+00 -6.862149238586425781e-01 8.189672470092773438e+00 2.251037120819091797e+00 -4.869407415390014648e-01
2.514000000000000000e+03 7.337490081787109375e+01 7.305304527282714844e+00 -5.128331780433654785e-01 7.013892650604248047e+00 1.950317859649658203e+00 -4.206378012895584106e-02
2.515000000000000000e+03 5.520846366882324219e+00 8.973485946655273438e+00 2.126332110492512584e-04 -2.265973016619682312e-04 -4.189227638562442735e-06 -5.812200834043323994e-04
2.516000000000000000e+03 4.205315399169921875e+01 1.857218360900878906e+01 -2.354109138250350952e-01 6.593272835016250610e-02 -5.084345489740371704e-02 2.929245494306087494e-02
2.517000000000000000e+03 4.827382659912109375e+01 -6.744093418121337891e+00 -4.187252819538116455e-01 5.144171714782714844e-01 2.870756015181541443e-02 1.339403539896011353e-02
2.518000000000000000e+03 3.938331222534179688e+01 -8.901252746582031250e+00 -4.330960214138031006e-01 -1.779686361551284790e-01 -1.833193898200988770e-01 -6.938191503286361694e-02
2.519000000000000000e+03 3.154907608032226562e+01 -1.039555931091308594e+01 -2.190676629543304443e-01 -8.450973033905029297e-02 -9.107321500778198242e-02 -2.777719795703887939e-01
2.520000000000000000e+03 3.019675254821777344e+01 -1.046862316131591797e+01 -2.155773043632507324e-01 -1.726496405899524689e-02 -6.985267996788024902e-02 -4.245509803295135498e-01
2.521000000000000000e+03 4.473668289184570312e+01 -9.855408668518066406e+00 -3.765843808650970459e-02 4.513463079929351807e-01 1.241063550114631653e-01 6.090096384286880493e-02
2.522000000000000000e+03 4.651555252075195312e+01 -7.628858089447021484e+00 -3.767755627632141113e-01 5.423429608345031738e-01 4.967022314667701721e-02 -2.612058259546756744e-02
2.523000000000000000e+03 4.529866409301757812e+01 -3.537568092346191406e+00 -1.039576530456542969e+00 3.411291241645812988e-01 -2.095342129468917847e-01 -2.950381040573120117e-01
2.524000000000000000e+03 4.452714538574218750e+01 -1.278587245941162109e+01 2.846843600273132324e-01 5.996038913726806641e-01 2.652864754199981689e-01 1.575480550527572632e-01
2.525000000000000000e+03 7.207205200195312500e+01 -2.172174453735351562e+01 8.519562482833862305e-01 6.814849376678466797e+00 2.300041675567626953e+00 2.393354475498199463e-01
2.526000000000000000e+03 9.433989524841308594e+00 -1.104732322692871094e+01 -3.731724321842193604e-01 -2.557940781116485596e-01 -1.886899620294570923e-01 -6.046602874994277954e-02
2.527000000000000000e+03 7.507444763183593750e+01 -1.508366394042968750e+01 1.220942959189414978e-01 7.117496013641357422e+00 2.171877145767211914e+00 9.682174921035766602e-01
2.528000000000000000e+03 5.993987655639648438e+01 -2.110383987426757812e+00 -1.910150945186614990e-01 -5.971269309520721436e-02 -7.521833479404449463e-02 1.466735601425170898e-01
2.529000000000000000e+03 6.085850524902343750e+01 -1.127815991640090942e-02 -2.374315559864044189e-01 6.069181859493255615e-02 -5.302191898226737976e-02 -7.057026773691177368e-02
2.530000000000000000e+03 6.282035064697265625e+01 -1.106362789869308472e-02 -7.538589090108871460e-02 6.417201161384582520e-01 1.699002534151077271e-01 6.999760121107101440e-02
2.531000000000000000e+03 7.390570831298828125e+01 -7.029988765716552734e-01 -1.291394680738449097e-01 6.802905559539794922e+00 2.002129793167114258e+00 1.809014678001403809e-01
2.532000000000000000e+03 5.011233520507812500e+01 -2.995195388793945312e+00 -9.119390845298767090e-01 1.084514558315277100e-01 -2.410462796688079834e-01 -6.657206267118453979e-02
2.533000000000000000e+03 7.366573333740234375e+01 2.587549018859863281e+01 -1.520747065544128418e+00 9.039634704589843750e+00 2.255666255950927734e+00 -5.288256406784057617e-01
2.534000000000000000e+03 6.750193595886230469e+00 2.614780426025390625e+01 -2.941407030448317528e-03 -4.828229546546936035e-03 -2.330891089513897896e-03 4.609080962836742401e-03
2.535000000000000000e+03 7.565693664550781250e+01 -4.999220371246337891e+00 -1.372890472412109375e-01 7.770817279815673828e+00 2.290058612823486328e+00 2.928495407104492188e-01
2.536000000000000000e+03 2.478455734252929688e+01 -1.119340229034423828e+01 -1.132194474339485168e-01 1.602487117052078247e-01 1.410878170281648636e-02 -4.228217303752899170e-01
2.537000000000000000e+03 2.474589920043945312e+01 -1.224299144744873047e+01 8.927986770868301392e-02 1.079700663685798645e-01 5.917498096823692322e-02 -3.752763271331787109e-01
2.538000000000000000e+03 6.677499294281005859e+00 -2.444725799560546875e+01 1.710580885410308838e-01 -3.513430356979370117e-01 -5.408548191189765930e-02 -2.796969711780548096e-01
2.539000000000000000e+03 4.201028442382812500e+01 -2.465717124938964844e+01 1.466852128505706787e-01 4.835148453712463379e-01 1.890600174665451050e-01 -6.813061982393264771e-02
2.540000000000000000e+03 1.385711193084716797e+01 -7.978599548339843750e+00 -2.365047186613082886e-01 -3.062553703784942627e-01 -1.628280282020568848e-01 -1.789197623729705811e-01
2.541000000000000000e+03 6.965954303741455078e+00 -1.562316608428955078e+01 -2.531107366085052490e-01 -1.738460808992385864e-01 -1.280870437622070312e-01 -3.201536536216735840e-01
2.542000000000000000e+03 4.512930393218994141e+00 -2.151699638366699219e+01 5.624575540423393250e-02 -3.258478641510009766e-01 -8.088062703609466553e-02 -3.229021728038787842e-01
2.543000000000000000e+03 3.798246002197265625e+01 -1.511492156982421875e+01 7.085416913032531738e-01 -2.744133174419403076e-01 1.302385181188583374e-01 -1.763358861207962036e-01
2.544000000000000000e+03 3.698452377319335938e+01 -1.151804733276367188e+01 1.224793270230293274e-01 -2.828235328197479248e-01 -4.810326546430587769e-02 -1.356733124703168869e-02
2.545000000000000000e+03 1.313031005859375000e+01 6.503211021423339844e+00 6.124305655248463154e-04 -3.517016011755913496e-04 7.821869803592562675e-05 4.310438525862991810e-04
2.546000000000000000e+03 1.370833110809326172e+01 6.894843101501464844e+00 5.379728972911834717e-04 8.655512647237628698e-05 1.873584114946424961e-04 6.147800595499575138e-04
2.547000000000000000e+03 4.063735198974609375e+01 -1.559294414520263672e+01 5.020332932472229004e-01 4.649968072772026062e-02 1.645598858594894409e-01 -1.780302226543426514e-01
2.548000000000000000e+03 6.310007858276367188e+01 -6.955291748046875000e+00 -4.809081181883811951e-02 5.655851960182189941e-01 1.552483141422271729e-01 2.172687798738479614e-01
2.549000000000000000e+03 4.202817153930664062e+01 -2.038643264770507812e+01 2.849583029747009277e-01 5.119538307189941406e-01 2.390736341476440430e-01 -3.070785403251647949e-01
2.550000000000000000e+03 6.629840087890625000e+01 2.778957939147949219e+01 6.473228335380554199e-03 1.879846572875976562e+00 5.658959150314331055e-01 -1.049905538558959961e+00
2.551000000000000000e+03 6.284701347351074219e+00 -1.808257484436035156e+01 -9.551443904638290405e-02 -2.286772131919860840e-01 -9.725749492645263672e-02 -4.061027765274047852e-01
2.552000000000000000e+03 7.245967864990234375e+01 -2.265203666687011719e+01 6.363519430160522461e-01 6.634676456451416016e+00 2.181308507919311523e+00 1.255908012390136719e-01
2.553000000000000000e+03 4.765081405639648438e+00 1.884360313415527344e+01 -2.775207976810634136e-04 1.395513099851086736e-04 -4.139084921916946769e-05 -8.228479418903589249e-04
2.554000000000000000e+03 1.977972412109375000e+01 -9.007688522338867188e+00 -4.548018872737884521e-01 9.964822977781295776e-02 -1.065460965037345886e-01 -4.259540736675262451e-01
2.555000000000000000e+03 7.294160461425781250e+01 -4.214727401733398438e+00 -2.204664498567581177e-01 6.279167175292968750e+00 1.817610144615173340e+00 2.640401721000671387e-01
2.556000000000000000e+03 5.251546382904052734e+00 2.760848236083984375e+01 -1.647079363465309143e-03 -4.374228417873382568e-03 -1.806392334401607513e-03 4.433144815266132355e-03
2.557000000000000000e+03 6.751760959625244141e+00 2.761927986145019531e+01 -3.554770024493336678e-03 -6.233888212591409683e-03 -2.936597447842359543e-03 5.654497537761926651e-03
2.558000000000000000e+03 7.015965270996093750e+01 -2.849040603637695312e+01 -2.744799852371215820e-01 5.392287731170654297e+00 1.535342335700988770e+00 4.477403163909912109e-01
2.559000000000000000e+03 4.592148780822753906e+00 1.742148399353027344e+01 -5.540057318285107613e-04 2.413189649814739823e-04 -9.380603296449407935e-05 -1.273764064535498619e-03
2.560000000000000000e+03 1.375607013702392578e+01 1.547923755645751953e+01 6.629825802519917488e-04 -2.481767907738685608e-03 -5.456356448121368885e-04 5.951591301709413528e-04
2.561000000000000000e+03 1.078073215484619141e+01 1.353719806671142578e+01 5.341831129044294357e-04 -1.826209947466850281e-03 -3.876080445479601622e-04 -3.995534279965795577e-05
2.562000000000000000e+03 4.340081787109375000e+01 -2.905566978454589844e+01 1.083242744207382202e-01 5.283952355384826660e-01 1.910158395767211914e-01 -1.767711131833493710e-03
2.563000000000000000e+03 7.374566650390625000e+01 -2.728187179565429688e+01 -1.029436588287353516e-01 6.336306095123291016e+00 1.870008707046508789e+00 -7.786706835031509399e-02
2.564000000000000000e+03 7.211470794677734375e+01 1.076424503326416016e+01 -7.879433631896972656e-01 6.829697608947753906e+00 1.812526226043701172e+00 3.399905562400817871e-01
2.565000000000000000e+03 3.717319107055664062e+01 -8.799319267272949219e+00 -5.698905587196350098e-01 -2.641037404537200928e-01 -2.501982748508453369e-01 -1.050282418727874756e-01
2.566000000000000000e+03 3.571856689453125000e+01 -8.750523567199707031e+00 -7.069848775863647461e-01 -2.645407021045684814e-01 -2.914576828479766846e-01 -1.227991953492164612e-01
2.567000000000000000e+03 7.361470031738281250e+01 -3.259178161621093750e+01 -1.359118521213531494e-01 5.847590446472167969e+00 1.713503599166870117e+00 8.746355772018432617e-02
2.568000000000000000e+03 1.041246128082275391e+01 -2.804689407348632812e+01 2.454457283020019531e-01 -9.942439943552017212e-02 4.380639642477035522e-02 -1.597870439291000366e-01
2.569000000000000000e+03 8.292272567749023438e+00 -3.017278671264648438e+01 1.304460763931274414e-01 -2.659959793090820312e-01 -4.066497087478637695e-02 -1.028290838003158569e-01
2.570000000000000000e+03 5.073599815368652344e+00 -2.678957557678222656e+01 1.066185086965560913e-01 -4.494984745979309082e-01 -1.028639897704124451e-01 -1.715441495180130005e-01
2.571000000000000000e+03 4.105861663818359375e+01 1.959727668762207031e+01 -2.297507077455520630e-01 6.347689032554626465e-02 -4.988214373588562012e-02 5.605714768171310425e-02
2.572000000000000000e+03 7.361946868896484375e+01 -1.287586593627929688e+01 -2.329787313938140869e-01 7.037338733673095703e+00 2.041308164596557617e+00 9.730831980705261230e-01
2.573000000000000000e+03 4.238583755493164062e+01 -6.601274013519287109e+00 -8.346238732337951660e-01 7.768552005290985107e-02 -2.270814925432205200e-01 -1.248369440436363220e-01
2.574000000000000000e+03 4.427225875854492188e+01 -4.612446784973144531e+00 -9.801238179206848145e-01 3.120731115341186523e-01 -2.004152238368988037e-01 -2.626850008964538574e-01
2.575000000000000000e+03 6.704689788818359375e+01 2.922594261169433594e+01 7.763042300939559937e-02 2.680879354476928711e+00 8.275529146194458008e-01 -1.186308741569519043e+00
2.576000000000000000e+03 4.586978530883789062e+01 -2.886731529235839844e+01 1.434962898492813110e-01 7.413828372955322266e-01 2.654637396335601807e-01 -1.664864271879196167e-01
2.577000000000000000e+03 1.852591323852539062e+01 2.635910606384277344e+01 -3.263110667467117310e-02 -1.580251567065715790e-02 -1.453008688986301422e-02 3.615847975015640259e-02
2.578000000000000000e+03 4.255315399169921875e+01 1.543551921844482422e+01 -1.267897784709930420e-01 2.339091524481773376e-02 -3.101966157555580139e-02 4.885927774012088776e-03
2.579000000000000000e+03 4.449613571166992188e+01 1.600046348571777344e+01 -1.411315202713012695e-01 1.795499213039875031e-02 -3.695295751094818115e-02 -1.988831534981727600e-02
2.580000000000000000e+03 3.640326690673828125e+01 2.240222740173339844e+01 -1.756881028413772583e-01 2.138326090062037110e-05 -5.270001292228698730e-02 8.839479833841323853e-02
2.581000000000000000e+03 3.438309478759765625e+01 2.702356529235839844e+01 -5.793149769306182861e-02 -5.298829823732376099e-02 -3.327593952417373657e-02 1.254086345434188843e-01
2.582000000000000000e+03 4.123085403442382812e+01 -1.795366287231445312e+01 3.997161090373992920e-01 2.330455482006072998e-01 1.898285001516342163e-01 -2.853548228740692139e-01
2.583000000000000000e+03 7.212745666503906250e+01 6.429984569549560547e+00 -4.804719984531402588e-01 6.139825820922851562e+00 1.697806119918823242e+00 1.488251388072967529e-01
2.584000000000000000e+03 7.440693664550781250e+01 4.694525241851806641e+00 -2.536137700080871582e-01 7.367516517639160156e+00 2.134170770645141602e+00 4.846631549298763275e-03
2.585000000000000000e+03 6.957979583740234375e+01 6.401083946228027344e+00 -4.884357154369354248e-01 4.398301601409912109e+00 1.172959685325622559e+00 3.020879328250885010e-01
2.586000000000000000e+03 7.154420471191406250e+01 -1.153521728515625000e+01 -6.591647863388061523e-01 6.371835708618164062e+00 1.713801264762878418e+00 6.095162034034729004e-01
2.587000000000000000e+03 7.315062713623046875e+01 -1.128767395019531250e+01 -4.601299762725830078e-01 6.831325054168701172e+00 1.911358594894409180e+00 7.637584209442138672e-01
2.588000000000000000e+03 4.114495468139648438e+01 -3.042999649047851562e+01 1.601853817701339722e-01 2.112894207239151001e-01 1.114424392580986023e-01 8.240115642547607422e-02
2.589000000000000000e+03 7.336042022705078125e+01 1.749987363815307617e+00 -1.638495773077011108e-01 6.561286449432373047e+00 1.919231057167053223e+00 1.667465865612030029e-01
2.590000000000000000e+03 7.137540817260742188e+00 3.232726669311523438e+01 2.592016244307160378e-04 -1.364107150584459305e-02 -4.014560952782630920e-03 8.808063343167304993e-03
2.591000000000000000e+03 7.416416931152343750e+01 -1.752716064453125000e+01 4.974150955677032471e-01 6.879899024963378906e+00 2.213194131851196289e+00 8.284612894058227539e-01
2.592000000000000000e+03 1.354527091979980469e+01 2.016602897644042969e+01 -6.374838761985301971e-03 -3.224272513762116432e-03 -2.879733219742774963e-03 1.141837681643664837e-03
2.593000000000000000e+03 6.931236267089843750e+01 -2.963962173461914062e+01 -2.534510791301727295e-01 4.884746551513671875e+00 1.389388680458068848e+00 6.301684379577636719e-01
2.594000000000000000e+03 7.202335357666015625e+01 3.378199005126953125e+01 -2.574148215353488922e-02 5.632042884826660156e+00 1.681890368461608887e+00 -5.762172937393188477e-01
2.595000000000000000e+03 7.288968658447265625e+01 -7.296927452087402344e+00 -3.644023835659027100e-01 6.422371387481689453e+00 1.817390680313110352e+00 3.988718092441558838e-01
2.596000000000000000e+03 6.616842269897460938e+00 1.432591056823730469e+01 1.472226085752481595e-05 -8.842524839565157890e-04 -2.608590584713965654e-04 -1.135381055064499378e-03
2.597000000000000000e+03 7.203624725341796875e+01 -2.066650009155273438e+01 1.057680368423461914e+00 6.762610912322998047e+00 2.346087455749511719e+00 3.371823728084564209e-01
2.598000000000000000e+03 7.416517639160156250e+01 -1.197076129913330078e+01 -3.227523267269134521e-01 7.160174846649169922e+00 2.051226854324340820e+00 9.000278115272521973e-01
2.599000000000000000e+03 4.337264251708984375e+01 2.135594940185546875e+01 -3.088563680648803711e-01 1.000958457589149475e-01 -6.262815743684768677e-02 8.123146742582321167e-02
2.600000000000000000e+03 7.311850738525390625e+01 -2.452768898010253906e+01 2.041781097650527954e-01 6.553888797760009766e+00 2.027420043945312500e+00 -9.522414952516555786e-02
2.601000000000000000e+03 7.261623859405517578e+00 -1.390551471710205078e+01 -3.182514905929565430e-01 -1.513310968875885010e-01 -1.408747732639312744e-01 -2.072112858295440674e-01
2.602000000000000000e+03 6.324038982391357422e+00 -1.163094902038574219e+01 -2.212774753570556641e-01 -7.379586249589920044e-02 -8.852200210094451904e-02 -4.919794574379920959e-02
2.603000000000000000e+03 7.201039886474609375e+01 1.701534271240234375e+01 2.349171787500381470e-01 1.026574993133544922e+01 3.150200128555297852e+00 3.815056800842285156e+00
2.604000000000000000e+03 7.300347900390625000e+01 1.708684921264648438e+01 -7.508993148803710938e-01 1.441374397277832031e+01 4.098853588104248047e+00 1.753059506416320801e+00
2.605000000000000000e+03 7.370062255859375000e+01 1.689255905151367188e+01 -7.263797521591186523e-01 1.447224712371826172e+01 4.123760223388671875e+00 -2.704704999923706055e-01
2.606000000000000000e+03 6.898915863037109375e+01 2.362531280517578125e+01 -1.273819953203201294e-01 2.843528509140014648e+00 8.148439526557922363e-01 -1.934053301811218262e+00
2.607000000000000000e+03 7.382877349853515625e+01 1.722133827209472656e+01 -2.977704703807830811e-01 1.514655494689941406e+01 4.454635620117187500e+00 -8.000147342681884766e-01
2.608000000000000000e+03 7.610633087158203125e+01 1.879142570495605469e+01 3.464442014694213867e+00 9.556604385375976562e+00 3.906314134597778320e+00 -1.488250017166137695e+00
2.609000000000000000e+03 7.536928558349609375e+01 2.353186988830566406e+01 -9.545694589614868164e-01 1.078737831115722656e+01 2.949842691421508789e+00 1.618283867835998535e+00
2.610000000000000000e+03 7.481175231933593750e+01 1.841343879699707031e+01 4.295568466186523438e+00 1.314195632934570312e+01 5.231257438659667969e+00 -2.650772809982299805e+00
2.611000000000000000e+03 7.565232849121093750e+01 1.867359542846679688e+01 3.914716720581054688e+00 1.060507774353027344e+01 4.355938434600830078e+00 -1.936172604560852051e+00
2.612000000000000000e+03 7.562853240966796875e+01 1.614272689819335938e+01 -3.829754292964935303e-01 1.087567329406738281e+01 3.147809267044067383e+00 -2.338585853576660156e+00
2.613000000000000000e+03 7.606970214843750000e+01 1.759259796142578125e+01 1.495054602622985840e+00 1.006073951721191406e+01 3.466738224029541016e+00 -2.528389930725097656e+00
2.614000000000000000e+03 7.524394226074218750e+01 1.990698623657226562e+01 5.360227584838867188e+00 1.122163486480712891e+01 4.974558830261230469e+00 6.411424279212951660e-01
2.615000000000000000e+03 7.429997253417968750e+01 2.153054809570312500e+01 9.222820401191711426e-01 1.474537372589111328e+01 4.700296878814697266e+00 1.891955375671386719e+00
2.616000000000000000e+03 7.462335968017578125e+01 2.180509376525878906e+01 6.248572468757629395e-01 1.373263835906982422e+01 4.307248592376708984e+00 1.978624701499938965e+00
2.617000000000000000e+03 7.498925018310546875e+01 2.205728530883789062e+01 3.803290128707885742e-01 1.245153617858886719e+01 3.849559545516967773e+00 2.104726552963256836e+00
2.618000000000000000e+03 7.490367126464843750e+01 2.026718521118164062e+01 5.556376934051513672e+00 1.263178157806396484e+01 5.456447601318359375e+00 1.759502053260803223e+00
2.619000000000000000e+03 7.480772399902343750e+01 1.721170616149902344e+01 6.537728309631347656e-01 1.311952590942382812e+01 4.131989479064941406e+00 -2.365064382553100586e+00
2.620000000000000000e+03 7.539399719238281250e+01 2.082949638366699219e+01 3.441280841827392578e+00 1.148150825500488281e+01 4.476836681365966797e+00 2.258859634399414062e+00
2.621000000000000000e+03 7.632682037353515625e+01 2.058448410034179688e+01 2.658476591110229492e+00 9.067994117736816406e+00 3.517940998077392578e+00 1.504780888557434082e+00
2.622000000000000000e+03 7.195175170898437500e+01 1.662021446228027344e+01 -3.895251080393791199e-02 9.715723991394042969e+00 2.903031349182128906e+00 3.367037057876586914e+00
2.623000000000000000e+03 7.066837310791015625e+01 1.595081996917724609e+01 3.743569552898406982e-01 5.538140296936035156e+00 1.773749232292175293e+00 2.664048433303833008e+00
2.624000000000000000e+03 7.078607177734375000e+01 1.541558742523193359e+01 4.975618049502372742e-02 5.999259948730468750e+00 1.814704775810241699e+00 2.508186101913452148e+00
2.625000000000000000e+03 7.279135894775390625e+01 2.306206130981445312e+01 -1.397806286811828613e+00 1.153034496307373047e+01 3.039761781692504883e+00 -2.165398120880126953e+00
2.626000000000000000e+03 7.315907001495361328e+00 5.353681564331054688e+00 1.921540679177269340e-04 -1.692886289674788713e-04 6.859632321720710024e-06 -2.768351114355027676e-04
2.627000000000000000e+03 7.585076904296875000e+01 2.270259857177734375e+01 -2.041315883398056030e-01 1.041936969757080078e+01 3.064571619033813477e+00 2.181951761245727539e+00
2.628000000000000000e+03 7.539238739013671875e+01 2.407177734375000000e+01 -1.161119699478149414e+00 1.039493179321289062e+01 2.770143747329711914e+00 1.394393444061279297e+00
2.629000000000000000e+03 6.626086235046386719e+00 5.448384761810302734e+00 4.434476140886545181e-04 -1.468336267862468958e-04 8.898419036995619535e-05 -1.925036340253427625e-04
2.630000000000000000e+03 6.843265056610107422e+00 6.023251056671142578e+00 3.125758667010813951e-04 -1.051557192113250494e-04 6.222604861250147223e-05 -2.439932432025671005e-04
2.631000000000000000e+03 7.666391754150390625e+01 1.842461776733398438e+01 2.328119039535522461e+00 8.462721824645996094e+00 3.237252235412597656e+00 -1.626251459121704102e+00
2.632000000000000000e+03 7.642137908935546875e+01 1.979347419738769531e+01 3.146028757095336914e+00 8.612698554992675781e+00 3.527618169784545898e+00 2.073240429162979126e-01
2.633000000000000000e+03 7.615901184082031250e+01 2.014770889282226562e+01 3.146494626998901367e+00 9.252575874328613281e+00 3.719721078872680664e+00 8.648371696472167969e-01
2.634000000000000000e+03 1.433914184570312500e+01 5.008672237396240234e+00 1.622166018933057785e-05 2.717385359574109316e-04 8.638806320959702134e-05 3.510192909743636847e-04
2.635000000000000000e+03 9.417501449584960938e+00 -5.675176143646240234e+00 -1.404727343469858170e-02 -1.172337383031845093e-01 -3.938430175185203552e-02 7.192245125770568848e-02
2.636000000000000000e+03 1.301232337951660156e+01 -8.583859443664550781e+00 -2.967329323291778564e-01 -3.431481122970581055e-01 -1.919643133878707886e-01 -1.275310963392257690e-01
2.637000000000000000e+03 7.569821166992187500e+01 2.027124786376953125e+01 3.894635200500488281e+00 1.040698337554931641e+01 4.290485858917236328e+00 1.268947005271911621e+00
2.638000000000000000e+03 8.710776329040527344e+00 -5.710369586944580078e+00 -1.093385368585586548e-02 -9.347199648618698120e-02 -3.132175654172897339e-02 9.048888832330703735e-02
2.639000000000000000e+03 9.235603332519531250e+00 6.637989521026611328e+00 7.068549748510122299e-04 -3.739217936526983976e-04 9.987995872506871819e-05 -1.266455074073746800e-04
2.640000000000000000e+03 1.412997055053710938e+01 -6.721228122711181641e+00 -1.408502459526062012e-01 -2.164281457662582397e-01 -1.071835160255432129e-01 -1.663212627172470093e-01
2.641000000000000000e+03 7.609441375732421875e+01 2.198957252502441406e+01 8.775916695594787598e-01 1.003342056274414062e+01 3.273303508758544922e+00 2.338115215301513672e+00
2.642000000000000000e+03 7.588454437255859375e+01 1.570425987243652344e+01 -5.477571487426757812e-01 1.030741977691650391e+01 2.927898645401000977e+00 -2.272884130477905273e+00
2.643000000000000000e+03 7.599568176269531250e+01 1.654965782165527344e+01 1.000907197594642639e-01 1.025663852691650391e+01 3.107018709182739258e+00 -2.523342609405517578e+00
2.644000000000000000e+03 1.754327583312988281e+01 -7.672507286071777344e+00 -3.651947081089019775e-01 -8.520763367414474487e-02 -1.351207047700881958e-01 -3.759383559226989746e-01
2.645000000000000000e+03 1.042761611938476562e+01 5.321795940399169922e+00 2.286285744048655033e-04 -2.441919932607561350e-04 -4.669020199798978865e-06 1.048542908392846584e-04
2.646000000000000000e+03 2.201108360290527344e+01 -8.562188148498535156e+00 -4.759711325168609619e-01 1.972739845514297485e-01 -8.360914140939712524e-02 -3.950601518154144287e-01
2.647000000000000000e+03 2.024093437194824219e+01 -6.880195140838623047e+00 -4.072342813014984131e-01 1.012594476342201233e-01 -9.179244935512542725e-02 -3.519321978092193604e-01
2.648000000000000000e+03 7.264170074462890625e+01 1.326420402526855469e+01 -1.173787951469421387e+00 8.366083145141601562e+00 2.157688617706298828e+00 6.752761006355285645e-01
2.649000000000000000e+03 7.579589843750000000e+01 1.426848602294921875e+01 -1.042012810707092285e+00 9.759340286254882812e+00 2.615198373794555664e+00 -1.669155240058898926e+00
2.650000000000000000e+03 1.144037532806396484e+01 -5.453845024108886719e+00 -1.746097579598426819e-02 -1.391547769308090210e-01 -4.698472470045089722e-02 6.924774032086133957e-03
2.651000000000000000e+03 7.115580749511718750e+01 1.607006263732910156e+01 2.139577716588973999e-01 6.781828403472900391e+00 2.098735809326171875e+00 2.960850715637207031e+00
2.652000000000000000e+03 4.738664627075195312e+01 -6.346318244934082031e+00 -5.874179601669311523e-01 4.960253536701202393e-01 -2.741779014468193054e-02 -7.212494313716888428e-02
2.653000000000000000e+03 4.784685134887695312e+01 -5.435590267181396484e+00 -6.741566658020019531e-01 4.424746930599212646e-01 -6.950458884239196777e-02 -9.551535546779632568e-02
2.654000000000000000e+03 6.415183544158935547e+00 7.462363243103027344e+00 2.889079332817345858e-04 -2.482169365976005793e-04 1.220730518980417401e-05 -5.143231246620416641e-04
2.655000000000000000e+03 7.649792480468750000e+01 1.700951194763183594e+01 6.794273853302001953e-01 9.308496475219726562e+00 2.996377229690551758e+00 -2.531660318374633789e+00
2.656000000000000000e+03 7.582407379150390625e+01 1.815180206298828125e+01 2.850995063781738281e+00 1.052536678314208984e+01 4.012908458709716797e+00 -2.326652765274047852e+00
2.657000000000000000e+03 2.004502105712890625e+01 -8.204696655273437500e+00 -4.393434822559356689e-01 1.050781011581420898e-01 -1.002796217799186707e-01 -3.971149921417236328e-01
2.658000000000000000e+03 5.663368225097656250e+00 -7.731150627136230469e+00 -6.307315081357955933e-02 -1.297932863235473633e-02 -2.281574532389640808e-02 1.050853654742240906e-01
2.659000000000000000e+03 6.257469654083251953e+00 -5.779771804809570312e+00 -7.811071351170539856e-03 -2.730737812817096710e-02 -1.053553447127342224e-02 1.193014383316040039e-01
2.660000000000000000e+03 7.368809509277343750e+01 1.297826194763183594e+01 -1.336044907569885254e+00 9.026377677917480469e+00 2.307099819183349609e+00 -6.163609772920608521e-02
2.661000000000000000e+03 4.558784484863281250e+01 -4.279385566711425781e+00 -9.507164359092712402e-01 3.818913400173187256e-01 -1.706475466489791870e-01 -2.230067849159240723e-01
2.662000000000000000e+03 6.612196922302246094e+00 9.419869422912597656e+00 7.646596641279757023e-04 -2.896391961257904768e-04 1.425061345798894763e-04 -5.781508516520261765e-04
2.663000000000000000e+03 1.288439655303955078e+01 -6.609747409820556641e+00 -1.079826354980468750e-01 -2.187550216913223267e-01 -9.802129119634628296e-02 -8.568888157606124878e-02
2.664000000000000000e+03 1.784678077697753906e+01 -8.486391067504882812e+00 -4.058508872985839844e-01 -4.991871863603591919e-02 -1.367308795452117920e-01 -4.325396418571472168e-01
2.665000000000000000e+03 7.295073699951171875e+01 -2.182025527954101562e+01 7.617561817169189453e-01 6.633263111114501953e+00 2.218505859375000000e+00 1.159993037581443787e-01
2.666000000000000000e+03 5.053893089294433594e+00 -9.457972526550292969e+00 -1.057900637388229370e-01 1.353924348950386047e-02 -2.767524495720863342e-02 5.762334913015365601e-02
2.667000000000000000e+03 7.242334365844726562e+00 -6.609277248382568359e+00 -4.822647571563720703e-02 -6.641728430986404419e-02 -3.439312800765037537e-02 1.062375977635383606e-01
2.668000000000000000e+03 8.064045906066894531e+00 -6.576695919036865234e+00 -5.177525058388710022e-02 -9.524474292993545532e-02 -4.410599917173385620e-02 9.907596558332443237e-02
2.669000000000000000e+03 9.493144989013671875e+00 -6.424823760986328125e+00 -5.803932249546051025e-02 -1.277331411838531494e-01 -5.573173612356185913e-02 6.801427900791168213e-02
2.670000000000000000e+03 2.423265075683593750e+01 -8.371502876281738281e+00 -5.551713109016418457e-01 2.293345183134078979e-01 -9.775103628635406494e-02 -4.036200344562530518e-01
2.671000000000000000e+03 2.109156417846679688e+01 -7.575234889984130859e+00 -4.585403501987457275e-01 1.520096510648727417e-01 -9.195920825004577637e-02 -3.735544681549072266e-01
2.672000000000000000e+03 5.874227142333984375e+01 -4.986059665679931641e+00 -1.198405846953392029e-01 -2.475256919860839844e-01 -1.102098822593688965e-01 3.824858069419860840e-01
2.673000000000000000e+03 7.294461059570312500e+01 -9.728480339050292969e+00 -5.387483239173889160e-01 6.594898223876953125e+00 1.816844940185546875e+00 5.495014786720275879e-01
2.674000000000000000e+03 4.856925582885742188e+01 -4.657265186309814453e+00 -7.790424227714538574e-01 3.754736185073852539e-01 -1.210706382989883423e-01 -8.495670557022094727e-02
2.675000000000000000e+03 1.468734073638916016e+01 -7.344050884246826172e+00 -2.275042533874511719e-01 -2.568673193454742432e-01 -1.453114748001098633e-01 -2.180658876895904541e-01
2.676000000000000000e+03 7.704504966735839844e+00 -1.228442859649658203e+01 -3.236048519611358643e-01 -1.543783992528915405e-01 -1.433949768543243408e-01 -1.036950275301933289e-01
2.677000000000000000e+03 7.536238098144531250e+01 1.171138668060302734e+01 -9.336748123168945312e-01 8.742557525634765625e+00 2.342664718627929688e+00 -8.306110501289367676e-01
2.678000000000000000e+03 4.621513748168945312e+01 -6.436117649078369141e+00 -6.146571040153503418e-01 4.785795807838439941e-01 -4.082325100898742676e-02 -9.765213727951049805e-02
2.679000000000000000e+03 7.495862579345703125e+01 2.385962104797363281e+01 -1.313714981079101562e+00 1.106362247467041016e+01 2.924972057342529297e+00 1.093845725059509277e+00
2.680000000000000000e+03 4.236391830444335938e+01 -7.569431781768798828e+00 -6.171467900276184082e-01 9.533340483903884888e-02 -1.565440297126770020e-01 -7.935503125190734863e-02
2.681000000000000000e+03 4.029963302612304688e+01 -7.674025535583496094e+00 -6.888399124145507812e-01 -1.350767016410827637e-01 -2.471749782562255859e-01 -1.058706790208816528e-01
2.682000000000000000e+03 6.123193740844726562e+01 -3.038729906082153320e+00 -2.950421348214149475e-02 1.818317919969558716e-01 4.569827392697334290e-02 2.274047881364822388e-01
2.683000000000000000e+03 6.108219528198242188e+01 -1.971595287322998047e+00 -7.728250324726104736e-02 1.345333158969879150e-01 1.717524603009223938e-02 1.253594458103179932e-01
2.684000000000000000e+03 7.449198150634765625e+01 1.374411487579345703e+01 -1.372754812240600586e+00 9.762444496154785156e+00 2.516906976699829102e+00 -6.805303692817687988e-01
2.685000000000000000e+03 7.256617736816406250e+01 -1.221091747283935547e+01 -4.820452630519866943e-01 6.753841876983642578e+00 1.881538867950439453e+00 8.514100909233093262e-01
2.686000000000000000e+03 4.115592575073242188e+01 -1.448594093322753906e+01 4.391011893749237061e-01 6.499729305505752563e-02 1.512295454740524292e-01 -1.025580465793609619e-01
2.687000000000000000e+03 6.280350685119628906e+00 1.031968402862548828e+01 3.406798059586435556e-04 -4.489776620175689459e-04 -3.248936263844370842e-05 -6.866282201372087002e-04
2.688000000000000000e+03 7.568566799163818359e+00 9.896217346191406250e+00 4.753985267598181963e-04 -6.550541147589683533e-04 -5.389667057897895575e-05 -4.363918851595371962e-04
2.689000000000000000e+03 7.421421051025390625e+01 2.675576210021972656e+01 -1.330534458160400391e+00 8.581107139587402344e+00 2.175171852111816406e+00 -1.462453752756118774e-01
2.690000000000000000e+03 4.342730331420898438e+01 -4.730463504791259766e+00 -1.016395926475524902e+00 2.364694178104400635e-01 -2.339779436588287354e-01 -2.461601942777633667e-01
2.691000000000000000e+03 6.829091644287109375e+01 2.536300277709960938e+01 -2.273253649473190308e-01 2.839437246322631836e+00 7.836335897445678711e-01 -1.757383704185485840e+00
2.692000000000000000e+03 6.840154266357421875e+01 2.366461753845214844e+01 -2.806249856948852539e-01 2.127613067626953125e+00 5.540964007377624512e-01 -1.573944091796875000e+00
2.693000000000000000e+03 1.177261257171630859e+01 7.728518486022949219e+00 7.939977222122251987e-04 -5.318649346008896828e-04 7.863984501454979181e-05 2.916460507549345493e-04
2.694000000000000000e+03 4.377992248535156250e+01 1.983801460266113281e+01 -2.911657989025115967e-01 8.963791280984878540e-02 -6.045836955308914185e-02 3.660487383604049683e-02
2.695000000000000000e+03 4.013331985473632812e+01 -2.346160316467285156e+01 5.336045846343040466e-02 1.394758075475692749e-01 5.785088241100311279e-02 -1.665374338626861572e-01
2.696000000000000000e+03 1.066999340057373047e+01 -8.863016128540039062e+00 -2.505868375301361084e-01 -2.648568749427795410e-01 -1.546331048011779785e-01 -1.976756751537322998e-02
2.697000000000000000e+03 7.415843200683593750e+01 8.580528259277343750e+00 -6.001505851745605469e-01 7.535768985748291016e+00 2.080685615539550781e+00 -1.874326169490814209e-01
2.698000000000000000e+03 2.486607933044433594e+01 -1.024638366699218750e+01 -2.977098822593688965e-01 1.912375539541244507e-01 -3.194169700145721436e-02 -4.557628333568572998e-01
2.699000000000000000e+03 7.235221862792968750e+01 1.273194122314453125e+01 -1.034268498420715332e+00 7.799425601959228516e+00 2.029547214508056641e+00 6.997069120407104492e-01
2.700000000000000000e+03 7.309356689453125000e+01 8.289180755615234375e+00 -6.135644912719726562e-01 6.982225418090820312e+00 1.910598278045654297e+00 -2.797862328588962555e-02
2.701000000000000000e+03 7.219159698486328125e+01 9.135499954223632812e+00 -6.932383179664611816e-01 6.511219024658203125e+00 1.745394110679626465e+00 1.502154916524887085e-01
2.702000000000000000e+03 3.589285659790039062e+01 -1.168507194519042969e+01 1.775997728109359741e-01 -2.242441773414611816e-01 -1.399332098662853241e-02 -2.210049331188201904e-02
2.703000000000000000e+03 3.729595184326171875e+01 -1.264927291870117188e+01 3.925320208072662354e-01 -2.677238881587982178e-01 3.744243830442428589e-02 -2.668101526796817780e-02
2.704000000000000000e+03 6.562953186035156250e+01 -7.796185970306396484e+00 -2.117066681385040283e-01 1.725262403488159180e+00 4.540667235851287842e-01 -1.825221031904220581e-01
2.705000000000000000e+03 6.402109527587890625e+01 -5.206422805786132812e+00 4.859630391001701355e-02 1.034294605255126953e+00 3.248672485351562500e-01 1.514630466699600220e-01
2.706000000000000000e+03 2.549089622497558594e+01 -8.289187431335449219e+00 -6.155210137367248535e-01 2.073857337236404419e-01 -1.224405914545059204e-01 -4.140515327453613281e-01
2.707000000000000000e+03 3.836641311645507812e+01 -1.007759189605712891e+01 -1.925869882106781006e-01 -2.388315200805664062e-01 -1.294255554676055908e-01 -3.692331165075302124e-02
2.708000000000000000e+03 3.948214340209960938e+01 -1.100626659393310547e+01 4.585455730557441711e-02 -1.608349978923797607e-01 -3.449413180351257324e-02 -1.449817512184381485e-02
2.709000000000000000e+03 6.438855743408203125e+01 -7.242531299591064453e+00 -1.251202970743179321e-01 9.761153459548950195e-01 2.552985250949859619e-01 9.190289676189422607e-02
2.710000000000000000e+03 1.123890781402587891e+01 -9.795158386230468750e+00 -3.482117950916290283e-01 -3.335757553577423096e-01 -2.045362740755081177e-01 -6.215944886207580566e-02
2.711000000000000000e+03 8.692016601562500000e+00 -1.003141498565673828e+01 -2.687148153781890869e-01 -1.869606673717498779e-01 -1.367026418447494507e-01 -1.794467330910265446e-03
2.712000000000000000e+03 7.262538909912109375e+01 -1.912341690063476562e+01 9.790688157081604004e-01 6.714200019836425781e+00 2.307980537414550781e+00 6.499806642532348633e-01
2.713000000000000000e+03 6.836318969726562500e+01 2.644152450561523438e+01 -1.945007890462875366e-01 3.288542985916137695e+00 9.282126426696777344e-01 -1.754958391189575195e+00
2.714000000000000000e+03 4.584873580932617188e+01 -1.290517044067382812e+01 3.182685375213623047e-01 9.149644970893859863e-01 3.699699044227600098e-01 3.124512434005737305e-01
2.715000000000000000e+03 7.209558868408203125e+01 2.922331809997558594e+01 -6.599190235137939453e-01 6.410393238067626953e+00 1.725142240524291992e+00 -9.153956174850463867e-01
2.716000000000000000e+03 4.019454574584960938e+01 -2.080682563781738281e+01 2.088153362274169922e-01 1.432068645954132080e-01 1.056066602468490601e-01 -3.354848623275756836e-01
2.717000000000000000e+03 6.982901000976562500e+01 4.748362064361572266e+00 -3.792292177677154541e-01 4.500403881072998047e+00 1.236352443695068359e+00 2.867951691150665283e-01
2.718000000000000000e+03 7.055329132080078125e+01 5.801509380340576172e+00 -4.455867707729339600e-01 4.965363025665283203e+00 1.355932831764221191e+00 2.700403332710266113e-01
2.719000000000000000e+03 4.303426742553710938e+01 -9.359343528747558594e+00 -2.148306220769882202e-01 1.916789859533309937e-01 -6.945491302758455276e-03 2.816818654537200928e-03
2.720000000000000000e+03 4.170468521118164062e+01 -1.334411811828613281e+01 3.495499789714813232e-01 1.373481452465057373e-01 1.460694372653961182e-01 -2.906603924930095673e-02
2.721000000000000000e+03 1.270598411560058594e+01 5.884416580200195312e+00 1.571316242916509509e-04 4.988917680748272687e-06 4.863616049988195300e-05 2.025323774432763457e-04
2.722000000000000000e+03 6.894239807128906250e+01 3.756456375122070312e+00 -2.776601910591125488e-01 3.946290016174316406e+00 1.100588917732238770e+00 3.128686547279357910e-01
2.723000000000000000e+03 3.934821319580078125e+01 -1.523831176757812500e+01 5.845606327056884766e-01 -1.688803583383560181e-01 1.247040778398513794e-01 -1.879862397909164429e-01
2.724000000000000000e+03 6.850021839141845703e+00 1.550344657897949219e+01 5.621501477435231209e-04 -1.169709372334182262e-03 -1.822677731979638338e-04 -1.112515572458505630e-03
2.725000000000000000e+03 1.328114223480224609e+01 7.631719112396240234e+00 4.406994848977774382e-04 -4.240245616529136896e-04 5.002479610993759707e-06 2.979641139972954988e-04
2.726000000000000000e+03 6.215839767456054688e+01 -4.216090679168701172e+00 4.908950254321098328e-02 4.718303680419921875e-01 1.562759578227996826e-01 2.492908984422683716e-01
2.727000000000000000e+03 7.297315216064453125e+01 -6.249821662902832031e+00 -3.110399544239044189e-01 6.416633129119873047e+00 1.831677913665771484e+00 3.262356817722320557e-01
2.728000000000000000e+03 7.453199005126953125e+01 -4.984659194946289062e+00 -1.868195682764053345e-01 7.225059509277343750e+00 2.111472129821777344e+00 3.041051924228668213e-01
2.729000000000000000e+03 4.490296554565429688e+01 -6.775233745574951172e+00 -6.422347426414489746e-01 3.906606733798980713e-01 -7.547221332788467407e-02 -1.225993782281875610e-01
2.730000000000000000e+03 6.993789672851562500e+01 7.371487140655517578e+00 -5.121877789497375488e-01 4.703316688537597656e+00 1.257338643074035645e+00 3.176511824131011963e-01
2.731000000000000000e+03 7.326078033447265625e+01 6.130511283874511719e+00 -4.464504420757293701e-01 6.794526576995849609e+00 1.904422879219055176e+00 3.029688075184822083e-02
2.732000000000000000e+03 8.205893516540527344e+00 2.314719963073730469e+01 -4.777878988534212112e-03 -3.896054113283753395e-03 -2.602180000394582748e-03 2.506389282643795013e-03
2.733000000000000000e+03 7.258852958679199219e+00 -2.338033294677734375e+01 1.867620050907135010e-01 -3.160946965217590332e-01 -3.879980370402336121e-02 -3.305680155754089355e-01
2.734000000000000000e+03 6.418686866760253906e+00 -2.617271614074707031e+01 1.529409438371658325e-01 -3.758812248706817627e-01 -6.688208132982254028e-02 -2.126347869634628296e-01
2.735000000000000000e+03 6.042395591735839844e+00 -2.288571166992187500e+01 1.235480532050132751e-01 -3.549900650978088379e-01 -6.943260878324508667e-02 -3.348988294601440430e-01
2.736000000000000000e+03 6.862464141845703125e+01 2.782324600219726562e+01 -1.926458179950714111e-01 3.668549776077270508e+00 1.042771220207214355e+00 -1.578558206558227539e+00
2.737000000000000000e+03 4.233954238891601562e+01 1.976176071166992188e+01 -2.555289268493652344e-01 7.526709139347076416e-02 -5.407855287194252014e-02 4.839769378304481506e-02
2.738000000000000000e+03 4.027413177490234375e+01 -1.674653053283691406e+01 4.924752712249755859e-01 2.483687177300453186e-02 1.551936417818069458e-01 -2.642078399658203125e-01
2.739000000000000000e+03 6.827065277099609375e+01 -6.747010231018066406e+00 -3.400219976902008057e-01 3.620192766189575195e+00 9.840512275695800781e-01 -8.410128951072692871e-02
2.740000000000000000e+03 1.292329883575439453e+01 1.109020614624023438e+01 8.407455170527100563e-04 -1.114439335651695728e-03 -8.210815576603636146e-05 5.810175207443535328e-04
2.741000000000000000e+03 6.683454895019531250e+01 3.279515838623046875e+01 3.752244114875793457e-01 2.993440866470336914e+00 1.010599613189697266e+00 -8.034897446632385254e-01
2.742000000000000000e+03 7.383296966552734375e+01 -2.225187492370605469e+01 5.743924975395202637e-01 6.639367103576660156e+00 2.164127826690673828e+00 1.111406758427619934e-01
2.743000000000000000e+03 1.150686073303222656e+01 2.173610115051269531e+01 -6.681574974209070206e-03 -4.304486326873302460e-03 -3.295818343758583069e-03 2.830716315656900406e-03
2.744000000000000000e+03 1.180035209655761719e+01 2.069508934020996094e+01 -6.292877253144979477e-03 -3.959672525525093079e-03 -3.075764980167150497e-03 1.235250965692102909e-03
2.745000000000000000e+03 7.036385345458984375e+01 -3.076123237609863281e+01 -2.112269848585128784e-01 5.168200969696044922e+00 1.487092256546020508e+00 3.916334211826324463e-01
2.746000000000000000e+03 6.362945556640625000e+00 -2.835276412963867188e+01 1.265670806169509888e-01 -3.918555378913879395e-01 -7.958654314279556274e-02 -1.404671072959899902e-01
2.747000000000000000e+03 4.467238235473632812e+01 -5.558643341064453125e+00 -8.530041575431823730e-01 3.689377903938293457e-01 -1.452199071645736694e-01 -1.784577369689941406e-01
2.748000000000000000e+03 4.529738235473632812e+01 -8.064253807067871094e+00 -3.639121949672698975e-01 4.523143172264099121e-01 2.652064152061939240e-02 -2.643526718020439148e-02
2.749000000000000000e+03 4.584331893920898438e+01 -3.060806846618652344e+01 1.403001397848129272e-01 6.075551509857177734e-01 2.243565917015075684e-01 -1.270152181386947632e-01
2.750000000000000000e+03 7.466601562500000000e+01 -1.104945755004882812e+01 -3.060663640499114990e-01 7.297775268554687500e+00 2.097512722015380859e+00 7.916633486747741699e-01
2.751000000000000000e+03 4.194681167602539062e+01 2.132462310791015625e+01 -2.623650133609771729e-01 8.024622499942779541e-02 -5.463563278317451477e-02 8.505787700414657593e-02
2.752000000000000000e+03 4.332990264892578125e+01 -7.839643001556396484e+00 -5.265079140663146973e-01 2.292373180389404297e-01 -8.918118476867675781e-02 -6.296684592962265015e-02
2.753000000000000000e+03 7.222521209716796875e+01 -1.058281803131103516e+01 -6.272553205490112305e-01 6.450160026550292969e+00 1.746871471405029297e+00 5.903974175453186035e-01
2.754000000000000000e+03 7.224218750000000000e+01 -9.080914497375488281e+00 -5.302252173423767090e-01 6.279877662658691406e+00 1.724895715713500977e+00 4.494497179985046387e-01
2.755000000000000000e+03 7.672891235351562500e+01 3.476430892944335938e+01 -7.722315192222595215e-02 7.610604763031005859e+00 2.260014533996582031e+00 -1.836449801921844482e-01
2.756000000000000000e+03 7.187899780273437500e+01 -1.777861022949218750e+01 9.185283780097961426e-01 6.891555309295654297e+00 2.343024969100952148e+00 8.594411015510559082e-01
2.757000000000000000e+03 3.214745712280273438e+01 2.735355758666992188e+01 -4.706291109323501587e-02 -7.093065232038497925e-02 -3.539806976914405823e-02 1.101328805088996887e-01
2.758000000000000000e+03 3.256354141235351562e+01 2.547410964965820312e+01 -8.946753293275833130e-02 -5.968923866748809814e-02 -4.474702849984169006e-02 1.030518040060997009e-01
2.759000000000000000e+03 3.765205001831054688e+01 2.396364402770996094e+01 -1.698241084814071655e-01 1.498066168278455734e-02 -4.645303264260292053e-02 1.173659488558769226e-01
2.760000000000000000e+03 6.042451858520507812e+01 -5.144951343536376953e+00 8.089921437203884125e-03 -2.541273459792137146e-02 -5.196844227612018585e-03 3.566902875900268555e-01
2.761000000000000000e+03 7.281287384033203125e+01 -8.295289993286132812e+00 -4.487548172473907471e-01 6.474236011505126953e+00 1.807644367218017578e+00 4.377780854701995850e-01
2.762000000000000000e+03 7.179970550537109375e+01 -6.050110340118408203e+00 -3.365958929061889648e-01 5.775945186614990234e+00 1.631804823875427246e+00 2.328372746706008911e-01
2.763000000000000000e+03 6.596324443817138672e+00 -2.159244728088378906e+01 9.580218046903610229e-02 -3.156228959560394287e-01 -6.594621390104293823e-02 -3.888431787490844727e-01
2.764000000000000000e+03 8.847536087036132812e+00 -3.246506500244140625e+01 1.015375256538391113e-01 -2.260617762804031372e-01 -3.735727444291114807e-02 -6.019212678074836731e-02
2.765000000000000000e+03 5.205571365356445312e+01 2.880662155151367188e+01 -1.642493307590484619e-01 -9.846657514572143555e-03 -5.222879722714424133e-02 4.715521633625030518e-01
2.766000000000000000e+03 6.882324218750000000e+01 -3.332054138183593750e+01 -6.082561239600181580e-02 4.343041896820068359e+00 1.284664869308471680e+00 5.343115925788879395e-01
2.767000000000000000e+03 3.712902450561523438e+01 -3.257905960083007812e+01 2.989035546779632568e-01 -1.579552590847015381e-01 4.228448867797851562e-02 3.711136430501937866e-02
2.768000000000000000e+03 3.831382751464843750e+01 -3.183836364746093750e+01 2.265459150075912476e-01 -6.831012666225433350e-02 4.747073352336883545e-02 8.457756787538528442e-02
2.769000000000000000e+03 4.630424118041992188e+01 2.586331176757812500e+01 -3.416658341884613037e-01 9.398673474788665771e-02 -7.430373132228851318e-02 2.599126100540161133e-01
2.770000000000000000e+03 6.877738952636718750e+01 1.124546051025390625e+00 -1.474336981773376465e-01 3.728106498718261719e+00 1.074201822280883789e+00 2.954829037189483643e-01
2.771000000000000000e+03 6.898052215576171875e+01 2.075961351394653320e+00 -1.865175664424896240e-01 3.892833709716796875e+00 1.111894845962524414e+00 2.701105177402496338e-01
2.772000000000000000e+03 9.294888496398925781e+00 -2.918607330322265625e+01 2.016511410474777222e-01 -1.863799095153808594e-01 4.581372719258069992e-03 -1.288458555936813354e-01
2.773000000000000000e+03 4.528643035888671875e+01 1.974380111694335938e+01 -3.303425014019012451e-01 8.834101259708404541e-02 -7.260043919086456299e-02 -6.667468696832656860e-04
2.774000000000000000e+03 7.297846984863281250e+01 1.664165878295898438e+01 -9.858565926551818848e-01 1.310276508331298828e+01 3.635072708129882812e+00 1.601125001907348633e+00
2.775000000000000000e+03 7.382876586914062500e+01 2.268032646179199219e+01 -1.263703942298889160e+00 1.349228668212890625e+01 3.668574810028076172e+00 -2.436531521379947662e-02
2.776000000000000000e+03 7.323198699951171875e+01 1.577119445800781250e+01 -1.351774096488952637e+00 1.165894412994384766e+01 3.092150926589965820e+00 7.793567180633544922e-01
2.777000000000000000e+03 7.178273773193359375e+01 2.233302688598632812e+01 8.802640438079833984e-02 8.933948516845703125e+00 2.706592559814453125e+00 -4.144752979278564453e+00
2.778000000000000000e+03 7.524664306640625000e+01 1.862254524230957031e+01 4.447250366210937500e+00 1.161345577239990234e+01 4.818212032318115234e+00 -2.260522842407226562e+00
2.779000000000000000e+03 7.540502929687500000e+01 1.693188667297363281e+01 4.109912812709808350e-01 1.149114513397216797e+01 3.570640802383422852e+00 -2.519880056381225586e+00
2.780000000000000000e+03 7.109788513183593750e+01 1.659770011901855469e+01 7.273535132408142090e-01 6.282762527465820312e+00 2.103034973144531250e+00 3.251021862030029297e+00
2.781000000000000000e+03 7.409642028808593750e+01 2.200976371765136719e+01 -3.584032058715820312e-01 1.454404354095458984e+01 4.255692005157470703e+00 9.971095919609069824e-01
2.782000000000000000e+03 7.500227355957031250e+01 2.313667488098144531e+01 -9.412926435470581055e-01 1.151008796691894531e+01 3.170638561248779297e+00 1.498717188835144043e+00
2.783000000000000000e+03 7.577653503417968750e+01 2.166923713684082031e+01 1.500824689865112305e+00 1.076555633544921875e+01 3.679914474487304688e+00 2.420720815658569336e+00
2.784000000000000000e+03 7.571743011474609375e+01 2.107049560546875000e+01 2.588287353515625000e+00 1.069457721710205078e+01 3.984859466552734375e+00 2.264702320098876953e+00
2.785000000000000000e+03 7.638714599609375000e+01 2.159880256652832031e+01 1.415184259414672852e+00 9.331310272216796875e+00 3.223948478698730469e+00 2.192034482955932617e+00
2.786000000000000000e+03 7.448227691650390625e+01 2.532099342346191406e+01 -1.557330965995788574e+00 9.729750633239746094e+00 2.451725959777832031e+00 2.077379375696182251e-01
2.787000000000000000e+03 7.320479583740234375e+01 2.289923286437988281e+01 -1.500738382339477539e+00 1.254442214965820312e+01 3.313105344772338867e+00 -1.469691157341003418e+00
2.788000000000000000e+03 7.032148742675781250e+01 2.274204254150390625e+01 4.064118266105651855e-01 4.453630924224853516e+00 1.458012819290161133e+00 -2.899464130401611328e+00
2.789000000000000000e+03 6.977450561523437500e+01 2.253497123718261719e+01 4.295882880687713623e-01 2.864135742187500000e+00 9.881172180175781250e-01 -2.157631635665893555e+00
2.790000000000000000e+03 7.004930877685546875e+01 2.315831375122070312e+01 1.757242381572723389e-01 4.171124935150146484e+00 1.304054737091064453e+00 -2.627735376358032227e+00
2.791000000000000000e+03 7.126924896240234375e+01 1.560271549224853516e+01 -1.546515673398971558e-01 7.167720794677734375e+00 2.103920698165893555e+00 2.607974767684936523e+00
2.792000000000000000e+03 7.631822204589843750e+01 1.937125587463378906e+01 3.166092872619628906e+00 8.815558433532714844e+00 3.594495534896850586e+00 -5.047101378440856934e-01
2.793000000000000000e+03 7.014164733886718750e+01 2.189623451232910156e+01 9.224643111228942871e-01 2.787405252456665039e+00 1.112960815429687500e+00 -2.316904544830322266e+00
2.794000000000000000e+03 8.568316459655761719e+00 6.785294532775878906e+00 2.382270322414115071e-04 -3.119718458037823439e-04 -2.212344406871125102e-05 -2.817903005052357912e-04
2.795000000000000000e+03 7.573239898681640625e+01 2.224223518371582031e+01 4.486910402774810791e-01 1.076982688903808594e+01 3.365555286407470703e+00 2.296379089355468750e+00
2.796000000000000000e+03 7.102762603759765625e+01 1.493061542510986328e+01 -2.669479846954345703e-01 6.535564422607421875e+00 1.880584955215454102e+00 2.235420703887939453e+00
2.797000000000000000e+03 7.652726650238037109e+00 7.321553230285644531e+00 3.079522284679114819e-04 -4.210939805489033461e-04 -3.394252780708484352e-05 -4.063196247443556786e-04
2.798000000000000000e+03 7.407482910156250000e+01 1.672859764099121094e+01 -7.317245006561279297e-01 1.368381881713867188e+01 3.885628223419189453e+00 -1.071287751197814941e+00
2.799000000000000000e+03 7.517977142333984375e+01 1.641776084899902344e+01 -3.654128313064575195e-01 1.166000270843505859e+01 3.388376951217651367e+00 -2.181263685226440430e+00
2.800000000000000000e+03 7.454515838623046875e+01 1.448450851440429688e+01 -1.406789541244506836e+00 1.049494075775146484e+01 2.726445436477661133e+00 -8.749915361404418945e-01
2.801000000000000000e+03 7.378713989257812500e+01 1.392911911010742188e+01 -1.440268635749816895e+00 9.754766464233398438e+00 2.494349241256713867e+00 -8.379606902599334717e-02
2.802000000000000000e+03 7.346336364746093750e+01 1.345306968688964844e+01 -1.353500247001647949e+00 9.195048332214355469e+00 2.352464199066162109e+00 1.168468296527862549e-01
2.803000000000000000e+03 1.196695709228515625e+01 6.386459350585937500e+00 6.413171649910509586e-04 -3.716521605383604765e-04 8.089950279099866748e-05 3.157137543894350529e-04
2.804000000000000000e+03 2.533067131042480469e+01 -9.554276466369628906e+00 -4.116925895214080811e-01 1.941171884536743164e-01 -6.527262181043624878e-02 -4.767213463783264160e-01
2.805000000000000000e+03 7.531330108642578125e+01 1.514817142486572266e+01 -1.081064105033874512e+00 1.069466209411621094e+01 2.884079456329345703e+00 -1.663209199905395508e+00
2.806000000000000000e+03 7.500300598144531250e+01 1.590767097473144531e+01 -8.621063232421875000e-01 1.148938941955566406e+01 3.188184976577758789e+00 -1.771435499191284180e+00
2.807000000000000000e+03 7.210644531250000000e+01 1.350022602081298828e+01 -1.014608502388000488e+00 7.869175434112548828e+00 2.056370019912719727e+00 1.060743451118469238e+00
2.808000000000000000e+03 7.154718017578125000e+01 1.376858043670654297e+01 -7.610487937927246094e-01 7.192762374877929688e+00 1.929514050483703613e+00 1.422438979148864746e+00
2.809000000000000000e+03 7.442446136474609375e+01 1.289489459991455078e+01 -1.286638736724853516e+00 9.202971458435058594e+00 2.374899864196777344e+00 -5.177653431892395020e-01
2.810000000000000000e+03 7.396658325195312500e+01 1.506172180175781250e+01 -1.475643396377563477e+00 1.105507183074951172e+01 2.873828411102294922e+00 -3.299396038055419922e-01
2.811000000000000000e+03 8.212581634521484375e+00 -7.437512874603271484e+00 -1.057549193501472473e-01 -1.179221794009208679e-01 -6.710313260555267334e-02 8.066362142562866211e-02
2.812000000000000000e+03 8.560054779052734375e+00 7.503354072570800781e+00 8.251644903793931007e-04 -3.594398149289190769e-04 1.397174055455252528e-04 -1.406572264386340976e-04
2.813000000000000000e+03 7.238954544067382812e+00 7.943687438964843750e+00 6.718827062286436558e-04 -3.421283909119665623e-04 9.892629168462008238e-05 -2.227801887784153223e-04
2.814000000000000000e+03 7.184857940673828125e+01 2.783452224731445312e+01 -8.879646062850952148e-01 6.595163822174072266e+00 1.712159752845764160e+00 -1.184188723564147949e+00
2.815000000000000000e+03 7.269238281250000000e+01 2.630769538879394531e+01 -1.327662110328674316e+00 8.024679183959960938e+00 2.009104967117309570e+00 -1.137686967849731445e+00
2.816000000000000000e+03 7.451969909667968750e+01 2.285613822937011719e+01 -1.005780935287475586e+00 1.248340797424316406e+01 3.443288087844848633e+00 1.024078130722045898e+00
2.817000000000000000e+03 1.013914585113525391e+01 -6.480596542358398438e+00 -7.513237744569778442e-02 -1.643666476011276245e-01 -7.184970378875732422e-02 4.180677235126495361e-02
2.818000000000000000e+03 1.090077781677246094e+01 -6.487982273101806641e+00 -8.156212419271469116e-02 -1.754147857427597046e-01 -7.709307223558425903e-02 2.145880647003650665e-02
2.819000000000000000e+03 7.558487892150878906e+00 -8.328688621520996094e+00 -1.280950605869293213e-01 -9.439244121313095093e-02 -6.674624979496002197e-02 6.858292222023010254e-02
2.820000000000000000e+03 6.119571685791015625e+00 -1.052457904815673828e+01 -1.839547455310821533e-01 -4.578374698758125305e-02 -6.892155110836029053e-02 1.133213285356760025e-02
2.821000000000000000e+03 7.535749053955078125e+01 2.225233840942382812e+01 2.859916388988494873e-01 1.151943778991699219e+01 3.541628837585449219e+00 2.197620153427124023e+00
2.822000000000000000e+03 7.479732513427734375e+01 2.244618034362792969e+01 -3.746144771575927734e-01 1.267850208282470703e+01 3.691166162490844727e+00 1.683032035827636719e+00
2.823000000000000000e+03 7.199996185302734375e+01 -1.605280041694641113e+00 -1.279175728559494019e-01 5.738057613372802734e+00 1.683042049407958984e+00 2.083469331264495850e-01
2.824000000000000000e+03 7.358295440673828125e+01 -5.371423244476318359e+00 -2.446597367525100708e-01 6.631042480468750000e+00 1.915914773941040039e+00 3.207685351371765137e-01
2.825000000000000000e+03 3.784249496459960938e+01 -1.135490226745605469e+01 1.107144877314567566e-01 -2.470169812440872192e-01 -4.089074954390525818e-02 -3.859271109104156494e-02
2.826000000000000000e+03 6.554993438720703125e+01 -3.005521297454833984e+00 4.065087810158729553e-02 1.949379086494445801e+00 5.970090031623840332e-01 1.444799900054931641e-01
2.827000000000000000e+03 6.369228363037109375e+01 -3.391346693038940430e+00 7.407310605049133301e-02 9.968153238296508789e-01 3.212665319442749023e-01 1.853857040405273438e-01
2.828000000000000000e+03 4.593481063842773438e+01 1.627611732482910156e+01 -1.460528373718261719e-01 1.421016734093427658e-02 -3.955280035734176636e-02 -3.806502744555473328e-02
2.829000000000000000e+03 7.281873321533203125e+01 1.134225273132324219e+01 -9.589969515800476074e-01 7.564050197601318359e+00 1.981515884399414062e+00 2.267106473445892334e-01
2.830000000000000000e+03 4.351777267456054688e+01 -5.676752567291259766e+00 -9.224117994308471680e-01 2.507140040397644043e-01 -2.015093266963958740e-01 -1.977954655885696411e-01
2.831000000000000000e+03 7.247192382812500000e+01 7.535491943359375000e+00 -5.779039859771728516e-01 6.477934837341308594e+00 1.770009279251098633e+00 1.138506531715393066e-01
2.832000000000000000e+03 5.950316905975341797e+00 -8.549400329589843750e+00 -1.124175339937210083e-01 -3.148094937205314636e-02 -4.316954314708709717e-02 8.169333636760711670e-02
2.833000000000000000e+03 7.368012237548828125e+01 2.321327018737792969e+01 -1.563495397567749023e+00 1.224191856384277344e+01 3.203526735305786133e+00 -5.453492403030395508e-01
2.834000000000000000e+03 1.163845825195312500e+01 1.295923995971679688e+01 1.266158185899257660e-03 -1.902964897453784943e-03 -1.910420105559751391e-04 2.328544942429289222e-04
2.835000000000000000e+03 7.299343872070312500e+01 1.003598976135253906e+01 -7.949168682098388672e-01 7.255962848663330078e+00 1.938313722610473633e+00 2.730663679540157318e-02
2.836000000000000000e+03 6.918490600585937500e+01 2.431156337261199951e-01 -1.437011063098907471e-01 3.925920248031616211e+00 1.134665727615356445e+00 2.587608098983764648e-01
2.837000000000000000e+03 2.303413581848144531e+01 -8.814457893371582031e+00 -4.694942831993103027e-01 2.174325734376907349e-01 -7.561851292848587036e-02 -4.165256917476654053e-01
2.838000000000000000e+03 1.136475563049316406e+01 1.595961284637451172e+01 5.629801889881491661e-04 -2.770888386294245720e-03 -6.623724475502967834e-04 -1.514713512733578682e-04
2.839000000000000000e+03 1.305352020263671875e+01 1.602589225769042969e+01 4.004931834060698748e-04 -3.031788161024451256e-03 -7.893884903751313686e-04 4.904911038465797901e-04
2.840000000000000000e+03 7.324588012695312500e+01 1.184056186676025391e+01 -1.075705647468566895e+00 8.166554450988769531e+00 2.127254724502563477e+00 4.873205348849296570e-02
2.841000000000000000e+03 1.016160106658935547e+01 1.119617938995361328e+01 1.161104184575378895e-03 -1.154885510914027691e-03 1.865615899987460580e-06 7.406582881230860949e-05
2.842000000000000000e+03 1.251865673065185547e+01 7.075973510742187500e+00 3.513097180984914303e-04 -9.482150198891758919e-05 7.694646774325519800e-05 3.140363842248916626e-04
2.843000000000000000e+03 8.708006858825683594e+00 1.162533092498779297e+01 8.916921215131878853e-04 -1.282483106479048729e-03 -1.172372940345667303e-04 -4.958564531989395618e-04
2.844000000000000000e+03 7.801040649414062500e+00 1.196739578247070312e+01 1.032111118547618389e-03 -9.266150300391018391e-04 3.164880399708636105e-05 -6.095882272347807884e-04
2.845000000000000000e+03 7.109783172607421875e+00 -1.042039299011230469e+01 -2.143388092517852783e-01 -1.058054342865943909e-01 -9.604327380657196045e-02 8.520895615220069885e-03
2.846000000000000000e+03 1.206441974639892578e+01 -7.027235984802246094e+00 -1.434205621480941772e-01 -2.268569916486740112e-01 -1.110832616686820984e-01 -4.233559221029281616e-02
2.847000000000000000e+03 2.911513900756835938e+01 -9.299898147583007812e+00 -5.776024460792541504e-01 -2.245194092392921448e-02 -1.800163239240646362e-01 -5.004380345344543457e-01
2.848000000000000000e+03 3.968336868286132812e+01 -1.236320590972900391e+01 2.727042436599731445e-01 -1.371559798717498779e-01 4.066447913646697998e-02 -3.721430152654647827e-02
2.849000000000000000e+03 7.303234100341796875e+01 4.731092929840087891e+00 -3.282204270362854004e-01 6.508041858673095703e+00 1.853946447372436523e+00 1.109821647405624390e-01
2.850000000000000000e+03 6.184204101562500000e+01 -6.966356754302978516e+00 -1.155196204781532288e-01 1.918558627367019653e-01 2.290087379515171051e-02 3.616995811462402344e-01
2.851000000000000000e+03 6.145891189575195312e+01 -4.903379917144775391e+00 2.056126855313777924e-02 2.676192820072174072e-01 8.645416051149368286e-02 2.857020497322082520e-01
2.852000000000000000e+03 6.802140045166015625e+01 2.690269470214843750e+00 -2.019424140453338623e-01 3.290721893310546875e+00 9.266338348388671875e-01 3.151850998401641846e-01
2.853000000000000000e+03 5.639680862426757812e+00 1.583077430725097656e+01 -3.018386196345090866e-04 -4.382762999739497900e-04 -2.220344758825376630e-04 -1.298235030844807625e-03
2.854000000000000000e+03 4.025458908081054688e+01 -1.148723697662353516e+01 1.159847751259803772e-01 -1.129036024212837219e-01 9.243535459972918034e-04 -1.660660840570926666e-02
2.855000000000000000e+03 3.824578475952148438e+01 -1.226513862609863281e+01 2.897191941738128662e-01 -2.448433935642242432e-01 1.346274558454751968e-02 -1.451938878744840622e-02
2.856000000000000000e+03 7.047637176513671875e+01 2.954820060729980469e+01 -3.662229478359222412e-01 5.189200878143310547e+00 1.446893334388732910e+00 -1.185176730155944824e+00
2.857000000000000000e+03 9.920416831970214844e+00 1.560435581207275391e+01 6.261147209443151951e-04 -2.523863222450017929e-03 -5.693245911970734596e-04 -5.034522619098424911e-04
2.858000000000000000e+03 1.151752662658691406e+01 1.440135192871093750e+01 1.234765630215406418e-03 -2.465924713760614395e-03 -3.693476901389658451e-04 1.548253385408315808e-05
2.859000000000000000e+03 7.186457824707031250e+01 -8.312665939331054688e+00 -5.185980200767517090e-01 6.021334171295166016e+00 1.650820851325988770e+00 3.561288118362426758e-01
2.860000000000000000e+03 6.940543365478515625e+01 -6.541644573211669922e+00 -3.989515602588653564e-01 4.394208431243896484e+00 1.198577046394348145e+00 3.255451843142509460e-02
2.861000000000000000e+03 6.741491699218750000e+01 -5.725371360778808594e+00 -1.882737129926681519e-01 2.998932838439941406e+00 8.431977033615112305e-01 -2.535297349095344543e-02
2.862000000000000000e+03 6.692835235595703125e+01 -8.033986091613769531e+00 -3.959057629108428955e-01 2.664864540100097656e+00 6.806876659393310547e-01 -2.628442645072937012e-01
2.863000000000000000e+03 4.222850799560546875e+01 -1.087169075012207031e+01 3.558605536818504333e-02 1.382090300321578979e-01 5.213852599263191223e-02 2.024825476109981537e-02
2.864000000000000000e+03 8.835356712341308594e+00 1.337281417846679688e+01 7.200462860055267811e-04 -1.481916173361241817e-03 -2.285609807586297393e-04 -4.723367164842784405e-04
2.865000000000000000e+03 6.864983558654785156e+00 1.159799385070800781e+01 5.599824944511055946e-04 -8.400036604143679142e-04 -8.400633669225499034e-05 -8.485006401315331459e-04
2.866000000000000000e+03 4.188825988769531250e+01 -9.724681854248046875e+00 -1.774663329124450684e-01 8.081202208995819092e-02 -2.899629250168800354e-02 -2.156179025769233704e-02
2.867000000000000000e+03 8.481667518615722656e+00 -2.103926849365234375e+01 1.200156062841415405e-01 -2.956083118915557861e-01 -5.267781019210815430e-02 -4.151318073272705078e-01
2.868000000000000000e+03 8.356537818908691406e+00 2.472699165344238281e+01 -4.616101272404193878e-03 -5.102572496980428696e-03 -2.915602177381515503e-03 4.611623007804155350e-03
2.869000000000000000e+03 5.785817337036132812e+01 -4.255188941955566406e+00 -2.122869938611984253e-01 -3.146508336067199707e-01 -1.580813527107238770e-01 3.140662014484405518e-01
2.870000000000000000e+03 6.924405670166015625e+01 2.617060661315917969e+01 -3.136136829853057861e-01 4.057358264923095703e+00 1.123123288154602051e+00 -1.941420793533325195e+00
2.871000000000000000e+03 7.063558197021484375e+01 2.673943901062011719e+01 -6.792204380035400391e-01 5.733684539794921875e+00 1.516339302062988281e+00 -1.836432814598083496e+00
2.872000000000000000e+03 4.589732742309570312e+01 -5.245157241821289062e+00 -8.237217068672180176e-01 4.218728840351104736e-01 -1.205546483397483826e-01 -1.903581619262695312e-01
2.873000000000000000e+03 1.382345867156982422e+01 2.212313652038574219e+01 -1.182502042502164841e-02 -3.580348799005150795e-03 -4.621610511094331741e-03 4.386263433843851089e-03
2.874000000000000000e+03 1.267850208282470703e+01 2.193072891235351562e+01 -9.330216795206069946e-03 -4.332542885094881058e-03 -4.098827950656414032e-03 3.673673607409000397e-03
2.875000000000000000e+03 7.305906677246093750e+01 3.200566768646240234e+00 -2.335831820964813232e-01 6.435791015625000000e+00 1.860662341117858887e+00 1.489282697439193726e-01
2.876000000000000000e+03 6.474125671386718750e+01 -2.504263222217559814e-01 -1.242976263165473938e-02 1.524132847785949707e+00 4.535109102725982666e-01 1.608858406543731689e-01
2.877000000000000000e+03 6.358942031860351562e+01 -1.162803649902343750e+00 2.708059176802635193e-02 9.864584207534790039e-01 3.040617108345031738e-01 1.428151428699493408e-01
2.878000000000000000e+03 7.745809555053710938e+00 8.557565689086914062e+00 6.569201359525322914e-04 -2.837527717929333448e-04 1.119502048823051155e-04 -3.776199300773441792e-04
2.879000000000000000e+03 6.312728118896484375e+01 -4.610271453857421875e+00 7.170169800519943237e-02 7.459159493446350098e-01 2.452853024005889893e-01 2.109248340129852295e-01
2.880000000000000000e+03 6.179666900634765625e+01 -6.399785280227661133e-01 -9.276973456144332886e-02 3.353554010391235352e-01 7.277569919824600220e-02 5.829297006130218506e-02
2.881000000000000000e+03 7.163459777832031250e+01 -4.680357456207275391e+00 -2.501602172851562500e-01 5.595092296600341797e+00 1.603479623794555664e+00 2.110697180032730103e-01
2.882000000000000000e+03 3.387084197998046875e+01 -9.927020072937011719e+00 -3.902990221977233887e-01 -2.041071951389312744e-01 -1.783218532800674438e-01 -1.469667106866836548e-01
2.883000000000000000e+03 3.277526092529296875e+01 -1.027541160583496094e+01 -2.680407762527465820e-01 -1.454868167638778687e-01 -1.240582764148712158e-01 -2.108564078807830811e-01
2.884000000000000000e+03 6.442357540130615234e+00 1.316417312622070312e+01 8.848668076097965240e-04 -7.309289067052304745e-04 4.618136881617829204e-05 -9.978301823139190674e-04
2.885000000000000000e+03 1.160418415069580078e+01 -8.334549903869628906e+00 -2.385462075471878052e-01 -2.818031311035156250e-01 -1.561048030853271484e-01 -4.004234820604324341e-02
2.886000000000000000e+03 6.024971485137939453e+00 -9.490649223327636719e+00 -1.361718177795410156e-01 -3.790745884180068970e-02 -5.222378298640251160e-02 5.334401875734329224e-02
2.887000000000000000e+03 4.031953048706054688e+01 -2.704567718505859375e+01 6.428036093711853027e-02 1.496976017951965332e-01 6.419339030981063843e-02 5.300170928239822388e-02
2.888000000000000000e+03 6.481329345703125000e+01 3.342055892944335938e+01 6.063840985298156738e-01 2.099581480026245117e+00 8.117896914482116699e-01 -5.280985832214355469e-01
2.889000000000000000e+03 7.258782196044921875e+01 1.010993272066116333e-01 -1.465545147657394409e-01 6.072844982147216797e+00 1.777887105941772461e+00 2.095104902982711792e-01
2.890000000000000000e+03 7.301601409912109375e+01 -1.134099602699279785e+00 -1.351588815450668335e-01 6.307532310485839844e+00 1.851711988449096680e+00 2.249427288770675659e-01
2.891000000000000000e+03 2.614714431762695312e+01 -9.045997619628906250e+00 -5.693543553352355957e-01 1.935825198888778687e-01 -1.127315536141395569e-01 -4.630578160285949707e-01
2.892000000000000000e+03 6.020738983154296875e+01 -4.182200431823730469e+00 -4.313003644347190857e-02 -1.963589340448379517e-02 -1.882977969944477081e-02 3.003641664981842041e-01
2.893000000000000000e+03 7.491417884826660156e+00 -2.518401527404785156e+01 2.024417668581008911e-01 -3.000299334526062012e-01 -2.927645482122898102e-02 -2.555163800716400146e-01
2.894000000000000000e+03 7.231074523925781250e+01 1.660842132568359375e+01 -4.856071174144744873e-01 1.109430217742919922e+01 3.182608604431152344e+00 3.002242326736450195e+00
2.895000000000000000e+03 7.330894470214843750e+01 1.657127571105957031e+01 -1.097524404525756836e+00 1.343274879455566406e+01 3.700567483901977539e+00 7.704122662544250488e-01
2.896000000000000000e+03 7.365238189697265625e+01 1.647147750854492188e+01 -1.158250927925109863e+00 1.338069915771484375e+01 3.666734695434570312e+00 1.759520173072814941e-02
2.897000000000000000e+03 7.066074371337890625e+01 2.294028282165527344e+01 3.056816160678863525e-01 5.300331115722656250e+00 1.681803941726684570e+00 -3.220588684082031250e+00
2.898000000000000000e+03 7.418460845947265625e+01 2.256150627136230469e+01 -9.516994357109069824e-01 1.328111934661865234e+01 3.698825836181640625e+00 6.397398114204406738e-01
2.899000000000000000e+03 7.154228973388671875e+01 1.661330413818359375e+01 4.180671572685241699e-01 8.056548118591308594e+00 2.542384386062622070e+00 3.496602535247802734e+00
2.900000000000000000e+03 7.425216674804687500e+01 2.379364395141601562e+01 -1.590762853622436523e+00 1.148059082031250000e+01 2.966948270797729492e+00 2.802442610263824463e-01
2.901000000000000000e+03 7.442222595214843750e+01 2.218711662292480469e+01 -2.850780487060546875e-01 1.352378273010253906e+01 3.971611261367797852e+00 1.367525935173034668e+00
2.902000000000000000e+03 7.139808654785156250e+01 2.257972908020019531e+01 2.312448769807815552e-01 7.389352321624755859e+00 2.286179065704345703e+00 -3.876547574996948242e+00
2.903000000000000000e+03 7.125584411621093750e+01 2.447307586669921875e+01 -8.011158108711242676e-01 7.031248092651367188e+00 1.869039773941040039e+00 -2.563708066940307617e+00
2.904000000000000000e+03 7.299671936035156250e+01 2.419276618957519531e+01 -1.592216253280639648e+00 1.023075008392333984e+01 2.591560125350952148e+00 -1.414531230926513672e+00
2.905000000000000000e+03 7.140529632568359375e+01 1.454022502899169922e+01 -5.845332741737365723e-01 7.243567466735839844e+00 1.997710227966308594e+00 1.901674509048461914e+00
2.906000000000000000e+03 7.543487548828125000e+01 1.571784591674804688e+01 -7.694303393363952637e-01 1.092950439453125000e+01 3.048022270202636719e+00 -1.997590780258178711e+00
2.907000000000000000e+03 7.442138671875000000e+01 1.659599876403808594e+01 -6.327304244041442871e-01 1.309332752227783203e+01 3.738178968429565430e+00 -1.377131700515747070e+00
2.908000000000000000e+03 7.046306610107421875e+01 2.237517356872558594e+01 8.297878503799438477e-01 4.215287208557128906e+00 1.513522505760192871e+00 -3.080145120620727539e+00
2.909000000000000000e+03 7.552220153808593750e+01 1.747324943542480469e+01 1.440868020057678223e+00 1.130849647521972656e+01 3.824809312820434570e+00 -2.661660432815551758e+00
2.910000000000000000e+03 6.540525436401367188e+00 -7.551023960113525391e+00 -7.577872276306152344e-02 -4.459046572446823120e-02 -3.611075505614280701e-02 9.593819081783294678e-02
2.911000000000000000e+03 6.774312496185302734e+00 -8.461809158325195312e+00 -1.150760129094123840e-01 -6.567373126745223999e-02 -5.422492325305938721e-02 8.119415491819381714e-02
2.912000000000000000e+03 7.397372436523437500e+01 1.553981113433837891e+01 -1.406235218048095703e+00 1.176605129241943359e+01 3.107944965362548828e+00 -4.079822599887847900e-01
2.913000000000000000e+03 7.644414520263671875e+01 2.112112998962402344e+01 2.088547468185424805e+00 9.091022491455078125e+00 3.353871107101440430e+00 2.026453971862792969e+00
2.914000000000000000e+03 9.963127136230468750e+00 6.337528228759765625e+00 2.589076757431030273e-04 -3.206271503586322069e-04 -1.851584056566935033e-05 5.246934597380459309e-05
2.915000000000000000e+03 6.975463104248046875e+01 2.442326545715332031e+01 -2.369665056467056274e-01 4.408433914184570312e+00 1.251440286636352539e+00 -2.378386974334716797e+00
2.916000000000000000e+03 7.143551635742187500e+01 1.519702529907226562e+01 -4.267573654651641846e-01 7.467782020568847656e+00 2.112307548522949219e+00 2.338804006576538086e+00
2.917000000000000000e+03 9.652482986450195312e+00 5.492850303649902344e+00 6.915530539117753506e-04 -2.498726535122841597e-04 1.325041230302304029e-04 -3.523645500536076725e-05
2.918000000000000000e+03 9.490656852722167969e+00 7.415307521820068359e+00 3.495109849609434605e-04 -5.482394481077790260e-04 -5.961853457847610116e-05 -9.481162851443514228e-05
2.919000000000000000e+03 4.698058700561523438e+01 -4.681794643402099609e+00 -8.428575992584228516e-01 4.330725967884063721e-01 -1.229354962706565857e-01 -1.644188910722732544e-01
2.920000000000000000e+03 6.309643268585205078e+00 6.357202529907226562e+00 3.619193157646805048e-04 -2.192668471252545714e-04 4.279574204701930285e-05 -3.708051517605781555e-04
2.921000000000000000e+03 1.249439334869384766e+01 -7.820653915405273438e+00 -1.961859464645385742e-01 -2.844150364398956299e-01 -1.441802978515625000e-01 -8.674493432044982910e-02
2.922000000000000000e+03 6.834898376464843750e+01 2.445367813110351562e+01 -2.434119731187820435e-01 2.475283861160278320e+00 6.695615649223327637e-01 -1.766329646110534668e+00
2.923000000000000000e+03 6.904455566406250000e+01 2.445785713195800781e+01 -1.856371611356735229e-01 3.240187406539916992e+00 9.163650870323181152e-01 -2.006115436553955078e+00
2.924000000000000000e+03 7.389353275299072266e+00 -7.467886924743652344e+00 -9.154746681451797485e-02 -8.095815032720565796e-02 -5.175168439745903015e-02 9.780082106590270996e-02
2.925000000000000000e+03 9.771645545959472656e+00 -7.092672348022460938e+00 -9.758071601390838623e-02 -1.669811755418777466e-01 -7.936856895685195923e-02 4.608264937996864319e-02
2.926000000000000000e+03 9.544824600219726562e+00 1.678880691528320312e+01 1.522853999631479383e-04 -2.683409256860613823e-03 -7.593371556140482426e-04 -6.135525181889533997e-04
2.927000000000000000e+03 7.056076812744140625e+01 -6.268289089202880859e+00 -3.561126589775085449e-01 5.055374622344970703e+00 1.409778594970703125e+00 1.508743613958358765e-01
2.928000000000000000e+03 7.065570068359375000e+01 -7.488121509552001953e+00 -5.005436539649963379e-01 5.244659900665283203e+00 1.423234939575195312e+00 1.657033264636993408e-01
2.929000000000000000e+03 7.414908599853515625e+01 1.217098045349121094e+01 -1.142166614532470703e+00 8.735064506530761719e+00 2.277869462966918945e+00 -3.818707764148712158e-01
2.930000000000000000e+03 7.239933776855468750e+01 1.398518753051757812e+01 -1.137197852134704590e+00 8.545294761657714844e+00 2.222429037094116211e+00 1.095467925071716309e+00
2.931000000000000000e+03 7.399416351318359375e+01 2.466280555725097656e+01 -1.662032127380371094e+00 1.025796890258789062e+01 2.578780889511108398e+00 -2.352618277072906494e-01
2.932000000000000000e+03 7.240618133544921875e+01 2.527668952941894531e+01 -1.348144769668579102e+00 8.451106071472167969e+00 2.130888223648071289e+00 -1.667389035224914551e+00
2.933000000000000000e+03 1.231164550781250000e+01 1.209367275238037109e+01 1.129276934079825878e-03 -1.250859699212014675e-03 -3.647481935331597924e-05 6.804617587476968765e-04
2.934000000000000000e+03 8.755340576171875000e+00 9.695430755615234375e+00 5.193572142161428928e-04 -8.086757152341306210e-04 -8.679555321577936411e-05 -2.669955720193684101e-04
2.935000000000000000e+03 1.063890552520751953e+01 1.502097415924072266e+01 3.602724464144557714e-04 -2.468190155923366547e-03 -6.323753041215240955e-04 -2.730221603997051716e-04
2.936000000000000000e+03 6.971879577636718750e+01 2.543799591064453125e+01 -3.919430375099182129e-01 4.578795909881591797e+00 1.256055831909179688e+00 -2.098168373107910156e+00
2.937000000000000000e+03 7.057546997070312500e+01 2.795105934143066406e+01 -6.142187118530273438e-01 5.397340774536132812e+00 1.434936523437500000e+00 -1.477731704711914062e+00
2.938000000000000000e+03 8.840527534484863281e+00 9.039634704589843750e+00 9.413259685970842838e-04 -5.444758571684360504e-04 1.190550319734029472e-04 -1.408051903126761317e-04
2.939000000000000000e+03 3.900923156738281250e+01 -1.173122024536132812e+01 2.048756629228591919e-01 -1.938383281230926514e-01 3.311197273433208466e-03 -4.493900388479232788e-02
2.940000000000000000e+03 4.102988815307617188e+01 -1.098188304901123047e+01 4.076759144663810730e-02 -1.539887487888336182e-02 7.610615342855453491e-03 -1.093196775764226913e-02
2.941000000000000000e+03 6.246131896972656250e+01 -3.025421857833862305e+00 5.399831756949424744e-02 6.136367917060852051e-01 2.002905309200286865e-01 1.936020255088806152e-01
2.942000000000000000e+03 4.156088638305664062e+01 -8.667711257934570312e+00 -3.891116976737976074e-01 1.343116071075201035e-02 -1.127041652798652649e-01 -3.905788064002990723e-02
2.943000000000000000e+03 4.071643829345703125e+01 -9.942939758300781250e+00 -1.469476521015167236e-01 -5.920913442969322205e-02 -6.184703484177589417e-02 -2.306484244763851166e-02
2.944000000000000000e+03 7.291112518310546875e+01 1.254071807861328125e+01 -1.138755798339843750e+00 8.185949325561523438e+00 2.114157915115356445e+00 3.749309480190277100e-01
2.945000000000000000e+03 1.088004875183105469e+01 9.169089317321777344e+00 1.088802237063646317e-03 -5.708683165721595287e-04 1.553801557747647166e-04 2.445724385324865580e-04
2.946000000000000000e+03 1.171182346343994141e+01 1.056914424896240234e+01 1.140881911851465702e-03 -8.662368054501712322e-04 8.239353337557986379e-05 4.700728750322014093e-04
2.947000000000000000e+03 4.058527755737304688e+01 -1.292115402221679688e+01 3.225688338279724121e-01 -5.322343483567237854e-02 8.080361783504486084e-02 -3.290103003382682800e-02
2.948000000000000000e+03 4.105426788330078125e+01 -1.192889976501464844e+01 1.923560202121734619e-01 3.049891674891114235e-03 5.862177163362503052e-02 -1.408341340720653534e-02
2.949000000000000000e+03 7.060043334960937500e+01 2.042664051055908203e+00 -2.021501213312149048e-01 4.877695560455322266e+00 1.402663707733154297e+00 2.725582122802734375e-01
2.950000000000000000e+03 9.757304191589355469e+00 9.081255912780761719e+00 5.035890499129891396e-04 -9.293302427977323532e-04 -1.277223636861890554e-04 -1.589938037795946002e-04
2.951000000000000000e+03 7.088949584960937500e+01 3.915740013122558594e+00 -2.990272045135498047e-01 5.167909622192382812e+00 1.460664749145507812e+00 2.474950402975082397e-01
2.952000000000000000e+03 1.077446174621582031e+01 8.138502120971679688e+00 3.409609780646860600e-04 -6.248872377909719944e-04 -8.517787500750273466e-05 5.388001591200008988e-05
2.953000000000000000e+03 6.475331878662109375e+01 -4.096091747283935547e+00 6.593975424766540527e-02 1.549177527427673340e+00 4.845351576805114746e-01 9.948081523180007935e-02
2.954000000000000000e+03 7.035019683837890625e+01 -5.034723758697509766e+00 -2.778168022632598877e-01 4.843552112579345703e+00 1.369720578193664551e+00 1.377873867750167847e-01
2.955000000000000000e+03 6.903201293945312500e+01 2.532723808288574219e+01 -2.286360710859298706e-01 3.543173074722290039e+00 9.943611025810241699e-01 -2.075538158416748047e+00
2.956000000000000000e+03 6.825585174560546875e+01 -5.751248836517333984e+00 -2.412554472684860229e-01 3.538166284561157227e+00 9.890732765197753906e-01 -5.188628565520048141e-03
2.957000000000000000e+03 6.658614349365234375e+01 -5.330519199371337891e+00 -6.709529459476470947e-02 2.476155757904052734e+00 7.227181196212768555e-01 1.013799337670207024e-03
2.958000000000000000e+03 1.067069721221923828e+01 1.259138202667236328e+01 1.363156363368034363e-03 -1.646705670282244682e-03 -8.506479207426309586e-05 6.699071673210710287e-05
2.959000000000000000e+03 1.037752056121826172e+01 7.200256347656250000e+00 8.679354214109480381e-04 -4.384034837130457163e-04 1.288595813093706965e-04 6.219402712304145098e-05
2.960000000000000000e+03 1.076337146759033203e+01 6.063316345214843750e+00 6.963514606468379498e-04 -3.379152913112193346e-04 1.075308464351110160e-04 7.714641833445057273e-05
2.961000000000000000e+03 7.004946899414062500e+01 5.370146632194519043e-01 -1.638203561305999756e-01 4.582637310028076172e+00 1.325645208358764648e+00 2.580571472644805908e-01
2.962000000000000000e+03 4.412649536132812500e+01 -8.704793930053710938e+00 -3.052444756031036377e-01 3.429927527904510498e-01 1.132448576390743256e-02 -3.070744872093200684e-02
2.963000000000000000e+03 6.233856582641601562e+01 -1.761820793151855469e+00 -1.505778916180133820e-02 5.672665238380432129e-01 1.656626164913177490e-01 1.548219770193099976e-01
2.964000000000000000e+03 7.033161163330078125e+00 -9.444108963012695312e+00 -1.862479299306869507e-01 -8.992479741573333740e-02 -8.285181969404220581e-02 4.325753077864646912e-02
2.965000000000000000e+03 9.673641204833984375e+00 -9.393561363220214844e+00 -2.594343125820159912e-01 -2.237362712621688843e-01 -1.449511796236038208e-01 7.454182952642440796e-03
2.966000000000000000e+03 6.882415008544921875e+01 -4.434720993041992188e+00 -1.749427616596221924e-01 3.821771860122680664e+00 1.094048738479614258e+00 9.703507274389266968e-02
2.967000000000000000e+03 9.551919937133789062e+00 1.225766181945800781e+01 8.141604484990239143e-04 -1.564802136272192001e-03 -2.251924888696521521e-04 -4.436274757608771324e-04
2.968000000000000000e+03 8.410691261291503906e+00 1.037698078155517578e+01 9.992780396714806557e-04 -8.906693547032773495e-04 3.258260767324827611e-05 -5.104051087982952595e-04
2.969000000000000000e+03 7.152563476562500000e+01 -3.833777606487274170e-01 -1.392321437597274780e-01 5.406643390655517578e+00 1.580223321914672852e+00 2.340242713689804077e-01
2.970000000000000000e+03 7.055286407470703125e+01 -1.008062005043029785e+00 -1.143162101507186890e-01 4.854815006256103516e+00 1.422149658203125000e+00 2.568396627902984619e-01
2.971000000000000000e+03 7.905483722686767578e+00 1.764091682434082031e+01 -6.948147201910614967e-04 -2.178397728130221367e-03 -8.619637228548526764e-04 -1.111786696128547192e-03
2.972000000000000000e+03 9.199335098266601562e+00 1.595327472686767578e+01 -4.836051375605165958e-04 -2.109005115926265717e-03 -7.777830469422042370e-04 -1.039140508510172367e-03
2.973000000000000000e+03 7.091736602783203125e+01 3.158311080932617188e+01 -1.947685927152633667e-01 5.186474323272705078e+00 1.497511744499206543e+00 -8.886840343475341797e-01
2.974000000000000000e+03 1.119482517242431641e+01 1.158465099334716797e+01 7.961969822645187378e-04 -1.374688697978854179e-03 -1.735475379973649979e-04 6.210624997038394213e-05
2.975000000000000000e+03 4.866374588012695312e+01 2.805114364624023438e+01 -2.484711259603500366e-01 3.397479280829429626e-02 -6.434889882802963257e-02 4.009106457233428955e-01
2.976000000000000000e+03 4.453255081176757812e+01 2.188064956665039062e+01 -3.468264639377593994e-01 1.109199523925781250e-01 -7.077195495367050171e-02 8.217040449380874634e-02
2.977000000000000000e+03 1.068880367279052734e+01 2.102885627746582031e+01 -5.007429514080286026e-03 -3.444354748353362083e-03 -2.535535255447030067e-03 1.378036919049918652e-03
2.978000000000000000e+03 6.982048034667968750e+01 -3.584423363208770752e-01 -9.506911039352416992e-02 4.439970493316650391e+00 1.303470492362976074e+00 2.585558295249938965e-01
2.979000000000000000e+03 6.833167266845703125e+01 -3.555813431739807129e-01 -6.055087223649024963e-02 3.498171567916870117e+00 1.031286239624023438e+00 2.251694053411483765e-01
2.980000000000000000e+03 7.297575378417968750e+01 1.622465133666992188e+01 -1.165653109550476074e+00 1.214369678497314453e+01 3.293413162231445312e+00 1.447203874588012695e+00
2.981000000000000000e+03 7.206797790527343750e+01 2.242975997924804688e+01 -3.570957779884338379e-01 1.000325584411621094e+01 2.893847942352294922e+00 -3.888258934020996094e+00
2.982000000000000000e+03 7.398480987548828125e+01 1.596705341339111328e+01 -1.309308290481567383e+00 1.242842864990234375e+01 3.335736036300659180e+00 -4.476969242095947266e-01
2.983000000000000000e+03 7.123651885986328125e+01 2.303940010070800781e+01 -9.648495167493820190e-02 6.900431632995605469e+00 2.041183948516845703e+00 -3.409218549728393555e+00
2.984000000000000000e+03 7.223854064941406250e+01 2.331901931762695312e+01 -1.131740689277648926e+00 1.006390857696533203e+01 2.679650306701660156e+00 -2.897228240966796875e+00
2.985000000000000000e+03 7.167566680908203125e+01 1.572573089599609375e+01 -3.952872753143310547e-01 8.317632675170898438e+00 2.376703739166259766e+00 2.645005702972412109e+00
2.986000000000000000e+03 7.366945648193359375e+01 2.392840385437011719e+01 -1.685307025909423828e+00 1.111168193817138672e+01 2.827912330627441406e+00 -6.293132305145263672e-01
2.987000000000000000e+03 7.056159973144531250e+01 2.355603027343750000e+01 -1.391381323337554932e-01 5.452548503875732422e+00 1.594022989273071289e+00 -2.902565002441406250e+00
2.988000000000000000e+03 7.436791992187500000e+01 1.593460559844970703e+01 -1.196610689163208008e+00 1.221136856079101562e+01 3.304427385330200195e+00 -1.089988112449645996e+00
2.989000000000000000e+03 7.464770507812500000e+01 1.612595367431640625e+01 -9.365786314010620117e-01 1.211636066436767578e+01 3.353934764862060547e+00 -1.515186905860900879e+00
2.990000000000000000e+03 7.172863769531250000e+01 1.492278480529785156e+01 -7.380718588829040527e-01 8.042631149291992188e+00 2.191367864608764648e+00 2.037674188613891602e+00
2.991000000000000000e+03 7.187931060791015625e+01 1.424359416961669922e+01 -9.272169470787048340e-01 7.901969909667968750e+00 2.092426061630249023e+00 1.514120936393737793e+00
2.992000000000000000e+03 7.236617279052734375e+01 1.585258483886718750e+01 -9.284004569053649902e-01 1.025731563568115234e+01 2.798674583435058594e+00 2.159696340560913086e+00
2.993000000000000000e+03 7.294878387451171875e+01 1.483866405487060547e+01 -1.353615522384643555e+00 1.001181030273437500e+01 2.597458362579345703e+00 9.457846879959106445e-01
2.994000000000000000e+03 7.392958068847656250e+01 1.452463436126708984e+01 -1.484426975250244141e+00 1.042018127441406250e+01 2.680726289749145508e+00 -2.376211434602737427e-01
2.995000000000000000e+03 7.293138122558593750e+01 1.373915386199951172e+01 -1.315121769905090332e+00 9.035925865173339844e+00 2.316241264343261719e+00 6.003123521804809570e-01
2.996000000000000000e+03 7.339532470703125000e+01 1.465960025787353516e+01 -1.467732906341552734e+00 1.019817924499511719e+01 2.619133949279785156e+00 3.881417512893676758e-01
2.997000000000000000e+03 8.817461013793945312e+00 -6.523587703704833984e+00 -5.401603505015373230e-02 -1.190021634101867676e-01 -5.190546065568923950e-02 7.672546803951263428e-02
2.998000000000000000e+03 7.327311706542968750e+01 2.501692581176757812e+01 -1.622618556022644043e+00 9.595442771911621094e+00 2.391847133636474609e+00 -9.024674296379089355e-01
2.999000000000000000e+03 7.052387237548828125e+01 2.557193565368652344e+01 -6.520177125930786133e-01 5.688030242919921875e+00 1.510803818702697754e+00 -2.165970087051391602e+00
3.000000000000000000e+03 7.113594818115234375e+01 2.366527557373046875e+01 -4.105695784091949463e-01 6.787008762359619141e+00 1.912931799888610840e+00 -3.071864843368530273e+00
3.001000000000000000e+03 9.681578636169433594e+00 8.237959861755371094e+00 9.670802392065525055e-04 -4.966213018633425236e-04 1.411376724718138576e-04 9.050714288605377078e-05
3.002000000000000000e+03 7.049904632568359375e+01 2.446500587463378906e+01 -4.283391833305358887e-01 5.567671775817871094e+00 1.541799783706665039e+00 -2.568095445632934570e+00
3.003000000000000000e+03 8.337933540344238281e+00 -8.366374969482421875e+00 -1.591283231973648071e-01 -1.437112540006637573e-01 -9.085187315940856934e-02 6.036045774817466736e-02
3.004000000000000000e+03 7.090091705322265625e+01 -2.040686368942260742e+00 -1.258939355611801147e-01 5.064020156860351562e+00 1.481437802314758301e+00 2.257499396800994873e-01
3.005000000000000000e+03 6.991137695312500000e+01 -3.814087152481079102e+00 -1.529065966606140137e-01 4.508986949920654297e+00 1.306824088096618652e+00 1.511894017457962036e-01
3.006000000000000000e+03 1.284615707397460938e+01 1.689039421081542969e+01 -3.718972948263399303e-05 -2.674549119547009468e-03 -8.135216194204986095e-04 3.556584488251246512e-05
3.007000000000000000e+03 1.087775135040283203e+01 1.742076301574707031e+01 -4.837455344386398792e-04 -3.024437231943011284e-03 -1.052454812452197075e-03 -3.554077702574431896e-04
3.008000000000000000e+03 9.864176750183105469e+00 1.771265029907226562e+01 -1.518431818112730980e-03 -2.986365929245948792e-03 -1.351439394056797028e-03 -6.283321999944746494e-04
3.009000000000000000e+03 9.179530143737792969e+00 1.509699440002441406e+01 5.655555287376046181e-04 -1.891598571091890335e-03 -3.978129243478178978e-04 -4.341491730883717537e-04
3.010000000000000000e+03 8.098615646362304688e+00 9.267691612243652344e+00 7.372844847850501537e-04 -7.456510793417692184e-04 -2.509975956854759715e-06 -4.145335115026682615e-04
3.011000000000000000e+03 6.451166534423828125e+01 -2.192757606506347656e+00 5.729366466403007507e-02 1.424034833908081055e+00 4.443985521793365479e-01 1.490388065576553345e-01
3.012000000000000000e+03 6.794606781005859375e+01 -5.004631042480468750e+00 -1.345622986555099487e-01 3.317226409912109375e+00 9.547992348670959473e-01 3.122334927320480347e-02
3.013000000000000000e+03 6.922732543945312500e+01 -5.430747509002685547e+00 -2.491347789764404297e-01 4.146408557891845703e+00 1.169182181358337402e+00 6.016882136464118958e-02
3.014000000000000000e+03 8.658593177795410156e+00 8.298311233520507812e+00 4.405437794048339128e-04 -7.008758257143199444e-04 -7.809961971361190081e-05 -3.012865781784057617e-04
3.015000000000000000e+03 9.611409187316894531e+00 9.934751510620117188e+00 1.093158498406410217e-03 -8.329046540893614292e-04 7.807616202626377344e-05 -1.086618140107020736e-04
3.016000000000000000e+03 6.905827331542968750e+01 -1.156183481216430664e+00 -6.790294498205184937e-02 3.917899847030639648e+00 1.154999017715454102e+00 2.107059508562088013e-01
3.017000000000000000e+03 7.614048004150390625e+00 1.876698493957519531e+01 -1.054079621098935604e-03 -1.834778464399278164e-03 -8.666574140079319477e-04 -4.524796968325972557e-04
3.018000000000000000e+03 7.205346584320068359e+00 1.673065185546875000e+01 -6.270430167205631733e-04 -1.466034911572933197e-03 -6.279234075918793678e-04 -1.102883368730545044e-03
3.019000000000000000e+03 1.131920242309570312e+01 2.299555397033691406e+01 -8.680748753249645233e-03 -4.700690507888793945e-03 -4.014431498944759369e-03 4.214558750391006470e-03
3.020000000000000000e+03 6.486609935760498047e+00 2.169526290893554688e+01 -2.662864513695240021e-03 -1.978616463020443916e-03 -1.392444362863898277e-03 5.029980675317347050e-04
3.021000000000000000e+03 1.035162639617919922e+01 1.986341285705566406e+01 -3.907726611942052841e-03 -3.737655468285083771e-03 -2.293614670634269714e-03 3.964607021771371365e-04
3.022000000000000000e+03 1.060431003570556641e+01 1.020012378692626953e+01 6.187073304317891598e-04 -1.091631012968719006e-03 -1.418771134922280908e-04 1.018409534481179435e-06
3.023000000000000000e+03 1.121021080017089844e+01 6.854702949523925781e+00 3.536585136316716671e-04 -3.726626455318182707e-04 -5.701233476429479197e-06 1.532850001240149140e-04
3.024000000000000000e+03 4.393069458007812500e+01 2.338039779663085938e+01 -2.985351681709289551e-01 9.629136323928833008e-02 -6.067313998937606812e-02 1.465064734220504761e-01
3.025000000000000000e+03 1.256213283538818359e+01 2.295713424682617188e+01 -9.875636547803878784e-03 -4.930270370095968246e-03 -4.441772121936082840e-03 4.970761016011238098e-03
3.026000000000000000e+03 4.088760757446289062e+01 2.424045562744140625e+01 -2.257865071296691895e-01 6.362671405076980591e-02 -4.864794015884399414e-02 1.481541693210601807e-01
3.027000000000000000e+03 7.233367156982421875e+01 1.623093795776367188e+01 -7.062814831733703613e-01 1.072080230712890625e+01 3.004356145858764648e+00 2.563360214233398438e+00
3.028000000000000000e+03 7.179398345947265625e+01 1.531308937072753906e+01 -6.503252387046813965e-01 8.394456863403320312e+00 2.323239564895629883e+00 2.250437736511230469e+00
3.029000000000000000e+03 7.192533111572265625e+01 2.318819808959960938e+01 -7.707860469818115234e-01 9.039815902709960938e+00 2.480708837509155273e+00 -3.163941383361816406e+00
3.030000000000000000e+03 7.263404083251953125e+01 2.361163902282714844e+01 -1.418374419212341309e+00 1.050456619262695312e+01 2.725857496261596680e+00 -2.163552999496459961e+00
3.031000000000000000e+03 7.159691619873046875e+01 2.365735244750976562e+01 -6.906447410583496094e-01 7.893956184387207031e+00 2.160993337631225586e+00 -2.914733171463012695e+00
3.032000000000000000e+03 7.217739105224609375e+01 1.471221256256103516e+01 -9.983362555503845215e-01 8.743079185485839844e+00 2.323422908782958984e+00 1.591370463371276855e+00
3.033000000000000000e+03 7.241008758544921875e+01 1.549109745025634766e+01 -1.050369143486022949e+00 1.003572463989257812e+01 2.695606470108032227e+00 1.886665821075439453e+00
3.034000000000000000e+03 7.267935943603515625e+01 1.445054149627685547e+01 -1.285995960235595703e+00 9.314857482910156250e+00 2.408658504486083984e+00 1.053131461143493652e+00
3.035000000000000000e+03 7.180149841308593750e+01 2.423071670532226562e+01 -1.035261511802673340e+00 8.168299674987792969e+00 2.139911651611328125e+00 -2.475210428237915039e+00
3.036000000000000000e+03 7.319927978515625000e+01 1.419496059417724609e+01 -1.402024388313293457e+00 9.616938591003417969e+00 2.464474201202392578e+00 4.985025525093078613e-01
3.037000000000000000e+03 7.349662780761718750e+01 1.514180374145507812e+01 -1.455021619796752930e+00 1.096111011505126953e+01 2.851826429367065430e+00 3.241944015026092529e-01
3.038000000000000000e+03 6.646020507812500000e+01 -2.020801544189453125e+00 8.413833566009998322e-03 2.435241222381591797e+00 7.330965399742126465e-01 1.686918735504150391e-01
3.039000000000000000e+03 6.647129058837890625e+01 -3.731587171554565430e+00 1.243372820317745209e-02 2.459753751754760742e+00 7.416562438011169434e-01 1.002255752682685852e-01
3.040000000000000000e+03 7.732567310333251953e+00 2.018334197998046875e+01 -2.633265918120741844e-03 -2.432334236800670624e-03 -1.519680023193359375e-03 -1.403393835062161088e-04
3.041000000000000000e+03 6.329619407653808594e+00 2.022489929199218750e+01 -1.280561205931007862e-03 -1.378236804157495499e-03 -7.976394263096153736e-04 -1.320496812695637345e-04
3.042000000000000000e+03 8.265551567077636719e+00 1.620740318298339844e+01 3.599872288759797812e-04 -2.171633299440145493e-03 -5.434937775135040283e-04 -8.373289019800722599e-04
3.043000000000000000e+03 7.146099090576171875e+01 2.545974349975585938e+01 -9.741350412368774414e-01 7.068415641784667969e+00 1.828284263610839844e+00 -2.085514545440673828e+00
3.044000000000000000e+03 9.255125045776367188e+00 1.079013252258300781e+01 7.099676877260208130e-04 -1.157166319899260998e-03 -1.341595780104398727e-04 -2.632379764690995216e-04
3.045000000000000000e+03 6.968231964111328125e+01 1.455083131790161133e+00 -1.414427608251571655e-01 4.396975517272949219e+00 1.276659727096557617e+00 2.535163462162017822e-01
3.046000000000000000e+03 6.989060974121093750e+01 -1.873292684555053711e+00 -9.292900562286376953e-02 4.417906761169433594e+00 1.297493338584899902e+00 2.057569324970245361e-01
3.047000000000000000e+03 8.864896774291992188e+00 1.787628936767578125e+01 -7.033661240711808205e-04 -2.491432940587401390e-03 -9.584397776052355766e-04 -6.327397422865033150e-04
3.048000000000000000e+03 8.650363922119140625e+00 1.707184410095214844e+01 -9.871538495644927025e-04 -2.019873587414622307e-03 -9.021082660183310509e-04 -9.139652829617261887e-04
3.049000000000000000e+03 6.816130065917968750e+01 -3.585860967636108398e+00 -6.518818438053131104e-02 3.438731431961059570e+00 1.012062907218933105e+00 1.189350038766860962e-01
3.050000000000000000e+03 3.603859710693359375e+01 2.461514091491699219e+01 -1.317413151264190674e-01 -1.267879456281661987e-02 -4.332603141665458679e-02 1.181367412209510803e-01
3.051000000000000000e+03 9.249174118041992188e+00 -8.323297500610351562e+00 -1.807974874973297119e-01 -1.797346770763397217e-01 -1.081596538424491882e-01 3.610989823937416077e-02
3.052000000000000000e+03 1.170983219146728516e+01 2.457230758666992188e+01 -9.569426067173480988e-03 -6.538673304021358490e-03 -4.832429811358451843e-03 7.750819437205791473e-03
3.053000000000000000e+03 7.013607501983642578e+00 -1.881639862060546875e+01 -6.272189319133758545e-02 -2.637423872947692871e-01 -9.793928265571594238e-02 -4.218852818012237549e-01
3.054000000000000000e+03 8.394160270690917969e+00 -1.843909835815429688e+01 -1.078458651900291443e-01 -2.929837405681610107e-01 -1.202488839626312256e-01 -4.426452815532684326e-01
3.055000000000000000e+03 9.448574066162109375e+00 2.146952819824218750e+01 -4.977303091436624527e-03 -3.655656008049845695e-03 -2.589887706562876701e-03 1.463728956878185272e-03
3.056000000000000000e+03 8.904679298400878906e+00 1.887737274169921875e+01 -2.243818016722798347e-03 -2.892680931836366653e-03 -1.540949684567749500e-03 -4.771182721015065908e-04
3.057000000000000000e+03 7.266174316406250000e+01 1.624205589294433594e+01 -1.013827204704284668e+00 1.159811019897460938e+01 3.175284862518310547e+00 2.021968126296997070e+00
3.058000000000000000e+03 7.219789886474609375e+01 2.394054985046386719e+01 -1.205127000808715820e+00 9.265130996704101562e+00 2.418001174926757812e+00 -2.413104772567749023e+00
3.059000000000000000e+03 6.605509948730468750e+01 -6.463510990142822266e+00 -1.535877585411071777e-01 2.135814905166625977e+00 5.946681499481201172e-01 -7.359351962804794312e-02
3.060000000000000000e+03 6.714360046386718750e+01 -6.748805046081542969e+00 -2.384381741285324097e-01 2.805348396301269531e+00 7.700730562210083008e-01 -1.058469712734222412e-01
3.061000000000000000e+03 6.728707885742187500e+01 -4.388021945953369141e+00 -9.147081524133682251e-02 2.946662902832031250e+00 8.565576076507568359e-01 7.865276932716369629e-02
3.062000000000000000e+03 1.396467399597167969e+01 2.486372184753417969e+01 -1.606784574687480927e-02 -6.202450022101402283e-03 -6.681088358163833618e-03 1.136404648423194885e-02
3.063000000000000000e+03 1.274901676177978516e+01 2.596722221374511719e+01 -1.373765803873538971e-02 -8.458970114588737488e-03 -6.658988539129495621e-03 1.340678893029689789e-02
3.064000000000000000e+03 6.662483978271484375e+01 -2.386689484119415283e-01 -3.499282523989677429e-02 2.494042873382568359e+00 7.377150058746337891e-01 2.218266427516937256e-01
3.065000000000000000e+03 6.740298461914062500e+01 -1.131661415100097656e+00 -3.509636595845222473e-02 2.966266632080078125e+00 8.793510198593139648e-01 2.203542590141296387e-01
3.066000000000000000e+03 6.733950042724609375e+01 -2.811769723892211914e+00 -2.930402196943759918e-02 2.969229698181152344e+00 8.819776773452758789e-01 1.607711315155029297e-01
3.067000000000000000e+03 1.166744041442871094e+01 2.733842849731445312e+01 -8.964858949184417725e-03 -1.145759038627147675e-02 -6.126734893769025803e-03 1.312030572444200516e-02
3.068000000000000000e+03 7.267650604248046875e+01 1.586931896209716797e+01 -1.107417583465576172e+00 1.105423831939697266e+01 2.984046220779418945e+00 1.763165593147277832e+00
3.069000000000000000e+03 7.309098052978515625e+01 1.520087337493896484e+01 -1.410476803779602051e+00 1.068937015533447266e+01 2.783667802810668945e+00 8.539784550666809082e-01
3.070000000000000000e+03 1.417885208129882812e+01 2.710610580444335938e+01 -1.356219314038753510e-02 -1.333705894649028778e-02 -8.069775998592376709e-03 1.894774660468101501e-02
3.071000000000000000e+03 8.187136650085449219e+00 2.766514587402343750e+01 -4.231811966747045517e-03 -7.883550599217414856e-03 -3.634608816355466843e-03 7.791158277541399002e-03
3.072000000000000000e+03 8.341121673583984375e+00 2.626521682739257812e+01 -5.197951104491949081e-03 -6.370205897837877274e-03 -3.470447147265076637e-03 5.935105495154857635e-03
3.073000000000000000e+03 1.550127887725830078e+01 2.836267471313476562e+01 -1.339519582688808441e-02 -1.996973901987075806e-02 -1.000948064029216766e-02 2.653586678206920624e-02
3.074000000000000000e+03 1.712545585632324219e+01 2.885734367370605469e+01 -1.653901860117912292e-02 -2.490625903010368347e-02 -1.243358291685581207e-02 3.520299121737480164e-02
3.075000000000000000e+03 1.735974121093750000e+01 3.103249359130859375e+01 -1.916669309139251709e-03 -3.720927983522415161e-02 -1.173778437077999115e-02 3.718577325344085693e-02
3.076000000000000000e+03 1.670427703857421875e+01 2.709342956542968750e+01 -2.165189199149608612e-02 -1.540106441825628281e-02 -1.111588720232248306e-02 2.889105118811130524e-02
3.077000000000000000e+03 1.542474651336669922e+01 2.579952430725097656e+01 -2.126210927963256836e-02 -9.583234786987304688e-03 -9.253602474927902222e-03 2.026651427149772644e-02
3.078000000000000000e+03 1.823808479309082031e+01 2.436485099792480469e+01 -3.575098142027854919e-02 -4.152278881520032883e-03 -1.197097729891538620e-02 2.354957535862922668e-02
3.079000000000000000e+03 7.081426239013671875e+01 -3.618852615356445312e+01 2.824783511459827423e-02 4.783298015594482422e+00 1.443463683128356934e+00 2.469185292720794678e-01
3.080000000000000000e+03 7.173125457763671875e+01 -3.190671539306640625e+01 -1.691807508468627930e-01 5.378700733184814453e+00 1.562855958938598633e+00 2.754037082195281982e-01
3.081000000000000000e+03 8.387170791625976562e+00 2.898951339721679688e+01 -4.109993577003479004e-03 -1.049949787557125092e-02 -4.382847342640161514e-03 9.200792759656906128e-03
3.082000000000000000e+03 6.992767333984375000e+00 3.064404296875000000e+01 -1.842995290644466877e-03 -1.076873112469911575e-02 -3.783517982810735703e-03 7.838529534637928009e-03
3.083000000000000000e+03 5.545257091522216797e+00 -1.871583938598632812e+01 -4.114164412021636963e-02 -2.285460680723190308e-01 -8.090631663799285889e-02 -3.793029487133026123e-01
3.084000000000000000e+03 5.212694168090820312e+00 2.612550354003906250e+01 -2.374252770096063614e-03 -2.984711900353431702e-03 -1.607689424417912960e-03 3.053399035707116127e-03
3.085000000000000000e+03 1.163675308227539062e+01 1.958930206298828125e+01 -3.980239853262901306e-03 -3.288875101134181023e-03 -2.180734416469931602e-03 6.260227528400719166e-04
3.086000000000000000e+03 1.947398757934570312e+01 -3.243801116943359375e+01 2.985569536685943604e-01 2.362964898347854614e-01 1.604560315608978271e-01 -1.863764077425003052e-01
3.087000000000000000e+03 6.417668151855468750e+01 -3.322114944458007812e+01 2.677011787891387939e-01 2.251301288604736328e+00 7.557007670402526855e-01 6.959316730499267578e-01
3.088000000000000000e+03 1.712051582336425781e+01 -2.993352508544921875e+01 4.287326633930206299e-01 2.704354226589202881e-01 2.097504287958145142e-01 -2.289052903652191162e-01
3.089000000000000000e+03 5.680191802978515625e+01 2.373238945007324219e+01 -1.695797681808471680e+00 -7.249232381582260132e-02 -5.304870009422302246e-01 1.769769489765167236e-01
3.090000000000000000e+03 2.175791978836059570e+00 -3.719074249267578125e+01 6.038718391209840775e-03 -7.969273328781127930e-01 -2.372666001319885254e-01 1.593250408768653870e-02
3.091000000000000000e+03 7.778157043457031250e+01 3.560833740234375000e+01 -5.803834274411201477e-02 8.045738220214843750e+00 2.396309852600097656e+00 -1.770442426204681396e-01
3.092000000000000000e+03 6.579405975341796875e+01 3.053110313415527344e+01 2.983005940914154053e-01 2.240872621536254883e+00 7.617519497871398926e-01 -8.728326559066772461e-01
3.093000000000000000e+03 5.210553359985351562e+01 2.598746299743652344e+01 -5.906379222869873047e-01 4.321160539984703064e-02 -1.642279028892517090e-01 4.099632203578948975e-01
3.094000000000000000e+03 2.935915374755859375e+01 -3.480107879638671875e+01 2.995577752590179443e-01 -7.215803861618041992e-02 6.821992248296737671e-02 -1.527977883815765381e-01
3.095000000000000000e+03 5.926135635375976562e+01 3.142116355895996094e+01 4.709284007549285889e-01 3.104041218757629395e-01 2.343997508287429810e-01 1.377649754285812378e-01
3.096000000000000000e+03 9.025333404541015625e+00 3.216298294067382812e+01 -7.882024510763585567e-04 -1.741633750498294830e-02 -5.461361724883317947e-03 1.152062043547630310e-02
3.097000000000000000e+03 3.854865264892578125e+01 -3.339225387573242188e+01 2.903190553188323975e-01 -5.163683742284774780e-02 7.160466909408569336e-02 4.192272573709487915e-02
3.098000000000000000e+03 7.386196899414062500e+01 3.765422439575195312e+01 1.203481480479240417e-01 6.202779769897460938e+00 1.896938443183898926e+00 -2.287467569112777710e-01
3.099000000000000000e+03 4.034449005126953125e+01 2.768081665039062500e+01 -8.052122592926025391e-02 -4.255270119756460190e-03 -2.543294802308082581e-02 2.026052922010421753e-01
3.100000000000000000e+03 1.319581317901611328e+01 -3.338205718994140625e+01 1.451521962881088257e-01 3.378557041287422180e-02 5.368132889270782471e-02 -7.499124109745025635e-02
3.101000000000000000e+03 3.912688970565795898e+00 -3.787924957275390625e+01 1.894978433847427368e-02 -6.972208023071289062e-01 -2.034813016653060913e-01 -1.706975512206554413e-02
3.102000000000000000e+03 1.873602485656738281e+01 -3.527486038208007812e+01 1.581920534372329712e-01 1.989113688468933105e-01 1.071310266852378845e-01 -1.163310557603836060e-01
3.103000000000000000e+03 1.786146354675292969e+01 -3.316729736328125000e+01 2.415087223052978516e-01 2.150835096836090088e-01 1.369776725769042969e-01 -1.501371413469314575e-01
3.104000000000000000e+03 5.665043640136718750e+01 3.216581726074218750e+01 4.383102357387542725e-01 1.113785430788993835e-01 1.649066358804702759e-01 3.127066493034362793e-01
3.105000000000000000e+03 6.912753105163574219e+00 -1.726377487182617188e+01 -1.573455333709716797e-01 -2.219533324241638184e-01 -1.137896552681922913e-01 -3.949425816535949707e-01
3.106000000000000000e+03 1.010487461090087891e+01 1.874664688110351562e+01 -1.924942596815526485e-03 -2.968402113765478134e-03 -1.468003494665026665e-03 -2.167501952499151230e-04
3.107000000000000000e+03 7.122151947021484375e+01 -2.942486381530761719e+01 -2.309691905975341797e-01 5.571438312530517578e+00 1.602140665054321289e+00 2.827545404434204102e-01
3.108000000000000000e+03 7.335672760009765625e+01 -2.910993766784667969e+01 -1.973920315504074097e-01 6.086408615112304688e+00 1.766704916954040527e+00 4.428187757730484009e-02
3.109000000000000000e+03 3.171819305419921875e+01 2.331293106079101562e+01 -1.324930638074874878e-01 -6.130509451031684875e-02 -5.813944339752197266e-02 9.201145172119140625e-02
3.110000000000000000e+03 7.337181854248046875e+01 -2.328336715698242188e+01 4.616206586360931396e-01 6.561292171478271484e+00 2.106873750686645508e+00 -4.464894160628318787e-02
3.111000000000000000e+03 1.035107374191284180e+00 4.112329101562500000e+01 -1.063413583324290812e-04 -9.955908171832561493e-03 -3.018674906343221664e-03 5.516388337127864361e-04
3.112000000000000000e+03 6.924349975585937500e+01 2.157552146911621094e+01 1.478070914745330811e-01 1.284552931785583496e+00 4.297080039978027344e-01 -8.164777159690856934e-01
3.113000000000000000e+03 7.096441650390625000e+01 2.138072013854980469e+01 1.894776701927185059e+00 3.691281795501708984e+00 1.675817608833312988e+00 -3.602021455764770508e+00
3.114000000000000000e+03 7.144435882568359375e+01 2.118208122253417969e+01 2.441732645034790039e+00 5.495028495788574219e+00 2.381028413772583008e+00 -4.850941181182861328e+00
3.115000000000000000e+03 7.218686676025390625e+01 2.122691917419433594e+01 1.188652873039245605e+00 1.205011653900146484e+01 3.971630811691284180e+00 -6.017940044403076172e+00
3.116000000000000000e+03 7.239634704589843750e+01 2.128607177734375000e+01 4.514367580413818359e-01 1.426522350311279297e+01 4.414998054504394531e+00 -5.402846336364746094e+00
3.117000000000000000e+03 7.295735168457031250e+01 2.185395812988281250e+01 -8.461006879806518555e-01 1.511294078826904297e+01 4.280052185058593750e+00 -2.467339515686035156e+00
3.118000000000000000e+03 7.324465942382812500e+01 2.118257522583007812e+01 2.867272496223449707e-01 1.862595748901367188e+01 5.673805713653564453e+00 -6.725123524665832520e-01
3.119000000000000000e+03 7.472901916503906250e+01 1.933112335205078125e+01 7.123852729797363281e+00 1.280002593994140625e+01 5.977163791656494141e+00 -1.000093817710876465e+00
3.120000000000000000e+03 7.368450164794921875e+01 1.825354003906250000e+01 2.519731521606445312e+00 1.837520027160644531e+01 6.268479347229003906e+00 -2.125105619430541992e+00
3.121000000000000000e+03 7.274439239501953125e+01 1.751776504516601562e+01 -2.341486364603042603e-01 1.507610416412353516e+01 4.452586650848388672e+00 2.899064540863037109e+00
3.122000000000000000e+03 7.240387725830078125e+01 1.758695411682128906e+01 3.140174746513366699e-01 1.352044296264648438e+01 4.150338172912597656e+00 4.146579742431640625e+00
3.123000000000000000e+03 7.222511291503906250e+01 1.762731552124023438e+01 8.388916850090026855e-01 1.227859592437744141e+01 3.935246229171752930e+00 4.818427562713623047e+00
3.124000000000000000e+03 7.120851135253906250e+01 1.778479766845703125e+01 2.551797389984130859e+00 5.009655475616455078e+00 2.268435716629028320e+00 4.049684524536132812e+00
3.125000000000000000e+03 6.987560272216796875e+01 1.767981147766113281e+01 1.514808177947998047e+00 1.411813497543334961e+00 8.779864907264709473e-01 1.364063858985900879e+00
3.126000000000000000e+03 4.264189147949218750e+01 5.119580745697021484e+00 -4.153809859417378902e-04 -6.331401527859270573e-04 -3.145563532598316669e-04 1.347938086837530136e-04
3.127000000000000000e+03 4.354355621337890625e+01 5.211676120758056641e+00 -2.105089806718751788e-04 5.630435771308839321e-04 1.057603803928941488e-04 -5.850740708410739899e-04
3.128000000000000000e+03 2.102704620361328125e+01 1.382223367691040039e+00 -6.433082307921722531e-05 -8.639435691293329000e-05 -4.521755181485787034e-05 8.796559995971620083e-06
3.129000000000000000e+03 1.664252662658691406e+01 1.983096003532409668e+00 2.801476694003213197e-05 1.287520490222959779e-06 8.790686479187570512e-06 4.919753700960427523e-05
3.130000000000000000e+03 6.954740905761718750e+01 1.646223640441894531e+01 6.029039621353149414e-01 2.404656410217285156e+00 9.022681713104248047e-01 1.506778717041015625e+00
3.131000000000000000e+03 5.879721641540527344e+00 -3.563052749633789062e+01 2.371587976813316345e-02 -4.612954854965209961e-01 -1.312738806009292603e-01 -1.321923919022083282e-02
3.132000000000000000e+03 3.273384094238281250e+00 4.157822036743164062e+01 9.917590068653225899e-04 -1.158202439546585083e-02 -3.177079604938626289e-03 1.714007230475544930e-04
3.133000000000000000e+03 2.320546388626098633e+00 3.964087295532226562e+01 4.162456025369465351e-04 -1.047869957983493805e-02 -3.018736140802502632e-03 1.099362620152533054e-03
3.134000000000000000e+03 6.956093597412109375e+01 2.153558540344238281e+01 4.163387119770050049e-01 1.367922186851501465e+00 5.352782607078552246e-01 -1.097272157669067383e+00
3.135000000000000000e+03 2.560875892639160156e+01 -3.822247314453125000e+01 2.332471758127212524e-01 7.083505392074584961e-02 9.122467041015625000e-02 -1.091995611786842346e-01
3.136000000000000000e+03 1.070188617706298828e+01 -1.816446876525878906e+01 -1.030360832810401917e-01 -5.893596410751342773e-01 -2.077187150716781616e-01 -3.737939298152923584e-01
3.137000000000000000e+03 7.001197052001953125e+01 2.147467803955078125e+01 1.010498642921447754e+00 1.890293121337890625e+00 8.702375292778015137e-01 -1.749314188957214355e+00
3.138000000000000000e+03 6.962204742431640625e+01 2.199309539794921875e+01 5.566829442977905273e-01 2.140790939331054688e+00 8.092421889305114746e-01 -1.674401044845581055e+00
3.139000000000000000e+03 7.103769683837890625e+01 2.185175132751464844e+01 1.349744200706481934e+00 5.216966629028320312e+00 1.970013141632080078e+00 -3.967878103256225586e+00
3.140000000000000000e+03 7.164376831054687500e+01 2.187136268615722656e+01 9.049015045166015625e-01 8.217513084411621094e+00 2.736724138259887695e+00 -4.718470573425292969e+00
3.141000000000000000e+03 7.152416992187500000e+01 2.219829559326171875e+01 5.527172088623046875e-01 7.681700229644775391e+00 2.470325231552124023e+00 -4.306692600250244141e+00
3.142000000000000000e+03 7.253439331054687500e+01 2.186608695983886719e+01 -5.088801383972167969e-01 1.339141750335693359e+01 3.864761352539062500e+00 -3.812701463699340820e+00
3.143000000000000000e+03 7.197974395751953125e+01 2.174104499816894531e+01 6.473467350006103516e-01 1.039885807037353516e+01 3.313861370086669922e+00 -4.973901271820068359e+00
3.144000000000000000e+03 6.973752593994140625e+01 1.692353439331054688e+01 1.046496510505676270e+00 2.223511695861816406e+00 9.810023903846740723e-01 1.604336738586425781e+00
3.145000000000000000e+03 7.157355499267578125e+01 1.731826400756835938e+01 1.217807769775390625e+00 7.697173118591308594e+00 2.674494266510009766e+00 4.192446231842041016e+00
3.146000000000000000e+03 7.151873779296875000e+01 1.768501472473144531e+01 2.255041837692260742e+00 6.917695045471191406e+00 2.751821041107177734e+00 4.663060665130615234e+00
3.147000000000000000e+03 7.227015686035156250e+01 1.739707946777343750e+01 2.592987716197967529e-01 1.204977416992187500e+01 3.692721843719482422e+00 4.074715137481689453e+00
3.148000000000000000e+03 7.240782928466796875e+01 1.720430564880371094e+01 -1.125207245349884033e-01 1.248626518249511719e+01 3.712123394012451172e+00 3.559215545654296875e+00
3.149000000000000000e+03 7.728880310058593750e+01 -3.687288284301757812e+01 -5.333381891250610352e-02 6.781353473663330078e+00 2.018405914306640625e+00 3.758934512734413147e-02
3.150000000000000000e+03 7.318695831298828125e+01 2.216837310791015625e+01 -1.062293410301208496e+00 1.425870132446289062e+01 3.958922147750854492e+00 -1.531502962112426758e+00
3.151000000000000000e+03 7.405767059326171875e+01 2.168653488159179688e+01 3.141261935234069824e-01 1.526012039184570312e+01 4.672274112701416016e+00 1.374901771545410156e+00
3.152000000000000000e+03 2.509113073348999023e+00 3.620249032974243164e+00 4.428711326909251511e-05 8.750831329962238669e-05 3.953862687922082841e-05 -1.098655411624349654e-04
3.153000000000000000e+03 1.746047592163085938e+01 1.813287162780761719e+01 3.277072915807366371e-03 2.275930950418114662e-03 1.665901159867644310e-03 2.739152871072292328e-03
3.154000000000000000e+03 5.671385192871093750e+01 2.591176795959472656e+01 -9.332762956619262695e-01 -8.435840904712677002e-02 -3.052904009819030762e-01 3.958484232425689697e-01
3.155000000000000000e+03 7.482772827148437500e+01 1.994010543823242188e+01 6.524439811706542969e+00 1.266839408874511719e+01 5.757850170135498047e+00 9.875254034996032715e-01
3.156000000000000000e+03 7.520362091064453125e+01 1.956052398681640625e+01 5.715436935424804688e+00 1.125306797027587891e+01 5.090551376342773438e+00 -2.376150786876678467e-01
3.157000000000000000e+03 5.306848907470703125e+01 -2.630262136459350586e+00 -8.846877217292785645e-01 -2.703134715557098389e-01 -3.465003669261932373e-01 1.146473586559295654e-01
3.158000000000000000e+03 5.290942764282226562e+01 2.440117835998535156e+01 -8.937962651252746582e-01 1.161091122776269913e-02 -2.646556198596954346e-01 2.794441580772399902e-01
3.159000000000000000e+03 1.485562038421630859e+01 -3.023555564880371094e+01 2.997611761093139648e-01 1.708176136016845703e-01 1.411736458539962769e-01 -1.618667244911193848e-01
3.160000000000000000e+03 1.762668037414550781e+01 -3.129080581665039062e+01 3.326959609985351562e-01 2.549991309642791748e-01 1.763085275888442993e-01 -1.970912665128707886e-01
3.161000000000000000e+03 3.896755981445312500e+01 -2.574887084960937500e+01 -1.966433227062225342e-02 -1.111687198281288147e-01 -3.924991562962532043e-02 1.797478529624640942e-03
3.162000000000000000e+03 6.814863586425781250e+01 -2.854213714599609375e+01 -2.177340686321258545e-01 4.600271701812744141e+00 1.314761281013488770e+00 7.821128368377685547e-01
3.163000000000000000e+03 3.379265213012695312e+01 2.162718963623046875e+01 -1.727358102798461914e-01 -3.961638733744621277e-02 -6.370566040277481079e-02 8.865571022033691406e-02
3.164000000000000000e+03 3.484918212890625000e+01 -9.387734413146972656e+00 -5.269326567649841309e-01 -2.364114671945571899e-01 -2.290032356977462769e-01 -9.878084808588027954e-02
3.165000000000000000e+03 7.256788635253906250e+01 1.698546218872070312e+01 -5.150387883186340332e-01 1.289631366729736328e+01 3.714382410049438477e+00 2.853423357009887695e+00
3.166000000000000000e+03 7.207708740234375000e+01 1.733596229553222656e+01 5.157262682914733887e-01 1.114816188812255859e+01 3.499166488647460938e+00 4.257644653320312500e+00
3.167000000000000000e+03 7.127769470214843750e+01 2.203245925903320312e+01 9.734546542167663574e-01 6.462543964385986328e+00 2.230799674987792969e+00 -4.196612834930419922e+00
3.168000000000000000e+03 7.296901702880859375e+01 2.242770004272460938e+01 -1.248007535934448242e+00 1.335049247741699219e+01 3.630745410919189453e+00 -2.235908746719360352e+00
3.169000000000000000e+03 7.095651245117187500e+01 2.279015541076660156e+01 2.893367707729339600e-01 5.934437274932861328e+00 1.867132186889648438e+00 -3.438271284103393555e+00
3.170000000000000000e+03 7.113626861572265625e+01 2.239970779418945312e+01 5.988781452178955078e-01 6.336519718170166016e+00 2.080619335174560547e+00 -3.812076091766357422e+00
3.171000000000000000e+03 7.072930145263671875e+01 2.254294776916503906e+01 6.637033224105834961e-01 5.019637107849121094e+00 1.705002069473266602e+00 -3.435987234115600586e+00
3.172000000000000000e+03 7.014893341064453125e+01 2.234217453002929688e+01 6.950994729995727539e-01 3.507640123367309570e+00 1.260821938514709473e+00 -2.537776708602905273e+00
3.173000000000000000e+03 1.769420242309570312e+01 2.733105659484863281e+00 3.382440772838890553e-04 -1.704921487544197589e-05 9.635846072342246771e-05 4.801569048140663654e-06
3.174000000000000000e+03 7.187290954589843750e+01 2.201140403747558594e+01 3.637019693851470947e-01 9.436033248901367188e+00 2.939920663833618164e+00 -4.570086002349853516e+00
3.175000000000000000e+03 2.510548400878906250e+01 -4.496711730957031250e+00 -6.050100922584533691e-01 1.633154153823852539e-01 -1.325083971023559570e-01 2.029536990448832512e-03
3.176000000000000000e+03 3.022453689575195312e+01 -7.846218585968017578e+00 -1.070340514183044434e+00 -1.726731657981872559e-01 -3.729040920734405518e-01 -3.502026796340942383e-01
3.177000000000000000e+03 6.802602386474609375e+01 -1.110597801208496094e+01 -9.680832028388977051e-01 4.095833301544189453e+00 9.383251070976257324e-01 -2.772066295146942139e-01
3.178000000000000000e+03 7.636158752441406250e+01 3.332051849365234375e+01 -1.156838461756706238e-01 7.519433975219726562e+00 2.221125125885009766e+00 -1.678707748651504517e-01
3.179000000000000000e+03 4.024649047851562500e+01 -2.917955970764160156e+01 1.029974147677421570e-01 9.122172743082046509e-02 5.826574191451072693e-02 1.032925918698310852e-01
3.180000000000000000e+03 1.315512275695800781e+01 -3.101836967468261719e+01 2.258433848619461060e-01 6.641825288534164429e-02 8.767849206924438477e-02 -1.152619197964668274e-01
3.181000000000000000e+03 6.309700393676757812e+01 3.441830444335937500e+01 7.180736660957336426e-01 1.626629829406738281e+00 7.034110426902770996e-01 -2.675721347332000732e-01
3.182000000000000000e+03 7.183400726318359375e+01 -1.964565086364746094e+01 1.097549080848693848e+00 6.916922569274902344e+00 2.404341459274291992e+00 6.901684999465942383e-01
3.183000000000000000e+03 7.508204650878906250e+01 2.111375427246093750e+01 2.820418119430541992e+00 1.246516799926757812e+01 4.585675716400146484e+00 2.487479448318481445e+00
3.184000000000000000e+03 7.238206481933593750e+01 2.247014808654785156e+01 -7.888314723968505859e-01 1.143149280548095703e+01 3.192798376083374023e+00 -3.340918064117431641e+00
3.185000000000000000e+03 7.158621978759765625e+01 1.615398597717285156e+01 -7.794267684221267700e-02 8.174265861511230469e+00 2.428896903991699219e+00 3.012980937957763672e+00
3.186000000000000000e+03 7.235682678222656250e+01 2.292506599426269531e+01 -1.026116728782653809e+00 1.053055381774902344e+01 2.851330995559692383e+00 -3.025590896606445312e+00
3.187000000000000000e+03 7.694139099121093750e+01 2.832516479492187500e+01 -4.505205750465393066e-01 8.087629318237304688e+00 2.291132688522338867e+00 5.147272944450378418e-01
3.188000000000000000e+03 4.221998596191406250e+01 -1.789767074584960938e+01 3.535578250885009766e-01 5.140145421028137207e-01 2.602716982364654541e-01 -2.199915498495101929e-01
3.189000000000000000e+03 4.168170166015625000e+01 -1.876850128173828125e+01 3.400430977344512939e-01 3.830802440643310547e-01 2.169370055198669434e-01 -2.955183386802673340e-01
3.190000000000000000e+03 3.882754516601562500e+01 -2.379765701293945312e+01 -6.057403236627578735e-02 -1.301622092723846436e-01 -5.722087249159812927e-02 -1.394714564085006714e-01
3.191000000000000000e+03 3.968441772460937500e+01 -2.425657081604003906e+01 1.996509358286857605e-02 3.797806799411773682e-02 1.738294772803783417e-02 -8.409197628498077393e-02
3.192000000000000000e+03 3.936376953125000000e+01 -2.295787239074707031e+01 1.048071659170091152e-03 -4.035801813006401062e-02 -1.179298385977745056e-02 -1.804412603378295898e-01
3.193000000000000000e+03 7.505741119384765625e+01 1.797240829467773438e+01 2.587612628936767578e+00 1.251109409332275391e+01 4.529612064361572266e+00 -2.726480484008789062e+00
3.194000000000000000e+03 7.469000244140625000e+01 1.812865638732910156e+01 3.038010835647583008e+00 1.373257350921630859e+01 5.031175136566162109e+00 -2.778228044509887695e+00
3.195000000000000000e+03 7.490442657470703125e+01 1.868486785888671875e+01 5.092812061309814453e+00 1.269693470001220703e+01 5.336924076080322266e+00 -2.459602117538452148e+00
3.196000000000000000e+03 7.560205078125000000e+01 1.951568412780761719e+01 4.848829746246337891e+00 1.037016296386718750e+01 4.565697669982910156e+00 -2.325972467660903931e-01
3.197000000000000000e+03 7.564492034912109375e+01 1.988302421569824219e+01 4.573470592498779297e+00 1.026346111297607422e+01 4.451079368591308594e+00 4.664353132247924805e-01
3.198000000000000000e+03 4.095218276977539062e+01 -2.365987777709960938e+01 1.063093468546867371e-01 3.031119108200073242e-01 1.228263750672340393e-01 -1.123706102371215820e-01
3.199000000000000000e+03 7.168355560302734375e+01 2.270858764648437500e+01 -1.772039979696273804e-01 8.333245277404785156e+00 2.446812391281127930e+00 -3.756709575653076172e+00
3.200000000000000000e+03 7.579305267333984375e+01 2.068556594848632812e+01 3.299196243286132812e+00 1.038904953002929688e+01 4.106473922729492188e+00 1.919374465942382812e+00
3.201000000000000000e+03 8.313255310058593750e+00 -1.747908782958984375e+01 -1.899978816509246826e-01 -3.013939261436462402e-01 -1.474175453186035156e-01 -4.235043227672576904e-01
3.202000000000000000e+03 5.893375778198242188e+01 2.916981887817382812e+01 3.216995671391487122e-02 4.659888148307800293e-02 2.363065257668495178e-02 2.877101898193359375e-01
3.203000000000000000e+03 1.475949382781982422e+01 1.974125862121582031e+01 -7.099556736648082733e-03 -2.971423557028174400e-03 -3.021294018253684044e-03 3.129454853478819132e-04
3.204000000000000000e+03 5.524227142333984375e+01 2.675032615661621094e+01 -6.602400541305541992e-01 -8.713285624980926514e-02 -2.242118716239929199e-01 4.700047373771667480e-01
3.205000000000000000e+03 5.062065124511718750e+01 2.569996452331542969e+01 -5.408645868301391602e-01 6.595949083566665649e-02 -1.424715369939804077e-01 3.522508442401885986e-01
3.206000000000000000e+03 4.435384368896484375e+01 2.498594856262207031e+01 -3.038887977600097656e-01 9.703938663005828857e-02 -6.205482780933380127e-02 2.073354572057723999e-01
3.207000000000000000e+03 6.745514678955078125e+01 -3.089265060424804688e+01 -1.294921189546585083e-01 4.001338005065917969e+00 1.161553740501403809e+00 7.312399744987487793e-01
3.208000000000000000e+03 7.382559967041015625e+01 2.182155990600585938e+01 -4.025856256484985352e-01 1.569264984130859375e+01 4.587019443511962891e+00 5.964595675468444824e-01
3.209000000000000000e+03 7.410552215576171875e+01 3.004901313781738281e+01 -6.253895759582519531e-01 7.328598976135253906e+00 2.010962963104248047e+00 -3.501121699810028076e-01
3.210000000000000000e+03 6.262256240844726562e+01 -9.250122070312500000e+00 -3.951773345470428467e-01 1.367401927709579468e-01 -7.753113657236099243e-02 3.214031457901000977e-01
3.211000000000000000e+03 7.542564392089843750e+01 1.798936271667480469e+01 2.666424989700317383e+00 1.138480377197265625e+01 4.215368747711181641e+00 -2.625129938125610352e+00
3.212000000000000000e+03 3.009040832519531250e+01 -9.431458473205566406e+00 -5.200564265251159668e-01 -1.318242400884628296e-01 -1.955641955137252808e-01 -3.665851950645446777e-01
3.213000000000000000e+03 3.005461502075195312e+01 -8.635674476623535156e+00 -8.247581720352172852e-01 -2.216748893260955811e-01 -3.139299154281616211e-01 -4.198040366172790527e-01
3.214000000000000000e+03 7.230869293212890625e+01 1.695596694946289062e+01 -1.745979040861129761e-01 1.156071567535400391e+01 3.415835142135620117e+00 3.336901903152465820e+00
3.215000000000000000e+03 7.393457031250000000e+01 2.231883811950683594e+01 -9.344270229339599609e-01 1.425877761840820312e+01 3.997305154800415039e+00 4.408135712146759033e-01
3.216000000000000000e+03 2.329592704772949219e+01 2.908937072753906250e+01 -1.101515069603919983e-02 -6.051980704069137573e-02 -2.146048657596111298e-02 6.904266029596328735e-02
3.217000000000000000e+03 7.202819061279296875e+01 1.210887336730957031e+01 -8.757643103599548340e-01 7.209280014038085938e+00 1.900054693222045898e+00 6.423661708831787109e-01
3.218000000000000000e+03 7.543751525878906250e+01 -3.648244094848632812e+01 -5.332687497138977051e-02 6.194793701171875000e+00 1.842440009117126465e+00 2.413684129714965820e-02
3.219000000000000000e+03 5.484241485595703125e+00 -1.755192947387695312e+01 -9.662535786628723145e-02 -1.719209998846054077e-01 -8.056391030550003052e-02 -3.476054072380065918e-01
3.220000000000000000e+03 4.419039916992187500e+01 1.438886547088623047e+01 -8.546705543994903564e-02 1.785673201084136963e-03 -2.510441467165946960e-02 -1.189367379993200302e-02
3.221000000000000000e+03 2.470520019531250000e+01 2.687104606628417969e+01 -4.281383380293846130e-02 -5.508457124233245850e-02 -2.936952188611030579e-02 7.772499322891235352e-02
3.222000000000000000e+03 5.951938629150390625e+01 -7.402424335479736328e+00 -2.664292156696319580e-01 -1.972946673631668091e-01 -1.391171663999557495e-01 4.742550551891326904e-01
3.223000000000000000e+03 7.274295806884765625e+01 1.719839477539062500e+01 -5.883123278617858887e-01 1.391764163970947266e+01 3.998798847198486328e+00 2.538227796554565430e+00
3.224000000000000000e+03 5.768210887908935547e+00 -2.411133575439453125e+01 1.326534301042556763e-01 -3.781644403934478760e-01 -7.365331053733825684e-02 -2.810528278350830078e-01
3.225000000000000000e+03 4.333840179443359375e+01 1.427441692352294922e+01 -8.115302026271820068e-02 8.402012288570404053e-03 -2.182530239224433899e-02 1.929146936163306236e-03
3.226000000000000000e+03 7.417626190185546875e+01 1.705895042419433594e+01 -1.620374619960784912e-01 1.421754360198974609e+01 4.216651916503906250e+00 -1.466003894805908203e+00
3.227000000000000000e+03 7.200215911865234375e+01 2.281020927429199219e+01 -6.275439262390136719e-01 9.606492042541503906e+00 2.693684577941894531e+00 -3.507127523422241211e+00
3.228000000000000000e+03 7.544167327880859375e+01 2.139590072631835938e+01 1.982079863548278809e+00 1.144940376281738281e+01 4.029445171356201172e+00 2.471472501754760742e+00
3.229000000000000000e+03 7.526621246337890625e+01 2.268381118774414062e+01 -4.083808064460754395e-01 1.150847434997558594e+01 3.330028057098388672e+00 1.925413727760314941e+00
3.230000000000000000e+03 7.517463684082031250e+01 1.827682876586914062e+01 3.465704679489135742e+00 1.198966979980468750e+01 4.636612415313720703e+00 -2.534297943115234375e+00
3.231000000000000000e+03 7.609602355957031250e+01 -2.545501899719238281e+01 4.431669414043426514e-02 6.614343643188476562e+00 1.997598052024841309e+00 -2.026426792144775391e-01
3.232000000000000000e+03 3.521080017089843750e+01 2.339305114746093750e+01 -1.571456640958786011e-01 -1.596843078732490540e-02 -5.193422734737396240e-02 1.003724634647369385e-01
3.233000000000000000e+03 1.288736248016357422e+01 2.090628814697265625e+01 -7.536205463111400604e-03 -3.447160124778747559e-03 -3.295009722933173180e-03 1.891348743811249733e-03
3.234000000000000000e+03 1.491914463043212891e+01 1.647369194030761719e+01 6.596496095880866051e-04 -2.426106017082929611e-03 -5.299369222484529018e-04 7.761079468764364719e-04
3.235000000000000000e+03 1.391742229461669922e+01 1.633263015747070312e+01 5.046736914664506912e-04 -2.331446623429656029e-03 -5.480319377966225147e-04 4.962988896295428276e-04
3.236000000000000000e+03 7.250611877441406250e+01 -3.027321624755859375e+01 -2.078123390674591064e-01 5.826247215270996094e+00 1.685530424118041992e+00 1.516646444797515869e-01
3.237000000000000000e+03 7.565681457519531250e+01 -6.398225307464599609e+00 -1.718232333660125732e-01 7.745573043823242188e+00 2.272125005722045898e+00 3.782796859741210938e-01
3.238000000000000000e+03 6.569286346435546875e+01 -4.773444175720214844e+00 -1.479019504040479660e-02 2.008356094360351562e+00 5.980697274208068848e-01 7.651901990175247192e-02
3.239000000000000000e+03 7.126967620849609375e+01 -2.794893646240234375e+01 -2.222951650619506836e-01 5.800108432769775391e+00 1.673343896865844727e+00 2.311618030071258545e-01
3.240000000000000000e+03 7.409268951416015625e+01 9.689604759216308594e+00 -7.783244252204895020e-01 7.743383407592773438e+00 2.089517831802368164e+00 -2.557779848575592041e-01
3.241000000000000000e+03 7.434744262695312500e+01 1.069716358184814453e+01 -9.176715612411499023e-01 8.159976005554199219e+00 2.172691345214843750e+00 -3.623805046081542969e-01
3.242000000000000000e+03 7.203505706787109375e+01 1.580452919006347656e+01 -6.446614861488342285e-01 9.318136215209960938e+00 2.602042198181152344e+00 2.496449947357177734e+00
3.243000000000000000e+03 4.843729782104492188e+01 -3.517571926116943359e+00 -9.323655366897583008e-01 3.171599209308624268e-01 -1.845616847276687622e-01 -1.427294611930847168e-01
3.244000000000000000e+03 4.808489990234375000e+01 -2.978050708770751953e+00 -9.881248474121093750e-01 3.140015304088592529e-01 -2.022369951009750366e-01 -1.823956221342086792e-01
3.245000000000000000e+03 7.266017150878906250e+01 1.193741130828857422e+01 -9.893925189971923828e-01 7.654742717742919922e+00 1.999605059623718262e+00 3.610509037971496582e-01
3.246000000000000000e+03 7.592935943603515625e+01 -2.158021736145019531e+01 3.284896314144134521e-01 6.639186382293701172e+00 2.090302705764770508e+00 7.724924385547637939e-02
3.247000000000000000e+03 7.264558410644531250e+01 1.664039993286132812e+01 -7.915001511573791504e-01 1.239331436157226562e+01 3.480544328689575195e+00 2.367800474166870117e+00
3.248000000000000000e+03 7.464125061035156250e+01 2.352682304382324219e+01 -1.323142766952514648e+00 1.146576786041259766e+01 3.042787551879882812e+00 8.935772776603698730e-01
3.249000000000000000e+03 6.079029083251953125e+01 -8.016857147216796875e+00 -2.959674298763275146e-01 -7.683560997247695923e-02 -1.118409112095832825e-01 4.777532219886779785e-01
3.250000000000000000e+03 7.457262420654296875e+01 1.688924407958984375e+01 -9.312458336353302002e-02 1.313519382476806641e+01 3.912621021270751953e+00 -1.852578878402709961e+00
3.251000000000000000e+03 7.623970794677734375e+01 1.833757400512695312e+01 2.758212804794311523e+00 9.455835342407226562e+00 3.664214372634887695e+00 -1.947249054908752441e+00
3.252000000000000000e+03 7.649287414550781250e+01 1.794450569152832031e+01 1.853178739547729492e+00 9.057338714599609375e+00 3.273155212402343750e+00 -2.195692539215087891e+00
3.253000000000000000e+03 7.197306823730468750e+01 2.355152702331542969e+01 -9.797334074974060059e-01 9.158218383789062500e+00 2.453545331954956055e+00 -2.792229652404785156e+00
3.254000000000000000e+03 7.159214782714843750e+01 2.314489936828613281e+01 -4.544528722763061523e-01 8.105482101440429688e+00 2.295308589935302734e+00 -3.362019777297973633e+00
3.255000000000000000e+03 7.212216949462890625e+01 1.540475654602050781e+01 -8.462033271789550781e-01 9.146645545959472656e+00 2.490132808685302734e+00 2.061205625534057617e+00
3.256000000000000000e+03 7.362250518798828125e+01 1.605500793457031250e+01 -1.296581625938415527e+00 1.255674552917480469e+01 3.378049373626708984e+00 1.067080646753311157e-01
3.257000000000000000e+03 7.400858306884765625e+01 1.636025047302246094e+01 -1.036576747894287109e+00 1.317083930969238281e+01 3.640278816223144531e+00 -7.105064988136291504e-01
3.258000000000000000e+03 1.361177730560302734e+01 -6.153137207031250000e+00 -1.043508276343345642e-01 -1.870164424180984497e-01 -8.741017431020736694e-02 -1.190453320741653442e-01
3.259000000000000000e+03 7.551667022705078125e+01 2.194689559936523438e+01 8.981771469116210938e-01 1.127425479888916016e+01 3.651729583740234375e+00 2.372525930404663086e+00
3.260000000000000000e+03 7.601049041748046875e+01 -2.426012992858886719e+01 1.338884681463241577e-01 6.595872879028320312e+00 2.018928289413452148e+00 -1.593109071254730225e-01
3.261000000000000000e+03 7.380168151855468750e+01 1.159729671478271484e+01 -1.076688528060913086e+00 8.272307395935058594e+00 2.158685445785522461e+00 -1.383194774389266968e-01
3.262000000000000000e+03 7.503194427490234375e+01 -1.011305046081542969e+01 -3.124494254589080811e-01 7.436043739318847656e+00 2.137078285217285156e+00 6.834248900413513184e-01
3.263000000000000000e+03 7.434792327880859375e+01 1.627258110046386719e+01 -9.265273213386535645e-01 1.281303977966308594e+01 3.565953731536865234e+00 -1.188551783561706543e+00
3.264000000000000000e+03 7.657272338867187500e+01 1.898617744445800781e+01 2.836483478546142578e+00 8.421165466308593750e+00 3.377294778823852539e+00 -9.993615746498107910e-01
3.265000000000000000e+03 7.237478637695312500e+01 1.513421058654785156e+01 -1.107056975364685059e+00 9.453477859497070312e+00 2.503926277160644531e+00 1.690003395080566406e+00
3.266000000000000000e+03 7.231650543212890625e+01 2.446392631530761719e+01 -1.313961982727050781e+00 8.811835289001464844e+00 2.249361991882324219e+00 -2.083038091659545898e+00
3.267000000000000000e+03 7.271100616455078125e+01 1.550852012634277344e+01 -1.188131570816040039e+00 1.042592430114746094e+01 2.771337747573852539e+00 1.546331167221069336e+00
3.268000000000000000e+03 6.891774654388427734e+00 6.903084754943847656e+00 5.590948858298361301e-04 -1.669411576585844159e-04 1.176461155409924686e-04 -1.881585340015590191e-04
3.269000000000000000e+03 7.243954658508300781e+00 6.418998241424560547e+00 2.704898361116647720e-04 -2.882231492549180984e-04 -5.319993761077057570e-06 -3.934606793336570263e-04
3.270000000000000000e+03 7.598677825927734375e+01 1.917214965820312500e+01 3.745637893676757812e+00 9.625472068786621094e+00 4.011332988739013672e+00 -1.030975461006164551e+00
3.271000000000000000e+03 7.350867462158203125e+01 1.239430427551269531e+01 -1.207296848297119141e+00 8.584887504577636719e+00 2.213277339935302734e+00 -2.745499089360237122e-02
3.272000000000000000e+03 7.314335632324218750e+01 1.305027580261230469e+01 -1.255396842956542969e+00 8.639366149902343750e+00 2.215190649032592773e+00 3.445226848125457764e-01
3.273000000000000000e+03 1.254196929931640625e+01 -5.876574516296386719e+00 -6.103352457284927368e-02 -1.683359742164611816e-01 -6.881085038185119629e-02 -4.910209774971008301e-02
3.274000000000000000e+03 1.246730995178222656e+01 1.369874000549316406e+01 8.003704133443534374e-04 -1.745517132803797722e-03 -2.835440100170671940e-04 5.759054911322891712e-04
3.275000000000000000e+03 7.296231842041015625e+01 1.587097454071044922e+01 -1.247826099395751953e+00 1.149021816253662109e+01 3.072717428207397461e+00 1.337026476860046387e+00
3.276000000000000000e+03 7.328879547119140625e+01 1.615539169311523438e+01 -1.278309822082519531e+00 1.243726253509521484e+01 3.347685813903808594e+00 7.584276795387268066e-01
3.277000000000000000e+03 7.481639862060546875e+01 1.538488578796386719e+01 -1.205542087554931641e+00 1.124549865722656250e+01 3.011986970901489258e+00 -1.356887340545654297e+00
3.278000000000000000e+03 7.440194702148437500e+01 1.553212165832519531e+01 -1.308025956153869629e+00 1.170781040191650391e+01 3.119935274124145508e+00 -9.788508415222167969e-01
3.279000000000000000e+03 2.345926856994628906e+01 -8.018183708190917969e+00 -5.344044566154479980e-01 2.255625724792480469e-01 -9.265257418155670166e-02 -3.934765756130218506e-01
3.280000000000000000e+03 7.456204223632812500e+01 2.427373504638671875e+01 -1.566444277763366699e+00 1.081924629211425781e+01 2.775840520858764648e+00 4.949029982089996338e-01
3.281000000000000000e+03 7.424406433105468750e+01 2.330596542358398438e+01 -1.425494670867919922e+00 1.202576351165771484e+01 3.180080652236938477e+00 4.568685591220855713e-01
3.282000000000000000e+03 7.447653198242187500e+01 1.159094905853271484e+01 -1.069703340530395508e+00 8.554642677307128906e+00 2.245481729507446289e+00 -4.794541895389556885e-01
3.283000000000000000e+03 3.573720550537109375e+01 2.603513336181640625e+01 -9.554177522659301758e-02 -2.658201754093170166e-02 -3.663713857531547546e-02 1.291917264461517334e-01
3.284000000000000000e+03 3.862762832641601562e+01 -1.100778675079345703e+01 7.311382889747619629e-02 -2.339682281017303467e-01 -4.825632274150848389e-02 -1.814693026244640350e-02
3.285000000000000000e+03 7.543761444091796875e+01 -1.871467781066894531e+01 4.143060147762298584e-01 6.829630374908447266e+00 2.173180818557739258e+00 5.509996414184570312e-01
3.286000000000000000e+03 7.241696834564208984e+00 -1.133525371551513672e+01 -2.742755115032196045e-01 -1.221287846565246582e-01 -1.189212873578071594e-01 -4.658791795372962952e-02
3.287000000000000000e+03 7.947791576385498047e+00 -1.079548358917236328e+01 -2.767046988010406494e-01 -1.526436656713485718e-01 -1.288045048713684082e-01 -2.044383436441421509e-02
3.288000000000000000e+03 1.021020698547363281e+01 -7.892161369323730469e+00 -1.715712100267410278e-01 -2.080060988664627075e-01 -1.138731911778450012e-01 2.563100680708885193e-02
3.289000000000000000e+03 2.027057838439941406e+01 -7.510228157043457031e+00 -4.198682308197021484e-01 1.059910133481025696e-01 -9.416316449642181396e-02 -4.019981324672698975e-01
3.290000000000000000e+03 7.592856597900390625e+01 1.505368041992187500e+01 -8.209195733070373535e-01 9.933933258056640625e+00 2.733904123306274414e+00 -2.011647939682006836e+00
3.291000000000000000e+03 7.475873565673828125e+01 1.652917671203613281e+01 -4.480824470520019531e-01 1.250805568695068359e+01 3.617992162704467773e+00 -1.933475255966186523e+00
3.292000000000000000e+03 7.274213409423828125e+01 1.513506889343261719e+01 -1.247546553611755371e+00 9.980444908142089844e+00 2.619869470596313477e+00 1.299066424369812012e+00
3.293000000000000000e+03 1.918578529357910156e+01 -6.696415424346923828e+00 -3.525795638561248779e-01 3.945463523268699646e-02 -9.393747895956039429e-02 -3.539099395275115967e-01
3.294000000000000000e+03 7.372675418853759766e+00 5.926253795623779297e+00 6.155320443212985992e-04 -2.240401518065482378e-04 1.174475692096166313e-04 -8.968219481175765395e-05
3.295000000000000000e+03 7.863575458526611328e+00 6.652954101562500000e+00 7.160439272411167622e-04 -2.974948729388415813e-04 1.255647075595334172e-04 -3.765887231566011906e-05
3.296000000000000000e+03 7.302592468261718750e+01 1.555700778961181641e+01 -1.313754677772521973e+00 1.104195117950439453e+01 2.918458938598632812e+00 1.031764745712280273e+00
3.297000000000000000e+03 7.356455230712890625e+01 1.562009239196777344e+01 -1.439497709274291992e+00 1.172292709350585938e+01 3.085028648376464844e+00 2.605006694793701172e-01
3.298000000000000000e+03 7.518746948242187500e+01 1.447790336608886719e+01 -1.272682309150695801e+00 1.034187316894531250e+01 2.720757246017456055e+00 -1.367649435997009277e+00
3.299000000000000000e+03 7.387844848632812500e+01 -7.007350444793701172e+00 -2.870420217514038086e-01 6.973946094512939453e+00 2.006071329116821289e+00 4.222380816936492920e-01
3.300000000000000000e+03 7.964901924133300781e+00 -9.136918067932128906e+00 -1.945001482963562012e-01 -1.286201775074005127e-01 -9.693609923124313354e-02 4.673684388399124146e-02
3.301000000000000000e+03 8.708627700805664062e+00 6.174752235412597656e+00 6.913175457157194614e-04 -3.040754527319222689e-04 1.161726322607137263e-04 5.128855627845041454e-05
3.302000000000000000e+03 8.078029632568359375e+00 1.513384628295898438e+01 -2.733618202910292894e-05 -1.766357338055968285e-03 -5.381080554798245430e-04 -1.060704817064106464e-03
3.303000000000000000e+03 7.450204467773437500e+01 -6.094093799591064453e+00 -2.252996712923049927e-01 7.212283611297607422e+00 2.096095085144042969e+00 3.574021160602569580e-01
3.304000000000000000e+03 7.363257598876953125e+01 -2.363296747207641602e+00 -1.246403381228446960e-01 6.719446659088134766e+00 1.978441834449768066e+00 2.254453748464584351e-01
3.305000000000000000e+03 7.710950374603271484e+00 1.300316619873046875e+01 3.759025421459227800e-04 -1.149053918197751045e-03 -2.319454069947823882e-04 -7.888510590419173241e-04
3.306000000000000000e+03 9.012848854064941406e+00 -7.357765197753906250e+00 -1.103837192058563232e-01 -1.441156715154647827e-01 -7.634981721639633179e-02 7.190022617578506470e-02
3.307000000000000000e+03 6.739038848876953125e+01 1.985123634338378906e+01 -1.127194881439208984e+00 -5.101498365402221680e-01 -4.912034273147583008e-01 7.739455699920654297e-01
3.308000000000000000e+03 6.811344146728515625e+01 1.945751190185546875e+01 -1.005552649497985840e+00 -5.525450780987739563e-02 -3.182421624660491943e-01 3.560819625854492188e-01
3.309000000000000000e+03 6.786162567138671875e+01 2.015963554382324219e+01 -1.762848377227783203e+00 2.053330838680267334e-01 -4.672545790672302246e-01 7.418125867843627930e-01
3.310000000000000000e+03 6.939694213867187500e+01 1.968914222717285156e+01 -2.685497045516967773e+00 1.931659132242202759e-01 -7.476993203163146973e-01 1.046433895826339722e-01
3.311000000000000000e+03 6.940567779541015625e+01 1.990070915222167969e+01 -1.907243490219116211e+00 5.838342756032943726e-02 -5.546579957008361816e-01 1.630669534206390381e-01
3.312000000000000000e+03 6.843310546875000000e+01 2.034352302551269531e+01 -1.270496249198913574e+00 4.484733045101165771e-01 -2.466069012880325317e-01 4.996290802955627441e-01
3.313000000000000000e+03 6.864487457275390625e+01 1.978130912780761719e+01 -1.732519149780273438e+00 4.142675399780273438e-01 -3.954754769802093506e-01 2.370642870664596558e-01
3.314000000000000000e+03 6.926046752929687500e+01 2.049173355102539062e+01 -8.928074836730957031e-01 3.947229981422424316e-01 -1.494253575801849365e-01 2.032811641693115234e-01
3.315000000000000000e+03 6.915126800537109375e+01 2.069762802124023438e+01 -6.822244524955749512e-01 5.389549136161804199e-01 -4.298087581992149353e-02 7.756287604570388794e-02
3.316000000000000000e+03 6.937882232666015625e+01 2.008772659301757812e+01 -1.647341489791870117e+00 2.426923215389251709e-01 -4.213947355747222900e-01 3.875396847724914551e-01
3.317000000000000000e+03 6.926909637451171875e+01 1.943763542175292969e+01 -2.669197797775268555e+00 1.237745583057403564e-01 -7.636269927024841309e-01 -2.425960749387741089e-01
3.318000000000000000e+03 6.930970001220703125e+01 2.027778434753417969e+01 -1.127678632736206055e+00 3.534094393253326416e-01 -2.322807610034942627e-01 2.432785630226135254e-01
3.319000000000000000e+03 6.900921630859375000e+01 1.958957099914550781e+01 -2.238172292709350586e+00 2.194904386997222900e-01 -6.056045293807983398e-01 -9.966683574020862579e-03
3.320000000000000000e+03 6.889543151855468750e+01 2.043651962280273438e+01 -1.215578198432922363e+00 4.961747527122497559e-01 -2.158210128545761108e-01 3.459757268428802490e-01
3.321000000000000000e+03 6.916524505615234375e+01 1.992503547668457031e+01 -1.646813273429870605e+00 2.753795981407165527e-01 -4.114300906658172607e-01 3.707132935523986816e-01
3.322000000000000000e+03 6.898188018798828125e+01 2.010892486572265625e+01 -1.645104527473449707e+00 3.688637316226959229e-01 -3.828722238540649414e-01 4.743931889533996582e-01
3.323000000000000000e+03 4.816661834716796875e+01 2.860905408859252930e+00 -1.052753068506717682e-03 -5.583548336289823055e-04 -4.833323764614760876e-04 -1.403951173415407538e-04
3.324000000000000000e+03 4.884421157836914062e+01 2.272418737411499023e+00 -3.186733374604955316e-05 2.834748011082410812e-04 7.548223948106169701e-05 7.635177098563872278e-06
3.325000000000000000e+03 4.734590530395507812e+01 2.888893842697143555e+00 1.148463343270123005e-04 2.956203243229538202e-04 1.231399946846067905e-04 1.457782782381400466e-04
3.326000000000000000e+03 4.729567718505859375e+01 2.148694038391113281e+00 -1.457895123166963458e-04 4.048948758281767368e-04 7.773161632940173149e-05 -2.148309868061915040e-04
3.327000000000000000e+03 4.813059616088867188e+01 2.117087602615356445e+00 2.495506778359413147e-04 -5.576658877544105053e-04 -9.243457316188141704e-05 3.427980846026912332e-05
3.328000000000000000e+03 4.574391174316406250e+01 2.291988372802734375e+00 -3.843952144961804152e-04 5.136954132467508316e-05 -9.990770195145159960e-05 -5.846823114552535117e-05
3.329000000000000000e+03 4.508349609375000000e+01 3.115487337112426758e+00 -5.007816362194716930e-04 -2.001289794861804694e-05 -1.562383549753576517e-04 -2.122377627529203892e-04
3.330000000000000000e+03 4.654520034790039062e+01 2.946180820465087891e+00 -2.704495564103126526e-04 -4.517827255767770112e-05 -9.468835196457803249e-05 -2.789575664792209864e-04
3.331000000000000000e+03 4.435177612304687500e+01 3.206143379211425781e+00 5.246561486274003983e-04 8.624616748420521617e-05 1.832707057474181056e-04 4.362968320492655039e-04
3.332000000000000000e+03 4.426314163208007812e+01 2.471468925476074219e+00 -4.553221224341541529e-04 -3.353667270857840776e-04 -2.372066519455984235e-04 -1.699647982604801655e-04
3.333000000000000000e+03 4.500381088256835938e+01 2.379753112792968750e+00 -1.412124256603419781e-04 1.046747347572818398e-04 -1.096130745281698182e-05 1.478005870012566447e-04
3.334000000000000000e+03 4.581465530395507812e+01 3.028782367706298828e+00 2.643339394126087427e-04 1.173658165498636663e-04 1.145099231507629156e-04 1.262221776414662600e-04
3.335000000000000000e+03 4.648339843750000000e+01 2.208327293395996094e+00 -1.359840825898572803e-04 -1.861443452071398497e-04 -9.663852688390761614e-05 8.136834367178380489e-05
3.336000000000000000e+03 4.252347946166992188e+01 2.680981159210205078e+00 -4.891341086477041245e-04 -7.294749957509338856e-04 -3.655827313195914030e-04 -3.416157269384711981e-04
3.337000000000000000e+03 4.351091384887695312e+01 3.309151887893676758e+00 -2.545431489124894142e-04 -2.827318894560448825e-05 -8.484490535920485854e-05 -2.281294146087020636e-04
3.338000000000000000e+03 4.341752243041992188e+01 2.575045585632324219e+00 -3.343888238305225968e-05 4.880179476458579302e-04 1.363737246720120311e-04 3.139304753858596087e-04
3.339000000000000000e+03 4.205744171142578125e+01 3.310378789901733398e+00 2.868223236873745918e-04 3.524289058987051249e-04 1.917753688758239150e-04 5.775074823759496212e-04
3.340000000000000000e+03 4.261743545532226562e+01 3.415010452270507812e+00 2.570449141785502434e-04 5.349429557099938393e-06 7.871830166550353169e-05 1.809007226256653666e-04
3.341000000000000000e+03 4.273027801513671875e+01 1.151939630508422852e+00 -1.871232241392135620e-01 -3.123323433101177216e-02 -6.550693511962890625e-02 -1.291534453630447388e-01
3.342000000000000000e+03 4.223837661743164062e+01 1.975815892219543457e+00 -1.781011582352221012e-03 3.349630534648895264e-02 9.514587931334972382e-03 -1.172608346678316593e-03
3.343000000000000000e+03 4.213619232177734375e+01 1.242898464202880859e+00 -5.513108521699905396e-02 -1.092166528105735779e-01 -4.930432140827178955e-02 -8.653616160154342651e-02
3.344000000000000000e+03 4.346941375732421875e+01 1.790263295173645020e+00 -1.362065970897674561e-01 3.222341835498809814e-02 -3.119495697319507599e-02 -5.313300341367721558e-02
3.345000000000000000e+03 4.337449264526367188e+01 1.056364059448242188e+00 -3.104082047939300537e-01 -2.863094955682754517e-02 -1.017117425799369812e-01 -1.563920974731445312e-01
3.346000000000000000e+03 4.178580474853515625e+01 1.468448638916015625e+00 2.895458973944187164e-02 2.682320587337017059e-02 1.673333905637264252e-02 4.097981750965118408e-02
3.347000000000000000e+03 4.282883071899414062e+01 1.885347962379455566e+00 -3.700089827179908752e-02 -5.710068345069885254e-02 -2.823047526180744171e-02 -3.034935332834720612e-02
3.348000000000000000e+03 4.559793090820312500e+01 7.826830744743347168e-01 -7.025387287139892578e-01 7.004191726446151733e-02 -1.897490471601486206e-01 -1.430853903293609619e-01
3.349000000000000000e+03 4.566867446899414062e+01 1.519477009773254395e+00 -6.334058046340942383e-01 4.742041637655347586e-04 -1.898794919252395630e-01 -1.314396411180496216e-02
3.350000000000000000e+03 4.641819000244140625e+01 1.431636214256286621e+00 -7.981626391410827637e-01 2.416919730603694916e-02 -2.321980297565460205e-01 1.364299375563859940e-02
3.351000000000000000e+03 4.491914367675781250e+01 1.608290433883666992e+00 -4.582780301570892334e-01 3.021019510924816132e-02 -1.284203529357910156e-01 -3.542992845177650452e-02
3.352000000000000000e+03 4.416964721679687500e+01 1.698033809661865234e+00 -2.854685187339782715e-01 -9.009627625346183777e-03 -8.834344148635864258e-02 -5.103114247322082520e-02
3.353000000000000000e+03 4.408101654052734375e+01 9.633592367172241211e-01 -4.423016011714935303e-01 3.836888074874877930e-02 -1.211798116564750671e-01 -1.911498308181762695e-01
3.354000000000000000e+03 4.635638427734375000e+01 6.937649250030517578e-01 -7.969617247581481934e-01 4.452331364154815674e-02 -2.257315218448638916e-01 -1.071758866310119629e-01
3.355000000000000000e+03 4.483945465087890625e+01 8.725561499595642090e-01 -5.858311057090759277e-01 4.364892095327377319e-02 -1.626546531915664673e-01 -1.733682155609130859e-01
3.356000000000000000e+03 1.771456718444824219e+01 -1.730482935905456543e+00 2.071840316057205200e-01 2.077398262917995453e-02 6.838740408420562744e-02 -6.773330271244049072e-02
3.357000000000000000e+03 1.610380172729492188e+01 -2.246368169784545898e+00 2.163374871015548706e-01 1.071004383265972137e-02 6.811425834894180298e-02 -1.090892627835273743e-01
3.358000000000000000e+03 1.839386558532714844e+01 -2.573463201522827148e+00 2.949577569961547852e-02 2.863386832177639008e-02 1.743889227509498596e-02 -1.302950233221054077e-01
3.359000000000000000e+03 1.696483802795410156e+01 -1.623387813568115234e+00 2.787193357944488525e-01 4.526271019130945206e-03 8.497367799282073975e-02 -7.429311424493789673e-02
3.360000000000000000e+03 1.846432685852050781e+01 -1.836017131805419922e+00 1.249443069100379944e-01 4.681681282818317413e-03 3.888779878616333008e-02 -6.205781176686286926e-02
3.361000000000000000e+03 1.763043975830078125e+01 -2.465977191925048828e+00 1.026812940835952759e-01 1.443532109260559082e-02 3.513498231768608093e-02 -1.238346770405769348e-01
3.362000000000000000e+03 1.621526145935058594e+01 -1.514777898788452148e+00 3.419671356678009033e-01 2.246833778917789459e-02 1.093306466937065125e-01 -7.745226472616195679e-02
3.363000000000000000e+03 1.686704444885253906e+01 -2.356930017471313477e+00 1.660864949226379395e-01 2.370056323707103729e-02 5.693611875176429749e-02 -1.174511015415191650e-01
3.364000000000000000e+03 1.922108840942382812e+01 -1.901556968688964844e+00 2.996058762073516846e-02 1.519661862403154373e-02 1.354716159403324127e-02 -5.205846205353736877e-02
3.365000000000000000e+03 2.075429344177246094e+01 -2.688717842102050781e+00 -1.794007569551467896e-01 1.058630552142858505e-02 -5.064433440566062927e-02 -1.025270670652389526e-01
3.366000000000000000e+03 1.917129516601562500e+01 -2.640394687652587891e+00 -4.161270707845687866e-02 1.509215310215950012e-02 -7.956165820360183716e-03 -1.278840601444244385e-01
3.367000000000000000e+03 2.154723358154296875e+01 -2.711827993392944336e+00 -2.266014516353607178e-01 1.288250461220741272e-02 -6.411568075418472290e-02 -8.875616639852523804e-02
3.368000000000000000e+03 2.151402282714843750e+01 -1.970406651496887207e+00 -2.307999879121780396e-01 -6.824936252087354660e-03 -7.128747552633285522e-02 -3.303547203540802002e-02
3.369000000000000000e+03 1.998429870605468750e+01 -1.925167441368103027e+00 -6.554111838340759277e-02 -1.799438614398241043e-03 -2.020216546952724457e-02 -4.176918417215347290e-02
3.370000000000000000e+03 1.996217155456542969e+01 -2.664836645126342773e+00 -1.083667576313018799e-01 2.290103770792484283e-02 -2.563971653580665588e-02 -1.190221607685089111e-01
3.371000000000000000e+03 2.074875450134277344e+01 -1.948217391967773438e+00 -1.495297700166702271e-01 1.052453927695751190e-02 -4.170157015323638916e-02 -3.569557145237922668e-02
3.372000000000000000e+03 2.611742591857910156e+01 -1.812861442565917969e+00 -5.905073136091232300e-02 -1.832175999879837036e-02 -2.321174740791320801e-02 4.308249056339263916e-02
3.373000000000000000e+03 2.535475349426269531e+01 -1.400197505950927734e+00 -5.640103667974472046e-02 -1.045229565352201462e-02 -2.005599997937679291e-02 1.455631665885448456e-02
3.374000000000000000e+03 2.464254951477050781e+01 -1.533933281898498535e+00 -1.294114142656326294e-01 7.485297974199056625e-03 -3.657783567905426025e-02 2.074866555631160736e-02
3.375000000000000000e+03 2.386987686157226562e+01 -1.667217731475830078e+00 -1.976924389600753784e-01 1.533232163637876511e-02 -5.470803380012512207e-02 -2.247770084068179131e-03
3.376000000000000000e+03 2.308257675170898438e+01 -1.796454071998596191e+00 -2.426872998476028442e-01 3.501111408695578575e-03 -7.175585627555847168e-02 -2.314079366624355316e-02
3.377000000000000000e+03 2.229188537597656250e+01 -1.919883370399475098e+00 -2.631917297840118408e-01 -4.269757191650569439e-04 -7.908561080694198608e-02 -3.627402335405349731e-02
3.378000000000000000e+03 2.236002731323242188e+01 -2.659403562545776367e+00 -2.681280076503753662e-01 1.487037446349859238e-02 -7.597728818655014038e-02 -4.706870019435882568e-02
3.379000000000000000e+03 2.559163856506347656e+01 -2.120468139648437500e+00 -2.003219127655029297e-01 -2.016586065292358398e-02 -6.614632904529571533e-02 9.670880436897277832e-02
3.380000000000000000e+03 2.483724784851074219e+01 -2.259016275405883789e+00 -2.589547634124755859e-01 4.357343912124633789e-02 -6.461439281702041626e-02 5.329372733831405640e-02
3.381000000000000000e+03 2.402239036560058594e+01 -2.397113323211669922e+00 -2.815082073211669922e-01 4.088716581463813782e-02 -7.218631356954574585e-02 2.173452265560626984e-02
3.382000000000000000e+03 2.319290542602539062e+01 -2.531162023544311523e+00 -2.845727503299713135e-01 3.521282598376274109e-02 -7.480797916650772095e-02 -1.216991804540157318e-02
3.383000000000000000e+03 2.371628379821777344e+01 -9.129138588905334473e-01 -2.444462734274566174e-05 -5.160040018381550908e-05 -2.281350862176623195e-05 -2.148967041648575105e-06
3.384000000000000000e+03 2.216311264038085938e+01 -4.021605253219604492e-01 2.338968988624401391e-05 6.627203401876613498e-05 2.689851680770516396e-05 -1.560323289595544338e-05
3.385000000000000000e+03 2.297673416137695312e+01 -1.029608249664306641e+00 1.688479400741016434e-08 6.815086089773103595e-05 2.045032306341454387e-05 3.690500307129696012e-06
3.386000000000000000e+03 2.288781547546386719e+01 -2.915260493755340576e-01 5.593808964476920664e-06 -1.011483182082884014e-04 -2.866635259124450386e-05 -4.338143298809882253e-06
3.387000000000000000e+03 2.359944915771484375e+01 -1.773885339498519897e-01 2.705215047171805054e-05 8.895394421415403485e-05 3.480182567727752030e-05 5.537730976357124746e-05
3.388000000000000000e+03 2.222411346435546875e+01 -1.142714738845825195e+00 -1.011755284707760438e-05 -7.357227877946570516e-05 -2.510695048840716481e-05 4.230130343785276636e-06
3.389000000000000000e+03 2.425791740417480469e+01 -6.540381163358688354e-02 -7.844453648431226611e-05 -1.638484036448062398e-06 -2.402490645181387663e-05 -5.642638643621467054e-05
3.390000000000000000e+03 2.440266609191894531e+01 -7.983722686767578125e-01 1.955042171175591648e-05 4.577846266329288483e-05 1.959866494871675968e-05 -1.852909554145298898e-05
3.391000000000000000e+03 2.494900894165039062e+01 -5.251957774162292480e-01 -4.719846856460208073e-06 -3.344185824971646070e-05 -1.144851103163091466e-05 5.899054485780652612e-06
3.392000000000000000e+03 2.074404335021972656e+01 -1.171212673187255859e+00 -2.676335680007468909e-05 -4.954529504175297916e-05 -2.289259646204300225e-05 -3.776065398142236518e-07
3.393000000000000000e+03 2.073850631713867188e+01 -4.307121932506561279e-01 4.105854168301448226e-05 6.061812018742784858e-05 3.050299892493057996e-05 -5.222649633651599288e-06
3.394000000000000000e+03 2.144596099853515625e+01 -4.485336542129516602e-01 -4.315232581575401127e-05 -6.143387145129963756e-05 -3.137585736112669110e-05 5.549471552512841299e-06
3.395000000000000000e+03 1.932354164123535156e+01 -3.847304880619049072e-01 2.462120937707368284e-05 6.376665260177105665e-05 2.651635804795660079e-05 1.287067152588861063e-05
3.396000000000000000e+03 2.000878715515136719e+01 -1.149096250534057617e+00 -4.009689746453659609e-06 4.538346183835528791e-05 1.241213249159045517e-05 3.149976237182272598e-06
3.397000000000000000e+03 1.927374839782714844e+01 -1.123568177223205566e+00 -3.256832496845163405e-05 -4.628759415936656296e-05 -2.365677573834545910e-05 -8.924854228098411113e-06
3.398000000000000000e+03 2.147916603088378906e+01 -1.189865589141845703e+00 5.983409664622740820e-06 6.365754961734637618e-05 2.089228837576229125e-05 -1.067772063834127039e-05
3.399000000000000000e+03 2.003091430664062500e+01 -4.094271957874298096e-01 -4.670473572332412004e-05 -5.984672316117212176e-05 -3.196543912054039538e-05 -1.833671922213397920e-05
3.400000000000000000e+03 1.706781387329101562e+01 -8.498843908309936523e-01 -5.682145456376019865e-06 3.655223190435208380e-05 9.261026207241229713e-06 9.463399692322127521e-06
3.401000000000000000e+03 1.780313491821289062e+01 -9.543285965919494629e-01 -3.229911817470565438e-05 -4.419934339239262044e-05 -2.294953810633160174e-05 -1.578389543510638759e-07
3.402000000000000000e+03 1.633273124694824219e+01 -7.435764670372009277e-01 -1.463034004700602964e-05 -2.706608211155980825e-05 -1.250892637472134084e-05 6.437407591874944046e-06
3.403000000000000000e+03 1.853857803344726562e+01 -1.058050036430358887e+00 -1.285959569941041991e-05 4.935723336529918015e-05 1.094929120881715789e-05 9.283620784117374569e-06
3.404000000000000000e+03 1.860903930664062500e+01 -3.206039965152740479e-01 -3.301705146441236138e-05 -4.597100632963702083e-05 -2.369641697441693395e-05 -7.508600447181379423e-06
3.405000000000000000e+03 1.644419097900390625e+01 -1.198618113994598389e-02 5.773745942860841751e-05 2.836201565514784306e-05 2.582984234322793782e-05 1.796726246539037675e-05
3.406000000000000000e+03 1.788726234436035156e+01 -2.188344895839691162e-01 2.837411739164963365e-05 4.730587897938676178e-05 2.270399818371515721e-05 9.813746146392077208e-06
3.407000000000000000e+03 1.716560745239257812e+01 -1.163421869277954102e-01 -1.879271076177246869e-05 -3.128841854049824178e-05 -1.502433860878227279e-05 1.342035102425143123e-05
3.408000000000000000e+03 1.425216674804687500e+01 3.718594610691070557e-01 5.897022856515832245e-05 -1.801556754799094051e-05 1.228639848704915494e-05 2.256994048366323113e-05
3.409000000000000000e+03 1.486107063293457031e+01 -4.904564023017883301e-01 2.769025559246074408e-05 -1.043184602167457342e-05 5.177522780286381021e-06 5.936276465945411474e-06
3.410000000000000000e+03 1.338883495330810547e+01 -2.235203832387924194e-01 9.673897147877141833e-05 -8.931900083553045988e-06 2.634212069096975029e-05 -5.634472017845837399e-06
3.411000000000000000e+03 1.498471641540527344e+01 2.391885817050933838e-01 1.121496097766794264e-04 8.792719199846033007e-06 3.628270133049227297e-05 3.261771780671551824e-05
3.412000000000000000e+03 1.559718132019042969e+01 -6.234676241874694824e-01 2.579164538474287838e-05 1.467289075662847608e-05 1.213936047861352563e-05 8.867135875334497541e-06
3.413000000000000000e+03 1.571725749969482422e+01 1.068236008286476135e-01 1.169769893749617040e-05 -2.140403557859826833e-05 -2.911900992330629379e-06 2.603456960059702396e-05
3.414000000000000000e+03 1.351961708068847656e+01 5.048320889472961426e-01 1.785996573744341731e-04 3.839334965505258879e-07 5.369507562136277556e-05 5.120433706906624138e-05
3.415000000000000000e+03 1.412495326995849609e+01 -3.571392297744750977e-01 8.597524720244109631e-05 2.336980742256855592e-06 2.649366979312617332e-05 8.218817129090894014e-06
3.416000000000000000e+03 1.115447902679443359e+01 1.927391290664672852e-01 2.609303919598460197e-04 1.405634338880190626e-05 8.249602251453325152e-05 -1.468706705054501072e-05
3.417000000000000000e+03 1.124617767333984375e+01 9.282501339912414551e-01 2.170712396036833525e-04 -3.833763548755086958e-05 5.362008232623338699e-05 1.173134751297766343e-05
3.418000000000000000e+03 1.040858840942382812e+01 3.243718445301055908e-01 2.976534597110003233e-04 -9.463833521294873208e-06 8.645688649266958237e-05 -2.531925383664201945e-05
3.419000000000000000e+03 1.190096187591552734e+01 5.598175525665283203e-02 1.883633667603135109e-04 -1.486439850850729272e-05 5.204969056649133563e-05 -1.724179674056358635e-05
3.420000000000000000e+03 1.277217197418212891e+01 6.438671946525573730e-01 1.376669242745265365e-04 -2.901393236243166029e-05 3.259589720983058214e-05 1.436704405932687223e-05
3.421000000000000000e+03 1.264777946472167969e+01 -8.565847575664520264e-02 1.657484972383826971e-04 8.086109119176398963e-06 5.215038254391402006e-05 1.492345745646161959e-06
3.422000000000000000e+03 1.048394012451171875e+01 1.062875509262084961e+00 3.017685085069388151e-04 1.855355003499425948e-05 9.609661356080323458e-05 2.623026557557750493e-05
3.423000000000000000e+03 1.200900745391845703e+01 7.885000705718994141e-01 2.485523000359535217e-04 5.226611392572522163e-06 7.613367051817476749e-05 4.454527152120135725e-05
3.424000000000000000e+03 9.734361648559570312e+00 1.127145886421203613e+00 2.381560043431818485e-04 -2.861331631720531732e-05 6.286280404310673475e-05 -2.304110785189550370e-05
3.425000000000000000e+03 8.896935462951660156e+00 3.830009996891021729e-01 2.979577984660863876e-04 -2.661588041519280523e-05 8.140257705235853791e-05 -1.769885784597136080e-05
3.426000000000000000e+03 8.138064384460449219e+00 3.806286156177520752e-01 3.017096023540943861e-04 2.712919922487344593e-05 9.865163883659988642e-05 -3.895765075867529958e-06
3.427000000000000000e+03 7.379830837249755859e+00 3.796389997005462646e-01 2.423764672130346298e-04 -3.174877201672643423e-05 6.318830855889245868e-05 -2.453839260851964355e-05
3.428000000000000000e+03 5.863903999328613281e+00 3.757120370864868164e-01 1.635787630220875144e-04 -2.005439637287054211e-05 4.305731272324919701e-05 -2.239657260361127555e-05
3.429000000000000000e+03 5.320739269256591797e+00 1.112017512321472168e+00 1.270032953470945358e-04 -8.548190635337959975e-06 3.553653368726372719e-05 -5.030185639043338597e-05
3.430000000000000000e+03 4.347909450531005859e+00 3.707045614719390869e-01 8.120112761389464140e-05 8.921480002754833549e-06 2.703678183024749160e-05 -9.216260878019966185e-06
3.431000000000000000e+03 2.832280635833740234e+00 3.607113361358642578e-01 1.241462723555741832e-05 4.278591586626134813e-05 1.656016320339404047e-05 8.477171832055319101e-06
3.432000000000000000e+03 2.076677560806274414e+00 3.580510318279266357e-01 1.837172931118402630e-05 -4.099808211321942508e-05 -6.787905931560089812e-06 -2.117256008205004036e-05
3.433000000000000000e+03 2.381986141204833984e+00 1.098051071166992188e+00 -1.545021768833976239e-05 5.881149263586848974e-05 1.300838266615755856e-05 -8.657865691930055618e-06
3.434000000000000000e+03 1.333416581153869629e+00 3.665323555469512939e-01 1.414774487784598023e-06 4.489360799198038876e-05 1.389251428918214515e-05 1.954162507900036871e-05
3.435000000000000000e+03 1.661404132843017578e+00 1.106532335281372070e+00 5.593556852545589209e-05 -3.485148045001551509e-05 6.325226422632113099e-06 -1.495777905802242458e-05
3.436000000000000000e+03 6.549507379531860352e-01 3.948049247264862061e-01 -1.255959505215287209e-04 -9.202795627061277628e-05 -6.528717494802549481e-05 -1.042289877659641206e-04
3.437000000000000000e+03 3.114910125732421875e+00 1.100711345672607422e+00 9.217958722729235888e-05 -1.455765595892444253e-05 2.328657865291461349e-05 -6.174978625494986773e-05
3.438000000000000000e+03 3.589553356170654297e+00 3.676617443561553955e-01 5.534876981982961297e-05 -2.453423257975373417e-05 9.244361535820644349e-06 -3.343710704939439893e-05
3.439000000000000000e+03 5.106146812438964844e+00 3.720174431800842285e-01 1.410640979884192348e-04 7.739415195828769356e-06 4.464105222723446786e-05 -2.324219894944690168e-05
3.440000000000000000e+03 6.055817127227783203e+00 1.115712046623229980e+00 2.182275784434750676e-04 1.378322031087009236e-05 6.960323662497103214e-05 -6.046541238902136683e-05
3.441000000000000000e+03 6.621888637542724609e+00 3.785927593708038330e-01 2.302740758750587702e-04 2.635814416862558573e-05 7.698966510361060500e-05 -1.297309063374996185e-05
3.442000000000000000e+03 8.261940002441406250e+00 1.120628595352172852e+00 2.349187707295641303e-04 -3.393686711206100881e-05 6.029457290424033999e-05 -4.858065221924334764e-05
3.443000000000000000e+03 8.998131752014160156e+00 1.123000979423522949e+00 3.257916250731796026e-04 1.831508961913641542e-05 1.032320142257958651e-04 -8.950079973146785051e-06
3.444000000000000000e+03 9.655843734741210938e+00 3.871458470821380615e-01 3.474140539765357971e-04 2.522301110730040818e-05 1.117911160690709949e-04 -4.767282916873227805e-06
3.445000000000000000e+03 7.526385784149169922e+00 1.119639039039611816e+00 2.857903018593788147e-04 1.509002959210192785e-05 9.026410407386720181e-05 -3.387009928701445460e-05
3.446000000000000000e+03 6.791122913360595703e+00 1.118592739105224609e+00 1.907061960082501173e-04 -2.772410698526073247e-05 4.889462798018939793e-05 -5.910391337238252163e-05
3.447000000000000000e+03 4.585180759429931641e+00 1.110704541206359863e+00 1.450091513106599450e-04 2.719263420658535324e-06 4.431852357811294496e-05 -7.171436300268396735e-05
3.448000000000000000e+03 3.849503755569458008e+00 1.107661724090576172e+00 6.146812665974721313e-05 1.634573891351465136e-05 2.334415876248385757e-05 -3.161808490403927863e-05
3.449000000000000000e+03 1.005617380142211914e+00 1.134804964065551758e+00 9.792733180802315474e-05 -3.175600431859493256e-05 1.985139897442422807e-05 -4.541288035397883505e-06
3.450000000000000000e+03 3.521488606929779053e-01 9.576021432876586914e-01 1.324319309787824750e-04 8.052142220549285412e-05 6.388600741047412157e-05 5.420922389021143317e-05
3.451000000000000000e+03 1.473077964782714844e+01 -1.259489893913269043e+00 4.071288108825683594e-01 1.927827112376689911e-02 1.279221326112747192e-01 -8.091164380311965942e-02
3.452000000000000000e+03 1.399090099334716797e+01 -1.125491499900817871e+00 4.181260168552398682e-01 6.380795501172542572e-03 1.273520439863204956e-01 -7.939505577087402344e-02
3.453000000000000000e+03 1.312020874023437500e+01 -1.719582676887512207e+00 3.184344172477722168e-01 -7.267053239047527313e-03 9.335021674633026123e-02 -5.240767821669578552e-02
3.454000000000000000e+03 1.535054302215576172e+01 -2.123512268066406250e+00 2.593570053577423096e-01 1.522046606987714767e-02 8.237323909997940063e-02 -9.244490414857864380e-02
3.455000000000000000e+03 1.547062015533447266e+01 -1.393221139907836914e+00 3.843950927257537842e-01 8.736594580113887787e-03 1.179395020008087158e-01 -8.428041636943817139e-02
3.456000000000000000e+03 1.460713481903076172e+01 -1.989134907722473145e+00 2.918938398361206055e-01 6.931385141797363758e-04 8.777609467506408691e-02 -8.188879489898681641e-02
3.457000000000000000e+03 1.325099086761474609e+01 -9.912301898002624512e-01 4.188262522220611572e-01 1.405639294534921646e-02 1.298647969961166382e-01 -7.136427611112594604e-02
3.458000000000000000e+03 1.386368751525878906e+01 -1.854490160942077637e+00 3.115371763706207275e-01 1.761431689374148846e-03 9.398958832025527954e-02 -6.487441062927246094e-02
3.459000000000000000e+03 4.878850173950195312e+01 1.049355626106262207e+00 -7.775190472602844238e-01 1.505854129791259766e-01 -1.880800873041152954e-01 1.432698667049407959e-01
3.460000000000000000e+03 5.012623596191406250e+01 9.023151993751525879e-01 -1.014607191085815430e+00 -2.824782729148864746e-01 -3.891256451606750488e-01 4.145716726779937744e-01
3.461000000000000000e+03 4.808418273925781250e+01 1.328896045684814453e+00 -8.203751444816589355e-01 5.576484277844429016e-02 -2.293830960988998413e-01 8.051070570945739746e-02
3.462000000000000000e+03 4.723052215576171875e+01 1.373414754867553711e+00 -8.923701643943786621e-01 -1.807201094925403595e-02 -2.731326520442962646e-01 1.449558977037668228e-02
3.463000000000000000e+03 4.713285446166992188e+01 6.349517107009887695e-01 -8.446856141090393066e-01 6.529966741800308228e-02 -2.338157892227172852e-01 -1.108212582767009735e-02
3.464000000000000000e+03 4.976459503173828125e+01 6.056182384490966797e-01 -1.313730120658874512e+00 -7.782577537000179291e-03 -3.964537978172302246e-01 2.100064903497695923e-01
3.465000000000000000e+03 4.861405944824218750e+01 4.997989833354949951e-01 -1.063210129737854004e+00 1.775202900171279907e-01 -2.657069563865661621e-01 1.267754286527633667e-01
3.466000000000000000e+03 4.930008697509765625e+01 1.340341091156005859e+00 -5.090192556381225586e-01 -3.874871879816055298e-02 -1.643303930759429932e-01 2.965239286422729492e-01
3.467000000000000000e+03 4.923085403442382812e+01 4.904414713382720947e-01 -1.075401067733764648e+00 1.015090569853782654e-01 -2.921676039695739746e-01 1.356270015239715576e-01
3.468000000000000000e+03 4.790584564208984375e+01 5.903443694114685059e-01 -9.313514828681945801e-01 9.867758303880691528e-02 -2.498021721839904785e-01 7.904602587223052979e-02
3.469000000000000000e+03 1.105858802795410156e+01 -5.865809917449951172e-01 3.544467687606811523e-01 3.834996605291962624e-04 1.064490824937820435e-01 -4.687490314245223999e-02
3.470000000000000000e+03 1.167972469329833984e+01 -1.452614903450012207e+00 3.108180761337280273e-01 -1.417478732764720917e-02 8.899298310279846191e-02 -2.322533540427684784e-02
3.471000000000000000e+03 1.025387477874755859e+01 -1.193646550178527832e+00 2.891478538513183594e-01 -2.770676463842391968e-02 7.843232899904251099e-02 2.075997879728674889e-03
3.472000000000000000e+03 1.239226341247558594e+01 -1.585148334503173828e+00 3.197524845600128174e-01 -7.419405970722436905e-03 9.369992464780807495e-02 -3.530327975749969482e-02
3.473000000000000000e+03 1.251665687561035156e+01 -8.556226491928100586e-01 4.068916440010070801e-01 4.702110774815082550e-03 1.234781295061111450e-01 -6.640536338090896606e-02
3.474000000000000000e+03 1.178777027130126953e+01 -7.200965881347656250e-01 3.859059512615203857e-01 8.289832621812820435e-03 1.182587295770645142e-01 -5.642119422554969788e-02
3.475000000000000000e+03 1.096688938140869141e+01 -1.322091937065124512e+00 2.978450059890747070e-01 -1.870899088680744171e-02 8.374080061912536621e-02 -7.228088565170764923e-03
3.476000000000000000e+03 1.032922649383544922e+01 -4.551429152488708496e-01 3.102747499942779541e-01 -5.197660066187381744e-03 9.152312576770782471e-02 -2.888376452028751373e-02
3.477000000000000000e+03 8.732760429382324219e+00 -1.120617032051086426e+00 2.405714392662048340e-01 -1.560847926884889603e-02 6.748888641595840454e-02 2.283002249896526337e-02
3.478000000000000000e+03 8.744119644165039062e+00 -3.806170821189880371e-01 2.913606464862823486e-01 -5.268430104479193687e-04 8.725013583898544312e-02 7.144642062485218048e-03
3.479000000000000000e+03 9.557686805725097656e+00 -3.860147297382354736e-01 2.917089164257049561e-01 -1.102082338184118271e-02 8.420643210411071777e-02 -6.354847922921180725e-03
3.480000000000000000e+03 7.929113388061523438e+00 -3.783791959285736084e-01 2.686678469181060791e-01 -3.836589399725198746e-03 7.944937795400619507e-02 1.245699636638164520e-02
3.481000000000000000e+03 6.294783592224121094e+00 -3.763209879398345947e-01 1.988469958305358887e-01 -2.359656384214758873e-03 5.894619971513748169e-02 1.706798933446407318e-02
3.482000000000000000e+03 5.471644878387451172e+00 -3.752553761005401611e-01 1.575011909008026123e-01 8.955493685789406300e-04 4.751902446150779724e-02 1.811569929122924805e-02
3.483000000000000000e+03 4.613348007202148438e+00 -3.803671598434448242e-01 1.150091961026191711e-01 -5.770184216089546680e-04 3.432965278625488281e-02 1.818355172872543335e-02
3.484000000000000000e+03 3.732568025588989258e+00 -3.332802653312683105e-01 7.763180136680603027e-02 3.512269118800759315e-03 2.434322237968444824e-02 1.463526580482721329e-02
3.485000000000000000e+03 3.565870285034179688e+00 -8.610453605651855469e-01 7.295799255371093750e-02 3.909616265445947647e-03 2.306028269231319427e-02 3.592532128095626831e-02
3.486000000000000000e+03 2.136041402816772461e+00 -7.255376577377319336e-01 2.622753567993640900e-02 5.888745654374361038e-03 9.634884074330329895e-03 1.770057901740074158e-02
3.487000000000000000e+03 1.105533838272094727e+00 -3.810451924800872803e-01 3.242670791223645210e-03 1.484323642216622829e-03 1.418098341673612595e-03 2.248637843877077103e-03
3.488000000000000000e+03 3.938522040843963623e-01 -5.564679503440856934e-01 -2.819177279889117926e-05 7.251195711432956159e-06 -6.282173217186937109e-06 -1.796357173589058220e-05
3.489000000000000000e+03 6.703363060951232910e-01 -1.121045231819152832e+00 2.303001703694462776e-03 4.772654268890619278e-03 2.122696721926331520e-03 4.383759573101997375e-03
3.490000000000000000e+03 9.509115219116210938e+00 -1.126014709472656250e+00 2.692556083202362061e-01 -2.220782265067100525e-02 7.411433756351470947e-02 7.535337470471858978e-03
3.491000000000000000e+03 7.954967498779296875e+00 -1.118379235267639160e+00 2.218733727931976318e-01 -6.159380078315734863e-03 6.471419334411621094e-02 3.540669009089469910e-02
3.492000000000000000e+03 7.175180912017822266e+00 -1.117205142974853516e+00 1.980032324790954590e-01 -6.598438136279582977e-03 5.742143839597702026e-02 4.343651235103607178e-02
3.493000000000000000e+03 6.395063877105712891e+00 -1.116320967674255371e+00 1.705711036920547485e-01 -1.226920401677489281e-03 5.080325528979301453e-02 4.778804257512092590e-02
3.494000000000000000e+03 5.609138011932373047e+00 -1.115255355834960938e+00 1.426906138658523560e-01 -2.891128417104482651e-03 4.193984717130661011e-02 4.969266057014465332e-02
3.495000000000000000e+03 4.788054466247558594e+00 -1.120367169380187988e+00 1.110758557915687561e-01 3.053353400900959969e-03 3.423876315355300903e-02 4.845631122589111328e-02
3.496000000000000000e+03 4.061712265014648438e+00 -1.217836499214172363e+00 8.226963877677917480e-02 3.442622488364577293e-03 2.571367844939231873e-02 4.824139922857284546e-02
3.497000000000000000e+03 3.415162801742553711e+00 -1.287765026092529297e+00 5.974220111966133118e-02 8.960397914052009583e-03 2.061077952384948730e-02 4.800111427903175354e-02
3.498000000000000000e+03 2.701009988784790039e+00 -1.257357716560363770e+00 4.508617147803306580e-02 1.073638722300529480e-02 1.674676686525344849e-02 4.053395241498947144e-02
3.499000000000000000e+03 1.974916696548461914e+00 -1.234486579895019531e+00 2.430263347923755646e-02 1.205273531377315521e-02 1.090661063790321350e-02 2.711837738752365112e-02
3.500000000000000000e+03 7.112113475799560547e+00 -3.772051930427551270e-01 2.364521473646163940e-01 1.151680597104132175e-03 7.128114998340606689e-02 1.509182807058095932e-02
3.501000000000000000e+03 2.813032150268554688e+00 -7.646003365516662598e-01 4.564126208424568176e-02 3.871465800330042839e-03 1.485381834208965302e-02 2.412376180291175842e-02
3.502000000000000000e+03 2.897913694381713867e+00 -2.672426402568817139e-01 3.994994610548019409e-02 1.750191731844097376e-04 1.203748956322669983e-02 8.527332916855812073e-03
3.503000000000000000e+03 1.625427722930908203e+00 -5.587234497070312500e-01 9.754939004778862000e-03 1.158347353339195251e-03 3.273985814303159714e-03 7.425670977681875229e-03
3.504000000000000000e+03 1.293549656867980957e+00 -1.184639215469360352e+00 1.162119768559932709e-02 1.127206813544034958e-02 6.867979653179645538e-03 1.419351063668727875e-02
3.505000000000000000e+03 2.151047229766845703e+00 -2.510510981082916260e-01 1.741695031523704529e-02 2.197680994868278503e-03 5.884389393031597137e-03 4.048527684062719345e-03
3.506000000000000000e+03 7.251381683349609375e+01 1.958605575561523438e+01 3.650036621093750000e+01 7.971553802490234375e+00 1.334157657623291016e+01 1.443325519561767578e+01
3.507000000000000000e+03 7.251913452148437500e+01 1.956732749938964844e+01 3.208436584472656250e+01 2.148513221740722656e+01 1.607084846496582031e+01 2.430450439453125000e+01
3.508000000000000000e+03 7.252799224853515625e+01 1.954998970031738281e+01 2.864036750793457031e+01 3.351579666137695312e+01 1.864684867858886719e+01 2.733987998962402344e+01
3.509000000000000000e+03 7.254005432128906250e+01 1.953470993041992188e+01 2.408493995666503906e+01 4.560690689086914062e+01 2.090755462646484375e+01 2.744039916992187500e+01
3.510000000000000000e+03 7.255486297607421875e+01 1.952207183837890625e+01 2.030624961853027344e+01 5.605011367797851562e+01 2.290690994262695312e+01 2.469147872924804688e+01
3.511000000000000000e+03 7.257184600830078125e+01 1.951255607604980469e+01 1.713049125671386719e+01 6.450992584228515625e+01 2.449212455749511719e+01 1.961617279052734375e+01
3.512000000000000000e+03 7.259036254882812500e+01 1.950653076171875000e+01 1.583306217193603516e+01 7.011467742919921875e+01 2.578432083129882812e+01 1.309816455841064453e+01
3.513000000000000000e+03 7.260968780517578125e+01 1.950422477722167969e+01 1.620055770874023438e+01 7.250958251953125000e+01 2.661304092407226562e+01 5.941920280456542969e+00
3.514000000000000000e+03 7.262910461425781250e+01 1.950572776794433594e+01 1.877788162231445312e+01 7.198771667480468750e+01 2.722967910766601562e+01 -6.608351469039916992e-01
3.515000000000000000e+03 7.264785003662109375e+01 1.951097869873046875e+01 2.273085975646972656e+01 6.885456848144531250e+01 2.747562789916992188e+01 -6.033446788787841797e+00
3.516000000000000000e+03 7.266521453857421875e+01 1.951978111267089844e+01 2.773421287536621094e+01 6.419680786132812500e+01 2.757930564880371094e+01 -9.433045387268066406e+00
3.517000000000000000e+03 7.268053436279296875e+01 1.953179359436035156e+01 3.283560562133789062e+01 5.875542068481445312e+01 2.747730636596679688e+01 -1.076945686340332031e+01
3.518000000000000000e+03 7.269322204589843750e+01 1.954656028747558594e+01 3.754761505126953125e+01 5.364125442504882812e+01 2.735666084289550781e+01 -1.008747768402099609e+01
3.519000000000000000e+03 7.270279693603515625e+01 1.956351470947265625e+01 4.125215148925781250e+01 4.935817718505859375e+01 2.718309783935546875e+01 -7.802163124084472656e+00
3.520000000000000000e+03 7.270887756347656250e+01 1.958200645446777344e+01 4.362243652343750000e+01 4.649428939819335938e+01 2.703501892089843750e+01 -4.413396835327148438e+00
3.521000000000000000e+03 7.271125030517578125e+01 1.960132980346679688e+01 4.456785583496093750e+01 4.537866973876953125e+01 2.698395919799804688e+01 -3.942347466945648193e-01
3.522000000000000000e+03 7.270980834960937500e+01 1.962074661254882812e+01 4.393133544921875000e+01 4.594395828247070312e+01 2.696258735656738281e+01 3.701143264770507812e+00
3.523000000000000000e+03 7.270462036132812500e+01 1.963951110839843750e+01 4.179234695434570312e+01 4.829525756835937500e+01 2.702628135681152344e+01 7.356008529663085938e+00
3.524000000000000000e+03 7.269587707519531250e+01 1.965690422058105469e+01 3.824277877807617188e+01 5.209571075439453125e+01 2.710154724121093750e+01 1.002052116394042969e+01
3.525000000000000000e+03 7.268391418457031250e+01 1.967226409912109375e+01 3.354500961303710938e+01 5.698738479614257812e+01 2.715971755981445312e+01 1.119237995147705078e+01
3.526000000000000000e+03 7.266918945312500000e+01 1.968500137329101562e+01 2.822735977172851562e+01 6.226259231567382812e+01 2.714698600769042969e+01 1.044085693359375000e+01
3.527000000000000000e+03 7.265226745605468750e+01 1.969462776184082031e+01 2.280660247802734375e+01 6.703448486328125000e+01 2.695232582092285156e+01 7.593119621276855469e+00
3.528000000000000000e+03 7.263379669189453125e+01 1.970077514648437500e+01 1.820801162719726562e+01 7.036148071289062500e+01 2.657084846496582031e+01 2.806520223617553711e+00
3.529000000000000000e+03 7.261447906494140625e+01 1.970320892333984375e+01 1.491366100311279297e+01 7.139526367187500000e+01 2.589267730712890625e+01 -3.495996713638305664e+00
3.530000000000000000e+03 7.259506225585937500e+01 1.970183372497558594e+01 1.340001296997070312e+01 6.953156280517578125e+01 2.487947273254394531e+01 -1.034528923034667969e+01
3.531000000000000000e+03 7.257627868652343750e+01 1.969670677185058594e+01 1.378012180328369141e+01 6.460012054443359375e+01 2.351407241821289062e+01 -1.694075012207031250e+01
3.532000000000000000e+03 7.255885314941406250e+01 1.968801879882812500e+01 1.557082462310791016e+01 5.699288177490234375e+01 2.176911163330078125e+01 -2.217285346984863281e+01
3.533000000000000000e+03 7.254345703125000000e+01 1.967610740661621094e+01 1.846008300781250000e+01 4.717260742187500000e+01 1.968980789184570312e+01 -2.548526573181152344e+01
3.534000000000000000e+03 7.253067016601562500e+01 1.966142463684082031e+01 2.117713165283203125e+01 3.632057189941406250e+01 1.724931144714355469e+01 -2.642940330505371094e+01
3.535000000000000000e+03 7.252098846435546875e+01 1.964453506469726562e+01 2.400744628906250000e+01 2.493417549133300781e+01 1.468248653411865234e+01 -2.458041000366210938e+01
3.536000000000000000e+03 7.251477813720703125e+01 1.962608146667480469e+01 2.515064239501953125e+01 1.422690200805664062e+01 1.181326293945312500e+01 -2.043280410766601562e+01
3.537000000000000000e+03 7.251228332519531250e+01 1.960677528381347656e+01 2.599440765380859375e+01 4.405659198760986328e+00 9.120019912719726562e+00 -9.390123367309570312e+00
