# el_label, x, y, sXX, sYY, sZZ, sXY
1.000000000000000000e+00 1.265326881408691406e+01 -5.174099206924438477e-01 -3.087667465209960938e+00 -1.469055652618408203e+00 -1.367016911506652832e+00 -2.305926799774169922e+00
2.000000000000000000e+00 1.245481014251708984e+01 -5.021918416023254395e-01 1.970240831375122070e+00 6.683704257011413574e-01 7.915834188461303711e-01 5.172387361526489258e-01
3.000000000000000000e+00 1.225635242462158203e+01 -4.869737625122070312e-01 6.259728670120239258e-01 -3.621926009654998779e-01 7.913408428430557251e-02 -1.541495472192764282e-01
4.000000000000000000e+00 1.205789375305175781e+01 -4.717556834220886230e-01 4.152155518531799316e-01 1.298781037330627441e-01 1.635280996561050415e-01 1.649119555950164795e-01
5.000000000000000000e+00 1.265452098846435547e+01 -5.758028626441955566e-01 1.185793972015380859e+01 -2.495701789855957031e+00 2.808671236038208008e+00 -8.119367957115173340e-01
6.000000000000000000e+00 1.245689678192138672e+01 -5.995134115219116211e-01 5.441056251525878906e+00 1.246193647384643555e-01 1.669702649116516113e+00 3.212319910526275635e-01
7.000000000000000000e+00 1.225927352905273438e+01 -6.232239603996276855e-01 5.491480350494384766e+00 1.601893603801727295e-01 1.695500850677490234e+00 1.015023350715637207e+00
8.000000000000000000e+00 1.206165027618408203e+01 -6.469345092773437500e-01 4.176432609558105469e+00 -1.630662083625793457e-01 1.204009890556335449e+00 5.484132170677185059e-01
9.000000000000000000e+00 1.266711711883544922e+01 -6.328346729278564453e-01 1.867919540405273438e+01 -3.680759668350219727e-02 5.592716217041015625e+00 5.213810443878173828e+00
1.000000000000000000e+01 1.247789096832275391e+01 -6.945664882659912109e-01 1.173767948150634766e+01 2.041552402079105377e-02 3.527428388595581055e+00 2.858842134475708008e+00
1.100000000000000000e+01 1.228866577148437500e+01 -7.562982439994812012e-01 8.495376586914062500e+00 8.431952595710754395e-01 2.801571607589721680e+00 2.508762359619140625e+00
1.200000000000000000e+01 1.209943962097167969e+01 -8.180299997329711914e-01 7.484692573547363281e+00 5.018824338912963867e-01 2.395972490310668945e+00 2.414027214050292969e+00
1.300000000000000000e+01 1.269057559967041016e+01 -6.863228678703308105e-01 2.187547302246093750e+01 4.425936698913574219e+00 7.890422821044921875e+00 1.067317390441894531e+01
1.400000000000000000e+01 1.251698875427246094e+01 -7.837134003639221191e-01 1.450226783752441406e+01 2.639965057373046875e+00 5.142669677734375000e+00 6.820049285888671875e+00
1.500000000000000000e+01 1.234340286254882812e+01 -8.811039924621582031e-01 1.154904174804687500e+01 2.290815353393554688e+00 4.151957035064697266e+00 5.345805644989013672e+00
1.600000000000000000e+01 1.216981601715087891e+01 -9.784945845603942871e-01 9.347423553466796875e+00 2.126112937927246094e+00 3.442060947418212891e+00 4.601893901824951172e+00
1.700000000000000000e+01 1.272399997711181641e+01 -7.342203855514526367e-01 2.131799316406250000e+01 1.104441261291503906e+01 9.708722114562988281e+00 1.517565345764160156e+01
1.800000000000000000e+01 1.257269477844238281e+01 -8.635426759719848633e-01 1.554642963409423828e+01 6.858632564544677734e+00 6.721518993377685547e+00 1.025303745269775391e+01
1.900000000000000000e+01 1.242139053344726562e+01 -9.928649663925170898e-01 1.223673343658447266e+01 5.419043540954589844e+00 5.296732902526855469e+00 8.249035835266113281e+00
2.000000000000000000e+01 1.227008628845214844e+01 -1.122187256813049316e+00 1.062781143188476562e+01 4.779816150665283203e+00 4.622288227081298828e+00 7.136774539947509766e+00
2.100000000000000000e+01 1.276610851287841797e+01 -7.746943235397338867e-01 1.920551681518554688e+01 1.860952949523925781e+01 1.134451389312744141e+01 1.754611206054687500e+01
2.200000000000000000e+01 1.264287662506103516e+01 -9.309992194175720215e-01 1.432161331176757812e+01 1.244001674652099609e+01 8.028489112854003906e+00 1.253709030151367188e+01
2.300000000000000000e+01 1.251964473724365234e+01 -1.087304115295410156e+00 1.198622798919677734e+01 9.615904808044433594e+00 6.480639934539794922e+00 1.032557964324951172e+01
2.400000000000000000e+01 1.239641284942626953e+01 -1.243608951568603516e+00 1.000888824462890625e+01 8.284165382385253906e+00 5.487915992736816406e+00 8.945590019226074219e+00
2.500000000000000000e+01 1.281529140472412109e+01 -8.061956167221069336e-01 1.590779209136962891e+01 2.641478729248046875e+01 1.269677448272705078e+01 1.747821044921875000e+01
2.600000000000000000e+01 1.272484874725341797e+01 -9.835014343261718750e-01 1.254888534545898438e+01 1.827735137939453125e+01 9.247871398925781250e+00 1.333267498016357422e+01
2.700000000000000000e+01 1.263440513610839844e+01 -1.160807251930236816e+00 1.029441356658935547e+01 1.466057109832763672e+01 7.486495494842529297e+00 1.092923164367675781e+01
2.800000000000000000e+01 1.254396152496337891e+01 -1.338112950325012207e+00 8.918677330017089844e+00 1.220343494415283203e+01 6.336633682250976562e+00 9.727971076965332031e+00
2.900000000000000000e+01 1.286966609954833984e+01 -8.275188803672790527e-01 1.310826301574707031e+01 3.333190155029296875e+01 1.393204975128173828e+01 1.526918601989746094e+01
3.000000000000000000e+01 1.281547260284423828e+01 -1.019040107727050781e+00 1.046632289886474609e+01 2.365471649169921875e+01 1.023631191253662109e+01 1.225469589233398438e+01
3.100000000000000000e+01 1.276127910614013672e+01 -1.210561394691467285e+00 8.531769752502441406e+00 1.959714508056640625e+01 8.438673973083496094e+00 1.055970954895019531e+01
3.200000000000000000e+01 1.270708656311035156e+01 -1.402082681655883789e+00 7.206202983856201172e+00 1.682600593566894531e+01 7.209662914276123047e+00 8.905237197875976562e+00
3.300000000000000000e+01 1.292715263366699219e+01 -8.378480076789855957e-01 1.114524459838867188e+01 3.813824081420898438e+01 1.478504562377929688e+01 1.162717437744140625e+01
3.400000000000000000e+01 1.291128253936767578e+01 -1.036255359649658203e+00 9.184019088745117188e+00 2.848263359069824219e+01 1.129999637603759766e+01 9.744780540466308594e+00
3.500000000000000000e+01 1.289541339874267578e+01 -1.234662652015686035e+00 7.172852516174316406e+00 2.318319129943847656e+01 9.106813430786132812e+00 8.792160987854003906e+00
3.600000000000000000e+01 1.287954425811767578e+01 -1.433069944381713867e+00 5.774213790893554688e+00 2.109206581115722656e+01 8.059884071350097656e+00 7.896679401397705078e+00
3.700000000000000000e+01 1.298554897308349609e+01 -8.367877006530761719e-01 1.166874313354492188e+01 4.115776062011718750e+01 1.584795093536376953e+01 7.005044460296630859e+00
3.800000000000000000e+01 1.300861072540283203e+01 -1.034488081932067871e+00 8.136351585388183594e+00 3.140013885498046875e+01 1.186094665527343750e+01 6.710990905761718750e+00
3.900000000000000000e+01 1.303167247772216797e+01 -1.232188582420349121e+00 7.247406959533691406e+00 2.641144752502441406e+01 1.009765625000000000e+01 5.755499362945556641e+00
4.000000000000000000e+01 1.305473423004150391e+01 -1.429888963699340820e+00 5.417644500732421875e+00 2.235477828979492188e+01 8.331727027893066406e+00 6.011068820953369141e+00
4.100000000000000000e+01 1.304262161254882812e+01 -8.243785500526428223e-01 1.294900608062744141e+01 4.180337142944335938e+01 1.642571258544921875e+01 2.717904567718505859e+00
4.200000000000000000e+01 1.310373210906982422e+01 -1.013806223869323730e+00 9.309949874877929688e+00 3.280953216552734375e+01 1.263584423065185547e+01 3.256708145141601562e+00
4.300000000000000000e+01 1.316484260559082031e+01 -1.203233838081359863e+00 7.190876483917236328e+00 2.786822319030761719e+01 1.051772975921630859e+01 2.956486225128173828e+00
4.400000000000000000e+01 1.322595310211181641e+01 -1.392661571502685547e+00 6.917232036590576172e+00 2.450882530212402344e+01 9.427817344665527344e+00 2.380975246429443359e+00
4.500000000000000000e+01 1.309618663787841797e+01 -8.010954260826110840e-01 1.572932243347167969e+01 4.071384048461914062e+01 1.693294906616210938e+01 -7.370225191116333008e-01
4.600000000000000000e+01 1.319300651550292969e+01 -9.750010371208190918e-01 1.135084342956542969e+01 3.273299026489257812e+01 1.322514915466308594e+01 3.620738387107849121e-01
4.700000000000000000e+01 1.328982734680175781e+01 -1.148906588554382324e+00 8.643012046813964844e+00 2.764267921447753906e+01 1.088570785522460938e+01 2.661541998386383057e-01
4.800000000000000000e+01 1.338664722442626953e+01 -1.322812199592590332e+00 7.674805164337158203e+00 2.582959747314453125e+01 1.005132102966308594e+01 5.763806700706481934e-01
4.900000000000000000e+01 1.314419364929199219e+01 -7.678294181823730469e-01 1.949386596679687500e+01 3.896284866333007812e+01 1.753701400756835938e+01 -2.591463565826416016e+00
5.000000000000000000e+01 1.327301883697509766e+01 -9.195576310157775879e-01 1.392778778076171875e+01 3.095473670959472656e+01 1.346475696563720703e+01 -1.950420141220092773e+00
5.100000000000000000e+01 1.340184307098388672e+01 -1.071285843849182129e+00 1.125296211242675781e+01 2.703430366516113281e+01 1.148617935180664062e+01 -1.295254945755004883e+00
5.200000000000000000e+01 1.353066825866699219e+01 -1.223014116287231445e+00 9.357038497924804688e+00 2.254964637756347656e+01 9.572005271911621094e+00 -5.192127823829650879e-01
5.300000000000000000e+01 1.318480587005615234e+01 -7.258535027503967285e-01 2.297386550903320312e+01 3.616639709472656250e+01 1.774207878112792969e+01 -3.227016687393188477e+00
5.400000000000000000e+01 1.334070491790771484e+01 -8.495978116989135742e-01 1.708634376525878906e+01 2.922333335876464844e+01 1.389290332794189453e+01 -2.839646577835083008e+00
5.500000000000000000e+01 1.349660491943359375e+01 -9.733421206474304199e-01 1.405575656890869141e+01 2.457065773010253906e+01 1.158792400360107422e+01 -1.944124817848205566e+00
5.600000000000000000e+01 1.365250396728515625e+01 -1.097086429595947266e+00 1.235271453857421875e+01 2.053823852539062500e+01 9.867285728454589844e+00 -2.204282522201538086e+00
5.700000000000000000e+01 1.321646785736083984e+01 -6.767742037773132324e-01 2.611847686767578125e+01 3.379272842407226562e+01 1.797336196899414062e+01 -2.557033777236938477e+00
5.800000000000000000e+01 1.339347553253173828e+01 -7.677989602088928223e-01 1.973270988464355469e+01 2.713792037963867188e+01 1.406118869781494141e+01 -2.265723705291748047e+00
5.900000000000000000e+01 1.357048416137695312e+01 -8.588236570358276367e-01 1.685379028320312500e+01 2.232270812988281250e+01 1.175294971466064453e+01 -2.149430751800537109e+00
6.000000000000000000e+01 1.374749279022216797e+01 -9.498484730720520020e-01 1.455375576019287109e+01 1.992453193664550781e+01 1.034348583221435547e+01 -2.271079301834106445e+00
6.100000000000000000e+01 1.323796939849853516e+01 -6.224696636199951172e-01 2.796678543090820312e+01 3.217069244384765625e+01 1.804124259948730469e+01 -9.790414571762084961e-01
6.200000000000000000e+01 1.342931175231933594e+01 -6.772913932800292969e-01 2.213432884216308594e+01 2.519878959655761719e+01 1.419993591308593750e+01 -6.767812967300415039e-01
6.300000000000000000e+01 1.362065410614013672e+01 -7.321131229400634766e-01 1.807840919494628906e+01 2.141375350952148438e+01 1.184764862060546875e+01 -1.140355348587036133e+00
6.400000000000000000e+01 1.381199741363525391e+01 -7.869348526000976562e-01 1.619717025756835938e+01 1.862945747375488281e+01 1.044798851013183594e+01 -1.235367774963378906e+00
6.500000000000000000e+01 1.324848747253417969e+01 -5.650179386138916016e-01 2.904662322998046875e+01 3.143457603454589844e+01 1.814435958862304688e+01 1.697712540626525879e+00
6.600000000000000000e+01 1.344684219360351562e+01 -5.815385580062866211e-01 2.272268486022949219e+01 2.424061775207519531e+01 1.408899021148681641e+01 1.093416929244995117e+00
6.700000000000000000e+01 1.364519596099853516e+01 -5.980591773986816406e-01 1.907463836669921875e+01 2.101328659057617188e+01 1.202637672424316406e+01 1.233048915863037109e+00
6.800000000000000000e+01 1.384354972839355469e+01 -6.145797967910766602e-01 1.572426605224609375e+01 1.833002662658691406e+01 1.021628761291503906e+01 3.073986172676086426e-01
6.900000000000000000e+01 1.324761867523193359e+01 -5.066177845001220703e-01 2.849527740478515625e+01 3.128783416748046875e+01 1.793493270874023438e+01 4.043326377868652344e+00
7.000000000000000000e+01 1.344539451599121094e+01 -4.842049181461334229e-01 2.210303878784179688e+01 2.486873817443847656e+01 1.409153366088867188e+01 3.683747768402099609e+00
7.100000000000000000e+01 1.364316844940185547e+01 -4.617920815944671631e-01 1.841748428344726562e+01 2.088168144226074219e+01 1.178975009918212891e+01 2.960964441299438477e+00
7.200000000000000000e+01 1.384094429016113281e+01 -4.393792450428009033e-01 1.595338153839111328e+01 1.915537071228027344e+01 1.053262615203857422e+01 3.045663356781005859e+00
7.300000000000000000e+01 1.323539733886718750e+01 -4.495041966438293457e-01 2.645816040039062500e+01 3.251766204833984375e+01 1.769274711608886719e+01 6.548480033874511719e+00
7.400000000000000000e+01 1.342502403259277344e+01 -3.890156149864196777e-01 2.022724914550781250e+01 2.615175819396972656e+01 1.391370201110839844e+01 5.414048194885253906e+00
7.500000000000000000e+01 1.361465072631835938e+01 -3.285270631313323975e-01 1.648685455322265625e+01 2.209310913085937500e+01 1.157398891448974609e+01 4.902528762817382812e+00
7.600000000000000000e+01 1.380427837371826172e+01 -2.680385112762451172e-01 1.463252830505371094e+01 1.986974906921386719e+01 1.035068321228027344e+01 3.989647388458251953e+00
7.700000000000000000e+01 1.321228981018066406e+01 -3.958629369735717773e-01 2.355686569213867188e+01 3.493162918090820312e+01 1.754654884338378906e+01 7.874609470367431641e+00
7.800000000000000000e+01 1.338651180267333984e+01 -2.996135652065277100e-01 1.677976989746093750e+01 2.797246551513671875e+01 1.342567062377929688e+01 6.790417194366455078e+00
7.900000000000000000e+01 1.356073379516601562e+01 -2.033641636371612549e-01 1.416774177551269531e+01 2.412004470825195312e+01 1.148633575439453125e+01 5.329727649688720703e+00
8.000000000000000000e+01 1.373495578765869141e+01 -1.071147695183753967e-01 1.094244766235351562e+01 2.115597152709960938e+01 9.629526138305664062e+00 5.193365097045898438e+00
8.100000000000000000e+01 1.317918109893798828e+01 -3.477468788623809814e-01 1.876362419128417969e+01 3.749761581420898438e+01 1.687837219238281250e+01 8.491488456726074219e+00
8.200000000000000000e+01 1.333133029937744141e+01 -2.194201052188873291e-01 1.363422393798828125e+01 3.043237304687500000e+01 1.321997928619384766e+01 6.317374229431152344e+00
8.300000000000000000e+01 1.348348045349121094e+01 -9.109333902597427368e-02 1.008373355865478516e+01 2.606613159179687500e+01 1.084495925903320312e+01 5.351996421813964844e+00
8.400000000000000000e+01 1.363562965393066406e+01 3.723342716693878174e-02 9.191349029541015625e+00 2.278711891174316406e+01 9.593540191650390625e+00 4.857735157012939453e+00
8.500000000000000000e+01 1.313733863830566406e+01 -3.069973886013031006e-01 1.460827159881591797e+01 4.024418640136718750e+01 1.645573806762695312e+01 7.168961524963378906e+00
8.600000000000000000e+01 1.326159286499023438e+01 -1.515042930841445923e-01 9.343883514404296875e+00 3.243474578857421875e+01 1.253358936309814453e+01 4.846675395965576172e+00
8.700000000000000000e+01 1.338584709167480469e+01 3.988799639046192169e-03 7.359801292419433594e+00 2.766697311401367188e+01 1.050803279876708984e+01 4.030579090118408203e+00
8.800000000000000000e+01 1.351010227203369141e+01 1.594818979501724243e-01 5.877587795257568359e+00 2.431988334655761719e+01 9.059241294860839844e+00 3.033351421356201172e+00
8.900000000000000000e+01 1.308836269378662109e+01 -2.751739323139190674e-01 9.965403556823730469e+00 4.240946197509765625e+01 1.571245956420898438e+01 4.170681953430175781e+00
9.000000000000000000e+01 1.317996692657470703e+01 -9.846523404121398926e-02 6.356416225433349609e+00 3.334431838989257812e+01 1.191022014617919922e+01 2.253915071487426758e+00
9.100000000000000000e+01 1.327157115936279297e+01 7.824348658323287964e-02 4.594046115875244141e+00 2.840045166015625000e+01 9.898349761962890625e+00 1.470587134361267090e+00
9.200000000000000000e+01 1.336317539215087891e+01 2.549521923065185547e-01 3.202689170837402344e+00 2.536080741882324219e+01 8.569048881530761719e+00 1.101958513259887695e+00
9.300000000000000000e+01 1.303412818908691406e+01 -2.534944415092468262e-01 6.597649097442626953e+00 4.277579498291015625e+01 1.481203269958496094e+01 1.534318644553422928e-02
9.400000000000000000e+01 1.308957672119140625e+01 -6.233272328972816467e-02 4.258407592773437500e+00 3.295879745483398438e+01 1.116516208648681641e+01 -1.414969563484191895e+00
9.500000000000000000e+01 1.314502525329589844e+01 1.288290023803710938e-01 2.785816431045532227e+00 2.769828033447265625e+01 9.145229339599609375e+00 -1.435201883316040039e+00
9.600000000000000000e+01 1.320047283172607422e+01 3.199907243251800537e-01 2.084222078323364258e+00 2.476383972167968750e+01 8.054418563842773438e+00 -1.212216615676879883e+00
9.700000000000000000e+01 1.297671127319335938e+01 -2.427885532379150391e-01 4.994422435760498047e+00 4.117755126953125000e+01 1.385159206390380859e+01 -5.115001201629638672e+00
9.800000000000000000e+01 1.299388122558593750e+01 -4.448955506086349487e-02 3.313898563385009766e+00 3.066110610961914062e+01 1.019250106811523438e+01 -5.020775318145751953e+00
9.900000000000000000e+01 1.301105213165283203e+01 1.538094282150268555e-01 2.339847326278686523e+00 2.562111091613769531e+01 8.388287544250488281e+00 -4.605367183685302734e+00
1.000000000000000000e+02 1.302822208404541016e+01 3.521084189414978027e-01 1.913029313087463379e+00 2.201781272888183594e+01 7.179252624511718750e+00 -3.917753934860229492e+00
1.010000000000000000e+02 1.291830921173095703e+01 -2.434659600257873535e-01 5.112474441528320312e+00 3.701100921630859375e+01 1.263704490661621094e+01 -9.831049919128417969e+00
1.020000000000000000e+02 1.289654350280761719e+01 -4.561858251690864563e-02 3.792612791061401367e+00 2.673323631286621094e+01 9.157754898071289062e+00 -8.339378356933593750e+00
1.030000000000000000e+02 1.287477874755859375e+01 1.522287875413894653e-01 2.862322092056274414e+00 2.185927391052246094e+01 7.416478633880615234e+00 -7.042071819305419922e+00
1.040000000000000000e+02 1.285301399230957031e+01 3.500761687755584717e-01 2.299376726150512695e+00 1.878601074218750000e+01 6.325616359710693359e+00 -6.592159748077392578e+00
1.050000000000000000e+02 1.286115550994873047e+01 -2.555007636547088623e-01 6.924950122833251953e+00 3.057187080383300781e+01 1.124904632568359375e+01 -1.354396820068359375e+01
1.060000000000000000e+02 1.280128860473632812e+01 -6.567659974098205566e-02 5.162822246551513672e+00 2.133123588562011719e+01 7.948217391967773438e+00 -1.022965145111083984e+01
1.070000000000000000e+02 1.274142074584960938e+01 1.241475716233253479e-01 4.060706615447998047e+00 1.707910537719726562e+01 6.341943740844726562e+00 -8.735466003417968750e+00
1.080000000000000000e+02 1.268155384063720703e+01 3.139717280864715576e-01 3.150189399719238281e+00 1.491467475891113281e+01 5.419459342956542969e+00 -7.526709079742431641e+00
1.090000000000000000e+02 1.280743885040283203e+01 -2.784323990345001221e-01 9.477761268615722656e+00 2.267757987976074219e+01 9.646602630615234375e+00 -1.490433788299560547e+01
1.100000000000000000e+02 1.271176052093505859e+01 -1.038959920406341553e-01 6.943268775939941406e+00 1.496156024932861328e+01 6.571448802947998047e+00 -1.077762222290039062e+01
1.110000000000000000e+02 1.261608219146728516e+01 7.064042985439300537e-02 5.257390022277832031e+00 1.201661586761474609e+01 5.182201862335205078e+00 -8.582666397094726562e+00
1.120000000000000000e+02 1.252040386199951172e+01 2.451768368482589722e-01 4.278441905975341797e+00 1.021129512786865234e+01 4.346920967102050781e+00 -7.453553199768066406e+00
1.130000000000000000e+02 1.275921535491943359e+01 -3.113832771778106689e-01 1.207446956634521484e+01 1.385826683044433594e+01 7.779820919036865234e+00 -1.391687297821044922e+01
1.140000000000000000e+02 1.263138675689697266e+01 -1.588140875101089478e-01 7.820755958557128906e+00 8.858128547668457031e+00 5.003665447235107422e+00 -9.170889854431152344e+00
1.150000000000000000e+02 1.250355911254882812e+01 -6.244922522455453873e-03 6.123705863952636719e+00 7.067358493804931641e+00 3.957319259643554688e+00 -7.222841262817382812e+00
1.160000000000000000e+02 1.237573146820068359e+01 1.463242471218109131e-01 4.647137641906738281e+00 6.073451995849609375e+00 3.216176986694335938e+00 -6.114691257476806641e+00
1.170000000000000000e+02 1.271832847595214844e+01 -3.530923426151275635e-01 1.232950305938720703e+01 5.883163452148437500e+00 5.463799953460693359e+00 -1.022192001342773438e+01
1.180000000000000000e+02 1.256324386596679688e+01 -2.283291965723037720e-01 7.717235088348388672e+00 3.511342763900756836e+00 3.368573427200317383e+00 -6.067291736602783203e+00
1.190000000000000000e+02 1.240815734863281250e+01 -1.035660803318023682e-01 5.089727401733398438e+00 3.469615936279296875e+00 2.567803144454956055e+00 -4.576862812042236328e+00
1.200000000000000000e+02 1.225307273864746094e+01 2.119703963398933411e-02 4.185016632080078125e+00 3.161281108856201172e+00 2.203889369964599609e+00 -4.329879760742187500e+00
1.210000000000000000e+02 1.268634510040283203e+01 -4.019634127616882324e-01 1.011990261077880859e+01 -1.116839170455932617e+00 2.700918912887573242e+00 -4.174297332763671875e+00
1.220000000000000000e+02 1.250993728637695312e+01 -3.097809851169586182e-01 3.881810188293457031e+00 9.765036702156066895e-01 1.457494139671325684e+00 -2.011810302734375000e+00
1.230000000000000000e+02 1.233352947235107422e+01 -2.175985872745513916e-01 3.308552742004394531e+00 1.602784991264343262e+00 1.473401308059692383e+00 -2.552150726318359375e+00
1.240000000000000000e+02 1.215712165832519531e+01 -1.254161894321441650e-01 2.262361526489257812e+00 7.558077573776245117e-01 9.054507613182067871e-01 -1.903151035308837891e+00
1.250000000000000000e+02 1.266448783874511719e+01 -4.561262130737304688e-01 -1.811689734458923340e+00 -3.266083478927612305e+00 -1.523331999778747559e+00 2.318832159042358398e+00
1.260000000000000000e+02 1.247350883483886719e+01 -4.000523090362548828e-01 7.751448154449462891e-01 1.209517955780029297e+00 5.953988432884216309e-01 -7.278302311897277832e-01
1.270000000000000000e+02 1.228252983093261719e+01 -3.439784348011016846e-01 -2.854791879653930664e-01 -3.886440396308898926e-01 -2.022369652986526489e-01 -9.768635034561157227e-02
1.280000000000000000e+02 1.209154987335205078e+01 -2.879045605659484863e-01 -8.126353621482849121e-01 2.765912711620330811e-01 -1.608132272958755493e-01 -8.340419828891754150e-02
1.290000000000000000e+02 9.640353202819824219e+00 -1.004078626632690430e+00 1.009712219238281250e+00 1.535725444555282593e-01 3.489854335784912109e-01 5.247713923454284668e-01
1.300000000000000000e+02 8.774600982666015625e+00 -2.849093973636627197e-01 -1.024858593940734863e+00 -1.977635174989700317e-02 -3.133904933929443359e-01 2.149257063865661621e-02
1.310000000000000000e+02 9.685463905334472656e+00 -5.168810486793518066e-01 -3.671582937240600586e-01 5.066803842782974243e-02 -9.494707733392715454e-02 1.676711887121200562e-01
1.320000000000000000e+02 9.674052238464355469e+00 -1.256777942180633545e-01 -1.074075937271118164e+00 6.033084914088249207e-02 -3.041235208511352539e-01 9.129337966442108154e-03
1.330000000000000000e+02 8.783244132995605469e+00 -7.591727972030639648e-01 -5.689362809062004089e-02 2.981642447412014008e-02 -8.123161271214485168e-03 1.430042386054992676e-01
1.340000000000000000e+02 7.039392948150634766e+00 -7.564026713371276855e-01 -5.523124933242797852e-01 2.351700142025947571e-02 -1.586386561393737793e-01 1.263304054737091064e-02
1.350000000000000000e+02 5.383098125457763672e+00 -7.551342248916625977e-01 -5.899969935417175293e-01 1.814885251224040985e-02 -1.715544462203979492e-01 -9.156515449285507202e-02
1.360000000000000000e+02 3.733474254608154297e+00 -7.553965449333190918e-01 -4.207921624183654785e-01 4.406772088259458542e-03 -1.249156147241592407e-01 -1.528952866792678833e-01
1.370000000000000000e+02 1.114487528800964355e+00 -3.915435671806335449e-01 -6.862025707960128784e-02 -8.104029693640768528e-04 -2.082919888198375702e-02 -3.646876662969589233e-02
1.380000000000000000e+02 6.950973868370056152e-01 -1.131543636322021484e+00 -2.572771720588207245e-02 -6.461730599403381348e-02 -2.710350602865219116e-02 -7.173371315002441406e-02
1.390000000000000000e+02 3.944789469242095947e-01 -5.615568757057189941e-01 -6.772432941943407059e-03 -2.183806709945201874e-02 -8.583149872720241547e-03 -1.219916902482509613e-02
1.400000000000000000e+02 9.313890457153320312e+00 -1.215504288673400879e+00 1.195956587791442871e+00 1.345672458410263062e-01 3.991571664810180664e-01 6.426147818565368652e-01
1.410000000000000000e+02 8.698273658752441406e+00 -1.234263420104980469e+00 6.653093099594116211e-01 1.785590648651123047e-01 2.531605362892150879e-01 4.425894618034362793e-01
1.420000000000000000e+02 7.836346626281738281e+00 -1.245327353477478027e+00 1.836939305067062378e-01 5.320860445499420166e-02 7.107076048851013184e-02 2.188936322927474976e-01
1.430000000000000000e+02 7.005737781524658203e+00 -1.250091791152954102e+00 -8.319297432899475098e-02 9.868083149194717407e-02 4.646357614547014236e-03 9.500911831855773926e-02
1.440000000000000000e+02 6.181357860565185547e+00 -1.251150012016296387e+00 -2.256140112876892090e-01 5.887960642576217651e-02 -5.002031847834587097e-02 -1.598893664777278900e-02
1.450000000000000000e+02 5.357235908508300781e+00 -1.250997066497802734e+00 -2.985412180423736572e-01 5.785923078656196594e-02 -7.220458984375000000e-02 -1.018548160791397095e-01
1.460000000000000000e+02 4.533149719238281250e+00 -1.251232981681823730e+00 -2.971466779708862305e-01 3.299028053879737854e-02 -7.924691587686538696e-02 -1.591634750366210938e-01
1.470000000000000000e+02 3.711797475814819336e+00 -1.252442121505737305e+00 -2.751921117305755615e-01 2.356320992112159729e-02 -7.548867166042327881e-02 -2.064862251281738281e-01
1.480000000000000000e+02 2.899684190750122070e+00 -1.254319548606872559e+00 -2.034861892461776733e-01 -1.954128593206405640e-02 -6.690824031829833984e-02 -2.158820927143096924e-01
1.490000000000000000e+02 2.112314224243164062e+00 -1.245022654533386230e+00 -1.433556377887725830e-01 -3.827464953064918518e-02 -5.448908731341362000e-02 -1.880796104669570923e-01
1.500000000000000000e+02 9.763710975646972656e+00 -3.262998461723327637e-01 -6.132672429084777832e-01 8.893074095249176025e-02 -1.573009490966796875e-01 -2.662294358015060425e-02
1.510000000000000000e+02 9.595955848693847656e+00 -7.610375881195068359e-01 3.671081960201263428e-01 7.371038198471069336e-02 1.322455853223800659e-01 3.091879785060882568e-01
1.520000000000000000e+02 9.390122413635253906e+00 -3.054159581661224365e-01 -8.547481298446655273e-01 -1.320875436067581177e-02 -2.603870630264282227e-01 4.207993671298027039e-02
1.530000000000000000e+02 9.566155433654785156e+00 -1.394282817840576172e+00 1.576890468597412109e+00 1.596477180719375610e-01 5.209614634513854980e-01 8.011071085929870605e-01
1.540000000000000000e+02 9.689144134521484375e+00 -1.193582773208618164e+00 1.587274432182312012e+00 1.146257147192955017e-01 5.105700492858886719e-01 6.080033779144287109e-01
1.550000000000000000e+02 7.068117618560791016e+00 -2.663108408451080322e-01 -1.096209645271301270e+00 -1.435400359332561493e-02 -3.331691026687622070e-01 -1.933387666940689087e-02
1.560000000000000000e+02 3.745804071426391602e+00 -2.629544138908386230e-01 -5.963345766067504883e-01 -7.818609476089477539e-03 -1.812459528446197510e-01 -5.976370349526405334e-02
1.570000000000000000e+02 2.223345518112182617e+00 -7.460947632789611816e-01 -2.074649482965469360e-01 -2.409293316304683685e-02 -6.946736574172973633e-02 -1.425580233335494995e-01
1.580000000000000000e+02 1.670382261276245117e+00 -5.783736705780029297e-01 -1.336965560913085938e-01 -1.352905947715044022e-02 -4.416768252849578857e-02 -8.564554899930953979e-02
1.590000000000000000e+02 1.372678875923156738e+00 -1.197423934936523438e+00 -7.348322123289108276e-02 -7.299416512250900269e-02 -4.394321516156196594e-02 -1.402582973241806030e-01
1.600000000000000000e+02 2.179990768432617188e+00 -2.610720396041870117e-01 -2.333775460720062256e-01 -1.527045480906963348e-02 -7.459440082311630249e-02 -4.201126843690872192e-02
1.610000000000000000e+02 2.935478210449218750e+00 -7.555829286575317383e-01 -3.076986670494079590e-01 -5.386726930737495422e-03 -9.392561763525009155e-02 -1.561081111431121826e-01
1.620000000000000000e+02 2.932337522506713867e+00 -2.612633109092712402e-01 -4.010258913040161133e-01 6.764186546206474304e-03 -1.182785108685493469e-01 -5.879408493638038635e-02
1.630000000000000000e+02 4.574069023132324219e+00 -2.638002336025238037e-01 -7.778635621070861816e-01 1.079871132969856262e-02 -2.301194518804550171e-01 -5.309291556477546692e-02
1.640000000000000000e+02 5.405157089233398438e+00 -2.641371488571166992e-01 -9.339159131050109863e-01 -7.358159404247999191e-03 -2.823822200298309326e-01 -4.712239280343055725e-02
1.650000000000000000e+02 6.210787773132324219e+00 -7.559079527854919434e-01 -6.128315925598144531e-01 2.621045149862766266e-02 -1.759863495826721191e-01 -5.605600029230117798e-02
1.660000000000000000e+02 6.236309051513671875e+00 -2.647579610347747803e-01 -1.039746761322021484e+00 1.885081455111503601e-02 -3.062688112258911133e-01 -2.570351772010326385e-02
1.670000000000000000e+02 7.905654907226562500e+00 -2.709251046180725098e-01 -1.093633294105529785e+00 2.884449996054172516e-02 -3.194366395473480225e-01 7.347786799073219299e-03
1.680000000000000000e+02 4.555507659912109375e+00 -7.550331950187683105e-01 -5.316893458366394043e-01 1.345976162701845169e-02 -1.554688662290573120e-01 -1.337860524654388428e-01
1.690000000000000000e+02 7.879955291748046875e+00 -7.562524676322937012e-01 -4.104224145412445068e-01 2.635728009045124054e-02 -1.152195408940315247e-01 4.907077178359031677e-02
1.700000000000000000e+02 1.031541919708251953e+01 7.849243283271789551e-02 -3.288325071334838867e+00 2.387878485023975372e-02 -9.793338775634765625e-01 5.167798995971679688e-01
1.710000000000000000e+02 1.018572139739990234e+01 1.173826336860656738e+00 -9.537976980209350586e-02 7.713388204574584961e-01 2.027877122163772583e-01 -9.116611480712890625e-01
1.720000000000000000e+02 1.253439044952392578e+01 9.174672961235046387e-01 1.549570798873901367e+00 1.162705039978027344e+01 3.952986478805541992e+00 -5.798702716827392578e+00
1.730000000000000000e+02 1.352059555053710938e+01 6.639068126678466797e-01 1.716872692108154297e+00 2.078141593933105469e+01 6.749486446380615234e+00 3.187089264392852783e-01
1.740000000000000000e+02 1.405146503448486328e+01 2.066371738910675049e-01 7.890315055847167969e+00 1.820156669616699219e+01 7.827564239501953125e+00 4.161654472351074219e+00
1.750000000000000000e+02 1.425196266174316406e+01 -5.849106311798095703e-01 1.298164844512939453e+01 1.480716037750244141e+01 8.336643218994140625e+00 1.274569630622863770e+00
1.760000000000000000e+02 1.394109439849853516e+01 -9.382771253585815430e-01 1.391005897521972656e+01 1.846965408325195312e+01 9.713913917541503906e+00 -1.742709040641784668e+00
1.770000000000000000e+02 1.405886554718017578e+01 -7.686187624931335449e-01 1.433007621765136719e+01 1.662833595275878906e+01 9.287523269653320312e+00 4.344484582543373108e-02
1.780000000000000000e+02 1.266131591796875000e+01 -1.877979636192321777e+00 5.325720310211181641e+00 1.307324504852294922e+01 5.519689559936523438e+00 6.905625343322753906e+00
1.790000000000000000e+02 1.222690200805664062e+01 -1.435776352882385254e+00 8.553764343261718750e+00 6.896513938903808594e+00 4.635083198547363281e+00 7.672454357147216797e+00
1.800000000000000000e+02 1.185908317565917969e+01 -4.546605646610260010e-01 6.215238571166992188e-02 -1.288431286811828613e-01 -2.000722102820873260e-02 1.042499914765357971e-01
1.810000000000000000e+02 1.126167106628417969e+01 -3.711013495922088623e-01 -6.233723759651184082e-01 -2.142592333257198334e-02 -1.934394836425781250e-01 2.292380332946777344e-01
1.820000000000000000e+02 1.008659744262695312e+01 -1.439662575721740723e-01 -1.051796197891235352e+00 -1.327877491712570190e-01 -3.553751707077026367e-01 1.229974031448364258e-01
1.830000000000000000e+02 1.303686904907226562e+01 -1.647727727890014648e+00 4.308208942413330078e+00 2.092786598205566406e+01 7.570822238922119141e+00 5.988719940185546875e+00
1.840000000000000000e+02 1.409330654144287109e+01 -3.699440360069274902e-01 1.314617824554443359e+01 1.573600769042968750e+01 8.664655685424804688e+00 2.378110170364379883e+00
1.850000000000000000e+02 1.343915939331054688e+01 4.511234462261199951e-01 2.286574602127075195e+00 2.357272148132324219e+01 7.757789134979248047e+00 8.446574211120605469e-01
1.860000000000000000e+02 1.011524009704589844e+01 1.117190197110176086e-01 -3.765881776809692383e+00 -3.191131353378295898e-01 -1.225498437881469727e+00 3.490335643291473389e-01
1.870000000000000000e+02 1.057953357696533203e+01 1.264742255210876465e+00 5.563644170761108398e-01 1.428612232208251953e+00 5.954930186271667480e-01 -1.708549141883850098e+00
1.880000000000000000e+02 1.016744995117187500e+01 5.680954456329345703e-01 -1.413324117660522461e+00 2.743464522063732147e-02 -4.157668352127075195e-01 -1.421387791633605957e-01
1.890000000000000000e+02 1.127259445190429688e+01 1.035510450601577759e-01 -1.122070193290710449e+00 3.223110139369964600e-01 -2.399277687072753906e-01 -3.960967659950256348e-01
1.900000000000000000e+02 1.208960914611816406e+01 1.656805723905563354e-01 3.373383760452270508e+00 2.662487268447875977e+00 1.810761332511901855e+00 -3.772484064102172852e+00
1.910000000000000000e+02 1.189739704132080078e+01 -2.278254479169845581e-01 -1.248926281929016113e+00 -4.855840280652046204e-02 -3.892454206943511963e-01 4.480358585715293884e-02
1.920000000000000000e+02 1.375544452667236328e+01 1.825900077819824219e-01 8.648891448974609375e+00 2.024242019653320312e+01 8.667393684387207031e+00 4.422399997711181641e+00
1.930000000000000000e+02 1.316121864318847656e+01 8.097661733627319336e-01 1.041903853416442871e+00 1.773583602905273438e+01 5.633321762084960938e+00 -2.980004787445068359e+00
1.940000000000000000e+02 1.208664131164550781e+01 7.485305070877075195e-01 2.621134996414184570e+00 6.176414012908935547e+00 2.639264822006225586e+00 -5.138088226318359375e+00
1.950000000000000000e+02 1.165985298156738281e+01 -4.298803210258483887e-01 -1.720970422029495239e-01 -9.157738648355007172e-03 -5.437643453478813171e-02 1.896340101957321167e-01
1.960000000000000000e+02 1.174542713165283203e+01 -9.947925806045532227e-01 5.973269462585449219e+00 6.287549734115600586e-01 1.980607390403747559e+00 2.357951164245605469e+00
1.970000000000000000e+02 1.087121009826660156e+01 -3.085426390171051025e-01 -8.811298012733459473e-01 -6.164501234889030457e-02 -2.828324437141418457e-01 2.122107297182083130e-01
1.980000000000000000e+02 1.037547588348388672e+01 -1.456361413002014160e+00 2.892715692520141602e+00 5.512176752090454102e-01 1.033179998397827148e+00 1.559264779090881348e+00
1.990000000000000000e+02 1.001750659942626953e+01 -7.739506363868713379e-01 6.930366158485412598e-01 9.951301664113998413e-02 2.377648949623107910e-01 3.545029461383819580e-01
2.000000000000000000e+02 1.028260326385498047e+01 -1.818263679742813110e-01 -1.096398234367370605e+00 1.181421577930450439e-01 -2.934768199920654297e-01 1.806047707796096802e-01
2.010000000000000000e+02 9.973175048828125000e+00 -1.409669518470764160e+00 2.295595645904541016e+00 5.141798257827758789e-01 8.429326415061950684e-01 1.113117098808288574e+00
2.020000000000000000e+02 9.987766265869140625e+00 -1.194132685661315918e+00 1.662746787071228027e+00 1.691272109746932983e-01 5.495622158050537109e-01 7.758764028549194336e-01
2.030000000000000000e+02 1.280700492858886719e+01 -1.645467996597290039e+00 5.192546844482421875e+00 1.781810951232910156e+01 6.903196811676025391e+00 6.788559436798095703e+00
2.040000000000000000e+02 1.241431999206542969e+01 -1.534077048301696777e+00 7.602889537811279297e+00 1.061803913116455078e+01 5.466278553009033203e+00 8.691052436828613281e+00
2.050000000000000000e+02 1.160201740264892578e+01 -1.662531971931457520e+00 6.264906883239746094e+00 2.941636800765991211e+00 2.761963129043579102e+00 4.835607528686523438e+00
2.060000000000000000e+02 1.103922653198242188e+01 -6.258155703544616699e-01 1.083508491516113281e+00 -4.631791263818740845e-03 3.236629962921142578e-01 3.431327641010284424e-01
2.070000000000000000e+02 1.079391098022460938e+01 -1.494828343391418457e+00 3.977805852890014648e+00 7.595500946044921875e-01 1.421206831932067871e+00 2.116585016250610352e+00
2.080000000000000000e+02 1.058272743225097656e+01 -1.463817834854125977e+00 3.417988061904907227e+00 5.054650902748107910e-01 1.177035927772521973e+00 1.724447131156921387e+00
2.090000000000000000e+02 1.017310142517089844e+01 -1.437148928642272949e+00 2.422667503356933594e+00 3.271167576313018799e-01 8.249352574348449707e-01 1.261178493499755859e+00
2.100000000000000000e+02 1.021674633026123047e+01 1.378034949302673340e+00 4.057889580726623535e-01 1.386764764785766602e+00 5.377660989761352539e-01 -1.386812210083007812e+00
2.110000000000000000e+02 1.033917999267578125e+01 1.147666454315185547e+00 2.574062049388885498e-01 1.008201122283935547e+00 3.796822130680084229e-01 -1.288621068000793457e+00
2.120000000000000000e+02 1.224586963653564453e+01 3.098401129245758057e-01 3.746686935424804688e+00 5.637766361236572266e+00 2.815335988998413086e+00 -5.557996273040771484e+00
2.130000000000000000e+02 1.328280639648437500e+01 -1.670495510101318359e+00 4.935802459716796875e+00 1.923535728454589844e+01 7.251347541809082031e+00 3.134016752243041992e+00
2.140000000000000000e+02 1.360464477539062500e+01 -1.571133375167846680e+00 6.187329292297363281e+00 2.014280891418457031e+01 7.899041175842285156e+00 -4.278698265552520752e-01
2.150000000000000000e+02 1.387774181365966797e+01 -1.120258808135986328e+00 1.242877101898193359e+01 1.905602455139160156e+01 9.445438385009765625e+00 -2.311418533325195312e+00
2.160000000000000000e+02 1.414254760742187500e+01 -1.121344804763793945e+00 1.129446697235107422e+01 1.599955940246582031e+01 8.188207626342773438e+00 -1.785687088966369629e+00
2.170000000000000000e+02 1.395830059051513672e+01 -8.025767207145690918e-01 1.544219493865966797e+01 1.782758331298828125e+01 9.980933189392089844e+00 -1.187837958335876465e+00
2.180000000000000000e+02 1.182368087768554688e+01 -1.160916447639465332e+00 7.455968379974365234e+00 1.497657656669616699e+00 2.686087846755981445e+00 3.817963361740112305e+00
2.190000000000000000e+02 1.185505008697509766e+01 -6.731547713279724121e-01 3.580848217010498047e+00 2.309628389775753021e-02 1.081183433532714844e+00 7.182990312576293945e-01
2.200000000000000000e+02 1.123776721954345703e+01 -6.252337098121643066e-01 1.371677160263061523e+00 -3.429335355758666992e-02 4.012151360511779785e-01 3.426108658313751221e-01
2.210000000000000000e+02 1.225384998321533203e+01 -1.782505750656127930e+00 6.681662082672119141e+00 8.922966003417968750e+00 4.681388378143310547e+00 7.634743213653564453e+00
2.220000000000000000e+02 1.303763771057128906e+01 -1.875561475753784180e+00 3.787295579910278320e+00 1.826185226440429688e+01 6.614744186401367188e+00 5.203196525573730469e+00
2.230000000000000000e+02 1.199299812316894531e+01 -1.078621506690979004e+00 8.357084274291992188e+00 1.723711252212524414e+00 3.024238586425781250e+00 4.308468818664550781e+00
2.240000000000000000e+02 1.245543098449707031e+01 -1.834773302078247070e+00 5.994235038757324219e+00 1.169417095184326172e+01 5.306521892547607422e+00 8.046278953552246094e+00
2.250000000000000000e+02 1.259895896911621094e+01 5.230810642242431641e-01 2.553843498229980469e+00 1.281378555297851562e+01 4.610288619995117188e+00 -6.824521541595458984e+00
2.260000000000000000e+02 1.279732227325439453e+01 5.812641978263854980e-01 1.637680888175964355e+00 1.621318435668945312e+01 5.355259418487548828e+00 -5.982650279998779297e+00
2.270000000000000000e+02 1.300709533691406250e+01 5.756465196609497070e-01 1.396776795387268066e+00 1.890601730346679688e+01 6.090837955474853516e+00 -4.388952732086181641e+00
2.280000000000000000e+02 1.389088821411132812e+01 3.562264889478683472e-02 9.850438117980957031e+00 2.034507560729980469e+01 9.058653831481933594e+00 5.182044506072998047e+00
2.290000000000000000e+02 1.400713348388671875e+01 -6.394420862197875977e-01 1.438777160644531250e+01 1.645450782775878906e+01 9.252683639526367188e+00 4.146996438503265381e-01
2.300000000000000000e+02 1.176138019561767578e+01 9.845960885286331177e-02 1.114371776580810547e+00 8.641203641891479492e-01 5.935476422309875488e-01 -1.521070837974548340e+00
2.310000000000000000e+02 1.405210685729980469e+01 -1.230435669422149658e-01 1.060315227508544922e+01 1.723056793212890625e+01 8.350115776062011719e+00 3.231846570968627930e+00
2.320000000000000000e+02 1.362422752380371094e+01 3.088712394237518311e-01 4.443812370300292969e+00 2.192693710327148438e+01 7.911224842071533203e+00 1.874559521675109863e+00
2.330000000000000000e+02 1.295462417602539062e+01 8.441112041473388672e-01 6.730286478996276855e-01 1.683777999877929688e+01 5.253242492675781250e+00 -4.474594116210937500e+00
2.340000000000000000e+02 1.170689678192138672e+01 8.879804611206054688e-01 2.011060476303100586e+00 3.730341911315917969e+00 1.722420692443847656e+00 -3.805033683776855469e+00
2.350000000000000000e+02 1.194314765930175781e+01 1.044852375984191895e+00 1.966430068016052246e+00 6.110283851623535156e+00 2.423014163970947266e+00 -4.759573936462402344e+00
2.360000000000000000e+02 1.233130836486816406e+01 9.737147688865661621e-01 1.797792673110961914e+00 9.024957656860351562e+00 3.246825218200683594e+00 -5.541849136352539062e+00
2.370000000000000000e+02 1.274578666687011719e+01 8.685066699981689453e-01 1.265774726867675781e+00 1.403355121612548828e+01 4.589797973632812500e+00 -5.400956630706787109e+00
2.380000000000000000e+02 1.016528606414794922e+01 9.754182100296020508e-01 -3.473052084445953369e-01 4.132754802703857422e-01 1.979107968509197235e-02 -6.676781773567199707e-01
2.390000000000000000e+02 1.046799755096435547e+01 1.060852766036987305e+00 3.339555859565734863e-01 8.349912166595458984e-01 3.506840467453002930e-01 -1.342113494873046875e+00
2.400000000000000000e+02 1.092370510101318359e+01 3.474477445706725121e-03 -2.488078594207763672e+00 -4.731917381286621094e-02 -7.606193423271179199e-01 3.143619894981384277e-01
2.410000000000000000e+02 1.140510177612304688e+01 6.769561767578125000e-01 1.398818373680114746e+00 2.051661491394042969e+00 1.035143971443176270e+00 -2.607887029647827148e+00
2.420000000000000000e+02 1.213469123840332031e+01 1.006063103675842285e+00 1.823776364326477051e+00 7.407693862915039062e+00 2.769440889358520508e+00 -5.150198459625244141e+00
2.430000000000000000e+02 1.015297698974609375e+01 3.425669372081756592e-01 -2.314650535583496094e+00 -2.238726168870925903e-01 -7.615569829940795898e-01 -2.509682998061180115e-02
2.440000000000000000e+02 1.112013816833496094e+01 -5.679127946496009827e-02 -2.290780067443847656e+00 -1.048353463411331177e-01 -7.186846733093261719e-01 3.121761083602905273e-01
2.450000000000000000e+02 1.129843711853027344e+01 -1.110060214996337891e-01 -2.041456699371337891e+00 3.244678676128387451e-02 -6.027029752731323242e-01 2.986049652099609375e-01
2.460000000000000000e+02 1.149470329284667969e+01 -1.287665218114852905e-01 -1.831419587135314941e+00 4.650149494409561157e-03 -5.480308532714843750e-01 1.894672662019729614e-01
2.470000000000000000e+02 1.169811153411865234e+01 -1.690036207437515259e-01 -1.570572137832641602e+00 6.270110607147216797e-02 -4.523613154888153076e-01 1.094060763716697693e-01
2.480000000000000000e+02 1.197134304046630859e+01 -1.942432858049869537e-02 1.668284893035888672e+00 1.177689194679260254e+00 8.537922501564025879e-01 -1.835858345031738281e+00
2.490000000000000000e+02 1.151869297027587891e+01 1.457147300243377686e-01 2.581298351287841797e-01 6.979047656059265137e-01 2.868103682994842529e-01 -1.095241904258728027e+00
2.500000000000000000e+02 1.077535152435302734e+01 1.195527076721191406e+00 7.967287898063659668e-01 1.600613594055175781e+00 7.192026972770690918e-01 -2.003279447555541992e+00
2.510000000000000000e+02 1.204779624938964844e+01 -1.718288898468017578e+00 7.012639999389648438e+00 6.188971042633056641e+00 3.960483312606811523e+00 6.951444625854492188e+00
2.520000000000000000e+02 1.099885654449462891e+01 -1.545182943344116211e+00 4.723489284515380859e+00 1.074597477912902832e+00 1.739426016807556152e+00 2.709848165512084961e+00
2.530000000000000000e+02 1.119707298278808594e+01 -1.586964964866638184e+00 5.206027507781982422e+00 1.513872385025024414e+00 2.015969991683959961e+00 3.253383636474609375e+00
2.540000000000000000e+02 1.144737625122070312e+01 -1.352662801742553711e+00 5.847869873046875000e+00 1.341377854347229004e+00 2.156774282455444336e+00 3.259035587310791016e+00
2.550000000000000000e+02 1.182421970367431641e+01 -1.679434418678283691e+00 6.828096866607666016e+00 4.317161083221435547e+00 3.343577384948730469e+00 5.893941402435302734e+00
2.560000000000000000e+02 1.125352287292480469e+01 -1.285483717918395996e+00 4.937359333038330078e+00 8.207674622535705566e-01 1.727437973022460938e+00 2.428127288818359375e+00
2.570000000000000000e+02 1.185684490203857422e+01 -1.383433222770690918e+00 7.686165809631347656e+00 3.106741666793823242e+00 3.237872362136840820e+00 5.262347221374511719e+00
2.580000000000000000e+02 1.067552471160888672e+01 -2.658819854259490967e-01 -9.671570658683776855e-01 -1.700352760963141918e-03 -2.906572222709655762e-01 2.123513072729110718e-01
2.590000000000000000e+02 1.000023078918457031e+01 -9.827089905738830566e-01 1.267296195030212402e+00 -7.968007773160934448e-02 3.562848269939422607e-01 4.919462502002716064e-01
2.600000000000000000e+02 1.098701381683349609e+01 1.177458286285400391e+00 1.085978746414184570e+00 1.998996615409851074e+00 9.254925847053527832e-01 -2.399199485778808594e+00
2.610000000000000000e+02 1.119078159332275391e+01 9.165996909141540527e-01 1.181585788726806641e+00 2.150121212005615234e+00 9.995120763778686523e-01 -2.547157049179077148e+00
2.620000000000000000e+02 1.118958568572998047e+01 1.171979665756225586e+00 1.363324046134948730e+00 2.608811140060424805e+00 1.191640615463256836e+00 -2.802911758422851562e+00
2.630000000000000000e+02 1.015967750549316406e+01 7.752026319503784180e-01 -6.828089952468872070e-01 2.573658823966979980e-01 -1.276329457759857178e-01 -5.587159991264343262e-01
2.640000000000000000e+02 1.137663078308105469e+01 9.171947240829467773e-01 1.419038891792297363e+00 2.621408939361572266e+00 1.212134361267089844e+00 -2.901763677597045898e+00
2.650000000000000000e+02 1.155058956146240234e+01 9.258428812026977539e-01 1.691494345664978027e+00 3.302422523498535156e+00 1.498175024986267090e+00 -3.386922597885131836e+00
2.660000000000000000e+02 1.047908878326416016e+01 -2.226524353027343750e-01 -1.050967454910278320e+00 -1.058931276202201843e-01 -3.470581471920013428e-01 2.295279651880264282e-01
2.670000000000000000e+02 1.087976646423339844e+01 -9.820303320884704590e-01 2.701074600219726562e+00 1.595378667116165161e-01 8.581837415695190430e-01 9.042797088623046875e-01
2.680000000000000000e+02 1.053340053558349609e+01 2.797622382640838623e-01 -1.993840813636779785e+00 7.105211168527603149e-02 -5.768365859985351562e-01 3.344039246439933777e-02
2.690000000000000000e+02 1.208356475830078125e+01 -1.276875257492065430e+00 8.796976089477539062e+00 3.962030410766601562e+00 3.827702045440673828e+00 6.235040187835693359e+00
2.700000000000000000e+02 1.006483459472656250e+01 -3.560802042484283447e-01 -6.183224320411682129e-01 9.053347259759902954e-02 -1.583366841077804565e-01 1.112653538584709167e-01
2.710000000000000000e+02 1.070697307586669922e+01 8.493369817733764648e-01 2.385113090276718140e-01 8.973010182380676270e-01 3.407436907291412354e-01 -1.353342890739440918e+00
2.720000000000000000e+02 1.072622871398925781e+01 2.937766611576080322e-01 -1.697646498680114746e+00 1.029533818364143372e-01 -4.784079194068908691e-01 -1.137086153030395508e-01
2.730000000000000000e+02 1.164150047302246094e+01 -1.388612985610961914e+00 6.629478931427001953e+00 1.967754125595092773e+00 2.579169988632202148e+00 4.044020175933837891e+00
2.740000000000000000e+02 1.241947650909423828e+01 4.194201231002807617e-01 3.375555992126464844e+00 8.996511459350585938e+00 3.711620092391967773e+00 -6.725652694702148438e+00
2.750000000000000000e+02 1.100506973266601562e+01 9.112392067909240723e-01 8.797568082809448242e-01 1.443002104759216309e+00 6.968276500701904297e-01 -2.021956443786621094e+00
2.760000000000000000e+02 1.141409492492675781e+01 -8.553418517112731934e-01 3.540361166000366211e+00 1.314762234687805176e-02 1.066052675247192383e+00 9.201159477233886719e-01
2.770000000000000000e+02 1.064040851593017578e+01 -5.136743187904357910e-01 2.069375365972518921e-01 -2.599322237074375153e-02 5.428329482674598694e-02 2.223937958478927612e-01
2.780000000000000000e+02 1.056390857696533203e+01 -1.153608679771423340e+00 2.569576501846313477e+00 3.483471870422363281e-01 8.753771185874938965e-01 1.092127799987792969e+00
2.790000000000000000e+02 1.036937522888183594e+01 -1.203552603721618652e+00 2.336597442626953125e+00 2.436732053756713867e-01 7.740812301635742188e-01 1.029765248298645020e+00
2.800000000000000000e+02 1.120464324951171875e+01 3.609919846057891846e-01 -2.703075297176837921e-03 6.166931986808776855e-01 1.841970235109329224e-01 -9.925613403320312500e-01
2.810000000000000000e+02 1.089218997955322266e+01 5.760380029678344727e-01 3.572332859039306641e-02 6.923816800117492676e-01 2.184315025806427002e-01 -1.106150984764099121e+00
2.820000000000000000e+02 1.069787406921386719e+01 5.561677217483520508e-01 -5.854563117027282715e-01 3.476171493530273438e-01 -7.135175168514251709e-02 -6.610990166664123535e-01
2.830000000000000000e+02 1.086312770843505859e+01 -1.211424350738525391e+00 3.395046710968017578e+00 3.441550433635711670e-01 1.121760487556457520e+00 1.442544221878051758e+00
2.840000000000000000e+02 1.105489349365234375e+01 -1.236715555191040039e+00 4.136495113372802734e+00 5.607130527496337891e-01 1.409162521362304688e+00 1.893355607986450195e+00
2.850000000000000000e+02 1.017770004272460938e+01 -1.209669709205627441e+00 2.154039144515991211e+00 2.725427150726318359e-01 7.279745936393737793e-01 1.025582075119018555e+00
2.860000000000000000e+02 1.035875606536865234e+01 3.089270591735839844e-01 -2.273137092590332031e+00 7.746516168117523193e-02 -6.587015986442565918e-01 -3.322966769337654114e-02
2.870000000000000000e+02 1.212223052978515625e+01 5.056915283203125000e-01 3.084178447723388672e+00 5.482034206390380859e+00 2.569863796234130859e+00 -5.142424583435058594e+00
2.880000000000000000e+02 1.172477436065673828e+01 5.553523302078247070e-01 2.130151271820068359e+00 2.780544996261596680e+00 1.473208904266357422e+00 -3.293769121170043945e+00
2.890000000000000000e+02 1.057664775848388672e+01 -7.551970481872558594e-01 1.202413916587829590e+00 5.162357911467552185e-02 3.762112557888031006e-01 3.352270722389221191e-01
2.900000000000000000e+02 1.166847705841064453e+01 -1.167461872100830078e+00 6.395729064941406250e+00 1.223021507263183594e+00 2.285625219345092773e+00 3.160085916519165039e+00
2.910000000000000000e+02 1.381151676177978516e+01 -1.341730952262878418e+00 8.437202453613281250e+00 1.912436485290527344e+01 8.268470764160156250e+00 -1.328059434890747070e+00
2.920000000000000000e+02 1.039815616607666016e+01 1.337088346481323242e+00 4.312720000743865967e-01 1.160603880882263184e+00 4.775627553462982178e-01 -1.526517391204833984e+00
2.930000000000000000e+02 1.031875610351562500e+01 9.917530417442321777e-01 -2.721976935863494873e-01 5.888601541519165039e-01 9.499873220920562744e-02 -7.733359932899475098e-01
2.940000000000000000e+02 1.004062080383300781e+01 -5.656225681304931641e-01 2.493536323308944702e-01 2.557458877563476562e-01 1.515298634767532349e-01 1.652073711156845093e-01
2.950000000000000000e+02 1.025591087341308594e+01 -3.980622887611389160e-01 -3.378336727619171143e-01 2.785790711641311646e-02 -9.299273043870925903e-02 1.866139322519302368e-01
2.960000000000000000e+02 1.047512531280517578e+01 -9.353696703910827637e-01 1.848127365112304688e+00 7.526218425482511520e-03 5.566960573196411133e-01 5.871515870094299316e-01
2.970000000000000000e+02 1.022074127197265625e+01 -6.050153374671936035e-01 3.398159444332122803e-01 1.060336176306009293e-02 1.051257848739624023e-01 1.924349516630172729e-01
2.980000000000000000e+02 1.017402648925781250e+01 -1.000422596931457520e+00 1.447876930236816406e+00 1.745453327894210815e-01 4.867266714572906494e-01 5.794640183448791504e-01
2.990000000000000000e+02 1.018733596801757812e+01 -8.031910061836242676e-01 9.894194006919860840e-01 7.564053684473037720e-02 3.195179700851440430e-01 2.475419044494628906e-01
3.000000000000000000e+02 1.139718246459960938e+01 -1.628959536552429199e+00 5.691411495208740234e+00 2.101267576217651367e+00 2.337803840637207031e+00 3.918090105056762695e+00
3.010000000000000000e+02 1.106600284576416016e+01 -3.436181247234344482e-01 -7.782009840011596680e-01 -2.145047485828399658e-02 -2.398954480886459351e-01 2.075214236974716187e-01
3.020000000000000000e+02 1.083713912963867188e+01 -5.860655307769775391e-01 6.954778432846069336e-01 5.653218831866979599e-03 2.103393226861953735e-01 2.700604200363159180e-01
3.030000000000000000e+02 1.143616485595703125e+01 -6.350591182708740234e-01 1.857785224914550781e+00 1.965045742690563202e-02 5.632306933403015137e-01 4.732965826988220215e-01
3.040000000000000000e+02 1.146024608612060547e+01 -3.993721306324005127e-01 -4.166200757026672363e-01 -7.714355736970901489e-02 -1.481290906667709351e-01 2.022587954998016357e-01
3.050000000000000000e+02 1.260591888427734375e+01 -1.603464841842651367e+00 6.681389808654785156e+00 1.357751274108886719e+01 6.077670574188232422e+00 8.415835380554199219e+00
3.060000000000000000e+02 1.190592479705810547e+01 -8.844161629676818848e-01 6.272963523864746094e+00 3.505078852176666260e-01 1.987041354179382324e+00 2.086457252502441406e+00
3.070000000000000000e+02 1.164181995391845703e+01 -6.671848893165588379e-01 2.732721567153930664e+00 -9.484687447547912598e-02 7.913624048233032227e-01 5.636025071144104004e-01
3.080000000000000000e+02 1.088114643096923828e+01 7.909488677978515625e-01 3.993887901306152344e-01 1.052106976509094238e+00 4.354487359523773193e-01 -1.523259162902832031e+00
3.090000000000000000e+02 1.138072490692138672e+01 1.152734518051147461e+00 1.555796742439270020e+00 3.260490655899047852e+00 1.444886207580566406e+00 -3.241566181182861328e+00
3.100000000000000000e+02 1.156943607330322266e+01 1.129148602485656738e+00 1.743388891220092773e+00 3.806471109390258789e+00 1.664958000183105469e+00 -3.640618562698364258e+00
3.110000000000000000e+02 1.175638103485107422e+01 1.092344880104064941e+00 1.978758692741394043e+00 4.814434051513671875e+00 2.037957906723022461e+00 -4.302226543426513672e+00
3.120000000000000000e+02 1.187781047821044922e+01 7.919164299964904785e-01 2.407003641128540039e+00 4.704074859619140625e+00 2.133323431015014648e+00 -4.486397266387939453e+00
3.130000000000000000e+02 1.039166450500488281e+01 6.575700044631958008e-01 -6.880136132240295410e-01 2.693519890308380127e-01 -1.255984902381896973e-01 -5.348445177078247070e-01
3.140000000000000000e+02 1.094784545898437500e+01 3.142490684986114502e-01 -9.405685067176818848e-01 3.051574230194091797e-01 -1.906233280897140503e-01 -4.628559947013854980e-01
3.150000000000000000e+02 1.190596675872802734e+01 3.492585718631744385e-01 2.646420478820800781e+00 2.790354013442993164e+00 1.631032347679138184e+00 -3.490747451782226562e+00
3.160000000000000000e+02 1.246476840972900391e+01 6.974455118179321289e-01 2.381718158721923828e+00 1.080917930603027344e+01 3.957269191741943359e+00 -6.269942283630371094e+00
3.170000000000000000e+02 1.231978416442871094e+01 5.844094157218933105e-01 3.085978507995605469e+00 8.507301330566406250e+00 3.477983951568603516e+00 -6.199711322784423828e+00
3.180000000000000000e+02 1.378701782226562500e+01 4.010406434535980225e-01 5.185791969299316406e+00 1.919889068603515625e+01 7.315404891967773438e+00 2.393951892852783203e+00
3.190000000000000000e+02 1.321298122406005859e+01 5.411069989204406738e-01 1.756069898605346680e+00 2.128688812255859375e+01 6.912887096405029297e+00 -1.444389462471008301e+00
3.200000000000000000e+02 1.051036834716796875e+01 4.669635370373725891e-02 -3.017571210861206055e+00 -7.607733458280563354e-02 -9.280945658683776855e-01 3.927206397056579590e-01
3.210000000000000000e+02 1.071054267883300781e+01 2.413741685450077057e-02 -2.725592374801635742e+00 -2.352819778025150299e-02 -8.247361779212951660e-01 3.610270321369171143e-01
3.220000000000000000e+02 1.044847679138183594e+01 -4.503782689571380615e-01 -1.055326163768768311e-01 2.482067793607711792e-02 -2.421358227729797363e-02 1.338512003421783447e-01
3.230000000000000000e+02 1.040049552917480469e+01 -6.625782847404479980e-01 6.476280689239501953e-01 2.014360018074512482e-02 2.003315091133117676e-01 2.767257988452911377e-01
3.240000000000000000e+02 1.050995731353759766e+01 8.592715859413146973e-01 -1.010417342185974121e-01 5.915760397911071777e-01 1.471602767705917358e-01 -1.040541768074035645e+00
3.250000000000000000e+02 1.075727462768554688e+01 -8.388487100601196289e-01 1.926185369491577148e+00 9.534274786710739136e-02 6.064584255218505859e-01 5.894203186035156250e-01
3.260000000000000000e+02 1.147689056396484375e+01 4.215068519115447998e-01 1.280165791511535645e+00 1.287582397460937500e+00 7.703244686126708984e-01 -1.945622920989990234e+00
3.270000000000000000e+02 1.105480194091796875e+01 -9.302808046340942383e-01 2.933774948120117188e+00 6.442932039499282837e-02 8.994612693786621094e-01 8.922490477561950684e-01
3.280000000000000000e+02 1.159088611602783203e+01 -8.986698389053344727e-01 4.611310005187988281e+00 2.272592931985855103e-01 1.451570749282836914e+00 1.424347043037414551e+00
3.290000000000000000e+02 1.118990802764892578e+01 6.555050611495971680e-01 8.999694585800170898e-01 1.247472882270812988e+00 6.442326903343200684e-01 -1.867518901824951172e+00
3.300000000000000000e+02 1.049012565612792969e+01 4.880188703536987305e-01 -1.255140900611877441e+00 1.067309156060218811e-01 -3.445229828357696533e-01 -4.271975457668304443e-01
3.310000000000000000e+02 1.159291553497314453e+01 7.443140149116516113e-01 1.696810364723205566e+00 2.937325716018676758e+00 1.390240788459777832e+00 -3.184341907501220703e+00
3.320000000000000000e+02 1.101266479492187500e+01 6.999891996383666992e-01 5.722677707672119141e-01 1.027596592903137207e+00 4.799593389034271240e-01 -1.591264605522155762e+00
3.330000000000000000e+02 1.229117584228515625e+01 7.578867673873901367e-01 2.460120201110839844e+00 8.434465408325195312e+00 3.268375873565673828e+00 -5.827837944030761719e+00
3.340000000000000000e+02 1.151010704040527344e+01 -1.115916609764099121e+00 5.514138698577880859e+00 8.245642185211181641e-01 1.901610851287841797e+00 2.508239746093750000e+00
3.350000000000000000e+02 1.033634662628173828e+01 8.234230279922485352e-01 -5.262905359268188477e-01 4.373795390129089355e-01 -2.667330950498580933e-02 -7.577594518661499023e-01
3.360000000000000000e+02 1.034523677825927734e+01 -8.403547406196594238e-01 1.139461994171142578e+00 1.028979122638702393e-01 3.727079927921295166e-01 3.388065099716186523e-01
3.370000000000000000e+02 1.033655738830566406e+01 -1.001948833465576172e+00 1.915286302566528320e+00 1.742515563964843750e-01 6.268613338470458984e-01 6.814778447151184082e-01
3.380000000000000000e+02 1.124436473846435547e+01 -8.803342580795288086e-01 3.143625974655151367e+00 1.341564804315567017e-01 9.833347201347351074e-01 9.432912468910217285e-01
3.390000000000000000e+02 1.134340858459472656e+01 -1.047950148582458496e+00 4.485394001007080078e+00 3.249601125717163086e-01 1.443106293678283691e+00 1.727363824844360352e+00
3.400000000000000000e+02 1.073483943939208984e+01 -1.069583654403686523e+00 2.687478780746459961e+00 1.973479837179183960e-01 8.654480576515197754e-01 1.064862608909606934e+00
3.410000000000000000e+02 5.207247924804687500e+01 -8.043043136596679688e+00 -1.929196596145629883e+00 1.044597700238227844e-01 -5.474210381507873535e-01 -2.432004548609256744e-02
3.420000000000000000e+02 5.260732269287109375e+01 -2.512075752019882202e-02 1.867853045463562012e+00 -2.810678910464048386e-03 5.595126748085021973e-01 2.112104743719100952e-01
3.430000000000000000e+02 4.994736480712890625e+01 -7.871916770935058594e+00 -8.986746668815612793e-01 3.272498369216918945e+00 7.121471166610717773e-01 1.305959343910217285e+00
3.440000000000000000e+02 5.054198837280273438e+01 -1.586553573608398438e+00 1.419137001037597656e+00 2.502401590347290039e+00 1.176461577415466309e+00 -5.059746503829956055e-01
3.450000000000000000e+02 4.848924255371093750e+01 2.204052686691284180e+00 1.495461702346801758e+00 8.822033882141113281e+00 3.095248699188232422e+00 -2.276381492614746094e+00
3.460000000000000000e+02 4.924838256835937500e+01 9.275034666061401367e-01 1.571367979049682617e+00 4.734003543853759766e+00 1.891611337661743164e+00 -2.023443698883056641e+00
3.470000000000000000e+02 4.250271606445312500e+01 5.603543758392333984e+00 3.241442441940307617e-01 1.613704109191894531e+01 4.938355445861816406e+00 -3.381489589810371399e-02
3.480000000000000000e+02 4.814548873901367188e+01 5.128729343414306641e+00 2.698940038681030273e-01 1.195354747772216797e+01 3.667032480239868164e+00 4.493831396102905273e-01
3.490000000000000000e+02 4.862170410156250000e+01 9.365880012512207031e+00 6.027923226356506348e-01 1.238797187805175781e+01 3.897229194641113281e+00 2.298104047775268555e+00
3.500000000000000000e+02 4.104075622558593750e+01 1.103493309020996094e+01 1.371088743209838867e+00 6.334520816802978516e+00 2.311682939529418945e+00 -2.725674152374267578e+00
3.510000000000000000e+02 3.826903152465820312e+01 1.444605255126953125e+01 7.659183740615844727e-01 1.724874734878540039e+00 7.472379207611083984e-01 -1.120784640312194824e+00
3.520000000000000000e+02 4.033890151977539062e+01 1.234916019439697266e+01 1.128188371658325195e+00 4.350630283355712891e+00 1.643645644187927246e+00 -2.088731765747070312e+00
3.530000000000000000e+02 5.636993026733398438e+01 -9.172057151794433594e+00 -1.111457705497741699e+00 -3.376254737377166748e-01 -4.347249269485473633e-01 5.880212783813476562e-01
3.540000000000000000e+02 5.751791381835937500e+01 -9.858385086059570312e+00 -9.536393880844116211e-01 -1.843359321355819702e-01 -3.413926064968109131e-01 5.068184137344360352e-01
3.550000000000000000e+02 6.120425415039062500e+01 -1.115518093109130859e+01 -1.132510066032409668e+00 -6.381012499332427979e-03 -3.416673243045806885e-01 2.221581339836120605e-01
3.560000000000000000e+02 6.685063934326171875e+01 -1.015195655822753906e+01 -5.560616254806518555e-01 5.400507926940917969e+00 1.453333854675292969e+00 -1.360351920127868652e+00
3.570000000000000000e+02 6.819808197021484375e+01 -1.170415687561035156e+01 -3.437881469726562500e-01 8.049798965454101562e+00 2.311803102493286133e+00 -1.371774792671203613e+00
3.580000000000000000e+02 6.751150512695312500e+01 -1.443885612487792969e+01 2.446712970733642578e+00 1.047501087188720703e+01 3.876517057418823242e+00 -4.057603359222412109e+00
3.590000000000000000e+02 6.958152008056640625e+01 -1.707473564147949219e+01 1.724386811256408691e+00 1.250180912017822266e+01 4.267858505249023438e+00 -8.393315672874450684e-01
3.600000000000000000e+02 6.836648559570312500e+01 -1.855922508239746094e+01 2.269240170717239380e-01 1.578910923004150391e+01 4.804810047149658203e+00 6.143347546458244324e-02
3.610000000000000000e+02 6.827183532714843750e+01 -1.997870063781738281e+01 1.603539586067199707e+00 1.722500610351562500e+01 5.648563385009765625e+00 1.878808736801147461e+00
3.620000000000000000e+02 6.785944366455078125e+01 -2.130450248718261719e+01 2.921320199966430664e+00 1.364969348907470703e+01 4.971303939819335938e+00 4.226901531219482422e+00
3.630000000000000000e+02 6.837509918212890625e+01 -2.295695114135742188e+01 2.942790985107421875e-01 1.003028488159179688e+01 3.097369194030761719e+00 1.517538189888000488e+00
3.640000000000000000e+02 7.779833984375000000e+01 -3.060229682922363281e+01 -1.196040585637092590e-01 8.180916786193847656e+00 2.418393611907958984e+00 -3.844137489795684814e-01
3.650000000000000000e+02 7.933341979980468750e+01 -2.643364524841308594e+01 -1.259109936654567719e-02 7.364514350891113281e+00 2.205577135086059570e+00 -2.562999427318572998e-01
3.660000000000000000e+02 7.814307403564453125e+01 -2.354126548767089844e+01 4.863250628113746643e-02 6.704316616058349609e+00 2.025884628295898438e+00 -6.569546461105346680e-01
3.670000000000000000e+02 7.938685607910156250e+01 -2.224968910217285156e+01 1.808969490230083466e-02 5.755407810211181641e+00 1.732049226760864258e+00 -2.180165797472000122e-01
3.680000000000000000e+02 7.801926422119140625e+01 -1.655689620971679688e+01 1.824498176574707031e-01 6.006852626800537109e+00 1.856790661811828613e+00 2.594370841979980469e-01
3.690000000000000000e+02 7.823712158203125000e+01 -9.484810829162597656e+00 -5.671564117074012756e-02 7.367756843566894531e+00 2.193312406539916992e+00 5.326049923896789551e-01
3.700000000000000000e+02 7.811392974853515625e+01 -2.572463989257812500e+00 -8.010486513376235962e-02 8.225807189941406250e+00 2.443710565567016602e+00 7.112720608711242676e-02
3.710000000000000000e+02 7.808929443359375000e+01 4.396249771118164062e+00 -6.412235647439956665e-02 7.847014427185058594e+00 2.334867715835571289e+00 -3.487438559532165527e-01
3.720000000000000000e+02 7.804349517822265625e+01 1.123125839233398438e+01 1.085909679532051086e-01 6.816732406616210938e+00 2.077596902847290039e+00 -3.305314183235168457e-01
3.730000000000000000e+02 7.798429870605468750e+01 1.966264343261718750e+01 8.666106313467025757e-02 7.307242870330810547e+00 2.218171119689941406e+00 6.014470458030700684e-01
3.740000000000000000e+02 7.550457763671875000e+01 2.408957481384277344e+01 -3.305189907550811768e-01 8.216381072998046875e+00 2.365758657455444336e+00 8.280129432678222656e-01
3.750000000000000000e+02 7.928703308105468750e+01 3.212092590332031250e+01 -1.998194865882396698e-02 9.348301887512207031e+00 2.798496007919311523e+00 -2.384382765740156174e-03
3.760000000000000000e+02 7.939974212646484375e+01 3.760625457763671875e+01 -7.694774866104125977e-02 9.004708290100097656e+00 2.678328275680541992e+00 -5.991699174046516418e-02
3.770000000000000000e+02 7.103450775146484375e+01 3.806619262695312500e+01 2.619267404079437256e-01 6.168817520141601562e+00 1.929223299026489258e+00 -2.555407583713531494e-01
3.780000000000000000e+02 7.346208190917968750e+01 3.114646530151367188e+01 -2.766497731208801270e-01 7.325069427490234375e+00 2.114525794982910156e+00 -2.322410643100738525e-01
3.790000000000000000e+02 6.780584716796875000e+01 2.141832351684570312e+01 -5.012900829315185547e-01 7.153697967529296875e+00 1.995722413063049316e+00 -1.787808656692504883e+00
3.800000000000000000e+02 6.643309020996093750e+01 2.143178367614746094e+01 -4.492388069629669189e-01 3.236704349517822266e+00 8.362396955490112305e-01 -1.616852164268493652e+00
3.810000000000000000e+02 6.851744842529296875e+01 1.831088829040527344e+01 1.372219204902648926e+00 1.444037723541259766e+01 4.743779182434082031e+00 -9.566357135772705078e-01
3.820000000000000000e+02 6.998147583007812500e+01 1.803728485107421875e+01 1.578458666801452637e+00 1.095117282867431641e+01 3.758889436721801758e+00 -3.179879486560821533e-01
3.830000000000000000e+02 6.937776947021484375e+01 1.287594509124755859e+01 1.308390617370605469e+00 1.100790882110595703e+01 3.694889783859252930e+00 1.057963371276855469e+00
3.840000000000000000e+02 6.833569335937500000e+01 1.134909152984619141e+01 1.580292344093322754e+00 1.047988796234130859e+01 3.618054151535034180e+00 2.220336198806762695e+00
3.850000000000000000e+02 6.798038482666015625e+01 1.272827434539794922e+01 1.424725413322448730e+00 1.246030712127685547e+01 4.165509700775146484e+00 3.009294033050537109e+00
3.860000000000000000e+02 6.810536193847656250e+01 9.312060356140136719e+00 2.928929626941680908e-01 8.203972816467285156e+00 2.549059867858886719e+00 1.180213451385498047e+00
3.870000000000000000e+02 6.629064178466796875e+01 9.677958488464355469e+00 1.969473719596862793e+00 5.622153282165527344e+00 2.277487993240356445e+00 3.120386838912963867e+00
3.880000000000000000e+02 6.430724334716796875e+01 7.710227012634277344e+00 1.175319075584411621e+00 2.076902866363525391e+00 9.756665825843811035e-01 1.574515938758850098e+00
3.890000000000000000e+02 6.188572311401367188e+01 3.935760498046875000e+00 4.309988021850585938e-01 1.167595982551574707e+00 4.795784354209899902e-01 6.826330423355102539e-01
3.900000000000000000e+02 5.678333663940429688e+01 1.235666036605834961e+00 1.009751796722412109e+00 2.203706204891204834e-01 3.690367341041564941e-01 3.669368326663970947e-01
3.910000000000000000e+02 5.366648483276367188e+01 -7.862576484680175781e+00 -2.089553833007812500e+00 -3.216110169887542725e-01 -7.233494520187377930e-01 1.842255145311355591e-01
3.920000000000000000e+02 5.515592575073242188e+01 -8.389077186584472656e+00 -1.573102355003356934e+00 -3.560909926891326904e-01 -5.787580013275146484e-01 4.972437322139739990e-01
3.930000000000000000e+02 6.715511322021484375e+01 -2.250193977355957031e+01 1.890286803245544434e+00 7.099246025085449219e+00 2.696859836578369141e+00 3.748805046081542969e+00
3.940000000000000000e+02 6.944710540771484375e+01 -2.554441452026367188e+01 -7.642801403999328613e-01 8.233587265014648438e+00 2.240792036056518555e+00 3.799333870410919189e-01
3.950000000000000000e+02 6.386213302612304688e+01 -3.071992301940917969e+01 -7.568580508232116699e-01 2.762271165847778320e+00 6.016239523887634277e-01 9.261969923973083496e-01
3.960000000000000000e+02 6.194093322753906250e+01 -4.107508087158203125e+01 7.170076966285705566e-01 2.449751853942871094e+00 9.500278830528259277e-01 5.690388754010200500e-02
3.970000000000000000e+02 6.694921875000000000e+01 -4.091344070434570312e+01 3.371354043483734131e-01 4.264640331268310547e+00 1.380532741546630859e+00 1.490089446306228638e-01
3.980000000000000000e+02 7.377730560302734375e+01 -3.830350112915039062e+01 -1.168396696448326111e-01 6.935235023498535156e+00 2.045518636703491211e+00 -8.454442769289016724e-02
3.990000000000000000e+02 7.931163787841796875e+01 -3.342769241333007812e+01 7.698645815253257751e-03 8.939316749572753906e+00 2.684104442596435547e+00 -7.947088032960891724e-02
4.000000000000000000e+02 7.208802795410156250e+01 -3.048020362854003906e+01 -7.491459250450134277e-01 7.306784629821777344e+00 1.967291712760925293e+00 -1.779180467128753662e-01
4.010000000000000000e+02 6.814218139648437500e+01 -2.887635040283203125e+01 -9.377713203430175781e-01 5.894313335418701172e+00 1.486962556838989258e+00 6.366538405418395996e-01
4.020000000000000000e+02 6.543812561035156250e+01 -2.490676879882812500e+01 6.656649708747863770e-01 3.254405498504638672e+00 1.176021099090576172e+00 1.569038987159729004e+00
4.030000000000000000e+02 6.210723114013671875e+01 -2.762639427185058594e+01 -8.774483799934387207e-01 3.597970902919769287e-01 -1.552953869104385376e-01 -1.834041625261306763e-01
4.040000000000000000e+02 5.838107681274414062e+01 -2.953976440429687500e+01 -3.063592433929443359e+00 -3.229111731052398682e-01 -1.015951156616210938e+00 -6.000078320503234863e-01
4.050000000000000000e+02 5.700009536743164062e+01 -2.974795150756835938e+01 -2.824777126312255859e+00 -1.075080633163452148e-01 -8.796855807304382324e-01 -3.525321185588836670e-01
4.060000000000000000e+02 5.458072280883789062e+01 -3.140312385559082031e+01 -3.145860731601715088e-01 6.262701153755187988e-01 9.350521862506866455e-02 -1.319881916046142578e+00
4.070000000000000000e+02 5.561233901977539062e+01 -2.978735160827636719e+01 -2.185853481292724609e+00 2.739069052040576935e-03 -6.549343466758728027e-01 -2.712319493293762207e-01
4.080000000000000000e+02 4.956250000000000000e+01 -3.129649353027343750e+01 -2.396261543035507202e-01 4.293520927429199219e+00 1.216168522834777832e+00 -2.038113832473754883e+00
4.090000000000000000e+02 5.231185531616210938e+01 -4.109120178222656250e+01 -6.984589248895645142e-02 2.949201583862304688e+00 8.638067245483398438e-01 -3.296094238758087158e-01
4.100000000000000000e+02 5.261882019042968750e+01 -3.849966812133789062e+01 -4.401915520429611206e-02 2.802173376083374023e+00 8.274462223052978516e-01 -8.126773238182067871e-01
4.110000000000000000e+02 6.128441238403320312e+01 -3.807740402221679688e+01 6.522991061210632324e-01 2.109084844589233398e+00 8.284152150154113770e-01 2.086379081010818481e-01
4.120000000000000000e+02 5.614546585083007812e+01 -3.893684387207031250e+01 5.733042359352111816e-01 1.810382723808288574e+00 7.151060700416564941e-01 -3.697781860828399658e-01
4.130000000000000000e+02 5.266995239257812500e+01 -3.371567153930664062e+01 -1.400602459907531738e-01 2.283922433853149414e+00 6.431586742401123047e-01 -1.630958199501037598e+00
4.140000000000000000e+02 4.305792999267578125e+01 -2.913550186157226562e+01 -1.513911187648773193e-01 7.520146846771240234e+00 2.210626840591430664e+00 -8.012095093727111816e-01
4.150000000000000000e+02 3.219348907470703125e+01 -2.922055244445800781e+01 8.569788336753845215e-01 1.842382431030273438e+00 8.098083734512329102e-01 1.420781016349792480e+00
4.160000000000000000e+02 2.955827903747558594e+01 -3.040522956848144531e+01 -1.458294391632080078e+00 2.639097571372985840e-01 -3.583153784275054932e-01 2.214276194572448730e-01
4.170000000000000000e+02 3.330652236938476562e+01 -2.832946586608886719e+01 1.771411299705505371e+00 3.202967882156372070e+00 1.492313742637634277e+00 2.363693237304687500e+00
4.180000000000000000e+02 2.942256736755371094e+01 -3.448835372924804688e+01 -6.372799277305603027e-01 1.362615346908569336e+00 2.176006436347961426e-01 1.001186966896057129e+00
4.190000000000000000e+02 2.669130897521972656e+01 -3.083448791503906250e+01 -2.423788547515869141e+00 -6.049836985766887665e-03 -7.289515733718872070e-01 1.387438029050827026e-01
4.200000000000000000e+02 2.522268676757812500e+01 -3.079447746276855469e+01 -2.697858095169067383e+00 -1.895137578248977661e-01 -8.662115931510925293e-01 2.835737168788909912e-01
4.210000000000000000e+02 2.096108818054199219e+01 -2.975592231750488281e+01 -2.218154907226562500e+00 -2.156030833721160889e-01 -7.301273941993713379e-01 6.189575195312500000e-01
4.220000000000000000e+02 1.965640068054199219e+01 -3.297699356079101562e+01 -9.079784750938415527e-01 4.359733462333679199e-01 -1.416015326976776123e-01 -2.346963137388229370e-01
4.230000000000000000e+02 1.259266376495361328e+01 -2.484511566162109375e+01 -3.513973653316497803e-01 5.595843791961669922e+00 1.573333978652954102e+00 -1.087539434432983398e+00
4.240000000000000000e+02 1.170316696166992188e+01 -2.072207069396972656e+01 9.589743018150329590e-01 1.193729305267333984e+01 3.868880271911621094e+00 -1.757429718971252441e+00
4.250000000000000000e+02 1.141942310333251953e+01 -2.202947044372558594e+01 1.272619485855102539e+00 9.393564224243164062e+00 3.199855089187622070e+00 -1.205824851989746094e+00
4.260000000000000000e+02 1.160228729248046875e+01 -1.805272483825683594e+01 7.773488163948059082e-01 1.584614658355712891e+01 4.987048625946044922e+00 5.676447153091430664e-01
4.270000000000000000e+02 1.160749244689941406e+01 -1.941840744018554688e+01 5.086032748222351074e-01 1.391254615783691406e+01 4.326344966888427734e+00 -7.903090715408325195e-01
4.280000000000000000e+02 9.025038719177246094e+00 -1.898317146301269531e+01 1.744363307952880859e+00 8.019318580627441406e+00 2.929104566574096680e+00 1.211452364921569824e+00
4.290000000000000000e+02 1.325589752197265625e+01 -1.298882961273193359e+01 -5.785789489746093750e-01 6.236375331878662109e+00 1.697338938713073730e+00 2.579723834991455078e+00
4.300000000000000000e+02 1.553135490417480469e+01 -1.131133937835693359e+01 -4.191735744476318359e+00 1.343381404876708984e+00 -8.545063138008117676e-01 3.043976068496704102e+00
4.310000000000000000e+02 2.062232398986816406e+01 -1.229604434967041016e+01 -3.872056722640991211e+00 7.122216820716857910e-01 -9.479504823684692383e-01 2.269183099269866943e-02
4.320000000000000000e+02 1.980290985107421875e+01 -1.332067680358886719e+01 -3.577922821044921875e+00 -2.071267068386077881e-01 -1.135514855384826660e+00 1.343710541725158691e+00
4.330000000000000000e+02 2.093987274169921875e+01 -1.385327148437500000e+01 -3.046999454498291016e+00 -9.039646387100219727e-02 -9.412187933921813965e-01 7.127959132194519043e-01
4.340000000000000000e+02 2.259222221374511719e+01 -1.307468414306640625e+01 -2.457534313201904297e+00 4.446215331554412842e-01 -6.038737893104553223e-01 -1.684994250535964966e-01
4.350000000000000000e+02 2.152706527709960938e+01 -1.279564762115478516e+01 -2.839413642883300781e+00 5.908887982368469238e-01 -6.745574474334716797e-01 1.951829195022583008e-01
4.360000000000000000e+02 2.479007911682128906e+01 -1.446652698516845703e+01 -2.042516231536865234e+00 9.441054612398147583e-02 -5.844317078590393066e-01 -1.047595739364624023e-01
4.370000000000000000e+02 2.885651397705078125e+01 -1.480560779571533203e+01 8.306674361228942871e-01 2.011374384164810181e-01 3.095414638519287109e-01 -7.249997258186340332e-01
4.380000000000000000e+02 2.945609855651855469e+01 -1.075591754913330078e+01 1.060718059539794922e+00 1.499911785125732422e+00 7.681889533996582031e-01 -3.131581783294677734e+00
4.390000000000000000e+02 3.205436325073242188e+01 -5.282137393951416016e+00 -1.522202968597412109e+00 -1.638100594282150269e-01 -5.058038830757141113e-01 -1.059691905975341797e+00
4.400000000000000000e+02 2.739471817016601562e+01 -6.329261302947998047e+00 2.180626630783081055e+00 2.314414262771606445e+00 1.348512291908264160e+00 -2.518966436386108398e+00
4.410000000000000000e+02 2.914855384826660156e+01 -4.999721527099609375e+00 4.459053993225097656e+00 2.586328268051147461e+00 2.113614559173583984e+00 -2.989300012588500977e+00
4.420000000000000000e+02 2.594317817687988281e+01 -2.028307676315307617e+00 3.035305976867675781e+00 2.445252656936645508e+00 1.644167542457580566e+00 -2.653433799743652344e+00
4.430000000000000000e+02 2.502711677551269531e+01 -9.815128445625305176e-01 2.327496290206909180e+00 2.002776384353637695e+00 1.299081802368164062e+00 -2.173655033111572266e+00
4.440000000000000000e+02 1.457023239135742188e+01 -1.402436375617980957e+00 9.208291053771972656e+00 1.361432647705078125e+01 6.846785068511962891e+00 -1.763857603073120117e+00
4.450000000000000000e+02 1.410326576232910156e+01 -1.924458622932434082e+00 5.435667514801025391e+00 1.628377532958984375e+01 6.515833377838134766e+00 -9.525034427642822266e-01
4.460000000000000000e+02 1.516789436340332031e+01 -1.893647193908691406e+00 6.400776863098144531e+00 1.104024600982666016e+01 5.232306957244873047e+00 -1.708046078681945801e+00
4.470000000000000000e+02 1.471300315856933594e+01 -2.347931861877441406e+00 4.988975524902343750e+00 1.238255119323730469e+01 5.211457729339599609e+00 -1.353522658348083496e+00
4.480000000000000000e+02 1.076092624664306641e+01 -1.857235431671142578e+00 4.327239513397216797e+00 1.386974692344665527e+00 1.714264273643493652e+00 2.998707294464111328e+00
4.490000000000000000e+02 4.574990272521972656e+00 -1.934254407882690430e+00 -3.991268575191497803e-02 9.704616665840148926e-02 1.714004389941692352e-02 -1.387809216976165771e-01
4.500000000000000000e+02 1.758101463317871094e+00 -1.093086242675781250e+01 -2.600450254976749420e-02 -2.126624993979930878e-02 -1.418122556060552597e-02 -1.244322061538696289e-01
4.510000000000000000e+02 1.782986521720886230e+00 -1.780640029907226562e+01 1.344500035047531128e-01 1.789859682321548462e-01 9.403079003095626831e-02 3.044002354145050049e-01
4.520000000000000000e+02 6.540693044662475586e-01 -2.481849670410156250e+01 1.095750089734792709e-02 1.827593564987182617e+00 5.515652894973754883e-01 3.622893393039703369e-01
4.530000000000000000e+02 6.521269083023071289e-01 -3.192869567871093750e+01 -1.380090042948722839e-02 4.672506332397460938e+00 1.397611618041992188e+00 1.630738973617553711e-01
4.540000000000000000e+02 3.216649532318115234e+00 -3.919739151000976562e+01 -8.427305519580841064e-02 5.070325851440429688e+00 1.495815753936767578e+00 9.479854255914688110e-02
4.550000000000000000e+02 7.819924950599670410e-01 -3.731371307373046875e+01 -1.406199950724840164e-02 5.362358093261718750e+00 1.604488730430603027e+00 -1.087572192773222923e-03
4.560000000000000000e+02 8.273224830627441406e+00 -3.828556442260742188e+01 -3.169873058795928955e-01 3.701961040496826172e+00 1.015492081642150879e+00 1.257911771535873413e-01
4.570000000000000000e+02 9.129631996154785156e+00 -2.934642028808593750e+01 -1.012004971504211426e+00 4.572831153869628906e+00 1.068247795104980469e+00 6.586447358131408691e-01
4.580000000000000000e+02 1.101869201660156250e+01 -3.032858657836914062e+01 -1.112715721130371094e+00 4.045696735382080078e+00 8.798942565917968750e-01 1.358410716056823730e-01
4.590000000000000000e+02 6.538985967636108398e-01 -3.052114105224609375e+01 -1.711970008909702301e-02 4.283279895782470703e+00 1.279848098754882812e+00 1.974231600761413574e-01
4.600000000000000000e+02 4.987534713745117188e+01 -2.752779960632324219e+01 1.980219602584838867e+00 3.451698780059814453e+00 1.629575490951538086e+00 -2.668718814849853516e+00
4.610000000000000000e+02 4.814459609985351562e+01 -2.543543243408203125e+01 3.039332389831542969e+00 6.180819034576416016e+00 2.766045331954956055e+00 -4.146800994873046875e+00
4.620000000000000000e+02 4.549063110351562500e+01 -2.398104286193847656e+01 2.372683048248291016e+00 9.797767639160156250e+00 3.651135206222534180e+00 -1.908120036125183105e+00
4.630000000000000000e+02 4.619086837768554688e+01 -2.194046401977539062e+01 1.362672805786132812e+00 1.294191455841064453e+01 4.291376113891601562e+00 -2.286780595779418945e+00
4.640000000000000000e+02 4.636404418945312500e+01 -1.720085334777832031e+01 4.447407424449920654e-01 1.246243286132812500e+01 3.872152090072631836e+00 1.034672737121582031e+00
4.650000000000000000e+02 4.680060195922851562e+01 -1.450448322296142578e+01 1.101320862770080566e+00 1.252876853942871094e+01 4.089026927947998047e+00 2.863964319229125977e+00
4.660000000000000000e+02 3.476337051391601562e+01 -4.782957553863525391e+00 -3.703224182128906250e+00 -3.157520592212677002e-01 -1.205692887306213379e+00 -1.193986177444458008e+00
4.670000000000000000e+02 3.605573654174804688e+01 -5.840862274169921875e+00 -1.541895270347595215e+00 6.455227136611938477e-01 -2.689117491245269775e-01 -3.111401796340942383e-01
4.680000000000000000e+02 4.718285751342773438e+01 -1.314860439300537109e+01 1.637220859527587891e+00 1.142299747467041016e+01 3.918065309524536133e+00 3.605083942413330078e+00
4.690000000000000000e+02 4.777390670776367188e+01 -1.185595893859863281e+01 2.061683893203735352e+00 9.260962486267089844e+00 3.396794080734252930e+00 3.790946245193481445e+00
4.700000000000000000e+02 4.960597610473632812e+01 -9.677231788635253906e+00 7.414449453353881836e-01 2.868434190750122070e+00 1.082963705062866211e+00 1.696008324623107910e+00
4.710000000000000000e+02 5.073590087890625000e+01 -8.777714729309082031e+00 -5.686067342758178711e-01 1.141922354698181152e+00 1.719946712255477905e-01 4.366882443428039551e-01
4.720000000000000000e+02 5.131227874755859375e+01 -6.964693546295166016e+00 -6.365091800689697266e-01 1.327296853065490723e+00 2.072363048791885376e-01 8.320025801658630371e-01
4.730000000000000000e+02 3.300147247314453125e+01 -1.559176540374755859e+01 5.599312305450439453e+00 2.995462417602539062e+00 2.578432321548461914e+00 -3.251885175704956055e+00
4.740000000000000000e+02 3.413892364501953125e+01 -1.639510917663574219e+01 5.384819030761718750e+00 4.882548809051513672e+00 3.080210447311401367e+00 -4.702784538269042969e+00
4.750000000000000000e+02 3.602063751220703125e+01 -1.910681533813476562e+01 2.156499147415161133e+00 1.323358345031738281e+01 4.617024898529052734e+00 -2.735360622406005859e+00
4.760000000000000000e+02 3.606777954101562500e+01 -2.041038703918457031e+01 3.090818226337432861e-01 1.216141891479492188e+01 3.741150379180908203e+00 -6.241018772125244141e-01
4.770000000000000000e+02 3.682119369506835938e+01 -2.427894401550292969e+01 1.851701855659484863e+00 1.084969806671142578e+01 3.810420036315917969e+00 1.482653856277465820e+00
4.780000000000000000e+02 3.580228805541992188e+01 -2.511900329589843750e+01 1.771192908287048340e+00 1.091992473602294922e+01 3.807335376739501953e+00 2.826248168945312500e+00
4.790000000000000000e+02 1.730109214782714844e+01 -2.760820579528808594e+01 -7.244412899017333984e-01 1.887698918581008911e-01 -1.607014238834381104e-01 1.546161323785781860e-01
4.800000000000000000e+02 1.435019588470458984e+01 -2.472091674804687500e+01 7.155884504318237305e-01 2.298071146011352539e+00 9.040978550910949707e-01 -1.252559900283813477e+00
4.810000000000000000e+02 2.632700920104980469e+01 2.130833625793457031e+01 -2.839708805084228516e+00 -1.896015256643295288e-01 -9.087930917739868164e-01 5.248385667800903320e-01
4.820000000000000000e+02 2.904135513305664062e+01 2.060059738159179688e+01 -2.427759885787963867e+00 -1.956116408109664917e-01 -7.870115041732788086e-01 5.738086700439453125e-01
4.830000000000000000e+02 2.969229888916015625e+01 2.196216201782226562e+01 -1.551025867462158203e+00 2.524550072848796844e-02 -4.577341079711914062e-01 1.321702748537063599e-01
4.840000000000000000e+02 3.020315551757812500e+01 3.143981361389160156e+01 1.044722553342580795e-02 1.646099090576171875e+00 4.969638884067535400e-01 -1.394658982753753662e-01
4.850000000000000000e+02 2.756781196594238281e+01 4.094787597656250000e+01 -3.824419574812054634e-03 2.282499313354492188e+00 6.836025118827819824e-01 2.823072113096714020e-02
4.860000000000000000e+02 2.752472496032714844e+01 3.784124374389648438e+01 -5.842522718012332916e-03 2.238989591598510742e+00 6.699441671371459961e-01 1.052784770727157593e-01
4.870000000000000000e+02 1.792394256591796875e+01 4.097459411621093750e+01 -4.119524359703063965e-01 3.192645788192749023e+00 8.342080116271972656e-01 4.702538996934890747e-02
4.880000000000000000e+02 2.272626113891601562e+01 4.103563690185546875e+01 -1.973005086183547974e-01 2.690019130706787109e+00 7.478156089782714844e-01 8.292709290981292725e-02
4.890000000000000000e+02 2.771893501281738281e+01 2.943493652343750000e+01 -1.399518828839063644e-02 1.368193864822387695e+00 4.062595963478088379e-01 2.686497867107391357e-01
4.900000000000000000e+02 1.482839202880859375e+01 2.214921951293945312e+01 -2.960041761398315430e-01 6.496621608734130859e+00 1.860185146331787109e+00 -6.709970235824584961e-01
4.910000000000000000e+02 2.233357620239257812e+01 2.197024917602539062e+01 -6.985832452774047852e-01 1.015167474746704102e+00 9.497526288032531738e-02 1.343789577484130859e+00
4.920000000000000000e+02 3.284184646606445312e+01 1.880649185180664062e+01 -1.034205555915832520e+00 -7.711397111415863037e-02 -3.333958387374877930e-01 3.797194957733154297e-01
4.930000000000000000e+02 3.359309005737304688e+01 1.994662666320800781e+01 -9.554705023765563965e-01 5.508085489273071289e-01 -1.213985830545425415e-01 -2.090772539377212524e-01
4.940000000000000000e+02 3.721091079711914062e+01 1.535457992553710938e+01 4.776593446731567383e-01 1.018901228904724121e+00 4.489681720733642578e-01 -7.011253833770751953e-01
4.950000000000000000e+02 4.028319549560546875e+01 1.492256546020507812e+01 4.158349633216857910e-01 4.206940650939941406e+00 1.386832714080810547e+00 -1.432157754898071289e+00
4.960000000000000000e+02 3.960124969482421875e+01 1.679746818542480469e+01 1.189656704664230347e-01 3.545633554458618164e+00 1.099379777908325195e+00 -1.261702060699462891e+00
4.970000000000000000e+02 5.079523086547851562e+01 1.751377487182617188e+01 1.670020818710327148e+00 9.220818519592285156e+00 3.267251729965209961e+00 3.529188394546508789e+00
4.980000000000000000e+02 4.951645278930664062e+01 1.352834606170654297e+01 1.152951240539550781e+00 1.158818149566650391e+01 3.822339773178100586e+00 3.228274106979370117e+00
4.990000000000000000e+02 4.669147491455078125e+01 1.258556365966796875e+01 7.746488451957702637e-01 1.017406845092773438e+01 3.284615278244018555e+00 1.655320763587951660e+00
5.000000000000000000e+02 4.755760574340820312e+01 9.496920585632324219e+00 7.783977389335632324e-01 1.178971004486083984e+01 3.770432233810424805e+00 1.982459187507629395e+00
5.010000000000000000e+02 4.239228820800781250e+01 7.017678737640380859e+00 6.730602979660034180e-01 1.593514347076416016e+01 4.982460975646972656e+00 -1.174490213394165039e+00
5.020000000000000000e+02 4.230414581298828125e+01 1.421337366104125977e+00 1.290921926498413086e+00 1.746259117126464844e+01 5.626054286956787109e+00 3.403594255447387695e+00
5.030000000000000000e+02 4.231134796142578125e+01 -1.087391376495361328e+00 1.959150075912475586e+00 1.294219207763671875e+01 4.470402717590332031e+00 3.228167295455932617e+00
5.040000000000000000e+02 4.121454238891601562e+01 -1.741845369338989258e+00 2.701967000961303711e+00 1.143656349182128906e+01 4.241559028625488281e+00 4.532335758209228516e+00
5.050000000000000000e+02 4.038549423217773438e+01 -2.692207336425781250e+00 1.315692067146301270e+00 6.290767669677734375e+00 2.281937837600708008e+00 3.482169389724731445e+00
5.060000000000000000e+02 4.144345855712890625e+01 -3.636253595352172852e+00 -1.635992050170898438e+00 9.964274406433105469e+00 2.498484849929809570e+00 2.300114393234252930e+00
5.070000000000000000e+02 3.976032257080078125e+01 -4.055548191070556641e+00 -7.332295179367065430e-01 4.818687438964843750e+00 1.225637316703796387e+00 2.304415464401245117e+00
5.080000000000000000e+02 2.418136787414550781e+01 1.209652572870254517e-01 1.543217778205871582e+00 1.320816040039062500e+00 8.592101335525512695e-01 -1.413676857948303223e+00
5.090000000000000000e+02 2.018920135498046875e+01 5.864682674407958984e+00 4.548532068729400635e-01 5.327302455902099609e+00 1.734646677970886230e+00 -1.434279322624206543e+00
5.100000000000000000e+02 1.965963554382324219e+01 7.192413806915283203e+00 5.503541231155395508e-01 7.967172622680664062e+00 2.555258035659790039e+00 -1.850218415260314941e+00
5.110000000000000000e+02 1.837780761718750000e+01 8.381817817687988281e+00 2.018200308084487915e-01 1.038032054901123047e+01 3.174642324447631836e+00 -9.874078631401062012e-01
5.120000000000000000e+02 1.842699813842773438e+01 1.401690101623535156e+01 2.079628854990005493e-01 1.394060420989990234e+01 4.244570255279541016e+00 -2.125156074762344360e-01
5.130000000000000000e+02 1.922865295410156250e+01 2.009720611572265625e+01 2.164158821105957031e+00 8.801793098449707031e+00 3.289785385131835938e+00 3.266677379608154297e+00
5.140000000000000000e+02 1.320868682861328125e+01 4.085993957519531250e+01 -4.610792994499206543e-01 3.488667964935302734e+00 9.082766175270080566e-01 -4.762615542858839035e-03
5.150000000000000000e+02 6.248491287231445312e+00 3.742518615722656250e+01 -2.391600310802459717e-01 3.521011114120483398e+00 9.845553040504455566e-01 -2.549715936183929443e-01
5.160000000000000000e+02 7.399979591369628906e+00 3.175654029846191406e+01 -3.863247334957122803e-01 3.566788434982299805e+00 9.541391134262084961e-01 -6.596099734306335449e-01
5.170000000000000000e+02 8.345950126647949219e+00 2.300216293334960938e+01 -1.201641857624053955e-01 3.784850835800170898e+00 1.099406003952026367e+00 -1.340528130531311035e+00
5.180000000000000000e+02 1.341726684570312500e+01 1.715178298950195312e+01 1.110494852066040039e+00 6.819533824920654297e+00 2.379008531570434570e+00 -7.295740842819213867e-01
5.190000000000000000e+02 1.382947635650634766e+01 1.220758533477783203e+01 7.622344493865966797e-01 7.927145481109619141e+00 2.606813907623291016e+00 -3.118854165077209473e-01
5.200000000000000000e+02 5.799989700317382812e+00 1.868449568748474121e+00 -6.002792716026306152e-01 5.269595980644226074e-02 -1.642749905586242676e-01 4.902571737766265869e-01
5.210000000000000000e+02 1.083321380615234375e+01 1.569028735160827637e+00 1.235421657562255859e+00 2.480982780456542969e+00 1.114921331405639648e+00 -2.565671682357788086e+00
5.220000000000000000e+02 1.017755222320556641e+01 1.716453552246093750e+00 6.576825380325317383e-01 1.432723641395568848e+00 6.271218657493591309e-01 -1.586328744888305664e+00
5.230000000000000000e+02 1.319033336639404297e+01 1.195527553558349609e+00 -1.691373437643051147e-01 1.642975044250488281e+01 4.878184318542480469e+00 -3.149907588958740234e+00
5.240000000000000000e+02 1.926085662841796875e+01 3.416850090026855469e+00 5.375257134437561035e-01 6.123123168945312500e+00 1.998194694519042969e+00 -1.890569031238555908e-01
5.250000000000000000e+02 1.678833961486816406e+01 7.218969821929931641e+00 -5.697473883628845215e-01 9.850785255432128906e+00 2.784311294555664062e+00 2.486872486770153046e-02
5.260000000000000000e+02 5.801270675659179688e+01 2.247424316406250000e+01 -2.836142778396606445e+00 1.810786426067352295e-01 -7.965192198753356934e-01 6.204242259263992310e-02
5.270000000000000000e+02 5.407610702514648438e+01 2.771924972534179688e+01 -7.634079456329345703e-01 2.821344852447509766e+00 6.173810362815856934e-01 1.662017226219177246e+00
5.280000000000000000e+02 4.764740371704101562e+01 3.787468719482421875e+01 -3.226473629474639893e-01 3.150803089141845703e+00 8.484467267990112305e-01 2.089010477066040039e-01
5.290000000000000000e+02 3.774047470092773438e+01 4.061539459228515625e+01 -1.821862906217575073e-01 2.581489324569702148e+00 7.197908759117126465e-01 -8.371003717184066772e-02
5.300000000000000000e+02 4.270380401611328125e+01 4.090425491333007812e+01 -3.188238739967346191e-01 2.938604593276977539e+00 7.859342098236083984e-01 1.842349534854292870e-03
5.310000000000000000e+02 3.894012451171875000e+01 3.704325866699218750e+01 -2.901122570037841797e-01 2.724683284759521484e+00 7.303712964057922363e-01 -1.935316771268844604e-01
5.320000000000000000e+02 3.270952987670898438e+01 3.042150497436523438e+01 -8.890531957149505615e-02 1.754670262336730957e+00 4.997294843196868896e-01 -4.175227880477905273e-01
5.330000000000000000e+02 3.310373306274414062e+01 2.190479469299316406e+01 -9.118762612342834473e-01 7.880918979644775391e-01 -3.713530674576759338e-02 -5.035314559936523438e-01
5.340000000000000000e+02 3.591541671752929688e+01 1.824108123779296875e+01 -3.016354739665985107e-01 1.087776064872741699e+00 2.358421832323074341e-01 -5.332609415054321289e-01
5.350000000000000000e+02 6.380651092529296875e+01 2.218777656555175781e+01 -3.668110609054565430e+00 6.462498009204864502e-02 -1.081045746803283691e+00 4.207205772399902344e-01
5.360000000000000000e+02 6.095379638671875000e+01 2.266368865966796875e+01 -4.608660697937011719e+00 -2.112467139959335327e-01 -1.445972204208374023e+00 3.094241321086883545e-01
5.370000000000000000e+02 6.111914062500000000e+01 4.931969165802001953e+00 2.991433739662170410e-01 4.697994589805603027e-01 2.306828498840332031e-01 3.576537668704986572e-01
5.380000000000000000e+02 5.794351196289062500e+01 2.120528936386108398e+00 5.461354255676269531e-01 1.862319111824035645e-01 2.197102010250091553e-01 2.988045215606689453e-01
5.390000000000000000e+02 4.993349456787109375e+01 1.487577533721923828e+01 1.120215177536010742e+00 1.052152919769287109e+01 3.492523193359375000e+00 3.305241823196411133e+00
5.400000000000000000e+02 5.067462539672851562e+01 2.316554260253906250e+01 -8.849310874938964844e-01 5.445130825042724609e+00 1.368059992790222168e+00 1.345714092254638672e+00
5.410000000000000000e+02 5.125782775878906250e+01 1.873950195312500000e+01 1.952121019363403320e+00 7.748451709747314453e+00 2.910171747207641602e+00 3.428972005844116211e+00
5.420000000000000000e+02 5.485491180419921875e+01 3.147238349914550781e+01 -1.727469116449356079e-01 2.713589429855346680e+00 7.622527480125427246e-01 1.103738069534301758e+00
5.430000000000000000e+02 5.298201370239257812e+01 3.079048538208007812e+01 -4.660646617412567139e-01 3.067993640899658203e+00 7.805786728858947754e-01 1.193286061286926270e+00
5.440000000000000000e+02 4.400058746337890625e+01 3.445521926879882812e+01 -5.812426805496215820e-01 3.304352998733520508e+00 8.169330954551696777e-01 -2.217878773808479309e-02
5.450000000000000000e+02 4.461114883422851562e+01 3.129069328308105469e+01 -8.435009717941284180e-01 3.769320726394653320e+00 8.777459263801574707e-01 -3.760053962469100952e-02
5.460000000000000000e+02 4.445877838134765625e+01 2.332774925231933594e+01 -9.129853248596191406e-01 5.161338329315185547e+00 1.274505853652954102e+00 -4.743651449680328369e-01
5.470000000000000000e+02 4.462627029418945312e+01 2.471680641174316406e+01 -1.017452716827392578e+00 4.940982341766357422e+00 1.177058935165405273e+00 -3.317539095878601074e-01
5.480000000000000000e+02 5.262211990356445312e+01 2.050843811035156250e+01 2.131181955337524414e+00 5.127961635589599609e+00 2.177743196487426758e+00 2.887754201889038086e+00
5.490000000000000000e+02 5.286963272094726562e+01 2.269295120239257812e+01 -7.116482853889465332e-01 4.455819129943847656e+00 1.123251318931579590e+00 2.138910770416259766e+00
5.500000000000000000e+02 5.508798980712890625e+01 2.179070663452148438e+01 -5.902622342109680176e-01 7.965145111083984375e-01 6.187568977475166321e-02 8.523377180099487305e-01
5.510000000000000000e+02 1.156022667884826660e+00 2.120663642883300781e+00 -6.118019670248031616e-02 -2.658512592315673828e-01 -9.810943156480789185e-02 2.464073747396469116e-01
5.520000000000000000e+02 5.063329339027404785e-01 6.344352245330810547e+00 7.742311339825391769e-03 -1.396632790565490723e+00 -4.166671335697174072e-01 9.765746444463729858e-02
5.530000000000000000e+02 1.658385276794433594e+00 9.007154464721679688e+00 6.667798012495040894e-02 -9.907894134521484375e-01 -2.772334218025207520e-01 8.494682610034942627e-02
5.540000000000000000e+02 1.852904558181762695e+00 1.749196243286132812e+01 3.999458998441696167e-02 2.346629276871681213e-03 1.270236540585756302e-02 -4.325855970382690430e-01
5.550000000000000000e+02 1.894358396530151367e+00 1.891607475280761719e+01 2.885667793452739716e-02 3.217507898807525635e-01 1.051822379231452942e-01 -4.807506501674652100e-01
5.560000000000000000e+02 6.333112120628356934e-01 1.908723449707031250e+01 7.885891012847423553e-03 -3.498718142509460449e-01 -1.025957763195037842e-01 -1.776526570320129395e-01
5.570000000000000000e+02 2.008895874023437500e+00 2.602653503417968750e+01 -2.708660066127777100e-02 1.986944317817687988e+00 5.879573225975036621e-01 -5.070329308509826660e-01
5.580000000000000000e+02 1.902719616889953613e+00 3.019967460632324219e+01 -4.557866975665092468e-02 2.769689798355102539e+00 8.172333240509033203e-01 -3.525790274143218994e-01
5.590000000000000000e+02 4.265538215637207031e+00 3.762050247192382812e+01 -9.617945551872253418e-02 3.499730587005615234e+00 1.021065354347229004e+00 -1.990831643342971802e-01
5.600000000000000000e+02 2.044059991836547852e+00 4.162412643432617188e+01 -3.981308639049530029e-02 3.672127485275268555e+00 1.089694261550903320e+00 -1.130436360836029053e-02
5.610000000000000000e+02 1.443812274932861328e+01 1.136656522750854492e+00 2.757304906845092773e+00 1.552316093444824219e+01 5.484139919281005859e+00 2.110384464263916016e+00
5.620000000000000000e+02 1.514328479766845703e+01 -8.906378149986267090e-01 9.511502265930175781e+00 1.106119728088378906e+01 6.171809673309326172e+00 -3.760840892791748047e-01
5.630000000000000000e+02 1.995337867736816406e+01 -3.799971008300781250e+01 -6.418341398239135742e-02 6.947665810585021973e-01 1.891749501228332520e-01 -2.185681760311126709e-01
5.640000000000000000e+02 1.572818756103515625e+01 -3.530511856079101562e+01 -5.366910099983215332e-01 1.807201504707336426e+00 3.811531662940979004e-01 -3.174473643302917480e-01
5.650000000000000000e+02 1.964859390258789062e+01 -2.917456436157226562e+01 -1.858282208442687988e+00 -2.541896700859069824e-01 -6.337415575981140137e-01 5.891772508621215820e-01
5.660000000000000000e+02 2.283875274658203125e+01 -4.110792541503906250e+01 1.913269013166427612e-01 5.004244446754455566e-01 2.075254023075103760e-01 6.910840049386024475e-03
5.670000000000000000e+02 2.334748458862304688e+01 -3.830575942993164062e+01 3.578352555632591248e-02 4.252999722957611084e-01 1.383250504732131958e-01 5.241447687149047852e-02
5.680000000000000000e+02 2.350187301635742188e+01 -3.231847381591796875e+01 -1.463084340095520020e+00 -1.849970668554306030e-01 -4.944244325160980225e-01 9.286095947027206421e-02
5.690000000000000000e+02 2.754054260253906250e+01 -4.108003616333007812e+01 -1.049948036670684814e-01 1.230823755264282227e+00 3.377486765384674072e-01 1.642969250679016113e-01
5.700000000000000000e+02 3.132890319824218750e+01 -3.533186721801757812e+01 -7.634533643722534180e-01 2.406321525573730469e+00 4.928604364395141602e-01 1.278625965118408203e+00
5.710000000000000000e+02 4.253688049316406250e+01 -4.113599395751953125e+01 -1.731822729110717773e+00 5.583319187164306641e+00 1.155448913574218750e+00 -1.064197272062301636e-01
5.720000000000000000e+02 4.673152160644531250e+01 -3.806805419921875000e+01 -1.132915377616882324e+00 4.882408142089843750e+00 1.124847888946533203e+00 -7.806468605995178223e-01
5.730000000000000000e+02 4.543037033081054688e+01 -3.295396423339843750e+01 -1.024508953094482422e+00 6.128704547882080078e+00 1.531258583068847656e+00 -1.224228739738464355e+00
5.740000000000000000e+02 7.796312713623046875e+01 -4.164512252807617188e+01 1.434358209371566772e-01 8.652631759643554688e+00 2.638820409774780273e+00 4.037351906299591064e-02
5.750000000000000000e+02 7.799335479736328125e+01 -3.698566436767578125e+01 -1.887171156704425812e-02 8.593499183654785156e+00 2.572388172149658203e+00 3.661130368709564209e-02
5.760000000000000000e+02 5.736806869506835938e+01 4.064640808105468750e+01 4.833095967769622803e-01 3.010238409042358398e+00 1.048064351081848145e+00 1.172685101628303528e-01
5.770000000000000000e+02 6.246800994873046875e+01 4.069021987915039062e+01 6.415296792984008789e-01 3.554248571395874023e+00 1.258733510971069336e+00 1.636040210723876953e-02
5.780000000000000000e+02 6.571982574462890625e+01 3.175002098083496094e+01 1.177991032600402832e-01 3.968737363815307617e+00 1.225960969924926758e+00 -6.375986933708190918e-01
5.790000000000000000e+02 6.347177124023437500e+01 3.076822090148925781e+01 2.261783927679061890e-01 2.826422691345214844e+00 9.157803654670715332e-01 -3.889366686344146729e-01
5.800000000000000000e+02 5.641518783569335938e+01 3.714275360107421875e+01 3.476299047470092773e-01 2.880111455917358398e+00 9.683224558830261230e-01 3.965017199516296387e-01
5.810000000000000000e+02 5.696835327148437500e+01 3.111910820007324219e+01 6.300372630357742310e-02 2.304323434829711914e+00 7.101981043815612793e-01 9.406417608261108398e-01
5.820000000000000000e+02 5.238854980468750000e+01 4.091654205322265625e+01 9.131383895874023438e-02 2.948498725891113281e+00 9.119437336921691895e-01 1.431550234556198120e-01
5.830000000000000000e+02 6.782878041267395020e-01 3.457361221313476562e+01 -1.476813107728958130e-02 3.338014602661132812e+00 9.969739317893981934e-01 -6.795754283666610718e-02
5.840000000000000000e+02 6.534412503242492676e-01 2.756883621215820312e+01 -2.376513089984655380e-03 2.080128669738769531e+00 6.233256459236145020e-01 -1.640250384807586670e-01
5.850000000000000000e+02 6.686148834228515625e+01 -1.330158805847167969e+01 1.714114427566528320e+00 6.349919319152832031e+00 2.419210195541381836e+00 -3.165310621261596680e+00
5.860000000000000000e+02 6.838250732421875000e+01 -1.293862628936767578e+01 9.180460870265960693e-02 9.288688659667968750e+00 2.814147949218750000e+00 -1.167223572731018066e+00
5.870000000000000000e+02 7.938430023193359375e+01 -5.489676475524902344e+00 -1.239015068858861923e-02 8.300709724426269531e+00 2.486495971679687500e+00 1.053433716297149658e-01
5.880000000000000000e+02 7.314227294921875000e+01 -5.999873161315917969e+00 -5.597190260887145996e-01 7.434742927551269531e+00 2.062507152557373047e+00 3.387340903282165527e-01
5.890000000000000000e+02 7.156298828125000000e+01 -2.291407346725463867e+00 -5.617312192916870117e-01 6.726967334747314453e+00 1.849570870399475098e+00 -9.101633913815021515e-03
5.900000000000000000e+02 6.758714294433593750e+01 5.513035297393798828e+00 -2.924301922321319580e-01 5.917068481445312500e+00 1.687391519546508789e+00 8.643475770950317383e-01
5.910000000000000000e+02 7.936212158203125000e+01 2.858405351638793945e+00 -1.156822778284549713e-02 8.266831398010253906e+00 2.476578950881958008e+00 -1.006498411297798157e-01
5.920000000000000000e+02 6.251367187500000000e+01 -1.138139438629150391e+01 -1.035876035690307617e+00 1.710128933191299438e-01 -2.594589591026306152e-01 3.413505479693412781e-02
5.930000000000000000e+02 6.325452041625976562e+01 1.541482955217361450e-01 4.511744678020477295e-01 2.354998350143432617e+00 8.418518304824829102e-01 3.902502059936523438e-01
5.940000000000000000e+02 6.422979736328125000e+01 -5.943958282470703125e+00 3.281050920486450195e-02 2.872632265090942383e+00 8.716328144073486328e-01 -7.086821198463439941e-01
5.950000000000000000e+02 4.473329544067382812e+01 -1.250348567962646484e+01 9.095509052276611328e-01 9.355601310729980469e+00 3.079545736312866211e+00 1.476466536521911621e+00
5.960000000000000000e+02 3.722597503662109375e+01 -7.091831684112548828e+00 -7.630576491355895996e-01 2.888388156890869141e+00 6.375991106033325195e-01 6.917551159858703613e-01
5.970000000000000000e+02 3.600292587280273438e+01 -7.222314834594726562e+00 -2.330129146575927734e-01 1.717740654945373535e+00 4.454182982444763184e-01 -1.121832430362701416e-01
5.980000000000000000e+02 3.511507415771484375e+01 -1.724029922485351562e+01 4.351211547851562500e+00 8.916770935058593750e+00 3.980394601821899414e+00 -4.921862125396728516e+00
5.990000000000000000e+02 1.561536216735839844e+01 -1.233661365509033203e+01 -6.973299503326416016e+00 -2.775719761848449707e-01 -2.175261497497558594e+00 -2.027510404586791992e-01
6.000000000000000000e+02 1.163347721099853516e+01 -1.385766220092773438e+01 -4.067761003971099854e-01 9.883454322814941406e+00 2.843003273010253906e+00 1.653766751289367676e+00
6.010000000000000000e+02 5.818360447883605957e-01 -1.077251911163330078e+01 -2.026911126449704170e-03 -9.645182490348815918e-01 -2.899635434150695801e-01 -4.653457552194595337e-02
6.020000000000000000e+02 1.444247531890869141e+01 -1.283783149719238281e+01 -1.259483456611633301e+00 2.991451025009155273e+00 5.195902585983276367e-01 1.387267589569091797e+00
6.030000000000000000e+02 3.046640777587890625e+01 -1.358815765380859375e+01 2.113850593566894531e+00 8.999890089035034180e-01 9.041518568992614746e-01 -2.249238014221191406e+00
6.040000000000000000e+02 4.620314025878906250e+01 -1.851005554199218750e+01 1.232075616717338562e-01 1.215550327301025391e+01 3.683613300323486328e+00 5.777494907379150391e-01
6.050000000000000000e+02 4.601101684570312500e+01 -1.975984382629394531e+01 7.296491861343383789e-01 1.292355728149414062e+01 4.095962047576904297e+00 -4.371492564678192139e-01
6.060000000000000000e+02 4.666711044311523438e+01 -2.315275192260742188e+01 2.164723157882690430e+00 1.221595668792724609e+01 4.314203739166259766e+00 -3.815491676330566406e+00
6.070000000000000000e+02 7.938539123535156250e+01 -1.245116043090820312e+01 1.261672005057334900e-02 6.240570068359375000e+00 1.875955939292907715e+00 2.294388413429260254e-01
6.080000000000000000e+02 3.303599929809570312e+01 -3.041251182556152344e+01 -2.338325232267379761e-01 3.354723453521728516e+00 9.362673163414001465e-01 1.734827160835266113e+00
6.090000000000000000e+02 3.731277084350585938e+01 -2.035880279541015625e+01 1.689233541488647461e+00 1.117509174346923828e+01 3.859297752380371094e+00 -1.491255044937133789e+00
6.100000000000000000e+02 6.410122513771057129e-01 -2.338137626647949219e+01 5.110890138894319534e-03 1.056739568710327148e+00 3.185551464557647705e-01 3.453888595104217529e-01
6.110000000000000000e+02 8.747549057006835938e+00 -2.278097915649414062e+01 3.499584197998046875e-01 6.589438438415527344e+00 2.081819057464599609e+00 1.367445111274719238e+00
6.120000000000000000e+02 5.953103303909301758e-01 -1.777071189880371094e+01 6.701778620481491089e-03 -1.154170513153076172e+00 -3.442406058311462402e-01 9.576658159494400024e-02
6.130000000000000000e+02 2.106463432312011719e+01 2.266849327087402344e+01 -1.995959728956222534e-01 3.123586893081665039e+00 8.771972656250000000e-01 2.048053503036499023e+00
6.140000000000000000e+02 1.846084785461425781e+01 1.673597526550292969e+01 5.027250647544860840e-01 1.462909889221191406e+01 4.539547443389892578e+00 1.286947011947631836e+00
6.150000000000000000e+02 1.203851699829101562e+01 1.785729408264160156e+01 8.771004676818847656e-01 5.761223793029785156e+00 1.991497278213500977e+00 -9.985362887382507324e-01
6.160000000000000000e+02 8.105828285217285156e+00 2.518950653076171875e+01 -3.038642406463623047e-01 3.762797355651855469e+00 1.037679910659790039e+00 -1.227061271667480469e+00
6.170000000000000000e+02 2.014872169494628906e+01 2.113469505310058594e+01 1.183472871780395508e+00 4.737781524658203125e+00 1.776376366615295410e+00 2.746524333953857422e+00
6.180000000000000000e+02 1.866687393188476562e+01 1.125206565856933594e+01 3.308650255203247070e-01 1.345143318176269531e+01 4.134689331054687500e+00 -1.389954209327697754e+00
6.190000000000000000e+02 6.045403957366943359e+00 1.004566669464111328e+01 4.605580568313598633e-01 1.758349418640136719e+00 6.656722426414489746e-01 -3.369155228137969971e-01
6.200000000000000000e+02 5.773396682739257812e+01 -7.229487419128417969e+00 -3.044101893901824951e-01 2.701943553984165192e-02 -8.321722596883773804e-02 -1.187429577112197876e-01
6.210000000000000000e+02 5.202173614501953125e+01 -3.183400630950927734e+00 1.255257487297058105e+00 1.226765275001525879e+00 7.446068525314331055e-01 2.016979828476905823e-02
6.220000000000000000e+02 4.359182739257812500e+01 1.384159922599792480e+00 1.911909341812133789e+00 1.396885299682617188e+01 4.764228820800781250e+00 1.920118212699890137e+00
6.230000000000000000e+02 7.439264678955078125e+01 3.251975536346435547e+00 -3.490126729011535645e-01 7.568355560302734375e+00 2.165802955627441406e+00 -3.946816921234130859e-01
6.240000000000000000e+02 6.373294830322265625e+01 3.896027326583862305e+00 3.252272009849548340e-01 2.490527153015136719e+00 8.447262644767761230e-01 9.913416504859924316e-01
6.250000000000000000e+02 7.934085083007812500e+01 2.375428009033203125e+01 -3.159936890006065369e-02 8.320912361145019531e+00 2.486793994903564453e+00 2.196916639804840088e-01
6.260000000000000000e+02 6.897807312011718750e+01 2.347108268737792969e+01 -1.667556643486022949e+00 7.472121238708496094e+00 1.741369366645812988e+00 -9.770557880401611328e-01
6.270000000000000000e+02 7.337782287597656250e+01 3.305129241943359375e+01 -1.539548188447952271e-01 7.204501628875732422e+00 2.115164041519165039e+00 -2.671041786670684814e-01
6.280000000000000000e+02 7.930957031250000000e+01 2.932792091369628906e+01 -3.718734532594680786e-02 9.323176383972167969e+00 2.785796642303466797e+00 4.686949774622917175e-02
6.290000000000000000e+02 3.515469360351562500e+01 2.269427680969238281e+01 -6.746193766593933105e-01 1.601341009140014648e+00 2.780165076255798340e-01 -8.692021369934082031e-01
6.300000000000000000e+02 7.382671356201171875e+00 3.441796875000000000e+01 -3.318936526775360107e-01 3.555209159851074219e+00 9.669946432113647461e-01 -4.672802090644836426e-01
6.310000000000000000e+02 1.836577606201171875e+01 3.273270034790039062e+01 -6.745729446411132812e-01 3.547158002853393555e+00 8.617755174636840820e-01 4.388880431652069092e-01
6.320000000000000000e+02 7.935111236572265625e+01 1.675888824462890625e+01 -5.208942107856273651e-03 6.090435028076171875e+00 1.825567841529846191e+00 1.356188952922821045e-01
6.330000000000000000e+02 7.937272644042968750e+01 8.413295745849609375e+00 -1.710384711623191833e-02 6.979197025299072266e+00 2.088628053665161133e+00 -1.749891936779022217e-01
6.340000000000000000e+02 3.659982299804687500e+01 2.719528388977050781e+01 -4.868869185447692871e-01 2.406899929046630859e+00 5.760039091110229492e-01 -8.670040369033813477e-01
6.350000000000000000e+02 6.320623397827148438e+01 -2.678228759765625000e+01 -3.417771756649017334e-01 8.466136455535888672e-01 1.514509469270706177e-01 3.220225870609283447e-01
6.360000000000000000e+02 6.036937332153320312e+01 -9.569065093994140625e+00 -5.188207030296325684e-01 1.308461874723434448e-01 -1.163923591375350952e-01 1.251552402973175049e-01
6.370000000000000000e+02 6.271831130981445312e+01 -1.012517929077148438e+01 -1.497327834367752075e-01 5.252595543861389160e-01 1.126580238342285156e-01 -4.098714888095855713e-01
6.380000000000000000e+02 6.515196228027343750e+01 -1.182974720001220703e+01 7.412225604057312012e-01 2.559956312179565430e+00 9.903536438941955566e-01 -1.621435523033142090e+00
6.390000000000000000e+02 6.804270172119140625e+01 -1.572759342193603516e+01 1.915821433067321777e+00 1.494150924682617188e+01 5.057199001312255859e+00 -3.373986721038818359e+00
6.400000000000000000e+02 6.430732727050781250e+01 -2.588803482055664062e+01 2.112809717655181885e-01 1.870362520217895508e+00 6.244930624961853027e-01 8.440977334976196289e-01
6.410000000000000000e+02 6.096750259399414062e+01 -2.841827583312988281e+01 -1.629733562469482422e+00 -1.062640920281410217e-01 -5.207992792129516602e-01 -5.562781691551208496e-01
6.420000000000000000e+02 5.289924240112304688e+01 -2.960916328430175781e+01 2.468984015285968781e-02 1.050268173217773438e+00 3.224874138832092285e-01 -1.086257338523864746e+00
6.430000000000000000e+02 5.134396362304687500e+01 -3.015808677673339844e+01 2.766758799552917480e-01 2.504562139511108398e+00 8.343713879585266113e-01 -1.737134814262390137e+00
6.440000000000000000e+02 4.901897811889648438e+01 -2.647459602355957031e+01 2.540308237075805664e+00 4.450269699096679688e+00 2.097173213958740234e+00 -3.240039825439453125e+00
6.450000000000000000e+02 4.731672668457031250e+01 -2.434482002258300781e+01 3.297767400741577148e+00 9.765968322753906250e+00 3.919120788574218750e+00 -4.588174343109130859e+00
6.460000000000000000e+02 4.860214233398437500e+01 -1.068960762023925781e+01 1.829455375671386719e+00 5.938495635986328125e+00 2.330385208129882812e+00 3.079868316650390625e+00
6.470000000000000000e+02 2.217337226867675781e+01 -1.418720817565917969e+01 -2.707651853561401367e+00 1.306633204221725464e-01 -7.730965614318847656e-01 4.010253846645355225e-01
6.480000000000000000e+02 2.613410758972167969e+01 -1.456954002380371094e+01 -1.263715982437133789e+00 1.123192831873893738e-01 -3.454189896583557129e-01 -2.889797985553741455e-01
6.490000000000000000e+02 2.748970413208007812e+01 -1.467642021179199219e+01 -3.023206293582916260e-01 1.673154830932617188e-01 -4.050153866410255432e-02 -4.922409057617187500e-01
6.500000000000000000e+02 3.165104103088378906e+01 -1.514516830444335938e+01 3.864275693893432617e+00 8.916576504707336426e-01 1.426779985427856445e+00 -1.774568796157836914e+00
6.510000000000000000e+02 3.023438835144042969e+01 -1.497425270080566406e+01 2.054152965545654297e+00 3.681049942970275879e-01 7.266773581504821777e-01 -1.001027822494506836e+00
6.520000000000000000e+02 3.617995452880859375e+01 -2.301131057739257812e+01 8.360362052917480469e-01 1.227562046051025391e+01 3.933496952056884766e+00 1.070018768310546875e+00
6.530000000000000000e+02 2.376391220092773438e+01 -3.056317520141601562e+01 -2.675000905990600586e+00 -9.567364305257797241e-02 -8.312023878097534180e-01 4.240903854370117188e-01
6.540000000000000000e+02 1.841294860839843750e+01 -2.846782112121582031e+01 -1.360479593276977539e+00 -9.108396619558334351e-02 -4.354690909385681152e-01 4.810213744640350342e-01
6.550000000000000000e+02 1.628965187072753906e+01 -2.666608810424804688e+01 -1.963785737752914429e-01 7.280782461166381836e-01 1.595098972320556641e-01 -1.976124495267868042e-01
6.560000000000000000e+02 1.340331459045410156e+01 -2.373138618469238281e+01 1.224999308586120605e+00 3.885255575180053711e+00 1.533076405525207520e+00 -2.232103347778320312e+00
6.570000000000000000e+02 1.254154014587402344e+01 -2.273773956298828125e+01 1.601027369499206543e+00 7.906672477722167969e+00 2.852309942245483398e+00 -2.594469308853149414e+00
6.580000000000000000e+02 1.110792160034179688e+01 -1.505449104309082031e+01 1.463117599487304688e+00 1.057336997985839844e+01 3.610946416854858398e+00 1.314550042152404785e+00
6.590000000000000000e+02 2.495213317871093750e+01 2.154881858825683594e+01 -2.665898561477661133e+00 -1.287583261728286743e-02 -8.036323189735412598e-01 5.724365115165710449e-01
6.600000000000000000e+02 3.036387443542480469e+01 2.013303184509277344e+01 -2.190600633621215820e+00 -2.404009997844696045e-01 -7.293004393577575684e-01 6.225459575653076172e-01
6.610000000000000000e+02 3.163599014282226562e+01 1.952434539794921875e+01 -1.626375436782836914e+00 -2.277152538299560547e-01 -5.562272071838378906e-01 5.538440346717834473e-01
6.620000000000000000e+02 3.510074996948242188e+01 1.716055870056152344e+01 -1.863353103399276733e-01 3.297351896762847900e-01 4.301996156573295593e-02 -1.101621985435485840e-01
6.630000000000000000e+02 3.938303375244140625e+01 1.350899219512939453e+01 1.023366451263427734e+00 3.025750160217285156e+00 1.214735031127929688e+00 -1.548416852951049805e+00
6.640000000000000000e+02 4.165814971923828125e+01 9.753120422363281250e+00 1.550416588783264160e+00 9.745069503784179688e+00 3.388645887374877930e+00 -3.207130670547485352e+00
6.650000000000000000e+02 4.212745285034179688e+01 8.415606498718261719e+00 1.279600024223327637e+00 1.389673423767089844e+01 4.552900314331054688e+00 -2.678482055664062500e+00
6.660000000000000000e+02 4.254740142822265625e+01 4.192536830902099609e+00 2.935581803321838379e-01 1.690603065490722656e+01 5.159876823425292969e+00 7.076580524444580078e-01
6.670000000000000000e+02 4.249819564819335938e+01 2.787663459777832031e+00 9.823434948921203613e-01 1.809076690673828125e+01 5.721933364868164062e+00 1.964168906211853027e+00
6.680000000000000000e+02 3.860120010375976562e+01 -3.874962091445922852e+00 -1.253421425819396973e+00 1.956101775169372559e+00 2.108041346073150635e-01 1.092894315719604492e+00
6.690000000000000000e+02 3.343296051025390625e+01 -5.090563774108886719e+00 -3.246265411376953125e+00 -3.572762310504913330e-01 -1.081062436103820801e+00 -1.208665490150451660e+00
6.700000000000000000e+02 2.789333915710449219e+01 -4.154513359069824219e+00 4.019265651702880859e+00 3.113684892654418945e+00 2.139885187149047852e+00 -3.284870624542236328e+00
6.710000000000000000e+02 2.501530265808105469e+01 -2.699917316436767578e+00 3.225298881530761719e+00 1.703435778617858887e+00 1.478620409965515137e+00 -2.531621932983398438e+00
6.720000000000000000e+02 2.339590454101562500e+01 1.260223031044006348e+00 8.020257949829101562e-01 6.535586714744567871e-01 4.366753697395324707e-01 -7.630234360694885254e-01
6.730000000000000000e+02 2.259146499633789062e+01 2.376976490020751953e+00 4.899958670139312744e-01 5.041452050209045410e-01 2.982423305511474609e-01 -3.886694312095642090e-01
6.740000000000000000e+02 2.092218971252441406e+01 4.629744052886962891e+00 2.731796801090240479e-01 2.626833438873291016e+00 8.700039386749267578e-01 -7.971515655517578125e-01
6.750000000000000000e+02 1.359869289398193359e+01 2.412387847900390625e+00 -6.623030900955200195e-01 1.290210533142089844e+01 3.671940565109252930e+00 -1.395801424980163574e+00
6.760000000000000000e+02 1.891846466064453125e+01 9.887174606323242188e+00 6.597407460212707520e-01 1.257824802398681641e+01 3.971396684646606445e+00 -2.000968456268310547e+00
6.770000000000000000e+02 1.850353622436523438e+01 1.263127231597900391e+01 3.093298673629760742e-01 1.379030895233154297e+01 4.229891777038574219e+00 -7.930825948715209961e-01
6.780000000000000000e+02 1.842501258850097656e+01 1.539236927032470703e+01 2.792706489562988281e-01 1.396169185638427734e+01 4.272288799285888672e+00 3.999231159687042236e-01
6.790000000000000000e+02 1.855144882202148438e+01 1.800193023681640625e+01 1.578976869583129883e+00 1.361545085906982422e+01 4.558328151702880859e+00 2.781962394714355469e+00
6.800000000000000000e+02 6.390014648437500000e+01 2.361356163024902344e+01 -1.972150444984436035e+00 6.414943337440490723e-01 -3.991968333721160889e-01 -5.750695466995239258e-01
6.810000000000000000e+02 6.517785644531250000e+01 2.185626029968261719e+01 -2.484444856643676758e+00 3.717322647571563721e-01 -6.338137388229370117e-01 -5.412415042519569397e-02
6.820000000000000000e+02 6.822004699707031250e+01 1.977838897705078125e+01 1.603741884231567383e+00 1.111565876007080078e+01 3.815819978713989258e+00 -2.102078437805175781e+00
6.830000000000000000e+02 6.830567932128906250e+01 1.540096473693847656e+01 8.624581098556518555e-01 1.507515525817871094e+01 4.781284332275390625e+00 9.292959570884704590e-01
6.840000000000000000e+02 6.816341400146484375e+01 1.403422355651855469e+01 7.273483276367187500e-01 1.449385929107666016e+01 4.566362380981445312e+00 2.292762279510498047e+00
6.850000000000000000e+02 6.716386413574218750e+01 1.067895221710205078e+01 2.042536497116088867e+00 8.884352684020996094e+00 3.278066635131835938e+00 3.406984090805053711e+00
6.860000000000000000e+02 6.533272552490234375e+01 8.672345161437988281e+00 1.709775209426879883e+00 3.671416044235229492e+00 1.614357352256774902e+00 2.326072454452514648e+00
6.870000000000000000e+02 6.326395797729492188e+01 6.763603687286376953e+00 7.663977146148681641e-01 1.337723493576049805e+00 6.312363743782043457e-01 9.938369989395141602e-01
6.880000000000000000e+02 6.220351409912109375e+01 5.834384918212890625e+00 4.844829738140106201e-01 8.086357116699218750e-01 3.879356086254119873e-01 6.302494406700134277e-01
6.890000000000000000e+02 5.900769042968750000e+01 3.072112083435058594e+00 3.104439973831176758e-01 2.165455967187881470e-01 1.580968797206878662e-01 2.065705209970474243e-01
6.900000000000000000e+02 5.547611236572265625e+01 4.525341093540191650e-01 1.505237936973571777e+00 1.636236608028411865e-01 5.006584525108337402e-01 4.370961189270019531e-01
6.910000000000000000e+02 4.826679992675781250e+01 6.556761741638183594e+00 2.977438569068908691e-01 1.204066562652587891e+01 3.701522588729858398e+00 1.067858457565307617e+00
6.920000000000000000e+02 4.842304992675781250e+01 7.963701248168945312e+00 4.859000146389007568e-01 1.255982780456542969e+01 3.913718461990356445e+00 1.741472601890563965e+00
6.930000000000000000e+02 4.915838623046875000e+01 1.215311241149902344e+01 8.763517141342163086e-01 1.204076671600341797e+01 3.875135421752929688e+00 2.866160631179809570e+00
6.940000000000000000e+02 5.035805892944335938e+01 1.620777511596679688e+01 1.335519313812255859e+00 9.949028968811035156e+00 3.385364532470703125e+00 3.367727279663085938e+00
6.950000000000000000e+02 5.124132156372070312e+01 2.006883049011230469e+01 1.517056584358215332e+00 6.555021762847900391e+00 2.421623468399047852e+00 2.509778738021850586e+00
6.960000000000000000e+02 5.949205780029296875e+01 2.265526962280273438e+01 -3.922890186309814453e+00 -7.900810241699218750e-02 -1.200569510459899902e+00 3.763081133365631104e-02
6.970000000000000000e+02 9.745553970336914062e+00 2.448163032531738281e+00 7.617771029472351074e-01 1.727220416069030762e+00 7.466992735862731934e-01 -1.408596873283386230e+00
6.980000000000000000e+02 8.888050079345703125e+00 1.865753531455993652e+00 -1.730819419026374817e-02 5.351236462593078613e-01 1.553446352481842041e-01 -4.096945822238922119e-01
6.990000000000000000e+02 8.109891891479492188e+00 1.835616230964660645e+00 -4.075495004653930664e-01 2.894021272659301758e-01 -3.544421121478080750e-02 2.159860730171203613e-02
7.000000000000000000e+02 7.341898441314697266e+00 1.836393833160400391e+00 -5.592494606971740723e-01 1.663268655538558960e-01 -1.178767755627632141e-01 2.442251294851303101e-01
7.010000000000000000e+02 6.571882247924804688e+00 1.849092721939086914e+00 -6.222326159477233887e-01 1.096756830811500549e-01 -1.537670642137527466e-01 3.988641798496246338e-01
7.020000000000000000e+02 4.259783744812011719e+00 1.918203353881835938e+00 -4.500016868114471436e-01 -3.515933826565742493e-02 -1.455483138561248779e-01 5.371953248977661133e-01
7.030000000000000000e+02 2.132260799407958984e+00 4.228621006011962891e+00 3.923384472727775574e-02 -4.543953835964202881e-01 -1.245484650135040283e-01 4.717200994491577148e-01
7.040000000000000000e+02 3.490576744079589844e+00 1.951530933380126953e+00 -3.542664349079132080e-01 -7.993590831756591797e-02 -1.302607059478759766e-01 5.138573646545410156e-01
7.050000000000000000e+02 1.934265375137329102e+00 2.055124998092651367e+00 -1.462529003620147705e-01 -2.029359936714172363e-01 -1.047566682100296021e-01 3.703245520591735840e-01
7.060000000000000000e+02 1.103574466705322266e+01 1.521955370903015137e+00 1.285446166992187500e+00 2.804842472076416016e+00 1.227086544036865234e+00 -2.806935071945190430e+00
7.070000000000000000e+02 1.218993759155273438e+01 1.258829832077026367e+00 1.495235323905944824e+00 8.332641601562500000e+00 2.948362827301025391e+00 -5.052300453186035156e+00
7.080000000000000000e+02 1.237159061431884766e+01 1.213889718055725098e+00 1.253282546997070312e+00 9.669967651367187500e+00 3.276974916458129883e+00 -5.295871734619140625e+00
7.090000000000000000e+02 1.294895553588867188e+01 1.176641583442687988e+00 2.780828475952148438e-01 1.461863708496093750e+01 4.469016075134277344e+00 -3.762861251831054688e+00
7.100000000000000000e+02 1.139292430877685547e+01 -1.985543966293334961e+00 5.546540260314941406e+00 3.232927799224853516e+00 2.633840322494506836e+00 4.780027866363525391e+00
7.110000000000000000e+02 1.055479907989501953e+01 -1.818055629730224609e+00 3.791785478591918945e+00 1.102466702461242676e+00 1.468275666236877441e+00 2.449406623840332031e+00
7.120000000000000000e+02 1.117637062072753906e+01 -1.940858006477355957e+00 5.106228828430175781e+00 2.561615228652954102e+00 2.300353288650512695e+00 4.125595092773437500e+00
7.130000000000000000e+02 1.013360977172851562e+01 -1.789031624794006348e+00 3.049321413040161133e+00 7.396990060806274414e-01 1.136706113815307617e+00 1.811608672142028809e+00
7.140000000000000000e+02 9.358196258544921875e+00 -1.784655094146728516e+00 1.920012116432189941e+00 4.654555618762969971e-01 7.156403064727783203e-01 1.209691643714904785e+00
7.150000000000000000e+02 8.605648040771484375e+00 -1.783183813095092773e+00 1.225460290908813477e+00 3.218577206134796143e-01 4.641954004764556885e-01 7.852396368980407715e-01
7.160000000000000000e+02 7.012649059295654297e+00 -1.825868487358093262e+00 3.826832175254821777e-01 1.843512654304504395e-01 1.701103448867797852e-01 2.566918432712554932e-01
7.170000000000000000e+02 7.816542625427246094e+00 -1.799672722816467285e+00 7.421358227729797363e-01 2.394542843103408813e-01 2.944770455360412598e-01 5.051892995834350586e-01
7.180000000000000000e+02 6.202750205993652344e+00 -1.857697963714599609e+00 1.642091721296310425e-01 1.686101555824279785e-01 9.984579682350158691e-02 1.026856750249862671e-01
7.190000000000000000e+02 2.931825637817382812e+00 -2.022657871246337891e+00 -7.692446559667587280e-02 6.599649321287870407e-03 -2.109744399785995483e-02 -2.443712502717971802e-01
7.200000000000000000e+02 4.910308837890625000e+00 -3.645065069198608398e+00 4.122685194015502930e-01 4.644429683685302734e-01 2.630134522914886475e-01 1.982462555170059204e-01
7.210000000000000000e+02 3.756130933761596680e+00 -1.976950526237487793e+00 -6.676689535379409790e-02 6.211751699447631836e-02 -1.394812716171145439e-03 -2.007265388965606689e-01
7.220000000000000000e+02 2.099697351455688477e+00 -2.078717708587646484e+00 -4.505765438079833984e-02 -8.148615062236785889e-02 -3.796314075589179993e-02 -2.361637949943542480e-01
7.230000000000000000e+02 1.262969017028808594e+00 -2.141907691955566406e+00 -1.623434759676456451e-02 -1.518899351358413696e-01 -5.043728277087211609e-02 -1.753840595483779907e-01
7.240000000000000000e+02 4.221260249614715576e-01 -2.189805507659912109e+00 -8.528443053364753723e-03 -2.172470837831497192e-01 -6.773265451192855835e-02 -6.357853859663009644e-02
7.250000000000000000e+02 1.991082668304443359e+00 -4.163585281372070312e+01 8.706133067607879639e-02 5.255236625671386719e+00 1.602689385414123535e+00 -2.484477497637271881e-02
7.260000000000000000e+02 9.449801445007324219e-01 -3.869444656372070312e+01 7.660165429115295410e-03 5.356867313385009766e+00 1.609358310699462891e+00 -8.122931467369198799e-05
7.270000000000000000e+02 6.857133507728576660e-01 -3.476498413085937500e+01 -4.075331985950469971e-02 5.183799266815185547e+00 1.542913794517517090e+00 1.034632399678230286e-01
7.280000000000000000e+02 7.612221837043762207e-01 -3.337694549560546875e+01 -7.518813479691743851e-03 4.986146450042724609e+00 1.493588209152221680e+00 1.392165124416351318e-01
7.290000000000000000e+02 6.717458367347717285e-01 -2.911017990112304688e+01 -2.948414161801338196e-02 3.815781831741333008e+00 1.135889291763305664e+00 2.487523555755615234e-01
7.300000000000000000e+02 6.755552291870117188e-01 -2.768780326843261719e+01 -1.750726625323295593e-02 3.250447273254394531e+00 9.698819518089294434e-01 2.975322306156158447e-01
7.310000000000000000e+02 6.673516035079956055e-01 -2.625777435302734375e+01 -2.662235684692859650e-02 2.580543279647827148e+00 7.661762833595275879e-01 3.453949689865112305e-01
7.320000000000000000e+02 6.235166788101196289e-01 -2.196243286132812500e+01 2.766468934714794159e-02 3.248357176780700684e-01 1.057501286268234253e-01 3.104688823223114014e-01
7.330000000000000000e+02 5.999253392219543457e-01 -2.056668281555175781e+01 1.954765804111957550e-02 -3.313319385051727295e-01 -9.353528171777725220e-02 2.557992339134216309e-01
7.340000000000000000e+02 1.795744180679321289e+00 -2.049744796752929688e+01 1.642443537712097168e-01 8.339318037033081055e-01 2.994528412818908691e-01 6.657690405845642090e-01
7.350000000000000000e+02 6.043577194213867188e-01 -1.636825942993164062e+01 4.225751012563705444e-02 -1.304833292961120605e+00 -3.787727355957031250e-01 3.710515424609184265e-02
7.360000000000000000e+02 6.062340140342712402e-01 -1.496711349487304688e+01 5.502252373844385147e-03 -1.319095373153686523e+00 -3.940779268741607666e-01 -1.695850491523742676e-02
7.370000000000000000e+02 6.021952033042907715e-01 -1.356936550140380859e+01 2.073798514902591705e-02 -1.234286546707153320e+00 -3.640645742416381836e-01 -4.828066378831863403e-02
7.380000000000000000e+02 1.842605829238891602e+00 -1.367355728149414062e+01 3.072940744459629059e-02 3.405143041163682938e-03 1.024036481976509094e-02 -1.189152970910072327e-01
7.390000000000000000e+02 5.783878564834594727e-01 -9.370379447937011719e+00 -5.412876605987548828e-03 -8.553859591484069824e-01 -2.582396566867828369e-01 -3.677941858768463135e-02
7.400000000000000000e+02 5.959900021553039551e-01 -7.960437297821044922e+00 -2.651630435138940811e-03 -7.723469734191894531e-01 -2.324995845556259155e-01 -2.686543948948383331e-02
7.410000000000000000e+02 3.902673721313476562e+00 -2.922899723052978516e+00 1.419127136468887329e-01 1.550673991441726685e-01 8.909402787685394287e-02 -1.245696917176246643e-01
7.420000000000000000e+02 4.096707344055175781e+00 -3.879930734634399414e+00 2.794526815414428711e-01 3.593683242797851562e-01 1.916463077068328857e-01 3.581303730607032776e-02
7.430000000000000000e+02 7.496947479248046875e+01 -4.035501480102539062e+01 4.634375125169754028e-02 7.629853248596191406e+00 2.302859067916870117e+00 -1.132598519325256348e-01
7.440000000000000000e+02 3.249681854248046875e+01 -4.089548873901367188e+01 -9.159069061279296875e-01 3.132551431655883789e+00 6.649933457374572754e-01 3.088689148426055908e-01
7.450000000000000000e+02 1.118442249298095703e+01 -3.790052413940429688e+01 -3.864684402942657471e-01 3.004993438720703125e+00 7.855575084686279297e-01 -5.004235729575157166e-02
7.460000000000000000e+02 7.515950775146484375e+01 4.011218643188476562e+01 1.333904415369033813e-01 7.740466594696044922e+00 2.362157106399536133e+00 -9.771051816642284393e-03
7.470000000000000000e+02 7.929978942871093750e+01 3.878613662719726562e+01 5.590960383415222168e-02 8.824079513549804688e+00 2.663996934890747070e+00 -6.439490616321563721e-02
7.480000000000000000e+02 7.699987792968750000e+01 3.879239273071289062e+01 -2.687419019639492035e-02 8.459894180297851562e+00 2.529906034469604492e+00 -1.774741113185882568e-01
7.490000000000000000e+02 7.924193572998046875e+01 3.491103744506835938e+01 4.163566045463085175e-03 9.190233230590820312e+00 2.758318901062011719e+00 -5.897575616836547852e-02
7.500000000000000000e+02 7.774050903320312500e+01 3.363832092285156250e+01 -5.851752310991287231e-02 8.693937301635742188e+00 2.590626001358032227e+00 -7.010936737060546875e-02
7.510000000000000000e+02 7.925783538818359375e+01 3.351857757568359375e+01 -2.058045193552970886e-02 9.292608261108398438e+00 2.781608343124389648e+00 -4.083605855703353882e-02
7.520000000000000000e+02 7.930244445800781250e+01 3.072289848327636719e+01 4.946831613779067993e-03 9.358816146850585938e+00 2.809128999710083008e+00 1.088567450642585754e-02
7.530000000000000000e+02 7.658402252197265625e+01 2.814019966125488281e+01 -2.181833684444427490e-01 8.413947105407714844e+00 2.458729028701782227e+00 2.401208728551864624e-01
7.540000000000000000e+02 7.932727050781250000e+01 2.653667259216308594e+01 -4.171771556138992310e-02 9.013258934020996094e+00 2.691462278366088867e+00 1.348747760057449341e-01
7.550000000000000000e+02 7.669381713867187500e+01 2.535816001892089844e+01 -2.163245528936386108e-01 8.331350326538085938e+00 2.434507608413696289e+00 5.819099545478820801e-01
7.560000000000000000e+02 7.933697509765625000e+01 2.514570045471191406e+01 -3.261002711951732635e-03 8.712845802307128906e+00 2.612875461578369141e+00 1.800623834133148193e-01
7.570000000000000000e+02 7.933147430419921875e+01 2.096346092224121094e+01 1.297524850815534592e-02 7.335979461669921875e+00 2.204686403274536133e+00 2.530179321765899658e-01
7.580000000000000000e+02 7.932902526855468750e+01 1.956333160400390625e+01 -7.180362474173307419e-03 6.840320110321044922e+00 2.049941778182983398e+00 2.510057985782623291e-01
7.590000000000000000e+02 7.933622741699218750e+01 1.816296958923339844e+01 6.125674769282341003e-02 6.410692691802978516e+00 1.941584944725036621e+00 1.890386790037155151e-01
7.600000000000000000e+02 7.935897827148437500e+01 1.395209026336669922e+01 -1.887753605842590332e-02 5.916049480438232422e+00 1.769151568412780762e+00 -2.783611789345741272e-02
7.610000000000000000e+02 7.935453033447265625e+01 1.256145668029785156e+01 6.953816115856170654e-02 6.047072410583496094e+00 1.834983110427856445e+00 -8.576650172472000122e-02
7.620000000000000000e+02 7.935620117187500000e+01 1.117880535125732422e+01 -2.148711122572422028e-02 6.292212009429931641e+00 1.881217360496520996e+00 -1.338195949792861938e-01
7.630000000000000000e+02 7.937508392333984375e+01 7.027748107910156250e+00 8.194223046302795410e-03 7.359435081481933594e+00 2.210288763046264648e+00 -1.673947721719741821e-01
7.640000000000000000e+02 7.937087249755859375e+01 5.642013549804687500e+00 -1.692033931612968445e-02 7.716929435729980469e+00 2.310002565383911133e+00 -1.549757868051528931e-01
7.650000000000000000e+02 7.936554718017578125e+01 4.253439903259277344e+00 -1.066367700695991516e-02 8.021121025085449219e+00 2.403137207031250000e+00 -1.251705437898635864e-01
7.660000000000000000e+02 7.936349487304687500e+01 6.967577338218688965e-02 -9.370817802846431732e-03 8.563860893249511719e+00 2.566347122192382812e+00 -3.711412847042083740e-02
7.670000000000000000e+02 7.936682128906250000e+01 -1.320939183235168457e+00 -2.041477337479591370e-02 8.611473083496093750e+00 2.577317476272583008e+00 -3.117312910035252571e-03
7.680000000000000000e+02 7.813194274902343750e+01 -3.954375982284545898e+00 -7.403516769409179688e-02 8.164045333862304688e+00 2.427003145217895508e+00 1.687407195568084717e-01
7.690000000000000000e+02 7.937697601318359375e+01 -4.099260807037353516e+00 -2.102731540799140930e-02 8.484718322753906250e+00 2.539107322692871094e+00 6.856469064950942993e-02
7.700000000000000000e+02 7.940042114257812500e+01 -8.266041755676269531e+00 -1.659435592591762543e-02 7.681283950805664062e+00 2.299407005310058594e+00 1.780081242322921753e-01
7.710000000000000000e+02 7.822569274902343750e+01 -1.087302589416503906e+01 -2.062050998210906982e-02 7.046258926391601562e+00 2.107691526412963867e+00 5.760900378227233887e-01
7.720000000000000000e+02 7.939986419677734375e+01 -1.105344963073730469e+01 -1.520100142806768417e-02 6.755986690521240234e+00 2.022235631942749023e+00 2.302018702030181885e-01
7.730000000000000000e+02 7.934321594238281250e+01 -1.525484275817871094e+01 4.154024273157119751e-02 5.369087696075439453e+00 1.623188376426696777e+00 1.615536063909530640e-01
7.740000000000000000e+02 7.807040405273437500e+01 -1.800140571594238281e+01 1.980033814907073975e-01 5.920785427093505859e+00 1.835636734962463379e+00 1.306715887039899826e-02
7.750000000000000000e+02 7.935485839843750000e+01 -1.806949806213378906e+01 6.050453335046768188e-02 4.992082118988037109e+00 1.515776038169860840e+00 1.136175170540809631e-02
7.760000000000000000e+02 7.937906646728515625e+01 -2.364181518554687500e+01 1.258814614266157150e-02 6.271865367889404297e+00 1.885336160659790039e+00 -2.513774037361145020e-01
7.770000000000000000e+02 7.808840942382812500e+01 -2.492619132995605469e+01 -1.235884800553321838e-02 7.081922054290771484e+00 2.120868921279907227e+00 -6.780608296394348145e-01
7.780000000000000000e+02 7.936057281494140625e+01 -2.503612136840820312e+01 3.665944561362266541e-03 6.827945709228515625e+00 2.049483537673950195e+00 -2.682774364948272705e-01
7.790000000000000000e+02 7.928295135498046875e+01 -2.923484420776367188e+01 -2.822416834533214569e-02 8.236517906188964844e+00 2.462488174438476562e+00 -1.956008523702621460e-01
7.800000000000000000e+02 7.781242370605468750e+01 -3.204590225219726562e+01 -8.849734812974929810e-02 8.343540191650390625e+00 2.476512908935546875e+00 -2.775601744651794434e-01
7.810000000000000000e+02 7.928157043457031250e+01 -3.204004669189453125e+01 -3.593458235263824463e-02 8.777712821960449219e+00 2.622533559799194336e+00 -1.070239022374153137e-01
7.820000000000000000e+02 7.937222290039062500e+01 -3.613000106811523438e+01 3.294145688414573669e-02 9.041078567504882812e+00 2.722205877304077148e+00 -5.874820519238710403e-03
7.830000000000000000e+02 7.927851104736328125e+01 -3.744196319580078125e+01 -6.554356962442398071e-02 8.968977928161621094e+00 2.671030282974243164e+00 5.053492262959480286e-02
7.840000000000000000e+02 7.904239654541015625e+01 -3.873994445800781250e+01 1.583737507462501526e-02 8.848975181579589844e+00 2.659443616867065430e+00 7.048797607421875000e-02
7.850000000000000000e+02 7.866098785400390625e+01 -4.009031295776367188e+01 -5.794696137309074402e-02 8.712555885314941406e+00 2.596382856369018555e+00 1.183397024869918823e-01
7.860000000000000000e+02 4.754563903808593750e+01 4.097830200195312500e+01 -2.332010269165039062e-01 3.061720132827758789e+00 8.485557436943054199e-01 5.307520925998687744e-02
7.870000000000000000e+02 3.838849663734436035e-01 2.179805040359497070e+00 -9.582340717315673828e-03 -2.519282400608062744e-01 -7.845317572355270386e-02 8.431363105773925781e-02
7.880000000000000000e+02 2.725370883941650391e+00 2.976004123687744141e+00 -9.238927811384201050e-02 -2.191963344812393188e-01 -9.347568452358245850e-02 5.366141796112060547e-01
7.890000000000000000e+02 3.742657899856567383e+00 7.188158035278320312e+00 2.946796119213104248e-01 1.217440441250801086e-01 1.249270960688591003e-01 2.147694826126098633e-01
7.900000000000000000e+02 3.473043441772460938e+00 4.777002811431884766e+00 1.497602015733718872e-01 -1.558625549077987671e-01 -1.830702531151473522e-03 4.949929714202880859e-01
7.910000000000000000e+02 5.551455020904541016e-01 9.185884475708007812e+00 1.749485731124877930e-02 -1.749118328094482422e+00 -5.194870233535766602e-01 2.463469468057155609e-02
7.920000000000000000e+02 5.766220092773437500e-01 1.200965785980224609e+01 1.883552782237529755e-02 -1.714203119277954102e+00 -5.086103081703186035e-01 -4.550262168049812317e-02
7.930000000000000000e+02 1.719276189804077148e+00 1.182655239105224609e+01 6.243608146905899048e-02 -8.690617084503173828e-01 -2.419876903295516968e-01 -1.162140220403671265e-01
7.940000000000000000e+02 6.088828444480895996e-01 1.625193595886230469e+01 8.804299868643283844e-03 -1.066705703735351562e+00 -3.173704445362091064e-01 -1.351695805788040161e-01
7.950000000000000000e+02 6.595143675804138184e-01 2.192507171630859375e+01 6.583536043763160706e-03 4.825595915317535400e-01 1.467429399490356445e-01 -2.016222476959228516e-01
7.960000000000000000e+02 6.688913702964782715e-01 2.334188652038574219e+01 -7.265675812959671021e-03 9.085261225700378418e-01 2.703781425952911377e-01 -1.993612647056579590e-01
7.970000000000000000e+02 2.017874717712402344e+00 2.320367050170898438e+01 -5.169066134840250015e-03 1.362905859947204590e+00 4.073210656642913818e-01 -5.629846453666687012e-01
7.980000000000000000e+02 6.709837913513183594e-01 2.475283241271972656e+01 1.296413945965468884e-03 1.321791172027587891e+00 3.969262838363647461e-01 -1.941265314817428589e-01
7.990000000000000000e+02 6.424117684364318848e-01 2.897420501708984375e+01 -1.394167169928550720e-02 2.413596153259277344e+00 7.198963165283203125e-01 -1.444102227687835693e-01
8.000000000000000000e+02 6.365206837654113770e-01 3.038300895690917969e+01 -4.464486148208379745e-03 2.708386421203613281e+00 8.111765980720520020e-01 -1.253849118947982788e-01
8.010000000000000000e+02 1.918905138969421387e+00 3.157635116577148438e+01 -3.554873913526535034e-02 2.972352266311645508e+00 8.810411095619201660e-01 -3.017258942127227783e-01
8.020000000000000000e+02 6.376399397850036621e-01 3.178762245178222656e+01 -1.210113614797592163e-02 2.961040973663330078e+00 8.846819996833801270e-01 -1.056207492947578430e-01
8.030000000000000000e+02 7.460706233978271484e-01 3.595539855957031250e+01 -4.238651017658412457e-04 3.458128929138183594e+00 1.037311434745788574e+00 -5.589476972818374634e-02
8.040000000000000000e+02 2.761441707611083984e+00 3.801893615722656250e+01 -4.182872921228408813e-02 3.530251502990722656e+00 1.046526789665222168e+00 -1.345423907041549683e-01
8.050000000000000000e+02 1.009735465049743652e+00 3.868597030639648438e+01 2.065523993223905563e-03 3.607136487960815430e+00 1.082760572433471680e+00 -4.042192548513412476e-02
8.060000000000000000e+02 1.351407289505004883e+00 4.005884933471679688e+01 -3.293533110991120338e-03 3.656115531921386719e+00 1.095846652984619141e+00 -3.830379992723464966e-02
8.070000000000000000e+02 1.206222915649414062e+01 1.554243683815002441e+00 1.176899790763854980e+00 7.779815196990966797e+00 2.687014341354370117e+00 -4.696575641632080078e+00
8.080000000000000000e+02 1.142119884490966797e+01 1.395804286003112793e+00 1.514135956764221191e+00 3.916649818420410156e+00 1.629235744476318359e+00 -3.472241163253784180e+00
8.090000000000000000e+02 1.274699878692626953e+01 1.198455333709716797e+00 4.781320095062255859e-01 1.279848766326904297e+01 3.982985973358154297e+00 -4.689093589782714844e+00
8.100000000000000000e+02 1.365627765655517578e+01 1.109398484230041504e+00 1.150317192077636719e+00 1.749333000183105469e+01 5.593093872070312500e+00 7.074516033753752708e-04
8.110000000000000000e+02 7.776062011718750000e+00 3.194508314132690430e+00 4.398782253265380859e-01 8.194630146026611328e-01 3.778023719787597656e-01 -2.677734792232513428e-01
8.120000000000000000e+02 1.199799251556396484e+01 1.295950889587402344e+00 1.552404403686523438e+00 6.985685825347900391e+00 2.561427116394042969e+00 -4.681199550628662109e+00
8.130000000000000000e+02 1.198391532897949219e+01 -1.995638251304626465e+00 5.778188228607177734e+00 6.496583938598632812e+00 3.682431697845458984e+00 6.610748767852783203e+00
8.140000000000000000e+02 1.376649856567382812e+01 -2.377590656280517578e+00 3.205295085906982422e+00 1.603236961364746094e+01 5.771299362182617188e+00 1.112373590469360352e+00
8.150000000000000000e+02 1.021931171417236328e+01 -2.091740846633911133e+00 3.393929004669189453e+00 1.093697190284729004e+00 1.346287846565246582e+00 2.388257741928100586e+00
8.160000000000000000e+02 9.870478630065917969e+00 -1.807406067848205566e+00 2.635540246963500977e+00 5.544024705886840820e-01 9.569828510284423828e-01 1.621085762977600098e+00
8.170000000000000000e+02 1.206008052825927734e+01 -2.207701683044433594e+00 5.095590591430664062e+00 7.672208786010742188e+00 3.830339670181274414e+00 6.612668514251708984e+00
8.180000000000000000e+02 1.180163764953613281e+01 -1.989932060241699219e+00 5.890725612640380859e+00 5.482996463775634766e+00 3.412116765975952148e+00 6.210879325866699219e+00
8.190000000000000000e+02 1.034993648529052734e+01 -1.792010903358459473e+00 3.470092296600341797e+00 7.650031447410583496e-01 1.270528554916381836e+00 2.068737983703613281e+00
8.200000000000000000e+02 1.459788417816162109e+01 4.257969558238983154e-01 6.496721267700195312e+00 1.492762184143066406e+01 6.427302837371826172e+00 3.270589828491210938e+00
8.210000000000000000e+02 1.286227035522460938e+01 1.517401337623596191e+00 1.287765353918075562e-01 1.289652633666992188e+01 3.907590866088867188e+00 -3.951017379760742188e+00
8.220000000000000000e+02 1.571213436126708984e+01 -2.401576280593872070e+00 5.185235023498535156e+00 9.385568618774414062e+00 4.371241092681884766e+00 -1.788584828376770020e+00
8.230000000000000000e+02 1.481054878234863281e+01 -2.511312663555145264e-01 1.002070617675781250e+01 1.270949745178222656e+01 6.819060802459716797e+00 1.818778276443481445e+00
8.240000000000000000e+02 2.175625610351562500e+01 3.484728813171386719e+00 2.497266978025436401e-01 1.004993081092834473e+00 3.764159083366394043e-01 -3.782960176467895508e-01
8.250000000000000000e+02 1.581115531921386719e+01 -5.176574587821960449e-01 7.900429725646972656e+00 9.268589019775390625e+00 5.150705814361572266e+00 5.063341259956359863e-01
8.260000000000000000e+02 1.310763549804687500e+01 -2.238800048828125000e+00 3.248919963836669922e+00 1.578002262115478516e+01 5.708683013916015625e+00 4.150995731353759766e+00
8.270000000000000000e+02 1.566920185089111328e+01 -3.267136573791503906e+00 3.471724033355712891e+00 9.189582824707031250e+00 3.798392057418823242e+00 -1.444114089012145996e+00
8.280000000000000000e+02 1.367738819122314453e+01 -3.194398641586303711e+00 1.807999134063720703e+00 1.237624835968017578e+01 4.255274295806884766e+00 2.303778648376464844e+00
8.290000000000000000e+02 9.664566993713378906e+00 1.831314802169799805e+00 3.613131046295166016e-01 9.707122445106506348e-01 3.996075987815856934e-01 -1.011850357055664062e+00
8.300000000000000000e+02 7.941053867340087891e+00 2.509766578674316406e+00 1.187125444412231445e-01 4.928906261920928955e-01 1.834809482097625732e-01 -1.145209968090057373e-01
8.310000000000000000e+02 7.218595027923583984e+00 2.517674207687377930e+00 -7.227141410112380981e-02 3.579291701316833496e-01 8.569733053445816040e-02 1.591270118951797485e-01
8.320000000000000000e+02 5.028874874114990234e+00 1.891312956809997559e+00 -5.355414748191833496e-01 7.278563920408487320e-03 -1.584788858890533447e-01 5.339176654815673828e-01
8.330000000000000000e+02 1.600684762001037598e+00 7.583717823028564453e+00 7.693444192409515381e-02 -9.625787734985351562e-01 -2.656933069229125977e-01 1.805372983217239380e-01
8.340000000000000000e+02 6.475791454315185547e+00 2.558339595794677734e+00 -1.549465358257293701e-01 2.249268144369125366e-01 2.099408395588397980e-02 3.628964126110076904e-01
8.350000000000000000e+02 5.723125457763671875e+00 2.620410442352294922e+00 -1.904658377170562744e-01 1.298830360174179077e-01 -1.817483641207218170e-02 4.874349236488342285e-01
8.360000000000000000e+02 4.218503952026367188e+00 3.676750659942626953e+00 5.404043197631835938e-02 -2.223478443920612335e-02 9.541694074869155884e-03 5.622991919517517090e-01
8.370000000000000000e+02 1.181702733039855957e+00 3.371832132339477539e+00 -1.809321716427803040e-02 -5.005310773849487305e-01 -1.555872857570648193e-01 3.198783099651336670e-01
8.380000000000000000e+02 2.714850187301635742e+00 1.995751023292541504e+00 -2.427242100238800049e-01 -1.446586251258850098e-01 -1.162148490548133850e-01 4.595068693161010742e-01
8.390000000000000000e+02 1.958685159683227539e+00 3.157497167587280273e+00 -4.288843274116516113e-02 -3.700971305370330811e-01 -1.238956674933433533e-01 4.511159956455230713e-01
8.400000000000000000e+02 7.843167781829833984e+00 -2.418164968490600586e+00 1.143394351005554199e+00 5.073515772819519043e-01 4.952237904071807861e-01 8.648764491081237793e-01
8.410000000000000000e+02 5.390326976776123047e+00 -1.894160151481628418e+00 3.012067638337612152e-02 1.337590366601943970e-01 4.916391521692276001e-02 -3.804058209061622620e-02
8.420000000000000000e+02 6.299553871154785156e+00 -2.579170703887939453e+00 5.259339809417724609e-01 3.468946516513824463e-01 2.618485987186431885e-01 3.180634677410125732e-01
8.430000000000000000e+02 5.511597633361816406e+00 -2.683622360229492188e+00 3.529250919818878174e-01 2.989810109138488770e-01 1.955718249082565308e-01 1.457944810390472412e-01
8.440000000000000000e+02 7.080605506896972656e+00 -2.488701343536376953e+00 7.903465032577514648e-01 4.150749146938323975e-01 3.616264164447784424e-01 5.716626644134521484e-01
8.450000000000000000e+02 1.732193827629089355e+00 -9.564444541931152344e+00 -3.786745667457580566e-02 -3.676680475473403931e-02 -2.239027805626392365e-02 -6.236002594232559204e-02
8.460000000000000000e+02 6.647630929946899414e-01 -6.501814842224121094e+00 1.043444685637950897e-02 -6.884731054306030273e-01 -2.034115940332412720e-01 -3.780230134725570679e-02
8.470000000000000000e+02 3.271906614303588867e+00 -4.009204387664794922e+00 1.852312982082366943e-01 2.100914120674133301e-01 1.185968145728111267e-01 -7.958425581455230713e-02
8.480000000000000000e+02 4.717290699481964111e-01 -3.573229074478149414e+00 7.776971906423568726e-03 -4.313879609107971191e-01 -1.270833015441894531e-01 -6.473179906606674194e-02
8.490000000000000000e+02 6.790200042724609375e+01 -2.429788017272949219e+01 -1.966135948896408081e-01 7.469737529754638672e+00 2.181937217712402344e+00 1.674874305725097656e+00
8.500000000000000000e+02 1.685475349426269531e+01 -1.212251186370849609e+01 -9.104413986206054688e+00 -1.008928179740905762e+00 -3.034002542495727539e+00 1.114667177200317383e+00
8.510000000000000000e+02 1.879027938842773438e+01 -1.265904808044433594e+01 -5.619603157043457031e+00 -7.247956395149230957e-01 -1.903319716453552246e+00 1.485475897789001465e+00
8.520000000000000000e+02 5.403805541992187500e+01 6.468664854764938354e-02 1.788231253623962402e+00 2.039308995008468628e-01 5.976486206054687500e-01 3.340805768966674805e-01
8.530000000000000000e+02 5.072201919555664062e+01 -2.857084274291992188e+01 1.227699756622314453e+00 2.671051979064941406e+00 1.169625520706176758e+00 -2.042564868927001953e+00
8.540000000000000000e+02 4.725443267822265625e+01 -3.052503585815429688e+01 -3.338608741760253906e-01 5.848686218261718750e+00 1.654447674751281738e+00 -1.877694487571716309e+00
8.550000000000000000e+02 5.972380065917968750e+01 -2.908703613281250000e+01 -2.536074638366699219e+00 -3.170347213745117188e-01 -8.559328317642211914e-01 -7.714138627052307129e-01
8.560000000000000000e+02 6.184048080444335938e+01 -8.851357460021972656e+00 3.310027346014976501e-02 5.825662612915039062e-01 1.846999675035476685e-01 -3.444999754428863525e-01
8.570000000000000000e+02 6.385659790039062500e+01 -1.154914855957031250e+01 -4.420336186885833740e-01 4.471662044525146484e-01 1.539782504551112652e-03 -4.650376737117767334e-01
8.580000000000000000e+02 4.623271560668945312e+01 -2.513048934936523438e+01 1.848490595817565918e+00 8.918780326843261719e+00 3.230181217193603516e+00 -2.317654609680175781e+00
8.590000000000000000e+02 4.702104187011718750e+01 -2.624103927612304688e+01 1.503869295120239258e+00 7.811562061309814453e+00 2.794629573822021484e+00 -2.748759746551513672e+00
8.600000000000000000e+02 7.081843566894531250e+01 -1.257280158996582031e+01 4.165644943714141846e-02 9.077948570251464844e+00 2.735881567001342773e+00 5.205644965171813965e-01
8.610000000000000000e+02 6.831636810302734375e+01 -1.712663650512695312e+01 1.103562116622924805e+00 1.633863639831542969e+01 5.232659816741943359e+00 -1.355888009071350098e+00
8.620000000000000000e+02 7.002101898193359375e+01 -1.386249351501464844e+01 7.106791138648986816e-01 9.966528892517089844e+00 3.203162431716918945e+00 1.350099295377731323e-01
8.630000000000000000e+02 6.517256927490234375e+01 -2.978610610961914062e+01 -8.016092181205749512e-01 3.573942661285400391e+00 8.317000269889831543e-01 1.015543580055236816e+00
8.640000000000000000e+02 4.602944183349609375e+01 -1.267867660522460938e+01 1.294606924057006836e+00 9.965303421020507812e+00 3.377973079681396484e+00 2.121401071548461914e+00
8.650000000000000000e+02 5.870235443115234375e+01 -1.039555168151855469e+01 -1.007258176803588867e+00 -1.264503449201583862e-01 -3.401125669479370117e-01 4.118885099887847900e-01
8.660000000000000000e+02 5.706206512451171875e+01 -8.116493225097656250e+00 -8.572227954864501953e-01 -4.892309755086898804e-02 -2.718437612056732178e-01 1.966944485902786255e-01
8.670000000000000000e+02 4.526987838745117188e+01 -2.090675926208496094e+01 1.569240927696228027e+00 1.204514789581298828e+01 4.084316730499267578e+00 -1.145370602607727051e+00
8.680000000000000000e+02 1.175970649719238281e+01 -2.593685913085937500e+01 -8.762120604515075684e-01 5.178741931915283203e+00 1.290758967399597168e+00 -9.734206646680831909e-02
8.690000000000000000e+02 1.176859855651855469e+01 -1.667249107360839844e+01 1.658901572227478027e+00 1.657651329040527344e+01 5.470624923706054688e+00 2.979245424270629883e+00
8.700000000000000000e+02 1.219963169097900391e+01 -1.536661815643310547e+01 2.915097236633300781e+00 1.330820083618164062e+01 4.866989135742187500e+00 4.769548892974853516e+00
8.710000000000000000e+02 7.150497436523437500e+01 -1.995722007751464844e+01 1.870000123977661133e+00 9.822149276733398438e+00 3.507644891738891602e+00 -4.410193860530853271e-01
8.720000000000000000e+02 5.748053359985351562e+01 1.932855099439620972e-01 1.217924237251281738e+00 1.189979538321495056e-01 4.010766446590423584e-01 2.286518365144729614e-01
8.730000000000000000e+02 3.511024475097656250e+01 -2.622685623168945312e+01 2.161238431930541992e+00 8.208676338195800781e+00 3.110974550247192383e+00 3.665243148803710938e+00
8.740000000000000000e+02 4.109574508666992188e+01 -2.519079017639160156e+01 1.766754031181335449e+00 8.562835693359375000e+00 3.098876714706420898e+00 -2.674306333065032959e-01
8.750000000000000000e+02 6.087148284912109375e+01 -8.375948905944824219e+00 -5.759309977293014526e-02 5.338017344474792480e-01 1.428625881671905518e-01 -2.196752876043319702e-01
8.760000000000000000e+02 4.654147720336914062e+01 -1.586204910278320312e+01 6.549130678176879883e-01 1.284556961059570312e+01 4.050144672393798828e+00 1.963784575462341309e+00
8.770000000000000000e+02 4.874874496459960938e+01 -8.857867240905761719e+00 -5.749021172523498535e-01 5.364784717559814453e+00 1.436964869499206543e+00 1.707041859626770020e+00
8.780000000000000000e+02 6.946156311035156250e+01 -2.024551010131835938e+01 2.417927265167236328e+00 1.203724098205566406e+01 4.336550712585449219e+00 7.997977733612060547e-01
8.790000000000000000e+02 4.768195724487304688e+01 -9.974630355834960938e+00 -1.367162913084030151e-01 7.525082111358642578e+00 2.216509580612182617e+00 1.893639087677001953e+00
8.800000000000000000e+02 4.338131713867187500e+01 -1.376721382141113281e+01 1.323400378227233887e+00 9.081875801086425781e+00 3.121582984924316406e+00 1.186638712882995605e+00
8.810000000000000000e+02 5.423778152465820312e+01 -2.971180534362792969e+01 -1.229279398918151855e+00 2.319110482931137085e-01 -2.992104887962341309e-01 -4.059966504573822021e-01
8.820000000000000000e+02 5.598417663574218750e+01 -3.133589744567871094e+01 -8.448385000228881836e-01 1.255898624658584595e-01 -2.157745957374572754e-01 -7.604790925979614258e-01
8.830000000000000000e+02 5.886098861694335938e+01 -3.089753723144531250e+01 -1.235975265502929688e+00 -6.491276621818542480e-02 -3.902664184570312500e-01 -1.121517866849899292e-01
8.840000000000000000e+02 6.168455886840820312e+01 -2.976990318298339844e+01 -1.182396411895751953e+00 1.022454500198364258e+00 -4.798256605863571167e-02 3.717018067836761475e-01
8.850000000000000000e+02 5.323845672607421875e+01 -3.159488105773925781e+01 -3.279006779193878174e-01 1.586815595626831055e+00 3.776744604110717773e-01 -1.749044537544250488e+00
8.860000000000000000e+02 1.284737205505371094e+01 -1.421296882629394531e+01 1.849075317382812500e+00 8.030968666076660156e+00 2.964013338088989258e+00 3.981939792633056641e+00
8.870000000000000000e+02 6.661862182617187500e+01 -1.189766120910644531e+01 6.570683717727661133e-01 5.235926151275634766e+00 1.767898321151733398e+00 -2.076655864715576172e+00
8.880000000000000000e+02 4.495706176757812500e+01 -1.802831840515136719e+01 1.000068187713623047e+00 1.176859760284423828e+01 3.830599784851074219e+00 4.134540259838104248e-01
8.890000000000000000e+02 4.456502914428710938e+01 -1.910432243347167969e+01 1.397052645683288574e+00 1.095888805389404297e+01 3.706782341003417969e+00 -3.100397288799285889e-01
8.900000000000000000e+02 5.993529510498046875e+01 -1.082121372222900391e+01 -1.092516422271728516e+00 -2.059466578066349030e-02 -3.339333534240722656e-01 3.438680469989776611e-01
8.910000000000000000e+02 5.924179840087890625e+01 -9.139060974121093750e+00 -5.969450473785400391e-01 1.024747341871261597e-01 -1.483410894870758057e-01 2.213816493749618530e-01
8.920000000000000000e+02 3.469127655029296875e+01 -1.538274860382080078e+01 3.821740388870239258e+00 5.977910995483398438e+00 2.939895391464233398e+00 -3.178462505340576172e+00
8.930000000000000000e+02 3.569447326660156250e+01 -1.599591827392578125e+01 3.082393169403076172e+00 7.454672813415527344e+00 3.161119699478149414e+00 -2.317684650421142578e+00
8.940000000000000000e+02 6.639650726318359375e+01 -2.373634910583496094e+01 1.090284824371337891e+00 4.645474433898925781e+00 1.720727801322937012e+00 2.360698461532592773e+00
8.950000000000000000e+02 5.813599014282226562e+01 -8.690580368041992188e+00 -6.793766021728515625e-01 1.901233755052089691e-02 -1.981092840433120728e-01 2.854994535446166992e-01
8.960000000000000000e+02 3.604003143310546875e+01 -2.722609519958496094e+01 9.781749248504638672e-01 8.173580169677734375e+00 2.745526552200317383e+00 1.680705547332763672e+00
8.970000000000000000e+02 6.151696395874023438e+01 -9.932026863098144531e+00 -4.315222799777984619e-01 3.369278013706207275e-01 -2.837834134697914124e-02 -4.399579018354415894e-02
8.980000000000000000e+02 6.296403884887695312e+01 -2.906837844848632812e+01 -9.479240179061889648e-01 1.653838515281677246e+00 2.117743343114852905e-01 5.824624300003051758e-01
8.990000000000000000e+02 6.653884124755859375e+01 -2.634340095520019531e+01 -4.046621024608612061e-01 5.007194519042968750e+00 1.380759716033935547e+00 1.315293908119201660e+00
9.000000000000000000e+02 5.741763305664062500e+01 -3.122105216979980469e+01 -1.089394092559814453e+00 -1.356904506683349609e-01 -3.675253689289093018e-01 -4.737655222415924072e-01
9.010000000000000000e+02 4.572667694091796875e+01 -1.417328929901123047e+01 1.438176155090332031e+00 1.085295295715332031e+01 3.687338829040527344e+00 2.194329977035522461e+00
9.020000000000000000e+02 4.436292266845703125e+01 -1.523824024200439453e+01 1.519133567810058594e+00 1.017447280883789062e+01 3.508081912994384766e+00 1.507780075073242188e+00
9.030000000000000000e+02 4.395883560180664062e+01 -2.008645820617675781e+01 1.931187033653259277e+00 1.047322368621826172e+01 3.721323013305664062e+00 -4.938063025474548340e-01
9.040000000000000000e+02 4.524174499511718750e+01 -1.682896041870117188e+01 9.877144098281860352e-01 1.142365169525146484e+01 3.723409652709960938e+00 1.367913007736206055e+00
9.050000000000000000e+02 4.779069900512695312e+01 -2.731586837768554688e+01 1.260520339012145996e+00 6.138055324554443359e+00 2.219572782516479492e+00 -2.785315990447998047e+00
9.060000000000000000e+02 4.845397186279296875e+01 -2.846400833129882812e+01 7.469292283058166504e-01 5.150782585144042969e+00 1.769313454627990723e+00 -2.321094274520874023e+00
9.070000000000000000e+02 1.206113815307617188e+01 -1.273618602752685547e+01 -1.705937385559082031e+00 8.580951690673828125e+00 2.062504291534423828e+00 2.359171867370605469e+00
9.080000000000000000e+02 6.414960479736328125e+01 -2.823599815368652344e+01 -7.062737345695495605e-01 2.490677595138549805e+00 5.353211760520935059e-01 8.263821601867675781e-01
9.090000000000000000e+02 6.797936248779296875e+01 -2.576775741577148438e+01 -5.296027660369873047e-01 6.695381164550781250e+00 1.849733471870422363e+00 1.105872631072998047e+00
9.100000000000000000e+02 6.966271972656250000e+01 -1.868430519104003906e+01 1.568638324737548828e+00 1.332273483276367188e+01 4.467411994934082031e+00 1.919196993112564087e-01
9.110000000000000000e+02 1.896119880676269531e+01 -3.057770729064941406e+01 -1.323553919792175293e+00 3.176124691963195801e-01 -3.017824590206146240e-01 -1.154075656086206436e-02
9.120000000000000000e+02 2.233467292785644531e+01 -3.021441841125488281e+01 -2.486332178115844727e+00 -2.536861896514892578e-01 -8.220055103302001953e-01 5.047106742858886719e-01
9.130000000000000000e+02 2.517060470581054688e+01 -3.270216369628906250e+01 -1.310176253318786621e+00 2.862207405269145966e-02 -3.844662606716156006e-01 2.950143814086914062e-01
9.140000000000000000e+02 2.346488380432128906e+01 -1.435907268524169922e+01 -2.546094179153442383e+00 6.133052706718444824e-02 -7.454290390014648438e-01 6.227952986955642700e-02
9.150000000000000000e+02 1.441488647460937500e+01 -1.160447216033935547e+01 -4.713201999664306641e+00 4.590641498565673828e+00 -3.676808252930641174e-02 3.006424903869628906e+00
9.160000000000000000e+02 1.336440849304199219e+01 -1.172381496429443359e+01 -3.565615177154541016e+00 6.328896999359130859e+00 8.289844989776611328e-01 2.462409496307373047e+00
9.170000000000000000e+02 3.092906379699707031e+01 -2.991956901550292969e+01 -4.200781881809234619e-01 7.293122410774230957e-01 9.277021884918212891e-02 6.593775153160095215e-01
9.180000000000000000e+02 3.409477615356445312e+01 -3.172268486022949219e+01 -8.142328262329101562e-01 4.475156784057617188e+00 1.098277211189270020e+00 1.575540065765380859e+00
9.190000000000000000e+02 2.036767959594726562e+01 -3.130065536499023438e+01 -1.449984192848205566e+00 1.782374829053878784e-02 -4.296481311321258545e-01 3.532836586236953735e-02
9.200000000000000000e+02 3.016112709045410156e+01 -3.196916770935058594e+01 -8.351336121559143066e-01 1.186533808708190918e+00 1.054200753569602966e-01 1.141663074493408203e+00
9.210000000000000000e+02 1.004315471649169922e+01 -2.168981742858886719e+01 7.336158752441406250e-01 8.390533447265625000e+00 2.737244844436645508e+00 6.484378576278686523e-01
9.220000000000000000e+02 3.734519195556640625e+01 -1.914269065856933594e+01 2.981621026992797852e+00 9.714551925659179688e+00 3.808851957321166992e+00 -1.578482747077941895e+00
9.230000000000000000e+02 3.623731994628906250e+01 -1.774383735656738281e+01 3.730540275573730469e+00 1.066847419738769531e+01 4.319704532623291016e+00 -2.886861562728881836e+00
9.240000000000000000e+02 2.906399917602539062e+01 -1.346389484405517578e+01 1.061632156372070312e+00 6.609594225883483887e-01 5.167774558067321777e-01 -1.809571146965026855e+00
9.250000000000000000e+02 1.031692790985107422e+01 -1.921179962158203125e+01 1.456251978874206543e+00 1.069954204559326172e+01 3.646738290786743164e+00 5.542003512382507324e-01
9.260000000000000000e+02 3.420930862426757812e+01 -2.937549781799316406e+01 2.586378157138824463e-01 4.999368667602539062e+00 1.577401995658874512e+00 1.943625688552856445e+00
9.270000000000000000e+02 3.427832794189453125e+01 -2.731602478027343750e+01 2.333995342254638672e+00 5.640141010284423828e+00 2.392241001129150391e+00 3.207886695861816406e+00
9.280000000000000000e+02 3.609423446655273438e+01 -2.172777366638183594e+01 2.069220542907714844e-01 1.146696376800537109e+01 3.502165794372558594e+00 -6.060611456632614136e-02
9.290000000000000000e+02 3.516650009155273438e+01 -2.827141189575195312e+01 7.090020775794982910e-01 6.251277923583984375e+00 2.088083982467651367e+00 2.010424613952636719e+00
9.300000000000000000e+02 2.692029571533203125e+01 -3.283707427978515625e+01 -1.133771061897277832e+00 -7.344140671193599701e-03 -3.423345685005187988e-01 5.617554187774658203e-01
9.310000000000000000e+02 1.543165779113769531e+01 -2.787460517883300781e+01 -7.198813557624816895e-01 1.740294694900512695e+00 3.061240315437316895e-01 -4.557983279228210449e-01
9.320000000000000000e+02 1.648698425292968750e+01 -2.882964706420898438e+01 -9.895327687263488770e-01 1.260978698730468750e+00 8.143377304077148438e-02 -2.426171749830245972e-01
9.330000000000000000e+02 1.766262435913085938e+01 -2.974184417724609375e+01 -1.170801997184753418e+00 6.752967238426208496e-01 -1.486515849828720093e-01 -1.530364006757736206e-01
9.340000000000000000e+02 1.937500572204589844e+01 -1.077793502807617188e+01 -2.551064014434814453e+00 7.503101229667663574e-01 -5.402261614799499512e-01 -1.077934503555297852e+00
9.350000000000000000e+02 1.815425109863281250e+01 -1.167425251007080078e+01 -5.806803226470947266e+00 -4.556628167629241943e-01 -1.878739714622497559e+00 5.547677278518676758e-01
9.360000000000000000e+02 2.502224540710449219e+01 -1.326242160797119141e+01 -1.266565203666687012e+00 3.637032806873321533e-01 -2.708585560321807861e-01 -8.031114935874938965e-01
9.370000000000000000e+02 2.376617622375488281e+01 -1.320518589019775391e+01 -1.807092189788818359e+00 3.924772143363952637e-01 -4.243845045566558838e-01 -3.994148969650268555e-01
9.380000000000000000e+02 3.189566993713378906e+01 -1.369607353210449219e+01 2.622483730316162109e+00 2.187366962432861328e+00 1.442955136299133301e+00 -2.841796398162841797e+00
9.390000000000000000e+02 9.198479652404785156e+00 -1.757524490356445312e+01 2.135166883468627930e+00 8.290445327758789062e+00 3.127683877944946289e+00 9.419780373573303223e-01
9.400000000000000000e+02 1.022036647796630859e+01 -2.048388290405273438e+01 1.242272257804870605e+00 9.275156974792480469e+00 3.155228614807128906e+00 5.042810440063476562e-01
9.410000000000000000e+02 2.813785362243652344e+01 -3.069775581359863281e+01 -2.060007333755493164e+00 -3.059659618884325027e-03 -6.189200878143310547e-01 1.228219419717788696e-01
9.420000000000000000e+02 2.860355758666992188e+01 -3.252488327026367188e+01 -9.826458692550659180e-01 4.866334497928619385e-01 -1.488037258386611938e-01 6.951829195022583008e-01
9.430000000000000000e+02 1.531407451629638672e+01 -2.570018386840820312e+01 1.959296613931655884e-01 1.209470987319946289e+00 4.216201901435852051e-01 -7.164882421493530273e-01
9.440000000000000000e+02 3.736075973510742188e+01 -2.157061576843261719e+01 1.040428996086120605e+00 1.136617279052734375e+01 3.721980333328247070e+00 1.787844747304916382e-01
9.450000000000000000e+02 3.750079727172851562e+01 -2.268269348144531250e+01 1.666250944137573242e+00 1.025481510162353516e+01 3.576319932937622070e+00 7.440577149391174316e-01
9.460000000000000000e+02 1.445507717132568359e+01 -2.687122344970703125e+01 -4.778902828693389893e-01 2.605219841003417969e+00 6.381988525390625000e-01 -7.093172073364257812e-01
9.470000000000000000e+02 1.351680755615234375e+01 -2.584194374084472656e+01 -3.162854611873626709e-01 3.527699470520019531e+00 9.634241461753845215e-01 -1.054566502571105957e+00
9.480000000000000000e+02 2.571483230590820312e+01 2.433808326721191406e+01 -4.415932297706604004e-01 3.447704613208770752e-01 -2.904682606458663940e-02 6.799801588058471680e-01
9.490000000000000000e+02 2.360315513610839844e+01 2.178988265991210938e+01 -2.454092741012573242e+00 -2.007703930139541626e-01 -7.964588999748229980e-01 4.496281445026397705e-01
9.500000000000000000e+02 1.803647422790527344e+01 1.922839355468750000e+01 1.803352952003479004e+00 1.050673103332519531e+01 3.693025350570678711e+00 1.850796461105346680e+00
9.510000000000000000e+02 1.730998420715332031e+01 1.763869476318359375e+01 1.780104517936706543e+00 1.019285106658935547e+01 3.591886520385742188e+00 7.723483443260192871e-01
9.520000000000000000e+02 4.215941619873046875e+01 -2.821425914764404297e+00 -9.445953369140625000e-01 1.029815292358398438e+01 2.806067228317260742e+00 1.236396431922912598e+00
9.530000000000000000e+02 4.204283523559570312e+01 1.521329730749130249e-01 1.968883514404296875e+00 1.560457515716552734e+01 5.272037506103515625e+00 4.328695297241210938e+00
9.540000000000000000e+02 1.926061058044433594e+01 8.539562225341796875e+00 4.889653325080871582e-01 1.031385517120361328e+01 3.240846157073974609e+00 -2.186241388320922852e+00
9.550000000000000000e+02 3.200964736938476562e+01 -6.352464675903320312e+00 2.625549435615539551e-01 4.536484554409980774e-02 9.237593412399291992e-02 -2.349006652832031250e+00
9.560000000000000000e+02 3.061914253234863281e+01 -5.299375057220458984e+00 1.890898823738098145e+00 5.526513457298278809e-01 7.330650687217712402e-01 -1.610220551490783691e+00
9.570000000000000000e+02 2.769658470153808594e+01 2.098977470397949219e+01 -2.630927324295043945e+00 -1.311397254467010498e-01 -8.286201357841491699e-01 5.964603424072265625e-01
9.580000000000000000e+02 2.682795333862304688e+01 2.270776939392089844e+01 -1.521869778633117676e+00 1.539140380918979645e-02 -4.519435167312622070e-01 3.476853370666503906e-01
9.590000000000000000e+02 2.540910530090332031e+01 2.292720222473144531e+01 -1.444001317024230957e+00 -3.548072651028633118e-02 -4.438446164131164551e-01 4.847635626792907715e-01
9.600000000000000000e+02 4.886645507812500000e+01 1.076186943054199219e+01 6.298515796661376953e-01 1.207516193389892578e+01 3.811504125595092773e+00 2.570019483566284180e+00
9.610000000000000000e+02 3.730843734741210938e+01 -5.665984153747558594e+00 -1.097566246986389160e+00 1.782779335975646973e+00 2.055639326572418213e-01 8.673576712608337402e-01
9.620000000000000000e+02 3.179516983032226562e+01 2.261233711242675781e+01 -9.745070934295654297e-01 5.530997514724731445e-01 -1.264221966266632080e-01 -3.584015071392059326e-01
9.630000000000000000e+02 1.796308898925781250e+01 2.137904548645019531e+01 -4.037796258926391602e-01 7.672115325927734375e+00 2.180500745773315430e+00 3.323529064655303955e-01
9.640000000000000000e+02 1.697600173950195312e+01 2.043244743347167969e+01 7.628033757209777832e-01 7.753246307373046875e+00 2.554814815521240234e+00 2.290014550089836121e-02
9.650000000000000000e+02 3.737993240356445312e+01 -4.167441844940185547e+00 -3.004051208496093750e+00 2.409211993217468262e-01 -8.289390206336975098e-01 -3.254456818103790283e-01
9.660000000000000000e+02 3.948910522460937500e+01 -5.699550628662109375e+00 -1.862584114074707031e+00 5.184252738952636719e+00 9.965006113052368164e-01 2.045842409133911133e+00
9.670000000000000000e+02 2.428285980224609375e+01 2.441129875183105469e+01 -6.733579635620117188e-01 8.124296665191650391e-01 4.172151908278465271e-02 1.246311783790588379e+00
9.680000000000000000e+02 2.202392387390136719e+01 2.457899665832519531e+01 -7.384070754051208496e-01 2.264722585678100586e+00 4.578946530818939209e-01 1.844895958900451660e+00
9.690000000000000000e+02 1.767388343811035156e+01 1.107439327239990234e+01 6.632236838340759277e-01 1.179455089569091797e+01 3.737332344055175781e+00 -8.612074255943298340e-01
9.700000000000000000e+02 4.178385925292968750e+01 1.297689628601074219e+01 4.975406229496002197e-01 6.476134777069091797e+00 2.092102527618408203e+00 -1.418744921684265137e+00
9.710000000000000000e+02 4.568142700195312500e+01 3.471806764602661133e+00 1.636751890182495117e+00 1.212929630279541016e+01 4.129814147949218750e+00 8.666409254074096680e-01
9.720000000000000000e+02 4.816505050659179688e+01 3.665282249450683594e+00 9.982577562332153320e-01 1.234065723419189453e+01 4.001674652099609375e+00 -9.997926950454711914e-01
9.730000000000000000e+02 4.342092132568359375e+01 7.247474193572998047e+00 1.334140181541442871e+00 1.377135658264160156e+01 4.531649112701416016e+00 -3.476564586162567139e-01
9.740000000000000000e+02 3.399433135986328125e+01 1.801432991027832031e+01 -5.818573832511901855e-01 7.995242625474929810e-02 -1.505714803934097290e-01 1.281722635030746460e-01
9.750000000000000000e+02 1.869978904724121094e+01 6.979665279388427734e+00 -1.400334984064102173e-01 8.885083198547363281e+00 2.623514890670776367e+00 -7.746701240539550781e-01
9.760000000000000000e+02 3.607544708251953125e+01 -4.454856395721435547e+00 -3.557853937149047852e+00 1.579193770885467529e-02 -1.062618613243103027e+00 -8.676012754440307617e-01
9.770000000000000000e+02 3.844484329223632812e+01 -5.595688819885253906e+00 -1.482747316360473633e+00 3.575352191925048828e+00 6.277815103530883789e-01 1.863586783409118652e+00
9.780000000000000000e+02 1.730572700500488281e+01 1.389186763763427734e+01 6.651975512504577637e-01 1.202851295471191406e+01 3.808113098144531250e+00 -1.664446592330932617e-01
9.790000000000000000e+02 1.742213058471679688e+01 1.247221469879150391e+01 5.654470324516296387e-01 1.198717308044433594e+01 3.765786170959472656e+00 -5.389910936355590820e-01
9.800000000000000000e+02 3.475628662109375000e+01 -6.058437824249267578e+00 -1.393407344818115234e+00 1.742218285799026489e-01 -3.657556474208831787e-01 -9.238006472587585449e-01
9.810000000000000000e+02 3.470206832885742188e+01 -7.404216766357421875e+00 3.705292940139770508e-02 8.741232156753540039e-01 2.733528316020965576e-01 -1.234595656394958496e+00
9.820000000000000000e+02 3.798396682739257812e+01 1.638204383850097656e+01 2.390996217727661133e-01 1.950456619262695312e+00 6.568669080734252930e-01 -1.004423975944519043e+00
9.830000000000000000e+02 3.616397094726562500e+01 1.626309204101562500e+01 1.391509175300598145e-01 5.753641724586486816e-01 2.143545150756835938e-01 -3.992152512073516846e-01
9.840000000000000000e+02 2.244425964355468750e+01 -1.097735643386840820e+00 3.401072740554809570e+00 1.342009425163269043e+00 1.422924637794494629e+00 -2.207402467727661133e+00
9.850000000000000000e+02 2.376951217651367188e+01 -7.060315608978271484e+00 1.730563521385192871e+00 1.298559069633483887e+00 9.087367653846740723e-01 -2.448648929595947266e+00
9.860000000000000000e+02 2.163599395751953125e+01 3.063909336924552917e-02 2.955211162567138672e+00 1.827376723289489746e+00 1.434776425361633301e+00 -1.794733405113220215e+00
9.870000000000000000e+02 3.679090118408203125e+01 1.935945701599121094e+01 -3.785018920898437500e-01 1.874463081359863281e+00 4.487883746623992920e-01 -8.564070463180541992e-01
9.880000000000000000e+02 2.689440727233886719e+01 -3.057227849960327148e+00 3.191596031188964844e+00 2.707208633422851562e+00 1.769641399383544922e+00 -3.061817169189453125e+00
9.890000000000000000e+02 2.678799629211425781e+01 -4.975389003753662109e+00 3.277920007705688477e+00 2.097772836685180664e+00 1.612707853317260742e+00 -2.570218801498413086e+00
9.900000000000000000e+02 1.728269767761230469e+01 1.526714801788330078e+01 7.461368441581726074e-01 1.208820438385009766e+01 3.850302457809448242e+00 3.576772809028625488e-01
9.910000000000000000e+02 3.341707992553710938e+01 -6.250565528869628906e+00 -8.018366694450378418e-01 -1.862204670906066895e-01 -2.964171469211578369e-01 -1.619424223899841309e+00
9.920000000000000000e+02 2.828806495666503906e+01 2.241616058349609375e+01 -1.641882181167602539e+00 -3.789480030536651611e-02 -5.039330720901489258e-01 1.474451124668121338e-01
9.930000000000000000e+02 4.356183624267578125e+01 -7.720934152603149414e-01 1.064279794692993164e+00 1.208808708190917969e+01 3.945709943771362305e+00 1.434635519981384277e+00
9.940000000000000000e+02 1.731298065185546875e+01 1.654253196716308594e+01 1.376093626022338867e+00 1.148668098449707031e+01 3.858832359313964844e+00 1.108658790588378906e+00
9.950000000000000000e+02 2.089538192749023438e+01 2.903160810470581055e+00 8.415994644165039062e-01 2.873257160186767578e+00 1.114457011222839355e+00 -8.384356498718261719e-01
9.960000000000000000e+02 2.589206695556640625e+01 -3.792152643203735352e+00 3.572582960128784180e+00 1.952054142951965332e+00 1.657391190528869629e+00 -2.793438911437988281e+00
9.970000000000000000e+02 3.104030799865722656e+01 2.135113716125488281e+01 -1.410978317260742188e+00 1.050384938716888428e-01 -3.917819261550903320e-01 -1.225330121815204620e-02
9.980000000000000000e+02 3.234837722778320312e+01 2.067090988159179688e+01 -1.246585011482238770e+00 3.483794927597045898e-01 -2.694616317749023438e-01 -9.265989065170288086e-02
9.990000000000000000e+02 4.472397994995117188e+01 1.215628623962402344e+01 5.281785726547241211e-01 9.619236946105957031e+00 3.044224739074707031e+00 6.688552498817443848e-01
1.000000000000000000e+03 4.224661636352539062e+01 1.151844978332519531e+01 5.552014112472534180e-01 8.291471481323242188e+00 2.654001951217651367e+00 -1.422649383544921875e+00
1.001000000000000000e+03 4.574495697021484375e+01 1.270586967468261719e+00 1.409579753875732422e+00 1.089648151397705078e+01 3.691818237304687500e+00 4.477309584617614746e-01
1.002000000000000000e+03 4.696029281616210938e+01 5.261501312255859375e+00 9.497632980346679688e-01 1.228340053558349609e+01 3.969949007034301758e+00 4.780807793140411377e-01
1.003000000000000000e+03 2.006858062744140625e+01 2.293741941452026367e+00 1.412408232688903809e+00 4.146783351898193359e+00 1.667757511138916016e+00 -8.115309476852416992e-01
1.004000000000000000e+03 4.360929107666015625e+01 5.769148826599121094e+00 8.583169579505920410e-01 1.470555210113525391e+01 4.669160842895507812e+00 1.986875385046005249e-01
1.005000000000000000e+03 1.920234298706054688e+01 5.491309165954589844e+00 -2.229003012180328369e-01 7.235337734222412109e+00 2.103731393814086914e+00 -4.192147254943847656e-01
1.006000000000000000e+03 2.001987075805664062e+01 4.109869956970214844e+00 9.100753068923950195e-02 4.997846126556396484e+00 1.526656150817871094e+00 -5.915622115135192871e-01
1.007000000000000000e+03 3.478378677368164062e+01 1.913985443115234375e+01 -6.065968871116638184e-01 8.189828395843505859e-01 6.371579319238662720e-02 -3.401114046573638916e-01
1.008000000000000000e+03 3.697127914428710938e+01 1.729737091064453125e+01 -7.336364127695560455e-03 1.460994482040405273e+00 4.360974431037902832e-01 -7.495851516723632812e-01
1.009000000000000000e+03 5.130008697509765625e+01 -3.308784961700439453e-02 2.051177024841308594e+00 7.933348417282104492e-01 8.533535599708557129e-01 -6.947317719459533691e-01
1.010000000000000000e+03 5.001486968994140625e+01 -3.232944905757904053e-01 1.727361321449279785e+00 2.913522005081176758e+00 1.392264962196350098e+00 -1.159693956375122070e+00
1.011000000000000000e+03 7.930513000488281250e+01 -2.783391380310058594e+01 -8.825600147247314453e-03 7.839052200317382812e+00 2.349067926406860352e+00 -2.340349853038787842e-01
1.012000000000000000e+03 7.786395263671875000e+01 3.224017715454101562e+01 -2.761311829090118408e-02 8.765526771545410156e+00 2.621374130249023438e+00 -6.199318543076515198e-02
1.013000000000000000e+03 7.928230285644531250e+01 3.629536437988281250e+01 3.463025391101837158e-02 9.096778869628906250e+00 2.739422798156738281e+00 -2.549481391906738281e-02
1.014000000000000000e+03 7.737927246093750000e+01 -3.796658325195312500e+01 -8.563451468944549561e-02 8.425883293151855469e+00 2.502074480056762695e+00 7.563858479261398315e-02
1.015000000000000000e+03 7.935410308837890625e+01 -3.479091644287109375e+01 -5.805695801973342896e-02 9.028531074523925781e+00 2.691142320632934570e+00 -2.431169711053371429e-02
1.016000000000000000e+03 7.938412475585937500e+01 -2.085979461669921875e+01 3.697627782821655273e-02 5.338261127471923828e+00 1.612571239471435547e+00 -1.566707193851470947e-01
1.017000000000000000e+03 7.800507354736328125e+01 -2.632552909851074219e+01 -4.772330820560455322e-02 7.439461231231689453e+00 2.217521429061889648e+00 -6.628375649452209473e-01
1.018000000000000000e+03 7.927265930175781250e+01 -3.063824081420898438e+01 -1.360426284372806549e-02 8.548096656799316406e+00 2.560347795486450195e+00 -1.555235534906387329e-01
1.019000000000000000e+03 7.803278350830078125e+01 -3.477045822143554688e+01 -3.943843394517898560e-02 8.562633514404296875e+00 2.556958436965942383e+00 -9.807763993740081787e-02
1.020000000000000000e+03 7.788982391357421875e+01 -3.344859313964843750e+01 -1.010686308145523071e-01 8.458808898925781250e+00 2.507322072982788086e+00 -1.472600996494293213e-01
1.021000000000000000e+03 7.517393493652343750e+01 -3.772800827026367188e+01 -1.362082213163375854e-01 7.750818729400634766e+00 2.284383058547973633e+00 -1.885265260934829712e-01
1.022000000000000000e+03 7.648154449462890625e+01 -3.908666992187500000e+01 -4.447445645928382874e-02 8.358185768127441406e+00 2.494113445281982422e+00 1.456171739846467972e-02
1.023000000000000000e+03 7.799510955810546875e+01 2.108397483825683594e+01 4.640066996216773987e-03 7.634883880615234375e+00 2.291857242584228516e+00 6.924716830253601074e-01
1.024000000000000000e+03 7.933715057373046875e+01 2.236040687561035156e+01 -7.463939022272825241e-03 7.842098236083984375e+00 2.350390434265136719e+00 2.609223425388336182e-01
1.025000000000000000e+03 7.807962799072265625e+01 1.398526859283447266e+01 1.760728061199188232e-01 6.601189136505126953e+00 2.033178567886352539e+00 -7.274445891380310059e-02
1.026000000000000000e+03 7.936028289794921875e+01 1.535233592987060547e+01 8.638806641101837158e-02 5.916066646575927734e+00 1.800736427307128906e+00 4.207806661725044250e-02
1.027000000000000000e+03 7.790477752685546875e+01 3.084649658203125000e+01 -6.850444525480270386e-02 8.838019371032714844e+00 2.630854368209838867e+00 7.122917100787162781e-03
1.028000000000000000e+03 7.795155334472656250e+01 2.804699516296386719e+01 -1.219679489731788635e-01 8.777169227600097656e+00 2.596560478210449219e+00 2.051935195922851562e-01
1.029000000000000000e+03 7.931730651855468750e+01 2.793131446838378906e+01 -3.064812161028385162e-03 9.212375640869140625e+00 2.762793302536010742e+00 8.567640930414199829e-02
1.030000000000000000e+03 7.801219940185546875e+01 2.526457405090332031e+01 -1.148442625999450684e-01 8.493188858032226562e+00 2.513503313064575195e+00 4.307754337787628174e-01
1.031000000000000000e+03 7.802802276611328125e+01 2.388293266296386719e+01 -7.777231931686401367e-02 8.245173454284667969e+00 2.450220346450805664e+00 5.586355924606323242e-01
1.032000000000000000e+03 7.800999450683593750e+01 1.824045944213867188e+01 9.435997903347015381e-02 7.022777557373046875e+00 2.135141372680664062e+00 5.216599106788635254e-01
1.033000000000000000e+03 7.810157775878906250e+01 1.539141941070556641e+01 1.324257701635360718e-01 6.639582633972167969e+00 2.031602621078491211e+00 1.274513900279998779e-01
1.034000000000000000e+03 7.807363128662109375e+01 1.681521034240722656e+01 1.882205605506896973e-01 6.769136428833007812e+00 2.087207078933715820e+00 3.134357631206512451e-01
1.035000000000000000e+03 7.804559326171875000e+01 1.259915828704833984e+01 8.032953739166259766e-02 6.697876453399658203e+00 2.033461809158325195e+00 -2.361465394496917725e-01
1.036000000000000000e+03 7.666551208496093750e+01 1.125533866882324219e+01 1.883136332035064697e-01 7.288047313690185547e+00 2.242908239364624023e+00 -4.791973829269409180e-01
1.037000000000000000e+03 7.811242675781250000e+01 8.504406929016113281e+00 3.451417014002799988e-02 7.210728168487548828e+00 2.173572778701782227e+00 -4.481243491172790527e-01
1.038000000000000000e+03 7.936420440673828125e+01 9.797331809997558594e+00 3.825751319527626038e-02 6.610073566436767578e+00 1.994499206542968750e+00 -1.560140252113342285e-01
1.039000000000000000e+03 7.937244415283203125e+01 -1.946808433532714844e+01 2.771237306296825409e-02 5.073104381561279297e+00 1.530245065689086914e+00 -8.372204005718231201e-02
1.040000000000000000e+03 7.939285278320312500e+01 -6.877401351928710938e+00 -1.645843125879764557e-02 8.034382820129394531e+00 2.405377388000488281e+00 1.391539126634597778e-01
1.041000000000000000e+03 7.808477783203125000e+01 1.933283060789108276e-01 -6.739933788776397705e-02 8.201027870178222656e+00 2.440088510513305664e+00 -1.006736531853675842e-01
1.042000000000000000e+03 7.936172485351562500e+01 1.462377667427062988e+00 -1.864218711853027344e-02 8.447941780090332031e+00 2.528789997100830078e+00 -6.682134419679641724e-02
1.043000000000000000e+03 7.936317443847656250e+01 -1.385118103027343750e+01 2.931879600510001183e-03 5.759340763092041016e+00 1.728681802749633789e+00 2.138404995203018188e-01
1.044000000000000000e+03 7.792617797851562500e+01 2.945186996459960938e+01 -7.375196367502212524e-02 8.833174705505371094e+00 2.627826929092407227e+00 8.735994994640350342e-02
1.045000000000000000e+03 7.686037445068359375e+01 7.247631549835205078e+00 -3.372430056333541870e-02 7.551975250244140625e+00 2.255475282669067383e+00 -5.894909501075744629e-01
1.046000000000000000e+03 7.882688903808593750e+01 4.002269363403320312e+01 -9.109596163034439087e-02 8.610562324523925781e+00 2.555840015411376953e+00 -1.542851924896240234e-01
1.047000000000000000e+03 7.807619476318359375e+01 9.869338989257812500e+00 3.095416724681854248e-02 6.993963718414306641e+00 2.107475519180297852e+00 -4.298869371414184570e-01
1.048000000000000000e+03 7.679063415527343750e+01 2.813712358474731445e-01 -1.548099666833877563e-01 7.916432857513427734e+00 2.328486680984497070e+00 -1.456280201673507690e-01
1.049000000000000000e+03 7.808382415771484375e+01 2.993184328079223633e+00 -6.170335784554481506e-02 8.008146286010742188e+00 2.383933067321777344e+00 -2.621801495552062988e-01
1.050000000000000000e+03 7.809558105468750000e+01 -1.192121982574462891e+00 -6.619469821453094482e-02 8.235255241394042969e+00 2.450718164443969727e+00 -2.021312899887561798e-02
1.051000000000000000e+03 7.937166595458984375e+01 -2.709795951843261719e+00 -1.135006919503211975e-02 8.587572097778320312e+00 2.572866678237915039e+00 3.108332306146621704e-02
1.052000000000000000e+03 7.821833038330078125e+01 -8.098261833190917969e+00 -6.873169541358947754e-02 7.653567790985107422e+00 2.275450944900512695e+00 4.396587908267974854e-01
1.053000000000000000e+03 7.815409088134765625e+01 -5.340521812438964844e+00 -7.904524356126785278e-02 8.049088478088378906e+00 2.391013145446777344e+00 2.626711726188659668e-01
1.054000000000000000e+03 7.940439605712890625e+01 -9.658747673034667969e+00 -5.948823411017656326e-03 7.249673843383789062e+00 2.173117399215698242e+00 2.031971663236618042e-01
1.055000000000000000e+03 7.802924346923828125e+01 -1.510117912292480469e+01 1.175520643591880798e-01 6.192043304443359375e+00 1.892878651618957520e+00 4.516666829586029053e-01
1.056000000000000000e+03 7.817904663085937500e+01 -1.226779651641845703e+01 2.059750957414507866e-03 6.723838329315185547e+00 2.017769336700439453e+00 6.076887249946594238e-01
1.057000000000000000e+03 7.934047698974609375e+01 -1.666312789916992188e+01 1.945914328098297119e-02 5.104858398437500000e+00 1.537295341491699219e+00 9.959965199232101440e-02
1.058000000000000000e+03 7.815538787841796875e+01 -2.078746223449707031e+01 1.323697417974472046e-01 6.096885681152343750e+00 1.868776679039001465e+00 -4.176766276359558105e-01
1.059000000000000000e+03 7.812230682373046875e+01 -1.940725898742675781e+01 1.844365745782852173e-01 5.941818237304687500e+00 1.837876439094543457e+00 -2.139460742473602295e-01
1.060000000000000000e+03 5.376264190673828125e+01 2.123664665222167969e+01 1.025071501731872559e+00 2.210995912551879883e+00 9.708202481269836426e-01 1.843415379524230957e+00
1.061000000000000000e+03 4.961297607421875000e+01 2.127687454223632812e+01 6.826247274875640869e-02 6.443592071533203125e+00 1.953556299209594727e+00 1.079851150512695312e+00
1.062000000000000000e+03 5.652000427246093750e+01 2.220226287841796875e+01 -1.825105428695678711e+00 3.774430453777313232e-01 -4.342987239360809326e-01 3.704262971878051758e-01
1.063000000000000000e+03 6.092110061645507812e+01 2.420961761474609375e+01 -2.070866823196411133e+00 -1.065403223037719727e-01 -6.532221436500549316e-01 2.857854664325714111e-01
1.064000000000000000e+03 4.796686935424804688e+01 1.735003665089607239e-02 8.470755815505981445e-01 7.557282447814941406e+00 2.521307468414306641e+00 -1.040736198425292969e+00
1.065000000000000000e+03 4.378590774536132812e+01 4.292675971984863281e+00 1.078957319259643555e+00 1.482074451446533203e+01 4.769910812377929688e+00 1.212218761444091797e+00
1.066000000000000000e+03 6.534389495849609375e+01 2.481170082092285156e+01 -1.479915142059326172e+00 3.003249645233154297e+00 4.570004045963287354e-01 -1.509234428405761719e+00
1.067000000000000000e+03 7.118155670166015625e+01 2.134918594360351562e+01 -3.079491555690765381e-01 8.930153846740722656e+00 2.586661577224731445e+00 6.559004187583923340e-01
1.068000000000000000e+03 6.771204376220703125e+01 2.317583465576171875e+01 -2.013900756835937500e+00 6.047211647033691406e+00 1.209993243217468262e+00 -1.319775700569152832e+00
1.069000000000000000e+03 6.839238739013671875e+01 1.680678749084472656e+01 -2.231117188930511475e-01 1.396716022491455078e+01 4.123214244842529297e+00 2.679283320903778076e-01
1.070000000000000000e+03 7.056362915039062500e+01 1.508864212036132812e+01 1.340491175651550293e+00 1.117794322967529297e+01 3.755530357360839844e+00 4.625381231307983398e-01
1.071000000000000000e+03 4.932838439941406250e+01 1.775659179687500000e+01 1.204241037368774414e+00 8.092624664306640625e+00 2.789059638977050781e+00 2.136453866958618164e+00
1.072000000000000000e+03 5.865376663208007812e+01 1.150873184204101562e+00 9.265556931495666504e-01 2.588828206062316895e-01 3.556315600872039795e-01 2.984527349472045898e-01
1.073000000000000000e+03 6.711397552490234375e+01 8.519871711730957031e+00 5.071816444396972656e-01 6.969026088714599609e+00 2.242862224578857422e+00 1.984345316886901855e+00
1.074000000000000000e+03 6.931840515136718750e+01 1.403796195983886719e+01 1.584916234016418457e+00 1.201781845092773438e+01 4.080820560455322266e+00 1.102367162704467773e+00
1.075000000000000000e+03 4.503993606567382812e+01 4.674628734588623047e+00 1.426983237266540527e+00 1.302933025360107422e+01 4.336894035339355469e+00 8.825100660324096680e-01
1.076000000000000000e+03 6.404901123046875000e+01 2.507199478149414062e+01 -1.092405557632446289e+00 1.606625914573669434e+00 1.542661041021347046e-01 -1.162699341773986816e+00
1.077000000000000000e+03 6.239678955078125000e+01 2.247177696228027344e+01 -4.331779479980468750e+00 -1.340589225292205811e-01 -1.339751482009887695e+00 5.331141948699951172e-01
1.078000000000000000e+03 6.005113601684570312e+01 4.017267227172851562e+00 2.270440757274627686e-01 2.809315621852874756e-01 1.523926854133605957e-01 2.404088973999023438e-01
1.079000000000000000e+03 5.491482543945312500e+01 -1.852193832397460938e+00 1.571380138397216797e+00 8.932702243328094482e-02 4.982121288776397705e-01 9.500753134489059448e-02
1.080000000000000000e+03 5.619931411743164062e+01 -8.416365981101989746e-01 1.423395872116088867e+00 5.430486425757408142e-02 4.433102309703826904e-01 1.293037235736846924e-01
1.081000000000000000e+03 5.027888870239257812e+01 -6.019975662231445312e+00 -2.255229353904724121e-01 3.054435729980468750e+00 8.486738204956054688e-01 8.754431605339050293e-01
1.082000000000000000e+03 5.387873458862304688e+01 -6.273742675781250000e+00 -8.427689969539642334e-02 -2.030537575483322144e-01 -8.619920164346694946e-02 -4.690724611282348633e-02
1.083000000000000000e+03 5.767719650268554688e+01 2.420599174499511719e+01 -1.584288835525512695e+00 6.225694417953491211e-01 -2.885158360004425049e-01 1.067343831062316895e+00
1.084000000000000000e+03 6.245039749145507812e+01 2.392935371398925781e+01 -2.247250556945800781e+00 1.914779990911483765e-01 -6.167317628860473633e-01 -1.860370486974716187e-01
1.085000000000000000e+03 5.587732315063476562e+01 2.400956535339355469e+01 -1.046113133430480957e+00 1.467363953590393066e+00 1.263752430677413940e-01 1.578063726425170898e+00
1.086000000000000000e+03 4.723404693603515625e+01 6.723612785339355469e+00 7.245947718620300293e-01 1.222890281677246094e+01 3.886049270629882812e+00 1.333821296691894531e+00
1.087000000000000000e+03 4.770933914184570312e+01 1.093128013610839844e+01 8.065729737281799316e-01 1.147286605834960938e+01 3.683831691741943359e+00 2.269114017486572266e+00
1.088000000000000000e+03 5.420685577392578125e+01 2.348213386535644531e+01 -7.722671031951904297e-01 2.713093757629394531e+00 5.822480320930480957e-01 2.068292617797851562e+00
1.089000000000000000e+03 6.401316070556640625e+01 5.789132595062255859e+00 5.070965886116027832e-01 2.412309408187866211e+00 8.758217692375183105e-01 1.263907790184020996e+00
1.090000000000000000e+03 6.917066192626953125e+01 9.980792999267578125e+00 6.748490333557128906e-01 8.555451393127441406e+00 2.769090175628662109e+00 7.287036776542663574e-01
1.091000000000000000e+03 5.933638763427734375e+01 2.430620193481445312e+01 -1.866597890853881836e+00 1.084381267428398132e-01 -5.274479389190673828e-01 7.342125773429870605e-01
1.092000000000000000e+03 4.961882019042968750e+01 2.012664031982421875e+01 3.299434185028076172e-01 7.078222751617431641e+00 2.222449779510498047e+00 1.388448238372802734e+00
1.093000000000000000e+03 4.954651260375976562e+01 1.895806121826171875e+01 8.669172525405883789e-01 7.445491790771484375e+00 2.493722677230834961e+00 1.569541692733764648e+00
1.094000000000000000e+03 6.505738067626953125e+01 6.716227531433105469e+00 5.596051812171936035e-01 3.584582805633544922e+00 1.243256449699401855e+00 1.636928915977478027e+00
1.095000000000000000e+03 4.831574249267578125e+01 1.378098201751708984e+01 9.615697860717773438e-01 1.039397048950195312e+01 3.406661987304687500e+00 2.297164440155029297e+00
1.096000000000000000e+03 6.889315032958984375e+01 8.109658241271972656e+00 1.064919456839561462e-01 7.620287895202636719e+00 2.318033933639526367e+00 7.719188332557678223e-01
1.097000000000000000e+03 4.902442169189453125e+01 1.646894836425781250e+01 1.117143154144287109e+00 9.035136222839355469e+00 3.045683860778808594e+00 2.432807922363281250e+00
1.098000000000000000e+03 6.081949996948242188e+01 3.015142917633056641e+00 5.114749073982238770e-01 7.848546504974365234e-01 3.888988792896270752e-01 4.917340576648712158e-01
1.099000000000000000e+03 6.609348297119140625e+01 7.633586406707763672e+00 5.829727649688720703e-01 4.890761375427246094e+00 1.642120242118835449e+00 1.908244371414184570e+00
1.100000000000000000e+03 4.796857452392578125e+01 1.237109947204589844e+01 9.564986228942871094e-01 1.095853328704833984e+01 3.574509620666503906e+00 2.399414777755737305e+00
1.101000000000000000e+03 5.943838882446289062e+01 1.842521876096725464e-01 1.016201972961425781e+00 4.851107299327850342e-01 4.503937959671020508e-01 2.398295253515243530e-01
1.102000000000000000e+03 6.943760681152343750e+01 1.529342937469482422e+01 1.062227487564086914e+00 1.221286869049072266e+01 3.982528924942016602e+00 1.083347558975219727e+00
1.103000000000000000e+03 1.259401679039001465e+00 -4.008123016357421875e+01 -7.199710607528686523e-02 5.292907714843750000e+00 1.566273212432861328e+00 -6.532946228981018066e-02
1.104000000000000000e+03 8.464241027832031250e-01 3.732164382934570312e+01 -1.048295013606548309e-02 3.543354272842407227e+00 1.059861421585083008e+00 -4.354230687022209167e-02
1.105000000000000000e+03 6.461293697357177734e-01 3.318236160278320312e+01 -3.335512476041913033e-03 3.172710895538330078e+00 9.508126378059387207e-01 -9.007591754198074341e-02
1.106000000000000000e+03 4.074609279632568359e+00 3.624337768554687500e+01 -1.395432353019714355e-01 3.455951690673828125e+00 9.949225783348083496e-01 -2.603404521942138672e-01
1.107000000000000000e+03 6.647547483444213867e-01 2.616258430480957031e+01 -1.337054558098316193e-02 1.714544296264648438e+00 5.103521347045898438e-01 -1.795643121004104614e-01
1.108000000000000000e+03 1.921169996261596680e+00 2.880990982055664062e+01 -3.649548813700675964e-02 2.529213666915893555e+00 7.478154897689819336e-01 -4.093574583530426025e-01
1.109000000000000000e+03 6.110917329788208008e-01 -3.602021789550781250e+01 -1.464426051825284958e-02 5.350801944732666016e+00 1.600847363471984863e+00 2.697072923183441162e-02
1.110000000000000000e+03 2.132210731506347656e+00 -3.316323471069335938e+01 -9.436448663473129272e-02 4.669033527374267578e+00 1.372400641441345215e+00 3.563942611217498779e-01
1.111000000000000000e+03 3.290193080902099609e+00 2.735715484619140625e+01 -8.699030429124832153e-02 2.538320064544677734e+00 7.353989481925964355e-01 -6.945505738258361816e-01
1.112000000000000000e+03 3.449251413345336914e+00 2.451578521728515625e+01 -5.478376150131225586e-02 2.111044406890869141e+00 6.168782114982604980e-01 -8.236957192420959473e-01
1.113000000000000000e+03 2.021059513092041016e+00 3.424313735961914062e+01 -4.266373068094253540e-02 3.289886713027954102e+00 9.741669297218322754e-01 -2.190583050251007080e-01
1.114000000000000000e+03 1.935288786888122559e+00 3.292230606079101562e+01 -4.247441142797470093e-02 3.135654687881469727e+00 9.279540777206420898e-01 -2.559190690517425537e-01
1.115000000000000000e+03 3.489827871322631836e+00 3.903603363037109375e+01 -5.017917230725288391e-02 3.547840833663940430e+00 1.049298524856567383e+00 -1.415142863988876343e-01
1.116000000000000000e+03 2.020962238311767578e+00 -2.920017433166503906e+01 -1.068305596709251404e-01 3.906659841537475586e+00 1.139948725700378418e+00 6.711233854293823242e-01
1.117000000000000000e+03 1.979481816291809082e+00 -2.627131271362304688e+01 -6.636343151330947876e-02 3.012713909149169922e+00 8.839051723480224609e-01 8.812412023544311523e-01
1.118000000000000000e+03 2.291531324386596680e+00 -3.671643829345703125e+01 -7.153496146202087402e-02 5.044244766235351562e+00 1.491812944412231445e+00 1.484897285699844360e-01
1.119000000000000000e+03 5.375083088874816895e-01 7.769603252410888672e+00 1.499319355934858322e-02 -1.624844193458557129e+00 -4.829553067684173584e-01 6.649564206600189209e-02
1.120000000000000000e+03 5.971316695213317871e-01 1.483608245849609375e+01 1.586336828768253326e-02 -1.350534915924072266e+00 -4.004014730453491211e-01 -1.068575084209442139e-01
1.121000000000000000e+03 5.860350728034973145e-01 1.342223262786865234e+01 8.006116375327110291e-03 -1.568745136260986328e+00 -4.682216942310333252e-01 -7.675658911466598511e-02
1.122000000000000000e+03 1.935018539428710938e+00 2.034283447265625000e+01 2.334543876349925995e-02 6.635755896568298340e-01 2.060763090848922729e-01 -5.267973542213439941e-01
1.123000000000000000e+03 6.466587185859680176e-01 2.050531196594238281e+01 3.628410398960113525e-03 5.744723603129386902e-02 1.832269318401813507e-02 -1.899066865444183350e-01
1.124000000000000000e+03 1.826888203620910645e+00 -1.642787170410156250e+01 1.312361061573028564e-01 4.507128149271011353e-02 5.289221554994583130e-02 1.183179467916488647e-01
1.125000000000000000e+03 4.758395195007324219e+00 -4.036361312866210938e+01 -9.274283051490783691e-02 4.579932689666748047e+00 1.346156954765319824e+00 1.542993485927581787e-01
1.126000000000000000e+03 3.925920248031616211e+00 -3.603715896606445312e+01 -2.149223536252975464e-01 4.586542606353759766e+00 1.311486124992370605e+00 3.103145062923431396e-01
1.127000000000000000e+03 1.743928790092468262e+00 -3.541018295288085938e+01 -7.260448485612869263e-02 4.998802185058593750e+00 1.477859258651733398e+00 1.514095216989517212e-01
1.128000000000000000e+03 1.870903015136718750e+00 -3.194277572631835938e+01 -4.823095723986625671e-02 4.521675586700439453e+00 1.342033386230468750e+00 4.212861657142639160e-01
1.129000000000000000e+03 2.021332502365112305e+00 -2.774224472045898438e+01 -1.057911962270736694e-01 3.483032464981079102e+00 1.013172388076782227e+00 8.027950525283813477e-01
1.130000000000000000e+03 3.238423109054565430e+00 -2.623357200622558594e+01 -1.663225293159484863e-01 3.458643436431884766e+00 9.876962900161743164e-01 1.252906203269958496e+00
1.131000000000000000e+03 1.873317003250122070e+00 -2.185033607482910156e+01 5.523840710520744324e-02 1.311217427253723145e+00 4.099367558956146240e-01 8.207119703292846680e-01
1.132000000000000000e+03 1.928126454353332520e+00 -2.478204345703125000e+01 -3.786600753664970398e-02 2.478818655014038086e+00 7.322857975959777832e-01 9.456312656402587891e-01
1.133000000000000000e+03 2.837557315826416016e+00 -1.917368698120117188e+01 2.914714813232421875e-01 1.405865311622619629e+00 5.092010498046875000e-01 6.982176899909973145e-01
1.134000000000000000e+03 5.880926251411437988e-01 -1.917306137084960938e+01 5.355673283338546753e-02 -8.413282036781311035e-01 -2.363314330577850342e-01 1.678818911314010620e-01
1.135000000000000000e+03 1.747638225555419922e+00 -1.917096519470214844e+01 1.299652308225631714e-01 4.431830048561096191e-01 1.719444692134857178e-01 4.713973402976989746e-01
1.136000000000000000e+03 3.075277805328369141e+00 -1.239925289154052734e+01 9.881922043859958649e-03 1.167578101158142090e+00 3.532380163669586182e-01 -1.591980904340744019e-01
1.137000000000000000e+03 5.927860736846923828e-01 -1.217218112945556641e+01 -8.762666955590248108e-03 -1.097671627998352051e+00 -3.319303095340728760e-01 -5.929445102810859680e-02
1.138000000000000000e+03 1.806006312370300293e+00 -1.230256462097167969e+01 6.148063577711582184e-03 -1.474401354789733887e-02 -2.578784944489598274e-03 -1.279703676700592041e-01
1.139000000000000000e+03 3.080018758773803711e+00 -3.040043830871582031e+00 9.439393877983093262e-02 8.185576647520065308e-02 5.287491157650947571e-02 -1.876629889011383057e-01
1.140000000000000000e+03 1.381869673728942871e+00 -3.414878606796264648e+00 2.256816998124122620e-02 -2.687320411205291748e-01 -7.384915649890899658e-02 -1.841928213834762573e-01
1.141000000000000000e+03 6.139621138572692871e-01 -5.009286880493164062e+00 3.177009057253599167e-03 -5.959944725036621094e-01 -1.778452545404434204e-01 -5.065220594406127930e-02
1.142000000000000000e+03 4.479210674762725830e-01 4.930910110473632812e+00 8.214786648750305176e-03 -1.072564601898193359e+00 -3.193049728870391846e-01 1.194842457771301270e-01
1.143000000000000000e+03 3.493623733520507812e+00 3.802802562713623047e+00 4.204043373465538025e-02 -1.598623096942901611e-01 -3.534656390547752380e-02 5.667587518692016602e-01
1.144000000000000000e+03 1.693065285682678223e+00 1.041858577728271484e+01 7.152651995420455933e-02 -9.642115235328674316e-01 -2.678055167198181152e-01 -1.995574682950973511e-02
1.145000000000000000e+03 5.669704675674438477e-01 1.059808063507080078e+01 9.849866852164268494e-03 -1.776239395141601562e+00 -5.299168229103088379e-01 -8.505447767674922943e-03
1.146000000000000000e+03 1.746349334716796875e+00 1.323479652404785156e+01 5.726756528019905090e-02 -7.261518239974975586e-01 -2.006652802228927612e-01 -2.000723928213119507e-01
1.147000000000000000e+03 1.777191281318664551e+00 1.464874267578125000e+01 5.318662524223327637e-02 -5.294148325920104980e-01 -1.428684592247009277e-01 -2.825519442558288574e-01
1.148000000000000000e+03 6.204085946083068848e-01 1.766958045959472656e+01 1.003198511898517609e-02 -7.293822169303894043e-01 -2.158050835132598877e-01 -1.572666168212890625e-01
1.149000000000000000e+03 2.031291007995605469e+00 2.461730575561523438e+01 -2.651217021048069000e-02 1.688479423522949219e+00 4.985901713371276855e-01 -5.429251194000244141e-01
1.150000000000000000e+03 1.255274391174316406e+01 1.213254213333129883e+00 8.191045522689819336e-01 1.146561241149902344e+01 3.685415267944335938e+00 -5.000338554382324219e+00
1.151000000000000000e+03 1.100916481018066406e+01 2.064205169677734375e+00 1.095795750617980957e+00 3.609371423721313477e+00 1.411550164222717285e+00 -2.906491994857788086e+00
1.152000000000000000e+03 1.123044872283935547e+01 1.441314101219177246e+00 1.370345234870910645e+00 3.305087327957153320e+00 1.402629733085632324e+00 -3.141279458999633789e+00
1.153000000000000000e+03 1.024585723876953125e+01 2.109666585922241211e+00 8.970640301704406738e-01 1.960356950759887695e+00 8.572263121604919434e-01 -1.944263935089111328e+00
1.154000000000000000e+03 1.261266899108886719e+01 1.702349424362182617e+00 2.501705884933471680e-01 1.129667091369628906e+01 3.464052438735961914e+00 -4.022147655487060547e+00
1.155000000000000000e+03 1.180683422088623047e+01 1.333925366401672363e+00 1.622589349746704102e+00 5.659440040588378906e+00 2.184608936309814453e+00 -4.339711666107177734e+00
1.156000000000000000e+03 1.187939643859863281e+01 1.610103249549865723e+00 1.188172340393066406e+00 6.649034976959228516e+00 2.351162195205688477e+00 -4.280743122100830078e+00
1.157000000000000000e+03 1.144826602935791016e+01 1.811818718910217285e+00 1.159374117851257324e+00 4.844821929931640625e+00 1.801258802413940430e+00 -3.565486907958984375e+00
1.158000000000000000e+03 1.226330471038818359e+01 1.517568707466125488e+00 1.063259124755859375e+00 8.958395957946777344e+00 3.006496429443359375e+00 -4.755698204040527344e+00
1.159000000000000000e+03 1.107929515838623047e+01 -2.242853641510009766e+00 4.666182518005371094e+00 2.874467372894287109e+00 2.262194871902465820e+00 4.344048023223876953e+00
1.160000000000000000e+03 1.223948764801025391e+01 -2.466840505599975586e+00 4.078732490539550781e+00 9.265442848205566406e+00 4.003252506256103516e+00 6.365900993347167969e+00
1.161000000000000000e+03 1.237071895599365234e+01 -2.168669223785400391e+00 4.528436183929443359e+00 1.034962272644042969e+01 4.463417530059814453e+00 6.758231639862060547e+00
1.162000000000000000e+03 1.150164413452148438e+01 -2.342032194137573242e+00 4.740135192871093750e+00 4.645452976226806641e+00 2.815676450729370117e+00 5.361780166625976562e+00
1.163000000000000000e+03 1.437881088256835938e+01 1.888814091682434082e+00 3.644938468933105469e-01 1.391552829742431641e+01 4.284006595611572266e+00 4.464205205440521240e-01
1.164000000000000000e+03 8.633566856384277344e+00 2.578129529953002930e+00 4.077323973178863525e-01 9.107800722122192383e-01 3.955537378787994385e-01 -5.777654647827148438e-01
1.165000000000000000e+03 1.365266036987304688e+01 -2.798720359802246094e+00 2.257300615310668945e+00 1.390695762634277344e+01 4.849277496337890625e+00 2.215729713439941406e+00
1.166000000000000000e+03 7.119637489318847656e+00 3.222177743911743164e+00 2.924141287803649902e-01 5.785664916038513184e-01 2.612941861152648926e-01 5.197205767035484314e-02
1.167000000000000000e+03 6.415127277374267578e+00 3.289627552032470703e+00 1.816546320915222168e-01 4.012338817119598389e-01 1.748665571212768555e-01 2.641152441501617432e-01
1.168000000000000000e+03 4.953223228454589844e+00 3.533379554748535156e+00 7.974469661712646484e-02 1.142205372452735901e-01 5.818957090377807617e-02 5.122905373573303223e-01
1.169000000000000000e+03 3.479388236999511719e+00 2.864235162734985352e+00 -1.259942948818206787e-01 -1.261661797761917114e-01 -7.564814388751983643e-02 5.703398585319519043e-01
1.170000000000000000e+03 4.222292423248291016e+00 2.776198148727416992e+00 -1.636525392532348633e-01 -4.736147448420524597e-02 -6.330420821905136108e-02 5.868191719055175781e-01
1.171000000000000000e+03 4.970148563385009766e+00 2.694469451904296875e+00 -1.913479119539260864e-01 3.868230804800987244e-02 -4.579968377947807312e-02 5.613396763801574707e-01
1.172000000000000000e+03 5.688365459442138672e+00 3.397238254547119141e+00 1.143046021461486816e-01 2.452683001756668091e-01 1.078718677163124084e-01 4.204919636249542236e-01
1.173000000000000000e+03 9.033585548400878906e+00 3.824027538299560547e+00 7.511726021766662598e-01 2.014267683029174805e+00 8.296321034431457520e-01 -1.127758622169494629e+00
1.174000000000000000e+03 1.010349750518798828e+01 -2.971297740936279297e+00 2.955818653106689453e+00 2.246134281158447266e+00 1.560585856437683105e+00 3.279979944229125977e+00
1.175000000000000000e+03 7.178930759429931641e+00 -3.167523860931396484e+00 1.018328189849853516e+00 7.540739178657531738e-01 5.317206382751464844e-01 9.196372032165527344e-01
1.176000000000000000e+03 4.713290214538574219e+00 -2.798584461212158203e+00 2.221123278141021729e-01 2.439135313034057617e-01 1.398077607154846191e-01 -1.127467118203639984e-02
1.177000000000000000e+03 6.436332225799560547e+00 -3.309599876403808594e+00 7.483141422271728516e-01 6.452645063400268555e-01 4.180735945701599121e-01 6.209365725517272949e-01
1.178000000000000000e+03 5.683082580566406250e+00 -3.475161552429199219e+00 5.490903854370117188e-01 5.429255366325378418e-01 3.276047706604003906e-01 3.731304705142974854e-01
1.179000000000000000e+03 1.928950905799865723e+00 -6.829274177551269531e+00 2.529551833868026733e-02 -4.086499661207199097e-02 -4.670843482017517090e-03 -2.175567485392093658e-02
1.180000000000000000e+03 2.242532730102539062e+00 -3.198289155960083008e+00 4.710616171360015869e-02 -6.175644695758819580e-02 -4.395085852593183517e-03 -2.331168502569198608e-01
1.181000000000000000e+03 3.923993825912475586e+00 -8.683661460876464844e+00 -1.073909625411033630e-01 1.441006660461425781e+00 4.000847041606903076e-01 2.124040275812149048e-01
1.182000000000000000e+03 1.689899921417236328e+00 -4.694617748260498047e+00 5.286093428730964661e-02 -2.102134376764297485e-01 -4.720575362443923950e-02 -1.502320319414138794e-01
1.183000000000000000e+03 1.091277027130126953e+01 -2.755694627761840820e+00 3.775833129882812500e+00 3.539195537567138672e+00 2.194508552551269531e+00 4.465871334075927734e+00
1.184000000000000000e+03 8.566864013671875000e+00 -2.375791311264038086e+00 1.642682671546936035e+00 6.330006122589111328e-01 6.827049851417541504e-01 1.255345702171325684e+00
1.185000000000000000e+03 3.939267098903656006e-01 3.546131372451782227e+00 -8.962901309132575989e-03 -6.473813652992248535e-01 -1.969032734632492065e-01 1.206782162189483643e-01
1.186000000000000000e+03 1.551404285430908203e+01 6.800296902656555176e-01 5.411217689514160156e+00 1.108238697052001953e+01 4.948081493377685547e+00 2.087311267852783203e+00
1.187000000000000000e+03 1.561340522766113281e+01 2.585831284523010254e-02 6.950697898864746094e+00 1.016013717651367188e+01 5.133250236511230469e+00 1.501462101936340332e+00
1.188000000000000000e+03 1.618434715270996094e+01 -2.948280334472656250e+00 4.147166728973388672e+00 8.149140357971191406e+00 3.688892126083374023e+00 -1.746452689170837402e+00
1.189000000000000000e+03 5.976161575317382812e+01 -7.850411891937255859e+00 -1.209289655089378357e-01 3.415860533714294434e-01 6.619712710380554199e-02 -9.204242378473281860e-02
1.190000000000000000e+03 2.199089050292968750e+01 -1.188785552978515625e+01 -2.548995256423950195e+00 9.253528714179992676e-01 -4.870927035808563232e-01 -8.108654618263244629e-01
1.191000000000000000e+03 2.134542655944824219e+01 -1.149551200866699219e+01 -2.292193889617919922e+00 1.040479540824890137e+00 -3.755142986774444580e-01 -1.043256282806396484e+00
1.192000000000000000e+03 2.087958145141601562e+01 -1.080492210388183594e+01 -1.877100467681884766e+00 7.703849077224731445e-01 -3.320146799087524414e-01 -1.109646797180175781e+00
1.193000000000000000e+03 1.991409301757812500e+01 -1.161408996582031250e+01 -3.572755098342895508e+00 1.084353446960449219e+00 -7.465205192565917969e-01 -7.539159059524536133e-01
1.194000000000000000e+03 2.415000724792480469e+01 -1.605953812599182129e+00 3.171485900878906250e+00 1.341435194015502930e+00 1.353876352310180664e+00 -2.247264862060546875e+00
1.195000000000000000e+03 2.170211410522460938e+01 1.764708757400512695e+00 1.411015033721923828e+00 1.757010698318481445e+00 9.504076838493347168e-01 -1.118893742561340332e+00
1.196000000000000000e+03 2.526073074340820312e+01 -1.074779415130615234e+01 -1.949784159660339355e-01 1.091462254524230957e+00 2.689451575279235840e-01 -1.960603117942810059e+00
1.197000000000000000e+03 3.337067413330078125e+01 -1.219000434875488281e+01 1.793075680732727051e+00 3.182957172393798828e+00 1.492809891700744629e+00 -2.678803682327270508e+00
1.198000000000000000e+03 6.530716705322265625e+01 -2.729126167297363281e+01 -4.887719154357910156e-01 3.447598695755004883e+00 8.876479864120483398e-01 1.102330923080444336e+00
1.199000000000000000e+03 3.147495269775390625e+01 2.472278404235839844e+01 -5.672915577888488770e-01 7.628883123397827148e-01 5.867902934551239014e-02 -4.565113782882690430e-01
1.200000000000000000e+03 6.278716278076171875e+01 -8.987440109252929688e+00 1.644711047410964966e-01 1.181326985359191895e+00 4.037394225597381592e-01 -7.699509859085083008e-01
1.201000000000000000e+03 2.042446517944335938e+01 -9.979807853698730469e+00 -1.665849328041076660e+00 1.138582348823547363e+00 -1.581801176071166992e-01 -1.367822885513305664e+00
1.202000000000000000e+03 2.553314018249511719e+01 -5.543186187744140625e+00 2.676356077194213867e+00 1.687806010246276855e+00 1.309248685836791992e+00 -2.515863180160522461e+00
1.203000000000000000e+03 3.833996582031250000e+01 -7.058692455291748047e+00 -8.869453072547912598e-01 4.110388278961181641e+00 9.670328497886657715e-01 1.189527392387390137e+00
1.204000000000000000e+03 6.159598541259765625e+01 2.037748575210571289e+00 6.010122895240783691e-01 1.272752881050109863e+00 5.621295571327209473e-01 5.751509070396423340e-01
1.205000000000000000e+03 6.266598129272460938e+01 2.968608379364013672e+00 4.500544369220733643e-01 1.841160178184509277e+00 6.873643994331359863e-01 7.526376247406005859e-01
1.206000000000000000e+03 6.478287506103515625e+01 4.807966232299804688e+00 2.165970206260681152e-01 3.408413648605346680e+00 1.087503194808959961e+00 1.224878430366516113e+00
1.207000000000000000e+03 6.295566177368164062e+01 4.860348224639892578e+00 4.363207519054412842e-01 1.726353645324707031e+00 6.488023400306701660e-01 9.087192416191101074e-01
1.208000000000000000e+03 1.783050155639648438e+01 -1.049452304840087891e+01 -3.067909955978393555e+00 3.164591789245605469e-01 -8.254352211952209473e-01 -4.158596694469451904e-01
1.209000000000000000e+03 1.668518638610839844e+01 -1.096896553039550781e+01 -3.237457752227783203e+00 -5.577130913734436035e-01 -1.138551235198974609e+00 1.003815412521362305e+00
1.210000000000000000e+03 6.684316253662109375e+01 6.562598705291748047e+00 -1.486793067306280136e-02 5.758003234863281250e+00 1.722940683364868164e+00 1.428326606750488281e+00
1.211000000000000000e+03 4.376729202270507812e+01 2.804872989654541016e+00 1.617452859878540039e+00 1.437932872772216797e+01 4.799034595489501953e+00 1.674450278282165527e+00
1.212000000000000000e+03 1.447303867340087891e+01 -2.919388389587402344e+01 -1.034506916999816895e+00 2.655676364898681641e+00 4.863508343696594238e-01 -4.775440394878387451e-01
1.213000000000000000e+03 3.852438354492187500e+01 -2.033339500427246094e+01 2.484827995300292969e+00 9.722805023193359375e+00 3.662289857864379883e+00 -5.284526944160461426e-01
1.214000000000000000e+03 4.384100723266601562e+01 -1.753437232971191406e+01 1.686394572257995605e+00 1.025236701965332031e+01 3.581628561019897461e+00 6.044287681579589844e-01
1.215000000000000000e+03 4.340325164794921875e+01 -1.848771476745605469e+01 1.933899044990539551e+00 1.028787899017333984e+01 3.666533231735229492e+00 2.033520340919494629e-01
1.216000000000000000e+03 1.349708938598632812e+01 -2.808672904968261719e+01 -9.546858668327331543e-01 3.286554813385009766e+00 6.995606422424316406e-01 -4.929512441158294678e-01
1.217000000000000000e+03 6.401267242431640625e+01 -1.013972759246826172e+01 2.516424655914306641e-01 1.617368817329406738e+00 5.607033967971801758e-01 -1.274523496627807617e+00
1.218000000000000000e+03 2.188268661499023438e+01 -3.187598800659179688e+01 -1.499394178390502930e+00 -9.318745136260986328e-02 -4.777745008468627930e-01 1.156811788678169250e-01
1.219000000000000000e+03 4.703944015502929688e+01 -2.912391471862792969e+01 -2.585920691490173340e-02 6.329642295837402344e+00 1.891134858131408691e+00 -2.056498765945434570e+00
1.220000000000000000e+03 6.734318542480468750e+01 -2.774883651733398438e+01 -8.650490045547485352e-01 5.621217727661132812e+00 1.426850676536560059e+00 9.036279916763305664e-01
1.221000000000000000e+03 7.254894256591796875e+01 -2.317840385437011719e+01 4.013454914093017578e-01 8.488946914672851562e+00 2.667087793350219727e+00 -1.050567030906677246e+00
1.222000000000000000e+03 2.250021362304687500e+01 6.437434554100036621e-01 2.117701292037963867e+00 1.246335744857788086e+00 1.009211063385009766e+00 -1.504928708076477051e+00
1.223000000000000000e+03 3.905648040771484375e+01 1.559036540985107422e+01 4.129070937633514404e-01 2.835359096527099609e+00 9.744797945022583008e-01 -1.253507137298583984e+00
1.224000000000000000e+03 3.783496093750000000e+01 1.832665634155273438e+01 -1.750122010707855225e-01 2.286885261535644531e+00 6.335619688034057617e-01 -1.020109891891479492e+00
1.225000000000000000e+03 2.592119216918945312e+01 2.585248947143554688e+01 -3.429987430572509766e-01 7.328228950500488281e-01 1.169472485780715942e-01 7.171343564987182617e-01
1.226000000000000000e+03 7.556586456298828125e+01 -1.807965087890625000e+01 7.695023417472839355e-01 7.221477508544921875e+00 2.397293806076049805e+00 -3.869940713047981262e-02
1.227000000000000000e+03 4.900648880004882812e+01 -2.973661041259765625e+01 5.024244636297225952e-02 4.706130981445312500e+00 1.426912069320678711e+00 -2.151616811752319336e+00
1.228000000000000000e+03 1.625537872314453125e+01 1.225384712219238281e+01 7.855063676834106445e-01 1.037617397308349609e+01 3.348504066467285156e+00 -3.420604169368743896e-01
1.229000000000000000e+03 1.802274131774902344e+01 9.719217300415039062e+00 4.681574404239654541e-01 1.116952419281005859e+01 3.491304397583007812e+00 -9.705839157104492188e-01
1.230000000000000000e+03 7.468784332275390625e+01 -3.389827346801757812e+01 -2.799830734729766846e-01 7.458533763885498047e+00 2.153565168380737305e+00 -1.599263250827789307e-01
1.231000000000000000e+03 7.714979553222656250e+01 -3.617304229736328125e+01 -1.288411915302276611e-01 8.269201278686523438e+00 2.442108154296875000e+00 -1.830420829355716705e-02
1.232000000000000000e+03 7.575228118896484375e+01 -2.203416824340820312e+01 4.123544096946716309e-01 7.375129222869873047e+00 2.336245059967041016e+00 -9.139984250068664551e-01
1.233000000000000000e+03 7.783523559570312500e+01 -2.916157531738281250e+01 -9.237030148506164551e-02 7.986273765563964844e+00 2.368170976638793945e+00 -5.017210245132446289e-01
1.234000000000000000e+03 7.581169128417968750e+01 1.545325374603271484e+01 5.527775883674621582e-01 7.601100444793701172e+00 2.446163415908813477e+00 2.497557401657104492e-01
1.235000000000000000e+03 7.690447998046875000e+01 1.541706752777099609e+01 3.627957999706268311e-01 7.151215076446533203e+00 2.254203319549560547e+00 1.775010228157043457e-01
1.236000000000000000e+03 7.818194580078125000e+01 -3.596663284301757812e+01 -1.014666035771369934e-01 8.658706665039062500e+00 2.567172050476074219e+00 -6.187668070197105408e-03
1.237000000000000000e+03 7.764680480957031250e+01 3.507049942016601562e+01 -1.877328939735889435e-02 8.699967384338378906e+00 2.604358196258544922e+00 -1.092298328876495361e-01
1.238000000000000000e+03 7.614653015136718750e+01 3.355724716186523438e+01 -3.501709923148155212e-02 8.117250442504882812e+00 2.424669981002807617e+00 -1.546042710542678833e-01
1.239000000000000000e+03 7.816490173339843750e+01 -2.216199684143066406e+01 9.955976903438568115e-02 6.358511447906494141e+00 1.937421441078186035e+00 -5.510955452919006348e-01
1.240000000000000000e+03 7.692154693603515625e+01 -2.342881202697753906e+01 9.976805746555328369e-02 7.117386817932128906e+00 2.165146589279174805e+00 -8.964464068412780762e-01
1.241000000000000000e+03 7.629529571533203125e+01 -3.055696296691894531e+01 -2.473666518926620483e-01 7.918585300445556641e+00 2.301365613937377930e+00 -5.041590332984924316e-01
1.242000000000000000e+03 7.791078186035156250e+01 -2.773874855041503906e+01 -9.143866598606109619e-02 7.746888637542724609e+00 2.296635150909423828e+00 -5.889221429824829102e-01
1.243000000000000000e+03 7.636033630371093750e+01 -2.904284858703613281e+01 -2.532055079936981201e-01 7.865410804748535156e+00 2.283661603927612305e+00 -6.617135405540466309e-01
1.244000000000000000e+03 7.650850677490234375e+01 -2.758257484436035156e+01 -1.919373571872711182e-01 7.754721641540527344e+00 2.268835306167602539e+00 -8.121166229248046875e-01
1.245000000000000000e+03 7.683368682861328125e+01 -2.477768135070800781e+01 -6.492587272077798843e-03 7.355257511138916016e+00 2.204629421234130859e+00 -9.505586624145507812e-01
1.246000000000000000e+03 7.559495544433593750e+01 -2.458787345886230469e+01 -2.777556702494621277e-02 7.652367115020751953e+00 2.287377595901489258e+00 -1.061047077178955078e+00
1.247000000000000000e+03 7.636832427978515625e+01 -3.359902572631835938e+01 -1.748313456773757935e-01 8.033903121948242188e+00 2.357721567153930664e+00 -2.393464595079421997e-01
1.248000000000000000e+03 7.665763854980468750e+01 -3.498364639282226562e+01 -1.737756282091140747e-01 8.161257743835449219e+00 2.396244764328002930e+00 -1.000193357467651367e-01
1.249000000000000000e+03 7.518456268310546875e+01 -3.551610565185546875e+01 -2.245013117790222168e-01 7.572894573211669922e+00 2.204518079757690430e+00 -1.306167542934417725e-01
1.250000000000000000e+03 7.801308441162109375e+01 2.249153327941894531e+01 -5.847810208797454834e-02 7.970977783203125000e+00 2.373749732971191406e+00 6.201332211494445801e-01
1.251000000000000000e+03 7.662200927734375000e+01 1.973586273193359375e+01 1.628464907407760620e-01 7.689070701599121094e+00 2.355575084686279297e+00 9.137484431266784668e-01
1.252000000000000000e+03 7.551654052734375000e+01 2.288702583312988281e+01 -2.640172839164733887e-01 8.250961303710937500e+00 2.396083116531372070e+00 9.033322334289550781e-01
1.253000000000000000e+03 7.666877746582031250e+01 2.119946479797363281e+01 -1.218667719513177872e-02 7.915466308593750000e+00 2.370983839035034180e+00 8.934852480888366699e-01
1.254000000000000000e+03 7.668860626220703125e+01 1.264434528350830078e+01 2.994620203971862793e-01 7.194215297698974609e+00 2.248103141784667969e+00 -2.882786691188812256e-01
1.255000000000000000e+03 7.568634796142578125e+01 8.531883239746093750e+00 5.211807414889335632e-02 7.669217586517333984e+00 2.316400766372680664e+00 -6.707408428192138672e-01
1.256000000000000000e+03 7.681401062011718750e+01 1.403405189514160156e+01 3.273675739765167236e-01 7.181135177612304688e+00 2.252550840377807617e+00 -6.319508701562881470e-02
1.257000000000000000e+03 7.798090362548828125e+01 2.664883232116699219e+01 -8.547807484865188599e-02 8.654721260070800781e+00 2.570772886276245117e+00 3.225739300251007080e-01
1.258000000000000000e+03 7.695274353027343750e+01 -2.208520507812500000e+01 2.345676720142364502e-01 6.881476402282714844e+00 2.134813308715820312e+00 -7.950555086135864258e-01
1.259000000000000000e+03 7.541731262207031250e+01 -1.451185321807861328e+01 4.062982201576232910e-01 7.459817409515380859e+00 2.359834671020507812e+00 8.340476155281066895e-01
1.260000000000000000e+03 7.692881774902343750e+01 -2.074177169799804688e+01 3.368647098541259766e-01 6.711154460906982422e+00 2.114405870437622070e+00 -5.560024976730346680e-01
1.261000000000000000e+03 7.609412384033203125e+01 -9.278432846069335938e+00 -1.970080584287643433e-01 7.592355728149414062e+00 2.218604326248168945e+00 8.114202618598937988e-01
1.262000000000000000e+03 7.687031555175781250e+01 -1.344806194305419922e+01 1.204422041773796082e-01 6.977591514587402344e+00 2.129410028457641602e+00 8.032000660896301270e-01
1.263000000000000000e+03 7.560543060302734375e+01 -2.444252967834472656e+00 -3.029518127441406250e-01 7.692806243896484375e+00 2.216956377029418945e+00 9.079101681709289551e-02
1.264000000000000000e+03 7.699061584472656250e+01 -6.614268779754638672e+00 -1.755827963352203369e-01 7.784487724304199219e+00 2.282671451568603516e+00 4.773020446300506592e-01
1.265000000000000000e+03 7.810239410400390625e+01 5.776908397674560547e+00 -3.322142362594604492e-02 7.655425548553466797e+00 2.286661386489868164e+00 -3.939689397811889648e-01
1.266000000000000000e+03 7.545272827148437500e+01 6.104935169219970703e+00 -1.450705677270889282e-01 7.698920726776123047e+00 2.266155004501342773e+00 -5.949519872665405273e-01
1.267000000000000000e+03 7.607514953613281250e+01 3.700981140136718750e+01 -3.734070807695388794e-02 8.131485939025878906e+00 2.428243637084960938e+00 -1.113330498337745667e-01
1.268000000000000000e+03 7.778739929199218750e+01 3.654725646972656250e+01 -3.749521076679229736e-02 8.656015396118164062e+00 2.585556030273437500e+00 -2.010887265205383301e-01
1.269000000000000000e+03 7.811954498291015625e+01 7.141238212585449219e+00 -4.171535000205039978e-02 7.447090625762939453e+00 2.221612453460693359e+00 -4.520351588726043701e-01
1.270000000000000000e+03 7.680811309814453125e+01 5.918541908264160156e+00 -1.166380271315574646e-01 7.662913799285888672e+00 2.263882637023925781e+00 -5.637540221214294434e-01
1.271000000000000000e+03 7.685483551025390625e+01 -2.475914001464843750e+00 -1.735522598028182983e-01 7.940520286560058594e+00 2.330090522766113281e+00 8.401003479957580566e-02
1.272000000000000000e+03 7.712939453125000000e+01 -9.354424476623535156e+00 -1.273056864738464355e-01 7.493499755859375000e+00 2.209858179092407227e+00 7.021463513374328613e-01
1.273000000000000000e+03 7.668482971191406250e+01 -1.648089790344238281e+01 4.256703257560729980e-01 6.759665489196777344e+00 2.155600786209106445e+00 3.804646730422973633e-01
1.274000000000000000e+03 7.648844909667968750e+01 3.096385574340820312e+01 -1.264609396457672119e-01 8.371747016906738281e+00 2.473585844039916992e+00 -3.593004494905471802e-02
1.275000000000000000e+03 7.666445159912109375e+01 1.825756835937500000e+01 3.175193667411804199e-01 7.470041275024414062e+00 2.336268186569213867e+00 6.924651861190795898e-01
1.276000000000000000e+03 7.818560791015625000e+01 -6.719049453735351562e+00 -7.018840312957763672e-02 7.876143455505371094e+00 2.341786623001098633e+00 3.607572317123413086e-01
1.277000000000000000e+03 7.707872009277343750e+01 -7.987480640411376953e+00 -1.548793911933898926e-01 7.651433944702148438e+00 2.248966455459594727e+00 6.131102442741394043e-01
1.278000000000000000e+03 7.808208465576171875e+01 1.586746335029602051e+00 -6.733303517103195190e-02 8.126239776611328125e+00 2.417671918869018555e+00 -1.866026073694229126e-01
1.279000000000000000e+03 7.680841064453125000e+01 -1.103767156600952148e+00 -1.614499539136886597e-01 7.934895038604736328e+00 2.332033634185791016e+00 -3.075418807566165924e-02
1.280000000000000000e+03 7.810351562500000000e+01 -1.367282867431640625e+01 8.205779641866683960e-02 6.429347515106201172e+00 1.953421592712402344e+00 5.595109462738037109e-01
1.281000000000000000e+03 7.669502258300781250e+01 -1.491481208801269531e+01 2.991606891155242920e-01 6.861361503601074219e+00 2.148156642913818359e+00 6.531274318695068359e-01
1.282000000000000000e+03 7.680273437500000000e+01 4.528912067413330078e+00 -1.199064850807189941e-01 7.754822731018066406e+00 2.290474891662597656e+00 -4.617231488227844238e-01
1.283000000000000000e+03 7.680892181396484375e+01 3.106765985488891602e+00 -1.588143706321716309e-01 7.828341960906982422e+00 2.300858259201049805e+00 -3.758751153945922852e-01
1.284000000000000000e+03 7.692285156250000000e+01 -5.237341403961181641e+00 -1.734925359487533569e-01 7.861684322357177734e+00 2.306457519531250000e+00 3.596882522106170654e-01
1.285000000000000000e+03 7.689278411865234375e+01 -3.851526737213134766e+00 -1.908217966556549072e-01 7.921582698822021484e+00 2.319228172302246094e+00 2.200298905372619629e-01
1.286000000000000000e+03 7.702293395996093750e+01 -1.206815814971923828e+01 2.378332987427711487e-02 7.116564750671386719e+00 2.142104387283325195e+00 8.170939087867736816e-01
1.287000000000000000e+03 7.711591339111328125e+01 -1.071079063415527344e+01 -7.059776037931442261e-02 7.304760456085205078e+00 2.170248746871948242e+00 8.081205487251281738e-01
1.288000000000000000e+03 7.687892913818359375e+01 -1.938945388793945312e+01 3.898052573204040527e-01 6.637765407562255859e+00 2.108271121978759766e+00 -3.155428469181060791e-01
1.289000000000000000e+03 5.544873046875000000e+01 -4.657621383666992188e+00 8.574817776679992676e-01 -2.131274193525314331e-01 1.933062970638275146e-01 -1.596513986587524414e-01
1.290000000000000000e+03 4.793331146240234375e+01 1.793815803527832031e+01 5.737343430519104004e-01 7.782414436340332031e+00 2.506844520568847656e+00 1.159797906875610352e+00
1.291000000000000000e+03 4.768686294555664062e+01 1.668964004516601562e+01 7.338851690292358398e-01 8.431306838989257812e+00 2.749557733535766602e+00 1.420375704765319824e+00
1.292000000000000000e+03 4.774290084838867188e+01 -7.946371555328369141e+00 -1.303163170814514160e+00 6.944865226745605469e+00 1.692510604858398438e+00 1.335460305213928223e+00
1.293000000000000000e+03 1.558428668975830078e+01 -3.017833137512207031e+01 -1.023726224899291992e+00 1.935013771057128906e+00 2.733862400054931641e-01 -4.221775233745574951e-01
1.294000000000000000e+03 2.083816337585449219e+01 1.154536962509155273e+00 2.312371253967285156e+00 2.800307273864746094e+00 1.533803582191467285e+00 -1.306143522262573242e+00
1.295000000000000000e+03 3.789057159423828125e+01 -2.550458526611328125e+01 1.661196231842041016e+00 8.753619194030761719e+00 3.124444723129272461e+00 8.064646720886230469e-01
1.296000000000000000e+03 3.865499877929687500e+01 -2.265408515930175781e+01 1.840178966522216797e+00 9.870010375976562500e+00 3.513056755065917969e+00 1.393398493528366089e-01
1.297000000000000000e+03 6.916562652587890625e+01 -2.955809211730957031e+01 -9.769303202629089355e-01 6.416747570037841797e+00 1.631945133209228516e+00 3.477244377136230469e-01
1.298000000000000000e+03 4.321163177490234375e+01 1.317784214019775391e+01 2.612842321395874023e-01 7.996821880340576172e+00 2.477431774139404297e+00 -4.483545422554016113e-01
1.299000000000000000e+03 4.311942672729492188e+01 8.716462135314941406e+00 1.284183979034423828e+00 1.224933528900146484e+01 4.060055732727050781e+00 -6.649106144905090332e-01
1.300000000000000000e+03 4.743323135375976562e+01 8.094889640808105469e+00 8.524980545043945312e-01 1.198322010040283203e+01 3.850715398788452148e+00 1.727733135223388672e+00
1.301000000000000000e+03 5.746871566772460938e+01 2.599186706542968750e+01 -7.093891501426696777e-01 1.100291609764099121e+00 1.172707304358482361e-01 1.408637523651123047e+00
1.302000000000000000e+03 2.294798660278320312e+01 2.631154441833496094e+01 -3.481093049049377441e-01 1.952025055885314941e+00 4.811747074127197266e-01 1.412612795829772949e+00
1.303000000000000000e+03 3.134897947311401367e+00 3.005318641662597656e+01 -9.254192560911178589e-02 2.880942583084106445e+00 8.365201950073242188e-01 -5.406789183616638184e-01
1.304000000000000000e+03 1.965286731719970703e+00 2.742346191406250000e+01 -3.645064309239387512e-02 2.267778158187866211e+00 6.693982481956481934e-01 -4.623288810253143311e-01
1.305000000000000000e+03 5.051798820495605469e+00 3.422061157226562500e+01 -1.955438703298568726e-01 3.394444704055786133e+00 9.596702456474304199e-01 -4.360803067684173584e-01
1.306000000000000000e+03 2.225600481033325195e+00 3.553251266479492188e+01 -5.784004181623458862e-02 3.402796268463134766e+00 1.003486871719360352e+00 -1.730855852365493774e-01
1.307000000000000000e+03 3.183467149734497070e+00 2.871543693542480469e+01 -9.374333918094635010e-02 2.708846569061279297e+00 7.845309972763061523e-01 -6.097750067710876465e-01
1.308000000000000000e+03 3.244266033172607422e+00 3.141007614135742188e+01 -1.048795282840728760e-01 3.060414075851440430e+00 8.866603970527648926e-01 -4.708635509014129639e-01
1.309000000000000000e+03 3.278172492980957031e+00 3.386215591430664062e+01 -1.019960194826126099e-01 3.290858268737792969e+00 9.566586613655090332e-01 -3.289021253585815430e-01
1.310000000000000000e+03 6.880644798278808594e+00 2.955114555358886719e+01 -3.486266136169433594e-01 3.455349683761596680e+00 9.320169091224670410e-01 -8.376646041870117188e-01
1.311000000000000000e+03 3.098932266235351562e+00 -3.442432785034179688e+01 -1.541041880846023560e-01 4.661510944366455078e+00 1.352222084999084473e+00 3.588530123233795166e-01
1.312000000000000000e+03 2.584269523620605469e+00 -3.807296371459960938e+01 -1.032812446355819702e-01 5.012532234191894531e+00 1.472775340080261230e+00 2.598752081394195557e-02
1.313000000000000000e+03 1.962910294532775879e+00 -3.062261772155761719e+01 -1.030639857053756714e-01 4.252721786499023438e+00 1.244897365570068359e+00 5.308985710144042969e-01
1.314000000000000000e+03 3.380355834960937500e+00 -2.930581092834472656e+01 -2.650294303894042969e-01 4.058491230010986328e+00 1.138038516044616699e+00 9.542493224143981934e-01
1.315000000000000000e+03 1.978094220161437988e+00 2.177564430236816406e+01 7.733622565865516663e-03 1.016170620918273926e+00 3.071712553501129150e-01 -5.499116182327270508e-01
1.316000000000000000e+03 3.395340442657470703e+00 2.306886100769042969e+01 -1.976755633950233459e-02 1.862465023994445801e+00 5.528092384338378906e-01 -8.421925902366638184e-01
1.317000000000000000e+03 3.953371047973632812e+00 -9.826690673828125000e+00 -1.859223246574401855e-01 1.670453906059265137e+00 4.453594684600830078e-01 1.441792100667953491e-01
1.318000000000000000e+03 2.966939687728881836e+00 -1.790079689025878906e+01 3.182405829429626465e-01 1.343351721763610840e+00 4.984776973724365234e-01 4.783236682415008545e-01
1.319000000000000000e+03 1.848689556121826172e+00 -1.504689216613769531e+01 1.060814037919044495e-01 1.216737553477287292e-03 3.218944370746612549e-02 -3.483064100146293640e-02
1.320000000000000000e+03 2.839634418487548828e+00 1.165947055816650391e+01 1.438435763120651245e-01 -1.157837733626365662e-01 8.417942561209201813e-03 -1.815770864486694336e-01
1.321000000000000000e+03 3.143978118896484375e+00 1.874588012695312500e+01 7.325679063796997070e-02 9.645927548408508301e-01 3.113548755645751953e-01 -7.255749106407165527e-01
1.322000000000000000e+03 1.767915606498718262e+00 -8.205351829528808594e+00 -1.714462228119373322e-02 -7.192423194646835327e-02 -2.672065608203411102e-02 -1.944525912404060364e-02
1.323000000000000000e+03 2.659328699111938477e+00 7.405894279479980469e+00 1.662522405385971069e-01 -4.158303737640380859e-01 -7.487343996763229370e-02 2.364114373922348022e-01
1.324000000000000000e+03 1.522245049476623535e+00 6.104321002960205078e+00 6.450837105512619019e-02 -8.620364665985107422e-01 -2.392584234476089478e-01 2.965585887432098389e-01
1.325000000000000000e+03 2.878866434097290039e+00 1.305895328521728516e+01 1.341695487499237061e-01 2.980001084506511688e-02 4.919086769223213196e-02 -2.992978394031524658e-01
1.326000000000000000e+03 1.813272595405578613e+00 1.606825256347656250e+01 5.299484357237815857e-02 -2.874349653720855713e-01 -7.033203542232513428e-02 -3.589892685413360596e-01
1.327000000000000000e+03 3.068242073059082031e+00 1.731279563903808594e+01 1.043682396411895752e-01 6.869805455207824707e-01 2.374046444892883301e-01 -6.327090263366699219e-01
1.328000000000000000e+03 2.764742612838745117e+00 8.830812454223632812e+00 1.687366366386413574e-01 -3.394244909286499023e-01 -5.120635405182838440e-02 9.139184653759002686e-02
1.329000000000000000e+03 3.046593666076660156e+00 -7.301272392272949219e+00 3.931589052081108093e-02 6.405870318412780762e-01 2.039708793163299561e-01 9.830996394157409668e-02
1.330000000000000000e+03 2.508723020553588867e+00 -4.196577072143554688e+00 1.059092581272125244e-01 5.082384124398231506e-02 4.701992869377136230e-02 -1.470618098974227905e-01
1.331000000000000000e+03 2.418525457382202148e+00 -5.686530113220214844e+00 9.594504535198211670e-02 1.029345914721488953e-01 5.966389179229736328e-02 -3.645395860075950623e-02
1.332000000000000000e+03 3.355645418167114258e+00 -2.776300239562988281e+01 -2.215900570154190063e-01 3.808098316192626953e+00 1.075952529907226562e+00 1.117451667785644531e+00
1.333000000000000000e+03 2.991100072860717773e+00 -2.031394195556640625e+01 3.300200104713439941e-01 1.866760492324829102e+00 6.590341329574584961e-01 9.693828821182250977e-01
1.334000000000000000e+03 4.004432678222656250e+00 -3.779808044433593750e+01 -1.908868253231048584e-01 4.757316589355468750e+00 1.369928956031799316e+00 2.755992114543914795e-01
1.335000000000000000e+03 3.286257743835449219e+00 2.161917304992675781e+01 2.912371791899204254e-02 1.555868148803710938e+00 4.754975736141204834e-01 -8.295063376426696777e-01
1.336000000000000000e+03 2.868783712387084961e+00 -9.736397743225097656e+00 -1.031864732503890991e-01 8.181450366973876953e-01 2.144875675439834595e-01 8.472560439258813858e-04
1.337000000000000000e+03 2.886603116989135742e+00 -8.479634284973144531e+00 -5.348839983344078064e-02 6.909575462341308594e-01 1.912407428026199341e-01 7.144414633512496948e-02
1.338000000000000000e+03 1.900904417037963867e+00 -2.329437065124511719e+01 7.339645177125930786e-02 1.873426914215087891e+00 5.840470194816589355e-01 9.244109392166137695e-01
1.339000000000000000e+03 3.164910316467285156e+00 -2.164254188537597656e+01 2.566191852092742920e-01 2.293918609619140625e+00 7.651613950729370117e-01 1.184015512466430664e+00
1.340000000000000000e+03 3.155018091201782227e+00 -1.515628719329833984e+01 2.298942506313323975e-01 1.328924655914306641e+00 4.676456749439239502e-01 2.005085349082946777e-02
1.341000000000000000e+03 2.967393875122070312e+00 -3.223616027832031250e+01 -1.679016351699829102e-01 4.469491481781005859e+00 1.290476918220520020e+00 5.577658414840698242e-01
1.342000000000000000e+03 3.112729310989379883e+00 -2.471260452270507812e+01 -4.403629153966903687e-02 3.047503709793090820e+00 9.010401964187622070e-01 1.284644365310668945e+00
1.343000000000000000e+03 4.164998531341552734e+00 -2.460470771789550781e+01 -5.905919894576072693e-02 3.552978754043579102e+00 1.048175930976867676e+00 1.534301996231079102e+00
1.344000000000000000e+03 3.166692018508911133e+00 -1.377531719207763672e+01 1.129382327198982239e-01 1.245716691017150879e+00 4.075964689254760742e-01 -8.990083634853363037e-02
1.345000000000000000e+03 2.807655096054077148e+00 1.025355148315429688e+01 1.671204119920730591e-01 -2.292510122060775757e-01 -1.863918267190456390e-02 -5.569166690111160278e-02
1.346000000000000000e+03 3.986663103103637695e+00 1.289953136444091797e+01 2.362704277038574219e-01 7.177034616470336914e-01 2.861921489238739014e-01 -3.833840191364288330e-01
1.347000000000000000e+03 2.992422342300415039e+00 1.588482475280761719e+01 1.230683028697967529e-01 4.364431500434875488e-01 1.678534448146820068e-01 -5.327343940734863281e-01
1.348000000000000000e+03 2.404286384582519531e+01 -3.335631132125854492e+00 3.549861907958984375e+00 1.300916433334350586e+00 1.455233454704284668e+00 -2.596918344497680664e+00
1.349000000000000000e+03 3.870280838012695312e+01 1.737597274780273438e+01 2.040487155318260193e-02 2.714658737182617188e+00 8.205190896987915039e-01 -1.151046633720397949e+00
1.350000000000000000e+03 4.406231307983398438e+01 -2.190469932556152344e+01 2.310789585113525391e+00 1.014188194274902344e+01 3.735801458358764648e+00 -1.219718337059020996e+00
1.351000000000000000e+03 7.484864807128906250e+01 1.648756980895996094e+01 6.973372101783752441e-01 8.035611152648925781e+00 2.619884490966796875e+00 4.998049437999725342e-01
1.352000000000000000e+03 6.964436340332031250e+01 1.661037826538085938e+01 9.796612858772277832e-01 1.306458663940429688e+01 4.213274478912353516e+00 1.326481401920318604e-01
1.353000000000000000e+03 1.169122886657714844e+01 -2.397285461425781250e+01 -3.811292052268981934e-01 6.697131633758544922e+00 1.894800662994384766e+00 -2.343361526727676392e-01
1.354000000000000000e+03 1.261217021942138672e+01 -2.696558570861816406e+01 -9.608439207077026367e-01 4.451769351959228516e+00 1.047277569770812988e+00 -4.550477266311645508e-01
1.355000000000000000e+03 6.928074645996093750e+01 -1.552901268005371094e+01 1.981843113899230957e+00 1.164038085937500000e+01 4.086667060852050781e+00 -7.089431285858154297e-01
1.356000000000000000e+03 3.562027359008789062e+01 2.035617446899414062e+01 -6.279335021972656250e-01 1.462085247039794922e+00 2.502455115318298340e-01 -7.359041571617126465e-01
1.357000000000000000e+03 6.983836364746093750e+01 2.050323867797851562e+01 -1.649660803377628326e-02 9.883591651916503906e+00 2.960128545761108398e+00 8.912296295166015625e-01
1.358000000000000000e+03 1.512990283966064453e+01 2.111605167388916016e+00 1.020987987518310547e+00 1.278688335418701172e+01 4.142361640930175781e+00 1.438225746154785156e+00
1.359000000000000000e+03 2.331146049499511719e+01 -4.854078590869903564e-01 2.656478404998779297e+00 1.105943083763122559e+00 1.128726482391357422e+00 -1.930436253547668457e+00
1.360000000000000000e+03 2.481699562072753906e+01 -4.436350345611572266e+00 3.264098882675170898e+00 1.439455628395080566e+00 1.411066293716430664e+00 -2.494699001312255859e+00
1.361000000000000000e+03 3.599602890014648438e+01 -8.570479393005371094e+00 3.126356601715087891e-01 2.667122840881347656e+00 8.939275145530700684e-01 -5.252890586853027344e-01
1.362000000000000000e+03 3.611608505249023438e+01 -9.828221321105957031e+00 8.045070171356201172e-01 3.669109344482421875e+00 1.342084884643554688e+00 -6.888768076896667480e-01
1.363000000000000000e+03 3.806536865234375000e+01 -3.076513862609863281e+01 -7.620096802711486816e-01 6.918877124786376953e+00 1.847060203552246094e+00 4.827706813812255859e-01
1.364000000000000000e+03 3.689486694335937500e+01 -2.821239471435546875e+01 3.636105656623840332e-01 7.548684597015380859e+00 2.373688459396362305e+00 9.356016516685485840e-01
1.365000000000000000e+03 6.853049468994140625e+01 -2.715275955200195312e+01 -9.252955317497253418e-01 6.675232887268066406e+00 1.724981307983398438e+00 6.202313899993896484e-01
1.366000000000000000e+03 4.708073425292968750e+01 1.403558349609375000e+01 7.762916088104248047e-01 9.616480827331542969e+00 3.117831707000732422e+00 1.704652309417724609e+00
1.367000000000000000e+03 4.867794799804687500e+01 1.514391994476318359e+01 9.659899473190307617e-01 9.924718856811523438e+00 3.267212629318237305e+00 2.412993669509887695e+00
1.368000000000000000e+03 4.555618667602539062e+01 7.948016166687011719e+00 1.169649600982666016e+00 1.211659622192382812e+01 3.985873937606811523e+00 1.154120922088623047e+00
1.369000000000000000e+03 6.626421356201171875e+01 -2.864817810058593750e+01 -8.230625391006469727e-01 4.609651088714599609e+00 1.135976552963256836e+00 1.044236183166503906e+00
1.370000000000000000e+03 1.611771202087402344e+01 1.645941162109375000e+01 1.339938998222351074e+00 9.597075462341308594e+00 3.281104326248168945e+00 4.785922169685363770e-02
1.371000000000000000e+03 1.604977798461914062e+01 1.517053985595703125e+01 1.231116056442260742e+00 1.000960063934326172e+01 3.372214794158935547e+00 1.262925118207931519e-01
1.372000000000000000e+03 5.372628021240234375e+01 2.628742790222167969e+01 -9.580658674240112305e-01 3.133562088012695312e+00 6.526488661766052246e-01 1.836087465286254883e+00
1.373000000000000000e+03 5.500137329101562500e+01 -3.289192199707031250e+01 -1.936225742101669312e-01 9.724813103675842285e-01 2.336576282978057861e-01 -1.368467211723327637e+00
1.374000000000000000e+03 5.787705612182617188e+01 -3.292379760742187500e+01 -1.266983449459075928e-01 4.383653998374938965e-01 9.350011497735977173e-02 -3.439238667488098145e-01
1.375000000000000000e+03 1.712976837158203125e+01 9.504015922546386719e+00 3.138590455055236816e-01 1.051551437377929688e+01 3.248811960220336914e+00 -4.589530229568481445e-01
1.376000000000000000e+03 4.547766113281250000e+01 -1.554385089874267578e+01 1.295950770378112793e+00 1.131256008148193359e+01 3.782553434371948242e+00 1.738916873931884766e+00
1.377000000000000000e+03 6.526087188720703125e+01 2.333506011962890625e+01 -1.390985250473022461e+00 2.067144393920898438e+00 2.028476893901824951e-01 -1.609948992729187012e+00
1.378000000000000000e+03 6.551560974121093750e+01 2.627555847167968750e+01 -8.432333469390869141e-01 3.214124679565429688e+00 7.112674117088317871e-01 -1.349385976791381836e+00
1.379000000000000000e+03 6.030601119995117188e+01 -3.039110946655273438e+01 -1.300577402114868164e+00 3.192314803600311279e-01 -2.944037914276123047e-01 2.238224148750305176e-01
1.380000000000000000e+03 4.302491378784179688e+01 -1.613518524169921875e+01 1.894134283065795898e+00 9.473534584045410156e+00 3.410300731658935547e+00 8.806926012039184570e-01
1.381000000000000000e+03 4.271566009521484375e+01 1.013780689239501953e+01 8.496925234794616699e-01 1.034708404541015625e+01 3.359033107757568359e+00 -1.052659153938293457e+00
1.382000000000000000e+03 5.975477600097656250e+01 2.091147184371948242e+00 6.543338894844055176e-01 4.834756255149841309e-01 3.413428664207458496e-01 3.919785916805267334e-01
1.383000000000000000e+03 6.052650833129882812e+01 1.113239526748657227e+00 7.996313571929931641e-01 8.507395386695861816e-01 4.951112568378448486e-01 3.977651000022888184e-01
1.384000000000000000e+03 2.719868087768554688e+01 -3.524023437500000000e+01 -4.396652579307556152e-01 6.167848110198974609e-01 5.313585698604583740e-02 6.548503041267395020e-01
1.385000000000000000e+03 3.671801757812500000e+01 -1.639480972290039062e+01 2.900287389755249023e+00 7.891365051269531250e+00 3.237495660781860352e+00 -1.578060030937194824e+00
1.386000000000000000e+03 1.074720096588134766e+01 -2.329404830932617188e+01 2.128876596689224243e-01 7.035561084747314453e+00 2.174534559249877930e+00 3.294916749000549316e-01
1.387000000000000000e+03 5.927858352661132812e+01 2.620223617553710938e+01 -6.757564544677734375e-01 7.248477935791015625e-01 1.472739409655332565e-02 8.048092126846313477e-01
1.388000000000000000e+03 5.559043502807617188e+01 2.585933494567871094e+01 -8.204661011695861816e-01 2.079502820968627930e+00 3.777109980583190918e-01 1.833764672279357910e+00
1.389000000000000000e+03 1.611875724792480469e+01 1.375830173492431641e+01 8.492591381072998047e-01 1.030402088165283203e+01 3.345984220504760742e+00 -1.496283560991287231e-01
1.390000000000000000e+03 7.097672271728515625e+01 1.227062702178955078e+01 1.048754692077636719e+00 9.694104194641113281e+00 3.222857713699340820e+00 2.121852040290832520e-01
1.391000000000000000e+03 7.047482299804687500e+01 1.315721511840820312e+01 1.423029780387878418e+00 1.011042308807373047e+01 3.460036039352416992e+00 3.634766042232513428e-01
1.392000000000000000e+03 4.636227035522460938e+01 1.692964935302734375e+01 3.824489712715148926e-01 7.791701793670654297e+00 2.452245235443115234e+00 6.803803443908691406e-01
1.393000000000000000e+03 4.452938079833984375e+01 7.520637512207031250e+00 1.320860147476196289e+00 1.264580631256103516e+01 4.190000057220458984e+00 5.871623754501342773e-01
1.394000000000000000e+03 6.650409698486328125e+01 2.315330505371093750e+01 -1.916536092758178711e+00 4.574161052703857422e+00 7.972875237464904785e-01 -1.996425032615661621e+00
1.395000000000000000e+03 6.651094055175781250e+01 2.466399765014648438e+01 -1.416303873062133789e+00 4.091138839721679688e+00 8.024504780769348145e-01 -1.507522225379943848e+00
1.396000000000000000e+03 4.457858657836914062e+01 -1.393276882171630859e+01 1.501874208450317383e+00 9.861261367797851562e+00 3.408940553665161133e+00 1.557235836982727051e+00
1.397000000000000000e+03 4.764983367919921875e+01 -3.229145050048828125e+01 -6.838619709014892578e-01 5.309837341308593750e+00 1.387792587280273438e+00 -1.731392621994018555e+00
1.398000000000000000e+03 4.132696533203125000e+01 -2.817234420776367188e+01 2.634947001934051514e-01 7.838514328002929688e+00 2.430602550506591797e+00 -3.762877285480499268e-01
1.399000000000000000e+03 4.481681442260742188e+01 -2.289205360412597656e+01 2.424773931503295898e+00 1.004313373565673828e+01 3.740372419357299805e+00 -1.527934908866882324e+00
1.400000000000000000e+03 4.695400238037109375e+01 3.692637681961059570e+00 1.694189310073852539e+00 1.113379001617431641e+01 3.848393678665161133e+00 -4.313227161765098572e-02
1.401000000000000000e+03 4.515847396850585938e+01 4.997749030590057373e-01 1.220783233642578125e+00 1.113531780242919922e+01 3.706830263137817383e+00 6.155383586883544922e-01
1.402000000000000000e+03 4.341921997070312500e+01 2.084901183843612671e-01 1.615413069725036621e+00 1.288523387908935547e+01 4.350193977355957031e+00 1.709731578826904297e+00
1.403000000000000000e+03 3.167071533203125000e+01 -3.128741645812988281e+01 -5.838050842285156250e-01 2.186860561370849609e+00 4.809166491031646729e-01 1.558055758476257324e+00
1.404000000000000000e+03 3.880761718750000000e+01 -2.668209266662597656e+01 1.052261829376220703e+00 8.326249122619628906e+00 2.813553333282470703e+00 2.921676933765411377e-01
1.405000000000000000e+03 3.691855621337890625e+01 -2.631377601623535156e+01 1.329276084899902344e+00 8.584919929504394531e+00 2.974258899688720703e+00 1.048748135566711426e+00
1.406000000000000000e+03 1.044502162933349609e+01 -1.783107185363769531e+01 1.856346845626831055e+00 1.141660022735595703e+01 3.981884241104125977e+00 1.288327217102050781e+00
1.407000000000000000e+03 1.662359237670898438e+01 1.080286312103271484e+01 5.517887473106384277e-01 1.043464183807373047e+01 3.295929193496704102e+00 -4.148957133293151855e-01
1.408000000000000000e+03 2.886953735351562500e+01 2.405823516845703125e+01 -7.913140058517456055e-01 2.780818343162536621e-01 -1.539696455001831055e-01 -1.302813924849033356e-02
1.409000000000000000e+03 6.102632904052734375e+01 2.600817871093750000e+01 -7.098041176795959473e-01 5.837958455085754395e-01 -3.780248761177062988e-02 2.042079865932464600e-01
1.410000000000000000e+03 5.388911056518554688e+01 -1.046675682067871094e+00 1.673705935478210449e+00 1.017500385642051697e-01 5.326368212699890137e-01 2.831509411334991455e-01
1.411000000000000000e+03 5.162797164916992188e+01 -1.188656687736511230e+00 1.939304232597351074e+00 1.145899534225463867e+00 9.255611300468444824e-01 -3.840547204017639160e-01
1.412000000000000000e+03 6.995005798339843750e+01 8.785511016845703125e+00 4.563141986727714539e-02 8.426301956176757812e+00 2.541579961776733398e+00 3.261553347110748291e-01
1.413000000000000000e+03 3.051444435119628906e+01 -6.337430477142333984e+00 1.287852406501770020e+00 1.443998813629150391e+00 8.195553421974182129e-01 -3.208218574523925781e+00
1.414000000000000000e+03 7.016413116455078125e+01 -2.213278579711914062e+01 1.048421859741210938e+00 1.011880588531494141e+01 3.350168228149414062e+00 -2.278032302856445312e-01
1.415000000000000000e+03 1.841529464721679688e+01 4.061226844787597656e+00 -3.190537169575691223e-02 7.654606342315673828e+00 2.286810159683227539e+00 5.699246749281883240e-02
1.416000000000000000e+03 4.668338775634765625e+01 -1.122894573211669922e+01 6.662788391113281250e-01 9.007856369018554688e+00 2.902240753173828125e+00 1.974429726600646973e+00
1.417000000000000000e+03 4.441315841674804688e+01 -1.113050842285156250e+01 1.046424731612205505e-01 8.984954833984375000e+00 2.726879358291625977e+00 1.247454285621643066e+00
1.418000000000000000e+03 4.594745635986328125e+01 2.311126708984375000e+00 1.605895876884460449e+00 1.091338157653808594e+01 3.755783081054687500e+00 4.633072614669799805e-01
1.419000000000000000e+03 4.564636993408203125e+01 -2.915916442871093750e+01 -8.476823568344116211e-02 7.049247264862060547e+00 2.089343786239624023e+00 -1.502672314643859863e+00
1.420000000000000000e+03 4.657904052734375000e+01 -2.808711814880371094e+01 4.476985037326812744e-01 7.108351707458496094e+00 2.266815185546875000e+00 -1.938344836235046387e+00
1.421000000000000000e+03 2.134846687316894531e+01 -3.365979385375976562e+01 -8.387991786003112793e-01 9.904678910970687866e-02 -2.219257056713104248e-01 -1.308582723140716553e-01
1.422000000000000000e+03 2.481835746765136719e+01 -3.477291488647460938e+01 -5.492966175079345703e-01 1.883058995008468628e-01 -1.082972064614295959e-01 1.953029483556747437e-01
1.423000000000000000e+03 6.786988067626953125e+01 7.373722076416015625e+00 -1.321299672126770020e-01 6.808253765106201172e+00 2.002837181091308594e+00 9.892322421073913574e-01
1.424000000000000000e+03 4.729864120483398438e+01 2.318807792663574219e+01 -9.630817770957946777e-01 5.789119243621826172e+00 1.447811245918273926e+00 2.117178440093994141e-01
1.425000000000000000e+03 4.091621398925781250e+01 -1.743278312683105469e+01 2.497777223587036133e+00 8.946915626525878906e+00 3.433408021926879883e+00 7.185881584882736206e-02
1.426000000000000000e+03 6.289329147338867188e+01 -3.290227508544921875e+01 -3.232281506061553955e-01 2.346127986907958984e+00 6.068699359893798828e-01 7.771506905555725098e-01
1.427000000000000000e+03 5.820693588256835938e+01 -2.697198629379272461e+00 1.057528138160705566e+00 1.655249297618865967e-01 3.669159412384033203e-01 -1.450771391391754150e-01
1.428000000000000000e+03 5.833826446533203125e+01 -7.743114829063415527e-01 1.214299440383911133e+00 2.056545615196228027e-01 4.259862005710601807e-01 9.924031794071197510e-02
1.429000000000000000e+03 1.875333023071289062e+01 -3.482811737060546875e+01 -5.110729932785034180e-01 7.790989279747009277e-01 8.040777593851089478e-02 -3.674995899200439453e-01
1.430000000000000000e+03 4.280133056640625000e+01 -1.935850524902343750e+01 2.096949577331542969e+00 9.957980155944824219e+00 3.616478919982910156e+00 -2.212012857198715210e-01
1.431000000000000000e+03 4.314005279541015625e+01 -2.101532173156738281e+01 2.306908607482910156e+00 1.001734542846679688e+01 3.697276353836059570e+00 -6.858557462692260742e-01
1.432000000000000000e+03 5.377226257324218750e+01 -3.313612365722656250e+01 -1.194039210677146912e-01 1.441075086593627930e+00 3.965013623237609863e-01 -1.497611999511718750e+00
1.433000000000000000e+03 3.259961318969726562e+01 -3.279997634887695312e+01 -8.157617449760437012e-01 3.033900499343872070e+00 6.654416322708129883e-01 1.575075030326843262e+00
1.434000000000000000e+03 1.068409729003906250e+01 -1.640577125549316406e+01 2.433614015579223633e+00 1.128220558166503906e+01 4.114745616912841797e+00 1.459892630577087402e+00
1.435000000000000000e+03 5.487929821014404297e+00 -1.702832603454589844e+01 8.966892361640930176e-01 3.570731401443481445e+00 1.340226173400878906e+00 5.063875317573547363e-01
1.436000000000000000e+03 1.743395996093750000e+01 5.985453128814697266e+00 -7.626605629920959473e-01 9.403016090393066406e+00 2.592106819152832031e+00 9.574741125106811523e-02
1.437000000000000000e+03 1.251934528350830078e+01 -1.062629699707031250e+01 -3.296324491500854492e+00 7.040529251098632812e+00 1.123261332511901855e+00 2.988098382949829102e+00
1.438000000000000000e+03 4.647193145751953125e+01 8.195488929748535156e+00 9.468667507171630859e-01 1.187307643890380859e+01 3.845982789993286133e+00 1.556758880615234375e+00
1.439000000000000000e+03 3.093163490295410156e+01 -3.355756759643554688e+01 -7.549017667770385742e-01 2.057863473892211914e+00 3.908885419368743896e-01 1.461423516273498535e+00
1.440000000000000000e+03 4.324850845336914062e+01 -1.161195087432861328e+01 3.058704137802124023e-01 8.717667579650878906e+00 2.707061529159545898e+00 1.138266801834106445e+00
1.441000000000000000e+03 1.892237091064453125e+01 -9.811446189880371094e+00 -1.957784414291381836e+00 7.333619594573974609e-01 -3.673267364501953125e-01 -1.006503582000732422e+00
1.442000000000000000e+03 1.090730571746826172e+01 -2.508021545410156250e+01 -5.721057057380676270e-01 6.005086421966552734e+00 1.629894137382507324e+00 1.801520437002182007e-01
1.443000000000000000e+03 3.538625717163085938e+01 -3.310646438598632812e+01 -1.168041229248046875e+00 5.074592590332031250e+00 1.171965479850769043e+00 1.125797271728515625e+00
1.444000000000000000e+03 4.171828079223632812e+01 1.461124038696289062e+01 2.721767127513885498e-01 5.733043193817138672e+00 1.801565885543823242e+00 -1.172620296478271484e+00
1.445000000000000000e+03 1.135380268096923828e+01 -1.141306781768798828e+01 -2.533909559249877930e+00 7.979703903198242188e+00 1.633738160133361816e+00 2.206765651702880859e+00
1.446000000000000000e+03 4.308214950561523438e+01 -2.233117818832397461e+00 2.264047861099243164e-01 1.058677959442138672e+01 3.243955373764038086e+00 1.161660909652709961e+00
1.447000000000000000e+03 4.522216415405273438e+01 -1.090616345405578613e+00 5.450666546821594238e-01 1.008061218261718750e+01 3.187703847885131836e+00 2.723594307899475098e-01
1.448000000000000000e+03 6.878167724609375000e+01 -1.415300273895263672e+01 9.651391506195068359e-01 1.046003532409667969e+01 3.427552461624145508e+00 -9.527407288551330566e-01
1.449000000000000000e+03 5.175899124145507812e+01 2.195971488952636719e+01 -5.795094966888427734e-01 5.454787254333496094e+00 1.462583303451538086e+00 1.593439459800720215e+00
1.450000000000000000e+03 4.993062973022460938e+01 2.226241874694824219e+01 -8.065587878227233887e-01 6.033504486083984375e+00 1.568083643913269043e+00 1.038727164268493652e+00
1.451000000000000000e+03 6.969557952880859375e+01 -1.273041248321533203e+01 9.580084122717380524e-03 9.241356849670410156e+00 2.775280952453613281e+00 -1.800901442766189575e-01
1.452000000000000000e+03 3.937381362915039062e+01 -7.111577033996582031e+00 -1.076991438865661621e+00 5.392606735229492188e+00 1.294684648513793945e+00 1.728050470352172852e+00
1.453000000000000000e+03 1.468436622619628906e+01 1.511454010009765625e+01 1.174648165702819824e+00 8.338115692138671875e+00 2.853829145431518555e+00 -3.155336081981658936e-01
1.454000000000000000e+03 1.233861351013183594e+01 -1.163987445831298828e+01 -2.637922286987304688e+00 7.485827445983886719e+00 1.454371571540832520e+00 2.511164665222167969e+00
1.455000000000000000e+03 1.541065216064453125e+01 2.321027946472167969e+01 -7.508609294891357422e-01 6.324665546417236328e+00 1.672141313552856445e+00 -4.668485820293426514e-01
1.456000000000000000e+03 5.943869018554687500e+01 -3.239527893066406250e+01 -3.247514367103576660e-01 5.074999332427978516e-01 5.482454970479011536e-02 2.011578381061553955e-01
1.457000000000000000e+03 6.237968826293945312e+01 -3.127457237243652344e+01 -6.730259060859680176e-01 1.700620412826538086e+00 3.082783520221710205e-01 7.395049929618835449e-01
1.458000000000000000e+03 4.053373336791992188e+01 -5.976641654968261719e+00 -1.791821360588073730e+00 6.858908176422119141e+00 1.520125985145568848e+00 2.171558856964111328e+00
1.459000000000000000e+03 5.310036849975585938e+01 -1.828994631767272949e+00 1.766266822814941406e+00 4.895404577255249023e-01 6.767421960830688477e-01 -7.128936797380447388e-02
1.460000000000000000e+03 5.602164077758789062e+01 -7.284054279327392578e+00 -7.113372087478637695e-01 -1.360212713479995728e-01 -2.542075216770172119e-01 -7.046008855104446411e-02
1.461000000000000000e+03 3.620286560058593750e+01 -2.918925094604492188e+01 -1.299623250961303711e-01 6.968457698822021484e+00 2.051548480987548828e+00 1.155987143516540527e+00
1.462000000000000000e+03 2.768790054321289062e+01 -1.336237716674804688e+01 2.162943929433822632e-01 4.783223569393157959e-01 2.083850204944610596e-01 -1.456133723258972168e+00
1.463000000000000000e+03 2.519097709655761719e+01 -1.202139091491699219e+01 -6.523830890655517578e-01 7.483624219894409180e-01 2.879379317164421082e-02 -1.433713316917419434e+00
1.464000000000000000e+03 7.102553558349609375e+01 -1.861409568786621094e+01 2.108089447021484375e+00 1.049572372436523438e+01 3.781143903732299805e+00 -3.411586210131645203e-02
1.465000000000000000e+03 7.081663513183593750e+01 -1.716205215454101562e+01 1.856443285942077637e+00 1.084664058685302734e+01 3.810925006866455078e+00 7.277967780828475952e-02
1.466000000000000000e+03 7.081937408447265625e+01 1.623954391479492188e+01 1.639468431472778320e+00 1.018457126617431641e+01 3.547211885452270508e+00 2.561765313148498535e-01
1.467000000000000000e+03 7.368166351318359375e+01 1.082584381103515625e+01 4.804386198520660400e-01 8.138230323791503906e+00 2.585600614547729492e+00 -5.320163369178771973e-01
1.468000000000000000e+03 6.974551391601562500e+01 1.174491405487060547e+01 1.066107511520385742e+00 9.983056068420410156e+00 3.314749240875244141e+00 7.021892070770263672e-01
1.469000000000000000e+03 4.715652847290039062e+01 2.150387525558471680e+00 1.361096382141113281e+00 9.900689125061035156e+00 3.378535509109497070e+00 -1.593531668186187744e-01
1.470000000000000000e+03 4.879895401000976562e+01 -1.068209052085876465e+00 9.370890855789184570e-01 5.388517856597900391e+00 1.897682070732116699e+00 -1.211568832397460938e+00
1.471000000000000000e+03 8.790494918823242188e+00 -2.154162406921386719e+01 8.444823622703552246e-01 7.039089202880859375e+00 2.365071535110473633e+00 1.258522391319274902e+00
1.472000000000000000e+03 6.649590015411376953e+00 -2.401245880126953125e+01 -2.685977146029472351e-02 5.076837539672851562e+00 1.514993309974670410e+00 1.698149919509887695e+00
1.473000000000000000e+03 4.291352081298828125e+01 -2.274124526977539062e+01 2.394517183303833008e+00 9.307240486145019531e+00 3.510527372360229492e+00 -7.411699295043945312e-01
1.474000000000000000e+03 4.428593826293945312e+01 -2.486226463317871094e+01 1.803338408470153809e+00 8.848176956176757812e+00 3.195454597473144531e+00 -1.092067122459411621e+00
1.475000000000000000e+03 2.892906188964843750e+01 -6.213530063629150391e+00 1.844532012939453125e+00 2.671901941299438477e+00 1.354930162429809570e+00 -2.855077266693115234e+00
1.476000000000000000e+03 4.234290695190429688e+01 -2.451334762573242188e+01 1.877296090126037598e+00 8.745832443237304688e+00 3.186938524246215820e+00 -5.144981145858764648e-01
1.477000000000000000e+03 3.809753799438476562e+01 -2.361814880371093750e+01 1.800914764404296875e+00 9.636048316955566406e+00 3.431088924407958984e+00 5.180633068084716797e-01
1.478000000000000000e+03 4.420406341552734375e+01 -1.771780729293823242e+00 4.665472507476806641e-01 1.090380191802978516e+01 3.411104679107666016e+00 7.754426598548889160e-01
1.479000000000000000e+03 1.591336727142333984e+01 1.981219291687011719e+01 1.105213165283203125e+00 8.092905044555664062e+00 2.759435653686523438e+00 -2.483754605054855347e-01
1.480000000000000000e+03 1.686755752563476562e+01 1.846998596191406250e+01 1.386075496673583984e+00 9.437410354614257812e+00 3.247045516967773438e+00 2.252814471721649170e-01
1.481000000000000000e+03 7.451438903808593750e+01 2.293440818786621094e+01 -3.668246865272521973e-01 8.311561584472656250e+00 2.383420944213867188e+00 1.022835135459899902e+00
1.482000000000000000e+03 6.757770538330078125e+01 2.590667724609375000e+01 -1.292405962944030762e+00 5.125380516052246094e+00 1.149892330169677734e+00 -1.266133904457092285e+00
1.483000000000000000e+03 6.391575241088867188e+01 -8.778088569641113281e+00 -3.883621096611022949e-02 2.219698667526245117e+00 6.542587280273437500e-01 -1.196082592010498047e+00
1.484000000000000000e+03 2.059220504760742188e+01 2.565885543823242188e+01 -8.052202463150024414e-01 3.620539903640747070e+00 8.445959091186523438e-01 1.678649663925170898e+00
1.485000000000000000e+03 2.311242675781250000e+01 2.366672134399414062e+01 -3.536276817321777344e-01 1.123513698577880859e+00 2.309658080339431763e-01 1.666516900062561035e+00
1.486000000000000000e+03 3.062427520751953125e+01 -1.224974250793457031e+01 1.582352399826049805e+00 1.584485411643981934e+00 9.500513672828674316e-01 -3.009649515151977539e+00
1.487000000000000000e+03 5.185235977172851562e+01 -3.213385391235351562e+01 -3.970322012901306152e-01 2.558500528335571289e+00 6.484404802322387695e-01 -1.789968490600585938e+00
1.488000000000000000e+03 4.822906112670898438e+01 -5.693416118621826172e+00 -9.417443871498107910e-01 6.153696537017822266e+00 1.563585638999938965e+00 7.815702557563781738e-01
1.489000000000000000e+03 2.785515785217285156e+01 -1.201246261596679688e+01 5.301974415779113770e-01 9.106919765472412109e-01 4.322668015956878662e-01 -2.243918895721435547e+00
1.490000000000000000e+03 2.633714294433593750e+01 -1.330084609985351562e+01 -5.531951189041137695e-01 4.292656183242797852e-01 -3.717884421348571777e-02 -1.138686537742614746e+00
1.491000000000000000e+03 2.766234588623046875e+01 -7.738940238952636719e+00 1.140127658843994141e+00 2.173441886901855469e+00 9.940708279609680176e-01 -2.859888792037963867e+00
1.492000000000000000e+03 5.170355606079101562e+01 -4.242564678192138672e+00 8.616349101066589355e-01 1.342906117439270020e+00 6.613622903823852539e-01 2.865646481513977051e-01
1.493000000000000000e+03 1.594657325744628906e+01 2.143511199951171875e+01 -2.763819098472595215e-01 7.302920341491699219e+00 2.107961416244506836e+00 -4.326142668724060059e-01
1.494000000000000000e+03 5.115066909790039062e+01 2.646310424804687500e+01 -1.163397192955017090e+00 4.323291301727294922e+00 9.479682445526123047e-01 1.273619055747985840e+00
1.495000000000000000e+03 5.062986755371093750e+01 -4.355563163757324219e+00 5.010558962821960449e-01 2.743072748184204102e+00 9.732385873794555664e-01 3.563580513000488281e-01
1.496000000000000000e+03 5.012036132812500000e+01 -3.298702001571655273e+00 7.132367491722106934e-01 3.266409635543823242e+00 1.193893909454345703e+00 -1.608476229012012482e-02
1.497000000000000000e+03 3.782924270629882812e+01 -1.665612983703613281e+01 3.097234010696411133e+00 8.639348983764648438e+00 3.520974874496459961e+00 -8.956842422485351562e-01
1.498000000000000000e+03 7.063396453857421875e+01 -2.079001998901367188e+01 1.676609992980957031e+00 1.055179691314697266e+01 3.668522119522094727e+00 -3.859348893165588379e-01
1.499000000000000000e+03 5.702292251586914062e+01 -6.580533027648925781e+00 -6.493455171585083008e-02 -4.692579433321952820e-02 -3.355810418725013733e-02 -1.525531262159347534e-01
1.500000000000000000e+03 7.865760803222656250e+00 -4.107856369018554688e+01 -1.929277628660202026e-01 3.770306348800659180e+00 1.073213577270507812e+00 5.115687474608421326e-02
1.501000000000000000e+03 5.259685516357421875e+00 3.997642898559570312e+01 -1.282268911600112915e-01 3.540171861648559570e+00 1.023583531379699707e+00 -1.381520032882690430e-01
1.502000000000000000e+03 1.287416267395019531e+01 2.862962722778320312e+00 -5.217304825782775879e-01 1.046998977661132812e+01 2.984477758407592773e+00 -2.634887933731079102e+00
1.503000000000000000e+03 1.168365573883056641e+01 -2.283842802047729492e+00 4.992741107940673828e+00 5.645800590515136719e+00 3.191562414169311523e+00 5.855733394622802734e+00
1.504000000000000000e+03 1.133510398864746094e+01 -2.539481163024902344e+00 4.299139976501464844e+00 4.455370903015136719e+00 2.626353263854980469e+00 5.099028587341308594e+00
1.505000000000000000e+03 1.062328052520751953e+01 -2.641071081161499023e+00 3.618865013122558594e+00 2.594834804534912109e+00 1.864109992980957031e+00 3.758444786071777344e+00
1.506000000000000000e+03 1.277274131774902344e+01 -2.783488988876342773e+00 2.356844186782836914e+00 1.253987026214599609e+01 4.469014167785644531e+00 5.004021167755126953e+00
1.507000000000000000e+03 1.370962047576904297e+01 1.778522491455078125e+00 6.345096975564956665e-02 1.446753501892089844e+01 4.359295845031738281e+00 -7.204567790031433105e-01
1.508000000000000000e+03 1.153808307647705078e+01 2.124236822128295898e+00 1.010820269584655762e+00 5.894173145294189453e+00 2.071497917175292969e+00 -3.680988788604736328e+00
1.509000000000000000e+03 1.057389831542968750e+01 2.349359750747680664e+00 9.904073476791381836e-01 2.981481313705444336e+00 1.191566586494445801e+00 -2.397043943405151367e+00
1.510000000000000000e+03 1.403604030609130859e+01 -3.066787481307983398e+00 2.059119462966918945e+00 1.340655231475830078e+01 4.639701366424560547e+00 9.966804385185241699e-01
1.511000000000000000e+03 1.665727615356445312e+01 2.706398487091064453e+00 1.038902163505554199e+00 9.762402534484863281e+00 3.240391492843627930e+00 1.089712381362915039e+00
1.512000000000000000e+03 1.301846218109130859e+01 2.278306245803833008e+00 -4.280344843864440918e-01 1.182393646240234375e+01 3.418770551681518555e+00 -2.804544448852539062e+00
1.513000000000000000e+03 1.188161754608154297e+01 -2.267807960510253906e+00 5.095674514770507812e+00 6.624119281768798828e+00 3.515938043594360352e+00 6.206686019897460938e+00
1.514000000000000000e+03 8.339873313903808594e+00 3.216062545776367188e+00 5.385324954986572266e-01 1.150298953056335449e+00 5.066494345664978027e-01 -5.474910140037536621e-01
1.515000000000000000e+03 9.163006782531738281e+00 2.885712146759033203e+00 6.576917767524719238e-01 1.491883397102355957e+00 6.448725461959838867e-01 -1.046379208564758301e+00
1.516000000000000000e+03 7.892939090728759766e+00 -3.065557956695556641e+00 1.382147789001464844e+00 8.794170022010803223e-01 6.784694194793701172e-01 1.288618206977844238e+00
1.517000000000000000e+03 5.407837867736816406e+00 6.006162643432617188e+00 5.007307529449462891e-01 7.290456295013427734e-01 3.689329028129577637e-01 1.307965219020843506e-01
1.518000000000000000e+03 6.392202854156494141e+00 4.032987117767333984e+00 3.994859457015991211e-01 6.011897325515747070e-01 3.002026975154876709e-01 1.420998275279998779e-01
1.519000000000000000e+03 7.058921337127685547e+00 3.958482980728149414e+00 5.010271668434143066e-01 8.570942282676696777e-01 4.074364006519317627e-01 -8.173614740371704102e-02
1.520000000000000000e+03 5.107080936431884766e+00 5.232623577117919922e+00 3.816713690757751465e-01 4.428601562976837158e-01 2.473594546318054199e-01 2.931747436523437500e-01
1.521000000000000000e+03 7.697970867156982422e+00 3.934201955795288086e+00 5.875641107559204102e-01 1.199185132980346680e+00 5.360247492790222168e-01 -3.566920459270477295e-01
1.522000000000000000e+03 1.350101709365844727e+00 4.672715187072753906e+00 2.794277109205722809e-02 -7.073794007301330566e-01 -2.038310021162033081e-01 3.442099690437316895e-01
1.523000000000000000e+03 2.797585248947143555e+00 3.898538589477539062e+00 4.436824470758438110e-02 -2.630252242088317871e-01 -6.559709459543228149e-02 5.326932072639465332e-01
1.524000000000000000e+03 5.145152091979980469e+00 -4.452983379364013672e+00 4.456743001937866211e-01 7.838301062583923340e-01 3.688513338565826416e-01 4.134240448474884033e-01
1.525000000000000000e+03 5.892601013183593750e+00 -4.291216373443603516e+00 6.141061186790466309e-01 9.183676242828369141e-01 4.597421288490295410e-01 6.654351353645324707e-01
1.526000000000000000e+03 3.386843204498291016e+00 -6.276036739349365234e+00 1.030631288886070251e-01 5.986440181732177734e-01 2.105121314525604248e-01 1.303212791681289673e-01
1.527000000000000000e+03 6.615184783935546875e+00 -4.032186985015869141e+00 8.303202986717224121e-01 1.047705292701721191e+00 5.634076595306396484e-01 9.466812610626220703e-01
1.528000000000000000e+03 1.532330608367919922e+01 1.383046627044677734e+00 3.204594135284423828e+00 1.209635925292968750e+01 4.590285778045654297e+00 2.238497734069824219e+00
1.529000000000000000e+03 8.737150192260742188e+00 3.427782773971557617e+00 6.737722754478454590e-01 1.581562519073486328e+00 6.766004562377929688e-01 -8.585102558135986328e-01
1.530000000000000000e+03 8.889155387878417969e+00 4.657299041748046875e+00 7.146226167678833008e-01 2.456684827804565430e+00 9.513922929763793945e-01 -1.059273242950439453e+00
1.531000000000000000e+03 1.481197357177734375e+01 -3.255724668502807617e+00 2.711083173751831055e+00 1.106553745269775391e+01 4.132986545562744141e+00 -5.614675283432006836e-01
1.532000000000000000e+03 1.627252578735351562e+01 -1.003512859344482422e+00 7.293336868286132812e+00 8.139744758605957031e+00 4.629924297332763672e+00 -7.563562989234924316e-01
1.533000000000000000e+03 1.920928764343261719e+01 1.675157308578491211e+00 2.323052406311035156e+00 5.266737461090087891e+00 2.276937007904052734e+00 -4.628213047981262207e-01
1.534000000000000000e+03 1.624650001525878906e+01 -1.980620622634887695e+00 5.811839580535888672e+00 8.218578338623046875e+00 4.209125518798828125e+00 -1.738101243972778320e+00
1.535000000000000000e+03 1.569877719879150391e+01 -1.440941333770751953e+00 7.276645660400390625e+00 9.502775192260742188e+00 5.033826351165771484e+00 -1.453072667121887207e+00
1.536000000000000000e+03 2.184588623046875000e+01 -1.022122097015380859e+01 -1.230493307113647461e+00 1.210404276847839355e+00 -6.026676390320062637e-03 -1.588052272796630859e+00
1.537000000000000000e+03 6.226164627075195312e+01 -8.879726529121398926e-01 6.466451287269592285e-01 1.775651812553405762e+00 7.266891002655029297e-01 1.716811656951904297e-01
1.538000000000000000e+03 4.203924560546875000e+01 1.630807876586914062e+01 3.158725053071975708e-02 5.466260433197021484e+00 1.649354338645935059e+00 -9.364255666732788086e-01
1.539000000000000000e+03 3.962664031982421875e+01 1.806237983703613281e+01 -1.946444213390350342e-01 3.605110406875610352e+00 1.023139834403991699e+00 -1.190087080001831055e+00
1.540000000000000000e+03 1.647626113891601562e+01 -9.911513328552246094e+00 -2.230695486068725586e+00 1.568227171897888184e+00 -1.987405121326446533e-01 1.403379917144775391e+00
1.541000000000000000e+03 2.146681022644042969e+01 -9.298048019409179688e+00 -3.413082361221313477e-01 1.170045733451843262e+00 2.486212700605392456e-01 -1.927880883216857910e+00
1.542000000000000000e+03 6.245076751708984375e+01 -8.043333053588867188e+00 1.280340403318405151e-01 1.358640193939208984e+00 4.460022747516632080e-01 -7.343755364418029785e-01
1.543000000000000000e+03 4.583917617797851562e+01 1.431496620178222656e+01 5.485441684722900391e-01 8.909469604492187500e+00 2.837404012680053711e+00 9.513576030731201172e-01
1.544000000000000000e+03 6.346561813354492188e+01 2.023587942123413086e+00 3.707513213157653809e-01 2.437667369842529297e+00 8.425256013870239258e-01 7.084952592849731445e-01
1.545000000000000000e+03 3.831884384155273438e+01 -8.383159637451171875e+00 -3.430990278720855713e-01 4.635263919830322266e+00 1.287649393081665039e+00 9.875892996788024902e-01
1.546000000000000000e+03 3.720672225952148438e+01 -8.420989990234375000e+00 3.802608698606491089e-02 3.637108325958251953e+00 1.102540373802185059e+00 3.383252024650573730e-01
1.547000000000000000e+03 1.344577312469482422e+01 -1.064437866210937500e+01 -3.554745197296142578e+00 6.076945304870605469e+00 7.566600441932678223e-01 3.430935621261596680e+00
1.548000000000000000e+03 4.644876480102539062e+01 9.529942512512207031e+00 9.460462927818298340e-01 1.147021865844726562e+01 3.724879503250122070e+00 1.700025439262390137e+00
1.549000000000000000e+03 6.240300369262695312e+01 1.076496958732604980e+00 5.772155523300170898e-01 1.807516932487487793e+00 7.154197692871093750e-01 5.003859996795654297e-01
1.550000000000000000e+03 6.135446929931640625e+01 1.316736787557601929e-01 7.776491045951843262e-01 1.255447626113891602e+00 6.099290251731872559e-01 3.322442471981048584e-01
1.551000000000000000e+03 2.649020004272460938e+01 -1.199580192565917969e+01 -9.811352938413619995e-02 7.883323431015014648e-01 2.070656418800354004e-01 -1.835914850234985352e+00
1.552000000000000000e+03 2.505633735656738281e+01 -8.219152450561523438e+00 1.148893713951110840e+00 1.448445320129394531e+00 7.792016863822937012e-01 -2.419879198074340820e+00
1.553000000000000000e+03 6.961570739746093750e+01 7.006715774536132812e+00 -3.635907769203186035e-01 7.590800762176513672e+00 2.168163061141967773e+00 3.293744027614593506e-01
1.554000000000000000e+03 1.263599205017089844e+01 -9.717844963073730469e+00 -2.844257116317749023e+00 6.628893852233886719e+00 1.135390996932983398e+00 3.374762296676635742e+00
1.555000000000000000e+03 2.324818801879882812e+01 -2.225126028060913086e+00 3.483525514602661133e+00 1.216762661933898926e+00 1.410086512565612793e+00 -2.418736457824707031e+00
1.556000000000000000e+03 5.416410827636718750e+01 -3.550650835037231445e+00 1.255750656127929688e+00 1.275016069412231445e-01 4.149756729602813721e-01 -3.461879212409257889e-03
1.557000000000000000e+03 5.235892105102539062e+01 -5.866502285003662109e+00 1.355522274971008301e-01 5.646804571151733398e-01 2.100698053836822510e-01 3.902550339698791504e-01
1.558000000000000000e+03 1.098762512207031250e+01 -1.241005134582519531e+01 -1.761777997016906738e+00 8.523509025573730469e+00 2.028519392013549805e+00 1.425643444061279297e+00
1.559000000000000000e+03 7.559704589843750000e+01 1.416528606414794922e+01 5.773736834526062012e-01 7.603414058685302734e+00 2.454236268997192383e+00 -3.617177158594131470e-02
1.560000000000000000e+03 7.548773193359375000e+01 -1.079759716987609863e+00 -2.646873295307159424e-01 7.673059940338134766e+00 2.222511768341064453e+00 -4.030441865324974060e-02
1.561000000000000000e+03 7.601229095458984375e+01 -7.968177795410156250e+00 -2.583651840686798096e-01 7.680491924285888672e+00 2.226638078689575195e+00 6.861761212348937988e-01
1.562000000000000000e+03 7.567393493652343750e+01 -3.788919448852539062e+00 -3.018164038658142090e-01 7.702524185180664062e+00 2.220212221145629883e+00 2.301918119192123413e-01
1.563000000000000000e+03 7.566953277587890625e+01 -5.185690402984619141e+00 -3.169543147087097168e-01 7.721132278442382812e+00 2.221253395080566406e+00 3.766442239284515381e-01
1.564000000000000000e+03 7.680052185058593750e+01 1.683591485023498535e+00 -1.530171334743499756e-01 7.886889457702636719e+00 2.320161819458007812e+00 -2.477912604808807373e-01
1.565000000000000000e+03 7.553501129150390625e+01 1.762078166007995605e+00 -2.691966891288757324e-01 7.675999164581298828e+00 2.222040653228759766e+00 -2.930848002433776855e-01
1.566000000000000000e+03 7.424834442138671875e+01 -1.051245212554931641e+01 -2.301821112632751465e-01 7.864922046661376953e+00 2.290421962738037109e+00 9.342846274375915527e-01
1.567000000000000000e+03 7.686053466796875000e+01 8.554273605346679688e+00 7.841452956199645996e-03 7.453806877136230469e+00 2.238494396209716797e+00 -6.255700588226318359e-01
1.568000000000000000e+03 7.560901641845703125e+01 7.404272079467773438e+00 -1.093737259507179260e-01 7.707757472991943359e+00 2.279515027999877930e+00 -6.701684594154357910e-01
1.569000000000000000e+03 7.027291107177734375e+01 5.984996795654296875e+00 -3.566084206104278564e-01 7.311579704284667969e+00 2.086491346359252930e+00 1.365942060947418213e-01
1.570000000000000000e+03 7.547225952148437500e+01 3.338377773761749268e-01 -2.654663026332855225e-01 7.676197052001953125e+00 2.223219394683837891e+00 -1.474168449640274048e-01
1.571000000000000000e+03 7.556642150878906250e+01 3.193177223205566406e+00 -2.319985330104827881e-01 7.693520069122314453e+00 2.238456487655639648e+00 -3.841030895709991455e-01
1.572000000000000000e+03 7.540065765380859375e+01 -1.668096160888671875e+01 7.780805826187133789e-01 7.351040363311767578e+00 2.438736438751220703e+00 4.261870384216308594e-01
1.573000000000000000e+03 7.432119750976562500e+01 -1.449921512603759766e+01 5.928538441658020020e-01 7.862559318542480469e+00 2.536623954772949219e+00 8.933085203170776367e-01
1.574000000000000000e+03 7.591044616699218750e+01 -1.180896282196044922e+01 1.225793268531560898e-02 7.466006755828857422e+00 2.243479251861572266e+00 9.810345172882080078e-01
1.575000000000000000e+03 7.675910186767578125e+01 9.890005111694335938e+00 1.452420055866241455e-01 7.365432739257812500e+00 2.253202438354492188e+00 -5.629194974899291992e-01
1.576000000000000000e+03 7.517388916015625000e+01 1.122691154479980469e+01 4.047068059444427490e-01 7.751468181610107422e+00 2.446852445602416992e+00 -4.826956391334533691e-01
1.577000000000000000e+03 7.432085418701171875e+01 -1.815004348754882812e+01 1.175355076789855957e+00 7.867734432220458984e+00 2.712926864624023438e+00 -7.733397651463747025e-03
1.578000000000000000e+03 7.680817413330078125e+01 -1.799429321289062500e+01 4.828515350818634033e-01 6.619436740875244141e+00 2.130686521530151367e+00 1.032088790088891983e-02
1.579000000000000000e+03 7.281192016601562500e+01 -1.655620765686035156e+01 1.445646643638610840e+00 8.821740150451660156e+00 3.080215930938720703e+00 3.662235736846923828e-01
1.580000000000000000e+03 7.485979461669921875e+01 -1.551080036163330078e+01 6.555739641189575195e-01 7.593557357788085938e+00 2.474739551544189453e+00 6.396343111991882324e-01
1.581000000000000000e+03 7.504173278808593750e+01 3.111900329589843750e+01 -2.268037050962448120e-01 7.832431316375732422e+00 2.281688213348388672e+00 -7.713449001312255859e-02
1.582000000000000000e+03 7.579575347900390625e+01 3.513160705566406250e+01 -4.931885004043579102e-02 7.942690372467041016e+00 2.368011474609375000e+00 -1.472323089838027954e-01
1.583000000000000000e+03 7.648998260498046875e+01 3.228992843627929688e+01 -9.559384733438491821e-02 8.348322868347167969e+00 2.475818634033203125e+00 -9.960900247097015381e-02
1.584000000000000000e+03 7.685947418212890625e+01 1.681251716613769531e+01 3.292161524295806885e-01 7.288634777069091797e+00 2.285355329513549805e+00 4.555983841419219971e-01
1.585000000000000000e+03 7.356742095947265625e+01 1.675755500793457031e+01 9.709683060646057129e-01 8.591527938842773438e+00 2.868748903274536133e+00 5.431859493255615234e-01
1.586000000000000000e+03 7.540028381347656250e+01 2.000897216796875000e+01 2.130478322505950928e-01 8.068694114685058594e+00 2.484522581100463867e+00 1.001172065734863281e+00
1.587000000000000000e+03 7.466028594970703125e+01 1.908365821838378906e+01 4.824188351631164551e-01 8.058552742004394531e+00 2.562291383743286133e+00 1.023342609405517578e+00
1.588000000000000000e+03 7.121488952636718750e+01 1.738857460021972656e+01 1.327790021896362305e+00 9.852059364318847656e+00 3.353954792022705078e+00 7.737618088722229004e-01
1.589000000000000000e+03 7.483526611328125000e+01 -2.886782073974609375e+01 -4.240604341030120850e-01 7.794116020202636719e+00 2.211016654968261719e+00 -7.029670476913452148e-01
1.590000000000000000e+03 7.431718444824218750e+01 -2.436611747741699219e+01 1.669425889849662781e-02 7.946044921875000000e+00 2.388821840286254883e+00 -1.151911139488220215e+00
1.591000000000000000e+03 7.669164276123046875e+01 2.262821006774902344e+01 -1.337093859910964966e-01 8.065063476562500000e+00 2.379406452178955078e+00 8.797246217727661133e-01
1.592000000000000000e+03 7.497918701171875000e+01 2.208111190795898438e+01 -1.631319820880889893e-01 8.173583030700683594e+00 2.403135538101196289e+00 1.013608455657958984e+00
1.593000000000000000e+03 7.543701934814453125e+01 -2.592528152465820312e+01 -1.545949876308441162e-01 7.766100883483886719e+00 2.283451795578002930e+00 -1.053491353988647461e+00
1.594000000000000000e+03 7.669454193115234375e+01 -2.616103172302246094e+01 -1.302683949470520020e-01 7.582481384277343750e+00 2.235663890838623047e+00 -9.007031917572021484e-01
1.595000000000000000e+03 7.571294403076171875e+01 -2.330639648437500000e+01 1.715338975191116333e-01 7.515614509582519531e+00 2.306144475936889648e+00 -1.080291271209716797e+00
1.596000000000000000e+03 7.674170684814453125e+01 2.400393104553222656e+01 -2.188879549503326416e-01 8.254033088684082031e+00 2.410543441772460938e+00 7.017147541046142578e-01
1.597000000000000000e+03 7.663066864013671875e+01 2.673558807373046875e+01 -2.662546634674072266e-01 8.415954589843750000e+00 2.444910049438476562e+00 4.030786156654357910e-01
1.598000000000000000e+03 7.525795745849609375e+01 2.678883743286132812e+01 -3.938975632190704346e-01 8.178806304931640625e+00 2.335472583770751953e+00 3.974580764770507812e-01
1.599000000000000000e+03 7.653443145751953125e+01 2.955883407592773438e+01 -2.249275594949722290e-01 8.407171249389648438e+00 2.454673051834106445e+00 9.915880858898162842e-02
1.600000000000000000e+03 7.473660278320312500e+01 -3.214591598510742188e+01 -3.672580718994140625e-01 7.592352867126464844e+00 2.167528390884399414e+00 -2.938628196716308594e-01
1.601000000000000000e+03 7.397654724121093750e+01 -3.662200546264648438e+01 -1.249947845935821533e-01 7.064342021942138672e+00 2.081804037094116211e+00 -6.986760348081588745e-02
1.602000000000000000e+03 7.330855560302734375e+01 -2.889617729187011719e+01 -6.373295187950134277e-01 7.732248783111572266e+00 2.128475904464721680e+00 -5.590014457702636719e-01
1.603000000000000000e+03 7.628390502929687500e+01 -3.209677505493164062e+01 -2.405246496200561523e-01 7.943786621093750000e+00 2.310978651046752930e+00 -3.375314176082611084e-01
1.604000000000000000e+03 7.480794525146484375e+01 -3.049932098388671875e+01 -4.425609409809112549e-01 7.715746402740478516e+00 2.181955575942993164e+00 -4.745139479637145996e-01
1.605000000000000000e+03 7.352182006835937500e+01 3.524967193603515625e+01 1.829758659005165100e-02 7.170054912567138672e+00 2.156505823135375977e+00 -2.644791603088378906e-01
1.606000000000000000e+03 7.515144348144531250e+01 2.963427352905273438e+01 -3.140012025833129883e-01 7.965771675109863281e+00 2.295531034469604492e+00 -2.516783541068434715e-03
1.607000000000000000e+03 3.997381210327148438e+01 2.152312850952148438e+01 -5.833835005760192871e-01 3.741698741912841797e+00 9.474945664405822754e-01 -1.118242502212524414e+00
1.608000000000000000e+03 3.970846557617187500e+01 -2.135729598999023438e+01 2.368524312973022461e+00 9.507183074951171875e+00 3.562712192535400391e+00 -3.154698908329010010e-01
1.609000000000000000e+03 3.856689453125000000e+01 -2.148308372497558594e+01 2.189204216003417969e+00 9.867815971374511719e+00 3.617106199264526367e+00 -4.994009137153625488e-01
1.610000000000000000e+03 3.073593854904174805e+00 -1.653741073608398438e+01 3.540547490119934082e-01 1.344584941864013672e+00 5.095919370651245117e-01 2.193070054054260254e-01
1.611000000000000000e+03 4.512348651885986328e+00 -1.533820629119873047e+01 4.801605641841888428e-01 2.660604715347290039e+00 9.422295689582824707e-01 9.113317728042602539e-02
1.612000000000000000e+03 4.541234970092773438e+00 2.143914031982421875e+01 5.710609257221221924e-02 2.068307161331176758e+00 6.376240253448486328e-01 -1.035441517829895020e+00
1.613000000000000000e+03 6.679893970489501953e+00 -1.726576995849609375e+01 1.293307900428771973e+00 4.892077445983886719e+00 1.855615615844726562e+00 6.310826539993286133e-01
1.614000000000000000e+03 4.305796623229980469e+00 -1.673908805847167969e+01 5.623185634613037109e-01 2.546878576278686523e+00 9.327591061592102051e-01 3.464100062847137451e-01
1.615000000000000000e+03 3.209089994430541992e+00 2.017832565307617188e+01 4.997275397181510925e-02 1.250723242759704590e+00 3.902087807655334473e-01 -7.776702046394348145e-01
1.616000000000000000e+03 4.696995735168457031e+00 -2.771407890319824219e+01 -4.219766855239868164e-01 4.151617050170898438e+00 1.118892073631286621e+00 1.307284474372863770e+00
1.617000000000000000e+03 3.092043161392211914e+00 -2.319332885742187500e+01 7.502945512533187866e-02 2.690319538116455078e+00 8.296046853065490723e-01 1.315471291542053223e+00
1.618000000000000000e+03 4.449934482574462891e+00 -2.165655708312988281e+01 3.778241574764251709e-01 3.269950151443481445e+00 1.094332337379455566e+00 1.465206861495971680e+00
1.619000000000000000e+03 4.831690311431884766e+00 2.599355125427246094e+01 -1.437335163354873657e-01 2.765215635299682617e+00 7.864446043968200684e-01 -9.623571634292602539e-01
1.620000000000000000e+03 4.634723663330078125e+00 2.742915534973144531e+01 -1.666778922080993652e-01 2.857596635818481445e+00 8.072755932807922363e-01 -8.541285991668701172e-01
1.621000000000000000e+03 4.259364604949951172e+00 2.995354270935058594e+01 -1.574137508869171143e-01 3.023427724838256836e+00 8.598041534423828125e-01 -6.535679101943969727e-01
1.622000000000000000e+03 4.263564109802246094e+00 1.712991333007812500e+01 1.890974938869476318e-01 1.355347633361816406e+00 4.633335471153259277e-01 -7.914707064628601074e-01
1.623000000000000000e+03 4.389845371246337891e+00 1.858013725280761719e+01 1.402361690998077393e-01 1.588976502418518066e+00 5.187637805938720703e-01 -8.909226059913635254e-01
1.624000000000000000e+03 5.264496326446533203e+00 1.551326942443847656e+01 3.138952553272247314e-01 1.752904295921325684e+00 6.200398802757263184e-01 -7.516600489616394043e-01
1.625000000000000000e+03 4.464690208435058594e+00 2.001833724975585938e+01 9.531211107969284058e-02 1.806084752082824707e+00 5.704190731048583984e-01 -9.790968894958496094e-01
1.626000000000000000e+03 2.928149700164794922e+00 1.446723461151123047e+01 1.305093318223953247e-01 2.079555243253707886e-01 1.015394553542137146e-01 -4.160025119781494141e-01
1.627000000000000000e+03 4.143624782562255859e+00 1.569924736022949219e+01 2.144066393375396729e-01 1.107501983642578125e+00 3.965725898742675781e-01 -6.587956547737121582e-01
1.628000000000000000e+03 4.052005290985107422e+00 1.429127407073974609e+01 2.273849695920944214e-01 9.020914435386657715e-01 3.388429284095764160e-01 -5.266885161399841309e-01
1.629000000000000000e+03 7.596584796905517578e+00 -2.153135299682617188e+01 7.386808395385742188e-01 5.969842433929443359e+00 2.012557029724121094e+00 1.581417322158813477e+00
1.630000000000000000e+03 4.145775794982910156e+00 -2.316987419128417969e+01 9.724981337785720825e-02 3.276444911956787109e+00 1.012108445167541504e+00 1.490632057189941406e+00
1.631000000000000000e+03 3.395148515701293945e+00 2.595439910888671875e+01 -7.289864867925643921e-02 2.339971542358398438e+00 6.801218986511230469e-01 -7.727442979812622070e-01
1.632000000000000000e+03 4.979363918304443359e+00 2.444592475891113281e+01 -1.010842844843864441e-01 2.629096746444702148e+00 7.584037184715270996e-01 -1.044783711433410645e+00
1.633000000000000000e+03 5.035034179687500000e+00 1.141248321533203125e+01 3.383834362030029297e-01 1.232026338577270508e+00 4.711229205131530762e-01 -3.307017087936401367e-01
1.634000000000000000e+03 2.947649478912353516e+00 -1.104663658142089844e+01 -9.092376381158828735e-02 1.021778345108032227e+00 2.792563736438751221e-01 -8.751524984836578369e-02
1.635000000000000000e+03 4.598228931427001953e+00 -1.386239337921142578e+01 2.082762718200683594e-01 2.728390216827392578e+00 8.809999823570251465e-01 -7.753851264715194702e-02
1.636000000000000000e+03 5.256297588348388672e+00 3.207080841064453125e+01 -2.200340181589126587e-01 3.311302423477172852e+00 9.273805618286132812e-01 -5.806783437728881836e-01
1.637000000000000000e+03 5.740835189819335938e+00 3.558789443969726562e+01 -2.346854209899902344e-01 3.474500179290771484e+00 9.719444513320922852e-01 -3.770973980426788330e-01
1.638000000000000000e+03 3.280947208404541016e+00 -3.083576583862304688e+01 -2.279206961393356323e-01 4.288039207458496094e+00 1.218035578727722168e+00 7.592455148696899414e-01
1.639000000000000000e+03 3.938640594482421875e+00 1.152142047882080078e+01 2.372700721025466919e-01 5.797007679939270020e-01 2.450912445783615112e-01 -2.487099021673202515e-01
1.640000000000000000e+03 4.099006652832031250e+00 -1.105376529693603516e+01 -1.989302933216094971e-01 1.981711387634277344e+00 5.348343253135681152e-01 3.703562915325164795e-02
1.641000000000000000e+03 4.427401542663574219e+00 2.875589561462402344e+01 -1.634664982557296753e-01 2.945671081542968750e+00 8.346613645553588867e-01 -7.496778964996337891e-01
1.642000000000000000e+03 4.275505542755126953e+00 3.313124084472656250e+01 -1.585548818111419678e-01 3.280529499053955078e+00 9.365924000740051270e-01 -4.605420827865600586e-01
1.643000000000000000e+03 3.220835685729980469e+00 3.271730804443359375e+01 -9.870734065771102905e-02 3.186158895492553711e+00 9.262354373931884766e-01 -4.047360718250274658e-01
1.644000000000000000e+03 4.458520412445068359e+00 3.104617881774902344e+01 -1.706503629684448242e-01 3.156521081924438477e+00 8.957611918449401855e-01 -5.985438227653503418e-01
1.645000000000000000e+03 3.909284591674804688e+00 8.653067588806152344e+00 3.003455102443695068e-01 3.190470039844512939e-01 1.858177632093429565e-01 4.116434231400489807e-02
1.646000000000000000e+03 6.175700664520263672e+00 -3.133994865417480469e+01 -5.937055349349975586e-01 4.360545158386230469e+00 1.130051851272583008e+00 7.716096639633178711e-01
1.647000000000000000e+03 4.757295131683349609e+00 -2.939878273010253906e+01 -4.275798499584197998e-01 4.269400596618652344e+00 1.152546167373657227e+00 1.056550145149230957e+00
1.648000000000000000e+03 4.664854049682617188e+00 -3.114333724975585938e+01 -4.116540253162384033e-01 4.292837619781494141e+00 1.164355158805847168e+00 8.293290138244628906e-01
1.649000000000000000e+03 3.861525058746337891e+00 -5.378867626190185547e+00 2.195191234350204468e-01 5.936253070831298828e-01 2.439433336257934570e-01 1.500204205513000488e-01
1.650000000000000000e+03 2.673653364181518555e+00 4.795013427734375000e+00 7.841081917285919189e-02 -3.739860951900482178e-01 -8.867257833480834961e-02 4.804561138153076172e-01
1.651000000000000000e+03 5.700643062591552734e+00 4.179167747497558594e+00 3.160854578018188477e-01 4.278512597084045410e-01 2.231810092926025391e-01 3.059668242931365967e-01
1.652000000000000000e+03 3.077790737152099609e+00 -4.862347602844238281e+00 1.664875894784927368e-01 2.454315125942230225e-01 1.235757321119308472e-01 -2.578208968043327332e-02
1.653000000000000000e+03 4.349100875854492188e+01 1.183324337005615234e+01 4.631366431713104248e-01 9.144674301147460938e+00 2.882343292236328125e+00 -1.999480128288269043e-01
1.654000000000000000e+03 5.924705505371093750e+00 -3.575613784790039062e+01 -3.308608531951904297e-01 4.252173423767089844e+00 1.176393747329711914e+00 3.593272566795349121e-01
1.655000000000000000e+03 2.721489906311035156e+01 2.420181274414062500e+01 -7.713663578033447266e-01 2.083523720502853394e-01 -1.689041852951049805e-01 2.320822775363922119e-01
1.656000000000000000e+03 2.440175247192382812e+01 2.595719909667968750e+01 -2.480897605419158936e-01 1.180322885513305664e+00 2.796699404716491699e-01 1.061445832252502441e+00
1.657000000000000000e+03 4.144046783447265625e+01 -2.123083114624023438e+01 2.523968458175659180e+00 9.330440521240234375e+00 3.556322574615478516e+00 -4.366660714149475098e-01
1.658000000000000000e+03 6.982083892822265625e+01 -2.680028152465820312e+01 -9.130970239639282227e-01 7.629547595977783203e+00 2.014935255050659180e+00 1.717592924833297729e-01
1.659000000000000000e+03 2.633712577819824219e+01 -7.994252681732177734e+00 1.273495197296142578e+00 1.794249415397644043e+00 9.203233718872070312e-01 -2.555020332336425781e+00
1.660000000000000000e+03 3.176416397094726562e+01 -8.891887664794921875e+00 1.026972770690917969e+00 1.500127434730529785e+00 7.581300735473632812e-01 -3.141531705856323242e+00
1.661000000000000000e+03 4.073950958251953125e+01 1.653174400329589844e+01 4.254275187849998474e-02 4.554609775543212891e+00 1.379145741462707520e+00 -1.154280662536621094e+00
1.662000000000000000e+03 4.319158935546875000e+01 1.460646820068359375e+01 2.037682831287384033e-01 7.126901149749755859e+00 2.199200868606567383e+00 -5.630016326904296875e-01
1.663000000000000000e+03 3.886591720581054688e+01 1.926846885681152344e+01 -2.991872429847717285e-01 3.149259328842163086e+00 8.550216555595397949e-01 -1.138367176055908203e+00
1.664000000000000000e+03 1.721277999877929688e+01 -5.543116107583045959e-02 5.300873756408691406e+00 6.967908859252929688e+00 3.680634737014770508e+00 -1.643542014062404633e-02
1.665000000000000000e+03 1.995651245117187500e+01 5.233540534973144531e-01 3.156836748123168945e+00 3.671597957611083984e+00 2.048530340194702148e+00 -1.227236509323120117e+00
1.666000000000000000e+03 3.334402465820312500e+01 -7.546556949615478516e+00 4.927841722965240479e-01 5.648033022880554199e-01 3.172762393951416016e-01 -2.111743927001953125e+00
1.667000000000000000e+03 3.521957397460937500e+01 -1.433859443664550781e+01 2.290246009826660156e+00 5.733927726745605469e+00 2.407252073287963867e+00 -1.891429305076599121e+00
1.668000000000000000e+03 4.376425552368164062e+01 1.768524360656738281e+01 -8.921061456203460693e-02 6.225323677062988281e+00 1.840833902359008789e+00 -5.067093968391418457e-01
1.669000000000000000e+03 4.739550781250000000e+01 1.539083957672119141e+01 7.900551557540893555e-01 9.002135276794433594e+00 2.937656879425048828e+00 1.581702828407287598e+00
1.670000000000000000e+03 4.621462631225585938e+01 7.048838138580322266e+00 1.089045524597167969e+00 1.231736373901367188e+01 4.021922588348388672e+00 1.178440332412719727e+00
1.671000000000000000e+03 4.512771987915039062e+01 1.085955524444580078e+01 7.566370964050292969e-01 1.049914836883544922e+01 3.376735687255859375e+00 1.035235166549682617e+00
1.672000000000000000e+03 4.645313644409179688e+01 1.103801536560058594e+01 8.205052614212036133e-01 1.081933021545410156e+01 3.491950750350952148e+00 1.716667056083679199e+00
1.673000000000000000e+03 2.909140968322753906e+01 2.600953483581542969e+01 -3.361664414405822754e-01 6.410930752754211426e-01 9.147798269987106323e-02 -8.111567050218582153e-02
1.674000000000000000e+03 3.043370819091796875e+01 2.348382377624511719e+01 -9.206235408782958984e-01 3.451544642448425293e-01 -1.726407259702682495e-01 -2.670729756355285645e-01
1.675000000000000000e+03 7.487364196777343750e+01 1.556028747558593750e+01 7.482871413230895996e-01 7.913268566131591797e+00 2.598466634750366211e+00 2.594028413295745850e-01
1.676000000000000000e+03 7.427633666992187500e+01 -1.706068992614746094e+01 1.087059259414672852e+00 7.885803222656250000e+00 2.691858768463134766e+00 2.846130430698394775e-01
1.677000000000000000e+03 1.049173450469970703e+01 -1.346962928771972656e+01 -5.907157659530639648e-01 8.688672065734863281e+00 2.429386854171752930e+00 8.749834299087524414e-01
1.678000000000000000e+03 9.857373237609863281e+00 -1.465380382537841797e+01 7.221257090568542480e-01 8.568885803222656250e+00 2.787303447723388672e+00 4.118590652942657471e-01
1.679000000000000000e+03 2.305213165283203125e+01 -3.936587095260620117e+00 3.431217670440673828e+00 1.254561185836791992e+00 1.405733704566955566e+00 -2.595420360565185547e+00
1.680000000000000000e+03 4.413212203979492188e+01 -1.644352149963378906e+01 1.530738711357116699e+00 1.056382465362548828e+01 3.628369092941284180e+00 9.881458878517150879e-01
1.681000000000000000e+03 3.865938186645507812e+01 -1.805134391784667969e+01 3.043329238891601562e+00 8.945388793945312500e+00 3.596615314483642578e+00 -8.679441213607788086e-01
1.682000000000000000e+03 4.685962677001953125e+01 8.098388910293579102e-01 1.040839910507202148e+00 9.383115768432617188e+00 3.127186536788940430e+00 -2.643953859806060791e-01
1.683000000000000000e+03 3.774714279174804688e+01 2.046483612060546875e+01 -5.112575292587280273e-01 2.536098957061767578e+00 6.074523925781250000e-01 -1.065356731414794922e+00
1.684000000000000000e+03 5.723570251464843750e+01 2.778077125549316406e+01 -3.587951064109802246e-01 1.657411217689514160e+00 3.895848393440246582e-01 1.399698138236999512e+00
1.685000000000000000e+03 5.557072448730468750e+01 2.762556457519531250e+01 -5.883813500404357910e-01 2.302060604095458984e+00 5.141037702560424805e-01 1.608956575393676758e+00
1.686000000000000000e+03 1.489311695098876953e+01 1.363268852233886719e+01 1.051250100135803223e+00 8.866347312927246094e+00 2.975279331207275391e+00 -2.370541542768478394e-01
1.687000000000000000e+03 1.367339992523193359e+01 1.341810131072998047e+01 9.903383255004882812e-01 7.683552265167236328e+00 2.602167129516601562e+00 -3.712075054645538330e-01
1.688000000000000000e+03 1.502532196044921875e+01 1.218717765808105469e+01 7.462894916534423828e-01 9.081745147705078125e+00 2.948410511016845703e+00 -2.683272361755371094e-01
1.689000000000000000e+03 6.453256225585937500e+01 2.938408613204956055e+00 1.874465942382812500e-01 3.221244335174560547e+00 1.022607326507568359e+00 8.924462199211120605e-01
1.690000000000000000e+03 5.671865844726562500e+01 -5.719719409942626953e+00 2.848782539367675781e-01 -5.073846876621246338e-02 7.024193555116653442e-02 -2.015890777111053467e-01
1.691000000000000000e+03 5.545958328247070312e+01 -6.078361988067626953e+00 -4.918793216347694397e-02 -2.853896915912628174e-01 -1.003732904791831970e-01 -2.420945316553115845e-01
1.692000000000000000e+03 4.806774902343750000e+01 1.912013816833496094e+01 2.800509929656982422e-01 7.269062042236328125e+00 2.264733791351318359e+00 9.943443536758422852e-01
1.693000000000000000e+03 4.339946365356445312e+01 1.611508178710937500e+01 3.678817674517631531e-02 6.591292381286621094e+00 1.988424062728881836e+00 -5.313965678215026855e-01
1.694000000000000000e+03 1.749659156799316406e+01 8.276843070983886719e+00 -4.456961154937744141e-02 1.005564022064208984e+01 3.003321170806884766e+00 -4.018350541591644287e-01
1.695000000000000000e+03 2.651495170593261719e+01 -9.315314292907714844e+00 6.572289466857910156e-01 1.552133917808532715e+00 6.628088951110839844e-01 -2.584414243698120117e+00
1.696000000000000000e+03 3.750091171264648438e+01 -1.790973281860351562e+01 3.070502758026123047e+00 9.292022705078125000e+00 3.708757638931274414e+00 -1.116697907447814941e+00
1.697000000000000000e+03 3.859638214111328125e+01 -1.917846870422363281e+01 2.614035367965698242e+00 9.542370796203613281e+00 3.646921873092651367e+00 -8.210969567298889160e-01
1.698000000000000000e+03 7.077442932128906250e+01 1.931464767456054688e+01 1.035621404647827148e+00 9.341382980346679688e+00 3.113101243972778320e+00 7.691177129745483398e-01
1.699000000000000000e+03 7.190861511230468750e+01 2.024556350708007812e+01 1.284366250038146973e-01 9.186429977416992188e+00 2.794460058212280273e+00 1.115059614181518555e+00
1.700000000000000000e+03 4.946622467041015625e+01 -2.192979097366333008e+00 9.258661270141601562e-01 4.154470920562744141e+00 1.524101018905639648e+00 -5.765857696533203125e-01
1.701000000000000000e+03 4.530104827880859375e+01 -3.084801101684570312e+01 -6.411696076393127441e-01 6.685989856719970703e+00 1.813446164131164551e+00 -1.354347586631774902e+00
1.702000000000000000e+03 5.028846359252929688e+01 -3.315943145751953125e+01 -4.143946170806884766e-01 3.623536109924316406e+00 9.627424478530883789e-01 -1.775061488151550293e+00
1.703000000000000000e+03 4.698007583618164062e+01 -9.459900856018066406e-01 6.145331859588623047e-01 8.330186843872070312e+00 2.683416128158569336e+00 -3.619467616081237793e-01
1.704000000000000000e+03 3.880945205688476562e+01 2.127498054504394531e+01 -5.346572995185852051e-01 3.074625492095947266e+00 7.619904279708862305e-01 -1.131193280220031738e+00
1.705000000000000000e+03 3.437697982788085938e+01 2.120952606201171875e+01 -8.008259534835815430e-01 1.125388264656066895e+00 9.736870229244232178e-02 -6.034714579582214355e-01
1.706000000000000000e+03 2.734811592102050781e+01 2.570996093750000000e+01 -2.988346517086029053e-01 4.839124679565429688e-01 5.552334710955619812e-02 3.563265204429626465e-01
1.707000000000000000e+03 4.492344665527343750e+01 2.580739021301269531e+00 1.747925996780395508e+00 1.267018318176269531e+01 4.325432777404785156e+00 1.209536314010620117e+00
1.708000000000000000e+03 2.321536636352539062e+01 -3.591745376586914062e+01 -2.923965752124786377e-01 1.813117414712905884e-01 -3.332544863224029541e-02 3.676706179976463318e-02
1.709000000000000000e+03 3.189785385131835938e+01 -3.780563354492187500e+01 -8.466721177101135254e-01 2.895996809005737305e+00 6.147973537445068359e-01 8.643103241920471191e-01
1.710000000000000000e+03 7.449823760986328125e+01 -2.314311027526855469e+01 2.577847242355346680e-01 7.897812366485595703e+00 2.446679115295410156e+00 -1.096568465232849121e+00
1.711000000000000000e+03 6.927284240722656250e+01 -2.437184524536132812e+01 -5.604164600372314453e-01 9.036656379699707031e+00 2.542872190475463867e+00 2.709482908248901367e-01
1.712000000000000000e+03 6.430094146728515625e+01 2.651996612548828125e+01 -7.361205220222473145e-01 2.405632972717285156e+00 5.008537173271179199e-01 -1.049695253372192383e+00
1.713000000000000000e+03 3.984333038330078125e+01 -1.919421386718750000e+01 2.750875473022460938e+00 9.153101921081542969e+00 3.571193218231201172e+00 -3.595684170722961426e-01
1.714000000000000000e+03 1.994401931762695312e+01 -9.051608085632324219e+00 -6.207414269447326660e-01 1.386796474456787109e+00 2.298164963722229004e-01 -1.743543386459350586e+00
1.715000000000000000e+03 5.864778137207031250e+01 -7.557707309722900391e+00 -2.460220903158187866e-01 2.347895950078964233e-01 -3.369749058037996292e-03 -4.841311275959014893e-02
1.716000000000000000e+03 2.077877807617187500e+01 -3.565762710571289062e+01 -3.412818908691406250e-01 4.372458755970001221e-01 2.878919243812561035e-02 -2.136328369379043579e-01
1.717000000000000000e+03 2.313019943237304688e+01 -3.407248687744140625e+01 -7.412724494934082031e-01 -5.040327459573745728e-02 -2.375027090311050415e-01 4.883297160267829895e-02
1.718000000000000000e+03 4.195496749877929688e+01 -1.707960700988769531e+01 2.243377447128295898e+00 9.124697685241699219e+00 3.410422563552856445e+00 4.616682529449462891e-01
1.719000000000000000e+03 7.037699127197265625e+01 1.058849620819091797e+01 8.229491710662841797e-01 9.256246566772460938e+00 3.023758649826049805e+00 3.169710934162139893e-01
1.720000000000000000e+03 1.422175788879394531e+01 2.588771820068359375e+00 -3.311953544616699219e-01 1.277483844757080078e+01 3.733093023300170898e+00 -2.600258588790893555e-01
1.721000000000000000e+03 1.768866920471191406e+01 7.024570465087890625e+00 -4.279550611972808838e-01 9.588605880737304688e+00 2.748195171356201172e+00 -1.391358226537704468e-01
1.722000000000000000e+03 1.821408462524414062e+01 5.113977909088134766e+00 -4.024907648563385010e-01 8.360224723815917969e+00 2.387320280075073242e+00 9.528029710054397583e-02
1.723000000000000000e+03 1.801758766174316406e+01 3.415500164031982422e+00 4.700510501861572266e-01 7.820535659790039062e+00 2.487175941467285156e+00 2.986297607421875000e-01
1.724000000000000000e+03 1.815266990661621094e+01 -3.209490585327148438e+01 -9.830091595649719238e-01 7.733319997787475586e-01 -6.290315836668014526e-02 -3.566093742847442627e-01
1.725000000000000000e+03 1.570941448211669922e+01 1.023612403869628906e+01 3.748576939105987549e-01 9.616462707519531250e+00 2.997395992279052734e+00 -2.366156578063964844e-01
1.726000000000000000e+03 6.261991882324218750e+01 2.546720123291015625e+01 -9.420431256294250488e-01 7.430850863456726074e-01 -5.968741327524185181e-02 -4.182704687118530273e-01
1.727000000000000000e+03 4.319956207275390625e+01 -1.498626422882080078e+01 1.689854264259338379e+00 9.422657966613769531e+00 3.333753585815429688e+00 1.052482724189758301e+00
1.728000000000000000e+03 4.897351455688476562e+01 -6.878320217132568359e+00 -1.017384648323059082e+00 5.077968120574951172e+00 1.218175053596496582e+00 1.251947164535522461e+00
1.729000000000000000e+03 4.649312210083007812e+01 -7.207901954650878906e+00 -1.605701565742492676e+00 8.034587860107421875e+00 1.928665995597839355e+00 1.073353290557861328e+00
1.730000000000000000e+03 5.164082717895507812e+01 2.409651947021484375e+01 -1.147120952606201172e+00 4.693500995635986328e+00 1.063913941383361816e+00 1.562436342239379883e+00
1.731000000000000000e+03 5.283276367187500000e+01 2.503707122802734375e+01 -1.125351548194885254e+00 3.895186424255371094e+00 8.309504985809326172e-01 1.840827703475952148e+00
1.732000000000000000e+03 1.681129455566406250e+01 -3.112269973754882812e+01 -1.004079461097717285e+00 1.331003069877624512e+00 9.807708114385604858e-02 -3.575946688652038574e-01
1.733000000000000000e+03 1.713347816467285156e+01 -3.370788955688476562e+01 -7.146789431571960449e-01 1.266603946685791016e+00 1.655774861574172974e-01 -4.014085531234741211e-01
1.734000000000000000e+03 8.889398574829101562e+00 -2.029363059997558594e+01 1.227429151535034180e+00 7.681783676147460938e+00 2.672763824462890625e+00 1.240893483161926270e+00
1.735000000000000000e+03 2.903874588012695312e+01 -7.538704872131347656e+00 1.111860990524291992e+00 2.060140609741210938e+00 9.516004323959350586e-01 -3.238291501998901367e+00
1.736000000000000000e+03 3.193111991882324219e+01 -7.558270454406738281e+00 8.388917446136474609e-01 8.100666999816894531e-01 4.946875274181365967e-01 -3.072446823120117188e+00
1.737000000000000000e+03 3.198885345458984375e+01 -1.225278282165527344e+01 1.821111202239990234e+00 2.188102722167968750e+00 1.202764153480529785e+00 -2.829434394836425781e+00
1.738000000000000000e+03 4.441388320922851562e+01 -2.096340060234069824e-01 1.202009320259094238e+00 1.168479156494140625e+01 3.866040229797363281e+00 9.410305619239807129e-01
1.739000000000000000e+03 1.088342094421386719e+01 -2.693181037902832031e+01 -1.017066359519958496e+00 5.183002948760986328e+00 1.249781012535095215e+00 2.164018303155899048e-01
1.740000000000000000e+03 4.562763595581054688e+01 -1.031685829162597656e+01 -3.482091128826141357e-01 8.936728477478027344e+00 2.576555967330932617e+00 1.335869789123535156e+00
1.741000000000000000e+03 4.153217315673828125e+01 -1.157585239410400391e+01 3.481646478176116943e-01 7.921226501464843750e+00 2.480817317962646484e+00 9.855347275733947754e-01
1.742000000000000000e+03 4.815723419189453125e+01 2.029283905029296875e+01 9.675834327936172485e-02 6.765897274017333984e+00 2.058796644210815430e+00 7.176367640495300293e-01
1.743000000000000000e+03 4.664706039428710938e+01 1.918709945678710938e+01 5.634906888008117676e-02 6.881905555725097656e+00 2.081476449966430664e+00 3.407858908176422119e-01
1.744000000000000000e+03 2.604905319213867188e+01 -6.720524311065673828e+00 1.982688188552856445e+00 1.801795482635498047e+00 1.135345101356506348e+00 -2.538383483886718750e+00
1.745000000000000000e+03 6.557682037353515625e+01 3.816903352737426758e+00 -1.607137382961809635e-04 4.032821178436279297e+00 1.209798216819763184e+00 9.981672167778015137e-01
1.746000000000000000e+03 6.581651306152343750e+01 5.700052738189697266e+00 1.186366528272628784e-01 4.369563579559326172e+00 1.346460103988647461e+00 1.362803101539611816e+00
1.747000000000000000e+03 5.573208236694335938e+01 -3.424861526489257812e+01 1.996323019266128540e-01 1.032428860664367676e+00 3.696183562278747559e-01 -9.902666211128234863e-01
1.748000000000000000e+03 5.885467147827148438e+01 -3.478496551513671875e+01 3.878742754459381104e-01 1.071125507354736328e+00 4.376999437808990479e-01 -1.218564510345458984e-01
1.749000000000000000e+03 6.092595291137695312e+01 -3.182016563415527344e+01 -5.268411040306091309e-01 9.325920343399047852e-01 1.217252761125564575e-01 5.191101431846618652e-01
1.750000000000000000e+03 7.121641540527343750e+01 1.375342655181884766e+01 1.186871409416198730e+00 1.003519821166992188e+01 3.366620779037475586e+00 2.923671603202819824e-01
1.751000000000000000e+03 7.191250610351562500e+01 1.584897804260253906e+01 1.271888375282287598e+00 9.647787094116210938e+00 3.275902509689331055e+00 5.066941976547241211e-01
1.752000000000000000e+03 5.408340835571289062e+01 -3.454789352416992188e+01 7.025860249996185303e-02 1.672521352767944336e+00 5.228340029716491699e-01 -1.343054056167602539e+00
1.753000000000000000e+03 4.471218490600585938e+01 6.012691020965576172e+00 1.290276408195495605e+00 1.343205642700195312e+01 4.416699886322021484e+00 7.920069694519042969e-01
1.754000000000000000e+03 3.996303558349609375e+01 -2.257651710510253906e+01 2.315330743789672852e+00 9.267083168029785156e+00 3.474724054336547852e+00 -2.010057717561721802e-01
1.755000000000000000e+03 3.652252960205078125e+01 2.165097427368164062e+01 -6.094499230384826660e-01 2.105497360229492188e+00 4.488142430782318115e-01 -9.559293985366821289e-01
1.756000000000000000e+03 3.951665878295898438e+01 -2.996134757995605469e+01 -4.533081948757171631e-01 7.379057407379150391e+00 2.077724695205688477e+00 1.288041919469833374e-01
1.757000000000000000e+03 3.537738800048828125e+01 -3.046825218200683594e+01 -5.892925858497619629e-01 5.705268859863281250e+00 1.534792780876159668e+00 1.360396146774291992e+00
1.758000000000000000e+03 1.398705196380615234e+01 3.222183942794799805e+00 -9.332808852195739746e-01 1.176291751861572266e+01 3.248890876770019531e+00 -9.527994394302368164e-01
1.759000000000000000e+03 1.486174106597900391e+01 6.574236869812011719e+00 -8.447262644767761230e-01 9.512018203735351562e+00 2.600187540054321289e+00 -2.910988628864288330e-01
1.760000000000000000e+03 1.632949256896972656e+01 1.755780601501464844e+01 1.391267895698547363e+00 9.453387260437011719e+00 3.253396511077880859e+00 2.283420562744140625e-01
1.761000000000000000e+03 1.530584335327148438e+01 1.782919311523437500e+01 1.279433846473693848e+00 8.229631423950195312e+00 2.852719783782958984e+00 -3.001796603202819824e-01
1.762000000000000000e+03 9.399828910827636719e+00 -1.606790351867675781e+01 1.750506520271301270e+00 8.243573188781738281e+00 2.998224020004272461e+00 5.468032360076904297e-01
1.763000000000000000e+03 4.122484207153320312e+00 -1.812980461120605469e+01 6.388195753097534180e-01 2.501246690750122070e+00 9.420198798179626465e-01 6.404821872711181641e-01
1.764000000000000000e+03 4.588776779174804688e+01 -2.690164089202880859e+00 -2.895463109016418457e-01 9.079782485961914062e+00 2.637070655822753906e+00 6.287338584661483765e-02
1.765000000000000000e+03 7.125228118896484375e+01 -1.613006973266601562e+01 1.559387564659118652e+00 1.014613056182861328e+01 3.511655330657958984e+00 2.333894819021224976e-01
1.766000000000000000e+03 4.386542510986328125e+01 1.047967529296875000e+01 7.208685874938964844e-01 1.043329048156738281e+01 3.346247673034667969e+00 1.384468823671340942e-01
1.767000000000000000e+03 7.169431304931640625e+01 1.474109268188476562e+01 1.499060392379760742e+00 9.298334121704101562e+00 3.239218235015869141e+00 1.727512329816818237e-01
1.768000000000000000e+03 3.367830276489257812e+01 -3.450817108154296875e+01 -1.045023918151855469e+00 3.820699453353881836e+00 8.327026367187500000e-01 1.288833737373352051e+00
1.769000000000000000e+03 4.569395446777343750e+01 -8.338089942932128906e+00 -1.489858388900756836e+00 8.652545928955078125e+00 2.148806095123291016e+00 1.134660601615905762e+00
1.770000000000000000e+03 4.183036804199218750e+01 -9.459372520446777344e+00 -7.884539365768432617e-01 7.939909458160400391e+00 2.145436763763427734e+00 1.299418449401855469e+00
1.771000000000000000e+03 7.416442871093750000e+01 9.424301147460937500e+00 1.929264515638351440e-01 7.972051620483398438e+00 2.449493408203125000e+00 -6.111824512481689453e-01
1.772000000000000000e+03 3.861008071899414062e+01 -2.866287994384765625e+01 1.036095805466175079e-02 7.640031337738037109e+00 2.295117616653442383e+00 2.625513076782226562e-01
1.773000000000000000e+03 5.311939620971679688e+01 -3.465794801712036133e+00 1.351423740386962891e+00 4.940854310989379883e-01 5.536527633666992188e-01 -1.047564484179019928e-02
1.774000000000000000e+03 1.586612701416015625e+01 -3.250791168212890625e+01 -8.865711688995361328e-01 1.735414624214172363e+00 2.546530365943908691e-01 -4.304334223270416260e-01
1.775000000000000000e+03 6.523248291015625000e+01 -8.440367698669433594e+00 -2.491446137428283691e-01 3.564866304397583008e+00 9.947164654731750488e-01 -1.179671287536621094e+00
1.776000000000000000e+03 6.473592376708984375e+01 -7.095307350158691406e+00 -6.230394542217254639e-02 3.183416843414306641e+00 9.363338351249694824e-01 -9.579456448554992676e-01
1.777000000000000000e+03 4.670460128784179688e+01 -9.159214019775390625e+00 -9.574670791625976562e-01 8.242239952087402344e+00 2.185431718826293945e+00 1.406457901000976562e+00
1.778000000000000000e+03 4.267129516601562500e+01 -6.911262512207031250e+00 -1.958396434783935547e+00 8.877518653869628906e+00 2.075736761093139648e+00 1.394406199455261230e+00
1.779000000000000000e+03 5.688736343383789062e+01 -4.517074108123779297e+00 7.244029045104980469e-01 -5.063521862030029297e-02 2.021303027868270874e-01 -2.662362456321716309e-01
1.780000000000000000e+03 5.727412033081054688e+01 -1.805146455764770508e+00 1.335429668426513672e+00 5.652100220322608948e-02 4.175851941108703613e-01 2.067070454359054565e-02
1.781000000000000000e+03 7.109232330322265625e+01 9.439530372619628906e+00 2.596805691719055176e-01 8.451247215270996094e+00 2.613278388977050781e+00 -1.762745678424835205e-01
1.782000000000000000e+03 5.783056735992431641e+00 -2.312468528747558594e+01 2.166116237640380859e-01 4.520457267761230469e+00 1.421120643615722656e+00 1.724940776824951172e+00
1.783000000000000000e+03 3.962045288085937500e+01 -2.783070945739746094e+01 4.533877670764923096e-01 7.827460289001464844e+00 2.484254360198974609e+00 6.759412586688995361e-02
1.784000000000000000e+03 3.782370376586914062e+01 -2.746746063232421875e+01 7.360950708389282227e-01 7.975421428680419922e+00 2.613455057144165039e+00 7.347036004066467285e-01
1.785000000000000000e+03 3.663736724853515625e+01 -3.164393615722656250e+01 -1.030108690261840820e+00 6.282129287719726562e+00 1.575606226921081543e+00 9.723652005195617676e-01
1.786000000000000000e+03 5.898783493041992188e+01 2.820466995239257812e+01 -7.823628187179565430e-02 1.382103800773620605e+00 3.911602497100830078e-01 8.568240404129028320e-01
1.787000000000000000e+03 4.037311172485351562e+01 -2.394312858581542969e+01 1.978550076484680176e+00 8.911146163940429688e+00 3.266908645629882812e+00 -9.060521423816680908e-02
1.788000000000000000e+03 2.411795997619628906e+01 2.762357711791992188e+01 -2.804270684719085693e-01 1.698576807975769043e+00 4.254449307918548584e-01 1.024591207504272461e+00
1.789000000000000000e+03 4.978735733032226562e+01 -3.676056671142578125e+01 -5.779425501823425293e-01 3.805377721786499023e+00 9.682305455207824707e-01 -1.162463068962097168e+00
1.790000000000000000e+03 3.989699172973632812e+01 -2.590371704101562500e+01 1.350295782089233398e+00 8.355531692504882812e+00 2.911748170852661133e+00 -7.988718338310718536e-03
1.791000000000000000e+03 3.904584503173828125e+01 -2.466816902160644531e+01 1.960513949394226074e+00 9.056182861328125000e+00 3.305009126663208008e+00 3.479014039039611816e-01
1.792000000000000000e+03 7.202535247802734375e+01 -7.046732902526855469e+00 -7.058870792388916016e-01 7.399384498596191406e+00 2.008049249649047852e+00 2.670784592628479004e-01
1.793000000000000000e+03 7.053504180908203125e+01 -1.509388637542724609e+01 1.389588713645935059e+00 1.005718612670898438e+01 3.434032440185546875e+00 1.298108696937561035e-01
1.794000000000000000e+03 7.081916046142578125e+01 -1.158371257781982422e+01 -3.486582338809967041e-01 8.700633049011230469e+00 2.505592346191406250e+00 3.100043535232543945e-01
1.795000000000000000e+03 6.560666656494140625e+01 -3.780865097045898438e+01 2.432443499565124512e-01 3.781507730484008789e+00 1.207425594329833984e+00 4.111578464508056641e-01
1.796000000000000000e+03 6.158449172973632812e+01 -3.328595352172851562e+01 -6.629490107297897339e-02 1.348815441131591797e+00 3.847561478614807129e-01 5.441755056381225586e-01
1.797000000000000000e+03 6.761762237548828125e+01 2.465071678161621094e+01 -1.497104406356811523e+00 5.540967941284179688e+00 1.213158965110778809e+00 -1.561981916427612305e+00
1.798000000000000000e+03 4.503678512573242188e+01 -2.602436447143554688e+01 1.324818134307861328e+00 8.437985420227050781e+00 2.928840875625610352e+00 -1.457593441009521484e+00
1.799000000000000000e+03 4.159688949584960938e+01 -6.376580715179443359e+00 -1.943263769149780273e+00 8.344743728637695312e+00 1.920444011688232422e+00 1.906313180923461914e+00
1.800000000000000000e+03 4.292625045776367188e+01 -3.649611949920654297e+00 -1.289875149726867676e+00 1.027705669403076172e+01 2.696154356002807617e+00 1.570948958396911621e+00
1.801000000000000000e+03 8.022400856018066406e+00 -1.595106220245361328e+01 1.319122910499572754e+00 6.368659973144531250e+00 2.306334733963012695e+00 3.111599683761596680e-01
1.802000000000000000e+03 7.170491027832031250e+01 -1.445238590240478516e+01 7.855961918830871582e-01 9.217443466186523438e+00 3.000911712646484375e+00 6.775922775268554688e-01
1.803000000000000000e+03 8.601090431213378906e+00 -2.652887725830078125e+01 -8.801050186157226562e-01 5.387025356292724609e+00 1.352076172828674316e+00 1.077051639556884766e+00
1.804000000000000000e+03 4.434901428222656250e+01 -5.403337478637695312e+00 -1.831363558769226074e+00 9.312074661254882812e+00 2.244213342666625977e+00 8.692051768302917480e-01
1.805000000000000000e+03 4.837685394287109375e+01 -3.437831497192382812e+01 -8.577241301536560059e-01 4.791644096374511719e+00 1.180175900459289551e+00 -1.519134402275085449e+00
1.806000000000000000e+03 1.159710407257080078e+01 -2.801961517333984375e+01 -1.120389819145202637e+00 4.428862094879150391e+00 9.925416707992553711e-01 2.794756740331649780e-02
1.807000000000000000e+03 5.205029678344726562e+01 -2.191348552703857422e+00 1.598746538162231445e+00 1.041330933570861816e+00 7.920232415199279785e-01 -8.326656371355056763e-02
1.808000000000000000e+03 5.111249542236328125e+01 -2.632025003433227539e+00 1.307319402694702148e+00 2.038808822631835938e+00 1.003838539123535156e+00 -1.001176238059997559e-01
1.809000000000000000e+03 1.478696060180664062e+01 1.657859230041503906e+01 1.320098161697387695e+00 8.175152778625488281e+00 2.848575353622436523e+00 -2.878269553184509277e-01
1.810000000000000000e+03 4.037955093383789062e+01 -7.220433712005615234e+00 -1.493783593177795410e+00 6.702129840850830078e+00 1.562503933906555176e+00 1.860715746879577637e+00
1.811000000000000000e+03 4.299212646484375000e+01 -5.866550445556640625e+00 -1.962435722351074219e+00 9.202729225158691406e+00 2.172088146209716797e+00 1.353169441223144531e+00
1.812000000000000000e+03 6.732539367675781250e+01 -2.980514907836914062e+01 -9.606002569198608398e-01 5.196715354919433594e+00 1.270834445953369141e+00 7.852317690849304199e-01
1.813000000000000000e+03 1.040991783142089844e+01 -2.349593639373779297e+00 3.641155481338500977e+00 1.888273119926452637e+00 1.658828496932983398e+00 3.205162525177001953e+00
1.814000000000000000e+03 1.198401641845703125e+01 -2.589141130447387695e+00 3.923840284347534180e+00 7.741599082946777344e+00 3.499631881713867188e+00 6.115923881530761719e+00
1.815000000000000000e+03 1.076154518127441406e+01 1.920155167579650879e+00 1.044547080993652344e+00 2.696728944778442383e+00 1.122382760047912598e+00 -2.548967838287353516e+00
1.816000000000000000e+03 9.152240753173828125e+00 -2.983339786529541016e+00 2.205550193786621094e+00 1.377739667892456055e+00 1.074986934661865234e+00 2.214441537857055664e+00
1.817000000000000000e+03 9.725193023681640625e+00 -2.393123626708984375e+00 2.789966106414794922e+00 1.092584848403930664e+00 1.164765357971191406e+00 2.252018213272094727e+00
1.818000000000000000e+03 9.659209251403808594e+00 -2.977808952331542969e+00 2.605145692825317383e+00 1.777519583702087402e+00 1.314799547195434570e+00 2.752821683883666992e+00
1.819000000000000000e+03 1.084872150421142578e+01 -2.416633129119873047e+00 4.150026798248291016e+00 2.763554334640502930e+00 2.074074268341064453e+00 4.025172710418701172e+00
1.820000000000000000e+03 1.210366249084472656e+01 -3.021233797073364258e+00 2.918130397796630859e+00 8.396521568298339844e+00 3.394395589828491211e+00 5.566678047180175781e+00
1.821000000000000000e+03 1.295598506927490234e+01 -3.319075107574462891e+00 1.538893938064575195e+00 1.105871582031250000e+01 3.779282808303833008e+00 3.973549604415893555e+00
1.822000000000000000e+03 1.234157276153564453e+01 1.810545802116394043e+00 5.053896903991699219e-01 8.963221549987792969e+00 2.840583324432373047e+00 -4.197873115539550781e+00
1.823000000000000000e+03 8.558370590209960938e+00 -3.006032705307006836e+00 1.780573129653930664e+00 1.111686110496520996e+00 8.676777482032775879e-01 1.723221063613891602e+00
1.824000000000000000e+03 1.094600963592529297e+01 2.448220968246459961e+00 9.758438467979431152e-01 4.069480895996093750e+00 1.513597369194030762e+00 -2.889515161514282227e+00
1.825000000000000000e+03 8.282220840454101562e+00 3.802283763885498047e+00 6.554144024848937988e-01 1.466238975524902344e+00 6.364960074424743652e-01 -6.305973529815673828e-01
1.826000000000000000e+03 7.306465148925781250e+00 -3.843701362609863281e+00 1.091717839241027832e+00 1.168068051338195801e+00 6.779357790946960449e-01 1.279509663581848145e+00
1.827000000000000000e+03 1.120966815948486328e+01 -2.875251531600952148e+00 3.664080858230590820e+00 4.657509803771972656e+00 2.496477127075195312e+00 4.955263614654541016e+00
1.828000000000000000e+03 4.242657184600830078e+00 4.609082698822021484e+00 2.132261693477630615e-01 4.703406617045402527e-02 7.807806879281997681e-02 4.750744700431823730e-01
1.829000000000000000e+03 4.985301494598388672e+00 4.386630535125732422e+00 2.588459849357604980e-01 2.309187948703765869e-01 1.469294279813766479e-01 4.235857129096984863e-01
1.830000000000000000e+03 5.771729946136474609e+00 4.923674583435058594e+00 4.470204412937164307e-01 6.267872452735900879e-01 3.221423029899597168e-01 1.752216517925262451e-01
1.831000000000000000e+03 1.523187637329101562e+01 -2.817815303802490234e+00 4.009290218353271484e+00 1.039057445526123047e+01 4.319959640502929688e+00 -1.455500245094299316e+00
1.832000000000000000e+03 1.592470550537109375e+01 -5.163026809692382812e+00 1.164468407630920410e+00 7.029062271118164062e+00 2.458059310913085938e+00 -3.131814599037170410e-01
1.833000000000000000e+03 4.356426715850830078e+00 5.599550724029541016e+00 3.141585886478424072e-01 1.674269884824752808e-01 1.444756835699081421e-01 3.620109260082244873e-01
1.834000000000000000e+03 1.678434753417968750e+01 -5.445017218589782715e-01 6.120949268341064453e+00 7.215675354003906250e+00 4.000987529754638672e+00 -2.094331234693527222e-01
1.835000000000000000e+03 6.394395351409912109e+00 4.746558189392089844e+00 5.240349769592285156e-01 8.253088593482971191e-01 4.048031270503997803e-01 2.092483453452587128e-02
1.836000000000000000e+03 1.787492942810058594e+01 -4.310795962810516357e-01 5.094304084777832031e+00 5.636982440948486328e+00 3.219386100769042969e+00 -7.120463252067565918e-01
1.837000000000000000e+03 6.997786521911621094e+00 4.698967933654785156e+00 5.900578498840332031e-01 1.078558325767517090e+00 5.005848407745361328e-01 -1.548431366682052612e-01
1.838000000000000000e+03 8.534475326538085938e+00 4.284122467041015625e+00 7.164267897605895996e-01 1.915302515029907227e+00 7.895187735557556152e-01 -8.049554824829101562e-01
1.839000000000000000e+03 7.591907024383544922e+00 4.734029769897460938e+00 6.548821330070495605e-01 1.480709433555603027e+00 6.406774520874023438e-01 -3.973308205604553223e-01
1.840000000000000000e+03 1.641286659240722656e+01 9.564429521560668945e-01 4.357962131500244141e+00 9.170037269592285156e+00 4.058399677276611328e+00 1.433430552482604980e+00
1.841000000000000000e+03 4.443575382232666016e+00 -4.706046104431152344e+00 3.036311268806457520e-01 6.009781360626220703e-01 2.713827788829803467e-01 2.064201235771179199e-01
1.842000000000000000e+03 1.140559577941894531e+01 2.747813701629638672e+00 6.671978235244750977e-01 5.690217971801757812e+00 1.907224774360656738e+00 -3.177193164825439453e+00
1.843000000000000000e+03 6.239373683929443359e+00 -5.038368701934814453e+00 5.763268470764160156e-01 1.390185952186584473e+00 5.899538397789001465e-01 9.721044301986694336e-01
1.844000000000000000e+03 1.378703022003173828e+01 -3.645718336105346680e+00 1.119693756103515625e+00 1.142815494537353516e+01 3.764354705810546875e+00 2.227468252182006836e+00
1.845000000000000000e+03 7.966607570648193359e+00 -3.724251031875610352e+00 1.370811581611633301e+00 1.388679504394531250e+00 8.278473019599914551e-01 1.678418993949890137e+00
1.846000000000000000e+03 1.671952819824218750e+01 4.530213356018066406e+00 -5.568307638168334961e-01 9.822971343994140625e+00 2.779842138290405273e+00 5.322897434234619141e-01
1.847000000000000000e+03 1.489007377624511719e+01 2.845510244369506836e+00 -3.037184774875640869e-01 1.213615131378173828e+01 3.549729824066162109e+00 3.245478868484497070e-01
1.848000000000000000e+03 8.134501457214355469e+00 4.906466007232666016e+00 6.882840991020202637e-01 1.918334722518920898e+00 7.819856405258178711e-01 -6.513770818710327148e-01
1.849000000000000000e+03 1.441369819641113281e+01 -1.051406574249267578e+01 -3.225451469421386719e+00 4.253733634948730469e+00 3.084846138954162598e-01 3.398161888122558594e+00
1.850000000000000000e+03 1.162129211425781250e+01 -1.047865390777587891e+01 -2.725367069244384766e+00 7.400245189666748047e+00 1.402463436126708984e+00 2.687734603881835938e+00
1.851000000000000000e+03 1.720177268981933594e+01 -8.589440345764160156e+00 -8.224527835845947266e-01 2.339473247528076172e+00 4.551061689853668213e-01 2.192162275314331055e-01
1.852000000000000000e+03 5.153857707977294922e+00 -1.090328311920166016e+01 -3.179931640625000000e-01 2.835719823837280273e+00 7.553180456161499023e-01 2.290329635143280029e-01
1.853000000000000000e+03 2.288531494140625000e+01 -9.842264175415039062e+00 -2.790566086769104004e-01 1.088757514953613281e+00 2.429102957248687744e-01 -1.857717871665954590e+00
1.854000000000000000e+03 6.041804504394531250e+01 -6.635469913482666016e+00 2.455569803714752197e-01 7.057675719261169434e-01 2.853973805904388428e-01 -3.287264108657836914e-01
1.855000000000000000e+03 2.440295410156250000e+01 -6.106572151184082031e+00 2.360273361206054688e+00 1.423084616661071777e+00 1.135007381439208984e+00 -2.542932033538818359e+00
1.856000000000000000e+03 4.679214859008789062e+01 -5.962634086608886719e+00 -1.464179158210754395e+00 7.683060169219970703e+00 1.865664243698120117e+00 8.288522362709045410e-01
1.857000000000000000e+03 3.424218368530273438e+01 -1.375968551635742188e+01 2.528866291046142578e+00 4.670564174652099609e+00 2.159829139709472656e+00 -2.713521003723144531e+00
1.858000000000000000e+03 4.579718017578125000e+01 5.753342628479003906e+00 1.381379246711730957e+00 1.238228893280029297e+01 4.129100799560546875e+00 8.417725563049316406e-01
1.859000000000000000e+03 4.093142318725585938e+01 1.819505310058593750e+01 -1.913082897663116455e-01 4.388380527496337891e+00 1.259121656417846680e+00 -1.081884264945983887e+00
1.860000000000000000e+03 4.114964675903320312e+01 1.989995765686035156e+01 -4.481931924819946289e-01 4.373567104339599609e+00 1.177612185478210449e+00 -1.041322946548461914e+00
1.861000000000000000e+03 4.293057250976562500e+01 -8.830772399902343750e+00 -1.301980972290039062e+00 8.644174575805664062e+00 2.202658176422119141e+00 1.263586759567260742e+00
1.862000000000000000e+03 4.171380615234375000e+01 -1.857834625244140625e+01 2.478028535842895508e+00 9.376467704772949219e+00 3.556348800659179688e+00 -1.511529181152582169e-02
1.863000000000000000e+03 3.704983520507812500e+01 -1.514652252197265625e+01 2.627791404724121094e+00 7.365488052368164062e+00 2.997983694076538086e+00 -1.124471902847290039e+00
1.864000000000000000e+03 3.899024581909179688e+01 -1.700224113464355469e+01 2.780160903930664062e+00 8.406906127929687500e+00 3.356120109558105469e+00 -3.630880713462829590e-01
1.865000000000000000e+03 4.226946258544921875e+01 -2.183377075195312500e+01 2.469786882400512695e+00 9.379233360290527344e+00 3.554706096649169922e+00 -6.076874136924743652e-01
1.866000000000000000e+03 5.769645309448242188e+01 -5.887563228607177734e+00 3.145790696144104004e-01 6.658565253019332886e-02 1.143494173884391785e-01 -2.239118218421936035e-01
1.867000000000000000e+03 5.826491546630859375e+01 -4.879068851470947266e+00 6.509914994239807129e-01 1.813666969537734985e-01 2.497074604034423828e-01 -2.364502996206283569e-01
1.868000000000000000e+03 7.067414093017578125e+01 7.654910564422607422e+00 -1.277314424514770508e-01 7.866128444671630859e+00 2.321519136428833008e+00 -3.078712895512580872e-02
1.869000000000000000e+03 6.859188842773437500e+01 6.295683383941650391e+00 -2.588242292404174805e-01 6.806060314178466797e+00 1.964170932769775391e+00 7.431212663650512695e-01
1.870000000000000000e+03 2.792656517028808594e+01 -9.143865585327148438e+00 8.468912839889526367e-01 1.706242322921752930e+00 7.659400701522827148e-01 -3.024774551391601562e+00
1.871000000000000000e+03 1.629392623901367188e+01 9.185976028442382812e+00 9.612382948398590088e-02 9.928951263427734375e+00 3.007522583007812500e+00 -1.726624071598052979e-01
1.872000000000000000e+03 1.665699005126953125e+01 8.172396659851074219e+00 -2.608270049095153809e-01 9.956197738647460938e+00 2.908611297607421875e+00 -7.633545994758605957e-02
1.873000000000000000e+03 2.542860031127929688e+00 5.973984241485595703e+00 1.589021682739257812e-01 -4.393544495105743408e-01 -8.413568139076232910e-02 3.850131928920745850e-01
1.874000000000000000e+03 1.612008857727050781e+01 7.275599956512451172e+00 -6.246280670166015625e-01 9.882090568542480469e+00 2.777238845825195312e+00 4.343475401401519775e-02
1.875000000000000000e+03 4.455258941650390625e+01 1.452847099304199219e+01 2.906771302223205566e-01 8.111631393432617188e+00 2.520692586898803711e+00 1.946634799242019653e-01
1.876000000000000000e+03 6.428012847900390625e+01 1.107860922813415527e+00 2.633070051670074463e-01 3.004297494888305664e+00 9.802813529968261719e-01 5.745333433151245117e-01
1.877000000000000000e+03 1.750523948669433594e+01 -9.471936225891113281e+00 -1.488882422447204590e+00 1.169028520584106445e+00 -9.595618396997451782e-02 1.563864201307296753e-01
1.878000000000000000e+03 1.543560123443603516e+01 -1.025047492980957031e+01 -2.761648178100585938e+00 2.561798810958862305e+00 -5.995478108525276184e-02 2.455025672912597656e+00
1.879000000000000000e+03 1.435239315032958984e+01 -9.544543266296386719e+00 -2.554450750350952148e+00 4.817701339721679688e+00 6.789751648902893066e-01 3.065226793289184570e+00
1.880000000000000000e+03 1.952446746826171875e+01 -3.587124586105346680e+00 3.661070585250854492e+00 3.023651599884033203e+00 2.005416631698608398e+00 -2.408478021621704102e+00
1.881000000000000000e+03 6.028900527954101562e+01 -7.769052386283874512e-01 9.497967958450317383e-01 8.596810698509216309e-01 5.428434014320373535e-01 1.439413726329803467e-01
1.882000000000000000e+03 6.587236785888671875e+01 -6.440955162048339844e+00 -2.758603990077972412e-01 4.002030849456787109e+00 1.117851257324218750e+00 -8.438193798065185547e-01
1.883000000000000000e+03 3.726335525512695312e+01 -9.632245063781738281e+00 4.148495793342590332e-01 4.294849872589111328e+00 1.412909865379333496e+00 7.970263808965682983e-02
1.884000000000000000e+03 6.155680465698242188e+01 -7.308167457580566406e+00 1.787601709365844727e-01 1.037118196487426758e+00 3.647634983062744141e-01 -4.843728244304656982e-01
1.885000000000000000e+03 6.439740753173828125e+01 -2.201563358306884766e+00 2.300999313592910767e-01 3.032750844955444336e+00 9.788551926612854004e-01 -5.645383521914482117e-02
1.886000000000000000e+03 4.608718490600585938e+01 1.564004325866699219e+01 4.624425470829010010e-01 8.315729141235351562e+00 2.633451461791992188e+00 8.432657122611999512e-01
1.887000000000000000e+03 7.380581665039062500e+01 2.682448005676269531e+01 -6.942261457443237305e-01 8.002095222473144531e+00 2.192360877990722656e+00 2.402897626161575317e-01
1.888000000000000000e+03 7.324089813232421875e+01 -3.205315017700195312e+01 -5.276761651039123535e-01 7.286313533782958984e+00 2.027591228485107422e+00 -1.723679304122924805e-01
1.889000000000000000e+03 3.194845771789550781e+01 -1.091387462615966797e+01 1.444144248962402344e+00 1.924847364425659180e+00 1.010697484016418457e+00 -3.105114221572875977e+00
1.890000000000000000e+03 7.189691162109375000e+01 -3.171294212341308594e+01 -6.204980611801147461e-01 6.990720748901367188e+00 1.911066770553588867e+00 -4.539510607719421387e-02
1.891000000000000000e+03 7.508802032470703125e+01 -2.732888603210449219e+01 -3.712793588638305664e-01 7.834528923034667969e+00 2.238974809646606445e+00 -8.859180808067321777e-01
1.892000000000000000e+03 7.537687683105468750e+01 2.539510345458984375e+01 -4.521145522594451904e-01 8.273315429687500000e+00 2.346360206604003906e+00 5.830651521682739258e-01
1.893000000000000000e+03 7.373162078857421875e+01 2.001136589050292969e+01 2.469326406717300415e-01 8.588891983032226562e+00 2.650747299194335938e+00 1.167494535446166992e+00
1.894000000000000000e+03 7.457275390625000000e+01 2.069060134887695312e+01 1.424150168895721436e-01 8.207513809204101562e+00 2.504978656768798828e+00 1.112642288208007812e+00
1.895000000000000000e+03 7.148490142822265625e+01 -2.248638916015625000e+01 6.148515343666076660e-01 9.157810211181640625e+00 2.931798696517944336e+00 -9.159927964210510254e-01
1.896000000000000000e+03 7.568373870849609375e+01 -2.073589706420898438e+01 5.861990451812744141e-01 7.284370899200439453e+00 2.361171007156372070e+00 -7.000343203544616699e-01
1.897000000000000000e+03 7.459003448486328125e+01 -2.203989791870117188e+01 5.693621635437011719e-01 7.849023342132568359e+00 2.525515556335449219e+00 -1.034170269966125488e+00
1.898000000000000000e+03 1.809923744201660156e+01 -6.337131977081298828e+00 1.228050708770751953e+00 3.434103012084960938e+00 1.398646116256713867e+00 -1.319701552391052246e+00
1.899000000000000000e+03 7.524529266357421875e+01 1.274892330169677734e+01 5.149053335189819336e-01 7.781886577606201172e+00 2.489037513732910156e+00 -2.926615774631500244e-01
1.900000000000000000e+03 7.576403808593750000e+01 1.670255470275878906e+01 5.384336709976196289e-01 7.617616653442382812e+00 2.446815013885498047e+00 4.837166965007781982e-01
1.901000000000000000e+03 7.349347686767578125e+01 1.515512657165527344e+01 1.040328621864318848e+00 8.518518447875976562e+00 2.867654085159301758e+00 1.690652370452880859e-01
1.902000000000000000e+03 7.561476898193359375e+01 -1.311210346221923828e+01 1.697533279657363892e-01 7.436692237854003906e+00 2.281933784484863281e+00 9.239308834075927734e-01
1.903000000000000000e+03 7.381256103515625000e+01 -1.603761863708496094e+01 1.047095179557800293e+00 8.072363853454589844e+00 2.735837697982788086e+00 5.790909528732299805e-01
1.904000000000000000e+03 7.543185424804687500e+01 9.786396980285644531e+00 1.703273057937622070e-01 7.677809238433837891e+00 2.354440927505493164e+00 -6.596099138259887695e-01
1.905000000000000000e+03 7.407347869873046875e+01 -1.168996572494506836e+00 -4.000814557075500488e-01 7.389160633087158203e+00 2.096723794937133789e+00 -1.744196005165576935e-02
1.906000000000000000e+03 7.432502746582031250e+01 1.860668778419494629e+00 -3.434154987335205078e-01 7.503360748291015625e+00 2.147983551025390625e+00 -2.439901381731033325e-01
1.907000000000000000e+03 7.553050231933593750e+01 4.631031990051269531e+00 -2.393757253885269165e-01 7.698991298675537109e+00 2.237884759902954102e+00 -5.269477963447570801e-01
1.908000000000000000e+03 7.482131958007812500e+01 -6.862030029296875000e+00 -4.215732216835021973e-01 7.670613288879394531e+00 2.174711942672729492e+00 5.477796196937561035e-01
1.909000000000000000e+03 7.580921936035156250e+01 -6.602259159088134766e+00 -3.029122054576873779e-01 7.713337898254394531e+00 2.223127603530883789e+00 5.444666743278503418e-01
1.910000000000000000e+03 7.448980712890625000e+01 -3.719114065170288086e+00 -4.148284494876861572e-01 7.522114753723144531e+00 2.132185935974121094e+00 2.040934264659881592e-01
1.911000000000000000e+03 7.437576293945312500e+01 -5.010910034179687500e+00 -4.457913637161254883e-01 7.545640468597412109e+00 2.129954576492309570e+00 3.271648585796356201e-01
1.912000000000000000e+03 7.415982818603515625e+01 -6.142412185668945312e+00 -4.991300106048583984e-01 7.609760761260986328e+00 2.133189201354980469e+00 4.411871135234832764e-01
1.913000000000000000e+03 7.224035644531250000e+01 3.343360900878906250e+00 -4.827827513217926025e-01 7.236615180969238281e+00 2.026149749755859375e+00 -2.327060699462890625e-01
1.914000000000000000e+03 7.607878875732421875e+01 -1.055662631988525391e+01 -1.497654467821121216e-01 7.527975082397460938e+00 2.213462829589843750e+00 8.878012299537658691e-01
1.915000000000000000e+03 7.322953033447265625e+01 -1.065655803680419922e+01 -2.873106300830841064e-01 8.068114280700683594e+00 2.334241151809692383e+00 8.945614695549011230e-01
1.916000000000000000e+03 7.436189270019531250e+01 -1.248128128051757812e+01 1.296778172254562378e-01 7.899240970611572266e+00 2.408675670623779297e+00 1.037837862968444824e+00
1.917000000000000000e+03 7.424149322509765625e+01 -1.943356704711914062e+01 1.110830903053283691e+00 7.902047634124755859e+00 2.703863620758056641e+00 -4.223127961158752441e-01
1.918000000000000000e+03 7.439444732666015625e+01 -2.081006240844726562e+01 8.644152283668518066e-01 7.857275009155273438e+00 2.616507053375244141e+00 -7.799525856971740723e-01
1.919000000000000000e+03 7.561106872558593750e+01 -1.941485023498535156e+01 6.970281600952148438e-01 7.216263294219970703e+00 2.373987436294555664e+00 -3.615235090255737305e-01
1.920000000000000000e+03 7.541584777832031250e+01 1.797729682922363281e+01 5.029072165489196777e-01 7.908163547515869141e+00 2.523321151733398438e+00 7.842231392860412598e-01
1.921000000000000000e+03 7.189350891113281250e+01 1.840785980224609375e+01 1.068891167640686035e+00 9.532824516296386719e+00 3.180514812469482422e+00 7.233232259750366211e-01
1.922000000000000000e+03 7.283759307861328125e+01 1.758355522155761719e+01 1.115751624107360840e+00 8.755212783813476562e+00 2.961289167404174805e+00 8.239582180976867676e-01
1.923000000000000000e+03 7.349771118164062500e+01 -3.216714859008789062e+00 -4.900969564914703369e-01 7.298921585083007812e+00 2.042647361755371094e+00 1.117135137319564819e-01
1.924000000000000000e+03 7.179567718505859375e+01 -2.121272659301757812e+01 1.278304219245910645e+00 9.159905433654785156e+00 3.131462812423706055e+00 -7.205234766006469727e-01
1.925000000000000000e+03 7.412094879150390625e+01 6.092041015625000000e+00 -2.555193901062011719e-01 7.719879627227783203e+00 2.239308118820190430e+00 -5.998210906982421875e-01
1.926000000000000000e+03 7.432527160644531250e+01 4.642871379852294922e+00 -2.953565120697021484e-01 7.644563198089599609e+00 2.204761981964111328e+00 -4.540919065475463867e-01
1.927000000000000000e+03 7.521633911132812500e+01 2.820662689208984375e+01 -4.418064653873443604e-01 8.136307716369628906e+00 2.308350324630737305e+00 1.999276131391525269e-01
1.928000000000000000e+03 7.391722106933593750e+01 -2.673088455200195312e+01 -4.276206493377685547e-01 7.963557243347167969e+00 2.260781049728393555e+00 -9.183675050735473633e-01
1.929000000000000000e+03 7.205506896972656250e+01 -1.057440376281738281e+01 -4.550150036811828613e-01 8.252115249633789062e+00 2.339129924774169922e+00 6.218857765197753906e-01
1.930000000000000000e+03 7.448258209228515625e+01 1.451191425323486328e+01 7.894181609153747559e-01 8.071496963500976562e+00 2.658274412155151367e+00 1.074128672480583191e-01
1.931000000000000000e+03 7.278620910644531250e+01 1.410222530364990234e+01 1.094714999198913574e+00 8.930950164794921875e+00 3.007699489593505859e+00 1.641339510679244995e-01
1.932000000000000000e+03 7.430073547363281250e+01 2.401372718811035156e+01 -5.524128675460815430e-01 8.331667900085449219e+00 2.333776712417602539e+00 7.468250393867492676e-01
1.933000000000000000e+03 6.989123535156250000e+01 2.533508110046386719e+01 -1.424435734748840332e+00 7.219892501831054688e+00 1.738637089729309082e+00 -6.655784845352172852e-01
1.934000000000000000e+03 6.757739257812500000e+01 2.901225280761718750e+01 -5.113847851753234863e-01 4.900558471679687500e+00 1.316752076148986816e+00 -9.277136921882629395e-01
1.935000000000000000e+03 6.981172180175781250e+01 -3.196032905578613281e+01 -7.174773812294006348e-01 6.277226448059082031e+00 1.667924642562866211e+00 2.976727783679962158e-01
1.936000000000000000e+03 7.286894226074218750e+01 -3.382735061645507812e+01 -3.620946407318115234e-01 6.995291709899902344e+00 1.989959120750427246e+00 -2.222327142953872681e-02
1.937000000000000000e+03 7.055533409118652344e+00 -2.715340614318847656e+01 -7.291016578674316406e-01 4.840507030487060547e+00 1.233421564102172852e+00 1.286583423614501953e+00
1.938000000000000000e+03 7.272328186035156250e+01 2.906688690185546875e+01 -5.978564620018005371e-01 7.379157066345214844e+00 2.034390211105346680e+00 -1.903818696737289429e-01
1.939000000000000000e+03 7.382599639892578125e+01 2.960803031921386719e+01 -4.552741646766662598e-01 7.579286098480224609e+00 2.137203693389892578e+00 -1.049179136753082275e-01
1.940000000000000000e+03 4.444934082031250000e+01 1.327312564849853516e+01 3.880764544010162354e-01 8.664432525634765625e+00 2.715752840042114258e+00 2.675516605377197266e-01
1.941000000000000000e+03 4.441681861877441406e+00 -2.610170936584472656e+01 -2.372511178255081177e-01 3.935455322265625000e+00 1.109461307525634766e+00 1.468906760215759277e+00
1.942000000000000000e+03 7.715955734252929688e+00 -1.157585144042968750e+01 -8.258080482482910156e-01 5.476719379425048828e+00 1.395273447036743164e+00 6.051945090293884277e-01
1.943000000000000000e+03 4.976033210754394531e+00 -9.807600975036621094e+00 -2.845208048820495605e-01 2.467082262039184570e+00 6.547684669494628906e-01 3.074715435504913330e-01
1.944000000000000000e+03 5.648591995239257812e+00 2.903001403808593750e+01 -2.558163702487945557e-01 3.209145545959472656e+00 8.859987258911132812e-01 -8.265679478645324707e-01
1.945000000000000000e+03 4.818496227264404297e+00 2.289556503295898438e+01 -3.506594151258468628e-02 2.401993274688720703e+00 7.100781798362731934e-01 -1.069522380828857422e+00
1.946000000000000000e+03 6.616940975189208984e+00 2.463599014282226562e+01 -1.735925376415252686e-01 3.173473119735717773e+00 8.999641537666320801e-01 -1.178449988365173340e+00
1.947000000000000000e+03 5.009697437286376953e+00 -2.324433708190917969e+01 1.100827530026435852e-01 3.768499135971069336e+00 1.163574576377868652e+00 1.681298375129699707e+00
1.948000000000000000e+03 3.805288076400756836e+00 -1.950448608398437500e+01 4.684379100799560547e-01 2.372696638107299805e+00 8.523404002189636230e-01 9.606809616088867188e-01
1.949000000000000000e+03 6.479720592498779297e+00 -1.866327667236328125e+01 1.279370307922363281e+00 4.673530101776123047e+00 1.785870194435119629e+00 1.050465106964111328e+00
1.950000000000000000e+03 5.152929306030273438e+00 1.412720584869384766e+01 3.340016305446624756e-01 1.566472530364990234e+00 5.701422691345214844e-01 -6.104270815849304199e-01
1.951000000000000000e+03 5.431393146514892578e+00 1.692972946166992188e+01 2.958212792873382568e-01 1.965613961219787598e+00 6.784305572509765625e-01 -8.973550796508789062e-01
1.952000000000000000e+03 5.666907787322998047e+00 1.842100906372070312e+01 2.240409851074218750e-01 2.261257171630859375e+00 7.455894947052001953e-01 -1.043881297111511230e+00
1.953000000000000000e+03 1.004279518127441406e+01 -2.437977981567382812e+01 -5.384189486503601074e-01 6.465472698211669922e+00 1.778116106986999512e+00 6.802610158920288086e-01
1.954000000000000000e+03 6.246431827545166016e+00 -2.645145988464355469e+01 -5.181714892387390137e-01 4.612314224243164062e+00 1.228242754936218262e+00 1.509711861610412598e+00
1.955000000000000000e+03 6.292031288146972656e+00 2.622565650939941406e+01 -2.405091524124145508e-01 3.186433076858520508e+00 8.837772011756896973e-01 -1.064334392547607422e+00
1.956000000000000000e+03 6.225934028625488281e+00 3.089347267150878906e+01 -2.989667057991027832e-01 3.383473634719848633e+00 9.253520369529724121e-01 -7.211671471595764160e-01
1.957000000000000000e+03 6.273859977722167969e+00 -2.018589401245117188e+01 9.532066583633422852e-01 4.653452873229980469e+00 1.681997776031494141e+00 1.424078345298767090e+00
1.958000000000000000e+03 7.605819225311279297e+00 -2.019386100769042969e+01 1.235132932662963867e+00 6.020808696746826172e+00 2.176782608032226562e+00 1.448765754699707031e+00
1.959000000000000000e+03 4.379729270935058594e+00 -1.239245986938476562e+01 -6.543064117431640625e-02 2.453451871871948242e+00 7.164063453674316406e-01 -5.434194579720497131e-02
1.960000000000000000e+03 9.454687118530273438e+00 -1.292952442169189453e+01 -7.749786376953125000e-01 7.703350067138671875e+00 2.078511476516723633e+00 5.505238771438598633e-01
1.961000000000000000e+03 6.311635494232177734e+00 3.313632202148437500e+01 -2.904150784015655518e-01 3.456552982330322266e+00 9.498413205146789551e-01 -5.423274636268615723e-01
1.962000000000000000e+03 5.649017333984375000e+00 2.125587844848632812e+01 6.425556540489196777e-02 2.494050979614257812e+00 7.674919962882995605e-01 -1.132190823554992676e+00
1.963000000000000000e+03 8.198773384094238281e+00 -3.569046020507812500e+01 -4.972767233848571777e-01 3.804440975189208984e+00 9.921492338180541992e-01 2.271963655948638916e-01
1.964000000000000000e+03 5.484912872314453125e+00 -2.561358261108398438e+01 -3.166317939758300781e-01 4.382363796234130859e+00 1.219719648361206055e+00 1.602043151855468750e+00
1.965000000000000000e+03 4.263392448425292969e+00 -6.702448368072509766e+00 1.113457456231117249e-01 1.158573031425476074e+00 3.809756338596343994e-01 3.642287254333496094e-01
1.966000000000000000e+03 4.103612518310546875e+01 -1.956184005737304688e+01 2.511263847351074219e+00 9.301426887512207031e+00 3.543807029724121094e+00 -2.584864497184753418e-01
1.967000000000000000e+03 4.246205902099609375e+01 -1.788407897949218750e+01 2.143835306167602539e+00 9.559609413146972656e+00 3.511033296585083008e+00 2.476852238178253174e-01
1.968000000000000000e+03 3.907558917999267578e+00 1.012786388397216797e+01 2.725677490234375000e-01 4.483222365379333496e-01 2.162670046091079712e-01 -1.219409480690956116e-01
1.969000000000000000e+03 4.987808227539062500e+00 1.007904052734375000e+01 3.694845139980316162e-01 1.089028835296630859e+00 4.375540018081665039e-01 -2.077358067035675049e-01
1.970000000000000000e+03 5.050934314727783203e+00 8.702474594116210938e+00 4.114815294742584229e-01 9.541489481925964355e-01 4.096891283988952637e-01 -8.408814668655395508e-02
1.971000000000000000e+03 7.102155303955078125e+01 3.283748245239257812e+01 -1.207794845104217529e-01 6.295111656188964844e+00 1.852299690246582031e+00 -4.673350155353546143e-01
1.972000000000000000e+03 3.613038253784179688e+01 -1.491369724273681641e+01 2.807776927947998047e+00 6.541845798492431641e+00 2.804886817932128906e+00 -1.675641655921936035e+00
1.973000000000000000e+03 3.834713363647460938e+01 -9.616860389709472656e+00 1.157810762524604797e-01 5.250444412231445312e+00 1.609867572784423828e+00 5.449881553649902344e-01
1.974000000000000000e+03 7.281856536865234375e+01 1.603038978576660156e+01 1.306164026260375977e+00 8.710257530212402344e+00 3.004926443099975586e+00 5.438054203987121582e-01
1.975000000000000000e+03 5.961395740509033203e+00 -1.390407466888427734e+01 2.920482158660888672e-01 4.032193183898925781e+00 1.297272443771362305e+00 -2.137352153658866882e-02
1.976000000000000000e+03 4.024485111236572266e+00 -7.632971763610839844e+00 -5.046382080763578415e-03 1.260202050209045410e+00 3.765466809272766113e-01 2.941316664218902588e-01
1.977000000000000000e+03 4.897189140319824219e+00 -7.839951992034912109e+00 -7.202955335378646851e-02 1.907137155532836914e+00 5.505322813987731934e-01 5.380615592002868652e-01
1.978000000000000000e+03 4.616544723510742188e+00 -5.891791343688964844e+00 2.398050129413604736e-01 1.081644654273986816e+00 3.964349031448364258e-01 4.398680329322814941e-01
1.979000000000000000e+03 6.534577941894531250e+01 1.977937936782836914e+00 4.143423959612846375e-02 3.771434783935546875e+00 1.143860697746276855e+00 6.712729334831237793e-01
1.980000000000000000e+03 2.263151550292968750e+01 -6.750555038452148438e+00 1.894868969917297363e+00 1.401515364646911621e+00 9.889152646064758301e-01 -2.534439802169799805e+00
1.981000000000000000e+03 3.047610282897949219e+01 -7.494442462921142578e+00 9.408864378929138184e-01 1.690253853797912598e+00 7.893421053886413574e-01 -3.380862951278686523e+00
1.982000000000000000e+03 3.850716400146484375e+01 2.258160400390625000e+01 -6.375322937965393066e-01 2.997612714767456055e+00 7.080241441726684570e-01 -1.119561910629272461e+00
1.983000000000000000e+03 7.065370178222656250e+01 2.260766792297363281e+01 -9.279590845108032227e-01 8.599332809448242188e+00 2.301412105560302734e+00 6.095958948135375977e-01
1.984000000000000000e+03 3.251335144042968750e+01 2.577358627319335938e+01 -3.845373094081878662e-01 1.245638847351074219e+00 2.583304643630981445e-01 -6.290197968482971191e-01
1.985000000000000000e+03 4.477162933349609375e+01 -2.904142618179321289e+00 -6.741233468055725098e-01 9.747935295104980469e+00 2.722143650054931641e+00 3.407258093357086182e-01
1.986000000000000000e+03 6.827497863769531250e+01 -1.037162685394287109e+01 -5.526579022407531738e-01 7.037119388580322266e+00 1.945338487625122070e+00 -1.025219559669494629e+00
1.987000000000000000e+03 6.651190185546875000e+01 -7.666184902191162109e+00 -3.839818835258483887e-01 4.672684192657470703e+00 1.286610722541809082e+00 -1.055350303649902344e+00
1.988000000000000000e+03 3.379351425170898438e+01 2.327901077270507812e+01 -7.180236577987670898e-01 1.267616271972656250e+00 1.648777872323989868e-01 -7.154316306114196777e-01
1.989000000000000000e+03 3.098852729797363281e+01 2.621409606933593750e+01 -3.268100917339324951e-01 9.277269244194030762e-01 1.802750378847122192e-01 -3.729506134986877441e-01
1.990000000000000000e+03 5.125594711303710938e+01 -5.194161891937255859e+00 2.569739818572998047e-01 1.896638870239257812e+00 6.460838317871093750e-01 6.021384596824645996e-01
1.991000000000000000e+03 5.409273529052734375e+01 -4.786397457122802734e+00 8.734990358352661133e-01 9.664246439933776855e-02 2.910424470901489258e-01 -2.009399607777595520e-02
1.992000000000000000e+03 4.249337387084960938e+01 -1.236237525939941406e+01 7.215414047241210938e-01 8.438859939575195312e+00 2.748120307922363281e+00 1.047406077384948730e+00
1.993000000000000000e+03 3.937693786621093750e+01 -8.404252052307128906e+00 -6.850860118865966797e-01 5.833170413970947266e+00 1.544425368309020996e+00 1.207871079444885254e+00
1.994000000000000000e+03 3.975185012817382812e+01 2.029239082336425781e+01 -4.785265922546386719e-01 3.582285404205322266e+00 9.311276078224182129e-01 -1.141565680503845215e+00
1.995000000000000000e+03 4.286118698120117188e+01 -1.712912750244140625e+01 1.943498849868774414e+00 9.844864845275878906e+00 3.536509037017822266e+00 5.409594178199768066e-01
1.996000000000000000e+03 5.377493667602539062e+01 -2.617616653442382812e+00 1.523520469665527344e+00 2.641092240810394287e-01 5.362889170646667480e-01 5.333576351404190063e-02
1.997000000000000000e+03 5.284002685546875000e+01 -4.610796928405761719e+00 8.476094603538513184e-01 5.299441814422607422e-01 4.132660925388336182e-01 8.043113350868225098e-02
1.998000000000000000e+03 4.552548599243164062e+01 1.299724864959716797e+01 5.696448087692260742e-01 9.511197090148925781e+00 3.024252414703369141e+00 1.045886516571044922e+00
1.999000000000000000e+03 3.162258720397949219e+01 2.824724197387695312e+01 -1.606694906949996948e-01 1.336671948432922363e+00 3.528007268905639648e-01 -4.200527667999267578e-01
2.000000000000000000e+03 7.022538757324218750e+01 -2.810749053955078125e+01 -9.804132580757141113e-01 7.248096942901611328e+00 1.880305171012878418e+00 7.470758259296417236e-02
2.001000000000000000e+03 6.640674591064453125e+01 2.801898956298828125e+00 -1.526394933462142944e-01 4.626800060272216797e+00 1.342248201370239258e+00 7.743537425994873047e-01
2.002000000000000000e+03 6.961159515380859375e+01 -1.046795463562011719e+01 -7.315441966056823730e-01 8.088353157043457031e+00 2.207042455673217773e+00 -3.340969979763031006e-01
2.003000000000000000e+03 6.860631561279296875e+01 -9.096859931945800781e+00 -8.676011562347412109e-01 6.768756866455078125e+00 1.770346760749816895e+00 -7.387549281120300293e-01
2.004000000000000000e+03 6.957419586181640625e+01 -1.161179637908935547e+01 -3.943288028240203857e-01 8.596093177795410156e+00 2.460529327392578125e+00 -1.915859729051589966e-01
2.005000000000000000e+03 7.314630126953125000e+01 -1.192062377929687500e+01 -5.547864362597465515e-02 8.234263420104980469e+00 2.453635454177856445e+00 8.979134559631347656e-01
2.006000000000000000e+03 7.186139678955078125e+01 -1.705515670776367188e+01 1.789359927177429199e+00 9.433081626892089844e+00 3.366732597351074219e+00 3.603400588035583496e-01
2.007000000000000000e+03 7.225925445556640625e+01 -1.552240753173828125e+01 1.284711480140686035e+00 9.006318092346191406e+00 3.087308883666992188e+00 6.583732366561889648e-01
2.008000000000000000e+03 4.369469451904296875e+01 -3.224435091018676758e+00 -1.194342374801635742e+00 1.049495315551757812e+01 2.790183067321777344e+00 9.047783613204956055e-01
2.009000000000000000e+03 6.894239807128906250e+01 -2.167058372497558594e+01 1.598584771156311035e+00 1.140222263336181641e+01 3.900242328643798828e+00 5.338330864906311035e-01
2.010000000000000000e+03 2.679917526245117188e+01 2.704609489440917969e+01 -1.612911224365234375e-01 8.746149539947509766e-01 2.139971554279327393e-01 4.570589959621429443e-01
2.011000000000000000e+03 4.240089035034179688e+01 -4.393681526184082031e+00 -1.620498776435852051e+00 9.414380073547363281e+00 2.338164329528808594e+00 1.460199594497680664e+00
2.012000000000000000e+03 1.214243888854980469e+01 1.407306480407714844e+01 9.355766177177429199e-01 6.197396755218505859e+00 2.139891862869262695e+00 -6.042712330818176270e-01
2.013000000000000000e+03 4.895437622070312500e+01 -3.917134761810302734e+00 1.178617123514413834e-02 5.107353687286376953e+00 1.535741925239562988e+00 1.201579123735427856e-01
2.014000000000000000e+03 1.859199714660644531e+01 2.710369825363159180e+00 1.227865219116210938e+00 6.826205730438232422e+00 2.416221141815185547e+00 1.842355579137802124e-01
2.015000000000000000e+03 7.431369018554687500e+01 -2.564826774597167969e+01 -2.462627142667770386e-01 7.976899623870849609e+00 2.319190979003906250e+00 -1.055440425872802734e+00
2.016000000000000000e+03 5.687594604492187500e+01 2.948114585876464844e+01 -1.563734859228134155e-01 2.105068922042846680e+00 5.846086144447326660e-01 1.196090698242187500e+00
2.017000000000000000e+03 1.482458209991455078e+01 1.094670009613037109e+01 5.569118857383728027e-01 8.950755119323730469e+00 2.852300167083740234e+00 -2.458394467830657959e-01
2.018000000000000000e+03 5.002238464355468750e+01 2.547914505004882812e+01 -1.245838761329650879e+00 4.925976276397705078e+00 1.104041337966918945e+00 1.101355433464050293e+00
2.019000000000000000e+03 4.870089721679687500e+01 2.281879806518554688e+01 -8.196559548377990723e-01 5.953732490539550781e+00 1.540223002433776855e+00 6.378843188285827637e-01
2.020000000000000000e+03 4.070946884155273438e+01 -1.601178741455078125e+01 2.306516647338867188e+00 8.410639762878417969e+00 3.215146780014038086e+00 3.060761392116546631e-01
2.021000000000000000e+03 1.506381607055664062e+01 1.923213577270507812e+01 9.978624582290649414e-01 7.383193492889404297e+00 2.514316797256469727e+00 -6.324042677879333496e-01
2.022000000000000000e+03 1.419876384735107422e+01 2.121864128112792969e+01 2.335497923195362091e-02 6.604775428771972656e+00 1.988439083099365234e+00 -9.746679067611694336e-01
2.023000000000000000e+03 2.488092041015625000e+01 -7.062057971954345703e+00 1.748265743255615234e+00 1.512242078781127930e+00 9.781523942947387695e-01 -2.460983753204345703e+00
2.024000000000000000e+03 2.371106529235839844e+01 -5.084407329559326172e+00 2.893695831298828125e+00 1.360303759574890137e+00 1.276199936866760254e+00 -2.579001903533935547e+00
2.025000000000000000e+03 2.656803321838378906e+01 -1.065856361389160156e+01 2.937177717685699463e-01 1.215642213821411133e+00 4.528079926967620850e-01 -2.364057302474975586e+00
2.026000000000000000e+03 4.475172424316406250e+01 1.588989067077636719e+01 2.241798788309097290e-01 7.505173683166503906e+00 2.318805932998657227e+00 8.176026493310928345e-02
2.027000000000000000e+03 2.080573081970214844e+01 -5.860418081283569336e-01 3.676120758056640625e+00 2.413346052169799805e+00 1.826840043067932129e+00 -1.930298089981079102e+00
2.028000000000000000e+03 2.159384536743164062e+01 -1.702857136726379395e+00 3.732658147811889648e+00 1.718733787536621094e+00 1.635417580604553223e+00 -2.329279422760009766e+00
2.029000000000000000e+03 7.238834381103515625e+01 2.654723739624023438e+01 -8.800534009933471680e-01 7.724834918975830078e+00 2.053434371948242188e+00 6.459882855415344238e-02
2.030000000000000000e+03 4.607374191284179688e+01 -2.096459716558456421e-01 8.970147967338562012e-01 9.596338272094726562e+00 3.148005962371826172e+00 -2.735294029116630554e-02
2.031000000000000000e+03 2.399863433837890625e+01 -9.618313789367675781e+00 -1.135660056024789810e-02 1.224738836288452148e+00 3.640146553516387939e-01 -2.055032491683959961e+00
2.032000000000000000e+03 2.407480430603027344e+01 -1.083941555023193359e+01 -5.576857924461364746e-01 1.001972079277038574e+00 1.332858800888061523e-01 -1.657747745513916016e+00
2.033000000000000000e+03 6.605155181884765625e+01 2.956789588928222656e+01 -1.850717514753341675e-01 3.919145345687866211e+00 1.120222091674804688e+00 -8.668482899665832520e-01
2.034000000000000000e+03 6.445003509521484375e+01 2.926192092895507812e+01 -2.516038157045841217e-02 3.087453842163085938e+00 9.186880588531494141e-01 -7.472621798515319824e-01
2.035000000000000000e+03 6.905361938476562500e+01 -2.835605239868164062e+01 -9.773488640785217285e-01 6.692541122436523438e+00 1.714557647705078125e+00 4.076702892780303955e-01
2.036000000000000000e+03 5.282202529907226562e+01 2.841296005249023438e+01 -8.655308485031127930e-01 3.421215534210205078e+00 7.667053937911987305e-01 1.531400918960571289e+00
2.037000000000000000e+03 6.352623367309570312e+01 -7.543028831481933594e+00 1.084842905402183533e-01 2.167248964309692383e+00 6.827199459075927734e-01 -8.403858542442321777e-01
2.038000000000000000e+03 6.415368652343750000e+01 -6.590543389320373535e-01 3.032893836498260498e-01 2.869356155395507812e+00 9.517936706542968750e-01 2.577851712703704834e-01
2.039000000000000000e+03 4.666032791137695312e+01 1.810143280029296875e+01 2.321145832538604736e-01 7.458205223083496094e+00 2.307096004486083984e+00 5.912968516349792480e-01
2.040000000000000000e+03 4.559807968139648438e+01 1.857215118408203125e+01 -1.191153004765510559e-02 6.747732162475585938e+00 2.020746231079101562e+00 4.240141808986663818e-02
2.041000000000000000e+03 6.888490200042724609e+00 1.805950164794921875e+01 3.486541509628295898e-01 2.828069686889648438e+00 9.530171751976013184e-01 -1.105886101722717285e+00
2.042000000000000000e+03 1.332424163818359375e+01 1.474007701873779297e+01 1.094242572784423828e+00 7.192836761474609375e+00 2.486123800277709961e+00 -4.977605044841766357e-01
2.043000000000000000e+03 4.237614440917968750e+01 1.800073623657226562e+01 -1.845653802156448364e-01 5.426628112792968750e+00 1.572618842124938965e+00 -8.279690742492675781e-01
2.044000000000000000e+03 4.352122879028320312e+01 -1.260467243194580078e+01 8.560457229614257812e-01 8.971632003784179688e+00 2.948303461074829102e+00 1.158661961555480957e+00
2.045000000000000000e+03 4.202247238159179688e+01 -1.480414867401123047e+01 1.791471838951110840e+00 8.640326499938964844e+00 3.129539489746093750e+00 7.780563831329345703e-01
2.046000000000000000e+03 7.235624694824218750e+01 -1.824575996398925781e+01 1.682365059852600098e+00 9.036819458007812500e+00 3.215755224227905273e+00 -7.419896125793457031e-02
2.047000000000000000e+03 7.283082580566406250e+01 -1.960979652404785156e+01 1.599822282791137695e+00 8.746212959289550781e+00 3.103810548782348633e+00 -3.899687826633453369e-01
2.048000000000000000e+03 1.983084678649902344e+01 2.882869911193847656e+01 -7.755065560340881348e-01 3.585097312927246094e+00 8.428772091865539551e-01 1.033381819725036621e+00
2.049000000000000000e+03 6.032399749755859375e+01 -4.720562458038330078e+00 6.080690622329711914e-01 8.383915424346923828e-01 4.339382052421569824e-01 -2.958048284053802490e-01
2.050000000000000000e+03 2.998678779602050781e+01 -9.613343238830566406e+00 9.766091704368591309e-01 1.580890059471130371e+00 7.672497630119323730e-01 -3.307852506637573242e+00
2.051000000000000000e+03 4.775558471679687500e+01 -1.814616322517395020e+00 2.952418029308319092e-01 7.161702632904052734e+00 2.237083435058593750e+00 -5.593105554580688477e-01
2.052000000000000000e+03 4.519026947021484375e+01 -6.720901012420654297e+00 -1.795738339424133301e+00 8.900256156921386719e+00 2.131355285644531250e+00 9.283088445663452148e-01
2.053000000000000000e+03 4.625814056396484375e+01 -3.694895267486572266e+00 -8.537560701370239258e-01 8.459642410278320312e+00 2.281765937805175781e+00 1.409215480089187622e-01
2.054000000000000000e+03 4.217653656005859375e+01 -1.353382873535156250e+01 1.251002430915832520e+00 8.562707901000976562e+00 2.944113254547119141e+00 8.998844623565673828e-01
2.055000000000000000e+03 5.689538192749023438e+01 -3.086590528488159180e+00 1.183590412139892578e+00 -2.683137729763984680e-02 3.470277190208435059e-01 -1.242062002420425415e-01
2.056000000000000000e+03 6.659023284912109375e+01 4.676683425903320312e+00 -1.609645485877990723e-01 5.045398235321044922e+00 1.465330123901367188e+00 1.079447984695434570e+00
2.057000000000000000e+03 7.052838897705078125e+01 -5.149825662374496460e-02 -5.244519710540771484e-01 6.446910858154296875e+00 1.776737689971923828e+00 5.037028715014457703e-02
2.058000000000000000e+03 4.212258911132812500e+01 -2.026275253295898438e+01 2.420745134353637695e+00 9.578792572021484375e+00 3.599861383438110352e+00 -3.697611987590789795e-01
2.059000000000000000e+03 2.581006622314453125e+01 2.865359497070312500e+01 -4.295232892036437988e-02 1.437970519065856934e+00 4.185054600238800049e-01 6.449617147445678711e-01
2.060000000000000000e+03 7.799901485443115234e+00 -3.130637550354003906e+01 -7.864937782287597656e-01 4.292589664459228516e+00 1.051828861236572266e+00 6.581608653068542480e-01
2.061000000000000000e+03 7.746551036834716797e+00 -1.881085205078125000e+01 1.552348971366882324e+00 6.242108821868896484e+00 2.338337421417236328e+00 1.168702006340026855e+00
2.062000000000000000e+03 9.301138877868652344e+00 -2.541037178039550781e+01 -6.362864971160888672e-01 5.749669551849365234e+00 1.534014940261840820e+00 9.830358624458312988e-01
2.063000000000000000e+03 9.404244422912597656e+00 -2.702013206481933594e+01 -9.050941467285156250e-01 5.207609176635742188e+00 1.290754556655883789e+00 7.918606400489807129e-01
2.064000000000000000e+03 3.318535995483398438e+01 -1.361660003662109375e+01 2.619609594345092773e+00 3.448749303817749023e+00 1.820507645606994629e+00 -2.719057798385620117e+00
2.065000000000000000e+03 3.546598815917968750e+01 -1.152830982208251953e+01 1.391958475112915039e+00 4.221829414367675781e+00 1.684136390686035156e+00 -1.491589784622192383e+00
2.066000000000000000e+03 4.473329544067382812e+01 -9.255761146545410156e+00 -1.109990954399108887e+00 8.852696418762207031e+00 2.322811603546142578e+00 1.154029726982116699e+00
2.067000000000000000e+03 6.228225708007812500e+01 2.917977142333984375e+01 1.384585499763488770e-01 2.097233295440673828e+00 6.707075238227844238e-01 -2.286096811294555664e-01
2.068000000000000000e+03 6.072075653076171875e+01 2.908110046386718750e+01 1.321784555912017822e-01 1.642081379890441895e+00 5.322779417037963867e-01 2.534313201904296875e-01
2.069000000000000000e+03 6.385593891143798828e+00 -2.164043045043945312e+01 6.278609037399291992e-01 4.765492916107177734e+00 1.618006229400634766e+00 1.628856301307678223e+00
2.070000000000000000e+03 7.308567810058593750e+01 -2.106418609619140625e+01 1.056265115737915039e+00 8.508083343505859375e+00 2.869304418563842773e+00 -9.180639386177062988e-01
2.071000000000000000e+03 1.746030807495117188e+01 -3.690538787841796875e+01 -2.653908729553222656e-01 1.165332198143005371e+00 2.699823975563049316e-01 -2.879863679409027100e-01
2.072000000000000000e+03 7.164509582519531250e+01 1.125094890594482422e+01 7.847849130630493164e-01 8.864635467529296875e+00 2.894826173782348633e+00 -1.742188334465026855e-01
2.073000000000000000e+03 7.179163360595703125e+01 8.266377449035644531e+00 -3.558448329567909241e-02 8.217652320861816406e+00 2.454620361328125000e+00 -2.659944295883178711e-01
2.074000000000000000e+03 7.188359832763671875e+01 4.098157882690429688e+01 2.630408108234405518e-01 6.468982219696044922e+00 2.019606828689575195e+00 -5.320249125361442566e-02
2.075000000000000000e+03 6.578343200683593750e+01 2.780297279357910156e+01 -5.764046311378479004e-01 3.700322151184082031e+00 9.371752738952636719e-01 -1.199822902679443359e+00
2.076000000000000000e+03 6.660854339599609375e+01 2.607806205749511719e+01 -1.155944466590881348e+00 4.347459316253662109e+00 9.574545025825500488e-01 -1.515115976333618164e+00
2.077000000000000000e+03 4.170882034301757812e+01 -2.339333343505859375e+01 2.310423612594604492e+00 8.971362113952636719e+00 3.384535551071166992e+00 -4.756492078304290771e-01
2.078000000000000000e+03 5.542459106445312500e+01 -3.207634925842285156e+00 1.241314053535461426e+00 -2.686555869877338409e-02 3.643345534801483154e-01 -6.035746634006500244e-02
2.079000000000000000e+03 6.740494537353515625e+01 3.656176328659057617e+00 -3.178318440914154053e-01 5.350541591644287109e+00 1.509812831878662109e+00 6.832235455513000488e-01
2.080000000000000000e+03 3.743328094482421875e+01 -2.934682273864746094e+01 -2.122378945350646973e-01 7.169300079345703125e+00 2.087118625640869141e+00 7.548141479492187500e-01
2.081000000000000000e+03 3.711043930053710938e+01 -3.440296173095703125e+01 -1.451782941818237305e+00 5.804610252380371094e+00 1.305848240852355957e+00 7.001781463623046875e-01
2.082000000000000000e+03 3.818649291992187500e+01 -3.245556259155273438e+01 -1.212672233581542969e+00 6.454618930816650391e+00 1.572584033012390137e+00 4.759743809700012207e-01
2.083000000000000000e+03 4.778193283081054688e+01 -4.456690788269042969e+00 -6.992069482803344727e-01 6.687057971954345703e+00 1.796355247497558594e+00 2.055345028638839722e-01
2.084000000000000000e+03 4.952128982543945312e+01 -5.009185314178466797e+00 -1.808067411184310913e-01 4.194799900054931641e+00 1.204197883605957031e+00 5.628110766410827637e-01
2.085000000000000000e+03 8.434285163879394531e+00 -2.473120880126953125e+01 -4.082550406455993652e-01 5.847274780273437500e+00 1.631705880165100098e+00 1.298060297966003418e+00
2.086000000000000000e+03 1.206822776794433594e+01 1.819213509559631348e+00 7.613964080810546875e-01 7.857445240020751953e+00 2.585652589797973633e+00 -4.413753986358642578e+00
2.087000000000000000e+03 1.179939460754394531e+01 2.935833454132080078e+00 3.358723521232604980e-01 6.924273014068603516e+00 2.178043603897094727e+00 -3.251626968383789062e+00
2.088000000000000000e+03 9.215016365051269531e+00 -2.372058153152465820e+00 2.207449436187744141e+00 8.869899511337280273e-01 9.283318519592285156e-01 1.723526477813720703e+00
2.089000000000000000e+03 1.255676937103271484e+01 2.093425035476684570e+00 8.787830173969268799e-02 1.043789291381835938e+01 3.157731294631958008e+00 -3.829313516616821289e+00
2.090000000000000000e+03 1.342902565002441406e+01 2.991060495376586914e+00 -7.488757967948913574e-01 1.153179931640625000e+01 3.234877109527587891e+00 -1.737847328186035156e+00
2.091000000000000000e+03 1.000972080230712891e+01 3.031597852706909180e+00 8.594473600387573242e-01 2.711519956588745117e+00 1.071290254592895508e+00 -1.831395149230957031e+00
2.092000000000000000e+03 1.329153537750244141e+01 -3.615161180496215820e+00 1.153085708618164062e+00 1.107843589782714844e+01 3.669456481933593750e+00 3.156893968582153320e+00
2.093000000000000000e+03 1.161713218688964844e+01 -2.787120342254638672e+00 3.810446500778198242e+00 6.246787071228027344e+00 3.017170190811157227e+00 5.637695789337158203e+00
2.094000000000000000e+03 1.531828975677490234e+01 -3.672424793243408203e+00 2.426223516464233398e+00 9.521808624267578125e+00 3.584409475326538086e+00 -8.240798115730285645e-01
2.095000000000000000e+03 1.083096313476562500e+01 -3.096818447113037109e+00 3.314558982849121094e+00 3.897171020507812500e+00 2.163518905639648438e+00 4.523585796356201172e+00
2.096000000000000000e+03 9.800238609313964844e+00 3.897781848907470703e+00 7.479424476623535156e-01 3.078454017639160156e+00 1.147918939590454102e+00 -1.672136902809143066e+00
2.097000000000000000e+03 1.021535110473632812e+01 3.567433118820190430e+00 7.590462565422058105e-01 3.502358913421630859e+00 1.278421640396118164e+00 -1.958432793617248535e+00
2.098000000000000000e+03 6.854739665985107422e+00 -4.704313278198242188e+00 7.832435965538024902e-01 1.482811927795410156e+00 6.798166632652282715e-01 1.242487430572509766e+00
2.099000000000000000e+03 7.565658092498779297e+00 -5.699110984802246094e+00 4.883713126182556152e-01 2.608061313629150391e+00 9.289298057556152344e-01 1.885761141777038574e+00
2.100000000000000000e+03 7.883484363555908203e+00 5.691682338714599609e+00 6.620973944664001465e-01 2.084569692611694336e+00 8.240001201629638672e-01 -5.593462586402893066e-01
2.101000000000000000e+03 4.705172538757324219e+00 6.673275947570800781e+00 4.118822515010833740e-01 4.792671799659729004e-01 2.673448324203491211e-01 1.660394072532653809e-01
2.102000000000000000e+03 6.884138584136962891e+00 5.389570713043212891e+00 6.253050565719604492e-01 1.249441266059875488e+00 5.624238848686218262e-01 -1.883686184883117676e-01
2.103000000000000000e+03 1.617415046691894531e+01 1.663620114326477051e+00 2.868175268173217773e+00 1.023477268218994141e+01 3.930884361267089844e+00 1.600526452064514160e+00
2.104000000000000000e+03 1.797538948059082031e+01 -1.629134058952331543e+00 5.155179500579833984e+00 5.096104621887207031e+00 3.075385093688964844e+00 -1.644788026809692383e+00
2.105000000000000000e+03 1.601996040344238281e+01 6.709567070007324219e+00 -8.013606071472167969e-01 9.939185142517089844e+00 2.741347312927246094e+00 5.361879989504814148e-02
2.106000000000000000e+03 6.002233505249023438e+00 -6.625771999359130859e+00 1.496240347623825073e-01 2.096260786056518555e+00 6.737654209136962891e-01 1.023149967193603516e+00
2.107000000000000000e+03 5.042140960693359375e+00 -5.178403854370117188e+00 3.796148300170898438e-01 9.955993294715881348e-01 4.125642478466033936e-01 5.024874806404113770e-01
2.108000000000000000e+03 7.381791591644287109e+00 5.504180908203125000e+00 6.407314538955688477e-01 1.646667599678039551e+00 6.862196922302246094e-01 -3.588353395462036133e-01
2.109000000000000000e+03 1.660923194885253906e+01 6.399085044860839844e+00 -7.328118681907653809e-01 9.871704101562500000e+00 2.741667509078979492e+00 1.731587499380111694e-01
2.110000000000000000e+03 1.458192920684814453e+01 3.541905641555786133e+00 -7.997945547103881836e-01 1.154576969146728516e+01 3.223792552947998047e+00 -2.125935405492782593e-01
2.111000000000000000e+03 1.729337120056152344e+01 1.197839736938476562e+00 3.613145351409912109e+00 7.722681522369384766e+00 3.400748014450073242e+00 7.168477773666381836e-01
2.112000000000000000e+03 1.325406360626220703e+01 -4.125748634338378906e+00 7.727476954460144043e-01 1.017344856262207031e+01 3.283858776092529297e+00 3.231766223907470703e+00
2.113000000000000000e+03 1.446965408325195312e+01 -4.178446769714355469e+00 1.121118664741516113e+00 9.993847846984863281e+00 3.334490060806274414e+00 8.801913857460021973e-01
2.114000000000000000e+03 6.706300735473632812e+00 -5.656052112579345703e+00 4.817920029163360596e-01 1.940069913864135742e+00 7.265585660934448242e-01 1.303031921386718750e+00
2.115000000000000000e+03 1.442914104461669922e+01 8.932263374328613281e+00 -1.227790489792823792e-01 8.730219841003417969e+00 2.582232236862182617e+00 -2.692602872848510742e-01
2.116000000000000000e+03 1.502447319030761719e+01 9.512110710144042969e+00 7.368387281894683838e-02 9.032258987426757812e+00 2.731782913208007812e+00 -1.986434757709503174e-01
2.117000000000000000e+03 7.459612369537353516e+00 -4.493883132934570312e+00 9.828257560729980469e-01 1.693781495094299316e+00 8.029821515083312988e-01 1.591400980949401855e+00
2.118000000000000000e+03 1.767582130432128906e+01 4.021870613098144531e+00 -1.537327319383621216e-01 8.854882240295410156e+00 2.610344886779785156e+00 4.574836790561676025e-01
2.119000000000000000e+03 1.742267799377441406e+01 4.735592842102050781e+00 -3.938121795654296875e-01 9.302166938781738281e+00 2.672506332397460938e+00 4.950932562351226807e-01
2.120000000000000000e+03 8.606026649475097656e+00 5.141524314880371094e+00 7.087833881378173828e-01 2.451454162597656250e+00 9.480713009834289551e-01 -8.664006590843200684e-01
2.121000000000000000e+03 3.504803657531738281e+00 5.882311820983886719e+00 2.503459155559539795e-01 -9.980238229036331177e-02 4.516305774450302124e-02 3.872474133968353271e-01
2.122000000000000000e+03 8.692735671997070312e+00 -4.982064723968505859e+00 1.022531270980834961e+00 2.837971448898315430e+00 1.158150792121887207e+00 2.601851701736450195e+00
2.123000000000000000e+03 1.347243118286132812e+01 -9.701553344726562500e+00 -2.817097425460815430e+00 5.791614055633544922e+00 8.923550844192504883e-01 3.399307250976562500e+00
2.124000000000000000e+03 2.520653915405273438e+01 -9.468135833740234375e+00 4.707109034061431885e-01 1.361278057098388672e+00 5.495966672897338867e-01 -2.305867433547973633e+00
2.125000000000000000e+03 6.333826446533203125e+01 -1.709901452064514160e+00 4.399299025535583496e-01 2.382644176483154297e+00 8.467721939086914062e-01 3.930262476205825806e-02
2.126000000000000000e+03 6.784554958343505859e+00 -1.603927993774414062e+01 1.063446640968322754e+00 4.871002197265625000e+00 1.780334591865539551e+00 3.281082808971405029e-01
2.127000000000000000e+03 7.281420135498046875e+01 -1.401782989501953125e+01 6.468296051025390625e-01 8.502948760986328125e+00 2.744933366775512695e+00 8.709715604782104492e-01
2.128000000000000000e+03 4.374188995361328125e+01 -4.121642112731933594e+00 -1.571229577064514160e+00 9.773715019226074219e+00 2.460745573043823242e+00 7.699716091156005859e-01
2.129000000000000000e+03 4.525221633911132812e+01 -3.938520669937133789e+00 -1.295607686042785645e+00 9.259003639221191406e+00 2.389018774032592773e+00 5.245133638381958008e-01
2.130000000000000000e+03 6.833547973632812500e+01 -7.433411121368408203e+00 -6.986706852912902832e-01 6.045595169067382812e+00 1.604077339172363281e+00 -5.869665741920471191e-01
2.131000000000000000e+03 7.178332519531250000e+01 -1.272873878479003906e+01 1.394151747226715088e-01 8.746079444885253906e+00 2.665648221969604492e+00 7.087590694427490234e-01
2.132000000000000000e+03 7.278275299072265625e+01 -1.302233219146728516e+01 2.592653334140777588e-01 8.475361824035644531e+00 2.620388269424438477e+00 9.437360763549804688e-01
2.133000000000000000e+03 9.934663772583007812e+00 1.596921634674072266e+01 8.174818754196166992e-01 4.541805744171142578e+00 1.607786297798156738e+00 -9.588343501091003418e-01
2.134000000000000000e+03 2.201427078247070312e+01 -7.695503711700439453e+00 1.025521874427795410e+00 1.394477725028991699e+00 7.259998917579650879e-01 -2.336460828781127930e+00
2.135000000000000000e+03 1.529149723052978516e+01 -9.214554786682128906e+00 -1.950670123100280762e+00 3.839377641677856445e+00 5.666122436523437500e-01 2.317281007766723633e+00
2.136000000000000000e+03 1.846879959106445312e+01 -8.849272727966308594e+00 -7.085035443305969238e-01 1.523347139358520508e+00 2.444530725479125977e-01 -1.015904188156127930e+00
2.137000000000000000e+03 1.625755310058593750e+01 -7.854648590087890625e+00 -6.302837133407592773e-01 4.076817512512207031e+00 1.033960103988647461e+00 8.771046996116638184e-01
2.138000000000000000e+03 5.936861801147460938e+01 -5.770026683807373047e+00 4.060511887073516846e-01 4.431186914443969727e-01 2.547509670257568359e-01 -2.525256574153900146e-01
2.139000000000000000e+03 4.134399032592773438e+01 -7.381588935852050781e+00 -1.706663608551025391e+00 7.732872962951660156e+00 1.807862877845764160e+00 1.746060848236083984e+00
2.140000000000000000e+03 1.181912326812744141e+01 -9.621102333068847656e+00 -2.702508687973022461e+00 6.999483585357666016e+00 1.289092540740966797e+00 3.133968830108642578e+00
2.141000000000000000e+03 8.077259063720703125e+00 -9.653197288513183594e+00 -1.067437052726745605e+00 5.173831462860107422e+00 1.231918334960937500e+00 1.366687655448913574e+00
2.142000000000000000e+03 2.258307647705078125e+01 -8.695878982543945312e+00 2.924433350563049316e-01 1.278581976890563965e+00 4.713076055049896240e-01 -2.152693033218383789e+00
2.143000000000000000e+03 4.276651000976562500e+01 1.976588821411132812e+01 -3.889084160327911377e-01 5.202435970306396484e+00 1.444058299064636230e+00 -7.972897887229919434e-01
2.144000000000000000e+03 4.132456207275390625e+01 2.160214424133300781e+01 -6.196614503860473633e-01 4.269715309143066406e+00 1.095016121864318848e+00 -1.004183888435363770e+00
2.145000000000000000e+03 4.545870590209960938e+01 -5.756530761718750000e+00 -1.779949665069580078e+00 8.944139480590820312e+00 2.149256944656372070e+00 8.341288566589355469e-01
2.146000000000000000e+03 4.335374832153320312e+01 -4.961948871612548828e+00 -1.992086052894592285e+00 9.744295120239257812e+00 2.325662612915039062e+00 1.225393772125244141e+00
2.147000000000000000e+03 3.334921264648437500e+01 -1.060839271545410156e+01 1.346119523048400879e+00 2.564420700073242188e+00 1.173162102699279785e+00 -2.502465248107910156e+00
2.148000000000000000e+03 6.408081531524658203e+00 7.910867691040039062e+00 5.454761385917663574e-01 1.638509511947631836e+00 6.551957130432128906e-01 -2.378558069467544556e-01
2.149000000000000000e+03 1.824686622619628906e+01 1.325064897537231445e+00 2.998209714889526367e+00 6.308006763458251953e+00 2.791864871978759766e+00 1.027570366859436035e-01
2.150000000000000000e+03 6.507881164550781250e+01 2.402137964963912964e-01 1.211271509528160095e-01 3.475078105926513672e+00 1.078861594200134277e+00 3.706710636615753174e-01
2.151000000000000000e+03 1.681124114990234375e+01 -1.530735254287719727e+00 6.055463314056396484e+00 6.987253665924072266e+00 3.912815093994140625e+00 -1.492123961448669434e+00
2.152000000000000000e+03 4.394441986083984375e+01 -8.270295143127441406e+00 -1.604673027992248535e+00 8.864333152770996094e+00 2.177898168563842773e+00 1.187445521354675293e+00
2.153000000000000000e+03 4.405095672607421875e+01 -6.301280021667480469e+00 -1.998850941658020020e+00 9.265629768371582031e+00 2.180033683776855469e+00 1.089538931846618652e+00
2.154000000000000000e+03 4.042715454101562500e+01 -8.426668167114257812e+00 -9.714965820312500000e-01 6.814376831054687500e+00 1.752864003181457520e+00 1.459222316741943359e+00
2.155000000000000000e+03 6.612313842773437500e+01 9.996064901351928711e-01 -6.700848788022994995e-02 4.250091552734375000e+00 1.254925012588500977e+00 4.673767983913421631e-01
2.156000000000000000e+03 4.099916839599609375e+01 2.306538581848144531e+01 -7.231992483139038086e-01 4.057566165924072266e+00 1.000310063362121582e+00 -9.856848716735839844e-01
2.157000000000000000e+03 3.496511459350585938e+01 2.572436523437500000e+01 -4.704959094524383545e-01 1.814342856407165527e+00 4.031540751457214355e-01 -8.655574917793273926e-01
2.158000000000000000e+03 2.233458328247070312e+01 -2.832966089248657227e+00 3.740150213241577148e+00 1.388047337532043457e+00 1.538459181785583496e+00 -2.570494651794433594e+00
2.159000000000000000e+03 1.000447750091552734e+01 -1.198089027404785156e+01 -1.585553407669067383e+00 7.702121734619140625e+00 1.834970593452453613e+00 1.193702220916748047e+00
2.160000000000000000e+03 7.020101547241210938e+00 -1.364866542816162109e+01 1.601504385471343994e-01 5.183993816375732422e+00 1.603243350982666016e+00 4.109590128064155579e-02
2.161000000000000000e+03 7.047573089599609375e+01 -2.952746582031250000e+01 -9.310145378112792969e-01 6.938560485839843750e+00 1.802263736724853516e+00 9.008082747459411621e-02
2.162000000000000000e+03 7.109994506835937500e+01 -2.648681068420410156e+01 -7.670482993125915527e-01 8.089793205261230469e+00 2.196823596954345703e+00 -3.826187849044799805e-01
2.163000000000000000e+03 7.336453914642333984e+00 2.813717842102050781e+01 -3.765080869197845459e-01 3.529663562774658203e+00 9.459466934204101562e-01 -9.577733874320983887e-01
2.164000000000000000e+03 8.706260681152343750e+00 3.275844573974609375e+01 -4.701141417026519775e-01 3.689010858535766602e+00 9.656690359115600586e-01 -5.526989102363586426e-01
2.165000000000000000e+03 7.399089050292968750e+01 2.158131027221679688e+01 -2.022206038236618042e-01 8.485986709594726562e+00 2.485129594802856445e+00 1.156018018722534180e+00
2.166000000000000000e+03 3.943353652954101562e+01 -1.578085708618164062e+01 2.455975770950317383e+00 8.222971916198730469e+00 3.203684329986572266e+00 -2.696132287383079529e-03
2.167000000000000000e+03 3.672695541381835938e+01 -1.411803722381591797e+01 1.836039066314697266e+00 6.622314929962158203e+00 2.537506103515625000e+00 -1.004206776618957520e+00
2.168000000000000000e+03 7.349282073974609375e+01 2.256536865234375000e+01 -4.376240670680999756e-01 8.441279411315917969e+00 2.401096582412719727e+00 8.833906054496765137e-01
2.169000000000000000e+03 2.923387145996093750e+01 -8.792430877685546875e+00 9.004388451576232910e-01 1.832486152648925781e+00 8.198775053024291992e-01 -3.276338577270507812e+00
2.170000000000000000e+03 7.405891418457031250e+01 2.530740356445312500e+01 -6.255677938461303711e-01 8.150591850280761719e+00 2.257507085800170898e+00 5.717499852180480957e-01
2.171000000000000000e+03 7.229320526123046875e+01 -2.611801910400390625e+01 -5.488913655281066895e-01 8.215389251708984375e+00 2.299949407577514648e+00 -8.015951514244079590e-01
2.172000000000000000e+03 7.416125488281250000e+01 1.598969078063964844e+01 9.145028591156005859e-01 8.173663139343261719e+00 2.726449966430664062e+00 4.655125141143798828e-01
2.173000000000000000e+03 7.439318847656250000e+01 1.741734123229980469e+01 8.090058565139770508e-01 8.085706710815429688e+00 2.668413639068603516e+00 7.257478237152099609e-01
2.174000000000000000e+03 7.330032348632812500e+01 -1.501927280426025391e+01 8.357608914375305176e-01 8.445657730102539062e+00 2.784425735473632812e+00 8.008612990379333496e-01
2.175000000000000000e+03 7.338363647460937500e+01 -1.761876487731933594e+01 1.372545242309570312e+00 8.429928779602050781e+00 2.940742254257202148e+00 1.616384685039520264e-01
2.176000000000000000e+03 7.362931060791015625e+01 7.529260158538818359e+00 -1.072077229619026184e-01 7.907227039337158203e+00 2.340005874633789062e+00 -5.630775690078735352e-01
2.177000000000000000e+03 7.469029235839843750e+01 8.129802703857421875e+00 -2.348198927938938141e-02 7.773697853088378906e+00 2.325064897537231445e+00 -6.885601282119750977e-01
2.178000000000000000e+03 7.390127563476562500e+01 1.325155830383300781e+01 8.306599259376525879e-01 8.149308204650878906e+00 2.693990468978881836e+00 -1.904474645853042603e-01
2.179000000000000000e+03 7.512834167480468750e+01 -1.040253734588623047e+01 -1.933448463678359985e-01 7.670531272888183594e+00 2.243155956268310547e+00 9.330454468727111816e-01
2.180000000000000000e+03 7.412580871582031250e+01 -9.310053825378417969e+00 -3.966065049171447754e-01 7.838294982910156250e+00 2.232506513595581055e+00 8.387535810470581055e-01
2.181000000000000000e+03 7.125153350830078125e+01 4.216387271881103516e+00 -4.688268303871154785e-01 7.152400016784667969e+00 2.005071878433227539e+00 -8.882646262645721436e-02
2.182000000000000000e+03 7.229605865478515625e+01 -7.252710461616516113e-01 -4.742087423801422119e-01 6.996064662933349609e+00 1.956556797027587891e+00 -4.199783876538276672e-02
2.183000000000000000e+03 7.148939514160156250e+01 6.136826276779174805e-01 -4.754103720188140869e-01 6.839340686798095703e+00 1.909179091453552246e+00 -3.791835531592369080e-02
2.184000000000000000e+03 7.502356719970703125e+01 -8.052715301513671875e+00 -3.599953949451446533e-01 7.714588642120361328e+00 2.206377983093261719e+00 7.252900004386901855e-01
2.185000000000000000e+03 7.306539916992187500e+01 -8.187330245971679688e+00 -5.990950465202331543e-01 7.732886314392089844e+00 2.140137434005737305e+00 5.748500227928161621e-01
2.186000000000000000e+03 7.203399658203125000e+01 -8.211316108703613281e+00 -7.470587491989135742e-01 7.668380737304687500e+00 2.076396703720092773e+00 3.679782450199127197e-01
2.187000000000000000e+03 5.989717006683349609e+00 -9.701910018920898438e+00 -4.652064442634582520e-01 3.342168331146240234e+00 8.630885481834411621e-01 6.293123960494995117e-01
2.188000000000000000e+03 5.526758670806884766e+00 -1.205424594879150391e+01 -2.416681200265884399e-01 3.446326732635498047e+00 9.613975882530212402e-01 1.026797592639923096e-01
2.189000000000000000e+03 7.367707061767578125e+01 1.834505462646484375e+01 7.891044020652770996e-01 8.565905570983886719e+00 2.806502819061279297e+00 8.802585601806640625e-01
2.190000000000000000e+03 7.218833923339843750e+01 1.679134941101074219e+01 1.256554365158081055e+00 9.360485076904296875e+00 3.185111761093139648e+00 4.694877862930297852e-01
2.191000000000000000e+03 6.540328979492187500e+01 -1.005916500091552734e+01 -2.377832829952239990e-01 3.738595962524414062e+00 1.050243854522705078e+00 -1.737410783767700195e+00
2.192000000000000000e+03 7.152394866943359375e+01 -2.780612182617187500e+01 -8.637322187423706055e-01 7.721847534179687500e+00 2.057434558868408203e+00 -3.521689474582672119e-01
2.193000000000000000e+03 7.287030029296875000e+01 -2.743035697937011719e+01 -6.447097659111022949e-01 7.895655632019042969e+00 2.175283670425415039e+00 -7.064377069473266602e-01
2.194000000000000000e+03 5.780862331390380859e+00 -8.739489555358886719e+00 -2.958401143550872803e-01 2.807227849960327148e+00 7.534163594245910645e-01 7.191458344459533691e-01
2.195000000000000000e+03 4.882296085357666016e+00 -8.778139114379882812e+00 -2.117936313152313232e-01 2.174963474273681641e+00 5.889509320259094238e-01 4.350016713142395020e-01
2.196000000000000000e+03 8.488945007324218750e+00 1.966907691955566406e+01 2.954511046409606934e-01 3.749258279800415039e+00 1.213412880897521973e+00 -1.303629398345947266e+00
2.197000000000000000e+03 7.049770355224609375e+01 2.735336494445800781e+01 -9.965580701828002930e-01 6.808147430419921875e+00 1.743476748466491699e+00 -5.645006895065307617e-01
2.198000000000000000e+03 7.277759552001953125e+01 2.501300239562988281e+01 -9.260720610618591309e-01 8.230153083801269531e+00 2.191224336624145508e+00 3.975538611412048340e-01
2.199000000000000000e+03 5.987111091613769531e+00 2.768614578247070312e+01 -2.603229880332946777e-01 3.202105760574340820e+00 8.825348019599914551e-01 -9.469137191772460938e-01
2.200000000000000000e+03 3.856428909301757812e+01 -1.395623302459716797e+01 1.804393291473388672e+00 7.259534835815429688e+00 2.719178438186645508e+00 -2.117412537336349487e-01
2.201000000000000000e+03 4.126107025146484375e+01 -2.228424263000488281e+01 2.430643558502197266e+00 9.117696762084960938e+00 3.464502096176147461e+00 -4.059447944164276123e-01
2.202000000000000000e+03 6.261095046997070312e+00 -2.486991119384765625e+01 -2.380789667367935181e-01 4.778716564178466797e+00 1.362191319465637207e+00 1.717706084251403809e+00
2.203000000000000000e+03 5.399676799774169922e+00 -2.221176338195800781e+01 4.147868752479553223e-01 4.087749004364013672e+00 1.350760698318481445e+00 1.627118110656738281e+00
2.204000000000000000e+03 5.897353649139404297e+00 -2.409930038452148438e+01 -4.551421850919723511e-02 4.548402786254882812e+00 1.350866675376892090e+00 1.733932495117187500e+00
2.205000000000000000e+03 6.362653732299804688e+00 1.531900882720947266e+01 4.301608204841613770e-01 2.374688863754272461e+00 8.414549231529235840e-01 -8.161643743515014648e-01
2.206000000000000000e+03 6.571001529693603516e+00 1.667480278015136719e+01 3.965165615081787109e-01 2.578903198242187500e+00 8.926259279251098633e-01 -9.526009559631347656e-01
2.207000000000000000e+03 5.268340587615966797e+00 -1.843618774414062500e+01 9.389784336090087891e-01 3.559237480163574219e+00 1.349464774131774902e+00 8.787133097648620605e-01
2.208000000000000000e+03 6.229862689971923828e+00 1.397982311248779297e+01 4.407545030117034912e-01 2.219979763031005859e+00 7.982202768325805664e-01 -6.653977632522583008e-01
2.209000000000000000e+03 5.084104061126708984e+00 1.275780868530273438e+01 3.482819497585296631e-01 1.404366016387939453e+00 5.257943868637084961e-01 -4.700489342212677002e-01
2.210000000000000000e+03 4.918812751770019531e+00 -2.001857185363769531e+01 7.335879802703857422e-01 3.399554252624511719e+00 1.239942669868469238e+00 1.241337060928344727e+00
2.211000000000000000e+03 7.759159088134765625e+00 2.665942573547363281e+01 -3.655170500278472900e-01 3.613110780715942383e+00 9.742780923843383789e-01 -1.097622871398925781e+00
2.212000000000000000e+03 5.992897987365722656e+00 -3.345809936523437500e+01 -4.600033462047576904e-01 4.255903720855712891e+00 1.138770103454589844e+00 5.356148481369018555e-01
2.213000000000000000e+03 7.981141090393066406e+00 -3.337609100341796875e+01 -6.623853445053100586e-01 4.098557472229003906e+00 1.030851602554321289e+00 4.147299826145172119e-01
2.214000000000000000e+03 5.733163833618164062e+00 1.991989898681640625e+01 1.495648771524429321e-01 2.439801931381225586e+00 7.768100500106811523e-01 -1.111646056175231934e+00
2.215000000000000000e+03 1.940522766113281250e+01 -8.076148033142089844e+00 1.082831174135208130e-01 1.611257791519165039e+00 5.158622860908508301e-01 -1.624885797500610352e+00
2.216000000000000000e+03 5.716848373413085938e+00 -1.575707435607910156e+01 7.255939841270446777e-01 3.816899538040161133e+00 1.362748026847839355e+00 2.086415737867355347e-01
2.217000000000000000e+03 2.800333595275878906e+01 -1.059318161010742188e+01 6.929133534431457520e-01 1.306689262390136719e+00 5.998808145523071289e-01 -2.776667118072509766e+00
2.218000000000000000e+03 1.437045574188232422e+01 1.005368423461914062e+01 2.331908047199249268e-01 8.579838752746582031e+00 2.643908739089965820e+00 -2.547755837440490723e-01
2.219000000000000000e+03 4.507025527954101562e+01 1.727495002746582031e+01 7.063712924718856812e-02 7.036635875701904297e+00 2.132181882858276367e+00 4.985340684652328491e-02
2.220000000000000000e+03 5.056952476501464844e+00 -7.014990329742431641e+00 7.348810136318206787e-02 1.681864142417907715e+00 5.266056656837463379e-01 6.213051676750183105e-01
2.221000000000000000e+03 7.663103580474853516e+00 -1.465491390228271484e+01 6.027542352676391602e-01 5.942871093750000000e+00 1.963687539100646973e+00 9.035621583461761475e-02
2.222000000000000000e+03 6.436392784118652344e+00 -1.500901603698730469e+01 6.801294088363647461e-01 4.415772914886474609e+00 1.528770685195922852e+00 8.853078633546829224e-02
2.223000000000000000e+03 7.036037445068359375e+01 -2.407744598388671875e+01 -1.273140311241149902e-01 8.980486869812011719e+00 2.655951738357543945e+00 -3.795242905616760254e-01
2.224000000000000000e+03 6.173081874847412109e+00 1.264833354949951172e+01 4.431423246860504150e-01 2.101831912994384766e+00 7.634922862052917480e-01 -5.450254082679748535e-01
2.225000000000000000e+03 7.166868591308593750e+01 2.815293502807617188e+01 -8.517857193946838379e-01 7.265573024749755859e+00 1.924136161804199219e+00 -3.143387734889984131e-01
2.226000000000000000e+03 6.085493087768554688e+00 8.954072952270507812e+00 4.958841204643249512e-01 1.609247088432312012e+00 6.315393447875976562e-01 -2.637228071689605713e-01
2.227000000000000000e+03 1.342587280273437500e+01 9.702436447143554688e+00 1.439379602670669556e-01 7.871587276458740234e+00 2.404657602310180664e+00 -3.587713539600372314e-01
2.228000000000000000e+03 7.298177337646484375e+01 2.098118591308593750e+01 2.116861380636692047e-02 8.541355133056640625e+00 2.568757057189941406e+00 1.049089670181274414e+00
2.229000000000000000e+03 6.267014026641845703e+00 -1.292460155487060547e+01 -1.960242688655853271e-01 4.199182987213134766e+00 1.200947642326354980e+00 5.655297636985778809e-02
2.230000000000000000e+03 5.328605175018310547e+00 -6.280580997467041016e+00 2.121692001819610596e-01 1.562448382377624512e+00 5.323852896690368652e-01 6.906177997589111328e-01
2.231000000000000000e+03 4.660405349731445312e+01 -4.757393360137939453e+00 -1.230697154998779297e+00 7.986975193023681641e+00 2.026883363723754883e+00 4.936291873455047607e-01
2.232000000000000000e+03 6.275905609130859375e+01 -5.580702304840087891e+00 2.872034907341003418e-01 1.923854947090148926e+00 6.633175611495971680e-01 -5.315392613410949707e-01
2.233000000000000000e+03 1.592069339752197266e+01 1.886770629882812500e+01 1.301421046257019043e+00 8.498328208923339844e+00 2.939924716949462891e+00 -6.356785446405410767e-02
2.234000000000000000e+03 1.313707733154296875e+01 2.173851966857910156e+01 -1.320281717926263809e-02 5.823564529418945312e+00 1.743108510971069336e+00 -1.155762076377868652e+00
2.235000000000000000e+03 3.324288177490234375e+01 -9.004808425903320312e+00 1.031806468963623047e+00 1.486997961997985840e+00 7.556413412094116211e-01 -2.531978368759155273e+00
2.236000000000000000e+03 6.116234588623046875e+01 -1.746846437454223633e+00 8.062021732330322266e-01 1.258766174316406250e+00 6.194905042648315430e-01 2.385268174111843109e-02
2.237000000000000000e+03 4.838984680175781250e+01 -2.831469297409057617e+00 1.527660936117172241e-01 5.858476161956787109e+00 1.803372740745544434e+00 -4.149464964866638184e-01
2.238000000000000000e+03 6.215689849853515625e+01 -6.348386764526367188e+00 3.084994256496429443e-01 1.495198607444763184e+00 5.411094427108764648e-01 -6.356105208396911621e-01
2.239000000000000000e+03 5.924986648559570312e+01 -1.714372754096984863e+00 1.075141191482543945e+00 4.624326527118682861e-01 4.612721502780914307e-01 -2.494092658162117004e-02
2.240000000000000000e+03 5.922672653198242188e+01 -3.722464323043823242e+00 8.375364542007446289e-01 4.656768441200256348e-01 3.909640014171600342e-01 -1.990786194801330566e-01
2.241000000000000000e+03 4.067215728759765625e+01 -2.707264709472656250e+01 8.852345943450927734e-01 8.133069038391113281e+00 2.705491065979003906e+00 -2.213366478681564331e-01
2.242000000000000000e+03 7.071712493896484375e+01 -2.524592971801757812e+01 -5.580499172210693359e-01 8.598219871520996094e+00 2.412050962448120117e+00 -4.705730974674224854e-01
2.243000000000000000e+03 7.927718639373779297e+00 -1.739786338806152344e+01 1.777796864509582520e+00 6.322001457214355469e+00 2.429939508438110352e+00 7.447743415832519531e-01
2.244000000000000000e+03 3.467681503295898438e+01 -1.256957244873046875e+01 1.765500664710998535e+00 4.260617256164550781e+00 1.807835459709167480e+00 -1.961650252342224121e+00
2.245000000000000000e+03 4.612344741821289062e+01 -1.776639461517333984e+00 2.038552910089492798e-01 9.017853736877441406e+00 2.766512870788574219e+00 -4.869551211595535278e-02
2.246000000000000000e+03 4.365348052978515625e+01 -9.966713905334472656e+00 -7.580021619796752930e-01 8.723970413208007812e+00 2.389790296554565430e+00 1.161246299743652344e+00
2.247000000000000000e+03 1.745488739013671875e+01 2.358938026428222656e+01 -9.792618155479431152e-01 6.234525680541992188e+00 1.576579213142395020e+00 4.816792011260986328e-01
2.248000000000000000e+03 1.599023151397705078e+01 2.443988990783691406e+01 -1.035689949989318848e+00 6.053171157836914062e+00 1.505244374275207520e+00 -1.156398374587297440e-02
2.249000000000000000e+03 1.423279666900634766e+01 1.837004661560058594e+01 1.134897947311401367e+00 7.158658504486083984e+00 2.488066911697387695e+00 -6.706732511520385742e-01
2.250000000000000000e+03 1.443563556671142578e+01 1.986743927001953125e+01 8.137876391410827637e-01 7.144141674041748047e+00 2.387378931045532227e+00 -7.994917035102844238e-01
2.251000000000000000e+03 9.176784515380859375e+00 -2.373113441467285156e+01 -1.578326076269149780e-01 6.390706539154052734e+00 1.869862198829650879e+00 1.246073722839355469e+00
2.252000000000000000e+03 7.243160247802734375e+01 7.056370735168457031e+00 -2.246053665876388550e-01 7.834850311279296875e+00 2.283073425292968750e+00 -4.493049085140228271e-01
2.253000000000000000e+03 6.928462219238281250e+01 5.308212280273437500e+00 -4.931427836418151855e-01 6.866085052490234375e+00 1.911882638931274414e+00 3.621905744075775146e-01
2.254000000000000000e+03 7.232954406738281250e+01 1.011037254333496094e+01 4.787569642066955566e-01 8.543876647949218750e+00 2.706790208816528320e+00 -3.567198812961578369e-01
2.255000000000000000e+03 7.131721496582031250e+01 6.555061817169189453e+00 -3.699648976325988770e-01 7.782693862915039062e+00 2.223818778991699219e+00 -1.339959055185317993e-01
2.256000000000000000e+03 7.292075347900390625e+01 5.815581798553466797e+00 -3.347921967506408691e-01 7.723229408264160156e+00 2.216531038284301758e+00 -3.927775025367736816e-01
2.257000000000000000e+03 7.288335418701171875e+01 8.010171055793762207e-01 -4.459284543991088867e-01 7.178280830383300781e+00 2.019705772399902344e+00 -1.059874966740608215e-01
2.258000000000000000e+03 2.260132217407226562e+01 -5.517893314361572266e+00 2.529861211776733398e+00 1.277444601058959961e+00 1.142191767692565918e+00 -2.532853841781616211e+00
2.259000000000000000e+03 2.379564857482910156e+01 -8.359967231750488281e+00 9.398266077041625977e-01 1.334796071052551270e+00 6.823868155479431152e-01 -2.382811546325683594e+00
2.260000000000000000e+03 3.615369796752929688e+01 2.417600250244140625e+01 -5.837119221687316895e-01 2.107648849487304688e+00 4.571810960769653320e-01 -9.789414405822753906e-01
2.261000000000000000e+03 6.855742645263671875e+01 -3.080214691162109375e+01 -8.661004900932312012e-01 5.837808132171630859e+00 1.491512298583984375e+00 4.957799911499023438e-01
2.262000000000000000e+03 6.753947448730468750e+01 -3.191524887084960938e+01 -6.561891436576843262e-01 5.093801498413085938e+00 1.331283688545227051e+00 6.224036812782287598e-01
2.263000000000000000e+03 4.189826583862304688e+01 -1.600008773803710938e+01 2.061851739883422852e+00 9.074634552001953125e+00 3.340945959091186523e+00 5.570591688156127930e-01
2.264000000000000000e+03 6.963190078735351562e+00 -2.541022109985351562e+01 -4.261544644832611084e-01 5.022492408752441406e+00 1.378901362419128418e+00 1.518136620521545410e+00
2.265000000000000000e+03 2.964374542236328125e+01 2.914394760131835938e+01 -2.361384220421314240e-02 1.302912592887878418e+00 3.837896287441253662e-01 -7.272569090127944946e-02
2.266000000000000000e+03 2.845142364501953125e+01 2.777149009704589844e+01 -5.985468253493309021e-02 1.017305254936218262e+00 2.872351706027984619e-01 1.249187737703323364e-01
2.267000000000000000e+03 3.484107589721679688e+01 -1.027050781250000000e+01 1.146098136901855469e+00 2.942162752151489258e+00 1.226478219032287598e+00 -1.673098087310791016e+00
2.268000000000000000e+03 6.926441192626953125e+01 7.953431010246276855e-01 -4.751605689525604248e-01 5.992475509643554688e+00 1.655194520950317383e+00 1.611184775829315186e-01
2.269000000000000000e+03 1.111163234710693359e+01 1.350364589691162109e+01 8.150591850280761719e-01 5.528447628021240234e+00 1.903052091598510742e+00 -6.670926809310913086e-01
2.270000000000000000e+03 6.834136962890625000e+01 4.519854068756103516e+00 -3.837676942348480225e-01 6.159689903259277344e+00 1.732776761054992676e+00 6.369813084602355957e-01
2.271000000000000000e+03 7.215956878662109375e+01 4.414755821228027344e+00 -4.656965434551239014e-01 7.426211833953857422e+00 2.088154554367065430e+00 -2.084741145372390747e-01
2.272000000000000000e+03 3.977017211914062500e+01 -1.789262199401855469e+01 2.718085765838623047e+00 8.831660270690917969e+00 3.464923858642578125e+00 -2.211511731147766113e-01
2.273000000000000000e+03 5.529735565185546875e+01 2.940480613708496094e+01 -3.755173087120056152e-01 2.445701837539672852e+00 6.210553646087646484e-01 1.409317612648010254e+00
2.274000000000000000e+03 2.157472229003906250e+01 2.748599624633789062e+01 -6.050525903701782227e-01 2.802826404571533203e+00 6.593320965766906738e-01 1.415628910064697266e+00
2.275000000000000000e+03 6.940615844726562500e+01 2.664697837829589844e+01 -1.252716898918151855e+00 6.507915973663330078e+00 1.576559782028198242e+00 -9.164084792137145996e-01
2.276000000000000000e+03 3.986506652832031250e+01 -1.175405693054199219e+01 6.506543755531311035e-01 7.044098854064941406e+00 2.308425903320312500e+00 5.910799503326416016e-01
2.277000000000000000e+03 4.251099777221679688e+01 -2.767295074462890625e+01 5.768297910690307617e-01 8.056750297546386719e+00 2.590074062347412109e+00 -6.214615106582641602e-01
2.278000000000000000e+03 5.827914047241210938e+01 2.997876548767089844e+01 1.077562719583511353e-01 1.902095317840576172e+00 6.029554605484008789e-01 8.831656575202941895e-01
2.279000000000000000e+03 2.147579765319824219e+01 -5.452242374420166016e+00 2.533932209014892578e+00 1.683732151985168457e+00 1.265299320220947266e+00 -2.532181024551391602e+00
2.280000000000000000e+03 5.213878631591796875e+01 2.733013725280761719e+01 -1.052087545394897461e+00 3.855051755905151367e+00 8.408892750740051270e-01 1.531297802925109863e+00
2.281000000000000000e+03 5.052727890014648438e+01 2.826150703430175781e+01 -1.078219175338745117e+00 4.119363784790039062e+00 9.123433828353881836e-01 1.114827394485473633e+00
2.282000000000000000e+03 4.087288665771484375e+01 -1.467785644531250000e+01 1.853800296783447266e+00 8.336600303649902344e+00 3.057120084762573242e+00 5.314185619354248047e-01
2.283000000000000000e+03 3.644664382934570312e+01 -1.244223594665527344e+01 1.454597711563110352e+00 5.399337291717529297e+00 2.056180477142333984e+00 -9.874367117881774902e-01
2.284000000000000000e+03 9.045222282409667969e+00 -2.803085708618164062e+01 -1.034146428108215332e+00 4.983313083648681641e+00 1.184749960899353027e+00 7.766864299774169922e-01
2.285000000000000000e+03 4.697856521606445312e+01 2.177844429016113281e+01 -5.730394124984741211e-01 6.083317279815673828e+00 1.653083324432373047e+00 1.403318494558334351e-01
2.286000000000000000e+03 7.411316680908203125e+01 3.931855261325836182e-01 -3.856356739997863770e-01 7.397000789642333984e+00 2.103409528732299805e+00 -1.562893241643905640e-01
2.287000000000000000e+03 1.456007766723632812e+01 -3.347468185424804688e+01 -8.336970210075378418e-01 2.390440464019775391e+00 4.670230448246002197e-01 -3.528266549110412598e-01
2.288000000000000000e+03 1.376627635955810547e+01 -3.680739974975585938e+01 -4.499537348747253418e-01 2.419104337692260742e+00 5.907451510429382324e-01 -2.047516256570816040e-01
2.289000000000000000e+03 2.923916244506835938e+01 -1.211910915374755859e+01 1.130761981010437012e+00 1.032401919364929199e+00 6.489491462707519531e-01 -2.558495044708251953e+00
2.290000000000000000e+03 3.123320388793945312e+01 -1.004366016387939453e+01 1.216781616210937500e+00 1.791347622871398926e+00 9.024387598037719727e-01 -3.235830783843994141e+00
2.291000000000000000e+03 4.105781936645507812e+01 -1.345105552673339844e+01 1.283466696739196777e+00 7.956866741180419922e+00 2.772099971771240234e+00 7.136526703834533691e-01
2.292000000000000000e+03 6.203698158264160156e+00 -2.940122795104980469e+01 -6.578609943389892578e-01 4.417190551757812500e+00 1.127798795700073242e+00 1.069344520568847656e+00
2.293000000000000000e+03 7.398164367675781250e+01 -7.074951648712158203e+00 -5.244605541229248047e-01 7.647391319274902344e+00 2.136879205703735352e+00 5.459207296371459961e-01
2.294000000000000000e+03 1.232447719573974609e+01 2.889637947082519531e+00 -1.645423471927642822e-01 8.866155624389648438e+00 2.610484123229980469e+00 -3.190171480178833008e+00
2.295000000000000000e+03 8.586363792419433594e+00 -3.654845237731933594e+00 1.698668956756591797e+00 1.649783134460449219e+00 1.004535555839538574e+00 2.140011310577392578e+00
2.296000000000000000e+03 9.223440170288085938e+00 -4.256739616394042969e+00 1.613409042358398438e+00 2.722078800201416016e+00 1.300646424293518066e+00 2.957685470581054688e+00
2.297000000000000000e+03 1.011263465881347656e+01 -3.488926172256469727e+00 2.536146879196166992e+00 3.001368761062622070e+00 1.661254644393920898e+00 3.644258737564086914e+00
2.298000000000000000e+03 9.667880058288574219e+00 -3.552455186843872070e+00 2.295030355453491211e+00 2.417771100997924805e+00 1.413840413093566895e+00 3.118652105331420898e+00
2.299000000000000000e+03 1.383979225158691406e+01 -4.162740707397460938e+00 6.990433931350708008e-01 1.056392765045166016e+01 3.378891468048095703e+00 2.102440595626831055e+00
2.300000000000000000e+03 1.261471748352050781e+01 -3.478349208831787109e+00 1.533283352851867676e+00 1.034464836120605469e+01 3.563379764556884766e+00 4.561597347259521484e+00
2.301000000000000000e+03 1.173179340362548828e+01 3.484508514404296875e+00 1.326120644807815552e-01 6.903283596038818359e+00 2.110768556594848633e+00 -2.875140428543090820e+00
2.302000000000000000e+03 9.157382965087890625e+00 -3.608003377914428711e+00 2.016216278076171875e+00 2.017924308776855469e+00 1.210242271423339844e+00 2.630800485610961914e+00
2.303000000000000000e+03 1.221762180328369141e+01 2.412055730819702148e+00 2.807986438274383545e-01 8.663092613220214844e+00 2.683167457580566406e+00 -3.680043458938598633e+00
2.304000000000000000e+03 1.053605079650878906e+01 2.909209012985229492e+00 8.389892578125000000e-01 3.507038116455078125e+00 1.303808212280273438e+00 -2.341465711593627930e+00
2.305000000000000000e+03 1.270838069915771484e+01 -4.126873970031738281e+00 9.134342074394226074e-01 9.328310012817382812e+00 3.072523355484008789e+00 3.999736070632934570e+00
2.306000000000000000e+03 1.559080886840820312e+01 3.160396337509155273e+00 -1.094731092453002930e-01 1.137602519989013672e+01 3.379965782165527344e+00 8.471889495849609375e-01
2.307000000000000000e+03 1.476276683807373047e+01 4.655887603759765625e+00 -1.058666944503784180e+00 1.060353374481201172e+01 2.863459825515747070e+00 -2.717913985252380371e-01
2.308000000000000000e+03 1.113874530792236328e+01 3.466209173202514648e+00 4.985461235046386719e-01 5.326704502105712891e+00 1.747575163841247559e+00 -2.677258491516113281e+00
2.309000000000000000e+03 9.625144004821777344e+00 4.834033966064453125e+00 6.252964138984680176e-01 3.416007995605468750e+00 1.212391376495361328e+00 -1.411105632781982422e+00
2.310000000000000000e+03 6.397376537322998047e+00 5.360855102539062500e+00 5.745401382446289062e-01 9.680148959159851074e-01 4.627664983272552490e-01 -5.600654706358909607e-02
2.311000000000000000e+03 6.251129627227783203e+00 5.889574050903320312e+00 5.792800784111022949e-01 1.067244291305541992e+00 4.939573109149932861e-01 -8.954901993274688721e-02
2.312000000000000000e+03 7.147145748138427734e+00 -5.289229393005371094e+00 6.152465343475341797e-01 2.030130386352539062e+00 7.936130762100219727e-01 1.499294281005859375e+00
2.313000000000000000e+03 7.648771762847900391e+00 -6.917815685272216797e+00 -3.425990045070648193e-02 3.386763811111450195e+00 1.005751132965087891e+00 1.874438166618347168e+00
2.314000000000000000e+03 7.560621738433837891e+00 6.514459133148193359e+00 6.242848038673400879e-01 2.091454744338989258e+00 8.147218823432922363e-01 -4.705071449279785156e-01
2.315000000000000000e+03 7.109356403350830078e+00 6.168341636657714844e+00 6.025114059448242188e-01 1.680928587913513184e+00 6.850319504737854004e-01 -3.062949776649475098e-01
2.316000000000000000e+03 1.589959144592285156e+01 2.398900032043457031e+00 1.213238835334777832e+00 1.090661716461181641e+01 3.635956764221191406e+00 1.389432072639465332e+00
2.317000000000000000e+03 1.701102256774902344e+01 1.951200246810913086e+00 2.349202394485473633e+00 8.669063568115234375e+00 3.305479526519775391e+00 1.052056431770324707e+00
2.318000000000000000e+03 5.703805923461914062e+00 -5.580686092376708984e+00 3.841777741909027100e-01 1.431782722473144531e+00 5.447881817817687988e-01 8.073928952217102051e-01
2.319000000000000000e+03 1.433245849609375000e+01 -3.560049772262573242e+00 1.667334794998168945e+00 1.145014095306396484e+01 3.935242652893066406e+00 5.364954471588134766e-01
2.320000000000000000e+03 1.345035171508789062e+01 -8.879869461059570312e+00 -2.288080453872680664e+00 5.967126846313476562e+00 1.103713870048522949e+00 3.289801597595214844e+00
2.321000000000000000e+03 1.102037525177001953e+01 -9.427721023559570312e+00 -2.268990039825439453e+00 6.954813003540039062e+00 1.405746817588806152e+00 2.855436086654663086e+00
2.322000000000000000e+03 1.310014629364013672e+01 9.299385070800781250e+00 6.470726430416107178e-02 7.660087108612060547e+00 2.317438125610351562e+00 -4.705273211002349854e-01
2.323000000000000000e+03 1.379145622253417969e+01 1.116726016998291016e+01 5.613557696342468262e-01 7.995913982391357422e+00 2.567180871963500977e+00 -3.140740990638732910e-01
2.324000000000000000e+03 1.271921920776367188e+01 1.204384517669677734e+01 7.229781746864318848e-01 6.962553024291992188e+00 2.305659294128417969e+00 -4.273919463157653809e-01
2.325000000000000000e+03 9.065720558166503906e+00 5.913488864898681641e+00 5.884708166122436523e-01 3.234958887100219727e+00 1.147028923034667969e+00 -1.031788349151611328e+00
2.326000000000000000e+03 9.099986076354980469e+00 5.159333705902099609e+00 6.779023408889770508e-01 2.971073389053344727e+00 1.094692707061767578e+00 -1.141907334327697754e+00
2.327000000000000000e+03 8.437329292297363281e+00 5.859288692474365234e+00 6.518425941467285156e-01 2.535139083862304688e+00 9.560945034027099609e-01 -7.912486195564270020e-01
2.328000000000000000e+03 6.910932064056396484e+00 -9.401831626892089844e+00 -6.244069933891296387e-01 4.018190860748291016e+00 1.018135190010070801e+00 9.860982298851013184e-01
2.329000000000000000e+03 1.042635059356689453e+01 -1.107963657379150391e+01 -2.124027729034423828e+00 7.593161582946777344e+00 1.640740156173706055e+00 1.755744457244873047e+00
2.330000000000000000e+03 2.097137832641601562e+01 -8.329331398010253906e+00 1.647630929946899414e-01 1.330864191055297852e+00 4.486881792545318604e-01 -1.984926223754882812e+00
2.331000000000000000e+03 1.591318035125732422e+01 7.978817939758300781e+00 -4.128743410110473633e-01 9.721071243286132812e+00 2.792459011077880859e+00 -3.186018764972686768e-02
2.332000000000000000e+03 1.564834022521972656e+01 7.106966018676757812e+00 -6.859050393104553223e-01 9.778176307678222656e+00 2.727681398391723633e+00 -2.299956418573856354e-02
2.333000000000000000e+03 1.271146202087402344e+01 -8.904056549072265625e+00 -2.390254735946655273e+00 6.461827754974365234e+00 1.221471905708312988e+00 3.398917198181152344e+00
2.334000000000000000e+03 4.373955917358398438e+01 -7.268995761871337891e+00 -1.836454033851623535e+00 9.035108566284179688e+00 2.159596443176269531e+00 1.226563692092895508e+00
2.335000000000000000e+03 4.060653686523437500e+01 -9.678834915161132812e+00 -4.012161195278167725e-01 7.184143066406250000e+00 2.034878015518188477e+00 1.107009053230285645e+00
2.336000000000000000e+03 1.676745414733886719e+01 -2.580367803573608398e+00 4.847605705261230469e+00 7.030678272247314453e+00 3.563485145568847656e+00 -1.957347869873046875e+00
2.337000000000000000e+03 1.589776515960693359e+01 -3.752659082412719727e+00 2.719827890396118164e+00 8.308951377868652344e+00 3.308633804321289062e+00 -1.227641463279724121e+00
2.338000000000000000e+03 6.175717830657958984e+00 1.129627895355224609e+01 4.418522715568542480e-01 1.971729516983032227e+00 7.240745425224304199e-01 -4.366078674793243408e-01
2.339000000000000000e+03 7.235394477844238281e+00 1.261264228820800781e+01 5.100411176681518555e-01 2.773387670516967773e+00 9.850286841392517090e-01 -6.142658591270446777e-01
2.340000000000000000e+03 1.256187057495117188e+01 1.588203334808349609e+01 1.101202964782714844e+00 6.421373844146728516e+00 2.256772994995117188e+00 -6.995211243629455566e-01
2.341000000000000000e+03 4.463035964965820312e+01 -4.521396160125732422e+00 -1.609519243240356445e+00 9.553478240966796875e+00 2.383187770843505859e+00 8.104050159454345703e-01
2.342000000000000000e+03 1.782761955261230469e+01 2.258901596069335938e+00 1.827150344848632812e+00 7.543117523193359375e+00 2.811080455780029297e+00 4.845945537090301514e-01
2.343000000000000000e+03 1.671685600280761719e+01 3.513014018535614014e-01 5.236243247985839844e+00 8.194394111633300781e+00 4.029191017150878906e+00 8.331111073493957520e-01
2.344000000000000000e+03 1.736699485778808594e+01 -1.030450820922851562e+00 5.861598968505859375e+00 6.137877941131591797e+00 3.599843025207519531e+00 -1.012195825576782227e+00
2.345000000000000000e+03 8.723974227905273438e+00 -1.393153476715087891e+01 2.184706628322601318e-01 6.954742908477783203e+00 2.151964187622070312e+00 1.881989985704421997e-01
2.346000000000000000e+03 1.433490562438964844e+01 7.265011310577392578e+00 -6.302353739738464355e-01 9.055224418640136719e+00 2.527496814727783203e+00 -3.861187398433685303e-01
2.347000000000000000e+03 1.554117584228515625e+01 8.762992858886718750e+00 -1.460879147052764893e-01 9.499133110046386719e+00 2.805913686752319336e+00 -8.873350173234939575e-02
2.348000000000000000e+03 4.052593612670898438e+01 -2.070000457763671875e+01 2.603407859802246094e+00 9.299436569213867188e+00 3.570853471755981445e+00 -3.942031562328338623e-01
2.349000000000000000e+03 7.183008575439453125e+01 5.481472969055175781e+00 -3.915450870990753174e-01 7.500245094299316406e+00 2.132610082626342773e+00 -2.552019357681274414e-01
2.350000000000000000e+03 6.728490447998046875e+01 1.718298316001892090e+00 -2.923324108123779297e-01 5.041627407073974609e+00 1.424788594245910645e+00 4.471449255943298340e-01
2.351000000000000000e+03 1.393717956542968750e+01 9.402637481689453125e+00 4.431689158082008362e-02 8.295635223388671875e+00 2.501985549926757812e+00 -3.336166441440582275e-01
2.352000000000000000e+03 5.663619518280029297e+00 -7.925442218780517578e+00 -1.695427298545837402e-01 2.457601308822631836e+00 6.864175796508789062e-01 7.731155753135681152e-01
2.353000000000000000e+03 5.789828777313232422e+00 -7.259563446044921875e+00 4.358679987490177155e-03 2.262861251831054688e+00 6.801660060882568359e-01 9.096269607543945312e-01
2.354000000000000000e+03 1.737699317932128906e+01 3.028742074966430664e+00 7.695271968841552734e-01 8.702629089355468750e+00 2.841646909713745117e+00 7.088031172752380371e-01
2.355000000000000000e+03 1.627189636230468750e+01 -8.874635696411132812e+00 -1.332970142364501953e+00 2.899401903152465820e+00 4.699295461177825928e-01 1.246787905693054199e+00
2.356000000000000000e+03 7.311402893066406250e+01 2.370385169982910156e+01 -6.766518950462341309e-01 8.324811935424804688e+00 2.294447898864746094e+00 8.137720823287963867e-01
2.357000000000000000e+03 7.238271331787109375e+01 2.203308677673339844e+01 -4.947265684604644775e-01 8.693258285522460938e+00 2.459559440612792969e+00 1.063014864921569824e+00
2.358000000000000000e+03 3.578057479858398438e+01 -1.333815860748291016e+01 2.045824289321899414e+00 5.518988132476806641e+00 2.269443750381469727e+00 -1.551641464233398438e+00
2.359000000000000000e+03 3.913056945800781250e+01 -1.269190883636474609e+01 1.273910045623779297e+00 6.838818550109863281e+00 2.433818578720092773e+00 2.693151235580444336e-01
2.360000000000000000e+03 7.145729827880859375e+01 -2.367302513122558594e+01 5.972260236740112305e-02 9.036379814147949219e+00 2.728830814361572266e+00 -8.348025679588317871e-01
2.361000000000000000e+03 4.731998825073242188e+01 -3.365309476852416992e+00 -3.781353235244750977e-01 7.406641960144042969e+00 2.108551979064941406e+00 -8.085557073354721069e-02
2.362000000000000000e+03 1.443015861511230469e+01 2.505180168151855469e+01 -9.123018980026245117e-01 5.548077583312988281e+00 1.390732645988464355e+00 -5.096105933189392090e-01
2.363000000000000000e+03 1.515169429779052734e+01 2.061720085144042969e+01 4.449521601200103760e-01 7.108033180236816406e+00 2.265895605087280273e+00 -7.919974327087402344e-01
2.364000000000000000e+03 7.843833923339843750e+00 -1.302843761444091797e+01 -3.480541408061981201e-01 5.841233253479003906e+00 1.647953748703002930e+00 2.524323761463165283e-01
2.365000000000000000e+03 1.630095672607421875e+01 3.479509115219116211e+00 -3.151212632656097412e-02 1.030233383178710938e+01 3.081246614456176758e+00 8.499364256858825684e-01
2.366000000000000000e+03 6.579482269287109375e+01 -5.580785870552062988e-01 -8.256788365542888641e-03 3.887188673019409180e+00 1.163679599761962891e+00 2.220019996166229248e-01
2.367000000000000000e+03 6.147325134277343750e+01 -4.053910732269287109e+00 6.057244539260864258e-01 1.351154565811157227e+00 5.870637297630310059e-01 -3.017010092735290527e-01
2.368000000000000000e+03 6.318412780761718750e+01 -6.448539257049560547e+00 1.505582928657531738e-01 2.079568147659301758e+00 6.690379381179809570e-01 -7.136609554290771484e-01
2.369000000000000000e+03 1.658068084716796875e+01 2.593312072753906250e+01 -1.148211121559143066e+00 5.393105030059814453e+00 1.273468255996704102e+00 2.931672334671020508e-01
2.370000000000000000e+03 7.186443328857421875e+01 -2.916819190979003906e+01 -8.043634891510009766e-01 7.460545063018798828e+00 1.996854424476623535e+00 -2.924090921878814697e-01
2.371000000000000000e+03 7.312519836425781250e+01 -9.377222061157226562e+00 -5.283887386322021484e-01 7.905350685119628906e+00 2.213088512420654297e+00 6.954590082168579102e-01
2.372000000000000000e+03 3.075633239746093750e+01 -1.104918956756591797e+01 1.300261139869689941e+00 1.702223420143127441e+00 9.007453322410583496e-01 -3.085155487060546875e+00
2.373000000000000000e+03 7.318751525878906250e+01 2.048877000808715820e+00 -4.335903227329254150e-01 7.319416522979736328e+00 2.065747976303100586e+00 -2.410683184862136841e-01
2.374000000000000000e+03 7.328570556640625000e+01 3.296456813812255859e+00 -4.136856794357299805e-01 7.440950393676757812e+00 2.108179569244384766e+00 -2.799030542373657227e-01
2.375000000000000000e+03 7.134095764160156250e+01 -4.664535045623779297e+00 -6.579875946044921875e-01 6.870171070098876953e+00 1.863655090332031250e+00 4.712684452533721924e-02
2.376000000000000000e+03 7.255664062500000000e+01 -2.615071296691894531e+00 -5.183438062667846680e-01 7.049200057983398438e+00 1.959256768226623535e+00 6.664486974477767944e-02
2.377000000000000000e+03 7.279056549072265625e+01 1.926266288757324219e+01 7.161530852317810059e-01 8.669521331787109375e+00 2.815702438354492188e+00 1.088645219802856445e+00
2.378000000000000000e+03 6.290667724609375000e+01 -2.970809221267700195e+00 4.655103087425231934e-01 2.156216859817504883e+00 7.865181565284729004e-01 -1.904930174350738525e-01
2.379000000000000000e+03 6.121043014526367188e+01 -5.646754264831542969e+00 4.119274914264678955e-01 1.124721646308898926e+00 4.609947502613067627e-01 -4.385500550270080566e-01
2.380000000000000000e+03 6.600513458251953125e+00 -8.517242431640625000e+00 -4.080326855182647705e-01 3.397800445556640625e+00 8.969303369522094727e-01 1.075390815734863281e+00
2.381000000000000000e+03 6.117665767669677734e+00 -1.068708038330078125e+01 -5.009463429450988770e-01 3.757040262222290039e+00 9.768281579017639160e-01 4.495189189910888672e-01
2.382000000000000000e+03 3.816317749023437500e+01 -1.532207298278808594e+01 2.298316955566406250e+00 7.569560527801513672e+00 2.960363149642944336e+00 -4.695605933666229248e-01
2.383000000000000000e+03 4.008647155761718750e+01 -1.328294944763183594e+01 1.363270878791809082e+00 7.635940551757812500e+00 2.699763536453247070e+00 4.199820160865783691e-01
2.384000000000000000e+03 7.353126525878906250e+01 -2.242264747619628906e+01 4.822202026844024658e-01 8.341933250427246094e+00 2.647246122360229492e+00 -1.033616185188293457e+00
2.385000000000000000e+03 6.743883514404296875e+01 -8.613598823547363281e+00 -6.544870734214782715e-01 5.615613460540771484e+00 1.488337993621826172e+00 -1.115901708602905273e+00
2.386000000000000000e+03 7.025743103027343750e+01 2.396732711791992188e+01 -1.567824006080627441e+00 8.360072135925292969e+00 2.037674427032470703e+00 -1.570746898651123047e-01
2.387000000000000000e+03 7.018512725830078125e+00 2.315950393676757812e+01 -9.486584365367889404e-02 3.228742122650146484e+00 9.401628971099853516e-01 -1.243679046630859375e+00
2.388000000000000000e+03 9.373627662658691406e+00 2.526634025573730469e+01 -4.341929852962493896e-01 4.173685073852539062e+00 1.121847629547119141e+00 -1.166336536407470703e+00
2.389000000000000000e+03 7.188855743408203125e+01 -2.486760330200195312e+01 -2.781749963760375977e-01 8.482698440551757812e+00 2.461357116699218750e+00 -8.187859058380126953e-01
2.390000000000000000e+03 7.306108856201171875e+01 -2.446330451965332031e+01 -7.808716595172882080e-02 8.356181144714355469e+00 2.483428001403808594e+00 -1.065201401710510254e+00
2.391000000000000000e+03 2.207032203674316406e+01 -4.510344982147216797e+00 3.259529590606689453e+00 1.509905457496643066e+00 1.430830478668212891e+00 -2.647217035293579102e+00
2.392000000000000000e+03 1.883793640136718750e+01 -5.563045978546142578e+00 2.216046094894409180e+00 3.208940029144287109e+00 1.627495884895324707e+00 -2.030664920806884766e+00
2.393000000000000000e+03 7.375149536132812500e+01 -1.351231479644775391e+01 3.645976781845092773e-01 8.126224517822265625e+00 2.547246694564819336e+00 9.481608271598815918e-01
2.394000000000000000e+03 7.320169067382812500e+01 4.555793285369873047e+00 -3.940452039241790771e-01 7.531585693359375000e+00 2.141262054443359375e+00 -4.167766273021697998e-01
2.395000000000000000e+03 7.131028747558593750e+01 3.420208215713500977e+00 -5.063601136207580566e-01 7.056641101837158203e+00 1.965084314346313477e+00 -3.805501386523246765e-02
2.396000000000000000e+03 7.230135345458984375e+01 -4.945891857147216797e+00 -6.319602727890014648e-01 7.125255107879638672e+00 1.947988390922546387e+00 1.308657974004745483e-01
2.397000000000000000e+03 7.323331451416015625e+01 -4.962326049804687500e+00 -5.835835337638854980e-01 7.373816490173339844e+00 2.037070035934448242e+00 2.396487146615982056e-01
2.398000000000000000e+03 7.197756958007812500e+01 -1.168747520446777344e+01 -1.568882465362548828e-01 8.469828605651855469e+00 2.493882179260253906e+00 7.945368885993957520e-01
2.399000000000000000e+03 7.210330200195312500e+01 -5.945575237274169922e+00 -6.943262219429016113e-01 7.250771522521972656e+00 1.966933608055114746e+00 1.802115142345428467e-01
2.400000000000000000e+03 6.304531097412109375e+00 -7.733913421630859375e+00 -1.670361310243606567e-01 2.824663877487182617e+00 7.972882986068725586e-01 1.079445600509643555e+00
2.401000000000000000e+03 7.086156463623046875e+01 -1.051364994049072266e+01 -5.563035607337951660e-01 8.240448951721191406e+00 2.305243730545043945e+00 3.076185882091522217e-01
2.402000000000000000e+03 8.024461746215820312e+00 1.760618782043457031e+01 4.999145269393920898e-01 3.493974208831787109e+00 1.198166608810424805e+00 -1.131381392478942871e+00
2.403000000000000000e+03 6.021116256713867188e+01 -2.613351583480834961e+00 8.860808610916137695e-01 7.954776287078857422e-01 5.044675469398498535e-01 -1.282732486724853516e-01
2.404000000000000000e+03 1.182783222198486328e+01 -3.210794830322265625e+01 -1.011452078819274902e+00 3.527177333831787109e+00 7.547175288200378418e-01 -6.976788491010665894e-02
2.405000000000000000e+03 8.398363113403320312e+00 1.867906379699707031e+01 4.194059073925018311e-01 3.648585319519042969e+00 1.220397353172302246e+00 -1.226871848106384277e+00
2.406000000000000000e+03 7.514896869659423828e+00 1.917242431640625000e+01 2.938372790813446045e-01 3.227385282516479492e+00 1.056366801261901855e+00 -1.213510036468505859e+00
2.407000000000000000e+03 2.003450012207031250e+01 -1.230833411216735840e+00 4.081868171691894531e+00 2.918160676956176758e+00 2.100008726119995117e+00 -2.008923768997192383e+00
2.408000000000000000e+03 6.394347667694091797e+00 -1.153200912475585938e+01 -4.851225614547729492e-01 4.213733673095703125e+00 1.118583321571350098e+00 3.083928525447845459e-01
2.409000000000000000e+03 1.920608901977539062e+01 -2.438548803329467773e-01 4.097105026245117188e+00 4.207517623901367188e+00 2.491386890411376953e+00 -1.202927947044372559e+00
2.410000000000000000e+03 6.856095314025878906e+00 9.531761169433593750e+00 5.269207358360290527e-01 2.242362022399902344e+00 8.307848572731018066e-01 -4.058516025543212891e-01
2.411000000000000000e+03 1.020695877075195312e+01 2.918362808227539062e+01 -6.650323867797851562e-01 4.134515762329101562e+00 1.040845036506652832e+00 -7.691093087196350098e-01
2.412000000000000000e+03 1.143633937835693359e+01 1.262402153015136719e+01 7.586424946784973145e-01 5.803874015808105469e+00 1.968754887580871582e+00 -5.944641828536987305e-01
2.413000000000000000e+03 6.025031566619873047e+00 -2.770574188232421875e+01 -5.608531236648559570e-01 4.524295806884765625e+00 1.189032793045043945e+00 1.286934971809387207e+00
2.414000000000000000e+03 1.251160717010498047e+01 1.305299758911132812e+01 8.789105415344238281e-01 6.660973072052001953e+00 2.261965036392211914e+00 -4.686173498630523682e-01
2.415000000000000000e+03 6.145954132080078125e+01 -2.885070323944091797e+00 6.865788102149963379e-01 1.362632274627685547e+00 6.147633194923400879e-01 -1.449840217828750610e-01
2.416000000000000000e+03 6.358734893798828125e+01 -4.884146690368652344e+00 2.538842260837554932e-01 2.442850589752197266e+00 8.090204596519470215e-01 -5.077698826789855957e-01
2.417000000000000000e+03 7.296355438232421875e+01 8.862341880798339844e+00 8.181297779083251953e-02 8.103830337524414062e+00 2.455693006515502930e+00 -5.802834033966064453e-01
2.418000000000000000e+03 3.942576217651367188e+01 -9.629902839660644531e+00 -1.262379437685012817e-01 6.019750118255615234e+00 1.768053650856018066e+00 9.759635329246520996e-01
2.419000000000000000e+03 3.733805084228515625e+01 -1.070362663269042969e+01 7.479651570320129395e-01 5.036047935485839844e+00 1.735203862190246582e+00 -2.332879155874252319e-01
2.420000000000000000e+03 7.090917205810546875e+01 -3.087907981872558594e+01 -7.747121453285217285e-01 6.793108940124511719e+00 1.805518984794616699e+00 6.363953649997711182e-02
2.421000000000000000e+03 7.180387878417968750e+01 1.355362892150878906e+00 -5.168133378028869629e-01 6.942856311798095703e+00 1.927812933921813965e+00 -9.766446053981781006e-02
2.422000000000000000e+03 7.332933807373046875e+01 -2.571269798278808594e+01 -3.734554648399353027e-01 8.074704170227050781e+00 2.310374498367309570e+00 -9.905477166175842285e-01
2.423000000000000000e+03 6.633402252197265625e+01 -4.571601867675781250e+00 -2.387976944446563721e-01 4.284251689910888672e+00 1.213636279106140137e+00 -5.019109845161437988e-01
2.424000000000000000e+03 1.615888023376464844e+01 5.695938587188720703e+00 -9.581500887870788574e-01 1.006078910827636719e+01 2.730791568756103516e+00 2.001354098320007324e-01
2.425000000000000000e+03 4.249464416503906250e+01 -1.063082885742187500e+01 -1.830232888460159302e-01 8.297569274902343750e+00 2.434363842010498047e+00 1.093791365623474121e+00
2.426000000000000000e+03 7.110375976562500000e+01 2.593457794189453125e+01 -1.272968053817749023e+00 7.690816402435302734e+00 1.925354480743408203e+00 -2.264991402626037598e-01
2.427000000000000000e+03 7.144639587402343750e+01 -6.331143379211425781e-01 -5.372505784034729004e-01 6.716217041015625000e+00 1.853689908981323242e+00 1.279351115226745605e-02
2.428000000000000000e+03 3.643001556396484375e+01 -1.088909626007080078e+01 9.937689304351806641e-01 4.275693893432617188e+00 1.580838799476623535e+00 -7.162343859672546387e-01
2.429000000000000000e+03 4.305248641967773438e+01 -2.568397712707519531e+01 1.493501782417297363e+00 8.526858329772949219e+00 3.006108045578002930e+00 -7.386938929557800293e-01
2.430000000000000000e+03 7.305201721191406250e+01 -7.054825782775878906e+00 -6.419849991798400879e-01 7.586591243743896484e+00 2.083381891250610352e+00 4.305928647518157959e-01
2.431000000000000000e+03 6.986208343505859375e+01 -7.307397842407226562e+00 -7.780551314353942871e-01 6.757360458374023438e+00 1.793791651725769043e+00 -2.333378642797470093e-01
2.432000000000000000e+03 4.455046463012695312e+01 -2.826183891296386719e+01 1.944576650857925415e-01 7.632634162902832031e+00 2.348127365112304688e+00 -1.192766785621643066e+00
2.433000000000000000e+03 4.567523193359375000e+01 2.197784614562988281e+01 -6.902118325233459473e-01 5.825225353240966797e+00 1.540504097938537598e+00 -1.495775431394577026e-01
2.434000000000000000e+03 4.441388320922851562e+01 2.182749176025390625e+01 -6.654843688011169434e-01 5.524124145507812500e+00 1.457591891288757324e+00 -4.757905304431915283e-01
2.435000000000000000e+03 1.334703826904296875e+01 -3.073572731018066406e+01 -1.077468276023864746e+00 3.073406457901000977e+00 5.987814664840698242e-01 -3.102622032165527344e-01
2.436000000000000000e+03 7.771986484527587891e+00 -2.596027755737304688e+01 -6.312656998634338379e-01 5.164716720581054688e+00 1.360035181045532227e+00 1.352241992950439453e+00
2.437000000000000000e+03 8.705614089965820312e+00 2.870682907104492188e+01 -4.936460852622985840e-01 3.806434392929077148e+00 9.938364624977111816e-01 -9.130318164825439453e-01
2.438000000000000000e+03 9.423798561096191406e+00 1.184114551544189453e+01 6.168525815010070801e-01 4.270507812500000000e+00 1.466208100318908691e+00 -6.355085968971252441e-01
2.439000000000000000e+03 7.083409118652343750e+01 5.051079273223876953e+00 -5.120651125907897949e-01 7.318961620330810547e+00 2.042068958282470703e+00 -6.128527689725160599e-03
2.440000000000000000e+03 4.042533874511718750e+01 -2.885169601440429688e+01 -2.359922230243682861e-02 7.677951812744140625e+00 2.296305656433105469e+00 -1.941460818052291870e-01
2.441000000000000000e+03 4.152441787719726562e+01 -2.934030342102050781e+01 -1.574923247098922729e-01 7.630125522613525391e+00 2.241790056228637695e+00 -3.750357329845428467e-01
2.442000000000000000e+03 6.910586547851562500e+01 -8.030919075012207031e+00 -8.121708035469055176e-01 6.594308376312255859e+00 1.734641313552856445e+00 -5.627459883689880371e-01
2.443000000000000000e+03 4.816324234008789062e+01 2.872418594360351562e+01 -1.094513058662414551e+00 4.298569202423095703e+00 9.612168669700622559e-01 6.076911687850952148e-01
2.444000000000000000e+03 4.602159500122070312e+01 2.482667160034179688e+01 -1.130931258201599121e+00 5.186521530151367188e+00 1.216677069664001465e+00 -5.229878425598144531e-02
2.445000000000000000e+03 7.117283630371093750e+01 -3.310200119018554688e+01 -5.327662825584411621e-01 6.545354843139648438e+00 1.803776502609252930e+00 1.280947476625442505e-01
2.446000000000000000e+03 7.211074829101562500e+01 -3.582291412353515625e+01 -2.575999796390533447e-01 6.525281906127929688e+00 1.880304574966430664e+00 1.410720944404602051e-01
2.447000000000000000e+03 7.967993259429931641e+00 -2.781561088562011719e+01 -8.320754170417785645e-01 4.824785709381103516e+00 1.197813034057617188e+00 1.083449244499206543e+00
2.448000000000000000e+03 7.694887638092041016e+00 -2.942236328125000000e+01 -8.638243675231933594e-01 4.625367164611816406e+00 1.128462910652160645e+00 8.916350603103637695e-01
2.449000000000000000e+03 4.307052612304687500e+01 2.342321205139160156e+01 -8.176417946815490723e-01 4.649816989898681641e+00 1.149652600288391113e+00 -7.032218575477600098e-01
2.450000000000000000e+03 1.896798515319824219e+01 2.681748580932617188e+01 -1.084771037101745605e+00 4.490075111389160156e+00 1.021591305732727051e+00 1.129361987113952637e+00
2.451000000000000000e+03 1.017711162567138672e+01 3.379278182983398438e+01 -5.569307208061218262e-01 3.784909009933471680e+00 9.683935046195983887e-01 -4.138685464859008789e-01
2.452000000000000000e+03 8.200717926025390625e+00 3.023475646972656250e+01 -4.673458337783813477e-01 3.705015897750854492e+00 9.713010191917419434e-01 -7.933228611946105957e-01
2.453000000000000000e+03 2.139178085327148438e+01 -3.452443122863769531e+00 3.614135980606079102e+00 1.745960354804992676e+00 1.608028888702392578e+00 -2.598086595535278320e+00
2.454000000000000000e+03 2.150094413757324219e+01 -6.701272487640380859e+00 1.809014439582824707e+00 1.523057103157043457e+00 9.996214509010314941e-01 -2.483898401260375977e+00
2.455000000000000000e+03 5.105796813964843750e+01 3.169327354431152344e+01 -6.357983946800231934e-01 3.472673177719116211e+00 8.510624766349792480e-01 9.375857114791870117e-01
2.456000000000000000e+03 5.384909439086914062e+01 2.912095451354980469e+01 -5.618890523910522461e-01 2.913999557495117188e+00 7.056331634521484375e-01 1.418244481086730957e+00
2.457000000000000000e+03 4.295486068725585938e+01 -3.319517898559570312e+01 -1.221216917037963867e+00 6.516362190246582031e+00 1.588543534278869629e+00 -6.795546412467956543e-01
2.458000000000000000e+03 4.317224884033203125e+01 -3.097485351562500000e+01 -7.091424465179443359e-01 7.083183288574218750e+00 1.912212252616882324e+00 -7.771942615509033203e-01
2.459000000000000000e+03 2.099280357360839844e+01 3.085270690917968750e+01 -5.205295681953430176e-01 2.965286731719970703e+00 7.334271669387817383e-01 8.882469534873962402e-01
2.460000000000000000e+03 2.286272239685058594e+01 2.920712852478027344e+01 -3.166306912899017334e-01 2.360460042953491211e+00 6.131487488746643066e-01 1.020420789718627930e+00
2.461000000000000000e+03 4.220310974121093750e+01 -7.857646942138671875e+00 -1.654277324676513672e+00 8.442760467529296875e+00 2.036545038223266602e+00 1.501850128173828125e+00
2.462000000000000000e+03 3.352954864501953125e+01 2.722195816040039062e+01 -3.215237855911254883e-01 1.584819078445434570e+00 3.789885938167572021e-01 -6.972007155418395996e-01
2.463000000000000000e+03 6.846105194091796875e+01 2.607634925842285156e+01 -1.287660837173461914e+00 6.000348091125488281e+00 1.413806200027465820e+00 -1.131498813629150391e+00
2.464000000000000000e+03 6.873616027832031250e+01 2.486887550354003906e+01 -1.650300979614257812e+00 6.602038860321044922e+00 1.485521435737609863e+00 -1.072397708892822266e+00
2.465000000000000000e+03 4.833986282348632812e+01 2.153904914855957031e+01 -4.879670441150665283e-01 6.448450565338134766e+00 1.788145065307617188e+00 5.646381974220275879e-01
2.466000000000000000e+03 4.436486053466796875e+01 1.932164764404296875e+01 -3.006004095077514648e-01 6.087937355041503906e+00 1.736201047897338867e+00 -3.907831013202667236e-01
2.467000000000000000e+03 5.984510803222656250e+01 3.119025421142578125e+01 3.279071748256683350e-01 2.124705076217651367e+00 7.357836961746215820e-01 4.565100371837615967e-01
2.468000000000000000e+03 1.050024127960205078e+01 -3.447520971298217773e+00 2.674056529998779297e+00 3.597596406936645508e+00 1.881495952606201172e+00 4.092662334442138672e+00
2.469000000000000000e+03 1.181564617156982422e+01 -3.565430879592895508e+00 2.210720777511596680e+00 7.247455120086669922e+00 2.837452888488769531e+00 5.151896476745605469e+00
2.470000000000000000e+03 1.179202175140380859e+01 -3.099133729934692383e+00 3.084765195846557617e+00 7.044289112091064453e+00 3.038716316223144531e+00 5.521178245544433594e+00
2.471000000000000000e+03 1.185344219207763672e+01 2.551225423812866211e+00 4.892690479755401611e-01 7.073987960815429688e+00 2.268977165222167969e+00 -3.570883512496948242e+00
2.472000000000000000e+03 1.323485374450683594e+01 3.486018180847167969e+00 -8.898733258247375488e-01 1.051531028747558594e+01 2.887631177902221680e+00 -1.926249861717224121e+00
2.473000000000000000e+03 1.062895393371582031e+01 3.449113607406616211e+00 7.108106017112731934e-01 4.191226959228515625e+00 1.470611214637756348e+00 -2.323834419250488281e+00
2.474000000000000000e+03 1.122385978698730469e+01 2.434588670730590820e+00 8.883729577064514160e-01 4.792152404785156250e+00 1.704157590866088867e+00 -3.175924301147460938e+00
2.475000000000000000e+03 1.109797191619873047e+01 -3.247038364410400391e+00 2.982576131820678711e+00 4.777486324310302734e+00 2.328018665313720703e+00 4.773923873901367188e+00
2.476000000000000000e+03 1.141508483886718750e+01 -3.474200248718261719e+00 2.638875484466552734e+00 5.868176937103271484e+00 2.552115678787231445e+00 5.061053276062011719e+00
2.477000000000000000e+03 1.021256065368652344e+01 -3.962046146392822266e+00 2.121734380722045898e+00 3.646205663681030273e+00 1.730381965637207031e+00 3.894746303558349609e+00
2.478000000000000000e+03 8.055590629577636719e+00 -4.382582664489746094e+00 1.216960072517395020e+00 1.909142255783081055e+00 9.378306865692138672e-01 2.000239372253417969e+00
2.479000000000000000e+03 1.054126167297363281e+01 3.947214365005493164e+00 5.744845271110534668e-01 4.364322662353515625e+00 1.481642127037048340e+00 -2.139942646026611328e+00
2.480000000000000000e+03 5.469593048095703125e+00 7.459577560424804688e+00 4.663829207420349121e-01 9.900640249252319336e-01 4.369340837001800537e-01 -3.289603441953659058e-02
2.481000000000000000e+03 6.959378719329833984e+00 -7.346204280853271484e+00 -1.223344355821609497e-01 3.118582725524902344e+00 8.988745212554931641e-01 1.450396418571472168e+00
2.482000000000000000e+03 8.641443252563476562e+00 -4.313333511352539062e+00 1.406671047210693359e+00 2.264610767364501953e+00 1.101384520530700684e+00 2.433365345001220703e+00
2.483000000000000000e+03 1.387708282470703125e+01 8.506641387939453125e+00 -2.386523336172103882e-01 8.387084007263183594e+00 2.444529533386230469e+00 -4.064594805240631104e-01
2.484000000000000000e+03 1.362494850158691406e+01 1.032905483245849609e+01 3.879390358924865723e-01 7.986242771148681641e+00 2.512254476547241211e+00 -3.061885833740234375e-01
2.485000000000000000e+03 1.562535381317138672e+01 6.247045040130615234e+00 -8.830721378326416016e-01 9.953266143798828125e+00 2.721058130264282227e+00 3.079930692911148071e-02
2.486000000000000000e+03 1.367236328125000000e+01 3.775289535522460938e+00 -9.206668734550476074e-01 1.077808570861816406e+01 2.957225561141967773e+00 -1.296936631202697754e+00
2.487000000000000000e+03 1.209269809722900391e+01 -8.127369880676269531e+00 -1.866743445396423340e+00 6.665152549743652344e+00 1.439522743225097656e+00 3.480808258056640625e+00
2.488000000000000000e+03 1.289031219482421875e+01 9.735980987548828125e+00 2.372274100780487061e-01 7.431503295898437500e+00 2.300619125366210938e+00 -4.206581413745880127e-01
2.489000000000000000e+03 6.619035243988037109e+00 6.590630531311035156e+00 5.889837741851806641e-01 1.458576321601867676e+00 6.142680048942565918e-01 -2.002353668212890625e-01
2.490000000000000000e+03 1.517550659179687500e+01 -4.294660568237304688e+00 1.567810177803039551e+00 9.165694236755371094e+00 3.220051288604736328e+00 -1.863958686590194702e-01
2.491000000000000000e+03 9.287140846252441406e+00 -5.542953014373779297e+00 6.180200576782226562e-01 3.868515014648437500e+00 1.345960497856140137e+00 3.110540151596069336e+00
2.492000000000000000e+03 1.486073303222656250e+01 8.292110443115234375e+00 -3.325969576835632324e-01 9.086753845214843750e+00 2.626247167587280273e+00 -2.064627856016159058e-01
2.493000000000000000e+03 1.700237274169921875e+01 3.758447170257568359e+00 -6.762070208787918091e-02 9.597876548767089844e+00 2.859076738357543945e+00 7.340014576911926270e-01
2.494000000000000000e+03 7.258724689483642578e+00 7.921057224273681641e+00 5.710121393203735352e-01 2.271410465240478516e+00 8.527268171310424805e-01 -4.027612805366516113e-01
2.495000000000000000e+03 2.076806640625000000e+01 -2.282624959945678711e+00 4.057124614715576172e+00 2.237013816833496094e+00 1.888241410255432129e+00 -2.429227352142333984e+00
2.496000000000000000e+03 1.652421951293945312e+01 -3.575896501541137695e+00 3.323364973068237305e+00 7.193866729736328125e+00 3.155169486999511719e+00 -1.664818048477172852e+00
2.497000000000000000e+03 1.348396301269531250e+01 8.940740585327148438e+00 -6.164644658565521240e-02 7.990541934967041016e+00 2.378668546676635742e+00 -4.167574644088745117e-01
2.498000000000000000e+03 1.420897483825683594e+01 -8.730673789978027344e+00 -2.041476011276245117e+00 5.380592823028564453e+00 1.001734972000122070e+00 2.950583457946777344e+00
2.499000000000000000e+03 1.276866340637207031e+01 -8.157731056213378906e+00 -1.876051545143127441e+00 6.522649288177490234e+00 1.393979310989379883e+00 3.385778903961181641e+00
2.500000000000000000e+03 1.497218513488769531e+01 -8.380948066711425781e+00 -1.528212547302246094e+00 4.839359760284423828e+00 9.933441877365112305e-01 2.174692630767822266e+00
2.501000000000000000e+03 6.831894683837890625e+01 2.649581670761108398e+00 -4.001732170581817627e-01 5.760641574859619141e+00 1.608140468597412109e+00 4.505303502082824707e-01
2.502000000000000000e+03 6.793616485595703125e+01 4.173561334609985352e-01 -3.222515583038330078e-01 5.272372245788574219e+00 1.485036134719848633e+00 2.447608113288879395e-01
2.503000000000000000e+03 7.122846221923828125e+01 -1.207809925079345703e+00 -5.296121835708618164e-01 6.627889633178710938e+00 1.829483151435852051e+00 7.971330545842647552e-03
2.504000000000000000e+03 6.815835571289062500e+01 -4.684913635253906250e+00 -5.498028397560119629e-01 5.523156166076660156e+00 1.492005944252014160e+00 -3.561519384384155273e-01
2.505000000000000000e+03 6.762837219238281250e+01 -6.601541042327880859e+00 -6.039255261421203613e-01 5.472870826721191406e+00 1.460683465003967285e+00 -6.662656068801879883e-01
2.506000000000000000e+03 6.977344512939453125e+01 -9.325974464416503906e+00 -7.890739440917968750e-01 7.500355720520019531e+00 2.013384580612182617e+00 -2.654946148395538330e-01
2.507000000000000000e+03 4.050476455688476562e+01 -1.088120079040527344e+01 1.938424706459045410e-01 7.154240608215332031e+00 2.204424858093261719e+00 9.427834749221801758e-01
2.508000000000000000e+03 1.547732162475585938e+01 5.143949508666992188e+00 -1.035490512847900391e+00 1.024850654602050781e+01 2.763904809951782227e+00 2.059159614145755768e-02
2.509000000000000000e+03 1.075750637054443359e+01 -1.022453117370605469e+01 -2.388668537139892578e+00 7.268939971923828125e+00 1.464081406593322754e+00 2.426187276840209961e+00
2.510000000000000000e+03 1.718211936950683594e+01 -7.716988086700439453e+00 -1.358304470777511597e-01 3.204720973968505859e+00 9.206671118736267090e-01 -8.573152869939804077e-02
2.511000000000000000e+03 1.736440658569335938e+01 -2.136006116867065430e+00 5.126572608947753906e+00 6.054975509643554688e+00 3.354464530944824219e+00 -1.813509345054626465e+00
2.512000000000000000e+03 1.725192642211914062e+01 -3.303443908691406250e+00 3.874795675277709961e+00 6.001489639282226562e+00 2.962885618209838867e+00 -1.957346081733703613e+00
2.513000000000000000e+03 7.092803955078125000e+01 -9.387975692749023438e+00 -7.770866751670837402e-01 7.907590389251708984e+00 2.139151096343994141e+00 1.649765670299530029e-01
2.514000000000000000e+03 7.205433654785156250e+01 -9.398097991943359375e+00 -6.076807379722595215e-01 7.932254314422607422e+00 2.197372198104858398e+00 5.284959077835083008e-01
2.515000000000000000e+03 3.807624435424804688e+01 -1.209935188293457031e+01 1.092938780784606934e+00 6.211280345916748047e+00 2.191265821456909180e+00 -1.140047684311866760e-01
2.516000000000000000e+03 3.746253967285156250e+01 -1.326247024536132812e+01 1.797360897064208984e+00 6.353280544281005859e+00 2.445192337036132812e+00 -5.794146656990051270e-01
2.517000000000000000e+03 6.922722625732421875e+01 -1.874433755874633789e+00 -4.725764393806457520e-01 5.850990772247314453e+00 1.613524198532104492e+00 -4.371649026870727539e-02
2.518000000000000000e+03 2.041471290588378906e+01 -7.235739231109619141e+00 1.177780747413635254e+00 1.800835728645324707e+00 8.935849666595458984e-01 -2.225562334060668945e+00
2.519000000000000000e+03 3.836330032348632812e+01 -1.085744380950927734e+01 6.055313348770141602e-01 5.659914493560791016e+00 1.879633665084838867e+00 3.423415720462799072e-01
2.520000000000000000e+03 1.197157764434814453e+01 -8.839727401733398438e+00 -2.248011112213134766e+00 6.734591960906982422e+00 1.345974206924438477e+00 3.364880084991455078e+00
2.521000000000000000e+03 1.827210617065429688e+01 3.542464375495910645e-01 4.093414783477783203e+00 5.683676719665527344e+00 2.933127641677856445e+00 -4.112088680267333984e-01
2.522000000000000000e+03 6.672614288330078125e+01 -5.708876252174377441e-02 -1.846993416547775269e-01 4.544184207916259766e+00 1.307845473289489746e+00 2.289955914020538330e-01
2.523000000000000000e+03 6.660949707031250000e+01 -1.117621421813964844e+00 -1.588206440210342407e-01 4.451069355010986328e+00 1.287674665451049805e+00 7.826939225196838379e-02
2.524000000000000000e+03 1.504966545104980469e+01 5.899730682373046875e+00 -9.741176366806030273e-01 9.966581344604492188e+00 2.697739124298095703e+00 -1.562937945127487183e-01
2.525000000000000000e+03 1.135204410552978516e+01 9.826690673828125000e+00 3.683250546455383301e-01 5.955046176910400391e+00 1.897011399269104004e+00 -6.100543737411499023e-01
2.526000000000000000e+03 7.483713150024414062e+00 8.803925514221191406e+00 5.830763578414916992e-01 2.608377933502197266e+00 9.574362635612487793e-01 -4.768441319465637207e-01
2.527000000000000000e+03 9.098670959472656250e+00 -1.145691204071044922e+01 -1.385452389717102051e+00 6.842214107513427734e+00 1.637028455734252930e+00 9.967704415321350098e-01
2.528000000000000000e+03 7.055341720581054688e+00 -1.225750350952148438e+01 -4.574289917945861816e-01 4.865027427673339844e+00 1.322279572486877441e+00 2.877219915390014648e-01
2.529000000000000000e+03 6.913285064697265625e+01 3.645195007324218750e+00 -5.051203966140747070e-01 6.369312763214111328e+00 1.759257674217224121e+00 3.142036497592926025e-01
2.530000000000000000e+03 1.157027912139892578e+01 1.497501087188720703e+01 9.259938597679138184e-01 5.760474205017089844e+00 2.005940437316894531e+00 -7.443722486495971680e-01
2.531000000000000000e+03 7.325591087341308594e+00 1.134429836273193359e+01 5.222588181495666504e-01 2.743480920791625977e+00 9.797219038009643555e-01 -5.441640615463256836e-01
2.532000000000000000e+03 7.152377319335937500e+01 2.452658462524414062e+01 -1.071366190910339355e+00 8.056260108947753906e+00 2.095468044281005859e+00 2.876741588115692139e-01
2.533000000000000000e+03 7.657207012176513672e+00 1.019579410552978516e+01 5.439745783805847168e-01 2.895559072494506836e+00 1.031860113143920898e+00 -5.223422050476074219e-01
2.534000000000000000e+03 6.505000305175781250e+01 -1.359292745590209961e+00 1.271062195301055908e-01 3.415310859680175781e+00 1.062725186347961426e+00 7.027111947536468506e-02
2.535000000000000000e+03 8.516939163208007812e+00 1.489793395996093750e+01 6.589842438697814941e-01 3.713765621185302734e+00 1.311824917793273926e+00 -8.410779237747192383e-01
2.536000000000000000e+03 7.450263500213623047e+00 1.511968612670898438e+01 5.525879859924316406e-01 3.027378797531127930e+00 1.073989987373352051e+00 -8.392229080200195312e-01
2.537000000000000000e+03 7.276436328887939453e+00 1.385905170440673828e+01 5.396338105201721191e-01 2.873393297195434570e+00 1.023908138275146484e+00 -7.066547870635986328e-01
2.538000000000000000e+03 9.908419609069824219e+00 2.639311027526855469e+01 -5.363572835922241211e-01 4.241055011749267578e+00 1.111409187316894531e+00 -1.044451713562011719e+00
2.539000000000000000e+03 1.029008483886718750e+01 2.760891151428222656e+01 -6.378211975097656250e-01 4.262230396270751953e+00 1.087322831153869629e+00 -9.048268198966979980e-01
2.540000000000000000e+03 7.688452243804931641e+00 -8.992119789123535156e+00 -7.971570491790771484e-01 4.593074321746826172e+00 1.138775229454040527e+00 1.495651841163635254e+00
2.541000000000000000e+03 3.972866821289062500e+01 -1.442511653900146484e+01 1.795286893844604492e+00 7.683575153350830078e+00 2.843658685684204102e+00 2.631633579730987549e-01
2.542000000000000000e+03 7.476607799530029297e+00 -1.021321678161621094e+01 -8.806425333023071289e-01 4.872031211853027344e+00 1.197416663169860840e+00 9.726891517639160156e-01
2.543000000000000000e+03 8.763989448547363281e+00 -1.017094230651855469e+01 -1.378445148468017578e+00 5.992129802703857422e+00 1.384105324745178223e+00 1.432543516159057617e+00
2.544000000000000000e+03 7.660692214965820312e+00 2.200971794128417969e+01 3.263305872678756714e-02 3.443455696105957031e+00 1.042826652526855469e+00 -1.350026607513427734e+00
2.545000000000000000e+03 6.972521305084228516e+00 2.022949981689453125e+01 1.710761636495590210e-01 3.009227752685546875e+00 9.540911316871643066e-01 -1.256127953529357910e+00
2.546000000000000000e+03 1.749461746215820312e+01 -4.134973049163818359e+00 3.002277612686157227e+00 5.386693477630615234e+00 2.516691207885742188e+00 -1.869630813598632812e+00
2.547000000000000000e+03 7.707588195800781250e+00 1.638749122619628906e+01 5.210443735122680664e-01 3.217947244644165039e+00 1.121697545051574707e+00 -9.904350042343139648e-01
2.548000000000000000e+03 1.814546012878417969e+01 -5.061155796051025391e+00 2.355114698410034180e+00 4.084004878997802734e+00 1.931735873222351074e+00 -1.803080320358276367e+00
2.549000000000000000e+03 7.140223693847656250e+01 -1.615570858120918274e-02 -5.139709115028381348e-01 6.743245124816894531e+00 1.868782162666320801e+00 -2.026977576315402985e-02
2.550000000000000000e+03 7.048610687255859375e+01 7.815600633621215820e-01 -5.030070543289184570e-01 6.503847599029541016e+00 1.800252199172973633e+00 2.686980739235877991e-02
2.551000000000000000e+03 9.950213432312011719e+00 -3.294245529174804688e+01 -8.447337150573730469e-01 3.796866655349731445e+00 8.856399059295654297e-01 2.003037184476852417e-01
2.552000000000000000e+03 8.088143348693847656e+00 7.696190834045410156e+00 5.565819144248962402e-01 2.880908966064453125e+00 1.031247258186340332e+00 -6.233080029487609863e-01
2.553000000000000000e+03 8.692565917968750000e+00 1.050902462005615234e+01 5.430733561515808105e-01 3.716375589370727539e+00 1.277834653854370117e+00 -5.946719050407409668e-01
2.554000000000000000e+03 7.091870117187500000e+01 -7.044037342071533203e+00 -8.159925341606140137e-01 7.107382774353027344e+00 1.887417078018188477e+00 4.389033187180757523e-03
2.555000000000000000e+03 8.231410980224609375e+00 2.084063339233398438e+01 1.696943193674087524e-01 3.691251754760742188e+00 1.158283829689025879e+00 -1.330984592437744141e+00
2.556000000000000000e+03 7.191373443603515625e+01 2.321493530273437500e+01 -9.058334231376647949e-01 8.576186180114746094e+00 2.301105976104736328e+00 5.337702035903930664e-01
2.557000000000000000e+03 6.994209289550781250e+01 4.447216510772705078e+00 -4.590734839439392090e-01 6.828180789947509766e+00 1.910732269287109375e+00 2.360436320304870605e-01
2.558000000000000000e+03 6.946156311035156250e+01 1.975767016410827637e+00 -4.816280007362365723e-01 6.153089523315429688e+00 1.701438426971435547e+00 1.681609749794006348e-01
2.559000000000000000e+03 1.010680675506591797e+01 1.508108711242675781e+01 7.938084602355957031e-01 4.700000762939453125e+00 1.648142695426940918e+00 -8.228331804275512695e-01
2.560000000000000000e+03 8.849492073059082031e+00 1.610853958129882812e+01 6.844887137413024902e-01 3.929494857788085938e+00 1.384195089340209961e+00 -9.750258922576904297e-01
2.561000000000000000e+03 4.378306579589843750e+01 -2.693568420410156250e+01 8.171491026878356934e-01 8.087433815002441406e+00 2.671374797821044922e+00 -9.086644649505615234e-01
2.562000000000000000e+03 7.507792949676513672e+00 -2.423036575317382812e+01 -1.884814500808715820e-01 5.477915287017822266e+00 1.586830139160156250e+00 1.609500169754028320e+00
2.563000000000000000e+03 9.682824134826660156e+00 3.097438430786132812e+01 -5.946086049079895020e-01 3.899257183074951172e+00 9.913945794105529785e-01 -6.463726162910461426e-01
2.564000000000000000e+03 1.237086486816406250e+01 -2.930405426025390625e+01 -1.159271717071533203e+00 3.927655935287475586e+00 8.305153250694274902e-01 -1.716737896203994751e-01
2.565000000000000000e+03 6.701449584960937500e+01 -3.444232940673828125e+01 -3.063872754573822021e-01 4.415283679962158203e+00 1.232668876647949219e+00 5.856907367706298828e-01
2.566000000000000000e+03 4.665525436401367188e+01 2.040628814697265625e+01 -3.256006240844726562e-01 6.531654357910156250e+00 1.861816167831420898e+00 1.765176206827163696e-01
2.567000000000000000e+03 9.883891105651855469e+00 1.385668563842773438e+01 7.573916912078857422e-01 4.680501461029052734e+00 1.631367921829223633e+00 -7.445895671844482422e-01
2.568000000000000000e+03 8.251524925231933594e+00 1.265310478210449219e+01 5.720934867858886719e-01 3.452993869781494141e+00 1.207526206970214844e+00 -6.664279103279113770e-01
2.569000000000000000e+03 6.201792526245117188e+01 -4.900430202484130859e+00 4.306323826313018799e-01 1.607130169868469238e+00 6.113287806510925293e-01 -4.889602959156036377e-01
2.570000000000000000e+03 1.095514869689941406e+01 1.955261802673339844e+01 4.805312454700469971e-01 4.991867542266845703e+00 1.641719698905944824e+00 -1.269726634025573730e+00
2.571000000000000000e+03 6.526204681396484375e+01 -5.315546035766601562e+00 -6.841652095317840576e-02 3.568539381027221680e+00 1.050036907196044922e+00 -6.503159403800964355e-01
2.572000000000000000e+03 7.053618621826171875e+01 2.966347885131835938e+01 -5.517405867576599121e-01 6.316244125366210938e+00 1.729351043701171875e+00 -5.563098788261413574e-01
2.573000000000000000e+03 4.088537216186523438e+01 2.604737281799316406e+01 -8.260760903358459473e-01 3.725471496582031250e+00 8.698186278343200684e-01 -8.551468849182128906e-01
2.574000000000000000e+03 4.292277526855468750e+01 2.164075469970703125e+01 -6.642957329750061035e-01 4.931637287139892578e+00 1.280202507972717285e+00 -7.798064947128295898e-01
2.575000000000000000e+03 1.052902126312255859e+01 -3.523633193969726562e+01 -6.447172164916992188e-01 3.463875055313110352e+00 8.457473516464233398e-01 4.162695258855819702e-02
2.576000000000000000e+03 9.456904411315917969e+00 -3.099411964416503906e+01 -9.952294826507568359e-01 4.282265663146972656e+00 9.861108660697937012e-01 4.194599986076354980e-01
2.577000000000000000e+03 6.955281257629394531e+00 -1.091262912750244141e+01 -6.739382743835449219e-01 4.531859397888183594e+00 1.157376289367675781e+00 6.305766105651855469e-01
2.578000000000000000e+03 8.537013053894042969e+00 -1.226346683502197266e+01 -8.177648782730102539e-01 6.442321300506591797e+00 1.687366962432861328e+00 5.057012438774108887e-01
2.579000000000000000e+03 4.250020503997802734e+00 -3.298302078247070312e+01 -2.995951473712921143e-01 4.406331062316894531e+00 1.232020735740661621e+00 5.877805352210998535e-01
2.580000000000000000e+03 2.043390274047851562e+01 -3.803983211517333984e+00 3.475928544998168945e+00 2.250502824783325195e+00 1.717929363250732422e+00 -2.553705692291259766e+00
2.581000000000000000e+03 4.435142135620117188e+01 2.596199798583984375e+01 -1.045624136924743652e+00 4.612745285034179688e+00 1.070136308670043945e+00 -3.097429275512695312e-01
2.582000000000000000e+03 3.943449401855468750e+01 -1.082390022277832031e+01 3.689694404602050781e-01 6.509704589843750000e+00 2.063602209091186523e+00 6.092483997344970703e-01
2.583000000000000000e+03 9.071475028991699219e+00 2.727770614624023438e+01 -5.132956504821777344e-01 3.993395805358886719e+00 1.044030070304870605e+00 -1.027772665023803711e+00
2.584000000000000000e+03 4.106996154785156250e+01 -3.086395645141601562e+01 -7.629339694976806641e-01 7.214606761932373047e+00 1.935501813888549805e+00 -2.813308537006378174e-01
2.585000000000000000e+03 1.819915771484375000e+01 2.504068756103515625e+01 -1.219756484031677246e+00 5.538661956787109375e+00 1.295671701431274414e+00 9.015020132064819336e-01
2.586000000000000000e+03 4.584990310668945312e+01 -3.533158874511718750e+01 -1.208089470863342285e+00 5.493999481201171875e+00 1.285773038864135742e+00 -1.130455493927001953e+00
2.587000000000000000e+03 1.002810287475585938e+01 2.372911834716796875e+01 -2.950027287006378174e-01 4.419717311859130859e+00 1.237414360046386719e+00 -1.299554944038391113e+00
2.588000000000000000e+03 1.254876518249511719e+01 2.397251319885253906e+01 -5.505615472793579102e-01 5.263054847717285156e+00 1.413747906684875488e+00 -1.065347194671630859e+00
2.589000000000000000e+03 7.292849731445312500e+01 1.208771514892578125e+01 8.095689415931701660e-01 8.612798690795898438e+00 2.826710224151611328e+00 -2.481956183910369873e-01
2.590000000000000000e+03 1.280808067321777344e+01 3.388576507568359375e+00 -6.105095744132995605e-01 9.679934501647949219e+00 2.720827579498291016e+00 -2.369294643402099609e+00
2.591000000000000000e+03 1.174662208557128906e+01 4.172346115112304688e+00 -1.012925580143928528e-01 6.971697807312011719e+00 2.061121463775634766e+00 -2.334586858749389648e+00
2.592000000000000000e+03 1.184996986389160156e+01 -4.061725616455078125e+00 1.543566823005676270e+00 7.326412677764892578e+00 2.660993814468383789e+00 4.858273506164550781e+00
2.593000000000000000e+03 1.140114498138427734e+01 2.310671091079711914e+00 9.153303503990173340e-01 5.438649177551269531e+00 1.906193852424621582e+00 -3.341500759124755859e+00
2.594000000000000000e+03 1.332020092010498047e+01 -4.730089664459228516e+00 2.924031615257263184e-01 9.274085044860839844e+00 2.869946479797363281e+00 3.022737503051757812e+00
2.595000000000000000e+03 1.420708656311035156e+01 7.937562942504882812e+00 -4.051819741725921631e-01 8.808560371398925781e+00 2.521013498306274414e+00 -3.498267829418182373e-01
2.596000000000000000e+03 1.231000995635986328e+01 3.457628011703491211e+00 -2.784402370452880859e-01 8.516427993774414062e+00 2.471396207809448242e+00 -2.704400062561035156e+00
2.597000000000000000e+03 1.239316940307617188e+01 4.071754455566406250e+00 -4.733708202838897705e-01 8.329523086547851562e+00 2.356845617294311523e+00 -2.268304109573364258e+00
2.598000000000000000e+03 9.760690689086914062e+00 -4.130736827850341797e+00 1.851472020149230957e+00 3.227886676788330078e+00 1.523807644844055176e+00 3.455151557922363281e+00
2.599000000000000000e+03 1.523054122924804688e+01 3.925689697265625000e+00 -8.161292672157287598e-01 1.101140499114990234e+01 3.058582782745361328e+00 1.476402878761291504e-01
2.600000000000000000e+03 8.131804466247558594e+00 -5.052906513214111328e+00 9.124493002891540527e-01 2.458323240280151367e+00 1.011231780052185059e+00 2.192639350891113281e+00
2.601000000000000000e+03 1.111726093292236328e+01 -4.745868206024169922e+00 1.091621160507202148e+00 5.813278198242187500e+00 2.071469783782958984e+00 4.372245311737060547e+00
2.602000000000000000e+03 1.015026760101318359e+01 4.390516281127929688e+00 5.909793972969055176e-01 4.058936119079589844e+00 1.394974589347839355e+00 -1.822654724121093750e+00
2.603000000000000000e+03 8.147851943969726562e+00 -5.779929637908935547e+00 4.829484522342681885e-01 3.041721343994140625e+00 1.057400941848754883e+00 2.242563247680664062e+00
2.604000000000000000e+03 1.026076984405517578e+01 -5.421324729919433594e+00 6.572976708412170410e-01 4.839143753051757812e+00 1.648932337760925293e+00 3.815984964370727539e+00
2.605000000000000000e+03 1.042595291137695312e+01 4.903365135192871094e+00 4.130187928676605225e-01 4.604255676269531250e+00 1.505182266235351562e+00 -1.781924843788146973e+00
2.606000000000000000e+03 8.853928565979003906e+00 7.689304351806640625e+00 5.426324009895324707e-01 3.500214815139770508e+00 1.212854146957397461e+00 -7.833669185638427734e-01
2.607000000000000000e+03 1.859924125671386719e+01 -1.028483390808105469e+00 4.895209789276123047e+00 4.588891506195068359e+00 2.845230579376220703e+00 -1.399306893348693848e+00
2.608000000000000000e+03 1.433858776092529297e+01 6.576766014099121094e+00 -7.686746716499328613e-01 9.311679840087890625e+00 2.562901496887207031e+00 -4.094206392765045166e-01
2.609000000000000000e+03 1.528620052337646484e+01 7.648068904876708984e+00 -5.528624653816223145e-01 9.511085510253906250e+00 2.687466859817504883e+00 -1.190953701734542847e-01
2.610000000000000000e+03 7.393831729888916016e+00 -8.168492317199707031e+00 -5.090194940567016602e-01 3.940108776092529297e+00 1.029326796531677246e+00 1.507027745246887207e+00
2.611000000000000000e+03 1.506578445434570312e+01 -5.075083732604980469e+00 6.299520730972290039e-01 8.137201309204101562e+00 2.630146026611328125e+00 6.300345659255981445e-01
2.612000000000000000e+03 1.081446743011474609e+01 6.205427169799804688e+00 1.367902010679244995e-01 5.507812976837158203e+00 1.693380951881408691e+00 -1.355350971221923828e+00
2.613000000000000000e+03 1.438577938079833984e+01 -4.802306652069091797e+00 4.953208863735198975e-01 9.142691612243652344e+00 2.891403675079345703e+00 1.398069143295288086e+00
2.614000000000000000e+03 1.557744693756103516e+01 -7.045969963073730469e+00 -3.911165595054626465e-01 5.426394462585449219e+00 1.510583281517028809e+00 1.020096898078918457e+00
2.615000000000000000e+03 1.141590213775634766e+01 -8.012788772583007812e+00 -1.631324052810668945e+00 6.553169250488281250e+00 1.476553559303283691e+00 3.438326597213745117e+00
2.616000000000000000e+03 6.627714157104492188e+00 -6.623112678527832031e+00 1.257369965314865112e-01 2.524881839752197266e+00 7.951856851577758789e-01 1.314813375473022461e+00
2.617000000000000000e+03 1.342446422576904297e+01 -8.137676239013671875e+00 -1.834642171859741211e+00 6.240712642669677734e+00 1.321821093559265137e+00 3.162272453308105469e+00
2.618000000000000000e+03 6.952621459960937500e+00 7.167444229125976562e+00 5.694776177406311035e-01 1.840906620025634766e+00 7.231152653694152832e-01 -3.079406917095184326e-01
2.619000000000000000e+03 8.204135894775390625e+00 6.745630264282226562e+00 6.116666197776794434e-01 2.672249794006347656e+00 9.851749539375305176e-01 -6.571385264396667480e-01
2.620000000000000000e+03 9.936774253845214844e+00 -9.880311965942382812e+00 -1.913409352302551270e+00 6.757651329040527344e+00 1.453272581100463867e+00 2.120585203170776367e+00
2.621000000000000000e+03 1.592823791503906250e+01 -4.379321575164794922e+00 2.056007862091064453e+00 7.716911792755126953e+00 2.931875944137573242e+00 -8.886205554008483887e-01
2.622000000000000000e+03 1.873824501037597656e+01 -7.177616119384765625e+00 7.997685670852661133e-01 2.492363214492797852e+00 9.876395463943481445e-01 -1.466362476348876953e+00
2.623000000000000000e+03 9.558882713317871094e+00 -1.065750980377197266e+01 -1.754168868064880371e+00 6.825187206268310547e+00 1.521305561065673828e+00 1.612376451492309570e+00
2.624000000000000000e+03 8.267104148864746094e+00 -1.086800098419189453e+01 -1.127226591110229492e+00 5.804071903228759766e+00 1.403053522109985352e+00 9.427417516708374023e-01
2.625000000000000000e+03 1.668449783325195312e+01 -4.282413959503173828e+00 2.526118993759155273e+00 6.622534275054931641e+00 2.744596004486083984e+00 -1.407002329826354980e+00
2.626000000000000000e+03 7.102555847167968750e+01 2.570064544677734375e+00 -5.376173257827758789e-01 6.832923889160156250e+00 1.888591885566711426e+00 -4.989231005311012268e-02
2.627000000000000000e+03 7.057266235351562500e+01 3.762790203094482422e+00 -5.428266525268554688e-01 6.920948028564453125e+00 1.913436412811279297e+00 3.842285275459289551e-02
2.628000000000000000e+03 7.094129180908203125e+01 -3.214315652847290039e+00 -5.673606395721435547e-01 6.573797225952148438e+00 1.801930904388427734e+00 4.168225917965173721e-03
2.629000000000000000e+03 6.738822937011718750e+01 -3.702096223831176758e+00 -3.423201739788055420e-01 4.957170963287353516e+00 1.384455204010009766e+00 -2.917274832725524902e-01
2.630000000000000000e+03 1.208223152160644531e+01 1.016338729858398438e+01 3.941943049430847168e-01 6.613059520721435547e+00 2.102176189422607422e+00 -5.066435933113098145e-01
2.631000000000000000e+03 8.848678588867187500e+00 8.563726425170898438e+00 5.066589117050170898e-01 3.633923053741455078e+00 1.242174625396728516e+00 -7.159188985824584961e-01
2.632000000000000000e+03 1.595543479919433594e+01 4.321197986602783203e+00 -7.145546078681945801e-01 1.054637145996093750e+01 2.949545145034790039e+00 4.855376183986663818e-01
2.633000000000000000e+03 1.790287399291992188e+01 -2.839695692062377930e+00 4.349616050720214844e+00 5.126769065856933594e+00 2.842915534973144531e+00 -2.085374116897583008e+00
2.634000000000000000e+03 1.854026222229003906e+01 -2.387483119964599609e+00 4.544798374176025391e+00 4.242680549621582031e+00 2.636243820190429688e+00 -2.051495552062988281e+00
2.635000000000000000e+03 1.532133865356445312e+01 -6.348008155822753906e+00 -1.315772682428359985e-01 6.444543361663818359e+00 1.893889784812927246e+00 9.831594228744506836e-01
2.636000000000000000e+03 1.281169795989990234e+01 1.113650321960449219e+01 5.697853565216064453e-01 7.147055149078369141e+00 2.315052032470703125e+00 -4.055870771408081055e-01
2.637000000000000000e+03 1.069569873809814453e+01 1.134063434600830078e+01 6.073296666145324707e-01 5.309524059295654297e+00 1.775056123733520508e+00 -6.116406321525573730e-01
2.638000000000000000e+03 1.967721176147460938e+01 -6.254382133483886719e+00 1.792747616767883301e+00 2.315185070037841797e+00 1.232379794120788574e+00 -2.164452075958251953e+00
2.639000000000000000e+03 1.358916091918945312e+01 7.740559101104736328e+00 -4.312079548835754395e-01 8.348262786865234375e+00 2.375116348266601562e+00 -5.684297680854797363e-01
2.640000000000000000e+03 6.261946678161621094e+00 -6.072909355163574219e+00 3.690215051174163818e-01 1.949423789978027344e+00 6.955336332321166992e-01 1.158788800239562988e+00
2.641000000000000000e+03 3.708457946777343750e+01 -1.160780143737792969e+01 1.182052850723266602e+00 5.215156555175781250e+00 1.919162869453430176e+00 -5.344042181968688965e-01
2.642000000000000000e+03 9.853001594543457031e+00 -8.164354324340820312e+00 -1.296858191490173340e+00 5.845214843750000000e+00 1.364507079124450684e+00 2.828486442565917969e+00
2.643000000000000000e+03 9.786112785339355469e+00 -5.481400489807128906e+00 6.390470862388610840e-01 4.335036754608154297e+00 1.492225170135498047e+00 3.480015516281127930e+00
2.644000000000000000e+03 4.072142410278320312e+01 -1.247181987762451172e+01 9.960527420043945312e-01 7.601575851440429688e+00 2.579288482666015625e+00 7.212282419204711914e-01
2.645000000000000000e+03 1.067543697357177734e+01 1.432516574859619141e+01 8.215482831001281738e-01 5.124207019805908203e+00 1.783726572990417480e+00 -7.402982711791992188e-01
2.646000000000000000e+03 1.083950042724609375e+01 1.567437648773193359e+01 9.439180493354797363e-01 5.237833499908447266e+00 1.854525566101074219e+00 -8.506368994712829590e-01
2.647000000000000000e+03 1.271228122711181641e+01 -3.432727432250976562e+01 -7.562502622604370117e-01 2.908843994140625000e+00 6.457781195640563965e-01 -1.795036643743515015e-01
2.648000000000000000e+03 8.426935195922851562e+00 -9.029726982116699219e+00 -1.056367278099060059e+00 5.215372562408447266e+00 1.247701644897460938e+00 1.762959480285644531e+00
2.649000000000000000e+03 6.663832855224609375e+01 -2.795930862426757812e+00 -2.054059654474258423e-01 4.434628009796142578e+00 1.268766641616821289e+00 -2.044482976198196411e-01
2.650000000000000000e+03 7.190037536621093750e+01 -3.643525600433349609e+00 -5.819290280342102051e-01 6.905532836914062500e+00 1.897081136703491211e+00 4.361370205879211426e-02
2.651000000000000000e+03 7.004257965087890625e+01 -1.200126051902770996e+00 -5.283495187759399414e-01 6.189787387847900391e+00 1.698431253433227539e+00 1.686711236834526062e-02
2.652000000000000000e+03 1.765531349182128906e+01 -5.590192317962646484e+00 1.767276763916015625e+00 4.460374832153320312e+00 1.868295550346374512e+00 -1.343461155891418457e+00
2.653000000000000000e+03 9.155803680419921875e+00 1.731788825988769531e+01 6.366271972656250000e-01 4.050381660461425781e+00 1.406102657318115234e+00 -1.129086971282958984e+00
2.654000000000000000e+03 6.510633087158203125e+01 -2.775252580642700195e+00 5.407280847430229187e-02 3.516265630722045898e+00 1.071101546287536621e+00 -1.982757896184921265e-01
2.655000000000000000e+03 6.458829498291015625e+01 -4.228028297424316406e+00 1.067818179726600647e-01 3.102419614791870117e+00 9.627604484558105469e-01 -4.153681695461273193e-01
2.656000000000000000e+03 7.097785949707031250e+01 -5.826965808868408203e+00 -7.019063234329223633e-01 6.876820087432861328e+00 1.852474093437194824e+00 -8.897687308490276337e-03
2.657000000000000000e+03 2.032657814025878906e+01 -5.070136070251464844e+00 2.781226634979248047e+00 2.171064138412475586e+00 1.485687255859375000e+00 -2.525784492492675781e+00
2.658000000000000000e+03 6.264839935302734375e+01 -4.127429962158203125e+00 4.042441844940185547e-01 2.022961139678955078e+00 7.281616330146789551e-01 -3.394165635108947754e-01
2.659000000000000000e+03 6.416880798339843750e+01 -3.153908967971801758e+00 2.366369515657424927e-01 2.899994611740112305e+00 9.409894347190856934e-01 -2.349094003438949585e-01
2.660000000000000000e+03 1.017738246917724609e+01 1.004267692565917969e+01 4.879286885261535645e-01 4.856348991394042969e+00 1.603283286094665527e+00 -6.685241460800170898e-01
2.661000000000000000e+03 6.699182128906250000e+01 -5.593484878540039062e+00 -3.981485664844512939e-01 4.836923122406005859e+00 1.331632256507873535e+00 -6.544526815414428711e-01
2.662000000000000000e+03 6.927603912353515625e+01 -6.543158531188964844e+00 -7.477713227272033691e-01 6.410113811492919922e+00 1.698702692985534668e+00 -3.648553490638732910e-01
2.663000000000000000e+03 9.652317047119140625e+00 2.108153152465820312e+01 1.501988023519515991e-01 4.273608684539794922e+00 1.327142357826232910e+00 -1.367475867271423340e+00
2.664000000000000000e+03 1.029541873931884766e+01 1.705891799926757812e+01 7.687935233116149902e-01 4.729966640472412109e+00 1.649628043174743652e+00 -1.048483490943908691e+00
2.665000000000000000e+03 7.680693626403808594e+00 -2.288673019409179688e+01 3.109625875949859619e-01 5.786203861236572266e+00 1.829149842262268066e+00 1.606549382209777832e+00
2.666000000000000000e+03 1.357227325439453125e+01 1.929622268676757812e+01 7.592964172363281250e-01 6.552067756652832031e+00 2.193409204483032227e+00 -9.658965468406677246e-01
2.667000000000000000e+03 9.220789909362792969e+00 1.277962398529052734e+01 6.550415158271789551e-01 4.163572788238525391e+00 1.445584177970886230e+00 -6.656875014305114746e-01
2.668000000000000000e+03 1.144744205474853516e+01 1.662877464294433594e+01 9.386723637580871582e-01 5.510792732238769531e+00 1.934839606285095215e+00 -9.295625090599060059e-01
2.669000000000000000e+03 1.068735694885253906e+01 1.824391746520996094e+01 6.706160306930541992e-01 4.855486392974853516e+00 1.657830715179443359e+00 -1.178249597549438477e+00
2.670000000000000000e+03 1.058218669891357422e+01 2.472058868408203125e+01 -4.681139886379241943e-01 4.573641777038574219e+00 1.231658339500427246e+00 -1.151907682418823242e+00
2.671000000000000000e+03 1.188939857482910156e+01 2.913743400573730469e+01 -8.029153943061828613e-01 4.367927551269531250e+00 1.069503545761108398e+00 -5.901214480400085449e-01
2.672000000000000000e+03 8.263129234313964844e+00 1.375586986541748047e+01 6.117756962776184082e-01 3.505880355834960938e+00 1.235296845436096191e+00 -7.392488718032836914e-01
2.673000000000000000e+03 8.404826164245605469e+00 1.156903839111328125e+01 5.898053646087646484e-01 3.573396205902099609e+00 1.248960494995117188e+00 -6.028181314468383789e-01
2.674000000000000000e+03 6.954876708984375000e+01 -3.182329833507537842e-01 -4.737147986888885498e-01 5.990632057189941406e+00 1.655075192451477051e+00 7.247301936149597168e-02
2.675000000000000000e+03 7.068721771240234375e+01 1.671531677246093750e+00 -5.196885466575622559e-01 6.678099632263183594e+00 1.847523331642150879e+00 3.591370582580566406e-02
2.676000000000000000e+03 8.857625961303710938e+00 9.493611335754394531e+00 5.327928066253662109e-01 3.774108171463012695e+00 1.292070269584655762e+00 -6.265500783920288086e-01
2.677000000000000000e+03 4.183209609985351562e+01 -2.640015792846679688e+01 1.072026968002319336e+00 8.265352249145507812e+00 2.801213741302490234e+00 -4.467698037624359131e-01
2.678000000000000000e+03 1.127374362945556641e+01 2.588957595825195312e+01 -6.430079340934753418e-01 4.649929046630859375e+00 1.202076315879821777e+00 -1.005765795707702637e+00
2.679000000000000000e+03 1.168303108215332031e+01 2.740326499938964844e+01 -7.720329761505126953e-01 4.586245059967041016e+00 1.144263505935668945e+00 -7.859914898872375488e-01
2.680000000000000000e+03 7.174372863769531250e+01 3.070041465759277344e+01 -4.449568092823028564e-01 6.767642021179199219e+00 1.896805524826049805e+00 -4.383753240108489990e-01
2.681000000000000000e+03 6.864415740966796875e+01 2.785539817810058594e+01 -8.774222135543823242e-01 5.762783050537109375e+00 1.465608239173889160e+00 -9.782766103744506836e-01
2.682000000000000000e+03 4.235756683349609375e+01 2.555383872985839844e+01 -8.984180092811584473e-01 4.183656692504882812e+00 9.855715632438659668e-01 -7.143869996070861816e-01
2.683000000000000000e+03 4.184946441650390625e+01 2.396522521972656250e+01 -8.103784322738647461e-01 4.238091468811035156e+00 1.028313875198364258e+00 -8.594157099723815918e-01
2.684000000000000000e+03 6.652863979339599609e+00 -2.290472412109375000e+01 2.522521913051605225e-01 5.035923480987548828e+00 1.586452722549438477e+00 1.718381524085998535e+00
2.685000000000000000e+03 1.221206569671630859e+01 3.444203948974609375e+01 -6.340650916099548340e-01 3.813417196273803711e+00 9.538056254386901855e-01 -2.571761310100555420e-01
2.686000000000000000e+03 1.761223602294921875e+01 3.007009315490722656e+01 -9.483474493026733398e-01 4.114076614379882812e+00 9.497187137603759766e-01 5.068119764328002930e-01
2.687000000000000000e+03 4.764603805541992188e+01 2.468858337402343750e+01 -1.164303421974182129e+00 5.422982692718505859e+00 1.277603864669799805e+00 4.041176438331604004e-01
2.688000000000000000e+03 4.041194534301757812e+01 -3.292834854125976562e+01 -1.231958031654357910e+00 6.701389789581298828e+00 1.640829563140869141e+00 -1.672077178955078125e-02
2.689000000000000000e+03 6.930271148681640625e+01 2.196893310546875000e+01 -1.292606949806213379e+00 9.537454605102539062e+00 2.473454236984252930e+00 -3.216428756713867188e-01
2.690000000000000000e+03 6.849131011962890625e+01 -8.708037137985229492e-01 -4.134371578693389893e-01 5.482806682586669922e+00 1.520810842514038086e+00 3.699962794780731201e-02
2.691000000000000000e+03 7.075862884521484375e+01 -7.511215806007385254e-01 -5.291091203689575195e-01 6.463317871093750000e+00 1.780262589454650879e+00 1.277268398553133011e-02
2.692000000000000000e+03 7.097625732421875000e+01 -8.231397628784179688e+00 -7.950668931007385254e-01 7.468017101287841797e+00 2.001885175704956055e+00 9.172669053077697754e-02
2.693000000000000000e+03 9.260191917419433594e+00 -4.919363975524902344e+00 1.101971507072448730e+00 3.382894754409790039e+00 1.345459818840026855e+00 3.100213289260864258e+00
2.694000000000000000e+03 1.372614574432373047e+01 7.197362422943115234e+00 -5.474773645401000977e-01 8.638289451599121094e+00 2.427243471145629883e+00 -5.659924149513244629e-01
2.695000000000000000e+03 1.110500907897949219e+01 -4.281608581542968750e+00 1.609788417816162109e+00 5.490237712860107422e+00 2.130007743835449219e+00 4.455665111541748047e+00
2.696000000000000000e+03 1.085426521301269531e+01 -3.428892374038696289e+00 2.779070138931274414e+00 4.405304431915283203e+00 2.155312299728393555e+00 4.516473770141601562e+00
2.697000000000000000e+03 1.057023143768310547e+01 -3.829898357391357422e+00 2.300128459930419922e+00 4.066499233245849609e+00 1.909988284111022949e+00 4.162176132202148438e+00
2.698000000000000000e+03 1.354166507720947266e+01 5.514338493347167969e+00 -8.846877813339233398e-01 9.179043769836425781e+00 2.488306760787963867e+00 -1.016749143600463867e+00
2.699000000000000000e+03 8.747135162353515625e+00 -5.652887821197509766e+00 5.379214286804199219e-01 3.510160923004150391e+00 1.214424729347229004e+00 2.726950883865356445e+00
2.700000000000000000e+03 1.018409919738769531e+01 -4.967436790466308594e+00 1.046360969543457031e+00 4.532576084136962891e+00 1.673681139945983887e+00 3.851179599761962891e+00
2.701000000000000000e+03 1.200253868103027344e+01 5.772235393524169922e+00 -2.687097787857055664e-01 7.081994533538818359e+00 2.043985366821289062e+00 -1.512812733650207520e+00
2.702000000000000000e+03 9.964177131652832031e+00 5.292540073394775391e+00 5.147708058357238770e-01 4.021895408630371094e+00 1.360999822616577148e+00 -1.474970698356628418e+00
2.703000000000000000e+03 1.436470222473144531e+01 5.863796234130859375e+00 -1.001767277717590332e+00 9.670665740966796875e+00 2.600669384002685547e+00 -5.045639872550964355e-01
2.704000000000000000e+03 8.758302688598632812e+00 -8.344076156616210938e+00 -9.630817770957946777e-01 5.113176345825195312e+00 1.245028495788574219e+00 2.192234992980957031e+00
2.705000000000000000e+03 1.093850708007812500e+01 5.525190353393554688e+00 1.378174722194671631e-01 5.611411094665527344e+00 1.724768519401550293e+00 -1.628154397010803223e+00
2.706000000000000000e+03 1.303109169006347656e+01 8.555911064147949219e+00 -1.116617769002914429e-01 7.683967590332031250e+00 2.271691560745239258e+00 -5.966303944587707520e-01
2.707000000000000000e+03 1.377654933929443359e+01 6.616093635559082031e+00 -7.331055998802185059e-01 8.927540779113769531e+00 2.458330631256103516e+00 -6.551715731620788574e-01
2.708000000000000000e+03 1.217691993713378906e+01 -7.494062900543212891e+00 -1.422087907791137695e+00 6.685167312622070312e+00 1.578923821449279785e+00 3.538383245468139648e+00
2.709000000000000000e+03 1.385778713226318359e+01 -4.682984352111816406e+00 4.099865853786468506e-01 9.666206359863281250e+00 3.022857904434204102e+00 2.168623685836791992e+00
2.710000000000000000e+03 1.456512451171875000e+01 -7.787672519683837891e+00 -1.284261584281921387e+00 5.939297199249267578e+00 1.396510601043701172e+00 2.316875934600830078e+00
2.711000000000000000e+03 8.920559883117675781e+00 6.800261974334716797e+00 5.475944280624389648e-01 3.416830778121948242e+00 1.189327597618103027e+00 -8.901727795600891113e-01
2.712000000000000000e+03 1.284596729278564453e+01 1.035646247863769531e+01 3.884541094303131104e-01 7.250085353851318359e+00 2.291561841964721680e+00 -4.309625923633575439e-01
2.713000000000000000e+03 1.168172740936279297e+01 1.173827934265136719e+01 6.767160892486572266e-01 6.094445705413818359e+00 2.031348466873168945e+00 -5.183181762695312500e-01
2.714000000000000000e+03 1.017072772979736328e+01 6.858828544616699219e+00 3.147177696228027344e-01 4.715490341186523438e+00 1.509062409400939941e+00 -1.130381703376770020e+00
2.715000000000000000e+03 1.837625694274902344e+01 -4.221144199371337891e+00 3.134380340576171875e+00 4.132111072540283203e+00 2.179947376251220703e+00 -2.128804683685302734e+00
2.716000000000000000e+03 8.160573005676269531e+00 8.558571815490722656e+00 5.875198841094970703e-01 3.096344947814941406e+00 1.105159401893615723e+00 -5.839913487434387207e-01
2.717000000000000000e+03 1.280721378326416016e+01 -7.451861858367919922e+00 -1.452803492546081543e+00 6.771826267242431641e+00 1.595706820487976074e+00 3.339480400085449219e+00
2.718000000000000000e+03 1.862808799743652344e+01 -3.276051759719848633e+00 3.868741273880004883e+00 4.129172801971435547e+00 2.399374246597290039e+00 -2.272654056549072266e+00
2.719000000000000000e+03 1.042273139953613281e+01 1.220464611053466797e+01 6.766259670257568359e-01 5.068443775177001953e+00 1.723520874977111816e+00 -6.343101859092712402e-01
2.720000000000000000e+03 1.025092506408691406e+01 -9.149073600769042969e+00 -1.889943122863769531e+00 6.546461582183837891e+00 1.396955609321594238e+00 2.656373977661132812e+00
2.721000000000000000e+03 9.390637397766113281e+00 1.450535297393798828e+01 7.472079396247863770e-01 4.274512290954589844e+00 1.506516098976135254e+00 -8.147785663604736328e-01
2.722000000000000000e+03 1.052668666839599609e+01 -8.466349601745605469e+00 -1.659999847412109375e+00 6.396144866943359375e+00 1.420843482017517090e+00 3.009778499603271484e+00
2.723000000000000000e+03 1.716684532165527344e+01 -6.759597778320312500e+00 5.361977219581604004e-01 4.107469081878662109e+00 1.393100023269653320e+00 -4.709052145481109619e-01
2.724000000000000000e+03 6.921148681640625000e+01 -3.663625478744506836e+00 -5.361869931221008301e-01 5.940259456634521484e+00 1.621221780776977539e+00 -1.600294709205627441e-01
2.725000000000000000e+03 1.230382347106933594e+01 9.507998466491699219e+00 2.215207815170288086e-01 6.872546672821044922e+00 2.128220319747924805e+00 -5.514862537384033203e-01
2.726000000000000000e+03 6.835192871093750000e+01 -2.752923965454101562e+00 -4.501751959323883057e-01 5.454759597778320312e+00 1.501375317573547363e+00 -1.538936644792556763e-01
2.727000000000000000e+03 1.123542499542236328e+01 -8.692107200622558594e+00 -2.051945686340332031e+00 6.690449237823486328e+00 1.391551136970520020e+00 3.234691381454467773e+00
2.728000000000000000e+03 6.587691497802734375e+01 -2.031961441040039062e+00 -4.760188609361648560e-02 4.023875713348388672e+00 1.192882180213928223e+00 -5.826345831155776978e-02
2.729000000000000000e+03 1.016007423400878906e+01 1.306159496307373047e+01 7.191108465194702148e-01 4.824082374572753906e+00 1.662958025932312012e+00 -6.833336353302001953e-01
2.730000000000000000e+03 6.871545410156250000e+01 -5.711795806884765625e+00 -6.045614480972290039e-01 5.907269477844238281e+00 1.590812444686889648e+00 -3.742783963680267334e-01
2.731000000000000000e+03 6.751965332031250000e+01 -1.787264585494995117e+00 -3.014267683029174805e-01 4.986495494842529297e+00 1.405520558357238770e+00 -2.639299631118774414e-02
2.732000000000000000e+03 9.478431701660156250e+00 1.848618507385253906e+01 5.112253427505493164e-01 4.237987995147705078e+00 1.424764037132263184e+00 -1.209249019622802734e+00
2.733000000000000000e+03 1.928947257995605469e+01 -4.613357067108154297e+00 2.963262557983398438e+00 3.142171621322631836e+00 1.831630229949951172e+00 -2.342783927917480469e+00
2.734000000000000000e+03 1.675294303894042969e+01 -5.044120311737060547e+00 1.836818099021911621e+00 5.899783611297607422e+00 2.320980548858642578e+00 -1.141260147094726562e+00
2.735000000000000000e+03 9.714221000671386719e+00 1.087367534637451172e+01 5.795564055442810059e-01 4.504356861114501953e+00 1.525173902511596680e+00 -6.206809282302856445e-01
2.736000000000000000e+03 6.838760375976562500e+01 3.231901168823242188e+01 -7.138041406869888306e-02 5.159508228302001953e+00 1.526438236236572266e+00 -6.206048727035522461e-01
2.737000000000000000e+03 6.894324493408203125e+01 3.011533355712890625e+01 -3.855392038822174072e-01 5.524700641632080078e+00 1.541748523712158203e+00 -8.096900582313537598e-01
2.738000000000000000e+03 1.124798488616943359e+01 2.242461967468261719e+01 -1.410355120897293091e-01 5.013141155242919922e+00 1.461631655693054199e+00 -1.300211429595947266e+00
2.739000000000000000e+03 1.490889453887939453e+01 2.656964683532714844e+01 -1.062234520912170410e+00 5.236884593963623047e+00 1.252395033836364746e+00 -2.062047868967056274e-01
2.740000000000000000e+03 1.233151817321777344e+01 1.926902961730957031e+01 7.013545036315917969e-01 5.782330036163330078e+00 1.945105433464050293e+00 -1.148490309715270996e+00
2.741000000000000000e+03 1.115334796905517578e+01 2.097576522827148438e+01 2.159181386232376099e-01 5.068500041961669922e+00 1.585325479507446289e+00 -1.321075081825256348e+00
2.742000000000000000e+03 6.964911651611328125e+01 2.866325187683105469e+01 -8.150569796562194824e-01 6.109961509704589844e+00 1.588471412658691406e+00 -8.490379452705383301e-01
2.743000000000000000e+03 6.693224334716796875e+01 2.748374938964843750e+01 -7.326015233993530273e-01 4.373131275177001953e+00 1.092159032821655273e+00 -1.168562293052673340e+00
2.744000000000000000e+03 4.801327896118164062e+01 2.641679763793945312e+01 -1.255896568298339844e+00 4.858272552490234375e+00 1.080712676048278809e+00 5.318350195884704590e-01
2.745000000000000000e+03 1.233138370513916016e+01 -6.514765739440917969e+00 -7.115066647529602051e-01 7.077698230743408203e+00 1.909857392311096191e+00 3.617640972137451172e+00
2.746000000000000000e+03 9.989397048950195312e+00 -4.586920261383056641e+00 1.399902224540710449e+00 3.893109560012817383e+00 1.587903499603271484e+00 3.669286251068115234e+00
2.747000000000000000e+03 1.287924003601074219e+01 8.096664428710937500e+00 -2.287047356367111206e-01 7.650461673736572266e+00 2.226527214050292969e+00 -6.604644060134887695e-01
2.748000000000000000e+03 1.171666717529296875e+01 -5.177753448486328125e+00 3.942175507545471191e-01 6.894454002380371094e+00 2.186601400375366211e+00 4.231549739837646484e+00
2.749000000000000000e+03 1.293550491333007812e+01 -5.417550086975097656e+00 -1.719729602336883545e-01 8.124498367309570312e+00 2.385757684707641602e+00 3.404087543487548828e+00
2.750000000000000000e+03 1.159303665161132812e+01 -4.662971019744873047e+00 9.653057456016540527e-01 6.773312568664550781e+00 2.321585416793823242e+00 4.528860569000244141e+00
2.751000000000000000e+03 9.760802268981933594e+00 -4.960596561431884766e+00 1.120865702629089355e+00 3.892451763153076172e+00 1.503995180130004883e+00 3.492517709732055664e+00
2.752000000000000000e+03 1.317968177795410156e+01 7.122709751129150391e+00 -5.032232403755187988e-01 8.169198989868164062e+00 2.299792766571044922e+00 -8.188255429267883301e-01
2.753000000000000000e+03 1.291299343109130859e+01 3.827731609344482422e+00 -6.764110326766967773e-01 9.561347007751464844e+00 2.665480852127075195e+00 -1.986412048339843750e+00
2.754000000000000000e+03 1.268561172485351562e+01 -6.881099700927734375e+00 -1.120221972465515137e+00 7.014010906219482422e+00 1.768136739730834961e+00 3.396581411361694336e+00
2.755000000000000000e+03 1.418364715576171875e+01 4.161139488220214844e+00 -1.085686206817626953e+00 1.073674201965332031e+01 2.895316839218139648e+00 -8.089206218719482422e-01
2.756000000000000000e+03 1.042681694030761719e+01 -4.386552333831787109e+00 1.641738176345825195e+00 4.432096004486083984e+00 1.822150230407714844e+00 4.050446987152099609e+00
2.757000000000000000e+03 8.890936851501464844e+00 -6.285775661468505859e+00 1.457336843013763428e-01 4.009331703186035156e+00 1.246519565582275391e+00 2.781468868255615234e+00
2.758000000000000000e+03 1.309796428680419922e+01 5.797343730926513672e+00 -7.040975093841552734e-01 8.556756973266601562e+00 2.355797767639160156e+00 -1.161665916442871094e+00
2.759000000000000000e+03 1.101093101501464844e+01 4.824017047882080078e+00 1.884952187538146973e-01 5.541801452636718750e+00 1.719089031219482422e+00 -1.968281626701354980e+00
2.760000000000000000e+03 1.166275501251220703e+01 4.905152797698974609e+00 -1.218082755804061890e-01 6.762486457824707031e+00 1.992203474044799805e+00 -1.972971916198730469e+00
2.761000000000000000e+03 1.261125850677490234e+01 8.942600250244140625e+00 4.208997637033462524e-02 7.289437294006347656e+00 2.199458122253417969e+00 -5.539429187774658203e-01
2.762000000000000000e+03 9.687861442565917969e+00 5.995378017425537109e+00 4.939031004905700684e-01 3.947736024856567383e+00 1.332491755485534668e+00 -1.246333718299865723e+00
2.763000000000000000e+03 1.265472888946533203e+01 -6.140593051910400391e+00 -6.240561008453369141e-01 7.373586177825927734e+00 2.024858951568603516e+00 3.565623521804809570e+00
2.764000000000000000e+03 8.296646118164062500e+00 -6.537310123443603516e+00 4.928128048777580261e-02 3.711855888366699219e+00 1.128341197967529297e+00 2.332044839859008789e+00
2.765000000000000000e+03 8.112406730651855469e+00 -7.709574699401855469e+00 -5.218892097473144531e-01 4.323960304260253906e+00 1.140621304512023926e+00 2.019135951995849609e+00
2.766000000000000000e+03 1.345175647735595703e+01 -7.422959804534912109e+00 -1.333604097366333008e+00 6.648866176605224609e+00 1.594578623771667480e+00 3.015587091445922852e+00
2.767000000000000000e+03 1.404795646667480469e+01 -8.072046279907226562e+00 -1.616769433021545410e+00 5.883526325225830078e+00 1.280027031898498535e+00 2.827480792999267578e+00
2.768000000000000000e+03 1.345422649383544922e+01 -5.283963680267333984e+00 -9.825637191534042358e-02 8.544930458068847656e+00 2.534002304077148438e+00 2.851303577423095703e+00
2.769000000000000000e+03 1.101082134246826172e+01 1.054103565216064453e+01 5.101149082183837891e-01 5.619334697723388672e+00 1.838834881782531738e+00 -5.831048488616943359e-01
2.770000000000000000e+03 1.478796958923339844e+01 -5.824427604675292969e+00 1.128062140196561813e-02 7.480695724487304688e+00 2.247592926025390625e+00 1.374029159545898438e+00
2.771000000000000000e+03 1.475580215454101562e+01 -6.780466079711914062e+00 -7.280993461608886719e-01 6.533845901489257812e+00 1.741724014282226562e+00 1.960862755775451660e+00
2.772000000000000000e+03 1.414787101745605469e+01 5.187966823577880859e+00 -1.027448177337646484e+00 9.865373611450195312e+00 2.651377677917480469e+00 -7.249889969825744629e-01
2.773000000000000000e+03 9.166461944580078125e+00 -9.466340065002441406e+00 -1.478857755661010742e+00 5.989236831665039062e+00 1.353113651275634766e+00 2.005235671997070312e+00
2.774000000000000000e+03 1.550533103942871094e+01 -7.765833377838134766e+00 -9.278035163879394531e-01 4.817078590393066406e+00 1.166782617568969727e+00 1.498315930366516113e+00
2.775000000000000000e+03 1.690869522094726562e+01 -5.854467391967773438e+00 1.144562482833862305e+00 5.165168762207031250e+00 1.892919421195983887e+00 -8.105767369270324707e-01
2.776000000000000000e+03 1.627476119995117188e+01 -6.913783073425292969e+00 -5.038776993751525879e-02 4.919775009155273438e+00 1.460816144943237305e+00 4.003976285457611084e-01
2.777000000000000000e+03 1.748790740966796875e+01 -4.920728206634521484e+00 2.177535772323608398e+00 5.064915657043457031e+00 2.172735452651977539e+00 -1.580012559890747070e+00
2.778000000000000000e+03 1.157325744628906250e+01 -7.398328304290771484e+00 -1.325916290283203125e+00 6.551377296447753906e+00 1.567638397216796875e+00 3.605137348175048828e+00
2.779000000000000000e+03 9.880103111267089844e+00 -5.978807449340820312e+00 2.380017489194869995e-01 4.738301277160644531e+00 1.492890954017639160e+00 3.489659786224365234e+00
2.780000000000000000e+03 1.253467178344726562e+01 2.067243576049804688e+01 2.658805251121520996e-01 5.773215293884277344e+00 1.811728715896606445e+00 -1.212807774543762207e+00
2.781000000000000000e+03 8.689966201782226562e+00 -7.222131729125976562e+00 -4.036960601806640625e-01 4.446631908416748047e+00 1.212880730628967285e+00 2.483885765075683594e+00
2.782000000000000000e+03 9.658620834350585938e+00 1.971320533752441406e+01 3.853892683982849121e-01 4.296022415161132812e+00 1.404423475265502930e+00 -1.308946967124938965e+00
2.783000000000000000e+03 9.619128227233886719e+00 9.353678703308105469e+00 4.633951783180236816e-01 4.375079631805419922e+00 1.451542496681213379e+00 -6.655724644660949707e-01
2.784000000000000000e+03 9.530638694763183594e+00 8.555502891540527344e+00 4.567978978157043457e-01 4.220120906829833984e+00 1.403075575828552246e+00 -7.544100880622863770e-01
2.785000000000000000e+03 6.983058929443359375e+01 -5.538609027862548828e+00 -7.109576463699340820e-01 6.431011199951171875e+00 1.716016054153442383e+00 -1.549710333347320557e-01
2.786000000000000000e+03 7.024408721923828125e+01 -4.305000305175781250e+00 -6.233389973640441895e-01 6.425005912780761719e+00 1.740500092506408691e+00 -1.104490607976913452e-01
2.787000000000000000e+03 1.715379142761230469e+01 2.777660942077636719e+01 -1.132156014442443848e+00 4.780246734619140625e+00 1.094427108764648438e+00 4.847481548786163330e-01
2.788000000000000000e+03 6.788359832763671875e+01 2.693537139892578125e+01 -1.056002140045166016e+00 5.325549125671386719e+00 1.280864000320434570e+00 -1.173703074455261230e+00
2.789000000000000000e+03 7.003299713134765625e+01 -2.653581380844116211e+00 -5.606692433357238770e-01 6.239445686340332031e+00 1.703632950782775879e+00 -6.288777291774749756e-02
2.790000000000000000e+03 7.081953430175781250e+01 3.536583709716796875e+01 6.894384324550628662e-02 6.071856021881103516e+00 1.842239975929260254e+00 -3.945926129817962646e-01
2.791000000000000000e+03 1.461540794372558594e+01 -3.170563888549804688e+01 -9.816146492958068848e-01 2.489806413650512695e+00 4.524575173854827881e-01 -3.694501519203186035e-01
2.792000000000000000e+03 4.594043350219726562e+01 2.649483299255371094e+01 -1.155748367309570312e+00 4.781178474426269531e+00 1.087629079818725586e+00 2.903395332396030426e-02
2.793000000000000000e+03 4.533765792846679688e+01 2.855385780334472656e+01 -1.040381193161010742e+00 4.240351200103759766e+00 9.599910378456115723e-01 -3.121528960764408112e-02
2.794000000000000000e+03 4.330015945434570312e+01 2.733039665222167969e+01 -9.693325161933898926e-01 4.155998706817626953e+00 9.559997916221618652e-01 -4.286746680736541748e-01
2.795000000000000000e+03 1.325663757324218750e+01 6.167751312255859375e+00 -7.063953876495361328e-01 8.614839553833007812e+00 2.372533321380615234e+00 -9.872686862945556641e-01
2.796000000000000000e+03 1.278043079376220703e+01 -4.807010650634765625e+00 3.106093704700469971e-01 8.647812843322753906e+00 2.687526702880859375e+00 3.709944248199462891e+00
2.797000000000000000e+03 1.374034214019775391e+01 6.037783622741699219e+00 -8.238523602485656738e-01 9.123969078063964844e+00 2.490035057067871094e+00 -8.026728630065917969e-01
2.798000000000000000e+03 1.317408657073974609e+01 5.063700675964355469e+00 -8.280267715454101562e-01 8.987660408020019531e+00 2.447890281677246094e+00 -1.371935367584228516e+00
2.799000000000000000e+03 1.226530551910400391e+01 5.138497829437255859e+00 -4.607774913311004639e-01 7.701155185699462891e+00 2.172113418579101562e+00 -1.758510947227478027e+00
2.800000000000000000e+03 1.072989654541015625e+01 -5.330420970916748047e+00 5.921371579170227051e-01 5.445773601531982422e+00 1.811373233795166016e+00 4.068542957305908203e+00
2.801000000000000000e+03 1.124550914764404297e+01 -5.787657737731933594e+00 -2.231350913643836975e-02 6.215452671051025391e+00 1.857941746711730957e+00 4.010738849639892578e+00
2.802000000000000000e+03 1.062740039825439453e+01 -4.836177349090576172e+00 1.107098698616027832e+00 5.011125087738037109e+00 1.835467100143432617e+00 4.114343643188476562e+00
2.803000000000000000e+03 1.047262763977050781e+01 -6.425520420074462891e+00 -2.657500505447387695e-01 5.550340652465820312e+00 1.585377216339111328e+00 3.668022155761718750e+00
2.804000000000000000e+03 1.311846446990966797e+01 -5.963265419006347656e+00 -5.112676024436950684e-01 7.734779357910156250e+00 2.167053461074829102e+00 3.152655839920043945e+00
2.805000000000000000e+03 9.399911880493164062e+00 -6.091892719268798828e+00 1.878827959299087524e-01 4.372196674346923828e+00 1.368023872375488281e+00 3.138846397399902344e+00
2.806000000000000000e+03 1.077325344085693359e+01 -7.819641113281250000e+00 -1.402519583702087402e+00 6.234004974365234375e+00 1.449445605278015137e+00 3.338630199432373047e+00
2.807000000000000000e+03 9.572949409484863281e+00 6.839785575866699219e+00 4.600316882133483887e-01 4.057451248168945312e+00 1.355244874954223633e+00 -1.044693946838378906e+00
2.808000000000000000e+03 1.168772602081298828e+01 9.180572509765625000e+00 2.522497773170471191e-01 6.358917236328125000e+00 1.983350157737731934e+00 -6.263969540596008301e-01
2.809000000000000000e+03 1.401275444030761719e+01 -5.158324718475341797e+00 5.530964583158493042e-02 8.733374595642089844e+00 2.636605262756347656e+00 2.063308715820312500e+00
2.810000000000000000e+03 1.306787395477294922e+01 -6.494422435760498047e+00 -8.809118270874023438e-01 7.305938243865966797e+00 1.927507996559143066e+00 3.175920248031616211e+00
2.811000000000000000e+03 1.324905490875244141e+01 6.629349708557128906e+00 -5.865738391876220703e-01 8.439891815185546875e+00 2.355995416641235352e+00 -8.728906512260437012e-01
2.812000000000000000e+03 1.270758438110351562e+01 7.030047416687011719e+00 -3.751853704452514648e-01 7.758491516113281250e+00 2.214991807937622070e+00 -9.615443944931030273e-01
2.813000000000000000e+03 1.224453163146972656e+01 -4.986246585845947266e+00 3.799919486045837402e-01 7.727294445037841797e+00 2.432185888290405273e+00 4.107931613922119141e+00
2.814000000000000000e+03 1.202897453308105469e+01 -4.484473705291748047e+00 8.987090587615966797e-01 7.768679618835449219e+00 2.600216627120971680e+00 4.444127559661865234e+00
2.815000000000000000e+03 1.408164596557617188e+01 -7.485833644866943359e+00 -1.272152900695800781e+00 6.368213176727294922e+00 1.528818130493164062e+00 2.586703062057495117e+00
2.816000000000000000e+03 1.361161613464355469e+01 -6.734853744506835938e+00 -1.024330139160156250e+00 7.075157642364501953e+00 1.815248250961303711e+00 2.825629949569702148e+00
2.817000000000000000e+03 1.179586696624755859e+01 -5.791518211364746094e+00 -1.440239548683166504e-01 6.842736244201660156e+00 2.009613513946533203e+00 4.021562576293945312e+00
2.818000000000000000e+03 1.041725158691406250e+01 5.475294589996337891e+00 3.196929097175598145e-01 4.861917972564697266e+00 1.554483294486999512e+00 -1.576808929443359375e+00
2.819000000000000000e+03 1.148348140716552734e+01 5.617121219635009766e+00 -1.126178875565528870e-01 6.393639564514160156e+00 1.884306430816650391e+00 -1.610809326171875000e+00
2.820000000000000000e+03 9.584620475769042969e+00 -6.551641464233398438e+00 -1.516621112823486328e-01 4.766012668609619141e+00 1.384305119514465332e+00 3.177684068679809570e+00
2.821000000000000000e+03 1.026169776916503906e+01 6.127191066741943359e+00 3.374526202678680420e-01 4.779626369476318359e+00 1.535123705863952637e+00 -1.357048392295837402e+00
2.822000000000000000e+03 1.303778648376464844e+01 7.603186130523681641e+00 -3.402959108352661133e-01 7.881917953491210938e+00 2.262486696243286133e+00 -7.251884341239929199e-01
2.823000000000000000e+03 1.203283596038818359e+01 8.571247100830078125e+00 4.145277664065361023e-02 6.772829532623291016e+00 2.044284820556640625e+00 -7.243268489837646484e-01
2.824000000000000000e+03 1.503127574920654297e+01 -7.331909179687500000e+00 -9.470037221908569336e-01 5.812093257904052734e+00 1.459526896476745605e+00 1.846528887748718262e+00
2.825000000000000000e+03 1.011833190917968750e+01 8.837208747863769531e+00 3.910655677318572998e-01 4.888178825378417969e+00 1.583773374557495117e+00 -7.511358857154846191e-01
2.826000000000000000e+03 9.567073822021484375e+00 7.713283538818359375e+00 4.338574707508087158e-01 4.208255290985107422e+00 1.392633795738220215e+00 -8.735715150833129883e-01
2.827000000000000000e+03 1.606517982482910156e+01 -6.032217502593994141e+00 5.148537755012512207e-01 5.978001117706298828e+00 1.947856426239013672e+00 8.227661997079849243e-02
2.828000000000000000e+03 1.021475505828857422e+01 7.627247333526611328e+00 3.239171206951141357e-01 4.870676517486572266e+00 1.558378100395202637e+00 -9.523632526397705078e-01
2.829000000000000000e+03 1.080569076538085938e+01 -5.803398132324218750e+00 1.734740734100341797e-01 5.631105899810791016e+00 1.741374015808105469e+00 3.928137302398681641e+00
2.830000000000000000e+03 9.510142326354980469e+00 -8.788892745971679688e+00 -1.435189843177795410e+00 5.989098548889160156e+00 1.366172552108764648e+00 2.400758743286132812e+00
2.831000000000000000e+03 1.120489406585693359e+01 2.378450202941894531e+01 -4.094043970108032227e-01 4.864406585693359375e+00 1.336500644683837891e+00 -1.159385442733764648e+00
2.832000000000000000e+03 1.535495281219482422e+01 2.833080101013183594e+01 -1.057248950004577637e+00 4.733222961425781250e+00 1.102792143821716309e+00 2.988711930811405182e-02
2.833000000000000000e+03 6.778045654296875000e+01 3.510065078735351562e+01 2.648012936115264893e-01 4.929197788238525391e+00 1.558199644088745117e+00 -4.071291387081146240e-01
2.834000000000000000e+03 9.754161834716796875e+00 2.250196838378906250e+01 -6.619108468294143677e-02 4.342820644378662109e+00 1.282988905906677246e+00 -1.346880555152893066e+00
2.835000000000000000e+03 1.255872917175292969e+01 2.263294792175292969e+01 -2.398708313703536987e-01 5.544819355010986328e+00 1.591484546661376953e+00 -1.123740434646606445e+00
2.836000000000000000e+03 1.280812644958496094e+01 2.545096397399902344e+01 -7.644668817520141602e-01 5.131630420684814453e+00 1.310149073600769043e+00 -8.126989006996154785e-01
2.837000000000000000e+03 1.401751232147216797e+01 2.374155044555664062e+01 -6.599568128585815430e-01 5.867648601531982422e+00 1.562307596206665039e+00 -7.040433287620544434e-01
2.838000000000000000e+03 4.130689620971679688e+01 2.819669151306152344e+01 -8.159562945365905762e-01 3.649469614028930664e+00 8.500539660453796387e-01 -6.045635938644409180e-01
2.839000000000000000e+03 1.271719646453857422e+01 4.622531890869140625e+00 -6.115546226501464844e-01 8.578488349914550781e+00 2.390079975128173828e+00 -1.766703128814697266e+00
2.840000000000000000e+03 1.182227420806884766e+01 -6.381766796112060547e+00 -5.905559659004211426e-01 6.767427921295166016e+00 1.853061556816101074e+00 3.791449069976806641e+00
2.841000000000000000e+03 1.324877071380615234e+01 4.228904724121093750e+00 -9.162805676460266113e-01 9.726820945739746094e+00 2.643162250518798828e+00 -1.671883702278137207e+00
2.842000000000000000e+03 1.369063377380371094e+01 4.660474300384521484e+00 -9.810248613357543945e-01 9.917143821716308594e+00 2.680835723876953125e+00 -1.108101248741149902e+00
2.843000000000000000e+03 1.035559272766113281e+01 -5.907310485839843750e+00 2.094935774803161621e-01 5.246818542480468750e+00 1.636893749237060547e+00 3.769155502319335938e+00
2.844000000000000000e+03 1.360535812377929688e+01 -5.811346530914306641e+00 -4.271925985813140869e-01 7.972303390502929688e+00 2.263533115386962891e+00 2.751914262771606445e+00
2.845000000000000000e+03 1.420848083496093750e+01 -6.908705711364746094e+00 -9.517306089401245117e-01 6.655546188354492188e+00 1.711144685745239258e+00 2.363694906234741211e+00
2.846000000000000000e+03 1.042714309692382812e+01 -6.995177268981933594e+00 -7.301946878433227539e-01 5.737602710723876953e+00 1.502222418785095215e+00 3.477414369583129883e+00
2.847000000000000000e+03 1.392270183563232422e+01 -6.177195072174072266e+00 -5.399280786514282227e-01 7.514095783233642578e+00 2.092250347137451172e+00 2.403438568115234375e+00
2.848000000000000000e+03 1.229854583740234375e+01 7.941018104553222656e+00 -1.117563843727111816e-01 7.137849807739257812e+00 2.107827901840209961e+00 -7.918887734413146973e-01
2.849000000000000000e+03 9.182009696960449219e+00 -6.840413093566894531e+00 -2.679839134216308594e-01 4.619818687438964844e+00 1.305550456047058105e+00 2.857845783233642578e+00
2.850000000000000000e+03 1.017020988464355469e+01 -7.578656196594238281e+00 -1.032278418540954590e+00 5.807678699493408203e+00 1.432620048522949219e+00 3.164479970932006836e+00
2.851000000000000000e+03 1.072947597503662109e+01 6.865904808044433594e+00 1.736047863960266113e-01 5.439545631408691406e+00 1.683945059776306152e+00 -1.161349773406982422e+00
2.852000000000000000e+03 1.246156787872314453e+01 5.965746879577636719e+00 -4.794625341892242432e-01 7.709959030151367188e+00 2.169148921966552734e+00 -1.383676886558532715e+00
2.853000000000000000e+03 1.180119419097900391e+01 7.036907196044921875e+00 -1.056782156229019165e-01 6.716671466827392578e+00 1.983298063278198242e+00 -1.091028094291687012e+00
2.854000000000000000e+03 1.119272804260253906e+01 7.487329959869384766e+00 9.339687228202819824e-02 5.992901325225830078e+00 1.825889348983764648e+00 -1.021617770195007324e+00
2.855000000000000000e+03 1.240057754516601562e+01 -5.614850521087646484e+00 -2.244068980216979980e-01 7.582063674926757812e+00 2.207297086715698242e+00 3.769905328750610352e+00
2.856000000000000000e+03 1.054226684570312500e+01 8.299539566040039062e+00 2.907226979732513428e-01 5.257078170776367188e+00 1.664340257644653320e+00 -8.318657279014587402e-01
2.857000000000000000e+03 1.132267284393310547e+01 -6.629179954528808594e+00 -6.556969285011291504e-01 6.329897403717041016e+00 1.702260136604309082e+00 3.822260856628417969e+00
2.858000000000000000e+03 1.100043201446533203e+01 -7.186452388763427734e+00 -9.691419601440429688e-01 6.192145824432373047e+00 1.566901206970214844e+00 3.576159477233886719e+00
2.859000000000000000e+03 1.325321483612060547e+01 2.702855110168457031e+01 -9.078127741813659668e-01 4.870546340942382812e+00 1.188820123672485352e+00 -5.635669827461242676e-01
2.860000000000000000e+03 7.393212890625000000e+01 3.761618423461914062e+01 6.109607964754104614e-02 7.144851207733154297e+00 2.161784172058105469e+00 -1.433955729007720947e-01
2.861000000000000000e+03 6.350813674926757812e+01 2.831952476501464844e+01 -9.929951280355453491e-02 2.377064228057861328e+00 6.833294034004211426e-01 -5.813810229301452637e-01
2.862000000000000000e+03 1.099281692504882812e+01 -6.235816478729248047e+00 -2.723608613014221191e-01 6.023624897003173828e+00 1.725379228591918945e+00 3.839012384414672852e+00
2.863000000000000000e+03 1.277089405059814453e+01 6.576908111572265625e+00 -5.002458095550537109e-01 7.929547309875488281e+00 2.228790521621704102e+00 -1.090418696403503418e+00
2.864000000000000000e+03 1.253226375579833984e+01 7.431715965270996094e+00 -2.840223312377929688e-01 7.415727138519287109e+00 2.139511346817016602e+00 -9.297292828559875488e-01
2.865000000000000000e+03 1.185336208343505859e+01 6.396570682525634766e+00 -2.174669951200485229e-01 6.833798885345458984e+00 1.984899520874023438e+00 -1.321187019348144531e+00
2.866000000000000000e+03 9.980648040771484375e+00 -6.434480667114257812e+00 -1.855868101119995117e-01 5.110798358917236328e+00 1.477563381195068359e+00 3.437880992889404297e+00
2.867000000000000000e+03 1.109122371673583984e+01 8.791030883789062500e+00 2.577085793018341064e-01 5.823686599731445312e+00 1.824418544769287109e+00 -7.521764636039733887e-01
2.868000000000000000e+03 1.170455932617187500e+01 7.673916816711425781e+00 -3.382042422890663147e-02 6.532149791717529297e+00 1.949498772621154785e+00 -9.541583657264709473e-01
2.869000000000000000e+03 1.126424884796142578e+01 6.927230358123779297e+00 1.633153855800628662e-02 6.090915203094482422e+00 1.832173943519592285e+00 -1.156569957733154297e+00
2.870000000000000000e+03 1.073662853240966797e+01 7.465015888214111328e+00 1.875153630971908569e-01 5.473646640777587891e+00 1.698348641395568848e+00 -1.022644996643066406e+00
2.871000000000000000e+03 1.228234672546386719e+01 7.035264968872070312e+00 -2.713158130645751953e-01 7.248910903930664062e+00 2.093278646469116211e+00 -1.048461675643920898e+00
2.872000000000000000e+03 1.134790897369384766e+01 6.292754173278808594e+00 -2.004868537187576294e-02 6.206045627593994141e+00 1.855799078941345215e+00 -1.340466856956481934e+00
2.873000000000000000e+03 1.274277019500732422e+01 5.480687618255615234e+00 -6.167228221893310547e-01 8.321944236755371094e+00 2.311566352844238281e+00 -1.385432600975036621e+00
2.874000000000000000e+03 1.231886196136474609e+01 6.489960670471191406e+00 -3.245644867420196533e-01 7.354868888854980469e+00 2.109091281890869141e+00 -1.196058392524719238e+00
2.875000000000000000e+03 1.144713497161865234e+01 8.250572204589843750e+00 1.149751916527748108e-01 6.197414875030517578e+00 1.893716931343078613e+00 -8.185485601425170898e-01
2.876000000000000000e+03 5.987662887573242188e+01 3.539850234985351562e+01 5.176407694816589355e-01 2.856955289840698242e+00 1.012378811836242676e+00 2.845748662948608398e-01
2.877000000000000000e+03 4.263489151000976562e+01 -3.838846206665039062e+01 -1.640160441398620605e+00 5.615764141082763672e+00 1.192681074142456055e+00 -2.734625339508056641e-01
2.878000000000000000e+03 6.622080230712890625e+01 -3.247687149047851562e+01 -5.461403727531433105e-01 4.140761375427246094e+00 1.078386306762695312e+00 8.365666866302490234e-01
2.879000000000000000e+03 1.202068328857421875e+01 -4.090954589843750000e+01 -2.147226482629776001e-01 2.610290050506591797e+00 7.186702489852905273e-01 -3.716504201292991638e-02
2.880000000000000000e+03 5.595134735107421875e+01 -3.708596420288085938e+01 3.718096911907196045e-01 1.691296339035034180e+00 6.189318299293518066e-01 -6.724615693092346191e-01
2.881000000000000000e+03 6.094052124023437500e+01 -3.558792495727539062e+01 4.081522226333618164e-01 1.721830129623413086e+00 6.389946937561035156e-01 3.607929050922393799e-01
2.882000000000000000e+03 1.845568084716796875e+01 -4.089109039306640625e+01 4.357022047042846680e-02 1.094455599784851074e+00 3.414077460765838623e-01 -7.297750562429428101e-02
2.883000000000000000e+03 1.538722324371337891e+01 -3.936760711669921875e+01 -1.805935204029083252e-01 1.806041359901428223e+00 4.876343607902526855e-01 -1.426188945770263672e-01
2.884000000000000000e+03 1.515915489196777344e+01 3.418839263916015625e+01 -7.033300399780273438e-01 3.763073444366455078e+00 9.179229736328125000e-01 4.999614506959915161e-02
2.885000000000000000e+03 2.269753456115722656e+01 3.275478744506835938e+01 -2.829145491123199463e-01 2.603337049484252930e+00 6.961267590522766113e-01 6.268286108970642090e-01
2.886000000000000000e+03 5.152409744262695312e+01 2.970119476318359375e+01 -8.725430369377136230e-01 3.729979276657104492e+00 8.572309017181396484e-01 1.144796252250671387e+00
2.887000000000000000e+03 3.754278182983398438e+01 2.532781600952148438e+01 -6.117001771926879883e-01 2.699396133422851562e+00 6.263087987899780273e-01 -1.003771185874938965e+00
2.888000000000000000e+03 3.918072509765625000e+01 2.598645591735839844e+01 -6.990656852722167969e-01 3.192449569702148438e+00 7.480151653289794922e-01 -9.250144362449645996e-01
2.889000000000000000e+03 2.731117248535156250e+01 3.176280593872070312e+01 1.783254556357860565e-02 1.765188217163085938e+00 5.349062085151672363e-01 2.953561246395111084e-01
2.890000000000000000e+03 4.798534393310546875e+01 3.162203407287597656e+01 -8.040211200714111328e-01 3.763172864913940430e+00 8.877454996109008789e-01 5.134699344635009766e-01
2.891000000000000000e+03 5.796673583984375000e+01 3.300047302246093750e+01 3.025057911872863770e-01 2.460294485092163086e+00 8.288400769233703613e-01 6.471211910247802734e-01
2.892000000000000000e+03 3.362024688720703125e+01 2.465916442871093750e+01 -5.232120156288146973e-01 1.343214035034179688e+00 2.460006028413772583e-01 -7.868593335151672363e-01
2.893000000000000000e+03 8.556761741638183594e+00 3.604269409179687500e+01 -3.866011202335357666e-01 3.596319437026977539e+00 9.629155397415161133e-01 -3.350191116333007812e-01
2.894000000000000000e+03 5.768955230712890625e+00 -3.808908843994140625e+01 -2.432636469602584839e-01 4.202229976654052734e+00 1.187689900398254395e+00 2.247611731290817261e-01
2.895000000000000000e+03 5.151347732543945312e+01 -3.499660491943359375e+01 -2.801607847213745117e-01 2.940100431442260742e+00 7.979818582534790039e-01 -1.566373229026794434e+00
2.896000000000000000e+03 2.469626045227050781e+01 3.084949493408203125e+01 -1.415136456489562988e-01 2.042131185531616211e+00 5.701853036880493164e-01 6.448944211006164551e-01
2.897000000000000000e+03 7.617692565917968750e+01 -3.684352874755859375e+01 -1.294774562120437622e-01 8.066449165344238281e+00 2.381091594696044922e+00 -4.473141953349113464e-02
2.898000000000000000e+03 7.122898864746093750e+01 -3.808979034423828125e+01 -4.008571431040763855e-02 6.020565986633300781e+00 1.794144153594970703e+00 1.818395704030990601e-01
2.899000000000000000e+03 3.841999053955078125e+01 -3.798399734497070312e+01 -1.627081274986267090e+00 5.342520236968994141e+00 1.114631652832031250e+00 3.137470185756683350e-01
2.900000000000000000e+03 4.277478408813476562e+01 -3.568795394897460938e+01 -1.472688794136047363e+00 5.979423046112060547e+00 1.352020382881164551e+00 -4.630113840103149414e-01
2.901000000000000000e+03 3.948532867431640625e+01 2.427004432678222656e+01 -7.365707159042358398e-01 3.385000228881835938e+00 7.945288419723510742e-01 -1.053641080856323242e+00
2.902000000000000000e+03 4.073442077636718750e+01 2.438546752929687500e+01 -7.890529632568359375e-01 3.771507501602172852e+00 8.947363495826721191e-01 -9.580537080764770508e-01
2.903000000000000000e+03 5.724723052978515625e+01 -3.579613494873046875e+01 4.696693718433380127e-01 1.339475512504577637e+00 5.427434444427490234e-01 -5.169768333435058594e-01
2.904000000000000000e+03 5.360402679443359375e+01 -3.629463195800781250e+01 1.316478848457336426e-01 2.170955657958984375e+00 6.907810568809509277e-01 -1.162599563598632812e+00
2.905000000000000000e+03 5.510856246948242188e+01 3.405737686157226562e+01 5.592971667647361755e-02 2.792740345001220703e+00 8.546010255813598633e-01 7.813973426818847656e-01
2.906000000000000000e+03 6.859732055664062500e+01 -3.331823348999023438e+01 -5.614905357360839844e-01 5.492528438568115234e+00 1.479311347007751465e+00 4.416229426860809326e-01
2.907000000000000000e+03 3.625324630737304688e+01 3.110773468017578125e+01 -3.091833591461181641e-01 2.393155097961425781e+00 6.251915097236633301e-01 -5.977061390876770020e-01
2.908000000000000000e+03 4.051243591308593750e+01 3.385178375244140625e+01 -4.974134862422943115e-01 3.023151159286499023e+00 7.577213048934936523e-01 -3.245175480842590332e-01
2.909000000000000000e+03 2.746785163879394531e+01 -3.812300109863281250e+01 -1.974369883537292480e-01 9.900635480880737305e-01 2.377879619598388672e-01 4.568170607089996338e-01
2.910000000000000000e+03 1.109445953369140625e+01 3.187559700012207031e+01 -6.871110796928405762e-01 3.991337299346923828e+00 9.912678599357604980e-01 -4.975391924381256104e-01
2.911000000000000000e+03 1.086105251312255859e+01 3.723323822021484375e+01 -4.718093276023864746e-01 3.649139881134033203e+00 9.531991481781005859e-01 -2.155124247074127197e-01
2.912000000000000000e+03 1.392452335357666016e+01 3.038313293457031250e+01 -9.266446232795715332e-01 4.398803710937500000e+00 1.041647791862487793e+00 -2.197305113077163696e-01
2.913000000000000000e+03 1.362878990173339844e+01 2.870466232299804688e+01 -9.535734057426452637e-01 4.640033721923828125e+00 1.105938076972961426e+00 -3.542415499687194824e-01
2.914000000000000000e+03 1.451253414154052734e+01 3.193528556823730469e+01 -8.530319333076477051e-01 4.096278667449951172e+00 9.729739427566528320e-01 -1.782235316932201385e-02
2.915000000000000000e+03 3.964380264282226562e+01 -3.534592819213867188e+01 -1.587417244911193848e+00 6.014997482299804688e+00 1.328274011611938477e+00 2.093846499919891357e-01
2.916000000000000000e+03 8.671874046325683594e+00 4.065210342407226562e+01 -2.955027818679809570e-01 3.537501096725463867e+00 9.725995063781738281e-01 -8.037913590669631958e-02
2.917000000000000000e+03 6.736638641357421875e+01 4.100445938110351562e+01 5.146147608757019043e-01 4.870436668395996094e+00 1.615515470504760742e+00 -9.620141237974166870e-02
2.918000000000000000e+03 6.736677551269531250e+01 3.801285171508789062e+01 4.382704198360443115e-01 4.872952938079833984e+00 1.593366980552673340e+00 -2.161557674407958984e-01
2.919000000000000000e+03 7.168988037109375000e+01 -4.091227722167968750e+01 6.670678406953811646e-02 6.168177127838134766e+00 1.870465278625488281e+00 5.774624273180961609e-02
2.920000000000000000e+03 4.740982055664062500e+01 -4.101947402954101562e+01 -1.016034841537475586e+00 4.497818470001220703e+00 1.044535040855407715e+00 -2.780175209045410156e-01
2.921000000000000000e+03 5.706061172485351562e+01 -4.120770645141601562e+01 7.327066063880920410e-01 1.822153925895690918e+00 7.664581537246704102e-01 -8.325857669115066528e-02
2.922000000000000000e+03 2.318300056457519531e+01 3.806130599975585938e+01 -1.707043051719665527e-01 2.578601837158203125e+00 7.223692536354064941e-01 2.306416034698486328e-01
2.923000000000000000e+03 1.462989234924316406e+01 3.746332168579101562e+01 -5.437645912170410156e-01 3.546615600585937500e+00 9.008552432060241699e-01 1.620800979435443878e-02
2.924000000000000000e+03 4.327797317504882812e+01 3.768072509765625000e+01 -3.992517888545989990e-01 3.057368040084838867e+00 7.974348664283752441e-01 -2.799195051193237305e-02
2.925000000000000000e+03 3.260437393188476562e+01 4.063256072998046875e+01 -3.106862306594848633e-02 2.302703142166137695e+00 6.814903616905212402e-01 -4.632659256458282471e-02
2.926000000000000000e+03 3.758458709716796875e+01 -4.094015121459960938e+01 -1.598862409591674805e+00 4.863465785980224609e+00 9.793810844421386719e-01 1.660137772560119629e-01
2.927000000000000000e+03 6.323347473144531250e+01 3.729024124145507812e+01 5.972158908843994141e-01 3.567703247070312500e+00 1.249475717544555664e+00 -8.413326740264892578e-02
2.928000000000000000e+03 3.526239776611328125e+01 -3.650722503662109375e+01 -1.348365068435668945e+00 4.509907722473144531e+00 9.484627246856689453e-01 7.929608821868896484e-01
2.929000000000000000e+03 7.008882141113281250e+01 -3.476838684082031250e+01 -3.928197324275970459e-01 6.028031349182128906e+00 1.690563440322875977e+00 3.158891797065734863e-01
2.930000000000000000e+03 1.555340766906738281e+01 3.039390945434570312e+01 -9.432283043861389160e-01 4.286329746246337891e+00 1.002930402755737305e+00 9.347396343946456909e-02
2.931000000000000000e+03 6.465227508544921875e+01 3.432945251464843750e+01 4.239108562469482422e-01 3.770560026168823242e+00 1.258341312408447266e+00 -3.020261228084564209e-01
2.932000000000000000e+03 2.038921737670898438e+01 3.477112579345703125e+01 -4.514510035514831543e-01 3.087679862976074219e+00 7.908686399459838867e-01 4.148332178592681885e-01
2.933000000000000000e+03 3.496360397338867188e+01 2.901811599731445312e+01 -3.139213025569915771e-01 2.049620866775512695e+00 5.207098722457885742e-01 -7.001501917839050293e-01
2.934000000000000000e+03 3.091030502319335938e+01 3.410943222045898438e+01 2.374512143433094025e-02 1.926818370819091797e+00 5.851690769195556641e-01 -1.363307982683181763e-01
2.935000000000000000e+03 5.154681777954101562e+01 3.456558227539062500e+01 -2.693844139575958252e-01 3.178561449050903320e+00 8.727531433105468750e-01 6.852842569351196289e-01
2.936000000000000000e+03 4.777428054809570312e+01 3.472325134277343750e+01 -5.267455577850341797e-01 3.401272773742675781e+00 8.623581528663635254e-01 3.445165455341339111e-01
2.937000000000000000e+03 1.259507942199707031e+01 3.238281631469726562e+01 -7.495647072792053223e-01 3.985182046890258789e+00 9.706852436065673828e-01 -2.514781951904296875e-01
2.938000000000000000e+03 3.391896057128906250e+01 3.277510452270507812e+01 -1.133068278431892395e-01 2.066536426544189453e+00 5.859688520431518555e-01 -4.030998945236206055e-01
2.939000000000000000e+03 6.640696716308593750e+01 -3.093310165405273438e+01 -7.998330593109130859e-01 4.429207801818847656e+00 1.088812351226806641e+00 8.718397617340087891e-01
2.940000000000000000e+03 6.452475738525390625e+01 -3.270790481567382812e+01 -4.497221410274505615e-01 3.153930664062500000e+00 8.112625479698181152e-01 9.364325404167175293e-01
2.941000000000000000e+03 5.202264404296875000e+01 3.774463272094726562e+01 -2.442919462919235229e-02 3.035469293594360352e+00 9.033120870590209961e-01 3.955940008163452148e-01
2.942000000000000000e+03 2.723658943176269531e+01 3.470851135253906250e+01 -7.199906278401613235e-03 2.081674337387084961e+00 6.223423480987548828e-01 2.065082937479019165e-01
2.943000000000000000e+03 3.203451538085937500e+01 3.714500045776367188e+01 -1.310827117413282394e-02 2.180510282516479492e+00 6.502205729484558105e-01 -1.152029633522033691e-01
2.944000000000000000e+03 2.356123161315917969e+01 3.511537933349609375e+01 -1.644560247659683228e-01 2.474910736083984375e+00 6.931363940238952637e-01 3.944600820541381836e-01
2.945000000000000000e+03 6.194721221923828125e+01 3.285714340209960938e+01 4.633480310440063477e-01 2.787494421005249023e+00 9.752527475357055664e-01 -3.266515955328941345e-02
2.946000000000000000e+03 3.877396774291992188e+01 2.810642051696777344e+01 -6.073363423347473145e-01 2.966037750244140625e+00 7.076104283332824707e-01 -7.905306816101074219e-01
2.947000000000000000e+03 3.856277084350585938e+01 3.050899314880371094e+01 -5.194536447525024414e-01 2.846605539321899414e+00 6.981455683708190918e-01 -6.533164381980895996e-01
2.948000000000000000e+03 3.567773818969726562e+01 3.529335403442382812e+01 -1.762335300445556641e-01 2.403521299362182617e+00 6.681863069534301758e-01 -3.151895999908447266e-01
2.949000000000000000e+03 4.136956024169921875e+01 3.087553405761718750e+01 -7.115353345870971680e-01 3.393150806427001953e+00 8.044846653938293457e-01 -4.435471892356872559e-01
2.950000000000000000e+03 6.855075836181640625e+01 -3.662928771972656250e+01 -7.604629546403884888e-02 5.132050991058349609e+00 1.516801476478576660e+00 3.491577506065368652e-01
2.951000000000000000e+03 1.888436889648437500e+01 3.775822448730468750e+01 -4.374559223651885986e-01 3.172457695007324219e+00 8.205005526542663574e-01 2.140094935894012451e-01
2.952000000000000000e+03 1.230070209503173828e+01 3.080708312988281250e+01 -8.024169206619262695e-01 4.214510440826416016e+00 1.023627996444702148e+00 -4.005258381366729736e-01
2.953000000000000000e+03 3.780728530883789062e+01 3.284379959106445312e+01 -3.823007047176361084e-01 2.711899757385253906e+00 6.988796591758728027e-01 -4.526793956756591797e-01
2.954000000000000000e+03 1.041521739959716797e+01 1.679917931556701660e+00 8.893235921859741211e-01 1.930700302124023438e+00 8.460071682929992676e-01 -1.929922223091125488e+00
2.955000000000000000e+03 1.062683200836181641e+01 1.631631493568420410e+00 1.081789255142211914e+00 2.035041093826293945e+00 9.350491166114807129e-01 -2.247374773025512695e+00
2.956000000000000000e+03 1.161546134948730469e+01 1.367905497550964355e+00 1.635397672653198242e+00 4.740291595458984375e+00 1.912706732749938965e+00 -3.979970932006835938e+00
2.957000000000000000e+03 1.147382354736328125e+01 1.626805901527404785e+00 1.320973753929138184e+00 4.593325138092041016e+00 1.774289727210998535e+00 -3.671632528305053711e+00
2.958000000000000000e+03 1.167985916137695312e+01 1.647500634193420410e+00 1.255750656127929688e+00 5.617183208465576172e+00 2.061880111694335938e+00 -4.015805244445800781e+00
2.959000000000000000e+03 1.246227264404296875e+01 1.425927877426147461e+00 8.700106739997863770e-01 1.054430866241455078e+01 3.424295663833618164e+00 -4.736643314361572266e+00
2.960000000000000000e+03 1.064156341552734375e+01 -2.130707025527954102e+00 4.143811702728271484e+00 1.710378050804138184e+00 1.756256937980651855e+00 3.247640371322631836e+00
2.961000000000000000e+03 1.096595478057861328e+01 -1.897447466850280762e+00 4.576832294464111328e+00 1.768971562385559082e+00 1.903741240501403809e+00 3.338899374008178711e+00
2.962000000000000000e+03 1.160283946990966797e+01 -1.980718016624450684e+00 5.894991397857666016e+00 4.270423889160156250e+00 3.049624443054199219e+00 5.505896568298339844e+00
2.963000000000000000e+03 1.215938854217529297e+01 -2.043736219406127930e+00 5.372493267059326172e+00 8.026189804077148438e+00 4.019604682922363281e+00 7.009782791137695312e+00
2.964000000000000000e+03 1.263534545898437500e+01 -2.250368356704711914e+00 3.781030893325805664e+00 1.265117931365966797e+01 4.929663181304931641e+00 6.792078495025634766e+00
2.965000000000000000e+03 7.801631164550781250e+01 4.160089492797851562e+01 1.672332733869552612e-01 8.539324760437011719e+00 2.611967325210571289e+00 -4.700200259685516357e-02
2.966000000000000000e+03 1.969009971618652344e+01 2.391970252990722656e+01 -8.847285509109497070e-01 5.034644126892089844e+00 1.244974613189697266e+00 1.906972408294677734e+00
2.967000000000000000e+03 2.411950683593750000e+01 2.314042663574218750e+01 -4.586603343486785889e-01 1.145298555493354797e-01 -1.032391414046287537e-01 9.762585163116455078e-01
2.968000000000000000e+03 1.011291217803955078e+01 -2.445650339126586914e+00 3.238257169723510742e+00 1.575563549995422363e+00 1.444146275520324707e+00 2.866615772247314453e+00
2.969000000000000000e+03 1.172093009948730469e+01 -2.555365800857543945e+00 4.094296455383300781e+00 6.373297214508056641e+00 3.140278100967407227e+00 5.798964500427246094e+00
2.970000000000000000e+03 1.243604564666748047e+01 -2.901235103607177734e+00 2.708919048309326172e+00 1.032042598724365234e+01 3.908803462982177734e+00 5.739963054656982422e+00
2.971000000000000000e+03 1.328343868255615234e+01 -3.202007532119750977e+00 1.615234494209289551e+00 1.223475360870361328e+01 4.154996395111083984e+00 3.223906517028808594e+00
2.972000000000000000e+03 1.318515586853027344e+01 -2.741062402725219727e+00 2.348125457763671875e+00 1.333175277709960938e+01 4.703963279724121094e+00 3.461425304412841797e+00
2.973000000000000000e+03 7.035987854003906250e+01 1.404469871520996094e+01 1.399164319038391113e+00 1.045374011993408203e+01 3.555871248245239258e+00 6.566472053527832031e-01
2.974000000000000000e+03 1.318829441070556641e+01 1.708931326866149902e+00 -2.212277054786682129e-01 1.438480854034423828e+01 4.249073982238769531e+00 -2.691179513931274414e+00
2.975000000000000000e+03 5.073456192016601562e+01 2.138032341003417969e+01 6.763387471437454224e-02 5.897265434265136719e+00 1.789469838142395020e+00 1.335070967674255371e+00
2.976000000000000000e+03 4.088589477539062500e+01 -4.714674472808837891e+00 -1.545642018318176270e+00 8.076099395751953125e+00 1.959137201309204102e+00 2.632909059524536133e+00
2.977000000000000000e+03 4.194923019409179688e+01 -5.324392795562744141e+00 -2.097655057907104492e+00 9.102570533752441406e+00 2.101474761962890625e+00 1.663994312286376953e+00
2.978000000000000000e+03 1.882172775268554688e+01 2.248890495300292969e+01 -1.024531364440917969e+00 6.962460994720458984e+00 1.781378865242004395e+00 1.472345948219299316e+00
2.979000000000000000e+03 9.754810333251953125e+00 -2.282530403137207031e+01 5.192758440971374512e-01 7.434560298919677734e+00 2.386150836944580078e+00 7.537187933921813965e-01
2.980000000000000000e+03 4.358091735839843750e+01 -2.375920677185058594e+01 2.273120641708374023e+00 9.165265083312988281e+00 3.431515693664550781e+00 -9.544343948364257812e-01
2.981000000000000000e+03 1.625323867797851562e+01 -9.574753791093826294e-02 6.246638298034667969e+00 8.736538887023925781e+00 4.494953155517578125e+00 7.485610246658325195e-01
2.982000000000000000e+03 7.826493072509765625e+01 3.792260360717773438e+01 -1.719025149941444397e-02 8.620136260986328125e+00 2.580883979797363281e+00 -1.494099944829940796e-01
2.983000000000000000e+03 5.274434661865234375e+01 -9.571095705032348633e-01 1.961455225944519043e+00 3.813339173793792725e-01 7.028367519378662109e-01 6.032231822609901428e-02
2.984000000000000000e+03 1.133914852142333984e+01 1.978632211685180664e+00 1.098554015159606934e+00 4.647756099700927734e+00 1.723892927169799805e+00 -3.377227544784545898e+00
2.985000000000000000e+03 1.131191825866699219e+01 1.671410799026489258e+00 1.320829033851623535e+00 3.918138265609741211e+00 1.571690201759338379e+00 -3.303417205810546875e+00
2.986000000000000000e+03 1.115456581115722656e+01 1.805783748626708984e+00 1.191118955612182617e+00 3.616681337356567383e+00 1.442340135574340820e+00 -3.077778339385986328e+00
2.987000000000000000e+03 1.165960121154785156e+01 1.912134647369384766e+00 1.040079116821289062e+00 5.899377346038818359e+00 2.081836938858032227e+00 -3.942706584930419922e+00
2.988000000000000000e+03 1.221506786346435547e+01 -3.539336919784545898e+00 1.927514076232910156e+00 8.712558746337890625e+00 3.192021846771240234e+00 5.074001789093017578e+00
2.989000000000000000e+03 2.398807716369628906e+01 -1.203791332244873047e+01 -1.329056978225708008e+00 7.486901283264160156e-01 -1.741100549697875977e-01 -1.113658547401428223e+00
2.990000000000000000e+03 4.580902099609375000e+01 -2.713646507263183594e+01 7.931863665580749512e-01 7.689044475555419922e+00 2.544669151306152344e+00 -1.760344266891479492e+00
2.991000000000000000e+03 5.633640289306640625e+01 -3.295715713500976562e+01 -5.053355172276496887e-02 5.872379541397094727e-01 1.610113233327865601e-01 -9.017196297645568848e-01
2.992000000000000000e+03 2.478298187255859375e+00 3.679601287841796875e+01 -3.669659048318862915e-02 3.475609540939331055e+00 1.031673908233642578e+00 -1.468772888183593750e-01
2.993000000000000000e+03 1.672012901306152344e+01 2.241699028015136719e+01 -6.014146804809570312e-01 6.984382152557373047e+00 1.914890289306640625e+00 1.702012866735458374e-01
2.994000000000000000e+03 1.049980735778808594e+01 -3.019069671630859375e+00 3.247616529464721680e+00 2.962807655334472656e+00 1.863127231597900391e+00 3.905650377273559570e+00
2.995000000000000000e+03 1.434478092193603516e+01 -2.755467891693115234e+00 3.193082571029663086e+00 1.332273578643798828e+01 4.954745292663574219e+00 -5.220044255256652832e-01
2.996000000000000000e+03 1.224830055236816406e+01 -4.090235233306884766e+00 1.150572419166564941e+00 8.451339721679687500e+00 2.880573749542236328e+00 4.597456455230712891e+00
2.997000000000000000e+03 4.475077438354492188e+01 1.408140778541564941e+00 1.757981657981872559e+00 1.200893020629882812e+01 4.130073547363281250e+00 1.083983063697814941e+00
2.998000000000000000e+03 3.365779113769531250e+01 -1.466283035278320312e+01 3.316409826278686523e+00 3.863005638122558594e+00 2.153824806213378906e+00 -2.807242631912231445e+00
2.999000000000000000e+03 6.299452209472656250e+01 2.695179939270019531e+01 -4.053415656089782715e-01 1.593057394027709961e+00 3.563147485256195068e-01 -5.734417438507080078e-01
3.000000000000000000e+03 4.926523590087890625e+01 2.411125564575195312e+01 -1.197233319282531738e+00 5.457360744476318359e+00 1.278038263320922852e+00 7.957819104194641113e-01
3.001000000000000000e+03 6.476674652099609375e+01 -3.504591751098632812e+01 -2.050045877695083618e-02 3.296690464019775391e+00 9.828569889068603516e-01 7.115275859832763672e-01
3.002000000000000000e+03 6.267348861694335938e+01 -3.460185241699218750e+01 1.136590763926506042e-01 2.311861038208007812e+00 7.276560068130493164e-01 5.868217945098876953e-01
3.003000000000000000e+03 6.996730804443359375e+01 -8.265654563903808594e+00 -8.958220481872558594e-01 7.208401203155517578e+00 1.893773674964904785e+00 -2.336314469575881958e-01
3.004000000000000000e+03 1.150420951843261719e+01 -3.061364889144897461e+00 3.292785882949829102e+00 5.933995723724365234e+00 2.768034458160400391e+00 5.333821773529052734e+00
3.005000000000000000e+03 1.124684047698974609e+01 -3.890194654464721680e+00 2.126748800277709961e+00 5.721764087677001953e+00 2.354553937911987305e+00 4.771132946014404297e+00
3.006000000000000000e+03 1.193856811523437500e+01 2.088536500930786133e+00 7.527668476104736328e-01 7.545851707458496094e+00 2.489585638046264648e+00 -4.056553363800048828e+00
3.007000000000000000e+03 1.122797775268554688e+01 2.179501533508300781e+00 1.135071039199829102e+00 4.582717418670654297e+00 1.715336561203002930e+00 -3.258746147155761719e+00
3.008000000000000000e+03 1.103703594207763672e+01 2.908464431762695312e+00 7.341006398200988770e-01 4.830798149108886719e+00 1.669469594955444336e+00 -2.882843971252441406e+00
3.009000000000000000e+03 1.173968887329101562e+01 2.296827316284179688e+00 7.586094737052917480e-01 6.759448528289794922e+00 2.255417346954345703e+00 -3.701205253601074219e+00
3.010000000000000000e+03 5.848983764648437500e+01 -6.573158264160156250e+00 1.484954655170440674e-01 1.807017922401428223e-01 9.875917434692382812e-02 -1.813474148511886597e-01
3.011000000000000000e+03 2.290472793579101562e+01 -1.200591754913330078e+01 -1.751554250717163086e+00 7.577434182167053223e-01 -2.981432676315307617e-01 -7.614131569862365723e-01
3.012000000000000000e+03 4.683998107910156250e+01 -2.433284759521484375e+00 -9.473527222871780396e-02 7.911980152130126953e+00 2.345173358917236328e+00 -1.965006440877914429e-01
3.013000000000000000e+03 1.365249538421630859e+01 2.031443977355957031e+01 5.132802724838256836e-01 6.322284221649169922e+00 2.050669193267822266e+00 -1.137028455734252930e+00
3.014000000000000000e+03 4.141791152954101562e+01 -8.335548400878906250e+00 -1.263451576232910156e+00 7.668829441070556641e+00 1.921613454818725586e+00 1.511709451675415039e+00
3.015000000000000000e+03 9.501850128173828125e+00 3.386355161666870117e+00 8.233358860015869141e-01 2.263104915618896484e+00 9.259322285652160645e-01 -1.433249354362487793e+00
3.016000000000000000e+03 9.337200164794921875e+00 4.286744117736816406e+00 7.525661587715148926e-01 2.692716836929321289e+00 1.033584833145141602e+00 -1.331867456436157227e+00
3.017000000000000000e+03 4.419408416748046875e+01 9.037753105163574219e+00 1.151587128639221191e+00 1.161438560485839844e+01 3.829791784286499023e+00 4.379622936248779297e-01
3.018000000000000000e+03 1.147956752777099609e+01 -4.203730583190917969e+00 1.588785886764526367e+00 6.505238056182861328e+00 2.428207159042358398e+00 4.729564189910888672e+00
3.019000000000000000e+03 1.369818019866943359e+01 2.263096618652343750e+01 -4.054916799068450928e-01 5.979430198669433594e+00 1.672181606292724609e+00 -9.903104901313781738e-01
3.020000000000000000e+03 5.800784301757812500e+01 -3.779597473144531250e+01 6.823628544807434082e-01 1.480951786041259766e+00 6.489943861961364746e-01 -1.898443698883056641e-01
3.021000000000000000e+03 7.113720703125000000e+01 -1.346545600891113281e+01 5.121055245399475098e-01 9.099721908569335938e+00 2.883548021316528320e+00 5.699186325073242188e-01
3.022000000000000000e+03 1.012361240386962891e+01 -2.608848381042480469e+01 -9.600111842155456543e-01 5.594396591186523438e+00 1.390315651893615723e+00 6.364219784736633301e-01
3.023000000000000000e+03 3.681844472885131836e+00 3.498482894897460938e+01 -1.141879186034202576e-01 3.371719837188720703e+00 9.772595167160034180e-01 -3.116074800491333008e-01
3.024000000000000000e+03 6.459008789062500000e+01 2.791621780395507812e+01 -3.066305220127105713e-01 2.894479990005493164e+00 7.763548493385314941e-01 -9.511675834655761719e-01
3.025000000000000000e+03 6.160140991210937500e+01 2.762720298767089844e+01 -1.502715200185775757e-01 1.223495483398437500e+00 3.219671845436096191e-01 -4.671405069530010223e-03
3.026000000000000000e+03 1.929372215270996094e+01 -1.904692530632019043e+00 4.435747623443603516e+00 3.588586330413818359e+00 2.407300233840942383e+00 -2.109218597412109375e+00
3.027000000000000000e+03 4.531485748291015625e+01 9.357864379882812500e+00 1.018618226051330566e+00 1.145293903350830078e+01 3.741467237472534180e+00 1.197302937507629395e+00
3.028000000000000000e+03 3.042512893676757812e+01 -8.624869346618652344e+00 1.003308892250061035e+00 1.622684478759765625e+00 7.877979874610900879e-01 -3.477379798889160156e+00
3.029000000000000000e+03 1.740910339355468750e+01 5.082213878631591797e-01 4.399673938751220703e+00 7.134075164794921875e+00 3.460124731063842773e+00 4.503029286861419678e-01
3.030000000000000000e+03 6.022282409667968750e+01 -3.392081451416015625e+01 7.715279608964920044e-02 1.032550692558288574e+00 3.329110443592071533e-01 4.009814858436584473e-01
3.031000000000000000e+03 3.961841964721679688e+01 -2.034125900268554688e+01 2.497938156127929688e+00 9.487660408020019531e+00 3.595679759979248047e+00 -5.352677106857299805e-01
3.032000000000000000e+03 6.959114074707031250e+01 -2.331307029724121094e+01 1.135016158223152161e-01 9.501942634582519531e+00 2.884633302688598633e+00 -1.314623802900314331e-01
3.033000000000000000e+03 9.992640495300292969e+00 -2.773046684265136719e+01 -1.078386664390563965e+00 4.922132968902587891e+00 1.153123974800109863e+00 5.662657022476196289e-01
3.034000000000000000e+03 1.794305229187011719e+01 -8.017964363098144531e+00 -1.405881643295288086e-01 2.339876174926757812e+00 6.597864031791687012e-01 -6.403631567955017090e-01
3.035000000000000000e+03 7.200986480712890625e+01 1.304709434509277344e+01 1.194830179214477539e+00 9.005447387695312500e+00 3.060083389282226562e+00 -7.625216990709304810e-02
3.036000000000000000e+03 2.209173774719238281e+01 -1.107167911529541016e+01 -1.433643698692321777e+00 8.272793292999267578e-01 -1.819093227386474609e-01 -1.150281071662902832e+00
3.037000000000000000e+03 2.301096916198730469e+01 -1.093466472625732422e+01 -1.240294933319091797e+00 1.054058670997619629e+00 -5.587085708975791931e-02 -1.486722111701965332e+00
3.038000000000000000e+03 4.553420639038085938e+01 -4.817863941192626953e+00 -1.522173523902893066e+00 8.763996124267578125e+00 2.172546863555908203e+00 6.278498768806457520e-01
3.039000000000000000e+03 1.089232158660888672e+01 -3.785051107406616211e+00 2.375269651412963867e+00 4.861226081848144531e+00 2.170948743820190430e+00 4.587542057037353516e+00
3.040000000000000000e+03 1.075792884826660156e+01 -4.134548187255859375e+00 1.824306607246398926e+00 4.895912647247314453e+00 2.016065835952758789e+00 4.391979217529296875e+00
3.041000000000000000e+03 4.472304916381835938e+01 -7.635479927062988281e+00 -1.746769428253173828e+00 8.909548759460449219e+00 2.148833751678466797e+00 1.045771479606628418e+00
3.042000000000000000e+03 1.121016407012939453e+01 -5.259427070617675781e+00 5.108935832977294922e-01 6.082665920257568359e+00 1.978067874908447266e+00 4.200162410736083984e+00
3.043000000000000000e+03 1.044162654876708984e+01 -2.886566734313964844e+01 -1.139480710029602051e+00 4.659212589263916016e+00 1.055919647216796875e+00 3.248592019081115723e-01
3.044000000000000000e+03 1.686601829528808594e+01 5.260967731475830078e+00 -7.589875459671020508e-01 9.675253868103027344e+00 2.674880027770996094e+00 3.295209407806396484e-01
3.045000000000000000e+03 6.567689514160156250e+01 -3.610567569732666016e+00 -5.364857986569404602e-02 3.893080949783325195e+00 1.151829719543457031e+00 -3.204045891761779785e-01
3.046000000000000000e+03 1.158585071563720703e+01 2.490296125411987305e+00 6.642374396324157715e-01 6.304385185241699219e+00 2.090586900711059570e+00 -3.478966951370239258e+00
3.047000000000000000e+03 1.998375320434570312e+01 -2.817346811294555664e+00 4.063092708587646484e+00 2.742254018783569336e+00 2.041604042053222656e+00 -2.412683010101318359e+00
3.048000000000000000e+03 3.468310928344726562e+01 -8.810405731201171875e+00 7.906839847564697266e-01 1.965369462966918945e+00 8.268160223960876465e-01 -1.439748048782348633e+00
3.049000000000000000e+03 7.516417694091796875e+01 3.265555953979492188e+01 -1.063417419791221619e-01 7.838184833526611328e+00 2.319552898406982422e+00 -1.419262737035751343e-01
3.050000000000000000e+03 7.548291778564453125e+01 2.113562583923339844e+01 -5.622719600796699524e-02 8.118044853210449219e+00 2.418545246124267578e+00 1.087527751922607422e+00
3.051000000000000000e+03 3.258816909790039062e+01 2.378375434875488281e+01 -7.537597417831420898e-01 8.643357753753662109e-01 3.317281976342201233e-02 -5.978370904922485352e-01
3.052000000000000000e+03 7.604931354522705078e+00 -5.102270603179931641e+00 8.048889040946960449e-01 2.196044206619262695e+00 9.002799391746520996e-01 1.850461483001708984e+00
3.053000000000000000e+03 1.413345146179199219e+01 -5.668116092681884766e+00 -1.830605268478393555e-01 8.184198379516601562e+00 2.400341510772705078e+00 1.987161397933959961e+00
3.054000000000000000e+03 1.108267974853515625e+01 4.119069099426269531e+00 3.341758549213409424e-01 5.471107959747314453e+00 1.741585135459899902e+00 -2.299841403961181641e+00
3.055000000000000000e+03 5.228632450103759766e+00 3.020966911315917969e+01 -2.299291789531707764e-01 3.213332414627075195e+00 8.950209617614746094e-01 -7.177029848098754883e-01
3.056000000000000000e+03 7.384904479980468750e+01 2.828926467895507812e+01 -5.681338906288146973e-01 7.781334877014160156e+00 2.163960218429565430e+00 1.729515567421913147e-02
3.057000000000000000e+03 5.088682651519775391e+00 -2.440169906616210938e+01 -2.331665530800819397e-02 4.024400234222412109e+00 1.200325012207031250e+00 1.683394193649291992e+00
3.058000000000000000e+03 4.586094665527343750e+01 2.333869171142578125e+01 -9.159513115882873535e-01 5.579920768737792969e+00 1.399190902709960938e+00 -9.128897637128829956e-02
3.059000000000000000e+03 4.517162322998046875e+01 2.074309730529785156e+01 -4.538872241973876953e-01 5.932943820953369141e+00 1.643716931343078613e+00 -2.853662073612213135e-01
3.060000000000000000e+03 3.824011993408203125e+01 2.387633323669433594e+01 -6.550070047378540039e-01 2.919743776321411133e+00 6.794210672378540039e-01 -1.068623900413513184e+00
3.061000000000000000e+03 4.350330352783203125e+01 2.490284156799316406e+01 -9.358754754066467285e-01 4.538362979888916016e+00 1.080746173858642578e+00 -5.412456393241882324e-01
3.062000000000000000e+03 7.338897705078125000e+01 -3.046665382385253906e+01 -5.814175009727478027e-01 7.504256248474121094e+00 2.076851606369018555e+00 -3.680053353309631348e-01
3.063000000000000000e+03 7.002381896972656250e+01 2.981746435165405273e+00 -5.076378583908081055e-01 6.584925651550292969e+00 1.823186397552490234e+00 1.925668120384216309e-01
3.064000000000000000e+03 1.441380596160888672e+01 -6.390465736389160156e+00 -6.439035534858703613e-01 6.976050376892089844e+00 1.899644017219543457e+00 2.050042867660522461e+00
3.065000000000000000e+03 5.930139064788818359e+00 5.542655467987060547e+00 5.218898653984069824e-01 8.621221184730529785e-01 4.152036011219024658e-01 4.128984361886978149e-02
3.066000000000000000e+03 7.484896850585937500e+01 -1.138818740844726562e+01 -1.090724170207977295e-01 7.766770839691162109e+00 2.297309637069702148e+00 9.892103672027587891e-01
3.067000000000000000e+03 7.510323333740234375e+01 -9.258928298950195312e+00 -2.893552184104919434e-01 7.705947875976562500e+00 2.224977731704711914e+00 8.446013927459716797e-01
3.068000000000000000e+03 7.405564117431640625e+01 -8.143872261047363281e+00 -4.988991618156433105e-01 7.733286857604980469e+00 2.170316457748413086e+00 6.561327576637268066e-01
3.069000000000000000e+03 1.527869987487792969e+01 6.766561031341552734e+00 -8.180880546569824219e-01 9.778436660766601562e+00 2.688104629516601562e+00 -1.136889085173606873e-01
3.070000000000000000e+03 1.489843177795410156e+01 7.156856536865234375e+00 -6.244455575942993164e-01 9.362808227539062500e+00 2.621508836746215820e+00 -2.093986719846725464e-01
3.071000000000000000e+03 7.281044769287109375e+01 -4.134987354278564453e+00 -5.678865909576416016e-01 7.190823078155517578e+00 1.986880898475646973e+00 1.619543135166168213e-01
3.072000000000000000e+03 7.071809387207031250e+01 -1.850322484970092773e+00 -5.448359251022338867e-01 6.446478366851806641e+00 1.770492672920227051e+00 8.841206319630146027e-03
3.073000000000000000e+03 9.222329139709472656e+00 -7.764032363891601562e+00 -8.321959376335144043e-01 5.194400310516357422e+00 1.308661222457885742e+00 2.638067007064819336e+00
3.074000000000000000e+03 3.975532531738281250e+01 2.282807350158691406e+01 -6.565735340118408203e-01 3.587456703186035156e+00 8.792649507522583008e-01 -1.111648082733154297e+00
3.075000000000000000e+03 1.188642024993896484e+01 1.091009044647216797e+01 5.364927053451538086e-01 6.341134071350097656e+00 2.063287973403930664e+00 -5.145807862281799316e-01
3.076000000000000000e+03 3.731929016113281250e+01 2.295898818969726562e+01 -6.145318746566772461e-01 2.507898807525634766e+00 5.680100917816162109e-01 -1.068642497062683105e+00
3.077000000000000000e+03 8.837471008300781250e+00 2.418490219116210938e+01 -2.383676916360855103e-01 3.991804361343383789e+00 1.126030921936035156e+00 -1.297362923622131348e+00
3.078000000000000000e+03 7.194715881347656250e+01 -1.470377326011657715e+00 -5.631981492042541504e-01 6.836768150329589844e+00 1.882071018218994141e+00 1.718784682452678680e-02
3.079000000000000000e+03 7.191091537475585938e+00 -6.231369495391845703e+00 2.822480499744415283e-01 2.703655958175659180e+00 8.957712054252624512e-01 1.670589566230773926e+00
3.080000000000000000e+03 7.439203643798828125e+01 -2.544101476669311523e+00 -4.007253646850585938e-01 7.443749904632568359e+00 2.112907409667968750e+00 8.640321344137191772e-02
3.081000000000000000e+03 6.697403907775878906e+00 5.995332717895507812e+00 5.862784981727600098e-01 1.288366198539733887e+00 5.623934268951416016e-01 -1.749022156000137329e-01
3.082000000000000000e+03 9.620529174804687500e+00 -7.272591114044189453e+00 -6.730320453643798828e-01 5.221787452697753906e+00 1.364626646041870117e+00 3.029072523117065430e+00
3.083000000000000000e+03 7.208973693847656250e+01 2.300024032592773438e+00 -4.861163794994354248e-01 7.103631019592285156e+00 1.985254406929016113e+00 -1.112255528569221497e-01
3.084000000000000000e+03 1.221422290802001953e+01 -6.965243339538574219e+00 -1.158014655113220215e+00 6.770764350891113281e+00 1.683824896812438965e+00 3.620837211608886719e+00
3.085000000000000000e+03 1.173732948303222656e+01 -6.874724864959716797e+00 -9.866496920585632324e-01 6.606843471527099609e+00 1.686058163642883301e+00 3.658164978027343750e+00
3.086000000000000000e+03 9.912437438964843750e+00 -6.847033023834228516e+00 -4.409877657890319824e-01 5.239462375640869141e+00 1.439542412757873535e+00 3.266268730163574219e+00
3.087000000000000000e+03 5.954240798950195312e+00 6.536230087280273438e+00 5.650023221969604492e-01 1.118623137474060059e+00 5.050876140594482422e-01 -4.971262812614440918e-02
3.088000000000000000e+03 1.337982273101806641e+01 8.213041305541992188e+00 -2.440174967050552368e-01 8.122089385986328125e+00 2.363421440124511719e+00 -5.300387144088745117e-01
3.089000000000000000e+03 5.985260009765625000e+00 2.238910675048828125e+01 -1.141805667430162430e-02 2.801566839218139648e+00 8.370445966720581055e-01 -1.190876245498657227e+00
3.090000000000000000e+03 6.618204116821289062e+00 2.144012069702148438e+01 6.769599020481109619e-02 3.036343574523925781e+00 9.312118887901306152e-01 -1.256321191787719727e+00
3.091000000000000000e+03 1.286078643798828125e+01 6.140652179718017578e+00 -5.724432468414306641e-01 8.176171302795410156e+00 2.281118392944335938e+00 -1.133983969688415527e+00
3.092000000000000000e+03 9.128941535949707031e+00 1.367583942413330078e+01 6.519728302955627441e-01 4.055991649627685547e+00 1.412389397621154785e+00 -7.272371649742126465e-01
3.093000000000000000e+03 1.068515491485595703e+01 9.380820274353027344e+00 3.902113437652587891e-01 5.423906326293945312e+00 1.744235277175903320e+00 -6.937845945358276367e-01
3.094000000000000000e+03 7.283705902099609375e+01 -1.414741992950439453e+00 -4.898556470870971680e-01 7.092608451843261719e+00 1.980825901031494141e+00 -1.016812771558761597e-02
3.095000000000000000e+03 7.224004364013671875e+01 5.973310396075248718e-02 -4.920552670955657959e-01 7.028426170349121094e+00 1.960911154747009277e+00 -6.440284848213195801e-02
3.096000000000000000e+03 1.097182655334472656e+01 7.917397499084472656e+00 1.725820600986480713e-01 5.725280761718750000e+00 1.769358873367309570e+00 -9.379166960716247559e-01
3.097000000000000000e+03 8.061587333679199219e+00 9.320199966430664062e+00 5.416700839996337891e-01 3.094268798828125000e+00 1.090781688690185547e+00 -5.419775247573852539e-01
3.098000000000000000e+03 9.673594474792480469e+00 4.901266694068908691e-01 -2.175669193267822266e+00 -3.491440042853355408e-02 -6.631751060485839844e-01 8.096083998680114746e-02
3.099000000000000000e+03 8.914871215820312500e+00 1.241234064102172852e+00 -8.103020191192626953e-01 1.950035542249679565e-01 -1.845895349979400635e-01 -1.103633716702461243e-01
3.100000000000000000e+03 7.324417114257812500e+00 2.624195516109466553e-01 -2.414524078369140625e+00 2.541976282373070717e-03 -7.235946059226989746e-01 1.174386888742446899e-01
3.101000000000000000e+03 6.586968898773193359e+00 7.525654435157775879e-01 -1.583704471588134766e+00 6.618894636631011963e-03 -4.731256663799285889e-01 2.884537875652313232e-01
3.102000000000000000e+03 5.035764217376708984e+00 7.560096979141235352e-01 -1.112164020538330078e+00 -2.975524868816137314e-03 -3.345418572425842285e-01 3.101142644882202148e-01
3.103000000000000000e+03 3.516952753067016602e+00 7.602992653846740723e-01 -6.201325654983520508e-01 -1.956480182707309723e-02 -1.919092088937759399e-01 2.819039225578308105e-01
3.104000000000000000e+03 2.842544317245483398e+00 7.519716620445251465e-01 -4.533841609954833984e-01 -2.991443499922752380e-02 -1.449895799160003662e-01 2.489047050476074219e-01
3.105000000000000000e+03 2.303080558776855469e+00 5.869674682617187500e-01 -3.094322979450225830e-01 -2.550630830228328705e-02 -1.004815846681594849e-01 1.421253085136413574e-01
3.106000000000000000e+03 2.045593261718750000e+00 1.204615712165832520e+00 -2.111332565546035767e-01 -9.995360672473907471e-02 -9.332606196403503418e-02 2.651514708995819092e-01
3.107000000000000000e+03 2.791080236434936523e+00 2.642175853252410889e-01 -4.263608753681182861e-01 -2.484244992956519127e-03 -1.286535412073135376e-01 8.478064090013504028e-02
3.108000000000000000e+03 1.345101594924926758e+00 1.153418302536010742e+00 -1.111206784844398499e-01 -1.023824512958526611e-01 -6.405094265937805176e-02 1.751838624477386475e-01
3.109000000000000000e+03 1.722035646438598633e+00 4.134182929992675781e-01 -1.721038520336151123e-01 -2.602449432015419006e-02 -5.943850427865982056e-02 7.344859093427658081e-02
3.110000000000000000e+03 1.057675123214721680e+00 3.746731877326965332e-01 -4.778948053717613220e-02 -8.831926621496677399e-03 -1.698642224073410034e-02 3.073569200932979584e-02
3.111000000000000000e+03 3.717938959598541260e-01 5.569868683815002441e-01 -3.314483445137739182e-03 -1.253294944763183594e-02 -4.754229914397001266e-03 6.439268123358488083e-03
3.112000000000000000e+03 2.762347221374511719e+00 1.247754096984863281e+00 -3.705130219459533691e-01 -6.931527704000473022e-02 -1.319484859704971313e-01 3.420953750610351562e-01
3.113000000000000000e+03 4.281265258789062500e+00 1.253028035163879395e+00 -6.840474009513854980e-01 -2.156926132738590240e-02 -2.116850018501281738e-01 4.370597302913665771e-01
3.114000000000000000e+03 4.265645980834960938e+00 7.576434016227722168e-01 -8.616668581962585449e-01 -1.347477734088897705e-02 -2.625424861907958984e-01 3.010963201522827148e-01
3.115000000000000000e+03 5.057477474212646484e+00 1.251269578933715820e+00 -8.527197241783142090e-01 -4.349493421614170074e-03 -2.571207582950592041e-01 4.399838149547576904e-01
3.116000000000000000e+03 6.615118026733398438e+00 1.249073147773742676e+00 -1.107492566108703613e+00 3.563683480024337769e-02 -3.215567171573638916e-01 3.722082972526550293e-01
3.117000000000000000e+03 7.358015060424804688e+00 7.522653341293334961e-01 -1.744336366653442383e+00 1.239669136703014374e-02 -5.195819139480590820e-01 2.561585605144500732e-01
3.118000000000000000e+03 7.391709327697753906e+00 1.249845743179321289e+00 -1.140729427337646484e+00 5.915772914886474609e-02 -3.244715034961700439e-01 2.888908088207244873e-01
3.119000000000000000e+03 8.820134162902832031e+00 7.365598082542419434e-01 -1.807290315628051758e+00 2.279644645750522614e-02 -5.353481769561767578e-01 1.086882650852203369e-01
3.120000000000000000e+03 9.902241706848144531e+00 9.584834575653076172e-01 -5.647554397583007812e-01 2.275649905204772949e-01 -1.011571362614631653e-01 -6.214807033538818359e-01
3.121000000000000000e+03 9.617970466613769531e+00 6.965997219085693359e-01 -1.760402679443359375e+00 -8.020498603582382202e-02 -5.521823167800903320e-01 -9.423891454935073853e-02
3.122000000000000000e+03 9.488108634948730469e+00 1.194930791854858398e+00 -5.702069401741027832e-01 3.194244503974914551e-01 -7.523474842309951782e-02 -4.031737744808197021e-01
3.123000000000000000e+03 9.899567604064941406e+00 1.169838428497314453e+00 -1.924789845943450928e-01 2.705512940883636475e-01 2.342169173061847687e-02 -6.932677030563354492e-01
3.124000000000000000e+03 9.826637268066406250e+00 1.387675046920776367e+00 -3.137596696615219116e-02 5.046650767326354980e-01 1.419867277145385742e-01 -8.376147747039794922e-01
3.125000000000000000e+03 9.914509773254394531e+00 7.481416463851928711e-01 -1.196369171142578125e+00 9.207625687122344971e-02 -3.312878906726837158e-01 -2.546146214008331299e-01
3.126000000000000000e+03 8.812450408935546875e+00 2.553257048130035400e-01 -2.995574235916137695e+00 -5.473371595144271851e-03 -9.003142714500427246e-01 9.718284010887145996e-02
3.127000000000000000e+03 9.359443664550781250e+00 3.403573334217071533e-01 -2.905738115310668945e+00 -4.811118170619010925e-02 -8.861547708511352539e-01 8.870685100555419922e-02
3.128000000000000000e+03 8.161967277526855469e+00 1.250298023223876953e+00 -1.036562204360961914e+00 1.326763331890106201e-01 -2.711657583713531494e-01 1.464612632989883423e-01
3.129000000000000000e+03 5.835981845855712891e+00 1.250354647636413574e+00 -1.002934694290161133e+00 1.652611792087554932e-02 -2.959225475788116455e-01 4.235791862010955811e-01
3.130000000000000000e+03 5.784025669097900391e+00 2.643110752105712891e-01 -1.723821401596069336e+00 1.800573198124766350e-03 -5.166062116622924805e-01 1.191265434026718140e-01
3.131000000000000000e+03 3.512768983840942383e+00 1.256207346916198730e+00 -5.219473242759704590e-01 -4.588928073644638062e-02 -1.703509688377380371e-01 4.076034724712371826e-01
3.132000000000000000e+03 4.244340419769287109e+00 2.646154165267944336e-01 -1.022674918174743652e+00 -2.789576770737767220e-03 -3.076393604278564453e-01 1.116850748658180237e-01
3.133000000000000000e+03 6.755737066268920898e-01 1.114673137664794922e+00 -4.967460036277770996e-02 -6.627708673477172852e-02 -3.478550538420677185e-02 7.153545320034027100e-02
3.134000000000000000e+03 5.810972213745117188e+00 7.546657323837280273e-01 -1.358372449874877930e+00 2.420490607619285583e-03 -4.067855775356292725e-01 3.060490190982818604e-01
3.135000000000000000e+03 9.920497894287109375e+00 5.503329038619995117e-01 -1.785580635070800781e+00 -2.492269128561019897e-02 -5.431510210037231445e-01 6.540553644299507141e-03
3.136000000000000000e+03 9.874781608581542969e+00 3.643934726715087891e-01 -2.322236537933349609e+00 -3.514723107218742371e-02 -7.072151303291320801e-01 1.693033576011657715e-01
3.137000000000000000e+03 9.314408302307128906e+00 6.912448406219482422e-01 -1.785095214843750000e+00 1.457156520336866379e-02 -5.311571359634399414e-01 3.258991241455078125e-02
3.138000000000000000e+03 3.489604949951171875e+00 2.640918791294097900e-01 -7.047536373138427734e-01 -6.767764221876859665e-03 -2.134564220905303955e-01 9.733463823795318604e-02
3.139000000000000000e+03 5.012784004211425781e+00 2.647401392459869385e-01 -1.369408011436462402e+00 -2.706347266212105751e-03 -4.116342961788177490e-01 1.186352446675300598e-01
3.140000000000000000e+03 6.555424213409423828e+00 2.634923458099365234e-01 -2.072893619537353516e+00 -2.624371554702520370e-03 -6.226553916931152344e-01 1.182603985071182251e-01
3.141000000000000000e+03 8.084923744201660156e+00 2.598265409469604492e-01 -2.723484992980957031e+00 6.884199101477861404e-03 -8.149802088737487793e-01 1.007665321230888367e-01
3.142000000000000000e+03 8.114241600036621094e+00 7.501246333122253418e-01 -1.840359807014465332e+00 4.423066601157188416e-02 -5.388387441635131836e-01 2.013964653015136719e-01
3.143000000000000000e+03 9.528625488281250000e+00 9.068148136138916016e-01 -1.137550473213195801e+00 9.494702517986297607e-02 -3.127810359001159668e-01 -2.017573267221450806e-01
3.144000000000000000e+03 9.721199035644531250e+00 1.457974314689636230e-01 -3.556995868682861328e+00 9.466280229389667511e-03 -1.064258933067321777e+00 1.853143721818923950e-01
3.145000000000000000e+03 1.285172748565673828e+01 -5.326279997825622559e-01 3.566270065307617188e+01 2.598460435867309570e+00 1.147834777832031250e+01 5.685106754302978516e+00
3.146000000000000000e+03 1.285214424133300781e+01 -5.520923137664794922e-01 3.726608657836914062e+01 9.906173706054687500e+00 1.415167903900146484e+01 1.775923347473144531e+01
3.147000000000000000e+03 1.285634326934814453e+01 -5.711029171943664551e-01 3.673500823974609375e+01 1.913969230651855469e+01 1.676241111755371094e+01 2.342015075683593750e+01
3.148000000000000000e+03 1.286416244506835938e+01 -5.889322757720947266e-01 3.399435424804687500e+01 2.974881172180175781e+01 1.912294960021972656e+01 2.704102516174316406e+01
3.149000000000000000e+03 1.287530422210693359e+01 -6.048981547355651855e-01 3.067380523681640625e+01 4.034223556518554688e+01 2.130481338500976562e+01 2.779981613159179688e+01
3.150000000000000000e+03 1.288934040069580078e+01 -6.183894276618957520e-01 2.652273178100585938e+01 5.037913894653320312e+01 2.307056045532226562e+01 2.612705802917480469e+01
3.151000000000000000e+03 1.290573501586914062e+01 -6.288899183273315430e-01 2.318490219116210938e+01 5.859570312500000000e+01 2.453418159484863281e+01 2.220304489135742188e+01
3.152000000000000000e+03 1.292385959625244141e+01 -6.359976530075073242e-01 2.088810157775878906e+01 6.438233947753906250e+01 2.558113288879394531e+01 1.661158752441406250e+01
3.153000000000000000e+03 1.294302177429199219e+01 -6.394406557083129883e-01 2.070889091491699219e+01 6.759864807128906250e+01 2.649226188659667969e+01 9.989198684692382812e+00
3.154000000000000000e+03 1.296248722076416016e+01 -6.390872597694396973e-01 2.155737113952636719e+01 6.753805541992187500e+01 2.672862815856933594e+01 3.783783197402954102e+00
3.155000000000000000e+03 1.298151111602783203e+01 -6.349508762359619141e-01 2.487265014648437500e+01 6.538928222656250000e+01 2.707857894897460938e+01 -1.526951789855957031e+00
3.156000000000000000e+03 1.299936676025390625e+01 -6.271898150444030762e-01 2.909924507141113281e+01 6.150950622558593750e+01 2.718262481689453125e+01 -5.176663398742675781e+00
3.157000000000000000e+03 1.301536846160888672e+01 -6.161011457443237305e-01 3.343718719482421875e+01 5.636003112792968750e+01 2.693916511535644531e+01 -7.114223480224609375e+00
3.158000000000000000e+03 1.302890586853027344e+01 -6.021091938018798828e-01 3.793259429931640625e+01 5.185178375244140625e+01 2.693531417846679688e+01 -6.962355613708496094e+00
3.159000000000000000e+03 1.303946018218994141e+01 -5.857493877410888672e-01 4.164869689941406250e+01 4.774857330322265625e+01 2.681918144226074219e+01 -5.276553153991699219e+00
3.160000000000000000e+03 1.304662704467773438e+01 -5.676478743553161621e-01 4.456216430664062500e+01 4.470761871337890625e+01 2.678093528747558594e+01 -2.143862485885620117e+00
3.161000000000000000e+03 1.305013370513916016e+01 -5.484973192214965820e-01 4.577555847167968750e+01 4.314024353027343750e+01 2.667473983764648438e+01 1.324031829833984375e+00
3.162000000000000000e+03 1.304984378814697266e+01 -5.290306210517883301e-01 4.582876968383789062e+01 4.368706893920898438e+01 2.685475158691406250e+01 5.643052101135253906e+00
3.163000000000000000e+03 1.304576969146728516e+01 -5.099927186965942383e-01 4.426863479614257812e+01 4.570578002929687500e+01 2.699232482910156250e+01 9.416651725769042969e+00
3.164000000000000000e+03 1.303806781768798828e+01 -4.921123385429382324e-01 4.067157745361328125e+01 4.904411697387695312e+01 2.691470909118652344e+01 1.277667331695556641e+01
3.165000000000000000e+03 1.302703094482421875e+01 -4.760736525058746338e-01 3.661422729492187500e+01 5.408055114746093750e+01 2.720843315124511719e+01 1.432239818572998047e+01
3.166000000000000000e+03 1.301308345794677734e+01 -4.624904692173004150e-01 3.049320983886718750e+01 5.951486206054687500e+01 2.700242233276367188e+01 1.433686065673828125e+01
3.167000000000000000e+03 1.299675846099853516e+01 -4.518826603889465332e-01 2.485682678222656250e+01 6.447306823730468750e+01 2.679896926879882812e+01 1.218082809448242188e+01
3.168000000000000000e+03 1.297868061065673828e+01 -4.446561634540557861e-01 1.942770767211914062e+01 6.849116516113281250e+01 2.637566184997558594e+01 7.735903263092041016e+00
3.169000000000000000e+03 1.295954132080078125e+01 -4.410875439643859863e-01 1.508003044128417969e+01 7.009203338623046875e+01 2.555161857604980469e+01 1.851149559020996094e+00
3.170000000000000000e+03 1.294007396697998047e+01 -4.413133263587951660e-01 1.259935760498046875e+01 6.900193023681640625e+01 2.448038673400878906e+01 -5.118651390075683594e+00
3.171000000000000000e+03 1.292102241516113281e+01 -4.453249275684356689e-01 1.193341636657714844e+01 6.488112640380859375e+01 2.304436302185058594e+01 -1.184339237213134766e+01
3.172000000000000000e+03 1.290311717987060547e+01 -4.529688060283660889e-01 1.313055801391601562e+01 5.768595504760742188e+01 2.124495315551757812e+01 -1.782317543029785156e+01
3.173000000000000000e+03 1.288704204559326172e+01 -4.639524519443511963e-01 1.530895423889160156e+01 4.842068862915039062e+01 1.911889266967773438e+01 -2.183047485351562500e+01
3.174000000000000000e+03 1.287341308593750000e+01 -4.778554737567901611e-01 1.889267921447753906e+01 3.705394744873046875e+01 1.678398895263671875e+01 -2.352865219116210938e+01
3.175000000000000000e+03 1.286275196075439453e+01 -4.941458106040954590e-01 2.199428176879882812e+01 2.517678642272949219e+01 1.415132045745849609e+01 -2.251109313964843750e+01
3.176000000000000000e+03 1.285546684265136719e+01 -5.122000575065612793e-01 2.778131675720214844e+01 1.063387393951416016e+01 1.152455711364746094e+01 -1.529536724090576172e+01
