# el_label, x, y, sXX, sYY, sZZ, sXY
1.000000000000000000e+00 6.933712768554687500e+01 1.928652572631835938e+01 6.108433604240417480e-01 -2.864568471908569336e+00 -6.761175394058227539e-01 -1.083783030509948730e+00
2.000000000000000000e+00 6.914858245849609375e+01 1.922274398803710938e+01 1.354261159896850586e+00 1.453073978424072266e+00 8.422005176544189453e-01 9.981747865676879883e-01
3.000000000000000000e+00 6.896003723144531250e+01 1.915896224975585938e+01 5.420827772468328476e-03 -3.547068834304809570e-01 -1.047858223319053650e-01 2.578379511833190918e-01
4.000000000000000000e+00 6.877148437500000000e+01 1.909518241882324219e+01 -4.486858844757080078e-01 3.931653201580047607e-01 -1.665617525577545166e-02 3.710087388753890991e-02
5.000000000000000000e+00 6.936112976074218750e+01 1.923334884643554688e+01 9.914825439453125000e+00 1.297076698392629623e-02 2.978338956832885742e+00 5.232947349548339844e+00
6.000000000000000000e+00 6.918859100341796875e+01 1.913411903381347656e+01 3.719246864318847656e+00 1.495306015014648438e+00 1.564365863800048828e+00 2.499806404113769531e+00
7.000000000000000000e+00 6.901604461669921875e+01 1.903488731384277344e+01 2.935546636581420898e+00 2.004447221755981445e+00 1.481998085975646973e+00 2.603990316390991211e+00
8.000000000000000000e+00 6.884350585937500000e+01 1.893565559387207031e+01 1.864458203315734863e+00 9.779142737388610840e-01 8.527117371559143066e-01 1.736050128936767578e+00
9.000000000000000000e+00 6.939501953125000000e+01 1.918585777282714844e+01 1.081720066070556641e+01 6.869089126586914062e+00 5.305887222290039062e+00 1.045407676696777344e+01
1.000000000000000000e+01 6.924507141113281250e+01 1.905496597290039062e+01 6.507729530334472656e+00 4.327230930328369141e+00 3.250488042831420898e+00 6.169954776763916016e+00
1.100000000000000000e+01 6.909512329101562500e+01 1.892407226562500000e+01 4.112365245819091797e+00 4.032204627990722656e+00 2.443370819091796875e+00 4.427811145782470703e+00
1.200000000000000000e+01 6.894516754150390625e+01 1.879317855834960938e+01 3.145042419433593750e+00 3.684758901596069336e+00 2.048940420150756836e+00 3.994557619094848633e+00
1.300000000000000000e+01 6.943750000000000000e+01 1.914586448669433594e+01 9.757667541503906250e+00 1.438877487182617188e+01 7.243932723999023438e+00 1.331879901885986328e+01
1.400000000000000000e+01 6.931587219238281250e+01 1.898830795288085938e+01 6.211730003356933594e+00 9.386333465576171875e+00 4.679419040679931641e+00 8.667335510253906250e+00
1.500000000000000000e+01 6.919423675537109375e+01 1.883075332641601562e+01 4.482259750366210938e+00 7.675247669219970703e+00 3.647252321243286133e+00 6.756976604461669922e+00
1.600000000000000000e+01 6.907260131835937500e+01 1.867319679260253906e+01 3.415627717971801758e+00 6.637767314910888672e+00 3.016018629074096680e+00 5.452079296112060547e+00
1.700000000000000000e+01 6.948694610595703125e+01 1.911489486694335938e+01 7.295310497283935547e+00 2.225443458557128906e+01 8.864923477172851562e+00 1.357084846496582031e+01
1.800000000000000000e+01 6.939827728271484375e+01 1.893669319152832031e+01 4.900135517120361328e+00 1.499220371246337891e+01 5.967701911926269531e+00 9.835360527038574219e+00
1.900000000000000000e+01 6.930960845947265625e+01 1.875848960876464844e+01 3.671646833419799805e+00 1.219044780731201172e+01 4.758628368377685547e+00 7.709768772125244141e+00
2.000000000000000000e+01 6.922093963623046875e+01 1.858028602600097656e+01 2.608185529708862305e+00 1.066935348510742188e+01 3.983261585235595703e+00 6.573342323303222656e+00
2.100000000000000000e+01 6.954146575927734375e+01 1.909413146972656250e+01 4.762300968170166016e+00 2.894964790344238281e+01 1.011358451843261719e+01 1.180431175231933594e+01
2.200000000000000000e+01 6.948915100097656250e+01 1.890208816528320312e+01 3.485009908676147461e+00 2.050588035583496094e+01 7.197267055511474609e+00 9.085892677307128906e+00
2.300000000000000000e+01 6.943682861328125000e+01 1.871004295349121094e+01 2.178980112075805664e+00 1.680216217041015625e+01 5.694342613220214844e+00 7.622610092163085938e+00
2.400000000000000000e+01 6.938451385498046875e+01 1.851799964904785156e+01 1.768257617950439453e+00 1.474260807037353516e+01 4.953259468078613281e+00 6.449115276336669922e+00
2.500000000000000000e+01 6.959899139404296875e+01 1.908436965942382812e+01 3.627245426177978516e+00 3.410005187988281250e+01 1.131818866729736328e+01 8.346791267395019531e+00
2.600000000000000000e+01 6.958502197265625000e+01 1.888581657409667969e+01 2.063634634017944336e+00 2.506182861328125000e+01 8.137639045715332031e+00 7.077239990234375000e+00
2.700000000000000000e+01 6.957104492187500000e+01 1.868726539611816406e+01 1.432977318763732910e+00 2.076917266845703125e+01 6.660645008087158203e+00 6.132178306579589844e+00
2.800000000000000000e+01 6.955707550048828125e+01 1.848871231079101562e+01 5.117044448852539062e-01 1.830708312988281250e+01 5.645636558532714844e+00 5.403460502624511719e+00
2.900000000000000000e+01 6.965731048583984375e+01 1.908597946166992188e+01 3.622442722320556641e+00 3.704578781127929688e+01 1.220046901702880859e+01 4.057505607604980469e+00
3.000000000000000000e+01 6.968222045898437500e+01 1.888850021362304688e+01 1.964125037193298340e+00 2.825882530212402344e+01 9.066884994506835938e+00 4.263241767883300781e+00
3.100000000000000000e+01 6.970713043212890625e+01 1.869102287292480469e+01 8.976517915725708008e-01 2.380696868896484375e+01 7.411386489868164062e+00 3.696736574172973633e+00
3.200000000000000000e+01 6.973204040527343750e+01 1.849354362487792969e+01 4.456492066383361816e-01 2.082875823974609375e+01 6.382322311401367188e+00 3.454054117202758789e+00
3.300000000000000000e+01 6.971420288085937500e+01 1.909890174865722656e+01 5.430109024047851562e+00 3.804169464111328125e+01 1.304154109954833984e+01 2.703431248664855957e-02
3.400000000000000000e+01 6.977704620361328125e+01 1.891003799438476562e+01 2.745305061340332031e+00 2.981935501098632812e+01 9.769397735595703125e+00 1.019472479820251465e+00
3.500000000000000000e+01 6.983988189697265625e+01 1.872117424011230469e+01 1.522720575332641602e+00 2.552863883972167969e+01 8.115407943725585938e+00 1.151693344116210938e+00
3.600000000000000000e+01 6.990271759033203125e+01 1.853230857849121094e+01 8.158673048019409180e-01 2.277835273742675781e+01 7.078266143798828125e+00 8.376806378364562988e-01
3.700000000000000000e+01 6.976750183105468750e+01 1.912264060974121094e+01 8.406958580017089844e+00 3.713996124267578125e+01 1.366407585144042969e+01 -3.392597675323486328e+00
3.800000000000000000e+01 6.986586761474609375e+01 1.894960403442382812e+01 4.712854385375976562e+00 2.999660301208496094e+01 1.041283702850341797e+01 -1.660990238189697266e+00
3.900000000000000000e+01 6.996424102783203125e+01 1.877656555175781250e+01 2.949603796005249023e+00 2.591037178039550781e+01 8.657992362976074219e+00 -1.377777934074401855e+00
4.000000000000000000e+01 7.006259918212890625e+01 1.860352897644042969e+01 1.959354519844055176e+00 2.361370086669921875e+01 7.671916484832763672e+00 -1.107246875762939453e+00
4.100000000000000000e+01 6.981516265869140625e+01 1.915629196166992188e+01 1.176938533782958984e+01 3.537226867675781250e+01 1.414249610900878906e+01 -5.343530654907226562e+00
4.200000000000000000e+01 6.994530487060546875e+01 1.900568962097167969e+01 7.690219879150390625e+00 2.884572219848632812e+01 1.096078300476074219e+01 -3.805296659469604492e+00
4.300000000000000000e+01 7.007543945312500000e+01 1.885508537292480469e+01 5.093549728393554688e+00 2.526700019836425781e+01 9.108164787292480469e+00 -2.922073125839233398e+00
4.400000000000000000e+01 7.020558166503906250e+01 1.870448112487792969e+01 3.743014097213745117e+00 2.283308982849121094e+01 7.972830772399902344e+00 -2.553215026855468750e+00
4.500000000000000000e+01 6.985536956787109375e+01 1.919857025146484375e+01 1.589631271362304688e+01 3.301749801635742188e+01 1.467414379119873047e+01 -5.859713554382324219e+00
4.600000000000000000e+01 7.001231384277343750e+01 1.907615089416503906e+01 1.026093387603759766e+01 2.716893959045410156e+01 1.122896194458007812e+01 -4.846495628356933594e+00
4.700000000000000000e+01 7.016925811767578125e+01 1.895373344421386719e+01 8.364188194274902344e+00 2.370733070373535156e+01 9.621456146240234375e+00 -3.765182256698608398e+00
4.800000000000000000e+01 7.032620239257812500e+01 1.883131408691406250e+01 5.907228469848632812e+00 2.123514938354492188e+01 8.142713546752929688e+00 -3.065449476242065430e+00
4.900000000000000000e+01 6.988658142089843750e+01 1.924785804748535156e+01 1.864658927917480469e+01 3.070802879333496094e+01 1.480638504028320312e+01 -5.461922168731689453e+00
5.000000000000000000e+01 7.006433868408203125e+01 1.915830039978027344e+01 1.355304622650146484e+01 2.538779449462890625e+01 1.168225193023681641e+01 -4.386460781097412109e+00
5.100000000000000000e+01 7.024209594726562500e+01 1.906874275207519531e+01 1.035706233978271484e+01 2.193491554260253906e+01 9.687593460083007812e+00 -3.958459377288818359e+00
5.200000000000000000e+01 7.041985321044921875e+01 1.897918319702148438e+01 9.528439521789550781e+00 1.992414093017578125e+01 8.835773468017578125e+00 -3.248792409896850586e+00
5.300000000000000000e+01 6.990761566162109375e+01 1.930227851867675781e+01 2.108501434326171875e+01 2.914024353027343750e+01 1.506757736206054688e+01 -3.763760805130004883e+00
5.400000000000000000e+01 7.009939575195312500e+01 1.924899864196777344e+01 1.555240154266357422e+01 2.379763603210449219e+01 1.180501174926757812e+01 -3.411298274993896484e+00
5.500000000000000000e+01 7.029117584228515625e+01 1.919572067260742188e+01 1.263144397735595703e+01 2.057201004028320312e+01 9.961035728454589844e+00 -2.785310029983520508e+00
5.600000000000000000e+01 7.048295593261718750e+01 1.914244270324707031e+01 1.027192020416259766e+01 1.905857849121093750e+01 8.799149513244628906e+00 -2.802882432937622070e+00
5.700000000000000000e+01 6.991767120361328125e+01 1.935975074768066406e+01 2.215376663208007812e+01 2.856615257263183594e+01 1.521597576141357422e+01 -1.905044794082641602e+00
5.800000000000000000e+01 7.011614990234375000e+01 1.934478569030761719e+01 1.687001991271972656e+01 2.263821411132812500e+01 1.185247039794921875e+01 -1.418212890625000000e+00
5.900000000000000000e+01 7.031462860107421875e+01 1.932981872558593750e+01 1.360234642028808594e+01 2.020451545715332031e+01 1.014205837249755859e+01 -1.461515307426452637e+00
6.000000000000000000e+01 7.051310729980468750e+01 1.931485557556152344e+01 1.103965282440185547e+01 1.759764671325683594e+01 8.591190338134765625e+00 -5.295714139938354492e-01
6.100000000000000000e+01 6.991635131835937500e+01 1.941807937622070312e+01 2.198256874084472656e+01 2.834876441955566406e+01 1.509940052032470703e+01 5.195758938789367676e-01
6.200000000000000000e+01 7.011395263671875000e+01 1.944199752807617188e+01 1.695831298828125000e+01 2.296341896057128906e+01 1.197651958465576172e+01 2.019530087709426880e-01
6.300000000000000000e+01 7.031154632568359375e+01 1.946591758728027344e+01 1.358256244659423828e+01 1.977990913391113281e+01 1.000874137878417969e+01 7.676025629043579102e-01
6.400000000000000000e+01 7.050914764404296875e+01 1.948983955383300781e+01 1.205933856964111328e+01 1.761179924011230469e+01 8.901341438293457031e+00 5.247061252593994141e-01
6.500000000000000000e+01 6.990370941162109375e+01 1.947503662109375000e+01 2.099111557006835938e+01 2.933226966857910156e+01 1.509701538085937500e+01 2.073323726654052734e+00
6.600000000000000000e+01 7.009288787841796875e+01 1.953692817687988281e+01 1.557829761505126953e+01 2.379052162170410156e+01 1.181064510345458984e+01 2.191510200500488281e+00
6.700000000000000000e+01 7.028205871582031250e+01 1.959882164001464844e+01 1.302760124206542969e+01 2.035943794250488281e+01 1.001611232757568359e+01 1.845867514610290527e+00
6.800000000000000000e+01 7.047123718261718750e+01 1.966071510314941406e+01 1.110876274108886719e+01 1.845207214355468750e+01 8.868250846862792969e+00 1.822327136993408203e+00
6.900000000000000000e+01 6.988024139404296875e+01 1.952844810485839844e+01 1.854664802551269531e+01 3.111582183837890625e+01 1.489874076843261719e+01 3.486160039901733398e+00
7.000000000000000000e+01 7.005376434326171875e+01 1.962594985961914062e+01 1.376704597473144531e+01 2.509188842773437500e+01 1.165768051147460938e+01 2.982264041900634766e+00
7.100000000000000000e+01 7.022729492187500000e+01 1.972345161437988281e+01 1.096952533721923828e+01 2.184581375122070312e+01 9.844601631164550781e+00 2.650687217712402344e+00
7.200000000000000000e+01 7.040081787109375000e+01 1.982095336914062500e+01 9.549660682678222656e+00 1.936500549316406250e+01 8.674399375915527344e+00 2.226381778717041016e+00
7.300000000000000000e+01 6.984682464599609375e+01 1.957627677917480469e+01 1.578420925140380859e+01 3.286000061035156250e+01 1.459326362609863281e+01 3.741760253906250000e+00
7.400000000000000000e+01 6.999807739257812500e+01 1.970566368103027344e+01 1.091034507751464844e+01 2.714290428161621094e+01 1.141597461700439453e+01 2.934671878814697266e+00
7.500000000000000000e+01 7.014933013916015625e+01 1.983505058288574219e+01 8.842018127441406250e+00 2.308580589294433594e+01 9.578347206115722656e+00 2.436700820922851562e+00
7.600000000000000000e+01 7.030058288574218750e+01 1.996443748474121094e+01 6.938362121582031250e+00 2.095149612426757812e+01 8.366957664489746094e+00 2.102638483047485352e+00
7.700000000000000000e+01 6.980474853515625000e+01 1.961669540405273438e+01 1.241160678863525391e+01 3.505418395996093750e+01 1.423973655700683594e+01 2.784867048263549805e+00
7.800000000000000000e+01 6.992795562744140625e+01 1.977302551269531250e+01 8.318070411682128906e+00 2.848557090759277344e+01 1.104109191894531250e+01 1.905029535293579102e+00
7.900000000000000000e+01 7.005115509033203125e+01 1.992935752868652344e+01 6.174024105072021484e+00 2.474893951416015625e+01 9.276888847351074219e+00 1.197946906089782715e+00
8.000000000000000000e+01 7.017435455322265625e+01 2.008568954467773438e+01 4.956915855407714844e+00 2.163543128967285156e+01 7.977704048156738281e+00 1.218791961669921875e+00
8.100000000000000000e+01 6.975561523437500000e+01 1.964815711975097656e+01 9.393107414245605469e+00 3.649011230468750000e+01 1.376496505737304688e+01 6.618442535400390625e-01
8.200000000000000000e+01 6.984606933593750000e+01 1.982546424865722656e+01 5.925653934478759766e+00 2.930329704284667969e+01 1.056868553161621094e+01 -2.896489799022674561e-01
8.300000000000000000e+01 6.993650817871093750e+01 2.000276947021484375e+01 4.224457263946533203e+00 2.542982292175292969e+01 8.896284103393554688e+00 -3.849309384822845459e-01
8.400000000000000000e+01 7.002695465087890625e+01 2.018007659912109375e+01 3.030523061752319336e+00 2.264996719360351562e+01 7.704147338867187500e+00 -8.173177838325500488e-01
8.500000000000000000e+01 6.970130157470703125e+01 1.966946411132812500e+01 6.906743526458740234e+00 3.680552291870117188e+01 1.311367988586425781e+01 -2.607386827468872070e+00
8.600000000000000000e+01 6.975554656982421875e+01 1.986097526550292969e+01 4.571569442749023438e+00 2.900370216369628906e+01 1.007258129119873047e+01 -3.022182941436767578e+00
8.700000000000000000e+01 6.980977630615234375e+01 2.005248451232910156e+01 2.957279682159423828e+00 2.477435493469238281e+01 8.319490432739257812e+00 -2.689886808395385742e+00
8.800000000000000000e+01 6.986401367187500000e+01 2.024399757385253906e+01 2.137472629547119141e+00 2.290447998046875000e+01 7.512585639953613281e+00 -2.304637670516967773e+00
8.900000000000000000e+01 6.964388275146484375e+01 1.967980194091796875e+01 5.878647804260253906e+00 3.556028747558593750e+01 1.243168067932128906e+01 -6.502969264984130859e+00
9.000000000000000000e+01 6.965984344482421875e+01 1.987820243835449219e+01 4.068397998809814453e+00 2.716963958740234375e+01 9.371411323547363281e+00 -5.954725265502929688e+00
9.100000000000000000e+01 6.967579650878906250e+01 2.007660484313964844e+01 2.862836122512817383e+00 2.313788986206054688e+01 7.800217628479003906e+00 -5.066010475158691406e+00
9.200000000000000000e+01 6.969175720214843750e+01 2.027500724792480469e+01 2.244977951049804688e+00 2.035165405273437500e+01 6.778989791870117188e+00 -4.149207115173339844e+00
9.300000000000000000e+01 6.958554840087890625e+01 1.967877388000488281e+01 6.257205486297607422e+00 3.237512588500976562e+01 1.158969974517822266e+01 -1.035452556610107422e+01
9.400000000000000000e+01 6.956261444091796875e+01 1.987648963928222656e+01 4.671413898468017578e+00 2.401139640808105469e+01 8.604843139648437500e+00 -8.530503273010253906e+00
9.500000000000000000e+01 6.953968811035156250e+01 2.007420921325683594e+01 3.670410871505737305e+00 2.005551147460937500e+01 7.117776870727539062e+00 -7.073344707489013672e+00
9.600000000000000000e+01 6.951675415039062500e+01 2.027192687988281250e+01 2.778994083404541016e+00 1.726527786254882812e+01 6.013281822204589844e+00 -6.363090991973876953e+00
9.700000000000000000e+01 6.952853393554687500e+01 1.966641998291015625e+01 7.819967746734619141e+00 2.732340431213378906e+01 1.054301166534423828e+01 -1.337341403961181641e+01
9.800000000000000000e+01 6.946758270263671875e+01 1.985590362548828125e+01 6.248529911041259766e+00 1.973263740539550781e+01 7.794350624084472656e+00 -1.016232872009277344e+01
9.900000000000000000e+01 6.940663909912109375e+01 2.004538726806640625e+01 4.840370178222656250e+00 1.603564071655273438e+01 6.262803554534912109e+00 -8.514314651489257812e+00
1.000000000000000000e+02 6.934568786621093750e+01 2.023486900329589844e+01 3.855859756469726562e+00 1.415405273437500000e+01 5.402973651885986328e+00 -7.371889591217041016e+00
1.010000000000000000e+02 6.947499847412109375e+01 1.964321517944335938e+01 1.048850631713867188e+01 2.113283729553222656e+01 9.486403465270996094e+00 -1.470846557617187500e+01
1.020000000000000000e+02 6.937837219238281250e+01 1.981722831726074219e+01 7.851537704467773438e+00 1.461266040802001953e+01 6.739259243011474609e+00 -1.070127773284912109e+01
1.030000000000000000e+02 6.928173828125000000e+01 1.999123954772949219e+01 6.359860897064208984e+00 1.188104057312011719e+01 5.472270488739013672e+00 -8.699203491210937500e+00
1.040000000000000000e+02 6.918510437011718750e+01 2.016525268554687500e+01 5.086586952209472656e+00 1.018871307373046875e+01 4.582590103149414062e+00 -7.338751316070556641e+00
1.050000000000000000e+02 6.942700958251953125e+01 1.961004257202148438e+01 1.293078994750976562e+01 1.422471714019775391e+01 8.146652221679687500e+00 -1.419727611541748047e+01
1.060000000000000000e+02 6.929837799072265625e+01 1.976194000244140625e+01 9.316889762878417969e+00 9.616221427917480469e+00 5.679933071136474609e+00 -9.735156059265136719e+00
1.070000000000000000e+02 6.916974639892578125e+01 1.991383743286132812e+01 7.304941177368164062e+00 7.639153957366943359e+00 4.483228683471679688e+00 -7.733707427978515625e+00
1.080000000000000000e+02 6.904111480712890625e+01 2.006573295593261719e+01 6.177117347717285156e+00 6.587480545043945312e+00 3.829379320144653320e+00 -6.490078926086425781e+00
1.090000000000000000e+02 6.938638305664062500e+01 1.956816864013671875e+01 1.429800605773925781e+01 7.947156429290771484e+00 6.673548698425292969e+00 -1.169105243682861328e+01
1.100000000000000000e+02 6.923066711425781250e+01 1.969215011596679688e+01 9.779331207275390625e+00 5.033106327056884766e+00 4.443731307983398438e+00 -7.600637435913085938e+00
1.110000000000000000e+02 6.907495117187500000e+01 1.981613349914550781e+01 7.454988956451416016e+00 4.090123176574707031e+00 3.463533639907836914e+00 -5.695171356201171875e+00
1.120000000000000000e+02 6.891923522949218750e+01 1.994011306762695312e+01 5.995149612426757812e+00 3.771008253097534180e+00 2.929847240447998047e+00 -4.828847885131835938e+00
1.130000000000000000e+02 6.935466766357421875e+01 1.951919364929199219e+01 1.383313179016113281e+01 2.821567296981811523e+00 4.996409893035888672e+00 -7.712485313415527344e+00
1.140000000000000000e+02 6.917781829833984375e+01 1.961052513122558594e+01 8.435433387756347656e+00 1.654569864273071289e+00 3.027000904083251953e+00 -4.635103702545166016e+00
1.150000000000000000e+02 6.900096893310546875e+01 1.970185852050781250e+01 6.443794727325439453e+00 1.680356025695800781e+00 2.437245368957519531e+00 -3.331823110580444336e+00
1.160000000000000000e+02 6.882411193847656250e+01 1.979319000244140625e+01 4.848493099212646484e+00 1.569880008697509766e+00 1.925511956214904785e+00 -2.529649257659912109e+00
1.170000000000000000e+02 6.933309173583984375e+01 1.946498680114746094e+01 1.012819099426269531e+01 -4.763303399085998535e-01 2.895558118820190430e+00 -3.315284729003906250e+00
1.180000000000000000e+02 6.914186096191406250e+01 1.952018165588378906e+01 5.509962081909179688e+00 -1.882996559143066406e-01 1.596498727798461914e+00 -1.581964015960693359e+00
1.190000000000000000e+02 6.895061492919921875e+01 1.957537651062011719e+01 3.506172895431518555e+00 5.573638677597045898e-01 1.219061017036437988e+00 -1.186746954917907715e+00
1.200000000000000000e+02 6.875937652587890625e+01 1.963057136535644531e+01 3.298518896102905273e+00 5.808084011077880859e-01 1.163798213005065918e+00 -1.150359511375427246e+00
1.210000000000000000e+02 6.932247161865234375e+01 1.940761947631835938e+01 3.378508329391479492e+00 -1.958105921745300293e+00 4.261206984519958496e-01 1.055809378623962402e+00
1.220000000000000000e+02 6.912414550781250000e+01 1.942457008361816406e+01 -3.389298617839813232e-01 -2.797374688088893890e-02 -1.100710853934288025e-01 -2.691433578729629517e-02
1.230000000000000000e+02 6.892582702636718750e+01 1.944151878356933594e+01 8.305305242538452148e-01 1.949934512376785278e-01 3.076572120189666748e-01 -5.601717829704284668e-01
1.240000000000000000e+02 6.872750854492187500e+01 1.945846748352050781e+01 2.678087055683135986e-01 1.332246512174606323e-01 1.203100085258483887e-01 -6.400107871741056442e-03
1.250000000000000000e+02 6.932320404052734375e+01 1.934928131103515625e+01 -1.005423927307128906e+01 -1.199759006500244141e+00 -3.376199483871459961e+00 1.014531135559082031e+00
1.260000000000000000e+02 6.912537384033203125e+01 1.932733917236328125e+01 -3.362537860870361328e+00 4.402070641517639160e-01 -8.766992688179016113e-01 -1.023075819015502930e+00
1.270000000000000000e+02 6.892754364013671875e+01 1.930539512634277344e+01 -3.401548862457275391e+00 -3.185169696807861328e-01 -1.116019725799560547e+00 -3.063613772392272949e-01
1.280000000000000000e+02 6.872971343994140625e+01 1.928345108032226562e+01 -2.684377431869506836e+00 1.963412612676620483e-01 -7.464108467102050781e-01 -3.448272943496704102e-01
1.290000000000000000e+02 6.864460754394531250e+01 1.879409980773925781e+01 1.416280031204223633e+00 1.362183213233947754e+00 8.335390090942382812e-01 1.392009735107421875e+00
1.300000000000000000e+02 6.810554504394531250e+01 1.846500205993652344e+01 4.481279253959655762e-01 5.545232892036437988e-01 3.007953763008117676e-01 2.337304502725601196e-01
1.310000000000000000e+02 6.817207336425781250e+01 1.895638656616210938e+01 -6.600036621093750000e-01 2.267935685813426971e-02 -1.911972910165786743e-01 -2.346544265747070312e-01
1.320000000000000000e+02 6.995520782470703125e+01 1.838005828857421875e+01 6.441112160682678223e-01 2.157874679565429688e+01 6.666857719421386719e+00 9.594592452049255371e-01
1.330000000000000000e+02 7.045056915283203125e+01 1.870500373840332031e+01 4.756281375885009766e+00 1.973827743530273438e+01 7.348367691040039062e+00 -2.687724113464355469e+00
1.340000000000000000e+02 7.066398620605468750e+01 1.952382087707519531e+01 1.073742389678955078e+01 1.685270118713378906e+01 8.277037620544433594e+00 6.750519871711730957e-01
1.350000000000000000e+02 7.039543914794921875e+01 2.005558395385742188e+01 6.330456256866455078e+00 1.934456634521484375e+01 7.702507019042968750e+00 1.739903688430786133e+00
1.360000000000000000e+02 7.035168457031250000e+01 2.032140922546386719e+01 3.301181077957153320e+00 1.968160629272460938e+01 6.894836425781250000e+00 1.168541312217712402e+00
1.370000000000000000e+02 6.851726531982421875e+01 1.971481895446777344e+01 2.511724710464477539e+00 6.152155995368957520e-01 9.380820989608764648e-01 -7.086031436920166016e-01
1.380000000000000000e+02 6.931639862060546875e+01 2.070303153991699219e+01 2.032925605773925781e+00 1.252378273010253906e+01 4.367012500762939453e+00 -5.425150394439697266e+00
1.390000000000000000e+02 6.963185882568359375e+01 2.044899559020996094e+01 1.690496683120727539e+00 1.784513282775878906e+01 5.860689163208007812e+00 -4.233328819274902344e+00
1.400000000000000000e+02 7.026647186279296875e+01 1.818592643737792969e+01 3.373930752277374268e-01 1.962780380249023438e+01 5.989559173583984375e+00 -1.910502612590789795e-01
1.410000000000000000e+02 6.889704895019531250e+01 1.800741004943847656e+01 1.001030921936035156e+00 8.046887397766113281e+00 2.714375495910644531e+00 4.340210437774658203e+00
1.420000000000000000e+02 6.910621643066406250e+01 1.840263938903808594e+01 2.065282821655273438e+00 9.244469642639160156e+00 3.392925739288330078e+00 5.544384956359863281e+00
1.430000000000000000e+02 6.927485656738281250e+01 1.832354927062988281e+01 1.119648098945617676e+00 1.275499820709228516e+01 4.162394046783447266e+00 5.883755207061767578e+00
1.440000000000000000e+02 6.944669342041015625e+01 1.792710494995117188e+01 -1.288458704948425293e-01 1.427976894378662109e+01 4.245276927947998047e+00 4.464574813842773438e+00
1.450000000000000000e+02 6.888688659667968750e+01 2.021071243286132812e+01 4.972092628479003906e+00 5.636667251586914062e+00 3.182627916336059570e+00 -5.429720878601074219e+00
1.460000000000000000e+02 6.798735046386718750e+01 2.021875953674316406e+01 2.074402570724487305e+00 1.303029775619506836e+00 1.013229608535766602e+00 -1.512270569801330566e+00
1.470000000000000000e+02 6.758843994140625000e+01 2.014189720153808594e+01 9.314871430397033691e-01 1.451985239982604980e-01 3.230056762695312500e-01 -6.068289875984191895e-01
1.480000000000000000e+02 6.707377624511718750e+01 2.026652145385742188e+01 -1.569305062294006348e-01 -1.441872119903564453e-01 -9.033531695604324341e-02 1.864244230091571808e-02
1.490000000000000000e+02 6.687554168701171875e+01 2.022651481628417969e+01 -6.258454322814941406e-01 -4.460249543190002441e-01 -3.215611279010772705e-01 5.081707239151000977e-01
1.500000000000000000e+02 6.714844512939453125e+01 1.997672271728515625e+01 -5.821533799171447754e-01 -6.174723505973815918e-01 -3.598877191543579102e-01 5.499637722969055176e-01
1.510000000000000000e+02 6.777151489257812500e+01 1.910131835937500000e+01 -1.998686492443084717e-01 -9.177697449922561646e-02 -8.749368786811828613e-02 1.348106414079666138e-01
1.520000000000000000e+02 6.825851440429687500e+01 1.948988723754882812e+01 6.698017567396163940e-02 3.029247522354125977e-01 1.109714806079864502e-01 3.720006644725799561e-01
1.530000000000000000e+02 6.852873992919921875e+01 1.926391029357910156e+01 -2.163553714752197266e+00 -3.025696426630020142e-02 -6.581432223320007324e-01 -7.085685431957244873e-02
1.540000000000000000e+02 7.061609649658203125e+01 1.972632217407226562e+01 1.023963356018066406e+01 1.723359870910644531e+01 8.241969108581542969e+00 1.576671719551086426e+00
1.550000000000000000e+02 7.084124755859375000e+01 1.995310020446777344e+01 6.881344795227050781e+00 1.606612777709960938e+01 6.884241580963134766e+00 2.126569509506225586e+00
1.560000000000000000e+02 7.027655029296875000e+01 2.018022727966308594e+01 3.844505786895751953e+00 2.117408752441406250e+01 7.505578041076660156e+00 1.495049118995666504e+00
1.570000000000000000e+02 7.013542175292968750e+01 2.032739257812500000e+01 3.123269557952880859e+00 2.020998382568359375e+01 6.999976158142089844e+00 9.661416523158550262e-03
1.580000000000000000e+02 6.943553924560546875e+01 2.052936744689941406e+01 2.120690107345581055e+00 1.463955020904541016e+01 5.028071880340576172e+00 -5.658465862274169922e+00
1.590000000000000000e+02 6.813410949707031250e+01 1.919630050659179688e+01 -1.207286715507507324e+00 1.069073528051376343e-01 -3.301137983798980713e-01 1.079315319657325745e-01
1.600000000000000000e+02 6.856628417968750000e+01 1.900896835327148438e+01 -5.895145535469055176e-01 -1.109288856387138367e-01 -2.101330310106277466e-01 -1.039542779326438904e-01
1.610000000000000000e+02 7.021036529541015625e+01 1.833764457702636719e+01 1.198869109153747559e+00 2.104482460021972656e+01 6.673108577728271484e+00 -7.140573263168334961e-01
1.620000000000000000e+02 7.067185211181640625e+01 1.855969810485839844e+01 4.774708271026611328e+00 1.753818893432617188e+01 6.693869113922119141e+00 -2.570663213729858398e+00
1.630000000000000000e+02 6.787271881103515625e+01 1.868434715270996094e+01 -4.733702167868614197e-02 -4.878530204296112061e-01 -1.605570167303085327e-01 -2.132674008607864380e-01
1.640000000000000000e+02 6.788102722167968750e+01 1.848559379577636719e+01 1.693307459354400635e-01 -6.991637349128723145e-01 -1.589498817920684814e-01 -1.013260632753372192e-01
1.650000000000000000e+02 6.782994079589843750e+01 1.887065696716308594e+01 -6.196201965212821960e-02 -1.303277760744094849e-01 -5.768693611025810242e-02 -8.903788775205612183e-02
1.660000000000000000e+02 6.868052673339843750e+01 1.775997161865234375e+01 4.946323335170745850e-01 7.093233585357666016e+00 2.276359796524047852e+00 3.597935676574707031e+00
1.670000000000000000e+02 6.848016357421875000e+01 1.797754096984863281e+01 7.197085022926330566e-01 4.812828063964843750e+00 1.659761071205139160e+00 2.732056617736816406e+00
1.680000000000000000e+02 6.786581420898437500e+01 1.755312919616699219e+01 -4.425277113914489746e-01 9.494230747222900391e-01 1.520686000585556030e-01 -4.136916995048522949e-02
1.690000000000000000e+02 6.801019287109375000e+01 1.892651176452636719e+01 -2.927198112010955811e-01 -1.178373694419860840e-01 -1.231671497225761414e-01 -2.617845833301544189e-01
1.700000000000000000e+02 6.785153198242187500e+01 1.828856468200683594e+01 4.033923521637916565e-02 -7.110573053359985352e-01 -2.012154161930084229e-01 7.335449755191802979e-02
1.710000000000000000e+02 6.785607910156250000e+01 1.774179267883300781e+01 1.222487837076187134e-01 7.692584395408630371e-01 2.674521505832672119e-01 3.719525337219238281e-01
1.720000000000000000e+02 6.826849365234375000e+01 1.788370704650878906e+01 9.398429840803146362e-02 3.606497526168823242e+00 1.110144495964050293e+00 1.615885019302368164e+00
1.730000000000000000e+02 6.808394622802734375e+01 1.760853767395019531e+01 -6.372947096824645996e-01 3.576577663421630859e+00 8.817848563194274902e-01 8.564929366111755371e-01
1.740000000000000000e+02 6.832731628417968750e+01 1.923817062377929688e+01 -1.651780962944030762e+00 9.932181239128112793e-02 -4.657377600669860840e-01 -3.052850812673568726e-02
1.750000000000000000e+02 6.807779693603515625e+01 1.878697013854980469e+01 -6.758300960063934326e-02 -5.610438063740730286e-02 -3.710621595382690430e-02 -4.710340201854705811e-01
1.760000000000000000e+02 6.700147247314453125e+01 2.009393692016601562e+01 -5.640059709548950195e-01 -4.563725888729095459e-01 -3.061135709285736084e-01 5.169097781181335449e-01
1.770000000000000000e+02 7.042415618896484375e+01 1.852747154235839844e+01 3.557386636734008789e+00 2.019453811645507812e+01 7.125577926635742188e+00 -2.177235364913940430e+00
1.780000000000000000e+02 7.066340637207031250e+01 1.886569595336914062e+01 6.847663402557373047e+00 1.747474288940429688e+01 7.296721935272216797e+00 -2.779583454132080078e+00
1.790000000000000000e+02 6.988476562500000000e+01 1.803256225585937500e+01 -1.406916081905364990e-01 1.749843788146972656e+01 5.207324028015136719e+00 2.335133552551269531e+00
1.800000000000000000e+02 6.976781463623046875e+01 2.068451309204101562e+01 1.133854389190673828e+00 1.686021614074707031e+01 5.398221492767333984e+00 -3.728053331375122070e+00
1.810000000000000000e+02 6.844190216064453125e+01 1.857761955261230469e+01 1.311999797821044922e+00 1.358725547790527344e+00 8.012176156044006348e-01 1.079352378845214844e+00
1.820000000000000000e+02 7.057188415527343750e+01 2.002370643615722656e+01 7.014225959777832031e+00 1.752432250976562500e+01 7.361564636230468750e+00 1.908257007598876953e+00
1.830000000000000000e+02 7.072192382812500000e+01 1.980787849426269531e+01 8.722979545593261719e+00 1.706631851196289062e+01 7.736789703369140625e+00 2.007853507995605469e+00
1.840000000000000000e+02 7.075939941406250000e+01 1.912391471862792969e+01 8.722433090209960938e+00 1.620296478271484375e+01 7.477619171142578125e+00 -1.655612230300903320e+00
1.850000000000000000e+02 6.874522399902343750e+01 2.006138038635253906e+01 5.078214645385742188e+00 3.440431356430053711e+00 2.555593729019165039e+00 -3.946616649627685547e+00
1.860000000000000000e+02 6.965394592285156250e+01 1.798795890808105469e+01 -6.975318193435668945e-01 1.642561340332031250e+01 4.718424320220947266e+00 3.614267587661743164e+00
1.870000000000000000e+02 6.960301208496093750e+01 1.825626373291015625e+01 1.965506672859191895e-01 1.718348884582519531e+01 5.214012145996093750e+00 4.632792472839355469e+00
1.880000000000000000e+02 6.907917022705078125e+01 2.031760787963867188e+01 4.423332691192626953e+00 8.959257125854492188e+00 4.014777183532714844e+00 -6.552599430084228516e+00
1.890000000000000000e+02 6.866004180908203125e+01 2.058642959594726562e+01 3.167195796966552734e+00 5.449785232543945312e+00 2.585094213485717773e+00 -4.632571220397949219e+00
1.900000000000000000e+02 6.878644561767578125e+01 1.828464698791503906e+01 1.783373832702636719e+00 5.663891792297363281e+00 2.234179735183715820e+00 3.770099639892578125e+00
1.910000000000000000e+02 6.760878753662109375e+01 1.971785545349121094e+01 -1.483019292354583740e-01 -4.038797914981842041e-01 -1.656545102596282959e-01 3.244349360466003418e-01
1.920000000000000000e+02 6.728295135498046875e+01 2.030143737792968750e+01 6.357799172401428223e-01 6.435341387987136841e-02 2.100400030612945557e-01 -4.973091185092926025e-01
1.930000000000000000e+02 6.886762237548828125e+01 2.063679504394531250e+01 3.074486732482910156e+00 7.582580566406250000e+00 3.197120189666748047e+00 -5.346097469329833984e+00
1.940000000000000000e+02 6.845458221435546875e+01 2.054264259338378906e+01 3.100792407989501953e+00 4.022365093231201172e+00 2.136947154998779297e+00 -3.801743030548095703e+00
1.950000000000000000e+02 6.925318145751953125e+01 1.786448478698730469e+01 -1.236177142709493637e-02 1.197512435913085938e+01 3.588828802108764648e+00 4.686101436614990234e+00
1.960000000000000000e+02 6.897725677490234375e+01 1.821582794189453125e+01 1.439018487930297852e+00 8.525141716003417969e+00 2.989248037338256836e+00 4.846484661102294922e+00
1.970000000000000000e+02 6.825482177734375000e+01 2.050799942016601562e+01 2.889870643615722656e+00 2.771217584609985352e+00 1.698326468467712402e+00 -3.033951520919799805e+00
1.980000000000000000e+02 6.787865447998046875e+01 2.042191123962402344e+01 1.863171219825744629e+00 1.249769687652587891e+00 9.338822960853576660e-01 -1.687038183212280273e+00
1.990000000000000000e+02 6.829598236083984375e+01 2.012545585632324219e+01 2.943134546279907227e+00 1.614702463150024414e+00 1.367351174354553223e+00 -1.840439438819885254e+00
2.000000000000000000e+02 6.758114624023437500e+01 1.948427963256835938e+01 -5.573651790618896484e-01 -8.950635194778442383e-01 -4.357286095619201660e-01 7.396836876869201660e-01
2.010000000000000000e+02 6.731365203857421875e+01 1.983362197875976562e+01 -5.562200546264648438e-01 -8.341151475906372070e-01 -4.171005487442016602e-01 6.325821876525878906e-01
2.020000000000000000e+02 6.785334777832031250e+01 1.935711097717285156e+01 -6.007194519042968750e-01 5.360032618045806885e-02 -1.641357392072677612e-01 5.636399984359741211e-01
2.030000000000000000e+02 6.784051513671875000e+01 1.810509300231933594e+01 1.024047061800956726e-01 -3.504145741462707520e-01 -7.440295815467834473e-02 2.314815670251846313e-01
2.040000000000000000e+02 6.803811645507812500e+01 1.798071289062500000e+01 1.075300723314285278e-01 1.505679488182067871e+00 4.839628636837005615e-01 8.314282894134521484e-01
2.050000000000000000e+02 6.784605407714843750e+01 1.792469406127929688e+01 -4.586064070463180542e-02 1.617069095373153687e-01 3.475388139486312866e-02 2.568658590316772461e-01
2.060000000000000000e+02 6.802454376220703125e+01 1.828254699707031250e+01 3.079790472984313965e-01 5.527932643890380859e-01 2.582316696643829346e-01 4.711826741695404053e-01
2.070000000000000000e+02 6.806656646728515625e+01 1.780510330200195312e+01 4.058134928345680237e-02 2.213248014450073242e+00 6.761488318443298340e-01 9.047948122024536133e-01
2.080000000000000000e+02 6.768780517578125000e+01 2.037830352783203125e+01 1.518642663955688477e+00 7.543171048164367676e-01 6.818879246711730957e-01 -1.346110463142395020e+00
2.090000000000000000e+02 6.745560455322265625e+01 1.965767288208007812e+01 -5.545260310173034668e-01 -1.007848620414733887e+00 -4.687123894691467285e-01 7.606841921806335449e-01
2.100000000000000000e+02 6.841293334960937500e+01 1.820420837402343750e+01 9.220180511474609375e-01 3.208680868148803711e+00 1.239209651947021484e+00 1.920988321304321289e+00
2.110000000000000000e+02 6.824605560302734375e+01 1.869347763061523438e+01 5.583468675613403320e-01 3.669298291206359863e-01 2.775830030441284180e-01 -4.278899729251861572e-02
2.120000000000000000e+02 6.878204345703125000e+01 1.863062095642089844e+01 2.593148708343505859e+00 3.278203248977661133e+00 1.761405587196350098e+00 3.087183237075805664e+00
2.130000000000000000e+02 6.860483551025390625e+01 1.840793228149414062e+01 1.664971470832824707e+00 3.596705436706542969e+00 1.578503131866455078e+00 2.619595289230346680e+00
2.140000000000000000e+02 6.861637115478515625e+01 1.990519905090332031e+01 3.973288774490356445e+00 1.594877481460571289e+00 1.670449852943420410e+00 -2.180268049240112305e+00
2.150000000000000000e+02 6.850525665283203125e+01 1.948326492309570312e+01 2.801842689514160156e-01 2.731561064720153809e-01 1.660021096467971802e-01 4.461871832609176636e-02
2.160000000000000000e+02 6.768851470947265625e+01 1.930013084411621094e+01 -4.004790484905242920e-01 -4.477367103099822998e-01 -2.544647455215454102e-01 4.843380749225616455e-01
2.170000000000000000e+02 6.822233581542968750e+01 1.975722312927246094e+01 1.654375791549682617e+00 7.101208567619323730e-01 7.093489766120910645e-01 -4.208161532878875732e-01
2.180000000000000000e+02 6.869851684570312500e+01 1.802242469787597656e+01 8.586213588714599609e-01 6.227989196777343750e+00 2.125983238220214844e+00 3.522022962570190430e+00
2.190000000000000000e+02 6.777384185791015625e+01 1.976918983459472656e+01 2.787283957004547119e-01 1.348031610250473022e-01 1.240594685077667236e-01 7.649262435734272003e-03
2.200000000000000000e+02 6.796575164794921875e+01 1.976822853088378906e+01 6.735825538635253906e-01 4.041013419628143311e-01 3.233051896095275879e-01 -3.702632337808609009e-02
2.210000000000000000e+02 6.768598175048828125e+01 1.994609260559082031e+01 5.605045557022094727e-01 8.500716835260391235e-02 1.936535090208053589e-01 -2.192333936691284180e-01
2.220000000000000000e+02 6.852356719970703125e+01 2.008962249755859375e+01 3.895050287246704102e+00 2.141949653625488281e+00 1.811100006103515625e+00 -2.732915401458740234e+00
2.230000000000000000e+02 6.814425659179687500e+01 1.821038436889648438e+01 3.977028429508209229e-01 1.605826973915100098e+00 6.010589003562927246e-01 8.761860728263854980e-01
2.240000000000000000e+02 6.716442871093750000e+01 2.010879898071289062e+01 -1.276984959840774536e-01 -4.371055662631988525e-01 -1.694412231445312500e-01 2.501729130744934082e-01
2.250000000000000000e+02 6.749003601074218750e+01 2.033869171142578125e+01 1.046436905860900879e+00 2.883634865283966064e-01 4.004400968551635742e-01 -8.441781997680664062e-01
2.260000000000000000e+02 6.737370300292968750e+01 2.011155891418457031e+01 2.532587349414825439e-01 -2.136679589748382568e-01 1.187723129987716675e-02 -1.386615186929702759e-01
2.270000000000000000e+02 6.779508209228515625e+01 2.017450904846191406e+01 1.520666122436523438e+00 5.808251500129699707e-01 6.304473876953125000e-01 -9.840051531791687012e-01
2.280000000000000000e+02 6.748183441162109375e+01 1.990871429443359375e+01 6.252600997686386108e-02 -4.057300686836242676e-01 -1.029612198472023010e-01 1.081625819206237793e-01
2.290000000000000000e+02 6.828387451171875000e+01 1.766364479064941406e+01 3.699897602200508118e-02 4.936955451965332031e+00 1.492186307907104492e+00 2.335020780563354492e+00
2.300000000000000000e+02 6.848336791992187500e+01 1.771768951416015625e+01 2.311886399984359741e-01 5.994647979736328125e+00 1.867751002311706543e+00 2.961471080780029297e+00
2.310000000000000000e+02 6.800691223144531250e+01 1.813347053527832031e+01 1.620728224515914917e-01 8.149713873863220215e-01 2.931132614612579346e-01 6.095676422119140625e-01
2.320000000000000000e+02 6.887318420410156250e+01 1.778840065002441406e+01 3.914982080459594727e-01 8.298155784606933594e+00 2.606896162033081055e+00 4.039247512817382812e+00
2.330000000000000000e+02 6.906372833251953125e+01 1.781791877746582031e+01 4.061197340488433838e-01 1.002336406707763672e+01 3.128845214843750000e+00 4.455015659332275391e+00
2.340000000000000000e+02 6.906639099121093750e+01 1.799621009826660156e+01 5.976840257644653320e-01 9.880928039550781250e+00 3.143583536148071289e+00 4.698782920837402344e+00
2.350000000000000000e+02 6.978710174560546875e+01 1.831288719177246094e+01 1.538626998662948608e-01 1.925740623474121094e+01 5.823380947113037109e+00 2.840613603591918945e+00
2.360000000000000000e+02 6.806466674804687500e+01 2.046830177307128906e+01 2.590407133102416992e+00 2.080099344253540039e+00 1.401152014732360840e+00 -2.282086849212646484e+00
2.370000000000000000e+02 6.773529815673828125e+01 1.954292678833007812e+01 -3.070909678936004639e-01 -1.561801433563232422e-01 -1.389813423156738281e-01 5.002291798591613770e-01
2.380000000000000000e+02 6.794939422607421875e+01 1.914726829528808594e+01 -6.797341108322143555e-01 3.407049179077148438e-02 -1.936990916728973389e-01 2.005437463521957397e-01
2.390000000000000000e+02 6.803762054443359375e+01 1.943445205688476562e+01 -2.421891540288925171e-01 3.450005352497100830e-01 3.084341250360012054e-02 4.427674710750579834e-01
2.400000000000000000e+02 6.852141571044921875e+01 2.032066917419433594e+01 3.730342626571655273e+00 3.413568973541259766e+00 2.143173456192016602e+00 -3.627063274383544922e+00
2.410000000000000000e+02 6.908003997802734375e+01 2.068080139160156250e+01 2.730911970138549805e+00 1.005852699279785156e+01 3.836831569671630859e+00 -6.055102825164794922e+00
2.420000000000000000e+02 6.987192535400390625e+01 2.043953132629394531e+01 1.624328374862670898e+00 2.023253440856933594e+01 6.557059288024902344e+00 -2.904158115386962891e+00
2.430000000000000000e+02 6.835286712646484375e+01 1.895424842834472656e+01 -6.445549726486206055e-01 5.939427763223648071e-02 -1.755482107400894165e-01 -9.913864731788635254e-02
2.440000000000000000e+02 6.893649291992187500e+01 1.850128936767578125e+01 2.500929355621337891e+00 6.208381175994873047e+00 2.612793207168579102e+00 4.665205001831054688e+00
2.450000000000000000e+02 6.922091674804687500e+01 1.804185485839843750e+01 6.144822239875793457e-01 1.150460147857666016e+01 3.635725021362304688e+00 5.072969913482666016e+00
2.460000000000000000e+02 6.913144683837890625e+01 1.815228462219238281e+01 1.126583218574523926e+00 1.029370880126953125e+01 3.426087617874145508e+00 5.023427963256835938e+00
2.470000000000000000e+02 6.939645385742187500e+01 1.816623878479003906e+01 3.512173593044281006e-01 1.412700366973876953e+01 4.343466281890869141e+00 4.992265701293945312e+00
2.480000000000000000e+02 6.994928741455078125e+01 1.824560928344726562e+01 7.098131626844406128e-02 1.974091529846191406e+01 5.943569183349609375e+00 1.440881133079528809e+00
2.490000000000000000e+02 7.014437103271484375e+01 1.845878601074218750e+01 1.582236647605895996e+00 2.192834854125976562e+01 7.053175449371337891e+00 -9.852684736251831055e-01
2.500000000000000000e+02 7.030866241455078125e+01 1.858431816101074219e+01 3.137480497360229492e+00 2.158494377136230469e+01 7.416727066040039062e+00 -2.374125480651855469e+00
2.510000000000000000e+02 7.095798492431640625e+01 1.941341209411621094e+01 8.922383308410644531e+00 1.475253963470458984e+01 7.102477073669433594e+00 -4.922623634338378906e-01
2.520000000000000000e+02 7.069420623779296875e+01 1.934727096557617188e+01 1.053170204162597656e+01 1.612624168395996094e+01 7.997383117675781250e+00 -7.939245104789733887e-01
2.530000000000000000e+02 7.051799774169921875e+01 1.991039276123046875e+01 8.077324867248535156e+00 1.866333580017089844e+01 8.022197723388671875e+00 2.158767938613891602e+00
2.540000000000000000e+02 7.040476226806640625e+01 2.014725685119628906e+01 4.854301929473876953e+00 1.973296356201171875e+01 7.376179218292236328e+00 1.443158030509948730e+00
2.550000000000000000e+02 7.035337829589843750e+01 2.051732444763183594e+01 2.319511890411376953e+00 1.859331893920898438e+01 6.273849487304687500e+00 9.102839231491088867e-01
2.560000000000000000e+02 6.947048950195312500e+01 2.042419242858886719e+01 2.386065006256103516e+00 1.585310935974121094e+01 5.471752166748046875e+00 -6.015337467193603516e+00
2.570000000000000000e+02 6.927401733398437500e+01 2.038891601562500000e+01 3.390480041503906250e+00 1.251946067810058594e+01 4.772982120513916016e+00 -6.614078998565673828e+00
2.580000000000000000e+02 6.897494506835937500e+01 2.045912933349609375e+01 3.774162530899047852e+00 8.297781944274902344e+00 3.621583461761474609e+00 -6.116703033447265625e+00
2.590000000000000000e+02 6.875269317626953125e+01 2.037881660461425781e+01 4.099700927734375000e+00 5.192349910736083984e+00 2.787615299224853516e+00 -4.733972072601318359e+00
2.600000000000000000e+02 6.919536590576171875e+01 2.051410865783691406e+01 3.131972551345825195e+00 1.088402652740478516e+01 4.204799652099609375e+00 -6.234123229980468750e+00
2.610000000000000000e+02 7.078426361083984375e+01 1.952671241760253906e+01 9.934252738952636719e+00 1.629005622863769531e+01 7.867292404174804688e+00 5.963543802499771118e-02
2.620000000000000000e+02 6.831121063232421875e+01 2.031347846984863281e+01 3.293403387069702148e+00 2.314577579498291016e+00 1.682394266128540039e+00 -2.780031919479370117e+00
2.630000000000000000e+02 7.060559082031250000e+01 2.023408317565917969e+01 4.869806766510009766e+00 1.694393348693847656e+01 6.544122219085693359e+00 1.551923394203186035e+00
2.640000000000000000e+02 6.822126770019531250e+01 1.807064056396484375e+01 4.312510490417480469e-01 2.594802141189575195e+00 9.078159332275390625e-01 1.363231301307678223e+00
2.650000000000000000e+02 6.827836608886718750e+01 1.836244010925292969e+01 8.592664003372192383e-01 1.774494767189025879e+00 7.901283502578735352e-01 1.046048283576965332e+00
2.660000000000000000e+02 6.814867401123046875e+01 2.028195953369140625e+01 2.342444181442260742e+00 1.627183556556701660e+00 1.190888285636901855e+00 -1.949585676193237305e+00
2.670000000000000000e+02 6.813361358642578125e+01 2.000494575500488281e+01 2.126393318176269531e+00 1.056075930595397949e+00 9.547407627105712891e-01 -1.133734226226806641e+00
2.680000000000000000e+02 6.790036010742187500e+01 1.996994590759277344e+01 1.307243824005126953e+00 4.964701831340789795e-01 5.411142110824584961e-01 -5.334866642951965332e-01
2.690000000000000000e+02 6.789859771728515625e+01 1.962061119079589844e+01 1.241369768977165222e-01 2.617815732955932617e-01 1.157755628228187561e-01 2.948592901229858398e-01
2.700000000000000000e+02 6.953530883789062500e+01 1.768122100830078125e+01 -6.619919538497924805e-01 1.396383380889892578e+01 3.990552425384521484e+00 3.800211429595947266e+00
2.710000000000000000e+02 7.080125427246093750e+01 1.692911338806152344e+01 -3.737527132034301758e-01 1.434057712554931641e+01 4.190047264099121094e+00 2.844866514205932617e-01
2.720000000000000000e+02 7.519973754882812500e+01 1.482380390167236328e+01 2.556079030036926270e-01 8.264180183410644531e+00 2.555936336517333984e+00 -1.178820371627807617e+00
2.730000000000000000e+02 7.936064910888671875e+01 1.681433486938476562e+01 5.915797501802444458e-02 3.651243686676025391e+00 1.113120436668395996e+00 -2.070669084787368774e-01
2.740000000000000000e+02 7.939628601074218750e+01 1.820478248596191406e+01 8.041005581617355347e-02 3.344263076782226562e+00 1.027401924133300781e+00 -5.119655281305313110e-02
2.750000000000000000e+02 7.819316864013671875e+01 1.973776245117187500e+01 3.021678030490875244e-01 4.965605258941650391e+00 1.580331921577453613e+00 3.321023881435394287e-01
2.760000000000000000e+02 7.941899108886718750e+01 2.096701049804687500e+01 7.482933998107910156e-02 3.743610143661499023e+00 1.145531892776489258e+00 2.281285226345062256e-01
2.770000000000000000e+02 7.942034149169921875e+01 2.371030235290527344e+01 -8.636520244181156158e-03 5.340089797973632812e+00 1.599436044692993164e+00 3.779393732547760010e-01
2.780000000000000000e+02 7.586036682128906250e+01 2.756427001953125000e+01 -5.377185344696044922e-01 7.935875415802001953e+00 2.219447135925292969e+00 9.298293590545654297e-01
2.790000000000000000e+02 7.095713806152343750e+01 3.043013763427734375e+01 -7.515805363655090332e-01 6.693528175354003906e+00 1.782584309577941895e+00 -5.110632777214050293e-01
2.800000000000000000e+02 6.458824920654296875e+01 3.535517120361328125e+01 3.905760347843170166e-01 3.130291700363159180e+00 1.056260347366333008e+00 -5.216332674026489258e-01
2.810000000000000000e+02 6.368768310546875000e+01 3.828893280029296875e+01 5.747615098953247070e-01 2.860381603240966797e+00 1.030542969703674316e+00 -2.727906405925750732e-01
2.820000000000000000e+02 6.286842727661132812e+01 4.113476943969726562e+01 6.751521229743957520e-01 2.602782249450683594e+00 9.833803176879882812e-01 -7.919473946094512939e-02
2.830000000000000000e+02 5.825913619995117188e+01 4.094188690185546875e+01 8.559015393257141113e-01 1.301541209220886230e+00 6.472328305244445801e-01 -3.307031095027923584e-02
2.840000000000000000e+02 5.402475357055664062e+01 4.054746627807617188e+01 8.248322010040283203e-01 5.183300375938415527e-01 4.029486775398254395e-01 2.948534488677978516e-02
2.850000000000000000e+02 5.448711395263671875e+01 3.582093429565429688e+01 7.108296751976013184e-01 5.013520717620849609e-01 3.636545240879058838e-01 1.272279322147369385e-01
2.860000000000000000e+02 5.294441986083984375e+01 3.426392745971679688e+01 5.560781359672546387e-01 2.516013681888580322e-01 2.423038482666015625e-01 2.202768772840499878e-01
2.870000000000000000e+02 5.180186462402343750e+01 3.254154968261718750e+01 3.644616603851318359e-01 1.136767491698265076e-01 1.434415280818939209e-01 3.231047987937927246e-01
2.880000000000000000e+02 5.253618621826171875e+01 2.813292312622070312e+01 -1.988902986049652100e-01 6.271951645612716675e-02 -4.085123166441917419e-02 3.961380422115325928e-01
2.890000000000000000e+02 5.143636703491210938e+01 2.375645256042480469e+01 -8.866064548492431641e-01 7.429450750350952148e-02 -2.436935901641845703e-01 2.322343289852142334e-01
2.900000000000000000e+02 5.210374832153320312e+01 2.168309020996093750e+01 -1.146787881851196289e+00 -1.731392145156860352e-01 -3.959781527519226074e-01 -1.667615026235580444e-01
2.910000000000000000e+02 5.383311080932617188e+01 2.170068740844726562e+01 -1.590489864349365234e+00 -2.544480562210083008e-01 -5.534814000129699707e-01 -3.455197513103485107e-01
2.920000000000000000e+02 5.525538253784179688e+01 2.202428817749023438e+01 -1.910530447959899902e+00 -9.053365886211395264e-02 -6.003192067146301270e-01 -3.251594901084899902e-01
2.930000000000000000e+02 5.813018798828125000e+01 2.247732162475585938e+01 -2.561649799346923828e+00 -4.271475970745086670e-02 -7.813093662261962891e-01 -2.661129236221313477e-01
2.940000000000000000e+02 5.951926803588867188e+01 2.416762733459472656e+01 -1.641008138656616211e+00 -1.392668038606643677e-01 -5.340824723243713379e-01 7.519472390413284302e-02
2.950000000000000000e+02 5.776675033569335938e+01 3.060645484924316406e+01 3.354723453521728516e-01 5.062361359596252441e-01 2.525125443935394287e-01 -8.715098723769187927e-03
2.960000000000000000e+02 5.650128555297851562e+01 3.315565109252929688e+01 5.581827759742736816e-01 5.893115997314453125e-01 3.442483246326446533e-01 3.838180378079414368e-02
2.970000000000000000e+02 5.861627197265625000e+01 3.405094528198242188e+01 6.369193792343139648e-01 1.052149891853332520e+00 5.067207813262939453e-01 -1.426164358854293823e-01
2.980000000000000000e+02 5.983510971069335938e+01 3.783704376220703125e+01 7.405340075492858887e-01 1.598428368568420410e+00 7.016887068748474121e-01 -1.465470045804977417e-01
2.990000000000000000e+02 5.667332458496093750e+01 3.703495788574218750e+01 7.691589593887329102e-01 8.752225637435913086e-01 4.933144450187683105e-01 4.182250704616308212e-03
3.000000000000000000e+02 6.834228515625000000e+01 1.615764236450195312e+01 -1.504099071025848389e-01 8.894480705261230469e+00 2.623221397399902344e+00 1.707532167434692383e+00
3.010000000000000000e+02 6.819170379638671875e+01 1.720466232299804688e+01 3.042591512203216553e-01 5.960325241088867188e+00 1.879375338554382324e+00 2.114048242568969727e+00
3.020000000000000000e+02 6.906060028076171875e+01 1.203935337066650391e+01 1.060151576995849609e+00 9.622030258178710938e+00 3.204654693603515625e+00 1.393786907196044922e+00
3.030000000000000000e+02 6.732975006103515625e+01 9.046370506286621094e+00 4.316516816616058350e-01 6.702165126800537109e+00 2.140145063400268555e+00 1.671137809753417969e+00
3.040000000000000000e+02 6.621735382080078125e+01 6.220964431762695312e+00 6.811807397753000259e-03 4.249775886535644531e+00 1.276976227760314941e+00 1.133023262023925781e+00
3.050000000000000000e+02 6.748652648925781250e+01 3.371418714523315430e+00 -3.405993878841400146e-01 4.891454219818115234e+00 1.365256428718566895e+00 4.119139611721038818e-01
3.060000000000000000e+02 6.345487976074218750e+01 -7.755375653505325317e-02 1.550962179899215698e-01 1.935247182846069336e+00 6.271030306816101074e-01 3.244740962982177734e-01
3.070000000000000000e+02 6.510085296630859375e+01 -4.280524253845214844e+00 -2.096943855285644531e-01 2.621979475021362305e+00 7.236855030059814453e-01 -1.374107301235198975e-01
3.080000000000000000e+02 6.251322174072265625e+01 -8.135280609130859375e+00 -7.614708542823791504e-01 6.615008711814880371e-01 -2.999100461602210999e-02 1.969233453273773193e-01
3.090000000000000000e+02 6.358732223510742188e+01 -1.153713512420654297e+01 -2.600107669830322266e+00 -6.678611040115356445e-02 -8.000681400299072266e-01 4.119835793972015381e-01
3.100000000000000000e+02 6.549627685546875000e+01 -1.212737560272216797e+01 -1.609692215919494629e+00 8.012170195579528809e-01 -2.425425499677658081e-01 -1.513006687164306641e-01
3.110000000000000000e+02 6.642823791503906250e+01 -1.301966381072998047e+01 -9.100662916898727417e-02 2.174048662185668945e+00 6.249126195907592773e-01 -9.337924718856811523e-01
3.120000000000000000e+02 6.753354644775390625e+01 -9.765914916992187500e+00 -1.245614767074584961e+00 4.502342224121093750e+00 9.770181775093078613e-01 -7.286083102226257324e-01
3.130000000000000000e+02 7.015391540527343750e+01 -7.982151985168457031e+00 -9.782951474189758301e-01 6.124795913696289062e+00 1.543950319290161133e+00 -2.454803436994552612e-01
3.140000000000000000e+02 6.821833038330078125e+01 -9.751236438751220703e-01 -3.453520834445953369e-01 4.808652400970458984e+00 1.338990092277526855e+00 -6.884364783763885498e-02
3.150000000000000000e+02 7.214085388183593750e+01 -9.808327555656433105e-01 -4.038548171520233154e-01 6.764497756958007812e+00 1.908192873001098633e+00 -3.437394201755523682e-01
3.160000000000000000e+02 6.893325042724609375e+01 5.160559654235839844e+00 -4.787789881229400635e-01 6.221525192260742188e+00 1.722823858261108398e+00 2.467813938856124878e-01
3.170000000000000000e+02 7.111727905273437500e+01 1.023148822784423828e+01 5.639115348458290100e-02 8.638284683227539062e+00 2.608402729034423828e+00 -1.686777472496032715e-01
3.180000000000000000e+02 7.039242553710937500e+01 1.279812908172607422e+01 5.530484318733215332e-01 9.733523368835449219e+00 3.085971355438232422e+00 8.036469817161560059e-01
3.190000000000000000e+02 6.987174987792968750e+01 1.416896438598632812e+01 4.588460624217987061e-01 1.077118873596191406e+01 3.369010448455810547e+00 1.751847982406616211e+00
3.200000000000000000e+02 6.814767456054687500e+01 1.378586196899414062e+01 7.378190755844116211e-01 1.200170516967773438e+01 3.821857213973999023e+00 2.325928926467895508e+00
3.210000000000000000e+02 6.543712615966796875e+01 8.847721099853515625e+00 1.383745670318603516e+00 3.292914628982543945e+00 1.402998089790344238e+00 1.955191731452941895e+00
3.220000000000000000e+02 6.342409515380859375e+01 6.956518650054931641e+00 5.481863021850585938e-01 1.081351637840270996e+00 4.888613820075988770e-01 7.502867579460144043e-01
3.230000000000000000e+02 6.444003295898437500e+01 7.883725166320800781e+00 8.893973231315612793e-01 1.794677972793579102e+00 8.052225708961486816e-01 1.282837271690368652e+00
3.240000000000000000e+02 6.501990509033203125e+01 3.766749382019042969e+00 3.382456302642822266e-02 3.072731256484985352e+00 9.319667816162109375e-01 7.755372524261474609e-01
3.250000000000000000e+02 5.942115402221679688e+01 -4.268614947795867920e-02 3.075765371322631836e-01 3.764623105525970459e-01 2.052116543054580688e-01 2.545973956584930420e-01
3.260000000000000000e+02 5.899695587158203125e+01 -3.015470504760742188e+00 5.286907032132148743e-02 2.780776321887969971e-01 9.928400814533233643e-02 3.804614841938018799e-01
3.270000000000000000e+02 5.976581573486328125e+01 -8.454554557800292969e+00 -1.069826364517211914e+00 -7.061259355396032333e-03 -3.230662941932678223e-01 6.146795749664306641e-01
3.280000000000000000e+02 5.865421676635742188e+01 -1.043592262268066406e+01 -1.692304849624633789e+00 -2.566455006599426270e-01 -5.846850872039794922e-01 7.385343909263610840e-01
3.290000000000000000e+02 6.020406341552734375e+01 -9.842399597167968750e+00 -1.505426645278930664e+00 -9.670876711606979370e-02 -4.806406199932098389e-01 6.739082932472229004e-01
3.300000000000000000e+02 6.237857437133789062e+01 -1.144137954711914062e+01 -2.547734498977661133e+00 -4.320773296058177948e-03 -7.656165361404418945e-01 4.905638098716735840e-01
3.310000000000000000e+02 6.430988311767578125e+01 6.186840534210205078e+00 3.655906021595001221e-01 2.197823286056518555e+00 7.690241932868957520e-01 1.064497470855712891e+00
3.320000000000000000e+02 6.240012741088867188e+01 6.046095371246337891e+00 3.079855442047119141e-01 6.177377700805664062e-01 2.777169942855834961e-01 4.515355825424194336e-01
3.330000000000000000e+02 6.179716491699218750e+01 1.772553443908691406e+00 3.107927441596984863e-01 1.074451446533203125e+00 4.155732393264770508e-01 4.204113185405731201e-01
3.340000000000000000e+02 5.595253372192382812e+01 6.474060416221618652e-01 1.865484118461608887e-01 8.694785833358764648e-02 8.204887807369232178e-02 1.631753593683242798e-01
3.350000000000000000e+02 5.668324279785156250e+01 -5.138562917709350586e-01 1.673948951065540314e-02 1.043555065989494324e-01 3.632849827408790588e-02 2.353308796882629395e-01
3.360000000000000000e+02 5.278023147583007812e+01 -1.328054219484329224e-01 -8.328840136528015137e-01 4.871312063187360764e-03 -2.484038025140762329e-01 2.166984975337982178e-01
3.370000000000000000e+02 5.081613159179687500e+01 -9.192708134651184082e-01 -9.303303956985473633e-01 -1.088476926088333130e-01 -3.117534220218658447e-01 2.842608690261840820e-01
3.380000000000000000e+02 5.160584259033203125e+01 -1.136634498834609985e-02 -1.459211826324462891e+00 -1.338477879762649536e-01 -4.779179096221923828e-01 3.509503006935119629e-01
3.390000000000000000e+02 5.843054580688476562e+01 2.190033197402954102e+00 2.145563811063766479e-01 1.088786721229553223e-01 9.703052043914794922e-02 1.348071843385696411e-01
3.400000000000000000e+02 5.008940505981445312e+01 -1.596678048372268677e-01 -1.043322682380676270e+00 3.600657731294631958e-02 -3.021948337554931641e-01 2.430239617824554443e-01
3.410000000000000000e+02 5.009879302978515625e+01 -9.257032275199890137e-01 -1.073021411895751953e+00 3.412079997360706329e-03 -3.208828270435333252e-01 2.479291409254074097e-01
3.420000000000000000e+02 4.926953506469726562e+01 -2.471373319625854492e+00 -8.814656734466552734e-01 3.699751198291778564e-01 -1.534471660852432251e-01 2.797506153583526611e-01
3.430000000000000000e+02 5.073532104492187500e+01 -7.252552986145019531e+00 -3.304985463619232178e-01 8.863591551780700684e-01 1.667581796646118164e-01 8.438296318054199219e-01
3.440000000000000000e+02 5.063925933837890625e+01 -8.826376914978027344e+00 9.315139055252075195e-01 8.687713146209716797e-01 5.400855541229248047e-01 8.428096175193786621e-01
3.450000000000000000e+02 5.174663543701171875e+01 -8.148524284362792969e+00 4.863153398036956787e-02 4.116528630256652832e-01 1.380853205919265747e-01 6.021329760551452637e-01
3.460000000000000000e+02 4.937928390502929688e+01 -1.779320836067199707e-01 -1.119542479515075684e+00 8.307041227817535400e-02 -3.109416067600250244e-01 2.100931853055953979e-01
3.470000000000000000e+02 4.635340881347656250e+01 -4.313439130783081055e-03 -9.244443178176879883e-01 1.527238339185714722e-01 -2.315161526203155518e-01 -1.102539077401161194e-01
3.480000000000000000e+02 4.367033767700195312e+01 -6.025500297546386719e-01 -8.557534217834472656e-01 1.036019697785377502e-01 -2.256454378366470337e-01 -4.583311676979064941e-01
3.490000000000000000e+02 4.190589904785156250e+01 3.837800920009613037e-01 -2.761368155479431152e-01 -1.939840763807296753e-01 -1.410362720489501953e-01 -2.835101485252380371e-01
3.500000000000000000e+02 4.049757766723632812e+01 -2.458746671676635742e+00 -1.806887149810791016e+00 -1.022842764854431152e+00 -8.489189743995666504e-01 -1.139937281608581543e+00
3.510000000000000000e+02 4.234384536743164062e+01 -5.684277534484863281e+00 -1.083982110023498535e+00 2.818401157855987549e-01 -2.406425923109054565e-01 -1.414176523685455322e-01
3.520000000000000000e+02 4.622930145263671875e+01 -1.149165248870849609e+01 6.898708343505859375e-01 1.653504252433776855e+00 7.030125260353088379e-01 6.359313130378723145e-01
3.530000000000000000e+02 4.845144653320312500e+01 -1.063788890838623047e+01 1.140131235122680664e+00 2.003622293472290039e+00 9.431260228157043457e-01 1.262862682342529297e+00
3.540000000000000000e+02 4.954450607299804688e+01 -9.678791999816894531e+00 1.086752891540527344e+00 1.283436775207519531e+00 7.110568881034851074e-01 1.136341691017150879e+00
3.550000000000000000e+02 4.007020568847656250e+01 -5.285616874694824219e+00 -1.454401969909667969e+00 -3.009924292564392090e-01 -5.266183018684387207e-01 -3.413254320621490479e-01
3.560000000000000000e+02 4.011755752563476562e+01 -6.623649120330810547e+00 -9.795855283737182617e-01 -1.774448901414871216e-01 -3.471091389656066895e-01 -2.425358444452285767e-01
3.570000000000000000e+02 3.957698440551757812e+01 -1.320429420471191406e+01 6.176682114601135254e-01 1.160572166554629803e-03 1.856486350297927856e-01 1.454667840152978897e-02
3.580000000000000000e+02 3.969688796997070312e+01 -1.804932975769042969e+01 5.435662865638732910e-01 2.721020877361297607e-01 2.447005063295364380e-01 -1.978876143693923950e-01
3.590000000000000000e+02 3.890514755249023438e+01 -2.074479484558105469e+01 1.936311721801757812e-01 2.345438003540039062e-01 1.284524947404861450e-01 -9.946961700916290283e-02
3.600000000000000000e+02 3.929134750366210938e+01 -2.440597534179687500e+01 6.517379730939865112e-02 3.221735060214996338e-01 1.162041872739791870e-01 1.334950178861618042e-01
3.610000000000000000e+02 4.152410507202148438e+01 -2.728714179992675781e+01 9.876812994480133057e-02 7.032869458198547363e-01 2.406165152788162231e-01 1.739540994167327881e-01
3.620000000000000000e+02 4.022455978393554688e+01 -3.307381439208984375e+01 1.768815517425537109e-01 3.817665278911590576e-01 1.675944328308105469e-01 9.875762462615966797e-02
3.630000000000000000e+02 3.761765670776367188e+01 -4.101667404174804688e+01 3.146885335445404053e-01 2.096077650785446167e-01 1.572888940572738647e-01 1.109421346336603165e-02
3.640000000000000000e+02 4.234054183959960938e+01 -4.101953887939453125e+01 3.155320882797241211e-01 3.545586466789245605e-01 2.010272294282913208e-01 -1.117824390530586243e-02
3.650000000000000000e+02 4.195330047607421875e+01 -3.795388031005859375e+01 2.635940313339233398e-01 3.824655115604400635e-01 1.938178539276123047e-01 -8.475621230900287628e-03
3.660000000000000000e+02 4.334981155395507812e+01 -3.373062896728515625e+01 1.514856964349746704e-01 5.807384848594665527e-01 2.196672558784484863e-01 -3.631425276398658752e-02
3.670000000000000000e+02 4.188968276977539062e+01 -3.205768966674804688e+01 1.163267195224761963e-01 5.458846688270568848e-01 1.986634135246276855e-01 9.197472035884857178e-02
3.680000000000000000e+02 4.314956665039062500e+01 -2.746214103698730469e+01 8.674336969852447510e-02 9.919719099998474121e-01 3.236145675182342529e-01 8.608395606279373169e-02
3.690000000000000000e+02 4.180980682373046875e+01 -2.262991523742675781e+01 2.488032579421997070e-01 9.328156113624572754e-01 3.544856607913970947e-01 -4.857724532485008240e-03
3.700000000000000000e+02 4.443178176879882812e+01 -2.053536033630371094e+01 3.173853754997253418e-01 1.864704370498657227e+00 6.546269655227661133e-01 -1.524879187345504761e-01
3.710000000000000000e+02 4.500576019287109375e+01 -1.697748374938964844e+01 2.584517896175384521e-01 2.077775001525878906e+00 7.008680105209350586e-01 2.305674999952316284e-01
3.720000000000000000e+02 4.247253417968750000e+01 -1.178839874267578125e+01 4.137422144412994385e-01 5.618649125099182129e-01 2.926821410655975342e-01 1.652305275201797485e-01
3.730000000000000000e+02 4.227337646484375000e+01 -1.003806114196777344e+01 6.233035773038864136e-02 4.142152369022369385e-01 1.429636776447296143e-01 7.306668162345886230e-02
3.740000000000000000e+02 4.120888519287109375e+01 -5.490837097167968750e+00 -1.304887056350708008e+00 -7.910693436861038208e-02 -4.151981770992279053e-01 -2.385516315698623657e-01
3.750000000000000000e+02 2.798977470397949219e+01 -4.276925086975097656e+00 -8.697070479393005371e-01 -2.002389729022979736e-01 -3.209838271141052246e-01 4.447371065616607666e-01
3.760000000000000000e+02 2.587241172790527344e+01 -2.936202526092529297e+00 -4.515292048454284668e-01 4.210578277707099915e-02 -1.228270232677459717e-01 1.434490829706192017e-01
3.770000000000000000e+02 2.496204376220703125e+01 -3.037011623382568359e+00 -4.534056782722473145e-01 7.774154841899871826e-02 -1.126992404460906982e-01 7.531806826591491699e-02
3.780000000000000000e+02 2.146379661560058594e+01 -4.186367511749267578e+00 -3.871746659278869629e-01 8.218006044626235962e-02 -9.149838238954544067e-02 -1.775101870298385620e-01
3.790000000000000000e+02 2.135130119323730469e+01 -4.979827880859375000e+00 -4.136564135551452637e-01 1.121827512979507446e-01 -9.044209867715835571e-02 -2.401011586189270020e-01
3.800000000000000000e+02 2.249647712707519531e+01 -1.178598594665527344e+01 -8.725710213184356689e-02 1.351399719715118408e-01 1.436486002057790756e-02 -3.498793244361877441e-01
3.810000000000000000e+02 2.206360244750976562e+01 -1.414284324645996094e+01 2.821580767631530762e-01 1.989884860813617706e-02 9.061708301305770874e-02 -1.279240399599075317e-01
3.820000000000000000e+02 3.097086143493652344e+01 -1.335133552551269531e+01 7.948028445243835449e-01 1.306189894676208496e-01 2.776265442371368408e-01 -4.170829057693481445e-01
3.830000000000000000e+02 3.001565170288085938e+01 -1.491933250427246094e+01 1.596473693847656250e+00 5.328995175659656525e-03 4.805408120155334473e-01 -2.861528992652893066e-01
3.840000000000000000e+02 3.045555114746093750e+01 -8.534994125366210938e+00 -9.451622366905212402e-01 -2.690398693084716797e-01 -3.642606139183044434e-01 -4.006339907646179199e-01
3.850000000000000000e+02 2.972377586364746094e+01 -6.109667778015136719e+00 -2.104657649993896484e+00 -3.507947921752929688e-01 -7.366357445716857910e-01 -3.790091490373015404e-03
3.860000000000000000e+02 2.894222068786621094e+01 -5.033113002777099609e+00 -1.969782233238220215e+00 -3.509016335010528564e-01 -6.962051987648010254e-01 4.667880833148956299e-01
3.870000000000000000e+02 2.071272468566894531e+01 -3.421214103698730469e+00 -2.914035022258758545e-01 3.995294496417045593e-02 -7.543516904115676880e-02 -1.588976681232452393e-01
3.880000000000000000e+02 1.816444969177246094e+01 -4.019684791564941406e+00 -1.511377543210983276e-01 1.964142173528671265e-02 -3.944889828562736511e-02 -2.368196398019790649e-01
3.890000000000000000e+02 1.830934524536132812e+01 -6.219623088836669922e+00 -3.016990125179290771e-01 1.001677010208368301e-02 -8.750467002391815186e-02 -3.659619092941284180e-01
3.900000000000000000e+02 1.779255485534667969e+01 -1.118559169769287109e+01 -6.692519187927246094e-01 -1.747207529842853546e-02 -2.060171961784362793e-01 -4.426387548446655273e-01
3.910000000000000000e+02 1.839244270324707031e+01 -1.275717544555664062e+01 -2.031183093786239624e-01 8.313541114330291748e-02 -3.599486872553825378e-02 1.016086246818304062e-02
3.920000000000000000e+02 1.957998466491699219e+01 -1.334370708465576172e+01 -6.595139391720294952e-03 3.632385656237602234e-02 8.918614126741886139e-03 -9.842658042907714844e-02
3.930000000000000000e+02 1.751290130615234375e+01 -3.196385860443115234e+00 -3.762492537498474121e-02 2.079713530838489532e-02 -5.048336926847696304e-03 -1.775621920824050903e-01
3.940000000000000000e+02 1.596222972869873047e+01 -2.963103294372558594e+00 7.791719585657119751e-02 6.069538183510303497e-03 2.519601956009864807e-02 -1.414337456226348877e-01
3.950000000000000000e+02 1.588635349273681641e+01 -6.098793983459472656e+00 -1.784161031246185303e-01 -1.335937231779098511e-01 -9.360294789075851440e-02 -2.826153635978698730e-01
3.960000000000000000e+02 1.600244522094726562e+01 -1.140497875213623047e+01 -1.011778831481933594e+00 -4.206131398677825928e-01 -4.297176003456115723e-01 -3.959015905857086182e-01
3.970000000000000000e+02 1.720017623901367188e+01 -1.219089031219482422e+01 -9.668127894401550293e-01 -8.783704787492752075e-02 -3.163949549198150635e-01 -1.345308572053909302e-01
3.980000000000000000e+02 1.520108032226562500e+01 -2.829905271530151367e+00 1.212928071618080139e-01 -6.088401656597852707e-03 3.456132113933563232e-02 -1.221512705087661743e-01
3.990000000000000000e+02 1.139293861389160156e+01 -2.839757680892944336e+00 1.698553115129470825e-01 -5.469930917024612427e-02 3.454679995775222778e-02 -1.003302633762359619e-03
4.000000000000000000e+02 1.140727901458740234e+01 -5.844990730285644531e+00 -3.434570133686065674e-02 -1.656895428895950317e-01 -6.001057103276252747e-02 -1.543312519788742065e-02
4.010000000000000000e+02 1.231360244750976562e+01 -1.145456790924072266e+01 -5.542590022087097168e-01 -5.338424444198608398e-01 -3.264304101467132568e-01 -2.251004129648208618e-01
4.020000000000000000e+02 1.308796310424804688e+01 -1.400600624084472656e+01 -9.030604362487792969e-01 -1.015709042549133301e+00 -5.756308436393737793e-01 -8.245927691459655762e-01
4.030000000000000000e+02 1.162932014465332031e+01 -1.697669029235839844e+01 -2.085469514131546021e-01 -1.078588724136352539e+00 -3.861407041549682617e-01 -3.284164369106292725e-01
4.040000000000000000e+02 1.172264766693115234e+01 -2.078622627258300781e+01 1.429450809955596924e-01 1.603756682015955448e-03 4.336465150117874146e-02 -1.830790936946868896e-01
4.050000000000000000e+02 1.164219379425048828e+01 -1.820932197570800781e+01 2.281285449862480164e-02 -6.886614561080932617e-01 -1.997545808553695679e-01 -1.035849899053573608e-01
4.060000000000000000e+02 7.817905426025390625e+00 -2.548447847366333008e+00 1.406921297311782837e-01 -2.724102884531021118e-02 3.403532877564430237e-02 6.951589137315750122e-02
4.070000000000000000e+02 8.668803215026855469e+00 -1.854982376098632812e+00 1.956243962049484253e-01 -2.632691152393817902e-02 5.078924447298049927e-02 4.025524854660034180e-02
4.080000000000000000e+02 4.136044979095458984e+00 -2.569425821304321289e+00 6.075046584010124207e-02 1.350456848740577698e-02 2.227651141583919525e-02 8.348057419061660767e-02
4.090000000000000000e+02 6.066974401473999023e-01 -5.015975952148437500e+00 8.163715247064828873e-04 1.309280097484588623e-01 3.952331095933914185e-02 2.890191227197647095e-02
4.100000000000000000e+02 1.703885555267333984e+00 -7.852764129638671875e+00 -8.837812580168247223e-03 1.836680918931961060e-01 5.244908481836318970e-02 6.146568059921264648e-02
4.110000000000000000e+02 4.018866062164306641e+00 -1.031353950500488281e+01 -8.380009233951568604e-02 5.470314249396324158e-02 -8.729084394872188568e-03 2.435753680765628815e-02
4.120000000000000000e+02 1.060349845886230469e+01 -1.309425258636474609e+01 -5.594472289085388184e-01 -4.671851694583892822e-01 -3.079897165298461914e-01 -2.651069164276123047e-01
4.130000000000000000e+02 9.798080444335937500e+00 -1.218960094451904297e+01 -4.716250896453857422e-01 -3.429163098335266113e-01 -2.443624138832092285e-01 -1.473785936832427979e-01
4.140000000000000000e+02 1.060065841674804688e+01 -1.137029075622558594e+01 -4.444368183612823486e-01 -3.817220926284790039e-01 -2.478476762771606445e-01 -1.273524910211563110e-01
4.150000000000000000e+02 8.247115135192871094e+00 -5.695528507232666016e+00 -1.790245994925498962e-02 -8.961705863475799561e-02 -3.225585445761680603e-02 8.336394280195236206e-02
4.160000000000000000e+02 4.282813072204589844e+00 -5.721171379089355469e+00 2.476111403666436672e-04 3.322259709239006042e-02 1.004106272011995316e-02 1.149819195270538330e-01
4.170000000000000000e+02 5.643444061279296875e+00 -5.275691032409667969e+00 1.057764794677495956e-02 -1.048789359629154205e-02 2.692634006962180138e-05 1.167460605502128601e-01
4.180000000000000000e+02 3.420791387557983398e+00 -1.871513485908508301e+00 5.702839046716690063e-02 1.166262850165367126e-02 2.060730569064617157e-02 6.155298650264739990e-02
4.190000000000000000e+02 4.901638984680175781e+00 -1.841396331787109375e+00 9.751008450984954834e-02 1.894867047667503357e-03 2.982148528099060059e-02 7.224693149328231812e-02
4.200000000000000000e+02 5.696231722831726074e-01 -9.247792243957519531e+00 -3.458290128037333488e-03 3.151817321777343750e-01 9.351703524589538574e-02 1.655877009034156799e-02
4.210000000000000000e+02 1.748884201049804688e+00 -1.054134368896484375e+01 -2.120539359748363495e-02 2.209600359201431274e-01 5.992639064788818359e-02 1.823513396084308624e-02
4.220000000000000000e+02 4.337014198303222656e+00 -1.281122589111328125e+01 -1.304679661989212036e-01 1.110357977449893951e-02 -3.580931574106216431e-02 -9.147167950868606567e-02
4.230000000000000000e+02 9.413602828979492188e+00 -1.556476879119873047e+01 -4.356712698936462402e-01 -4.448033571243286133e-01 -2.641423940658569336e-01 -3.821270465850830078e-01
4.240000000000000000e+02 1.045547771453857422e+01 -1.482784748077392578e+01 -5.398977398872375488e-01 -5.552432537078857422e-01 -3.285423219203948975e-01 -3.991913795471191406e-01
4.250000000000000000e+02 6.099600195884704590e-01 -1.204318046569824219e+01 -7.856346666812896729e-03 3.435304164886474609e-01 1.007022187113761902e-01 -7.161134853959083557e-03
4.260000000000000000e+02 1.910070180892944336e+00 -1.330876827239990234e+01 -3.772626817226409912e-02 1.719351857900619507e-01 4.026267305016517639e-02 -6.161224469542503357e-02
4.270000000000000000e+02 4.634824275970458984e+00 -1.775651741027832031e+01 -6.288015097379684448e-02 -1.753081381320953369e-01 -7.145648449659347534e-02 -3.365843296051025391e-01
4.280000000000000000e+02 9.710934638977050781e+00 -1.807585144042968750e+01 -1.635157763957977295e-01 -3.662339448928833008e-01 -1.589249223470687866e-01 -4.309858381748199463e-01
4.290000000000000000e+02 1.136994838714599609e+01 -2.218407821655273438e+01 2.560630142688751221e-01 5.019650608301162720e-02 9.187785536050796509e-02 -2.736607491970062256e-01
4.300000000000000000e+02 6.757405996322631836e-01 -1.630660247802734375e+01 -5.446344614028930664e-03 1.332966238260269165e-01 3.835508227348327637e-02 -5.547516047954559326e-02
4.310000000000000000e+02 3.297485828399658203e+00 -1.772256851196289062e+01 -4.144241288304328918e-02 -1.320626437664031982e-01 -5.205151438713073730e-02 -2.653877139091491699e-01
4.320000000000000000e+02 4.554523468017578125e+00 -1.921034812927246094e+01 -2.190078422427177429e-02 -2.553750276565551758e-01 -8.318273723125457764e-02 -3.569367825984954834e-01
4.330000000000000000e+02 1.078193092346191406e+01 -2.366576194763183594e+01 3.425435125827789307e-01 -7.035621255636215210e-02 8.165618777275085449e-02 -2.854238748550415039e-01
4.340000000000000000e+02 1.340825748443603516e+01 -2.367659568786621094e+01 3.948518335819244385e-01 4.244043529033660889e-01 2.457768470048904419e-01 -3.952310979366302490e-01
4.350000000000000000e+02 1.518442058563232422e+01 -2.776401519775390625e+01 4.253702759742736816e-01 2.778279483318328857e-01 2.109594643115997314e-01 -3.130037486553192139e-01
4.360000000000000000e+02 1.406725311279296875e+01 -2.889651870727539062e+01 3.329920172691345215e-01 1.597023904323577881e-01 1.478083282709121704e-01 -2.064591199159622192e-01
4.370000000000000000e+02 1.805707740783691406e+01 -3.176399803161621094e+01 3.184988200664520264e-01 2.543261945247650146e-01 1.718475073575973511e-01 -1.879007816314697266e-01
4.380000000000000000e+02 2.006785964965820312e+01 -3.736910247802734375e+01 1.520977020263671875e-01 2.001537531614303589e-01 1.056754365563392639e-01 -9.855373203754425049e-02
4.390000000000000000e+02 2.258721923828125000e+01 -4.102772521972656250e+01 1.561128646135330200e-01 1.856374293565750122e-01 1.025250852108001709e-01 -2.860794216394424438e-02
4.400000000000000000e+02 2.664674186706542969e+01 -4.089629745483398438e+01 2.533355355262756348e-01 1.303057968616485596e-01 1.150923967361450195e-01 -2.511528879404067993e-02
4.410000000000000000e+02 2.953832817077636719e+01 -3.918347930908203125e+01 3.023445606231689453e-01 9.118103235960006714e-02 1.180576756596565247e-01 -3.850196301937103271e-02
4.420000000000000000e+02 3.100412940979003906e+01 -3.636758804321289062e+01 3.192116022109985352e-01 4.943223670125007629e-02 1.105931475758552551e-01 -4.778765141963958740e-02
4.430000000000000000e+02 3.100632667541503906e+01 -3.013147544860839844e+01 1.512304991483688354e-01 -7.056551985442638397e-03 4.325218498706817627e-02 -1.154500246047973633e-02
4.440000000000000000e+02 2.965108680725097656e+01 -3.058205223083496094e+01 2.395459264516830444e-01 -6.756459362804889679e-03 6.983684003353118896e-02 -5.392320919781923294e-03
4.450000000000000000e+02 2.822675704956054688e+01 -3.083031463623046875e+01 3.077409267425537109e-01 1.673124171793460846e-02 9.734164923429489136e-02 -2.177123166620731354e-02
4.460000000000000000e+02 2.676458549499511719e+01 -3.094065856933593750e+01 3.818649947643280029e-01 1.645082049071788788e-02 1.194947436451911926e-01 -4.594948515295982361e-02
4.470000000000000000e+02 2.702032279968261719e+01 -3.672934722900390625e+01 2.722837924957275391e-01 1.055424809455871582e-01 1.133478805422782898e-01 -9.761711210012435913e-02
4.480000000000000000e+02 6.354034543037414551e-01 -1.915326690673828125e+01 -2.778252353891730309e-03 -1.346780955791473389e-01 -4.123690351843833923e-02 -6.827799975872039795e-02
4.490000000000000000e+02 1.823716402053833008e+00 -2.052900314331054688e+01 2.426726510748267174e-03 -2.814256548881530762e-01 -8.369968086481094360e-02 -1.815448701381683350e-01
4.500000000000000000e+02 4.858795642852783203e+00 -2.494783973693847656e+01 1.075715571641921997e-01 -4.535237848758697510e-01 -1.037856638431549072e-01 -2.443547844886779785e-01
4.510000000000000000e+02 1.013861083984375000e+01 -2.619637870788574219e+01 2.795911431312561035e-01 -1.262011229991912842e-01 4.601700976490974426e-02 -2.127510160207748413e-01
4.520000000000000000e+02 1.312236976623535156e+01 -2.766064453125000000e+01 3.278496861457824707e-01 1.264566481113433838e-01 1.362919062376022339e-01 -2.245218157768249512e-01
4.530000000000000000e+02 1.230558681488037109e+01 -3.275831222534179688e+01 1.455179154872894287e-01 -2.697303332388401031e-02 3.556346520781517029e-02 -7.704478502273559570e-02
4.540000000000000000e+02 1.619561767578125000e+01 -3.873459243774414062e+01 6.386168301105499268e-02 1.123916879296302795e-01 5.287601426243782043e-02 -5.099796131253242493e-02
4.550000000000000000e+02 1.919728279113769531e+01 -3.994235992431640625e+01 9.927656501531600952e-02 1.881736367940902710e-01 8.623506128787994385e-02 -4.280706495046615601e-02
4.560000000000000000e+02 6.119458675384521484e-01 -2.197010993957519531e+01 2.585859969258308411e-03 -4.406791329383850098e-01 -1.314279884099960327e-01 -6.063985824584960938e-02
4.570000000000000000e+02 1.941070556640625000e+00 -2.328079414367675781e+01 2.133061364293098450e-02 -5.011103153228759766e-01 -1.439339071512222290e-01 -1.542754471302032471e-01
4.580000000000000000e+02 5.921324729919433594e+00 -2.796710205078125000e+01 1.199986413121223450e-01 -4.344333410263061523e-01 -9.433040767908096313e-02 -1.566162705421447754e-01
4.590000000000000000e+02 6.157508373260498047e+00 -2.936509704589843750e+01 1.050478592514991760e-01 -4.257967770099639893e-01 -9.622467309236526489e-02 -1.163366362452507019e-01
4.600000000000000000e+02 1.050039196014404297e+01 -3.421265029907226562e+01 8.914283663034439087e-02 -1.398208886384963989e-01 -1.520341541618108749e-02 -5.053340643644332886e-02
4.610000000000000000e+02 1.261691093444824219e+01 -3.866275024414062500e+01 3.141401335597038269e-02 -3.146893903613090515e-02 -1.647792487347032875e-05 -2.482582814991474152e-02
4.620000000000000000e+02 1.677400016784667969e+01 -4.125835037231445312e+01 5.249816179275512695e-02 1.276543885469436646e-01 5.404576286673545837e-02 -1.368499640375375748e-02
4.630000000000000000e+02 6.730305552482604980e-01 -2.761080741882324219e+01 7.921016775071620941e-03 -8.396973013877868652e-01 -2.495328933000564575e-01 -2.525607123970985413e-02
4.640000000000000000e+02 2.115820884704589844e+00 -2.890582084655761719e+01 1.733182184398174286e-02 -7.434282302856445312e-01 -2.178289294242858887e-01 -5.883669853210449219e-02
4.650000000000000000e+02 5.567320823669433594e+00 -3.053073120117187500e+01 7.750137895345687866e-02 -4.778209626674652100e-01 -1.200958788394927979e-01 -8.183865249156951904e-02
4.660000000000000000e+02 6.890834808349609375e+00 -3.408213806152343750e+01 6.083102151751518250e-02 -3.971325755119323730e-01 -1.008904650807380676e-01 -3.576966002583503723e-02
4.670000000000000000e+02 9.154304504394531250e+00 -3.859238433837890625e+01 8.480312302708625793e-03 -2.766207456588745117e-01 -8.044213056564331055e-02 -1.087250933051109314e-02
4.680000000000000000e+02 1.251644134521484375e+01 -4.128008270263671875e+01 1.245216280221939087e-02 -4.652081057429313660e-02 -1.022059470415115356e-02 -5.192599724978208542e-03
4.690000000000000000e+02 7.182553410530090332e-01 -2.903108787536621094e+01 -9.705512784421443939e-04 -8.853625655174255371e-01 -2.658999264240264893e-01 -1.871527545154094696e-02
4.700000000000000000e+02 2.347479343414306641e+00 -3.032621192932128906e+01 1.681937463581562042e-02 -7.502210736274719238e-01 -2.200205177068710327e-01 -4.476078227162361145e-02
4.710000000000000000e+02 8.952885270118713379e-01 -3.473888397216796875e+01 3.769603325054049492e-03 -9.355852007865905762e-01 -2.795446813106536865e-01 6.559031549841165543e-03
4.720000000000000000e+02 8.646005392074584961e-01 -3.616305541992187500e+01 -7.462153676897287369e-03 -9.274674654006958008e-01 -2.804788947105407715e-01 3.994775004684925079e-03
4.730000000000000000e+02 1.269581079483032227e+00 -4.000440597534179688e+01 1.403384935110807419e-02 -8.532877564430236816e-01 -2.517761588096618652e-01 2.841529995203018188e-02
4.740000000000000000e+02 5.019854068756103516e+00 -4.022157287597656250e+01 -1.403457019478082657e-02 -6.038785576820373535e-01 -1.853739321231842041e-01 -2.311211265623569489e-02
4.750000000000000000e+02 8.155946731567382812e+00 -4.116212844848632812e+01 -2.972933463752269745e-03 -3.438292443752288818e-01 -1.040406525135040283e-01 -2.548565622419118881e-03
4.760000000000000000e+02 6.516927719116210938e+00 -3.795220565795898438e+01 1.461484283208847046e-02 -4.254827201366424561e-01 -1.232603639364242554e-01 -1.368758454918861389e-02
4.770000000000000000e+02 4.157568931579589844e+00 -3.402585220336914062e+01 2.526138536632061005e-02 -6.295670866966247559e-01 -1.812917143106460571e-01 -2.387591823935508728e-02
4.780000000000000000e+02 2.022626638412475586e+00 -4.160290145874023438e+01 -3.191197663545608521e-02 -8.404294252395629883e-01 -2.617024183273315430e-01 9.064568206667900085e-03
4.790000000000000000e+02 3.311302566528320312e+01 -4.076259613037109375e+01 3.207567930221557617e-01 1.087309345602989197e-01 1.288463175296783447e-01 -5.469516851007938385e-03
4.800000000000000000e+02 3.411090850830078125e+01 -3.754472732543945312e+01 3.247104585170745850e-01 9.496716409921646118e-02 1.259032785892486572e-01 -8.572457008995115757e-04
4.810000000000000000e+02 3.435888671875000000e+01 -3.036713218688964844e+01 1.823790073394775391e-01 -1.031437814235687256e-01 2.377057075500488281e-02 3.322378173470497131e-02
4.820000000000000000e+02 3.599247360229492188e+01 -2.729597854614257812e+01 1.058824453502893448e-02 -2.262635529041290283e-01 -6.470259279012680054e-02 1.460915803909301758e-02
4.830000000000000000e+02 3.773357391357421875e+01 -2.578868675231933594e+01 4.008403420448303223e-02 -2.794116735458374023e-02 3.642859635874629021e-03 1.552234888076782227e-01
4.840000000000000000e+02 3.624826431274414062e+01 -2.314242362976074219e+01 -5.718519538640975952e-02 -7.225275039672851562e-01 -2.339138239622116089e-01 -3.364345803856849670e-02
4.850000000000000000e+02 3.734222412109375000e+01 -1.902008628845214844e+01 2.844525873661041260e-01 -1.521441936492919922e-01 3.969252482056617737e-02 -2.780842483043670654e-01
4.860000000000000000e+02 3.611783981323242188e+01 -2.037394142150878906e+01 2.202393254265189171e-03 -7.232014536857604980e-01 -2.162997126579284668e-01 -3.134450409561395645e-03
4.870000000000000000e+02 3.744284057617187500e+01 -1.783279800415039062e+01 5.499482750892639160e-01 -2.304101735353469849e-01 9.586142748594284058e-02 -3.171806335449218750e-01
4.880000000000000000e+02 3.667285537719726562e+01 -1.528956031799316406e+01 9.944298267364501953e-01 -3.087785243988037109e-01 2.056953907012939453e-01 -1.648719012737274170e-01
4.890000000000000000e+02 3.385478973388671875e+01 -1.068511581420898438e+01 -3.637405484914779663e-02 -2.325695753097534180e-01 -8.068308979272842407e-02 -1.238100454211235046e-01
4.900000000000000000e+02 3.503371429443359375e+01 -1.321216297149658203e+01 7.944244742393493652e-01 -2.400326430797576904e-01 1.663175523281097412e-01 -1.454672776162624359e-02
4.910000000000000000e+02 3.128890991210937500e+01 -1.495587825775146484e+01 1.823632717132568359e+00 1.742745637893676758e-01 5.993722081184387207e-01 -3.905894458293914795e-01
4.920000000000000000e+02 3.327934646606445312e+01 -1.567405223846435547e+01 1.843611598014831543e+00 4.069942235946655273e-01 6.751817464828491211e-01 -6.173760890960693359e-01
4.930000000000000000e+02 3.420759963989257812e+01 -1.647729682922363281e+01 1.073007822036743164e+00 4.139449596405029297e-01 4.460858404636383057e-01 -6.152259707450866699e-01
4.940000000000000000e+02 3.509700775146484375e+01 -1.731998825073242188e+01 5.036993026733398438e-01 -2.723211608827114105e-02 1.429401636123657227e-01 -3.103305399417877197e-01
4.950000000000000000e+02 3.654794692993164062e+01 -1.648363113403320312e+01 9.511645436286926270e-01 -2.802018225193023682e-01 2.012888193130493164e-01 -3.260518312454223633e-01
4.960000000000000000e+02 3.779947662353515625e+01 -3.805831909179687500e+01 3.010193109512329102e-01 2.097910642623901367e-01 1.532431095838546753e-01 3.383621945977210999e-02
4.970000000000000000e+02 3.785769653320312500e+01 -3.521860885620117188e+01 2.771471440792083740e-01 1.950678825378417969e-01 1.416645050048828125e-01 6.472438573837280273e-02
4.980000000000000000e+02 3.796941757202148438e+01 -3.049758911132812500e+01 1.783348768949508667e-01 2.008694261312484741e-01 1.137612909078598022e-01 1.561941951513290405e-01
4.990000000000000000e+02 3.571597671508789062e+01 -2.578661537170410156e+01 -4.303429275751113892e-02 -4.243180751800537109e-01 -1.402057111263275146e-01 -7.710532099008560181e-02
5.000000000000000000e+02 4.707267379760742188e+01 -4.090769577026367188e+01 4.061180949211120605e-01 4.089521765708923340e-01 2.445210814476013184e-01 -4.103899374604225159e-02
5.010000000000000000e+02 4.625959777832031250e+01 -3.768338394165039062e+01 3.252583146095275879e-01 4.766621291637420654e-01 2.405761331319808960e-01 -1.389404535293579102e-01
5.020000000000000000e+02 4.616360473632812500e+01 -3.452246856689453125e+01 1.458676457405090332e-01 6.118640899658203125e-01 2.273195087909698486e-01 -1.812311261892318726e-01
5.030000000000000000e+02 4.577194595336914062e+01 -2.589954757690429688e+01 2.135997265577316284e-01 1.368192434310913086e+00 4.745376408100128174e-01 -2.023950964212417603e-01
5.040000000000000000e+02 4.741261291503906250e+01 -2.474044990539550781e+01 6.486210823059082031e-01 1.821030855178833008e+00 7.408955693244934082e-01 -8.499262928962707520e-01
5.050000000000000000e+02 4.474122619628906250e+01 -2.443194580078125000e+01 3.064124882221221924e-01 1.527431964874267578e+00 5.501533150672912598e-01 -1.034451797604560852e-01
5.060000000000000000e+02 4.639068222045898438e+01 -2.287709236145019531e+01 4.159940779209136963e-01 2.522244215011596680e+00 8.814714550971984863e-01 -6.393948793411254883e-01
5.070000000000000000e+02 4.617350006103515625e+01 -2.156093597412109375e+01 1.712464690208435059e-01 2.710280656814575195e+00 8.644581437110900879e-01 -4.026276767253875732e-01
5.080000000000000000e+02 4.464447784423828125e+01 -1.833820152282714844e+01 2.658711373805999756e-01 2.003809213638305664e+00 6.809040904045104980e-01 -1.194645417854189873e-03
5.090000000000000000e+02 4.377243804931640625e+01 -1.660716629028320312e+01 4.540863633155822754e-01 1.498888611793518066e+00 5.858924984931945801e-01 1.399298310279846191e-01
5.100000000000000000e+02 4.555969619750976562e+01 -1.427862071990966797e+01 4.772282540798187256e-01 2.035696983337402344e+00 7.538775801658630371e-01 5.613585710525512695e-01
5.110000000000000000e+02 5.160559463500976562e+01 -4.066151428222656250e+01 6.382654309272766113e-01 4.432041347026824951e-01 3.244408667087554932e-01 -9.908495098352432251e-02
5.120000000000000000e+02 5.013504028320312500e+01 -3.733717346191406250e+01 4.105013608932495117e-01 4.696964919567108154e-01 2.640593647956848145e-01 -2.627265155315399170e-01
5.130000000000000000e+02 4.935861206054687500e+01 -3.462435913085937500e+01 2.275078445672988892e-01 5.692409873008728027e-01 2.390246540307998657e-01 -3.574936091899871826e-01
5.140000000000000000e+02 5.239496994018554688e+01 -2.929458999633789062e+01 5.242299288511276245e-02 2.308594435453414917e-01 8.498473465442657471e-02 -2.740925252437591553e-01
5.150000000000000000e+02 5.381969070434570312e+01 -2.980804443359375000e+01 -2.829153537750244141e-01 8.548178523778915405e-02 -5.923007428646087646e-02 -1.914649456739425659e-01
5.160000000000000000e+02 5.012646865844726562e+01 -2.756363487243652344e+01 4.378218352794647217e-01 6.234495043754577637e-01 3.183813989162445068e-01 -5.256620049476623535e-01
5.170000000000000000e+02 5.141266250610351562e+01 -3.094435119628906250e+01 9.710358455777168274e-03 5.383610725402832031e-01 1.644214391708374023e-01 -4.476324617862701416e-01
5.180000000000000000e+02 5.323603057861328125e+01 -3.611758804321289062e+01 4.820161163806915283e-01 3.670788705348968506e-01 2.547284960746765137e-01 -3.347941935062408447e-01
5.190000000000000000e+02 5.532812500000000000e+01 -3.003831291198730469e+01 -5.918120145797729492e-01 3.726045601069927216e-03 -1.764257848262786865e-01 -1.898774355649948120e-01
5.200000000000000000e+02 5.518641662597656250e+01 -3.903599166870117188e+01 7.574728131294250488e-01 5.338288545608520508e-01 3.873904943466186523e-01 -1.098645702004432678e-01
5.210000000000000000e+02 5.749507141113281250e+01 -3.651295852661132812e+01 7.269895076751708984e-01 6.693705916404724121e-01 4.189080297946929932e-01 -4.426046088337898254e-02
5.220000000000000000e+02 5.573772811889648438e+01 -3.457401275634765625e+01 4.784086048603057861e-01 2.705684006214141846e-01 2.246931046247482300e-01 -2.823446989059448242e-01
5.230000000000000000e+02 5.973899459838867188e+01 -2.921499443054199219e+01 -8.644511699676513672e-01 1.712653972208499908e-02 -2.541973888874053955e-01 -1.806262433528900146e-01
5.240000000000000000e+02 5.876219177246093750e+01 -3.130051231384277344e+01 -8.252839744091033936e-02 2.333775758743286133e-01 4.525475576519966125e-02 3.771385923027992249e-02
5.250000000000000000e+02 5.686172103881835938e+01 -2.995618057250976562e+01 -8.767530918121337891e-01 -1.059256773442029953e-02 -2.662037014961242676e-01 -2.010277658700942993e-01
5.260000000000000000e+02 5.848195648193359375e+01 -4.078670120239257812e+01 8.342271447181701660e-01 1.048943519592285156e+00 5.649511814117431641e-01 1.962003670632839203e-02
5.270000000000000000e+02 6.011876296997070312e+01 -3.769168472290039062e+01 7.115573287010192871e-01 1.321624040603637695e+00 6.099544167518615723e-01 1.452686190605163574e-01
5.280000000000000000e+02 5.888370895385742188e+01 -3.458192825317382812e+01 5.266090631484985352e-01 6.739805936813354492e-01 3.601769208908081055e-01 1.022843196988105774e-01
5.290000000000000000e+02 6.418622589111328125e+01 -3.031262779235839844e+01 -7.353296130895614624e-02 2.493216276168823242e+00 7.259050011634826660e-01 9.195099472999572754e-01
5.300000000000000000e+02 6.317036437988281250e+01 -2.669857788085937500e+01 1.926881670951843262e-01 8.322250843048095703e-01 3.074739873409271240e-01 5.006531476974487305e-01
5.310000000000000000e+02 6.696909332275390625e+01 -2.528361701965332031e+01 2.478512823581695557e-01 5.166263580322265625e+00 1.624234437942504883e+00 1.747114658355712891e+00
5.320000000000000000e+02 7.017288208007812500e+01 -2.345146751403808594e+01 4.680746197700500488e-01 7.962643623352050781e+00 2.529215335845947266e+00 3.418474793434143066e-01
5.330000000000000000e+02 7.428906250000000000e+01 -2.572878265380859375e+01 -5.910415202379226685e-02 7.491382122039794922e+00 2.229683399200439453e+00 -4.114746451377868652e-01
5.340000000000000000e+02 7.799977111816406250e+01 -2.456905937194824219e+01 4.641927406191825867e-02 7.462645530700683594e+00 2.252719402313232422e+00 -3.059516251087188721e-01
5.350000000000000000e+02 7.938452911376953125e+01 -2.073465538024902344e+01 3.756900876760482788e-02 6.970574378967285156e+00 2.102442979812622070e+00 -1.715876720845699310e-02
5.360000000000000000e+02 7.815756988525390625e+01 -2.042305183410644531e+01 1.127402260899543762e-01 7.247618675231933594e+00 2.208107709884643555e+00 2.188988775014877319e-02
5.370000000000000000e+02 7.938264465332031250e+01 -1.935327339172363281e+01 1.782876253128051758e-02 7.009755611419677734e+00 2.108275413513183594e+00 5.076329410076141357e-02
5.380000000000000000e+02 7.815530395507812500e+01 -1.627694320678710938e+01 6.995086371898651123e-02 7.702466487884521484e+00 2.331725120544433594e+00 4.231047928333282471e-01
5.390000000000000000e+02 7.537545776367187500e+01 -1.501155948638916016e+01 1.650756001472473145e-01 7.940153598785400391e+00 2.431568861007690430e+00 9.010482430458068848e-01
5.400000000000000000e+02 7.138372802734375000e+01 -1.029388523101806641e+01 -9.937784075736999512e-01 7.187546730041503906e+00 1.858130574226379395e+00 2.968635559082031250e-01
5.410000000000000000e+02 7.262251281738281250e+01 -1.327732944488525391e+01 -2.546645104885101318e-01 7.909700393676757812e+00 2.296510696411132812e+00 9.733319282531738281e-01
5.420000000000000000e+02 6.971003723144531250e+01 -1.483800792694091797e+01 2.153164744377136230e-01 8.451835632324218750e+00 2.600145578384399414e+00 4.087748527526855469e-01
5.430000000000000000e+02 6.826499938964843750e+01 -1.172161102294921875e+01 -1.419930815696716309e+00 5.687132835388183594e+00 1.280160665512084961e+00 -4.861598610877990723e-01
5.440000000000000000e+02 6.795767211914062500e+01 -1.282698535919189453e+01 -1.148614645004272461e+00 6.050321578979492188e+00 1.470512032508850098e+00 -3.453195393085479736e-01
5.450000000000000000e+02 6.286818695068359375e+01 -4.108229064941406250e+01 6.842950582504272461e-01 2.315396070480346680e+00 8.999073505401611328e-01 8.574588596820831299e-02
5.460000000000000000e+02 6.359159851074218750e+01 -3.813501358032226562e+01 5.281566381454467773e-01 2.516376972198486328e+00 9.133601188659667969e-01 3.159933388233184814e-01
5.470000000000000000e+02 6.437865447998046875e+01 -3.313728332519531250e+01 1.256334334611892700e-01 2.648427248001098633e+00 8.322182297706604004e-01 7.683140635490417480e-01
5.480000000000000000e+02 6.812551879882812500e+01 -3.023500061035156250e+01 -3.928254246711730957e-01 5.065928459167480469e+00 1.401930809020996094e+00 7.362976074218750000e-01
5.490000000000000000e+02 6.766415405273437500e+01 -2.670313072204589844e+01 -3.768055737018585205e-01 5.487816810607910156e+00 1.533303380012512207e+00 1.012120842933654785e+00
5.500000000000000000e+02 6.667510986328125000e+01 -2.716858863830566406e+01 -1.259844154119491577e-01 4.527895927429199219e+00 1.320573449134826660e+00 1.245222210884094238e+00
5.510000000000000000e+02 6.744718933105468750e+01 -4.120929336547851562e+01 3.537347614765167236e-01 4.027023315429687500e+00 1.314227461814880371e+00 9.201042354106903076e-02
5.520000000000000000e+02 6.748213195800781250e+01 -3.844007492065429688e+01 2.647465467453002930e-01 4.112963199615478516e+00 1.313313007354736328e+00 2.930907905101776123e-01
5.530000000000000000e+02 6.603781127929687500e+01 -3.442449569702148438e+01 1.025147587060928345e-01 3.634598731994628906e+00 1.121134042739868164e+00 5.733332633972167969e-01
5.540000000000000000e+02 7.001185607910156250e+01 -3.068795776367187500e+01 -3.678542971611022949e-01 5.840202331542968750e+00 1.641704440116882324e+00 4.067992568016052246e-01
5.550000000000000000e+02 6.945803833007812500e+01 -2.758910179138183594e+01 -4.931935369968414307e-01 6.268640995025634766e+00 1.732634186744689941e+00 5.300163626670837402e-01
5.560000000000000000e+02 7.056924438476562500e+01 -2.870065879821777344e+01 -4.288842678070068359e-01 6.370577335357666016e+00 1.782507896423339844e+00 3.655679523944854736e-01
5.570000000000000000e+02 7.189347076416015625e+01 -4.119782638549804688e+01 9.531661123037338257e-02 5.907614231109619141e+00 1.800879240036010742e+00 4.163739830255508423e-02
5.580000000000000000e+02 7.107325744628906250e+01 -3.863392639160156250e+01 7.932707667350769043e-02 5.637777805328369141e+00 1.715131521224975586e+00 1.408066451549530029e-01
5.590000000000000000e+02 7.155204010009765625e+01 -3.391457748413085938e+01 -1.894688904285430908e-01 5.979074478149414062e+00 1.736881613731384277e+00 2.224672883749008179e-01
5.600000000000000000e+02 7.495826721191406250e+01 -2.880680465698242188e+01 -2.133399248123168945e-01 7.388639926910400391e+00 2.152590036392211914e+00 -2.701972723007202148e-01
5.610000000000000000e+02 7.505454254150390625e+01 -4.045795822143554688e+01 5.184593796730041504e-02 7.116334438323974609e+00 2.150454282760620117e+00 -8.711554855108261108e-02
5.620000000000000000e+02 7.380564880371093750e+01 -3.837414932250976562e+01 -4.434303846210241318e-03 6.519162178039550781e+00 1.954418420791625977e+00 2.752265706658363342e-02
5.630000000000000000e+02 7.369721984863281250e+01 -3.457375335693359375e+01 -1.184934377670288086e-01 6.698462486267089844e+00 1.973990797996520996e+00 3.154465928673744202e-02
5.640000000000000000e+02 7.793537902832031250e+01 -3.168602943420410156e+01 -4.682224988937377930e-02 7.982699871063232422e+00 2.380763292312622070e+00 -1.224501803517341614e-01
5.650000000000000000e+02 7.927414703369140625e+01 -2.772498512268066406e+01 -2.037816867232322693e-02 7.930750846862792969e+00 2.373111963272094727e+00 -1.249031051993370056e-01
5.660000000000000000e+02 7.780905151367187500e+01 -2.745066452026367188e+01 -1.752614043653011322e-02 7.713670253753662109e+00 2.308843374252319336e+00 -2.967438399791717529e-01
5.670000000000000000e+02 7.932376098632812500e+01 -2.491503715515136719e+01 -1.267116609960794449e-02 7.463225364685058594e+00 2.235166311264038086e+00 -1.248048543930053711e-01
5.680000000000000000e+02 7.798014068603515625e+01 -4.165890121459960938e+01 1.511171758174896240e-01 8.066758155822753906e+00 2.465362548828125000e+00 4.227003827691078186e-02
5.690000000000000000e+02 7.909681701660156250e+01 -3.739414215087890625e+01 -1.023158151656389236e-02 8.352649688720703125e+00 2.502725601196289062e+00 5.619416013360023499e-02
5.700000000000000000e+02 7.718122100830078125e+01 -3.820031738281250000e+01 -7.184828817844390869e-02 7.871880531311035156e+00 2.340009689331054688e+00 1.434000879526138306e-01
5.710000000000000000e+02 7.924406433105468750e+01 -3.467448425292968750e+01 -8.607741910964250565e-04 8.470481872558593750e+00 2.540886402130126953e+00 -8.190402761101722717e-03
5.720000000000000000e+02 7.621822357177734375e+01 -3.382495880126953125e+01 -1.169300600886344910e-01 7.488069534301757812e+00 2.211341857910156250e+00 -3.446801379323005676e-02
5.730000000000000000e+02 7.772201538085937500e+01 -3.431711578369140625e+01 -5.703736096620559692e-02 7.962950706481933594e+00 2.371773958206176758e+00 -2.664891444146633148e-02
5.740000000000000000e+02 7.939253234863281250e+01 -1.517431354522705078e+01 6.406922359019517899e-03 7.846478462219238281e+00 2.355865716934204102e+00 1.773964464664459229e-01
5.750000000000000000e+02 7.818714904785156250e+01 -1.487720775604248047e+01 3.291849419474601746e-02 7.965438842773437500e+00 2.399507284164428711e+00 4.904941022396087646e-01
5.760000000000000000e+02 7.448177337646484375e+01 -9.491300582885742188e+00 -5.163641571998596191e-01 8.001556396484375000e+00 2.245557546615600586e+00 5.093795657157897949e-01
5.770000000000000000e+02 7.104044342041015625e+01 -8.703184127807617188e+00 -9.766242504119873047e-01 6.688429355621337891e+00 1.713541626930236816e+00 -1.113048475235700607e-02
5.780000000000000000e+02 7.085916137695312500e+01 -1.137644290924072266e+01 -9.915448427200317383e-01 7.269656181335449219e+00 1.883433461189270020e+00 3.359262943267822266e-01
5.790000000000000000e+02 7.940489959716796875e+01 -1.240131950378417969e+01 -5.838206503540277481e-03 8.725495338439941406e+00 2.615897178649902344e+00 1.786476224660873413e-01
5.800000000000000000e+02 7.819403076171875000e+01 -1.078845119476318359e+01 -6.092112138867378235e-02 8.835651397705078125e+00 2.632419109344482422e+00 4.187199771404266357e-01
5.810000000000000000e+02 7.084891510009765625e+01 -3.923666238784790039e+00 -5.585017800331115723e-01 6.108421802520751953e+00 1.664976000785827637e+00 -2.595304250717163086e-01
5.820000000000000000e+02 7.100951385498046875e+01 -7.167401313781738281e+00 -8.401268720626831055e-01 6.385107040405273438e+00 1.663494110107421875e+00 -1.435910463333129883e-01
5.830000000000000000e+02 7.939708709716796875e+01 -9.640741348266601562e+00 -1.080633327364921570e-02 9.478479385375976562e+00 2.840301990509033203e+00 1.163541227579116821e-01
5.840000000000000000e+02 7.815950775146484375e+01 -6.710190296173095703e+00 -8.138108253479003906e-02 9.312098503112792969e+00 2.769215345382690430e+00 1.243304759263992310e-01
5.850000000000000000e+02 7.456510162353515625e+01 -9.834221005439758301e-01 -2.755381762981414795e-01 7.738767623901367188e+00 2.238968849182128906e+00 -3.576888442039489746e-01
5.860000000000000000e+02 7.139501953125000000e+01 5.091729760169982910e-02 -4.321173727512359619e-01 6.492893218994140625e+00 1.818232774734497070e+00 -2.997443675994873047e-01
5.870000000000000000e+02 7.209723663330078125e+01 -3.076320648193359375e+00 -4.700964093208312988e-01 6.746597766876220703e+00 1.882950425148010254e+00 -2.639071345329284668e-01
5.880000000000000000e+02 7.939623260498046875e+01 -5.497018337249755859e+00 -1.904976554214954376e-02 9.992688179016113281e+00 2.992091655731201172e+00 2.991151064634323120e-03
5.890000000000000000e+02 7.817352294921875000e+01 -3.980636596679687500e+00 -6.116961687803268433e-02 9.360036849975585938e+00 2.789660215377807617e+00 -5.296098068356513977e-02
5.900000000000000000e+02 7.578034973144531250e+01 1.759078055620193481e-01 -1.974252909421920776e-01 8.179681777954101562e+00 2.394676923751831055e+00 -4.204468429088592529e-01
5.910000000000000000e+02 7.546842956542968750e+01 2.702227354049682617e+00 -2.411190122365951538e-01 7.999938488006591797e+00 2.327645778656005859e+00 -6.273272633552551270e-01
5.920000000000000000e+02 7.461528015136718750e+01 1.844793409109115601e-01 -2.878066301345825195e-01 7.748817443847656250e+00 2.238303184509277344e+00 -4.245930612087249756e-01
5.930000000000000000e+02 7.939530181884765625e+01 -2.725188970565795898e+00 -1.192164141684770584e-02 9.948894500732421875e+00 2.981091976165771484e+00 -6.049963086843490601e-02
5.940000000000000000e+02 7.814408111572265625e+01 1.367222368717193604e-01 -4.926461353898048401e-02 9.092366218566894531e+00 2.712930440902709961e+00 -2.620638012886047363e-01
5.950000000000000000e+02 7.686198425292968750e+01 1.531822204589843750e+00 -1.291622966527938843e-01 8.479394912719726562e+00 2.505069732666015625e+00 -4.597318470478057861e-01
5.960000000000000000e+02 7.935121917724609375e+01 8.444219589233398438e+00 1.170527903013862669e-04 7.434716224670410156e+00 2.230449914932250977e+00 -2.895970344543457031e-01
5.970000000000000000e+02 7.934110260009765625e+01 1.401101779937744141e+01 1.112722139805555344e-02 4.823677062988281250e+00 1.450441241264343262e+00 -3.408094942569732666e-01
5.980000000000000000e+02 7.807343292236328125e+01 1.275118541717529297e+01 -1.620495878159999847e-02 6.323089599609375000e+00 1.892065405845642090e+00 -8.597662448883056641e-01
5.990000000000000000e+02 7.560353088378906250e+01 1.299877452850341797e+01 -2.525923959910869598e-02 7.908113002777099609e+00 2.364856004714965820e+00 -1.217147827148437500e+00
6.000000000000000000e+02 7.481935882568359375e+01 9.334591865539550781e+00 -2.107493728399276733e-01 8.071821212768554688e+00 2.358321428298950195e+00 -1.108026623725891113e+00
6.010000000000000000e+02 7.551395416259765625e+01 6.109288692474365234e+00 -2.230576723814010620e-01 7.944170475006103516e+00 2.316333770751953125e+00 -8.908768892288208008e-01
6.020000000000000000e+02 7.461560058593750000e+01 1.282714366912841797e+00 -2.857466638088226318e-01 7.741248607635498047e+00 2.236650466918945312e+00 -5.290089249610900879e-01
6.030000000000000000e+02 7.801603698730468750e+01 2.940732955932617188e+00 -5.946397408843040466e-02 8.690072059631347656e+00 2.589182376861572266e+00 -4.228446781635284424e-01
6.040000000000000000e+02 7.825297546386718750e+01 2.110544395446777344e+01 2.915652990341186523e-01 5.224294185638427734e+00 1.654757857322692871e+00 6.876573562622070312e-01
6.050000000000000000e+02 7.933363342285156250e+01 2.785491180419921875e+01 -3.842137753963470459e-02 7.540614604949951172e+00 2.250658035278320312e+00 2.682622969150543213e-01
6.060000000000000000e+02 7.352781677246093750e+01 3.254812240600585938e+01 -4.271383583545684814e-01 7.135076999664306641e+00 2.012381553649902344e+00 -2.864873595535755157e-02
6.070000000000000000e+02 6.832602691650390625e+01 3.292362594604492188e+01 -1.971244961023330688e-01 4.987186431884765625e+00 1.437018632888793945e+00 -7.460053563117980957e-01
6.080000000000000000e+02 6.766097259521484375e+01 3.837343597412109375e+01 2.925042808055877686e-01 4.434070110321044922e+00 1.417972326278686523e+00 -2.806972563266754150e-01
6.090000000000000000e+02 6.753067779541015625e+01 4.115413665771484375e+01 3.585184812545776367e-01 4.339050769805908203e+00 1.409270763397216797e+00 -8.814238756895065308e-02
6.100000000000000000e+02 7.813555908203125000e+01 2.641618347167968750e+01 -1.215037778019905090e-01 7.189561843872070312e+00 2.120417356491088867e+00 8.297733068466186523e-01
6.110000000000000000e+02 7.896829223632812500e+01 3.221381378173828125e+01 -4.584953188896179199e-03 8.457216262817382812e+00 2.535789489746093750e+00 1.064822822809219360e-01
6.120000000000000000e+02 7.912261199951171875e+01 3.070434188842773438e+01 -4.517340660095214844e-02 8.283140182495117188e+00 2.471390008926391602e+00 1.471377313137054443e-01
6.130000000000000000e+02 7.663307952880859375e+01 3.647399902343750000e+01 -1.311261355876922607e-01 7.934160232543945312e+00 2.340910196304321289e+00 3.005630895495414734e-02
6.140000000000000000e+02 7.199740600585937500e+01 4.096416854858398438e+01 1.234377920627593994e-01 6.120626926422119141e+00 1.873219370841979980e+00 -4.441076144576072693e-02
6.150000000000000000e+02 7.947933197021484375e+01 3.758720397949218750e+01 -7.958896458148956299e-02 8.691550254821777344e+00 2.583588361740112305e+00 -4.955999180674552917e-02
6.160000000000000000e+02 7.887034606933593750e+01 3.993334960937500000e+01 -8.897829800844192505e-02 8.308872222900390625e+00 2.465968370437622070e+00 -1.503864079713821411e-01
6.170000000000000000e+02 7.529186248779296875e+01 3.991685867309570312e+01 3.981268405914306641e-02 7.412743091583251953e+00 2.235766649246215820e+00 6.140568852424621582e-02
6.180000000000000000e+02 5.138907241821289062e+01 3.889008331298828125e+01 7.233144044876098633e-01 2.340181320905685425e-01 2.871997654438018799e-01 9.188496321439743042e-02
6.190000000000000000e+02 5.022400665283203125e+01 3.622845077514648438e+01 5.698325037956237793e-01 1.074280068278312683e-01 2.031781524419784546e-01 2.052940577268600464e-01
6.200000000000000000e+02 4.939229965209960938e+01 3.380279541015625000e+01 3.798567354679107666e-01 6.206446513533592224e-02 1.325763612985610962e-01 2.958021759986877441e-01
6.210000000000000000e+02 4.890878295898437500e+01 3.157182502746582031e+01 1.659468114376068115e-01 4.826099798083305359e-02 6.426234543323516846e-02 3.716731965541839600e-01
6.220000000000000000e+02 5.068460845947265625e+01 2.890726280212402344e+01 -1.058755144476890564e-01 6.123260408639907837e-02 -1.339287310838699341e-02 4.077377319335937500e-01
6.230000000000000000e+02 5.209970092773437500e+01 2.009225654602050781e+01 -8.758791089057922363e-01 -3.453680872917175293e-01 -3.663741648197174072e-01 -4.094071090221405029e-01
6.240000000000000000e+02 4.934441757202148438e+01 1.839390945434570312e+01 -3.191663920879364014e-01 -1.898672990500926971e-02 -1.014459431171417236e-01 -1.771356761455535889e-01
6.250000000000000000e+02 5.146822357177734375e+01 1.895339202880859375e+01 -2.321593016386032104e-01 -2.610318064689636230e-01 -1.479573249816894531e-01 -2.680104076862335205e-01
6.260000000000000000e+02 4.857661056518554688e+01 2.167256164550781250e+01 -6.485924124717712402e-01 1.412291675806045532e-01 -1.522089689970016479e-01 1.523920428007841110e-02
6.270000000000000000e+02 4.735422134399414062e+01 4.078137207031250000e+01 6.461113691329956055e-01 2.533756755292415619e-02 2.014346867799758911e-01 6.273256987333297729e-02
6.280000000000000000e+02 4.694098663330078125e+01 3.759071350097656250e+01 5.287120342254638672e-01 1.518993172794580460e-02 1.631705909967422485e-01 1.850702911615371704e-01
6.290000000000000000e+02 4.643613815307617188e+01 3.477259826660156250e+01 3.671309947967529297e-01 2.850276068784296513e-04 1.102248057723045349e-01 2.704096734523773193e-01
6.300000000000000000e+02 4.609924316406250000e+01 3.208984756469726562e+01 1.635131090879440308e-01 2.912732213735580444e-02 5.779212713241577148e-02 3.185276091098785400e-01
6.310000000000000000e+02 4.593447494506835938e+01 2.660008239746093750e+01 -2.887972295284271240e-01 1.286301016807556152e-01 -4.805014282464981079e-02 3.101926147937774658e-01
6.320000000000000000e+02 4.793378448486328125e+01 2.314125251770019531e+01 -5.648851394653320312e-01 1.788255572319030762e-01 -1.158178821206092834e-01 1.489922255277633667e-01
6.330000000000000000e+02 4.795465469360351562e+01 1.883751487731933594e+01 -4.340705275535583496e-01 4.591921716928482056e-02 -1.164453998208045959e-01 -1.461293101310729980e-01
6.340000000000000000e+02 4.871352386474609375e+01 1.718643760681152344e+01 -2.083183825016021729e-01 -2.278668619692325592e-02 -6.933151930570602417e-02 -1.208790168166160583e-01
6.350000000000000000e+02 4.801303482055664062e+01 1.376465702056884766e+01 -4.104386642575263977e-02 -1.422436069697141647e-02 -1.658046804368495941e-02 -2.627094648778438568e-02
6.360000000000000000e+02 4.856647491455078125e+01 9.525503158569335938e+00 3.828931367024779320e-04 1.327581983059644699e-02 4.097613971680402756e-03 5.555004812777042389e-03
6.370000000000000000e+02 4.741289901733398438e+01 3.852299213409423828e+00 8.353362791240215302e-04 -1.588260201970115304e-04 2.029530733125284314e-04 4.526648845057934523e-04
6.380000000000000000e+02 4.513147354125976562e+01 4.004156112670898438e+00 1.987051218748092651e-04 3.820443816948682070e-04 1.742248568916693330e-04 -9.057260467670857906e-05
6.390000000000000000e+02 4.826767730712890625e+01 3.891355276107788086e+00 -1.939892972586676478e-04 2.619334190967492759e-05 -5.033878551330417395e-05 -2.112924703396856785e-04
6.400000000000000000e+02 4.911186599731445312e+01 1.226386356353759766e+01 -3.842463251203298569e-03 2.107444405555725098e-02 5.169594194740056992e-03 4.409884568303823471e-03
6.410000000000000000e+02 4.972980880737304688e+01 1.504293346405029297e+01 -4.441005736589431763e-02 -1.644303835928440094e-02 -1.825592853128910065e-02 -3.382074832916259766e-02
6.420000000000000000e+02 5.082943725585937500e+01 1.773846626281738281e+01 -1.709005385637283325e-01 -1.488542258739471436e-01 -9.592642635107040405e-02 -1.507104039192199707e-01
6.430000000000000000e+02 4.755145263671875000e+01 1.792636108398437500e+01 -2.895077466964721680e-01 1.260817423462867737e-02 -8.306987583637237549e-02 -1.233375817537307739e-01
6.440000000000000000e+02 4.321019363403320312e+01 4.103451538085937500e+01 4.756435453891754150e-01 -1.062024831771850586e-01 1.108323186635971069e-01 4.154524207115173340e-02
6.450000000000000000e+02 4.322815322875976562e+01 3.560202026367187500e+01 3.375303149223327637e-01 -4.962084442377090454e-02 8.637283742427825928e-02 2.202113568782806396e-01
6.460000000000000000e+02 4.214049148559570312e+01 3.027464675903320312e+01 1.020073704421520233e-02 1.982600986957550049e-02 9.008023887872695923e-03 2.733187079429626465e-01
6.470000000000000000e+02 4.163756942749023438e+01 2.655187797546386719e+01 -1.870923489332199097e-01 7.454928010702133179e-02 -3.376292064785957336e-02 2.148169875144958496e-01
6.480000000000000000e+02 4.208416748046875000e+01 2.262814140319824219e+01 -3.109871447086334229e-01 1.176173686981201172e-01 -5.801093950867652893e-02 1.235003620386123657e-01
6.490000000000000000e+02 4.507896804809570312e+01 1.942744445800781250e+01 -3.671773076057434082e-01 1.244788691401481628e-01 -7.280952483415603638e-02 3.408991964533925056e-03
6.500000000000000000e+02 4.424160003662109375e+01 1.606163787841796875e+01 -1.893934458494186401e-01 4.642733931541442871e-02 -4.288982972502708435e-02 -1.475848071277141571e-02
6.510000000000000000e+02 4.202402496337890625e+01 1.348162269592285156e+01 -8.038500696420669556e-02 1.358442381024360657e-02 -2.004017494618892670e-02 1.402062736451625824e-02
6.520000000000000000e+02 4.199858474731445312e+01 8.991494178771972656e+00 4.804233089089393616e-03 1.336720120161771774e-02 5.451430100947618484e-03 -7.225096225738525391e-03
6.530000000000000000e+02 4.247828292846679688e+01 6.186234951019287109e+00 2.799407113343477249e-03 1.700109802186489105e-03 1.349855097942054272e-03 3.420377906877547503e-04
6.540000000000000000e+02 4.354668426513671875e+01 4.178657531738281250e+00 -2.024252898991107941e-04 -2.644141495693475008e-04 -1.400518231093883514e-04 4.726120096165686846e-04
6.550000000000000000e+02 4.074763870239257812e+01 3.957583236694335938e+01 3.804602026939392090e-01 -1.277298182249069214e-01 7.581911236047744751e-02 7.542632520198822021e-02
6.560000000000000000e+02 4.001752853393554688e+01 3.659287643432617188e+01 2.960934042930603027e-01 -1.149187460541725159e-01 5.435239523649215698e-02 1.574720442295074463e-01
6.570000000000000000e+02 3.953659439086914062e+01 3.371556091308593750e+01 1.755887269973754883e-01 -7.227882742881774902e-02 3.099296800792217255e-02 2.008523494005203247e-01
6.580000000000000000e+02 3.909313964843750000e+01 3.103186607360839844e+01 6.690616905689239502e-02 -4.087013751268386841e-02 7.810811046510934830e-03 2.161814570426940918e-01
6.590000000000000000e+02 3.965425872802734375e+01 2.596866607666015625e+01 -1.701167821884155273e-01 4.548220336437225342e-02 -3.739037364721298218e-02 1.767407059669494629e-01
6.600000000000000000e+02 3.963319015502929688e+01 2.317577362060546875e+01 -2.531915307044982910e-01 7.386904209852218628e-02 -5.379675328731536865e-02 1.315190047025680542e-01
6.610000000000000000e+02 3.904772186279296875e+01 2.175293540954589844e+01 -2.571170330047607422e-01 6.258231401443481445e-02 -5.836042016744613647e-02 1.028226390480995178e-01
6.620000000000000000e+02 3.972242355346679688e+01 1.679899215698242188e+01 -2.017973512411117554e-01 3.790501877665519714e-02 -4.916770011186599731e-02 5.520527437329292297e-02
6.630000000000000000e+02 3.557405471801757812e+01 1.690653800964355469e+01 -1.959310322999954224e-01 -8.047684282064437866e-02 -8.292236179113388062e-02 1.272499412298202515e-01
6.640000000000000000e+02 3.980118560791015625e+01 1.288688468933105469e+01 -3.435029461979866028e-02 3.102716989815235138e-03 -9.374273940920829773e-03 1.647895015776157379e-02
6.650000000000000000e+02 3.872369766235351562e+01 1.395005607604980469e+01 -7.216012477874755859e-02 -1.833677291870117188e-02 -2.714907005429267883e-02 3.908072412014007568e-02
6.660000000000000000e+02 3.964904785156250000e+01 1.489618396759033203e+01 -1.255219578742980957e-01 1.466679852455854416e-02 -3.325654566287994385e-02 4.524061828851699829e-02
6.670000000000000000e+02 4.142671203613281250e+01 1.033123493194580078e+01 5.104870535433292389e-03 1.500519271939992905e-02 6.033018697053194046e-03 -9.221645072102546692e-03
6.680000000000000000e+02 3.724669265747070312e+01 4.079260635375976562e+01 3.126123249530792236e-01 -1.516178101301193237e-01 4.829835891723632812e-02 3.795270994305610657e-02
6.690000000000000000e+02 3.676064682006835938e+01 3.751528930664062500e+01 2.458856552839279175e-01 -1.342501789331436157e-01 3.349064290523529053e-02 1.080932989716529846e-01
6.700000000000000000e+02 3.629216766357421875e+01 3.448757553100585938e+01 1.740524172782897949e-01 -1.146766170859336853e-01 1.781274192035198212e-02 1.499798744916915894e-01
6.710000000000000000e+02 3.585837173461914062e+01 3.156826019287109375e+01 6.889355927705764771e-02 -7.789380103349685669e-02 -2.700073877349495888e-03 1.690882593393325806e-01
6.720000000000000000e+02 3.536542129516601562e+01 2.253773307800292969e+01 -2.094234824180603027e-01 -1.821497268974781036e-02 -6.829153746366500854e-02 1.061110123991966248e-01
6.730000000000000000e+02 3.788048934936523438e+01 1.928175544738769531e+01 -2.465832084417343140e-01 2.829082123935222626e-02 -6.548772007226943970e-02 8.712974190711975098e-02
6.740000000000000000e+02 3.444242858886718750e+01 1.780299758911132812e+01 -2.423182129859924316e-01 -9.764167666435241699e-02 -1.019879654049873352e-01 1.487119346857070923e-01
6.750000000000000000e+02 3.665076828002929688e+01 1.595020198822021484e+01 -1.531853675842285156e-01 -6.261107325553894043e-02 -6.473892927169799805e-02 9.703468531370162964e-02
6.760000000000000000e+02 3.770730209350585938e+01 1.699193191528320312e+01 -1.991378515958786011e-01 -3.258822485804557800e-03 -6.071900203824043274e-02 8.458396047353744507e-02
6.770000000000000000e+02 3.313380432128906250e+01 4.100961303710937500e+01 2.191282063722610474e-01 -1.566107571125030518e-01 1.875523664057254791e-02 2.009078487753868103e-02
6.780000000000000000e+02 3.350023269653320312e+01 3.814400863647460938e+01 2.160216867923736572e-01 -1.500786244869232178e-01 1.978291757404804230e-02 7.949665188789367676e-02
6.790000000000000000e+02 3.298286437988281250e+01 3.531021499633789062e+01 1.520907729864120483e-01 -1.292992979288101196e-01 6.837440654635429382e-03 1.106207445263862610e-01
6.800000000000000000e+02 3.247465515136718750e+01 3.240618133544921875e+01 8.082560449838638306e-02 -1.126834377646446228e-01 -9.557349607348442078e-03 1.308938413858413696e-01
6.810000000000000000e+02 3.345432662963867188e+01 2.841548156738281250e+01 -2.499481290578842163e-02 -7.642301172018051147e-02 -3.042534925043582916e-02 1.404883414506912231e-01
6.820000000000000000e+02 3.314854049682617188e+01 2.500908660888671875e+01 -1.294084638357162476e-01 -5.544189363718032837e-02 -5.545510724186897278e-02 1.355850696563720703e-01
6.830000000000000000e+02 3.203437423706054688e+01 1.944839668273925781e+01 -3.255555033683776855e-01 -1.068482175469398499e-01 -1.297211199998855591e-01 1.700108349323272705e-01
6.840000000000000000e+02 3.300677108764648438e+01 2.066166496276855469e+01 -2.614575922489166260e-01 -7.138875126838684082e-02 -9.985390305519104004e-02 1.234778463840484619e-01
6.850000000000000000e+02 3.325769424438476562e+01 1.864259910583496094e+01 -2.827207744121551514e-01 -1.043457761406898499e-01 -1.161199659109115601e-01 1.694796681404113770e-01
6.860000000000000000e+02 3.057062149047851562e+01 3.945540618896484375e+01 1.711265295743942261e-01 -1.494404524564743042e-01 6.505824625492095947e-03 3.857786580920219421e-02
6.870000000000000000e+02 2.970145225524902344e+01 3.633973693847656250e+01 1.309063434600830078e-01 -1.386159360408782959e-01 -2.312880009412765503e-03 7.919672131538391113e-02
6.880000000000000000e+02 2.915948104858398438e+01 3.343010330200195312e+01 8.059987425804138184e-02 -1.212257370352745056e-01 -1.218775846064090729e-02 1.032680124044418335e-01
6.890000000000000000e+02 2.866112518310546875e+01 3.076928520202636719e+01 3.012298047542572021e-02 -1.099850460886955261e-01 -2.395861968398094177e-02 1.166664138436317444e-01
6.900000000000000000e+02 2.798037528991699219e+01 2.852297019958496094e+01 -2.233351208269596100e-02 -9.381018579006195068e-02 -3.484310954809188843e-02 1.200749576091766357e-01
6.910000000000000000e+02 3.084591484069824219e+01 2.529174041748046875e+01 -1.076164916157722473e-01 -8.625700324773788452e-02 -5.816204845905303955e-02 1.276056468486785889e-01
6.920000000000000000e+02 2.778850936889648438e+01 2.140459442138671875e+01 -2.654577195644378662e-01 -4.852214083075523376e-02 -9.419396519660949707e-02 9.929673373699188232e-02
6.930000000000000000e+02 3.050383567810058594e+01 2.266301155090332031e+01 -1.993224024772644043e-01 -8.444807678461074829e-02 -8.513114601373672485e-02 1.215870380401611328e-01
6.940000000000000000e+02 2.702379798889160156e+01 4.070626449584960938e+01 1.366524249315261841e-01 -1.401053667068481445e-01 -1.035881927236914635e-03 2.128614671528339386e-02
6.950000000000000000e+02 2.626853370666503906e+01 3.728891754150390625e+01 1.037053316831588745e-01 -1.274463832378387451e-01 -7.122315466403961182e-03 5.686005577445030212e-02
6.960000000000000000e+02 2.579784965515136719e+01 3.421399307250976562e+01 6.874752044677734375e-02 -1.162272915244102478e-01 -1.424393057823181152e-02 8.287378400564193726e-02
6.970000000000000000e+02 2.554627799987792969e+01 3.144487190246582031e+01 2.697515673935413361e-02 -1.002669930458068848e-01 -2.198755182325839996e-02 9.755626320838928223e-02
6.980000000000000000e+02 2.567101097106933594e+01 2.703302192687988281e+01 -5.652600154280662537e-02 -7.587236911058425903e-02 -3.971951082348823547e-02 1.085781678557395935e-01
6.990000000000000000e+02 2.615998077392578125e+01 2.348370742797851562e+01 -1.638632863759994507e-01 -5.518405511975288391e-02 -6.571420282125473022e-02 9.846834838390350342e-02
7.000000000000000000e+02 2.330374336242675781e+01 2.193323898315429688e+01 -1.734839230775833130e-01 -1.959786750376224518e-02 -5.792453885078430176e-02 3.512033075094223022e-02
7.010000000000000000e+02 2.622263908386230469e+01 2.159483528137207031e+01 -2.365850806236267090e-01 -3.565527126193046570e-02 -8.167210221290588379e-02 7.363712042570114136e-02
7.020000000000000000e+02 2.257990837097167969e+01 4.098989105224609375e+01 8.703669905662536621e-02 -1.142721101641654968e-01 -8.170621469616889954e-03 9.742218069732189178e-03
7.030000000000000000e+02 2.252636337280273438e+01 3.787999343872070312e+01 7.819446176290512085e-02 -1.096405237913131714e-01 -9.433818049728870392e-03 4.112018272280693054e-02
7.040000000000000000e+02 2.220227622985839844e+01 3.471715545654296875e+01 4.802602529525756836e-02 -9.449402987957000732e-02 -1.394040044397115707e-02 6.318993866443634033e-02
7.050000000000000000e+02 2.226156234741210938e+01 3.156643295288085938e+01 1.697152853012084961e-02 -8.260159194469451904e-02 -1.968901976943016052e-02 8.051295578479766846e-02
7.060000000000000000e+02 2.399612426757812500e+01 2.673551559448242188e+01 -6.241523101925849915e-02 -6.252422928810119629e-02 -3.748183697462081909e-02 9.864297509193420410e-02
7.070000000000000000e+02 2.317761802673339844e+01 2.368610763549804688e+01 -1.171849146485328674e-01 -3.007599152624607086e-02 -4.417826980352401733e-02 6.451171636581420898e-02
7.080000000000000000e+02 2.188150787353515625e+01 2.194704437255859375e+01 -1.251424700021743774e-01 -4.253129940479993820e-03 -3.881867974996566772e-02 1.508418843150138855e-02
7.090000000000000000e+02 1.831896018981933594e+01 4.108046722412109375e+01 5.220732837915420532e-02 -8.495996147394180298e-02 -9.825790300965309143e-03 9.993948973715305328e-03
7.100000000000000000e+02 1.898901748657226562e+01 3.829094314575195312e+01 5.191354081034660339e-02 -8.817438781261444092e-02 -1.087825372815132141e-02 2.890863269567489624e-02
7.110000000000000000e+02 1.862511634826660156e+01 3.542864608764648438e+01 3.758431598544120789e-02 -7.912133634090423584e-02 -1.246110629290342331e-02 4.403373971581459045e-02
7.120000000000000000e+02 1.729007530212402344e+01 3.109223175048828125e+01 -5.016427021473646164e-03 -4.496467113494873047e-02 -1.499432977288961411e-02 5.016424879431724548e-02
7.130000000000000000e+02 2.017947578430175781e+01 2.592371749877929688e+01 -5.295855551958084106e-02 -2.914039790630340576e-02 -2.462968602776527405e-02 6.062395125627517700e-02
7.140000000000000000e+02 2.018321418762207031e+01 2.402137374877929688e+01 -8.157388865947723389e-02 -6.962434388697147369e-03 -2.656089514493942261e-02 4.836012423038482666e-02
7.150000000000000000e+02 1.910909271240234375e+01 1.954668998718261719e+01 1.426025643013417721e-03 1.017395313829183578e-02 3.479993669316172600e-03 2.329651266336441040e-03
7.160000000000000000e+02 1.847565460205078125e+01 1.816527366638183594e+01 -2.110616915160790086e-04 1.242005173116922379e-02 3.662697039544582367e-03 4.412457812577486038e-03
7.170000000000000000e+02 1.986097145080566406e+01 2.071717071533203125e+01 -3.884978219866752625e-02 3.934973850846290588e-03 -1.047444250434637070e-02 -3.448023693636059761e-03
7.180000000000000000e+02 1.594217491149902344e+01 3.945909118652343750e+01 3.708766028285026550e-02 -7.102420926094055176e-02 -1.018096320331096649e-02 1.507479138672351837e-02
7.190000000000000000e+02 1.541492843627929688e+01 3.635062408447265625e+01 2.239955030381679535e-02 -5.771249532699584961e-02 -1.059388369321823120e-02 2.687038667500019073e-02
7.200000000000000000e+02 1.511409187316894531e+01 3.358261108398437500e+01 1.310976501554250717e-02 -5.098543316125869751e-02 -1.136270072311162949e-02 3.682489320635795593e-02
7.210000000000000000e+02 1.737872123718261719e+01 2.931205558776855469e+01 -1.138793863356113434e-02 -3.905472904443740845e-02 -1.513279974460601807e-02 5.074741318821907043e-02
7.220000000000000000e+02 1.677730178833007812e+01 2.582203674316406250e+01 -3.810934722423553467e-02 -1.325437426567077637e-02 -1.540911663323640823e-02 3.635794296860694885e-02
7.230000000000000000e+02 1.546374893188476562e+01 2.316767311096191406e+01 -3.112359903752803802e-02 -1.086881267838180065e-03 -9.663144126534461975e-03 1.517453603446483612e-02
7.240000000000000000e+02 1.485195350646972656e+01 2.098516845703125000e+01 -1.854643784463405609e-02 -2.846577903255820274e-03 -6.417904980480670929e-03 3.770435461774468422e-03
7.250000000000000000e+02 1.708722877502441406e+01 1.502296161651611328e+01 1.351309474557638168e-03 4.797809757292270660e-03 1.844735816121101379e-03 3.270588349550962448e-03
7.260000000000000000e+02 1.717231941223144531e+01 1.369955921173095703e+01 -2.892909687943756580e-04 2.895925892516970634e-03 7.819904712960124016e-04 1.555618480779230595e-03
7.270000000000000000e+02 1.638681411743164062e+01 8.350561141967773438e+00 6.593641010113060474e-04 5.501621635630726814e-04 3.628578851930797100e-04 8.527026511728763580e-04
7.280000000000000000e+02 1.663919448852539062e+01 7.220737457275390625e+00 -3.700904489960521460e-04 3.287742147222161293e-04 -1.239487119164550677e-05 3.789591137319803238e-04
7.290000000000000000e+02 1.516341304779052734e+01 1.755489706993103027e+00 2.979882119689136744e-04 4.983687176718376577e-05 1.043475276674143970e-04 1.313966204179450870e-04
7.300000000000000000e+02 1.361707305908203125e+01 1.233080267906188965e+00 1.764714688761159778e-04 -7.238828402478247881e-05 3.122495400020852685e-05 9.709180449135601521e-05
7.310000000000000000e+02 1.583034610748291016e+01 8.658001422882080078e-01 2.015190257225185633e-04 3.466246198513545096e-05 7.085444667609408498e-05 3.040876617887988687e-05
7.320000000000000000e+02 1.725246047973632812e+01 5.993666052818298340e-01 7.740311411907896399e-05 1.014712324831634760e-04 5.366230470826849341e-05 -2.986216168210376054e-05
7.330000000000000000e+02 1.905932998657226562e+01 1.144456982612609863e+00 8.924803114496171474e-05 8.859533409122377634e-05 5.335301102604717016e-05 1.722492129374586511e-06
7.340000000000000000e+02 1.946191787719726562e+01 6.951031208038330078e+00 -7.856246666051447392e-04 2.521743590477854013e-04 -1.600350951775908470e-04 1.097915810532867908e-04
7.350000000000000000e+02 2.055234909057617188e+01 5.046263217926025391e+00 7.032897701719775796e-05 8.207890641642734408e-05 4.572236503008753061e-05 1.423495414201170206e-04
7.360000000000000000e+02 1.914048767089843750e+01 8.230320930480957031e+00 7.862578495405614376e-04 6.566217634826898575e-04 4.328638897277414799e-04 2.066243177978321910e-05
7.370000000000000000e+02 1.748312377929687500e+01 9.632667541503906250e+00 7.415454019792377949e-04 1.166517031379044056e-03 5.724187358282506466e-04 6.991570699028670788e-04
7.380000000000000000e+02 1.461715126037597656e+01 9.325565338134765625e+00 6.704509723931550980e-04 -1.853992725955322385e-04 1.455155143048614264e-04 1.240248326212167740e-03
7.390000000000000000e+02 1.247085475921630859e+01 4.045028305053710938e+01 2.239477075636386871e-02 -5.249092727899551392e-02 -9.028846397995948792e-03 6.404773332178592682e-03
7.400000000000000000e+02 1.246796607971191406e+01 3.675527191162109375e+01 1.648553460836410522e-02 -4.722037911415100098e-02 -9.220453910529613495e-03 2.212656289339065552e-02
7.410000000000000000e+02 1.254789257049560547e+01 3.370376968383789062e+01 6.427003070712089539e-03 -3.878233209252357483e-02 -9.706598706543445587e-03 2.670935913920402527e-02
7.420000000000000000e+02 1.498984050750732422e+01 3.111096572875976562e+01 -4.054503981024026871e-03 -3.673687204718589783e-02 -1.223741285502910614e-02 4.002359881997108459e-02
7.430000000000000000e+02 1.281592369079589844e+01 2.713415718078613281e+01 -1.702135428786277771e-02 -1.412986963987350464e-02 -9.345366619527339935e-03 2.350630611181259155e-02
7.440000000000000000e+02 1.241503906250000000e+01 2.273361778259277344e+01 -1.624535769224166870e-02 -6.183759309351444244e-03 -6.728735286742448807e-03 7.815029472112655640e-03
7.450000000000000000e+02 1.227693271636962891e+01 1.857319641113281250e+01 -5.805703345686197281e-03 -4.778327886015176773e-03 -3.175209276378154755e-03 8.481601253151893616e-05
7.460000000000000000e+02 1.125861072540283203e+01 1.657387351989746094e+01 -2.480503753758966923e-04 -3.813415765762329102e-03 -1.218439778313040733e-03 -6.448127096518874168e-04
7.470000000000000000e+02 1.306479454040527344e+01 1.177606487274169922e+01 1.722725457511842251e-03 -1.256958115845918655e-03 1.397302112309262156e-04 8.914643549360334873e-04
7.480000000000000000e+02 1.369652938842773438e+01 1.032423019409179688e+01 1.390482997521758080e-03 -5.348277627490460873e-04 2.566965704318135977e-04 7.953539607115089893e-04
7.490000000000000000e+02 1.204368495941162109e+01 5.208763599395751953e+00 5.896773072890937328e-04 -1.543142134323716164e-04 1.306089252466335893e-04 2.583061868790537119e-04
7.500000000000000000e+02 1.210894870758056641e+01 1.493775367736816406e+00 3.014159447047859430e-04 -1.058627385646104813e-04 5.866595893166959286e-05 7.764214387862011790e-05
7.510000000000000000e+02 1.293743324279785156e+01 2.089556455612182617e+00 2.266921655973419547e-04 -1.319650327786803246e-04 2.841813875420484692e-05 1.232577487826347351e-04
7.520000000000000000e+02 6.619659900665283203e+00 4.148685836791992188e+01 7.417676970362663269e-03 -3.157521039247512817e-02 -7.247260306030511856e-03 2.189502352848649025e-03
7.530000000000000000e+02 9.602471351623535156e+00 3.637766265869140625e+01 9.564050473272800446e-03 -3.637983649969100952e-02 -8.044736459851264954e-03 1.442018058151006699e-02
7.540000000000000000e+02 8.637700080871582031e+00 3.069079971313476562e+01 -2.214536070823669434e-03 -2.001827582716941833e-02 -6.669843569397926331e-03 1.749378256499767303e-02
7.550000000000000000e+02 8.404605865478515625e+00 2.691868972778320312e+01 -6.458620540797710419e-03 -1.115890312939882278e-02 -5.285257007926702499e-03 1.213191729038953781e-02
7.560000000000000000e+02 9.421880722045898438e+00 2.465252113342285156e+01 -1.019529812037944794e-02 -7.111488841474056244e-03 -5.192036274820566177e-03 9.002534672617912292e-03
7.570000000000000000e+02 8.832738876342773438e+00 1.992783546447753906e+01 -5.034110974520444870e-03 -3.614908782765269279e-03 -2.594705903902649879e-03 1.149452175013720989e-03
7.580000000000000000e+02 9.278829574584960938e+00 1.723123359680175781e+01 -1.703625312075018883e-03 -3.335352754220366478e-03 -1.511693466454744339e-03 -9.269961155951023102e-04
7.590000000000000000e+02 7.587121486663818359e+00 1.097335243225097656e+01 7.056723698042333126e-04 -1.428886665962636471e-03 -2.169642830267548561e-04 -6.773170316591858864e-04
7.600000000000000000e+02 8.912285804748535156e+00 5.681897163391113281e+00 3.465356712695211172e-04 -4.206968587823212147e-04 -2.224835589004214853e-05 -4.527020792011171579e-05
7.610000000000000000e+02 7.629798412322998047e+00 1.863798737525939941e+00 3.282970574218779802e-04 -6.044076144462451339e-05 8.035688370000571012e-05 -9.397424582857638597e-05
7.620000000000000000e+02 6.903959274291992188e+00 1.870383977890014648e+00 4.317522107157856226e-04 -5.951332695985911414e-06 1.277402625419199467e-04 -1.383039489155635238e-04
7.630000000000000000e+02 8.420716285705566406e+00 2.569052457809448242e+00 3.301239630673080683e-04 -1.264094025827944279e-04 6.111436960054561496e-05 -5.952924038865603507e-05
7.640000000000000000e+02 1.134152793884277344e+01 1.624167203903198242e+00 4.498985363170504570e-04 2.321855026821140200e-05 1.419351319782435894e-04 8.520986739313229918e-05
7.650000000000000000e+02 8.858061790466308594e+00 3.954342269897460938e+01 1.047321036458015442e-02 -3.568060323596000671e-02 -7.562218233942985535e-03 6.360540166497230530e-03
7.660000000000000000e+02 6.989665508270263672e+00 3.584617996215820312e+01 3.884030040353536606e-03 -2.527506090700626373e-02 -6.417309399694204330e-03 1.107333507388830185e-02
7.670000000000000000e+02 6.959804534912109375e+00 3.377364730834960938e+01 1.665978925302624702e-03 -2.286379411816596985e-02 -6.359344813972711563e-03 1.280452590435743332e-02
7.680000000000000000e+02 6.884766101837158203e+00 3.050963592529296875e+01 -2.110690111294388771e-03 -1.527564786374568939e-02 -5.215901415795087814e-03 1.213554851710796356e-02
7.690000000000000000e+02 5.183444023132324219e+00 2.891331481933593750e+01 -2.332369564101099968e-03 -9.366267360746860504e-03 -3.509591100737452507e-03 8.370053023099899292e-03
7.700000000000000000e+02 5.985354423522949219e+00 2.312108802795410156e+01 -3.729438642039895058e-03 -3.277099924162030220e-03 -2.101961523294448853e-03 3.223522799089550972e-03
7.710000000000000000e+02 5.919481277465820312e+00 2.059593963623046875e+01 -2.505002776160836220e-03 -1.960605848580598831e-03 -1.339682610705494881e-03 6.157910102047026157e-04
7.720000000000000000e+02 6.214762210845947266e+00 1.794472312927246094e+01 -1.107277465052902699e-03 -1.612003310583531857e-03 -8.157842676155269146e-04 -9.548112866468727589e-04
7.730000000000000000e+02 5.470234394073486328e+00 1.230257511138916016e+01 6.835440872237086296e-04 -2.957656979560852051e-04 1.163335109595209360e-04 -1.290284097194671631e-03
7.740000000000000000e+02 5.490295886993408203e+00 1.109435176849365234e+01 4.405832150951027870e-04 -3.899736620951443911e-04 1.518286990176420659e-05 -1.224190345965325832e-03
7.750000000000000000e+02 4.237880706787109375e+00 8.238097190856933594e+00 6.106891087256371975e-04 1.722482702462002635e-04 2.348812122363597155e-04 -7.347692153416574001e-04
7.760000000000000000e+02 3.996574878692626953e+00 1.880820751190185547e+00 2.126231120200827718e-04 5.712733400287106633e-05 8.092513598967343569e-05 -1.595814683241769671e-04
7.770000000000000000e+02 4.755276679992675781e+00 2.629179477691650391e+00 3.010426589753478765e-04 4.427982639754191041e-05 1.035967507050372660e-04 -1.931441511260345578e-04
7.780000000000000000e+02 6.177487850189208984e+00 1.876367211341857910e+00 2.535251551307737827e-04 -3.157235914841294289e-05 6.658584607066586614e-05 -1.430290431017056108e-04
7.790000000000000000e+02 1.980939030647277832e+00 3.711169052124023438e+01 1.305752230109646916e-04 -1.726480387151241302e-02 -5.140268243849277496e-03 3.314414760097861290e-03
7.800000000000000000e+02 2.102908849716186523e+00 3.339142608642578125e+01 4.839909379370510578e-04 -1.110969204455614090e-02 -3.187710419297218323e-03 4.146508406847715378e-03
7.810000000000000000e+02 2.160218000411987305e+00 3.048884201049804688e+01 1.277265109820291400e-04 -6.106061395257711411e-03 -1.793500385247170925e-03 4.172347020357847214e-03
7.820000000000000000e+02 2.039302349090576172e+00 2.619530868530273438e+01 -1.002392498776316643e-03 6.913600955158472061e-04 -9.330973261967301369e-05 2.359779085963964462e-03
7.830000000000000000e+02 1.972175955772399902e+00 2.338188552856445312e+01 -9.658681810833513737e-04 3.246970009058713913e-03 6.843305309303104877e-04 8.745000814087688923e-04
7.840000000000000000e+02 1.977208852767944336e+00 1.915076828002929688e+01 1.030702842399477959e-04 3.829292254522442818e-03 1.179708749987185001e-03 -7.452814024873077869e-04
7.850000000000000000e+02 1.948324799537658691e+00 1.634183311462402344e+01 2.302632055943831801e-04 3.184308297932147980e-03 1.024371478706598282e-03 -1.067849225364625454e-03
7.860000000000000000e+02 1.854627132415771484e+00 1.353961181640625000e+01 2.801929658744484186e-04 2.239348366856575012e-03 7.558624492958188057e-04 -9.414671221747994423e-04
7.870000000000000000e+02 1.793400287628173828e+00 1.076400279998779297e+01 2.658170124050229788e-04 1.361131202429533005e-03 4.880844498984515667e-04 -6.656125769950449467e-04
7.880000000000000000e+02 1.735485315322875977e+00 6.651125431060791016e+00 -5.779941420769318938e-05 4.919992643408477306e-04 1.302599557675421238e-04 -3.382314753253012896e-04
7.890000000000000000e+02 3.312340259552001953e+00 2.674263238906860352e+00 1.897723559523001313e-04 1.341242023045197129e-04 9.716897329781204462e-05 -2.355655597057193518e-04
7.900000000000000000e+02 1.993288993835449219e+01 4.036532044410705566e-01 6.230762664927169681e-05 8.993996016215533018e-05 4.567427458823658526e-05 -1.263146714336471632e-05
7.910000000000000000e+02 2.282101821899414062e+01 1.618098258972167969e+00 -1.876653186627663672e-05 6.021444278303533792e-05 1.243437327502761036e-05 -5.773802695330232382e-05
7.920000000000000000e+02 2.144524955749511719e+01 3.998356580734252930e+00 -9.655869507696479559e-05 -1.952080638147890568e-04 -8.753002475714311004e-05 -8.113638614304363728e-05
7.930000000000000000e+02 2.229928207397460938e+01 1.435121059417724609e+00 -4.822587652597576380e-05 -6.559339090017601848e-05 -3.414578168303705752e-05 3.889390427502803504e-05
7.940000000000000000e+02 1.859554862976074219e+01 1.096106147766113281e+01 9.142829221673309803e-04 2.232020255178213120e-03 9.438909473828971386e-04 1.675631065154448152e-04
7.950000000000000000e+02 1.845994949340820312e+01 1.236012268066406250e+01 -9.176785824820399284e-04 3.404068760573863983e-03 7.459170301444828510e-04 2.357491903239861131e-04
7.960000000000000000e+02 1.833923339843750000e+01 1.517977523803710938e+01 -1.394718652591109276e-03 7.051093969494104385e-03 1.696912688203155994e-03 6.973436684347689152e-04
7.970000000000000000e+02 1.681611633300781250e+01 1.634996414184570312e+01 1.541821984574198723e-03 2.698536496609449387e-03 1.272107474505901337e-03 2.775211818516254425e-03
7.980000000000000000e+02 1.816572380065917969e+01 2.130673027038574219e+01 -4.389309883117675781e-02 8.102242834866046906e-03 -1.073725707828998566e-02 2.163279568776488304e-03
7.990000000000000000e+02 2.023003196716308594e+01 2.217406463623046875e+01 -7.794710993766784668e-02 -2.116263378411531448e-03 -2.401901222765445709e-02 1.442694105207920074e-02
8.000000000000000000e+02 4.266445922851562500e+01 4.260946750640869141e+00 1.843628007918596268e-03 -8.258916204795241356e-05 5.283116479404270649e-04 6.330135511234402657e-04
8.010000000000000000e+02 5.955336761474609375e+01 2.261261749267578125e+01 -3.056401968002319336e+00 -1.433668583631515503e-01 -9.599305987358093262e-01 -1.630700230598449707e-01
8.020000000000000000e+02 6.231774902343750000e+01 2.239708518981933594e+01 -2.955617666244506836e+00 -1.122619807720184326e-01 -9.203639030456542969e-01 3.267656862735748291e-01
8.030000000000000000e+02 6.150101470947265625e+01 2.723514175415039062e+01 -1.353700906038284302e-01 8.260200023651123047e-01 2.071949839591979980e-01 -6.076045036315917969e-01
8.040000000000000000e+02 6.134333419799804688e+01 3.481741714477539062e+01 6.012673974037170410e-01 1.886578202247619629e+00 7.463536858558654785e-01 -3.638103306293487549e-01
8.050000000000000000e+02 6.362076950073242188e+01 2.209436798095703125e+01 -2.470438003540039062e+00 -1.366118807345628738e-02 -7.452297806739807129e-01 3.254261612892150879e-01
8.060000000000000000e+02 6.401067352294921875e+01 2.793850517272949219e+01 -7.025100290775299072e-02 1.959044337272644043e+00 5.666379928588867188e-01 -1.240311622619628906e+00
8.070000000000000000e+02 6.369220733642578125e+01 2.329269981384277344e+01 -1.349041461944580078e+00 3.219965696334838867e-01 -3.081134557723999023e-01 -4.423335790634155273e-01
8.080000000000000000e+02 6.630021667480468750e+01 2.098016548156738281e+01 -6.538117527961730957e-01 -5.240330938249826431e-03 -1.977156251668930054e-01 1.123527362942695618e-01
8.090000000000000000e+02 6.684908294677734375e+01 2.059588623046875000e+01 2.222862094640731812e-02 -1.656792908906936646e-01 -4.303520172834396362e-02 -1.120952293276786804e-01
8.100000000000000000e+02 6.743516540527343750e+01 2.053656005859375000e+01 1.118079781532287598e+00 5.481125712394714355e-01 4.998577237129211426e-01 -1.004649043083190918e+00
8.110000000000000000e+02 6.793364715576171875e+01 2.072289466857910156e+01 1.707217454910278320e+00 2.178065299987792969e+00 1.165584802627563477e+00 -2.344417572021484375e+00
8.120000000000000000e+02 6.959654998779296875e+01 2.189193725585937500e+01 -3.790822029113769531e-01 1.149944210052490234e+01 3.336107969284057617e+00 -2.762607812881469727e+00
8.130000000000000000e+02 7.120545959472656250e+01 2.042943763732910156e+01 4.588751792907714844e+00 1.454596996307373047e+01 5.740416526794433594e+00 2.020957469940185547e+00
8.140000000000000000e+02 7.187252807617187500e+01 2.005059814453125000e+01 5.253950595855712891e+00 1.238217258453369141e+01 5.290836811065673828e+00 1.302333593368530273e+00
8.150000000000000000e+02 7.255768585205078125e+01 1.915876388549804688e+01 4.180120468139648438e+00 1.089296340942382812e+01 4.521924972534179688e+00 -2.192900776863098145e-01
8.160000000000000000e+02 7.157767486572265625e+01 1.926169013977050781e+01 6.582049369812011719e+00 1.303993225097656250e+01 5.886594772338867188e+00 -5.056458115577697754e-01
8.170000000000000000e+02 7.139156341552734375e+01 1.855358695983886719e+01 4.628521919250488281e+00 1.450114536285400391e+01 5.738900184631347656e+00 -2.105724573135375977e+00
8.180000000000000000e+02 7.240825653076171875e+01 1.847208404541015625e+01 3.727856159210205078e+00 1.140086269378662109e+01 4.538615703582763672e+00 -1.081131219863891602e+00
8.190000000000000000e+02 7.133675384521484375e+01 1.786951828002929688e+01 1.963140606880187988e+00 1.494713973999023438e+01 5.073084354400634766e+00 -1.678373336791992188e+00
8.200000000000000000e+02 5.568385696411132812e+01 -7.472047328948974609e+00 -9.235525131225585938e-01 -5.205618143081665039e-01 -4.332343041896820068e-01 6.769800186157226562e-01
8.210000000000000000e+02 5.631706237792968750e+01 -9.202481269836425781e+00 -1.637864470481872559e+00 -5.842929482460021973e-01 -6.666472554206848145e-01 9.410054683685302734e-01
8.220000000000000000e+02 5.684683990478515625e+01 -8.126059532165527344e+00 -1.210519194602966309e+00 -3.189764916896820068e-01 -4.588487148284912109e-01 6.800730824470520020e-01
8.230000000000000000e+02 5.637680435180664062e+01 -2.133913278579711914e+00 -6.251406669616699219e-02 1.693295314908027649e-03 -1.824623160064220428e-02 4.682948589324951172e-01
8.240000000000000000e+02 5.725610733032226562e+01 1.293415784835815430e+00 2.538453340530395508e-01 1.012574210762977600e-01 1.065308228135108948e-01 1.563946753740310669e-01
8.250000000000000000e+02 6.818230438232421875e+01 -1.587724208831787109e+01 8.896048665046691895e-01 1.001486873626708984e+01 3.271342277526855469e+00 -1.609696030616760254e+00
8.260000000000000000e+02 6.953664398193359375e+01 -1.601342391967773438e+01 8.925716876983642578e-01 8.734420776367187500e+00 2.888097763061523438e+00 3.785596191883087158e-01
8.270000000000000000e+02 6.956668853759765625e+01 -1.977302360534667969e+01 1.809735298156738281e+00 9.535731315612792969e+00 3.403639793395996094e+00 1.189222931861877441e+00
8.280000000000000000e+02 7.573109436035156250e+01 -2.248896026611328125e+01 3.044281899929046631e-01 7.493494033813476562e+00 2.339376688003540039e+00 -2.407423704862594604e-01
8.290000000000000000e+02 7.598277282714843750e+01 -2.134506034851074219e+01 3.474638760089874268e-01 7.486905097961425781e+00 2.350310564041137695e+00 -1.193480938673019409e-01
8.300000000000000000e+02 7.690997314453125000e+01 -2.283946037292480469e+01 1.606555730104446411e-01 7.429796695709228516e+00 2.277135610580444336e+00 -2.729328870773315430e-01
8.310000000000000000e+02 7.576543426513671875e+01 -1.721945381164550781e+01 3.490772247314453125e-01 7.691473007202148438e+00 2.412165164947509766e+00 6.164847612380981445e-01
8.320000000000000000e+02 6.949582672119140625e+01 -1.722496414184570312e+01 9.942296147346496582e-01 9.578789710998535156e+00 3.171905994415283203e+00 -7.711683213710784912e-02
8.330000000000000000e+02 6.832814788818359375e+01 -1.850825119018554688e+01 1.523830741643905640e-01 1.185230636596679688e+01 3.601406812667846680e+00 1.129883602261543274e-01
8.340000000000000000e+02 6.706409454345703125e+01 -2.303532600402832031e+01 1.667985558509826660e+00 5.833944797515869141e+00 2.250579118728637695e+00 2.726659536361694336e+00
8.350000000000000000e+02 6.832425689697265625e+01 -2.247492027282714844e+01 1.322913289070129395e+00 8.312791824340820312e+00 2.890711545944213867e+00 2.064481496810913086e+00
8.360000000000000000e+02 6.409506988525390625e+01 -2.791038513183593750e+01 2.513394877314567566e-02 2.023207902908325195e+00 6.145025491714477539e-01 9.308076500892639160e-01
8.370000000000000000e+02 6.305203247070312500e+01 -2.899244117736816406e+01 -1.238903105258941650e-01 1.557720541954040527e+00 4.301490783691406250e-01 6.847483515739440918e-01
8.380000000000000000e+02 6.036417770385742188e+01 -3.080462074279785156e+01 -1.622582376003265381e-01 5.667871236801147461e-01 1.213586553931236267e-01 3.581607043743133545e-01
8.390000000000000000e+02 6.181588745117187500e+01 -3.002662658691406250e+01 -1.835945248603820801e-01 1.004272818565368652e+00 2.462034672498703003e-01 5.219463109970092773e-01
8.400000000000000000e+02 3.066399192810058594e+01 -1.197953414916992188e+01 3.921593725681304932e-01 1.795283332467079163e-02 1.230336651206016541e-01 -3.713134527206420898e-01
8.410000000000000000e+02 3.446723175048828125e+01 -2.783210372924804688e+01 -3.866805136203765869e-02 -2.332468181848526001e-01 -8.157446235418319702e-02 -6.750360876321792603e-02
8.420000000000000000e+02 2.536994361877441406e+01 -3.308966064453125000e+01 3.505843281745910645e-01 8.985900878906250000e-02 1.321329921483993530e-01 -1.383800357580184937e-01
8.430000000000000000e+02 2.295299530029296875e+01 -3.394110107421875000e+01 2.961099445819854736e-01 1.817374378442764282e-01 1.433542072772979736e-01 -1.727806329727172852e-01
8.440000000000000000e+02 2.275437355041503906e+01 -3.845647430419921875e+01 1.935279369354248047e-01 1.766317188739776611e-01 1.110478937625885010e-01 -8.506215363740921021e-02
8.450000000000000000e+02 1.863258552551269531e+01 -3.044128417968750000e+01 4.685943126678466797e-01 2.810875475406646729e-01 2.249045521020889282e-01 -2.772085070610046387e-01
8.460000000000000000e+02 1.959825134277343750e+01 -3.143757057189941406e+01 4.143707156181335449e-01 2.411661595106124878e-01 1.966610550880432129e-01 -2.342641204595565796e-01
8.470000000000000000e+02 1.653191757202148438e+01 -3.112630653381347656e+01 3.213859796524047852e-01 2.318894714117050171e-01 1.659826338291168213e-01 -1.864188313484191895e-01
8.480000000000000000e+02 1.832803726196289062e+01 -2.845657348632812500e+01 6.799314022064208984e-01 3.523406982421875000e-01 3.096816241741180420e-01 -4.293267726898193359e-01
8.490000000000000000e+02 1.620881652832031250e+01 -2.663869285583496094e+01 4.834486544132232666e-01 4.146395921707153320e-01 2.694264948368072510e-01 -4.370319247245788574e-01
8.500000000000000000e+02 1.430836200714111328e+01 -2.465448760986328125e+01 4.287316799163818359e-01 4.103263616561889648e-01 2.517174184322357178e-01 -4.113464355468750000e-01
8.510000000000000000e+02 1.122110748291015625e+01 -1.584921264648437500e+01 -4.411789774894714355e-01 -9.639705419540405273e-01 -4.215448498725891113e-01 -4.491369128227233887e-01
8.520000000000000000e+02 1.224625396728515625e+01 -1.501500988006591797e+01 -5.513072013854980469e-01 -1.174022912979125977e+00 -5.175990462303161621e-01 -6.815997362136840820e-01
8.530000000000000000e+02 7.559786987304687500e+01 1.899201583862304688e+01 1.516975879669189453e+00 7.561600685119628906e+00 2.723572969436645508e+00 1.002303585410118103e-01
8.540000000000000000e+02 7.649416351318359375e+01 2.211754989624023438e+01 4.707619249820709229e-01 7.130753993988037109e+00 2.280454635620117188e+00 1.377559423446655273e+00
8.550000000000000000e+02 7.731859588623046875e+01 2.245393371582031250e+01 1.728329658508300781e-01 6.418979644775390625e+00 1.977543830871582031e+00 1.234127640724182129e+00
8.560000000000000000e+02 7.666654968261718750e+01 1.555702495574951172e+01 3.458348512649536133e-01 6.899722576141357422e+00 2.173667192459106445e+00 -1.020313739776611328e+00
8.570000000000000000e+02 7.807101440429687500e+01 1.001225948333740234e+01 -4.171501472592353821e-02 7.109004974365234375e+00 2.120187044143676758e+00 -7.880630493164062500e-01
8.580000000000000000e+02 7.682533264160156250e+01 8.741157531738281250e+00 -1.265081465244293213e-01 7.671477317810058594e+00 2.263490676879882812e+00 -9.761601686477661133e-01
8.590000000000000000e+02 6.636266326904296875e+01 9.898708343505859375e+00 1.612872362136840820e+00 5.223457813262939453e+00 2.050899028778076172e+00 2.742260217666625977e+00
8.600000000000000000e+02 7.036683654785156250e+01 1.110762310028076172e+01 3.977505862712860107e-01 9.103417396545410156e+00 2.850350379943847656e+00 2.977623641490936279e-01
8.610000000000000000e+02 7.282338714599609375e+01 6.829793453216552734e+00 -4.158813655376434326e-01 7.841292381286621094e+00 2.227623224258422852e+00 -7.291984558105468750e-01
8.620000000000000000e+02 6.811383056640625000e+01 6.137898445129394531e+00 -3.770386874675750732e-01 5.993875980377197266e+00 1.685051083564758301e+00 5.666839480400085449e-01
8.630000000000000000e+02 7.934658813476562500e+01 7.042359352111816406e+00 -2.053770236670970917e-02 7.967272758483886719e+00 2.384020566940307617e+00 -2.631553113460540771e-01
8.640000000000000000e+02 7.676286315917968750e+01 5.908744335174560547e+00 -1.488768458366394043e-01 8.024520874023437500e+00 2.362693071365356445e+00 -7.870724797248840332e-01
8.650000000000000000e+02 6.520027923583984375e+01 5.368238449096679688e+00 9.874687343835830688e-02 3.282855033874511719e+00 1.014480590820312500e+00 1.034246563911437988e+00
8.660000000000000000e+02 5.981872940063476562e+01 1.275638341903686523e+00 3.314758241176605225e-01 3.996713459491729736e-01 2.193441540002822876e-01 2.639663815498352051e-01
8.670000000000000000e+02 6.398362350463867188e+01 6.511231660842895508e-01 1.193463429808616638e-01 2.370354175567626953e+00 7.469102144241333008e-01 3.883385658264160156e-01
8.680000000000000000e+02 6.752608489990234375e+01 -4.177728891372680664e-01 -2.804546654224395752e-01 4.395766258239746094e+00 1.234593391418457031e+00 3.845662344247102737e-03
8.690000000000000000e+02 6.799907684326171875e+01 3.767524957656860352e-01 -3.188940286636352539e-01 4.783661842346191406e+00 1.339430451393127441e+00 4.302578046917915344e-02
8.700000000000000000e+02 6.143028259277343750e+01 3.441414356231689453e+00 2.866770327091217041e-01 7.278802394866943359e-01 3.043671846389770508e-01 3.979449272155761719e-01
8.710000000000000000e+02 4.397479248046875000e+01 -2.982493877410888672e+00 -1.222711324691772461e+00 3.858611583709716797e-01 -2.510550618171691895e-01 -2.905054688453674316e-01
8.720000000000000000e+02 4.653169250488281250e+01 -6.238174915313720703e+00 -6.832510232925415039e-01 9.712118506431579590e-01 8.638826012611389160e-02 1.369968205690383911e-01
8.730000000000000000e+02 4.695687484741210938e+01 -2.231019496917724609e+00 -1.050678372383117676e+00 4.813512265682220459e-01 -1.707981526851654053e-01 -4.282645508646965027e-02
8.740000000000000000e+02 4.709334182739257812e+01 -1.480605125427246094e+00 -1.025870323181152344e+00 3.898202478885650635e-01 -1.908150166273117065e-01 -3.303826972842216492e-02
8.750000000000000000e+02 4.640047836303710938e+01 -6.721460223197937012e-01 -9.867209196090698242e-01 2.792097032070159912e-01 -2.122533619403839111e-01 -1.359831988811492920e-01
8.760000000000000000e+02 5.392383193969726562e+01 -7.743825912475585938e-01 -4.433337152004241943e-01 2.488884516060352325e-02 -1.255334615707397461e-01 3.728091418743133545e-01
8.770000000000000000e+02 5.485571670532226562e+01 -1.899835467338562012e+00 -2.293243557214736938e-01 -1.279799267649650574e-02 -7.263670116662979126e-02 5.635210275650024414e-01
8.780000000000000000e+02 5.815974426269531250e+01 -3.308358669281005859e+00 -4.344172030687332153e-02 7.513065636157989502e-02 9.506681002676486969e-03 4.758568108081817627e-01
8.790000000000000000e+02 5.217639923095703125e+01 -2.064949512481689453e+00 -5.838649272918701172e-01 -4.086717218160629272e-02 -1.874196380376815796e-01 6.204263567924499512e-01
8.800000000000000000e+02 5.453046798706054688e+01 -6.818327903747558594e+00 -6.161648631095886230e-01 -4.253843724727630615e-01 -3.124647736549377441e-01 8.867404460906982422e-01
8.810000000000000000e+02 5.512544250488281250e+01 -8.544756889343261719e+00 -1.731255412101745605e+00 -5.209745168685913086e-01 -6.756690144538879395e-01 8.818997740745544434e-01
8.820000000000000000e+02 6.213679885864257812e+01 -7.216428518295288086e-01 2.222689837217330933e-01 1.286133408546447754e+00 4.525207281112670898e-01 3.051056861877441406e-01
8.830000000000000000e+02 6.825096130371093750e+01 -2.518551588058471680e+00 -4.193314015865325928e-01 4.702044963836669922e+00 1.284814119338989258e+00 -1.703765243291854858e-01
8.840000000000000000e+02 6.498187255859375000e+01 -1.985167860984802246e+00 -7.988928258419036865e-02 2.816068649291992188e+00 8.208538293838500977e-01 8.007176965475082397e-02
8.850000000000000000e+02 7.577247619628906250e+01 -1.079696893692016602e+00 -1.983741074800491333e-01 8.206661224365234375e+00 2.402486085891723633e+00 -3.203220069408416748e-01
8.860000000000000000e+02 9.631861686706542969e+00 -5.522341728210449219e+00 -1.309248618781566620e-02 -1.258853971958160400e-01 -4.169336333870887756e-02 5.197228863835334778e-02
8.870000000000000000e+02 1.154556369781494141e+01 -2.160130500793457031e+00 2.271844446659088135e-01 -3.131577000021934509e-02 5.876060202717781067e-02 -7.522230502218008041e-03
8.880000000000000000e+02 1.167955207824707031e+01 -5.126062870025634766e+00 -3.122093621641397476e-03 -1.382177025079727173e-01 -4.240193963050842285e-02 -2.520836517214775085e-02
8.890000000000000000e+02 1.885191917419433594e+01 -4.812862396240234375e+00 -2.538536787033081055e-01 3.299493715167045593e-02 -6.625761836767196655e-02 -2.908014953136444092e-01
8.900000000000000000e+02 2.227538681030273438e+01 -4.984907150268554688e+00 -4.998016059398651123e-01 1.457390487194061279e-01 -1.062187701463699341e-01 -1.990516930818557739e-01
8.910000000000000000e+02 2.656958198547363281e+01 -6.291398048400878906e+00 -1.008079767227172852e+00 2.081267088651657104e-01 -2.399859279394149780e-01 -3.062134385108947754e-01
8.920000000000000000e+02 2.801703834533691406e+01 -6.057614326477050781e+00 -1.399067878723144531e+00 1.315111368894577026e-01 -3.802670240402221680e-01 -2.887668907642364502e-01
8.930000000000000000e+02 2.592590522766113281e+01 -5.825899124145507812e+00 -1.096213698387145996e+00 2.832312583923339844e-01 -2.438947260379791260e-01 -1.697101294994354248e-01
8.940000000000000000e+02 3.503432464599609375e+01 -4.765224933624267578e+00 -2.499084949493408203e+00 -2.028910815715789795e-01 -8.105928301811218262e-01 -7.611210942268371582e-01
8.950000000000000000e+02 3.665026855468750000e+01 -5.536732673645019531e+00 -2.043770074844360352e+00 -2.865443229675292969e-01 -6.990942955017089844e-01 -6.989199519157409668e-01
8.960000000000000000e+02 3.632384109497070312e+01 -4.347445011138916016e+00 -2.506766080856323242e+00 -2.651783525943756104e-01 -8.315833210945129395e-01 -7.537853121757507324e-01
8.970000000000000000e+02 3.885399246215820312e+01 -3.695036649703979492e+00 -2.613207817077636719e+00 -7.426095604896545410e-01 -1.006745219230651855e+00 -1.097621321678161621e+00
8.980000000000000000e+02 3.233391952514648438e+01 -5.600583076477050781e+00 -2.851394414901733398e+00 -1.985936462879180908e-01 -9.149963855743408203e-01 -3.646850287914276123e-01
8.990000000000000000e+02 3.706203842163085938e+01 -1.009004497528076172e+01 -6.469292193651199341e-02 -3.019827902317047119e-01 -1.100027114152908325e-01 -5.498978868126869202e-02
9.000000000000000000e+02 3.530801010131835938e+01 -7.423220634460449219e+00 -1.289170145988464355e+00 -3.394853472709655762e-01 -4.885966777801513672e-01 -2.883627116680145264e-01
9.010000000000000000e+02 4.368608093261718750e+01 -2.140557050704956055e+00 -1.227345585823059082e+00 2.581958472728729248e-01 -2.907449007034301758e-01 -4.894908070564270020e-01
9.020000000000000000e+02 5.987751388549804688e+01 -6.450391292572021484e+00 -4.969525933265686035e-01 1.719381958246231079e-01 -9.750431776046752930e-02 4.354232549667358398e-01
9.030000000000000000e+02 6.922949981689453125e+01 -7.237824440002441406e+00 -8.739089965820312500e-01 5.437565326690673828e+00 1.369096875190734863e+00 -3.665270805358886719e-01
9.040000000000000000e+02 6.468500518798828125e+01 -5.548336982727050781e+00 -3.098156750202178955e-01 2.146546363830566406e+00 5.510191917419433594e-01 -1.859738677740097046e-01
9.050000000000000000e+02 7.548143768310546875e+01 -7.800261020660400391e+00 -3.686462938785552979e-01 8.240769386291503906e+00 2.361636877059936523e+00 3.085814118385314941e-01
9.060000000000000000e+02 3.094890403747558594e+01 -5.655168056488037109e+00 -2.806743144989013672e+00 -2.525815963745117188e-01 -9.177973866462707520e-01 1.462015975266695023e-02
9.070000000000000000e+02 5.005691146850585938e+01 -1.707984328269958496e+00 -8.535516858100891113e-01 1.189433261752128601e-01 -2.203825116157531738e-01 2.985269129276275635e-01
9.080000000000000000e+02 1.310936069488525391e+01 -1.065160369873046875e+01 -5.114247798919677734e-01 -5.057550668716430664e-01 -3.051539659500122070e-01 -2.584235370159149170e-01
9.090000000000000000e+02 1.516837501525878906e+01 -9.633156776428222656e+00 -5.056691765785217285e-01 -4.105652570724487305e-01 -2.748703360557556152e-01 -3.659633994102478027e-01
9.100000000000000000e+02 1.842173004150390625e+01 -1.030243015289306641e+01 -5.047912597656250000e-01 5.739410873502492905e-03 -1.497155427932739258e-01 -4.217726290225982666e-01
9.110000000000000000e+02 2.931071853637695312e+01 -1.083113479614257812e+01 -3.351694345474243164e-02 -2.016834914684295654e-02 -1.610558852553367615e-02 -4.926837086677551270e-01
9.120000000000000000e+02 2.618823432922363281e+01 -1.092384147644042969e+01 -1.189494952559471130e-01 1.411308795213699341e-01 6.654415745288133621e-03 -5.211016535758972168e-01
9.130000000000000000e+02 3.376898574829101562e+01 -7.637932300567626953e+00 -1.373793125152587891e+00 -3.233329951763153076e-01 -5.091378092765808105e-01 -2.222185134887695312e-01
9.140000000000000000e+02 3.342861175537109375e+01 -8.889615058898925781e+00 -7.548470497131347656e-01 -3.369404971599578857e-01 -3.275362551212310791e-01 -1.984166651964187622e-01
9.150000000000000000e+02 3.656995010375976562e+01 -1.410042667388916016e+01 9.052852988243103027e-01 -3.118299245834350586e-01 1.780366152524948120e-01 -4.969754815101623535e-02
9.160000000000000000e+02 3.578927612304687500e+01 -1.006392383575439453e+01 -2.163029015064239502e-01 -3.279941380023956299e-01 -1.632890999317169189e-01 -8.807746320962905884e-02
9.170000000000000000e+02 4.326049041748046875e+01 -1.092034530639648438e+01 3.216757476329803467e-01 7.571016550064086914e-01 3.236332237720489502e-01 1.769832521677017212e-01
9.180000000000000000e+02 3.995309066772460938e+01 -8.994667053222656250e+00 -2.991386651992797852e-01 -6.961011886596679688e-02 -1.106246337294578552e-01 -5.699896067380905151e-02
9.190000000000000000e+02 4.719014358520507812e+01 -7.039480686187744141e+00 -4.610033929347991943e-01 1.127110242843627930e+00 1.998320668935775757e-01 3.007400929927825928e-01
9.200000000000000000e+02 6.469952392578125000e+01 -1.103678131103515625e+01 -1.779704093933105469e+00 6.131106019020080566e-01 -3.499780595302581787e-01 -1.195082291960716248e-01
9.210000000000000000e+02 7.559606933593750000e+01 -9.185377120971679688e+00 -3.819906115531921387e-01 8.282292366027832031e+00 2.370090484619140625e+00 4.813618957996368408e-01
9.220000000000000000e+02 4.153162956237792969e+00 -1.152681827545166016e+01 -1.179117113351821899e-01 3.920117393136024475e-02 -2.361316047608852386e-02 -2.555941976606845856e-02
9.230000000000000000e+02 2.733572769165039062e+01 -1.348234653472900391e+01 7.630954980850219727e-01 9.590270370244979858e-02 2.576994597911834717e-01 -4.197482764720916748e-01
9.240000000000000000e+02 2.603604125976562500e+01 -1.459779262542724609e+01 9.563953280448913574e-01 4.178068041801452637e-02 2.994528114795684814e-01 -2.110546678304672241e-01
9.250000000000000000e+02 4.432450485229492188e+01 -1.404444980621337891e+01 5.918474793434143066e-01 1.435526609420776367e+00 6.082122325897216797e-01 4.130520522594451904e-01
9.260000000000000000e+02 3.912871170043945312e+01 -1.422680759429931641e+01 7.511526346206665039e-01 -6.836310029029846191e-02 2.048368602991104126e-01 -5.338703468441963196e-02
9.270000000000000000e+02 5.184356689453125000e+00 -1.530459880828857422e+01 -1.588831394910812378e-01 -9.742187708616256714e-02 -7.689150422811508179e-02 -2.573618590831756592e-01
9.280000000000000000e+02 3.877655029296875000e+01 -1.671534919738769531e+01 7.249295115470886230e-01 -3.041544184088706970e-02 2.083542346954345703e-01 -2.365468591451644897e-01
9.290000000000000000e+02 4.454937362670898438e+01 -1.278976249694824219e+01 6.085668206214904785e-01 1.275421261787414551e+00 5.651963949203491211e-01 4.110016226768493652e-01
9.300000000000000000e+02 8.944938659667968750e+00 -1.731064414978027344e+01 -2.167572826147079468e-01 -3.862735629081726074e-01 -1.809092611074447632e-01 -4.644871056079864502e-01
9.310000000000000000e+02 4.634676456451416016e+00 -2.246228218078613281e+01 7.040088623762130737e-02 -3.846338987350463867e-01 -9.426990151405334473e-02 -3.181080520153045654e-01
9.320000000000000000e+02 9.072947502136230469e+00 -2.021313858032226562e+01 1.033311262726783752e-01 -3.491046726703643799e-01 -7.373206317424774170e-02 -4.184312820434570312e-01
9.330000000000000000e+02 1.059628963470458984e+01 -2.508290481567382812e+01 3.116222918033599854e-01 -8.056926727294921875e-02 6.931591033935546875e-02 -2.413175702095031738e-01
9.340000000000000000e+02 1.422362709045410156e+01 -2.668413543701171875e+01 3.823460042476654053e-01 2.701737284660339355e-01 1.957559138536453247e-01 -3.176429867744445801e-01
9.350000000000000000e+02 1.224912738800048828e+01 -2.641199493408203125e+01 3.245916664600372314e-01 7.075969874858856201e-02 1.186054125428199768e-01 -2.283291071653366089e-01
9.360000000000000000e+02 4.372926235198974609e+00 -2.618936920166015625e+01 8.661420643329620361e-02 -5.093478560447692871e-01 -1.268200874328613281e-01 -1.860571056604385376e-01
9.370000000000000000e+02 9.547327995300292969e+00 -2.918136787414550781e+01 2.007564306259155273e-01 -1.785890311002731323e-01 6.650218740105628967e-03 -1.335606426000595093e-01
9.380000000000000000e+02 6.757577419281005859e+00 -3.149075889587402344e+01 8.186750859022140503e-02 -4.065554440021514893e-01 -9.740637987852096558e-02 -7.241477072238922119e-02
9.390000000000000000e+02 9.292897224426269531e+00 -3.083049392700195312e+01 1.538618206977844238e-01 -2.040899544954299927e-01 -1.506843883544206619e-02 -9.488607197999954224e-02
9.400000000000000000e+02 1.279397773742675781e+01 -2.997364616394042969e+01 2.530761361122131348e-01 4.825515672564506531e-02 9.039938449859619141e-02 -1.414329111576080322e-01
9.410000000000000000e+02 2.846172332763671875e+01 -3.490018844604492188e+01 3.108827769756317139e-01 5.165329948067665100e-02 1.087608188390731812e-01 -9.869504719972610474e-02
9.420000000000000000e+02 3.324772644042968750e+01 -3.124573707580566406e+01 2.254718691110610962e-01 -4.289558157324790955e-02 5.477288365364074707e-02 -1.652580499649047852e-02
9.430000000000000000e+02 3.663470458984375000e+01 -3.163622856140136719e+01 2.210152894258499146e-01 9.347797930240631104e-02 9.434797614812850952e-02 1.005396395921707153e-01
9.440000000000000000e+02 4.059557723999023438e+01 -3.056391716003417969e+01 1.241424828767776489e-01 4.572831392288208008e-01 1.744276881217956543e-01 1.490669697523117065e-01
9.450000000000000000e+02 4.375911712646484375e+01 -3.150383377075195312e+01 6.341036409139633179e-02 7.275289893150329590e-01 2.372817993164062500e-01 -2.251420542597770691e-02
9.460000000000000000e+02 4.111276245117187500e+01 -3.514580917358398438e+01 2.096725404262542725e-01 4.206989407539367676e-01 1.891114413738250732e-01 2.971609309315681458e-02
9.470000000000000000e+02 4.910742568969726562e+01 -2.867000007629394531e+01 2.140894681215286255e-01 8.238525390625000000e-01 3.113825917243957520e-01 -4.215468168258666992e-01
9.480000000000000000e+02 7.538825225830078125e+01 -3.286106872558593750e+01 -1.605459451675415039e-01 7.292814254760742188e+00 2.139680385589599609e+00 -7.638429105281829834e-02
9.490000000000000000e+02 4.753807449340820312e+01 -2.665756797790527344e+01 2.198030799627304077e-01 1.410272002220153809e+00 4.890225231647491455e-01 -5.465732812881469727e-01
9.500000000000000000e+02 4.498575973510742188e+01 -2.868414115905761719e+01 6.217541918158531189e-02 1.022210717201232910e+00 3.253158330917358398e-01 -9.923402965068817139e-02
9.510000000000000000e+02 2.222841453552246094e+01 -3.047127342224121094e+01 5.637911558151245117e-01 1.313409060239791870e-01 2.085396200418472290e-01 -2.007232755422592163e-01
9.520000000000000000e+02 9.567225456237792969e+00 -3.619973754882812500e+01 4.765528440475463867e-02 -2.264623194932937622e-01 -5.364211276173591614e-02 -2.489110827445983887e-02
9.530000000000000000e+02 1.212289714813232422e+01 -3.612027740478515625e+01 7.233338057994842529e-02 -3.928544744849205017e-02 9.914379566907882690e-03 -4.179882630705833435e-02
9.540000000000000000e+02 1.702163887023925781e+01 -3.616170120239257812e+01 1.208481490612030029e-01 1.613997071981430054e-01 8.467435836791992188e-02 -8.748406916856765747e-02
9.550000000000000000e+02 3.471111679077148438e+01 -3.465488433837890625e+01 3.021398186683654785e-01 6.621234863996505737e-02 1.105056479573249817e-01 2.714774012565612793e-02
9.560000000000000000e+02 6.106055068969726562e+01 -3.503940582275390625e+01 5.323668122291564941e-01 1.424514412879943848e+00 5.870643258094787598e-01 3.563476800918579102e-01
9.570000000000000000e+02 6.380226135253906250e+01 -3.531412506103515625e+01 3.573370277881622314e-01 2.564697742462158203e+00 8.766103982925415039e-01 5.410210490226745605e-01
9.580000000000000000e+02 6.820783233642578125e+01 -3.564955139160156250e+01 6.776959449052810669e-02 4.508110046386718750e+00 1.372763872146606445e+00 4.427086114883422852e-01
9.590000000000000000e+02 4.537465095520019531e+00 -3.700436019897460938e+01 1.927826553583145142e-02 -6.375962495803833008e-01 -1.854953914880752563e-01 -2.204540930688381195e-02
9.600000000000000000e+02 7.122802734375000000e+01 -2.307252311706542969e+01 6.289483904838562012e-01 8.039062500000000000e+00 2.600403308868408203e+00 -1.641041487455368042e-01
9.610000000000000000e+02 6.832933044433593750e+01 -1.985506629943847656e+01 1.047117590904235840e+00 1.337431812286376953e+01 4.326430797576904297e+00 1.497017621994018555e+00
9.620000000000000000e+02 7.581261444091796875e+01 -1.597112941741943359e+01 2.803410887718200684e-01 7.838336944580078125e+00 2.435603380203247070e+00 7.805936336517333984e-01
9.630000000000000000e+02 7.591139221191406250e+01 -1.418080234527587891e+01 6.076657399535179138e-02 8.022434234619140625e+00 2.424960136413574219e+00 8.720449805259704590e-01
9.640000000000000000e+02 7.072322082519531250e+01 2.094478034973144531e+01 1.503237724304199219e+00 1.609373283386230469e+01 5.279091358184814453e+00 7.781078219413757324e-01
9.650000000000000000e+02 7.179910278320312500e+01 2.334663200378417969e+01 -8.175595402717590332e-01 1.092772674560546875e+01 3.033050060272216797e+00 5.626782774925231934e-01
9.660000000000000000e+02 6.617932891845703125e+01 2.573515701293945312e+01 -3.780224621295928955e-01 3.427727460861206055e+00 9.149115085601806641e-01 -1.898886084556579590e+00
9.670000000000000000e+02 6.502840423583984375e+01 2.397395896911621094e+01 -5.598319172859191895e-01 1.463377833366394043e+00 2.710637748241424561e-01 -1.338216304779052734e+00
9.680000000000000000e+02 5.316846847534179688e+01 2.392794799804687500e+01 -9.594338536262512207e-01 -3.754370287060737610e-02 -2.990932762622833252e-01 2.109134644269943237e-01
9.690000000000000000e+02 5.669750976562500000e+01 2.228431510925292969e+01 -2.230270147323608398e+00 -1.154028251767158508e-01 -7.037018537521362305e-01 -2.883729338645935059e-01
9.700000000000000000e+02 4.706647109985351562e+01 2.125360679626464844e+01 -5.021415948867797852e-01 1.587197780609130859e-01 -1.030265465378761292e-01 4.441256076097488403e-02
9.710000000000000000e+02 4.465822219848632812e+01 2.179610824584960938e+01 -3.981906771659851074e-01 1.533422470092773438e-01 -7.345452904701232910e-02 8.860359340906143188e-02
9.720000000000000000e+02 4.060934066772460938e+01 2.197707748413085938e+01 -2.933708131313323975e-01 9.469074010848999023e-02 -5.960402637720108032e-02 1.034866198897361755e-01
9.730000000000000000e+02 3.654085159301757812e+01 2.041191291809082031e+01 -2.523505091667175293e-01 3.665782045572996140e-03 -7.460542023181915283e-02 9.352269768714904785e-02
9.740000000000000000e+02 1.435111713409423828e+01 2.435961151123046875e+01 -2.787972055375576019e-02 -4.732809495180845261e-03 -9.783758781850337982e-03 1.800332218408584595e-02
9.750000000000000000e+02 1.312464141845703125e+01 1.799444770812988281e+01 -2.762020332738757133e-03 -4.007421433925628662e-03 -2.030832460150122643e-03 -4.402698832564055920e-04
9.760000000000000000e+02 4.592685699462890625e+00 2.190656852722167969e+01 -1.856816699728369713e-03 -8.774516172707080841e-04 -8.202804601751267910e-04 1.194456825032830238e-03
9.770000000000000000e+02 4.630664825439453125e+00 1.627664375305175781e+01 5.861100362380966544e-05 2.367257548030465841e-04 8.860103116603568196e-05 -1.522170263342559338e-03
9.780000000000000000e+02 7.901822090148925781e+00 1.706722259521484375e+01 -1.051187748089432716e-03 -2.852301346138119698e-03 -1.171046751551330090e-03 -8.803699747659265995e-04
9.790000000000000000e+02 3.886738204956054688e+01 1.795700645446777344e+01 -2.342245876789093018e-01 3.698706626892089844e-02 -5.917125567793846130e-02 6.784371286630630493e-02
9.800000000000000000e+02 4.463307189941406250e+01 1.720617294311523438e+01 -2.554350197315216064e-01 6.244647875428199768e-02 -5.789655819535255432e-02 -3.062850795686244965e-02
9.810000000000000000e+02 6.573358178138732910e-01 2.057820510864257812e+01 3.357630921527743340e-04 6.814050488173961639e-03 2.144944155588746071e-03 -1.779233716661110520e-04
9.820000000000000000e+02 7.023374938964843750e+01 2.306450843811035156e+01 -1.197899818420410156e+00 1.100486660003662109e+01 2.942090272903442383e+00 -1.488762855529785156e+00
9.830000000000000000e+02 7.015164947509765625e+01 2.641384315490722656e+01 -1.284855723381042480e+00 7.764061450958251953e+00 1.943761706352233887e+00 -1.118555665016174316e+00
9.840000000000000000e+02 6.507096862792968750e+01 2.908184623718261719e+01 -5.654378607869148254e-02 3.067664861679077148e+00 9.033363461494445801e-01 -1.272229790687561035e+00
9.850000000000000000e+02 6.628939056396484375e+01 2.759278297424316406e+01 -3.841989636421203613e-01 3.812260389328002930e+00 1.028418421745300293e+00 -1.644879341125488281e+00
9.860000000000000000e+02 6.308758163452148438e+01 2.667667770385742188e+01 -1.800343990325927734e-01 1.222762703895568848e+00 3.128184974193572998e-01 -1.036388754844665527e+00
9.870000000000000000e+02 5.962392044067382812e+01 2.587700462341308594e+01 -7.141883373260498047e-01 6.673457473516464233e-02 -1.942361295223236084e-01 -5.367773026227951050e-02
9.880000000000000000e+02 5.279986572265625000e+01 2.990235328674316406e+01 7.821162790060043335e-02 8.220271021127700806e-02 4.812430217862129211e-02 3.803495168685913086e-01
9.890000000000000000e+02 5.624010467529296875e+01 2.807331466674804688e+01 -1.384358555078506470e-01 1.282824724912643433e-01 -3.046015510335564613e-03 2.614136040210723877e-01
9.900000000000000000e+02 4.878584671020507812e+01 2.534717941284179688e+01 -4.985309541225433350e-01 1.346547454595565796e-01 -1.091628596186637878e-01 3.160705566406250000e-01
9.910000000000000000e+02 4.704571533203125000e+01 2.479006958007812500e+01 -4.727797508239746094e-01 1.565712988376617432e-01 -9.486253559589385986e-02 2.328712344169616699e-01
9.920000000000000000e+02 4.369464492797851562e+01 2.335561752319335938e+01 -3.597415685653686523e-01 1.420791000127792358e-01 -6.529874354600906372e-02 1.474543958902359009e-01
9.930000000000000000e+02 3.718086624145507812e+01 2.230232620239257812e+01 -2.278735339641571045e-01 2.042610384523868561e-02 -6.223423033952713013e-02 1.061512902379035950e-01
9.940000000000000000e+02 2.940412902832031250e+01 2.417824363708496094e+01 -1.486148685216903687e-01 -8.528471738100051880e-02 -7.016987353563308716e-02 1.190253347158432007e-01
9.950000000000000000e+02 2.173147583007812500e+01 2.383150100708007812e+01 -9.525663405656814575e-02 -2.420374192297458649e-02 -3.583811223506927490e-02 6.106234714388847351e-02
9.960000000000000000e+02 1.556329345703125000e+01 2.432513427734375000e+01 -3.239261358976364136e-02 -7.487771566957235336e-03 -1.196411531418561935e-02 2.165172435343265533e-02
9.970000000000000000e+02 1.321914482116699219e+01 2.536774444580078125e+01 -2.207669429481029510e-02 -7.406014017760753632e-03 -8.844812400639057159e-03 1.871787942945957184e-02
9.980000000000000000e+02 8.474597930908203125e+00 2.341802024841308594e+01 -7.534563075751066208e-03 -5.873543675988912582e-03 -4.022432025521993637e-03 5.847118794918060303e-03
9.990000000000000000e+02 4.645282268524169922e+00 2.324788665771484375e+01 -2.918374724686145782e-03 -1.533952658064663410e-03 -1.335698179900646210e-03 2.440143376588821411e-03
1.000000000000000000e+03 6.547147035598754883e-01 2.340627288818359375e+01 3.321489493828266859e-04 6.634250283241271973e-03 2.089919755235314369e-03 2.715173759497702122e-04
1.001000000000000000e+03 7.399989318847656250e+01 2.850687408447265625e+01 -8.086001873016357422e-01 7.902317523956298828e+00 2.128115177154541016e+00 4.628504216670989990e-01
1.002000000000000000e+03 6.933618164062500000e+01 2.832972908020019531e+01 -9.067810177803039551e-01 6.303453922271728516e+00 1.619001984596252441e+00 -1.146896362304687500e+00
1.003000000000000000e+03 6.113093566894531250e+01 2.901511764526367188e+01 1.690133363008499146e-01 1.028675675392150879e+00 3.593066930770874023e-01 -5.236659646034240723e-01
1.004000000000000000e+03 5.480504608154296875e+01 3.219801330566406250e+01 4.410937428474426270e-01 3.165854513645172119e-01 2.273037731647491455e-01 2.201185673475265503e-01
1.005000000000000000e+03 4.883910369873046875e+01 2.954928016662597656e+01 -1.949735917150974274e-02 6.834272295236587524e-02 1.465360913425683975e-02 3.762647807598114014e-01
1.006000000000000000e+03 4.656255340576171875e+01 2.948887252807617188e+01 -4.169900342822074890e-02 6.341462582349777222e-02 6.514686625450849533e-03 3.617992997169494629e-01
1.007000000000000000e+03 4.311541366577148438e+01 2.734884452819824219e+01 -1.667117923498153687e-01 8.280890434980392456e-02 -2.517086826264858246e-02 2.613537311553955078e-01
1.008000000000000000e+03 3.890517044067382812e+01 2.837171363830566406e+01 -7.072856277227401733e-02 9.352579712867736816e-03 -1.841279491782188416e-02 2.077181339263916016e-01
1.009000000000000000e+03 3.164487457275390625e+01 2.993481445312500000e+01 1.099776104092597961e-02 -9.594644606113433838e-02 -2.548460662364959717e-02 1.352735012769699097e-01
1.010000000000000000e+03 2.977304267883300781e+01 2.708642578125000000e+01 -5.993422120809555054e-02 -9.547665715217590332e-02 -4.662326350808143616e-02 1.203380450606346130e-01
1.011000000000000000e+03 2.733729743957519531e+01 2.681821250915527344e+01 -6.655576080083847046e-02 -8.790027350187301636e-02 -4.633681103587150574e-02 1.098989322781562805e-01
1.012000000000000000e+03 1.926215171813964844e+01 2.895415687561035156e+01 -1.849027350544929504e-02 -4.893615096807479858e-02 -2.022792771458625793e-02 6.597985327243804932e-02
1.013000000000000000e+03 1.625159454345703125e+01 2.735563087463378906e+01 -3.018612042069435120e-02 -1.864317059516906738e-02 -1.464878767728805542e-02 4.043597728013992310e-02
1.014000000000000000e+03 1.246229362487792969e+01 2.869177055358886719e+01 -1.304396521300077438e-02 -1.912413164973258972e-02 -9.650428779423236847e-03 2.707415074110031128e-02
1.015000000000000000e+03 1.019837379455566406e+01 2.642716026306152344e+01 -1.185386441648006439e-02 -1.065681874752044678e-02 -6.753204856067895889e-03 1.529319863766431808e-02
1.016000000000000000e+03 6.860516548156738281e+00 2.882119178771972656e+01 -2.988910069689154625e-03 -1.252675428986549377e-02 -4.654699470847845078e-03 1.155930571258068085e-02
1.017000000000000000e+03 6.721925735473632812e-01 2.623143959045410156e+01 3.134794824291020632e-04 4.316558130085468292e-03 1.389011275023221970e-03 8.311333949677646160e-04
1.018000000000000000e+03 7.520079040527343750e+01 3.168474388122558594e+01 -3.313740193843841553e-01 7.533685684204101562e+00 2.160693407058715820e+00 2.585569322109222412e-01
1.019000000000000000e+03 7.105046844482421875e+01 3.279096221923828125e+01 -3.827375769615173340e-01 6.227504730224609375e+00 1.753430128097534180e+00 -3.806860744953155518e-01
1.020000000000000000e+03 6.658649444580078125e+01 3.011973953247070312e+01 -2.013503611087799072e-01 4.072324752807617188e+00 1.161292314529418945e+00 -1.218028664588928223e+00
1.021000000000000000e+03 4.284309768676757812e+01 3.278494262695312500e+01 1.711976379156112671e-01 -2.278475277125835419e-02 4.452386870980262756e-02 2.698746025562286377e-01
1.022000000000000000e+03 1.782934379577636719e+01 3.299729537963867188e+01 1.362197287380695343e-02 -6.082751229405403137e-02 -1.416166219860315323e-02 5.410281941294670105e-02
1.023000000000000000e+03 1.263772678375244141e+01 3.101285171508789062e+01 -2.957460237666964531e-03 -3.026295267045497894e-02 -9.966123849153518677e-03 3.026388213038444519e-02
1.024000000000000000e+03 8.238611221313476562e+00 3.270070648193359375e+01 1.525846426375210285e-03 -2.405148930847644806e-02 -6.757692899554967880e-03 1.549614965915679932e-02
1.025000000000000000e+03 5.225756645202636719e+00 3.047479057312011719e+01 -9.150107507593929768e-04 -1.217630319297313690e-02 -3.927394282072782516e-03 9.635453112423419952e-03
1.026000000000000000e+03 7.126675248146057129e-01 3.048608016967773438e+01 -4.083008097950369120e-04 -2.699088072404265404e-03 -9.322167024947702885e-04 1.393932499922811985e-03
1.027000000000000000e+03 7.105771636962890625e+01 3.534322738647460938e+01 -1.464704871177673340e-01 5.936347484588623047e+00 1.736963152885437012e+00 -3.012274503707885742e-01
1.028000000000000000e+03 6.793599700927734375e+01 3.556162261962890625e+01 8.721099793910980225e-02 4.655092716217041016e+00 1.422691106796264648e+00 -5.067827701568603516e-01
1.029000000000000000e+03 1.013942813873291016e+01 3.345241546630859375e+01 3.484528278931975365e-03 -3.018272295594215393e-02 -8.009458892047405243e-03 2.154191024601459503e-02
1.030000000000000000e+03 5.184353828430175781e+00 3.374440765380859375e+01 1.276036025956273079e-03 -1.822204515337944031e-02 -5.083802621811628342e-03 9.564952924847602844e-03
1.031000000000000000e+03 6.879355311393737793e-01 3.332509231567382812e+01 -4.018096951767802238e-04 -8.446528576314449310e-03 -2.654501469805836678e-03 1.440352178178727627e-03
1.032000000000000000e+03 7.424771881103515625e+01 3.726717376708984375e+01 -7.134408503770828247e-02 6.913243770599365234e+00 2.052569866180419922e+00 -3.593183681368827820e-02
1.033000000000000000e+03 7.129792022705078125e+01 3.802968978881835938e+01 5.258600041270256042e-02 5.940161705017089844e+00 1.797824263572692871e+00 -1.795025914907455444e-01
1.034000000000000000e+03 4.368202209472656250e+01 3.828282928466796875e+01 4.709570109844207764e-01 -7.739574462175369263e-02 1.180683821439743042e-01 1.562461107969284058e-01
1.035000000000000000e+03 6.026047706604003906e+00 3.814836883544921875e+01 3.648694604635238647e-03 -2.579905278980731964e-02 -6.645107641816139221e-03 7.577486801892518997e-03
1.036000000000000000e+03 6.734226346015930176e-01 3.743651580810546875e+01 1.121312612667679787e-03 -1.668427884578704834e-02 -4.668889567255973816e-03 8.170630899257957935e-04
1.037000000000000000e+03 4.300541877746582031e+00 1.353607463836669922e+01 4.901801585219800472e-04 4.441578348632901907e-04 2.803014067467302084e-04 -1.466217450797557831e-03
1.038000000000000000e+03 6.787537574768066406e+00 1.469639110565185547e+01 6.014871541992761195e-05 -1.750708441250026226e-03 -5.071678897365927696e-04 -1.276419730857014656e-03
1.039000000000000000e+03 1.318400859832763672e+01 1.383673095703125000e+01 1.506969216279685497e-03 -2.293888945132493973e-03 -2.360759244766086340e-04 9.476066916249692440e-04
1.040000000000000000e+03 6.480593085289001465e-01 1.634461593627929688e+01 -2.524700539652258158e-04 4.811553284525871277e-03 1.367724966257810593e-03 -3.712762554641813040e-04
1.041000000000000000e+03 4.258380889892578125e+00 1.091977977752685547e+01 6.073748227208852768e-04 2.436230133753269911e-04 2.552993537392467260e-04 -1.053169253282248974e-03
1.042000000000000000e+03 6.184602379798889160e-01 1.352621173858642578e+01 -1.575548521941527724e-04 3.140714019536972046e-03 8.949477341957390308e-04 -3.440711589064449072e-04
1.043000000000000000e+03 1.351416492462158203e+01 8.720696449279785156e+00 8.399363141506910324e-04 -3.296558570582419634e-04 1.530841254862025380e-04 6.361652049235999584e-04
1.044000000000000000e+03 1.550822830200195312e+01 7.156470775604248047e+00 5.473727942444384098e-04 3.777562524192035198e-04 2.775387256406247616e-04 7.840373436920344830e-04
1.045000000000000000e+03 5.860277414321899414e-01 9.312923431396484375e+00 1.414310245309025049e-04 1.234046765603125095e-03 4.126433341298252344e-04 -1.860406628111377358e-04
1.046000000000000000e+03 9.082178115844726562e+00 1.843948006629943848e+00 3.712024190463125706e-04 -8.452997280983254313e-05 8.600173168815672398e-05 -2.531899917812552303e-05
1.047000000000000000e+03 1.056946372985839844e+01 1.749471426010131836e+00 3.759149112738668919e-04 -1.094469189411029220e-04 7.994039333425462246e-05 4.401629485073499382e-05
1.048000000000000000e+03 1.992373275756835938e+01 4.048814296722412109e+00 -4.939585778629407287e-05 2.022729604505002499e-04 4.586313298204913735e-05 -1.149262461694888771e-04
1.049000000000000000e+03 1.602851867675781250e+01 2.503317356109619141e+00 3.679051005747169256e-04 5.454239726532250643e-05 1.267342449864372611e-04 1.659495756030082703e-04
1.050000000000000000e+03 5.759461522102355957e-01 6.508793830871582031e+00 1.109627773985266685e-04 4.955789772793650627e-04 1.819625322241336107e-04 -1.034016386256553233e-04
1.051000000000000000e+03 4.221392059326171875e+01 1.463691520690917969e+01 -1.304808855056762695e-01 2.144269458949565887e-02 -3.271145373582839966e-02 9.981850162148475647e-03
1.052000000000000000e+03 4.942112731933593750e+01 1.363659954071044922e+01 -8.919859305024147034e-03 1.150787342339754105e-02 7.764042820781469345e-04 -6.720829289406538010e-03
1.053000000000000000e+03 4.671041870117187500e+01 1.379128074645996094e+01 -5.783947557210922241e-02 -1.374194677919149399e-02 -2.147442661225795746e-02 -2.892573922872543335e-02
1.054000000000000000e+03 4.447969818115234375e+01 9.632895469665527344e+00 3.535047406330704689e-03 -9.773576632142066956e-03 -1.871558837592601776e-03 1.111856428906321526e-03
1.055000000000000000e+03 4.730781173706054688e+01 9.655865669250488281e+00 4.400739446282386780e-03 -1.590158208273351192e-03 8.431743481196463108e-04 6.780513562262058258e-03
1.056000000000000000e+03 4.837131118774414062e+01 8.135877609252929688e+00 2.552094403654336929e-03 6.850587669759988785e-03 2.820804482325911522e-03 3.589424304664134979e-03
1.057000000000000000e+03 4.686401367187500000e+01 5.747573852539062500e+00 2.168314065784215927e-03 1.662644790485501289e-03 1.149287680163979530e-03 1.939254463650286198e-03
1.058000000000000000e+03 4.346794509887695312e+01 7.795408725738525391e+00 5.815106444060802460e-03 -8.507822640240192413e-04 1.489297254011034966e-03 -2.886316739022731781e-03
1.059000000000000000e+03 4.053370285034179688e+01 -2.304765129089355469e+01 1.670915335416793823e-01 5.734987258911132812e-01 2.221770733594894409e-01 6.221466884016990662e-02
1.060000000000000000e+03 3.861597824096679688e+01 -1.984228897094726562e+01 2.697833180427551270e-01 1.273574233055114746e-01 1.191422194242477417e-01 -2.062135785818099976e-01
1.061000000000000000e+03 4.627371978759765625e+01 -1.726673316955566406e+01 9.960225969552993774e-02 2.556221961975097656e+00 7.967472672462463379e-01 2.324236035346984863e-01
1.062000000000000000e+03 8.554542541503906250e+00 -2.567442178726196289e+00 1.510628163814544678e-01 -3.750665485858917236e-02 3.406684845685958862e-02 5.822369828820228577e-02
1.063000000000000000e+03 6.826912689208984375e+01 1.513294506072998047e+01 5.157113671302795410e-01 1.119616508483886719e+01 3.513562917709350586e+00 1.633687257766723633e+00
1.064000000000000000e+03 6.781590270996093750e+01 1.237093257904052734e+01 1.298487544059753418e+00 1.070240783691406250e+01 3.600268602371215820e+00 2.825956106185913086e+00
1.065000000000000000e+03 6.723032379150390625e+01 1.104154205322265625e+01 1.794909119606018066e+00 8.455935478210449219e+00 3.075253248214721680e+00 3.016283988952636719e+00
1.066000000000000000e+03 6.136436462402343750e+01 5.155534744262695312e+00 1.810468882322311401e-01 3.386127352714538574e-01 1.558978855609893799e-01 2.307571917772293091e-01
1.067000000000000000e+03 6.035638427734375000e+01 4.237668991088867188e+00 1.160485222935676575e-01 1.881480216979980469e-01 9.125896543264389038e-02 1.479177772998809814e-01
1.068000000000000000e+03 5.477234268188476562e+01 8.237169682979583740e-02 -1.384546607732772827e-01 5.281228944659233093e-02 -2.569271251559257507e-02 1.790126711130142212e-01
1.069000000000000000e+03 4.861881256103515625e+01 -1.494434922933578491e-01 -1.024650931358337402e+00 2.212070822715759277e-01 -2.410331517457962036e-01 1.599178165197372437e-01
1.070000000000000000e+03 4.710646057128906250e+01 -6.990340352058410645e-02 -9.721547365188598633e-01 1.931199878454208374e-01 -2.337104231119155884e-01 -1.329276990145444870e-02
1.071000000000000000e+03 4.560315704345703125e+01 7.579320669174194336e-02 -8.812515735626220703e-01 1.604641079902648926e-01 -2.162362486124038696e-01 -2.247501462697982788e-01
1.072000000000000000e+03 4.485480117797851562e+01 1.473266333341598511e-01 -8.225822448730468750e-01 1.388155072927474976e-01 -2.051300257444381714e-01 -2.837436795234680176e-01
1.073000000000000000e+03 4.348954772949218750e+01 2.353390902280807495e-01 -6.514323949813842773e-01 2.395303733646869659e-02 -1.882438063621520996e-01 -3.687473833560943604e-01
1.074000000000000000e+03 4.122058868408203125e+01 -1.422264218330383301e+00 -8.355512022972106934e-01 -7.999177575111389160e-01 -4.906406998634338379e-01 -7.936378121376037598e-01
1.075000000000000000e+03 3.761857604980468750e+01 -4.022192001342773438e+00 -2.714874505996704102e+00 -3.443009555339813232e-01 -9.177526235580444336e-01 -9.042848348617553711e-01
1.076000000000000000e+03 3.372967910766601562e+01 -5.287512302398681641e+00 -2.736456155776977539e+00 -3.211118280887603760e-01 -9.172704219818115234e-01 -5.856637954711914062e-01
1.077000000000000000e+03 2.685189437866210938e+01 -2.769904851913452148e+00 -3.384857773780822754e-01 -1.227590665221214294e-01 -1.383734494447708130e-01 2.013657093048095703e-01
1.078000000000000000e+03 2.324161148071289062e+01 -3.281595230102539062e+00 -4.219962358474731445e-01 7.283900678157806396e-02 -1.047471761703491211e-01 -2.358577027916908264e-02
1.079000000000000000e+03 2.238234519958496094e+01 -3.394878625869750977e+00 -3.916367292404174805e-01 6.326492130756378174e-02 -9.851153939962387085e-02 -7.763022929430007935e-02
1.080000000000000000e+03 2.153557395935058594e+01 -3.440688133239746094e+00 -3.405899107456207275e-01 3.818728029727935791e-02 -9.072078764438629150e-02 -1.264042854309082031e-01
1.081000000000000000e+03 1.829430007934570312e+01 -3.295815467834472656e+00 -1.043248027563095093e-01 1.959265768527984619e-02 -2.541964501142501831e-02 -1.974325180053710938e-01
1.082000000000000000e+03 1.909080314636230469e+01 -3.360058546066284180e+00 -1.687282919883728027e-01 3.220281749963760376e-02 -4.095764085650444031e-02 -1.885577738285064697e-01
1.083000000000000000e+03 1.673575782775878906e+01 -3.084338665008544922e+00 1.823569089174270630e-02 9.900650940835475922e-03 8.440902456641197205e-03 -1.684627085924148560e-01
1.084000000000000000e+03 1.225290012359619141e+01 -2.285522699356079102e+00 2.209590375423431396e-01 -2.896974608302116394e-02 5.759678781032562256e-02 -2.835882641375064850e-02
1.085000000000000000e+03 1.297552108764648438e+01 -2.415241241455078125e+00 2.117909044027328491e-01 -2.131927199661731720e-02 5.714149028062820435e-02 -4.706401377916336060e-02
1.086000000000000000e+03 1.371348857879638672e+01 -2.550103187561035156e+00 1.904381364583969116e-01 -1.960583403706550598e-02 5.124969035387039185e-02 -7.223099470138549805e-02
1.087000000000000000e+03 1.013594913482666016e+01 -1.929894924163818359e+00 2.231981456279754639e-01 -3.555588051676750183e-02 5.629267916083335876e-02 1.789699867367744446e-02
1.088000000000000000e+03 7.164569377899169922e+00 -1.842344284057617188e+00 1.577047556638717651e-01 -1.120808348059654236e-02 4.394900053739547729e-02 6.239269673824310303e-02
1.089000000000000000e+03 6.409315109252929688e+00 -1.837823152542114258e+00 1.374686509370803833e-01 -7.723999675363302231e-03 3.892339766025543213e-02 6.867760419845581055e-02
1.090000000000000000e+03 7.917781352996826172e+00 -1.847863793373107910e+00 1.735524088144302368e-01 -1.864331588149070740e-02 4.647272825241088867e-02 5.165212601423263550e-02
1.091000000000000000e+03 4.158284664154052734e+00 -1.851751565933227539e+00 8.027054369449615479e-02 6.695553660392761230e-03 2.608983032405376434e-02 6.708970665931701660e-02
1.092000000000000000e+03 2.690660715103149414e+00 -1.927649021148681641e+00 3.977592661976814270e-02 1.880194619297981262e-02 1.757336221635341644e-02 5.374151840806007385e-02
1.093000000000000000e+03 1.951740622520446777e+00 -2.005273580551147461e+00 2.504642866551876068e-02 2.474770881235599518e-02 1.493824180215597153e-02 4.424485564231872559e-02
1.094000000000000000e+03 1.837460398674011230e+00 -5.142910480499267578e+00 4.926956258714199066e-03 1.037653088569641113e-01 3.260767832398414612e-02 7.332459837198257446e-02
1.095000000000000000e+03 1.190067768096923828e+00 -2.097387790679931641e+00 1.065844390541315079e-02 3.196709230542182922e-02 1.278766151517629623e-02 2.709476277232170105e-02
1.096000000000000000e+03 4.027869701385498047e-01 -2.180521965026855469e+00 1.876333495602011681e-03 2.142093144357204437e-02 6.989179644733667374e-03 8.649485185742378235e-03
1.097000000000000000e+03 8.091529607772827148e-01 -3.872897720336914062e+01 -5.377817898988723755e-03 -8.887929916381835938e-01 -2.682512402534484863e-01 1.513722725212574005e-02
1.098000000000000000e+03 8.897503614425659180e-01 -3.331032943725585938e+01 6.758530624210834503e-03 -9.387266635894775391e-01 -2.795904278755187988e-01 -1.969982869923114777e-03
1.099000000000000000e+03 8.712603449821472168e-01 -3.188489341735839844e+01 -5.644302582368254662e-04 -9.315669536590576172e-01 -2.796394228935241699e-01 -6.865174043923616409e-03
1.100000000000000000e+03 6.582145690917968750e-01 -2.619245338439941406e+01 2.055139746516942978e-03 -7.736140489578247070e-01 -2.314676642417907715e-01 -3.642712160944938660e-02
1.101000000000000000e+03 1.827589511871337891e+00 -2.189753341674804688e+01 1.390470191836357117e-02 -4.025315940380096436e-01 -1.165880709886550903e-01 -1.765205562114715576e-01
1.102000000000000000e+03 1.913314580917358398e+00 -1.914337730407714844e+01 -5.424877628684043884e-03 -1.779990494251251221e-01 -5.502717941999435425e-02 -1.860751807689666748e-01
1.103000000000000000e+03 1.818012595176696777e+00 -1.190688133239746094e+01 -3.001136891543865204e-02 2.088641077280044556e-01 5.365582183003425598e-02 -1.473492663353681564e-02
1.104000000000000000e+03 1.742546081542968750e+00 -6.505537033081054688e+00 -5.419946741312742233e-03 1.470320969820022583e-01 4.248364642262458801e-02 7.165972143411636353e-02
1.105000000000000000e+03 2.160001277923583984e+00 -2.997413396835327148e+00 2.348339371383190155e-02 3.945761546492576599e-02 1.888230256736278534e-02 6.552839279174804688e-02
1.106000000000000000e+03 7.935719299316406250e+01 3.873620223999023438e+01 6.051463633775711060e-02 8.536175727844238281e+00 2.579007148742675781e+00 -4.424074664711952209e-02
1.107000000000000000e+03 7.847364044189453125e+01 3.778095626831054688e+01 -2.857594378292560577e-02 8.268904685974121094e+00 2.472098588943481445e+00 -7.767589390277862549e-02
1.108000000000000000e+03 7.918688964843750000e+01 3.515576171875000000e+01 -1.596766896545886993e-02 8.664436340332031250e+00 2.594540596008300781e+00 3.636228665709495544e-02
1.109000000000000000e+03 7.925296020507812500e+01 2.926300430297851562e+01 -2.251341566443443298e-02 7.993248939514160156e+00 2.391220569610595703e+00 2.061671763658523560e-01
1.110000000000000000e+03 7.805254364013671875e+01 2.778426551818847656e+01 -1.596386432647705078e-01 7.582999229431152344e+00 2.227008104324340820e+00 6.698322296142578125e-01
1.111000000000000000e+03 7.817610168457031250e+01 2.505343818664550781e+01 -6.504473835229873657e-02 6.677216529846191406e+00 1.983651518821716309e+00 9.468091130256652832e-01
1.112000000000000000e+03 7.832940673828125000e+01 2.242361259460449219e+01 8.330935984849929810e-02 5.635252475738525391e+00 1.715568423271179199e+00 9.077780842781066895e-01
1.113000000000000000e+03 7.940139007568359375e+01 1.958779907226562500e+01 4.163700342178344727e-02 3.382057666778564453e+00 1.027108430862426758e+00 9.691501408815383911e-02
1.114000000000000000e+03 7.822624969482421875e+01 1.838167762756347656e+01 3.006508350372314453e-01 4.868842601776123047e+00 1.550848007202148438e+00 -9.719377756118774414e-02
1.115000000000000000e+03 7.933237457275390625e+01 1.541308021545410156e+01 3.311041742563247681e-02 4.174557209014892578e+00 1.262300252914428711e+00 -2.987285554409027100e-01
1.116000000000000000e+03 7.935378265380859375e+01 9.842047691345214844e+00 -1.529393903911113739e-02 6.848122119903564453e+00 2.049848318099975586e+00 -3.061366677284240723e-01
1.117000000000000000e+03 7.806951141357421875e+01 8.603795051574707031e+00 -5.125010758638381958e-02 7.513987541198730469e+00 2.238821268081665039e+00 -7.185157537460327148e-01
1.118000000000000000e+03 7.803289031982421875e+01 5.772075653076171875e+00 -7.041674852371215820e-02 8.183505058288574219e+00 2.433926582336425781e+00 -5.769196748733520508e-01
1.119000000000000000e+03 7.808616638183593750e+01 1.527724504470825195e+00 -6.063272804021835327e-02 8.906364440917968750e+00 2.653719425201416016e+00 -3.353401124477386475e-01
1.120000000000000000e+03 7.937679290771484375e+01 5.373671650886535645e-02 -1.229205820709466934e-02 9.664195060729980469e+00 2.895570993423461914e+00 -1.150532066822052002e-01
1.121000000000000000e+03 7.817388153076171875e+01 -1.237927913665771484e+00 -5.175400897860527039e-02 9.231276512145996094e+00 2.753856658935546875e+00 -1.938751339912414551e-01
1.122000000000000000e+03 7.816497039794921875e+01 -5.348578929901123047e+00 -6.889811903238296509e-02 9.363237380981445312e+00 2.788301706314086914e+00 2.378865890204906464e-02
1.123000000000000000e+03 7.939599609375000000e+01 -6.879053115844726562e+00 -1.043293811380863190e-02 9.905925750732421875e+00 2.968647718429565430e+00 3.590154647827148438e-02
1.124000000000000000e+03 7.815829467773437500e+01 -8.069218635559082031e+00 -7.822117209434509277e-02 9.205499649047851562e+00 2.738183498382568359e+00 2.208364158868789673e-01
1.125000000000000000e+03 7.821241760253906250e+01 -1.214149475097656250e+01 -5.158016085624694824e-02 8.576581001281738281e+00 2.557500123977661133e+00 4.845793247222900391e-01
1.126000000000000000e+03 7.706034851074218750e+01 -1.324349021911621094e+01 -5.101891234517097473e-02 8.239004135131835938e+00 2.456395626068115234e+00 7.253023386001586914e-01
1.127000000000000000e+03 7.938287353515625000e+01 -1.656877136230468750e+01 1.529463380575180054e-02 7.467616558074951172e+00 2.244873285293579102e+00 1.502832919359207153e-01
1.128000000000000000e+03 7.815082550048828125e+01 -1.767751121520996094e+01 1.035215258598327637e-01 7.467128753662109375e+00 2.271194934844970703e+00 3.145994544029235840e-01
1.129000000000000000e+03 7.815821838378906250e+01 -2.178696250915527344e+01 1.096579134464263916e-01 7.265655517578125000e+00 2.212594032287597656e+00 -1.334170699119567871e-01
1.130000000000000000e+03 7.935661315917968750e+01 -2.351466178894042969e+01 3.554889187216758728e-02 7.230294704437255859e+00 2.179753065109252930e+00 -1.131767854094505310e-01
1.131000000000000000e+03 7.928913116455078125e+01 -2.631719398498535156e+01 1.727777905762195587e-02 7.704120635986328125e+00 2.316419601440429688e+00 -1.359087377786636353e-01
1.132000000000000000e+03 7.784450531005859375e+01 -2.890510559082031250e+01 -6.636158376932144165e-02 7.831538200378417969e+00 2.329552888870239258e+00 -2.521706819534301758e-01
1.133000000000000000e+03 7.930270385742187500e+01 -3.053188896179199219e+01 -2.018112502992153168e-02 8.278476715087890625e+00 2.477488517761230469e+00 -7.701972872018814087e-02
1.134000000000000000e+03 7.789469146728515625e+01 -3.302045440673828125e+01 -4.975856840610504150e-02 7.998110294342041016e+00 2.384505510330200195e+00 -7.726248353719711304e-02
1.135000000000000000e+03 7.917452239990234375e+01 -3.603298187255859375e+01 -3.156818076968193054e-02 8.435145378112792969e+00 2.521073341369628906e+00 2.706039324402809143e-02
1.136000000000000000e+03 7.552815246582031250e+01 -3.655548095703125000e+01 -7.278569042682647705e-02 7.249020576477050781e+00 2.152870416641235352e+00 -1.937226951122283936e-02
1.137000000000000000e+03 7.867807006835937500e+01 -4.012850952148437500e+01 -7.154028862714767456e-02 8.130268096923828125e+00 2.417618513107299805e+00 1.204719021916389465e-01
1.138000000000000000e+03 5.557613968849182129e-01 3.642580986022949219e+00 6.292569742072373629e-05 1.153063058154657483e-04 5.346960097085684538e-05 -5.294496077112853527e-05
1.139000000000000000e+03 1.769957184791564941e+00 5.236132144927978516e+00 1.771796232787892222e-04 2.622025203891098499e-04 1.318146387347951531e-04 -2.207913639722391963e-04
1.140000000000000000e+03 1.749475002288818359e+00 8.026893615722656250e+00 2.167154889320954680e-04 7.184357382357120514e-04 2.805453550536185503e-04 -4.035416059195995331e-04
1.141000000000000000e+03 5.948113203048706055e-01 1.071378993988037109e+01 -1.135928978328593075e-04 1.756419311277568340e-03 4.928479320369660854e-04 -2.477001398801803589e-04
1.142000000000000000e+03 1.817426443099975586e+00 1.214959907531738281e+01 -8.717722812434658408e-05 1.786032109521329403e-03 5.096565000712871552e-04 -7.979950751177966595e-04
1.143000000000000000e+03 1.901940107345581055e+00 1.493842411041259766e+01 -1.964413095265626907e-04 2.714655129238963127e-03 7.554641924798488617e-04 -9.789300383999943733e-04
1.144000000000000000e+03 1.974993944168090820e+00 1.774377059936523438e+01 -4.175599606242030859e-04 3.591749817132949829e-03 9.522569598630070686e-04 -8.594550890848040581e-04
1.145000000000000000e+03 6.611402034759521484e-01 2.481871223449707031e+01 -5.855641211383044720e-04 5.784142296761274338e-03 1.559573458507657051e-03 5.311693530529737473e-04
1.146000000000000000e+03 6.870731711387634277e-01 2.764617729187011719e+01 -5.340786883607506752e-04 2.372857416048645973e-03 5.516335950233042240e-04 1.046875375322997570e-03
1.147000000000000000e+03 2.136947393417358398e+00 2.903962898254394531e+01 -7.759808795526623726e-04 -3.563301172107458115e-03 -1.301784650422632694e-03 3.644423792138695717e-03
1.148000000000000000e+03 7.088739871978759766e-01 3.191000556945800781e+01 3.763183776754885912e-04 -5.551434122025966644e-03 -1.552534755319356918e-03 1.465147593989968300e-03
1.149000000000000000e+03 1.982631683349609375e+00 3.477096176147460938e+01 -2.196700515924021602e-04 -1.336574740707874298e-02 -4.075625445693731308e-03 3.913495689630508423e-03
1.150000000000000000e+03 2.920712471008300781e+00 3.631353759765625000e+01 7.601152174174785614e-04 -1.735249534249305725e-02 -4.977713804692029953e-03 4.755046218633651733e-03
1.151000000000000000e+03 7.925726771354675293e-01 3.874838256835937500e+01 -4.826368240173906088e-04 -1.787230558693408966e-02 -5.506482906639575958e-03 5.081861745566129684e-04
1.152000000000000000e+03 9.814352035522460938e+00 1.823380708694458008e+00 4.895357997156679630e-04 2.028359631367493421e-05 1.529458095319569111e-04 -1.252823039976647124e-05
1.153000000000000000e+03 9.151540756225585938e+00 2.534430742263793945e+00 5.227248766459524632e-04 -1.373637314827647060e-05 1.526965497760102153e-04 -8.335457096109166741e-05
1.154000000000000000e+03 5.450548171997070312e+00 1.879215598106384277e+00 3.303947742097079754e-04 1.500045163993490860e-05 1.036185640259645879e-04 -1.497478369856253266e-04
1.155000000000000000e+03 3.270359039306640625e+00 1.898293495178222656e+00 6.479778676293790340e-05 2.314336597919464111e-05 2.638234582263976336e-05 -8.553144289180636406e-05
1.156000000000000000e+03 2.550894260406494141e+00 1.921424031257629395e+00 1.541281671961769462e-04 3.932016261387616396e-05 5.803450039820745587e-05 -9.787514136405661702e-05
1.157000000000000000e+03 1.208984494209289551e+00 2.044646024703979492e+00 6.329423194983974099e-05 9.301406680606305599e-05 4.689248817157931626e-05 -7.394677959382534027e-05
1.158000000000000000e+03 1.148362541198730469e+01 3.010077714920043945e+00 4.692770598921924829e-04 2.521232272556517273e-05 1.483468222431838512e-04 1.245855237357318401e-04
1.159000000000000000e+03 1.287121677398681641e+01 1.361971735954284668e+00 3.820492711383849382e-04 1.463983608118724078e-05 1.190067341667599976e-04 1.184147695312276483e-04
1.160000000000000000e+03 1.435021209716796875e+01 1.108738899230957031e+00 2.855016209650784731e-04 2.397058415226638317e-05 9.284166299039497972e-05 9.731287718750536442e-05
1.161000000000000000e+03 1.738638687133789062e+01 1.302697896957397461e+00 5.898483505006879568e-05 -6.724788545398041606e-05 -2.478913984305108897e-06 1.560055388836190104e-04
1.162000000000000000e+03 1.655234909057617188e+01 7.373315691947937012e-01 1.370763493468984962e-05 -4.654225267586298287e-05 -9.850385140452999622e-06 1.319817674811929464e-04
1.163000000000000000e+03 1.793595695495605469e+01 4.678131639957427979e-01 1.725915717543102801e-05 -8.705302025191485882e-05 -2.093815783155150712e-05 7.871997513575479388e-05
1.164000000000000000e+03 1.927151679992675781e+01 3.799573183059692383e-01 -3.758470847969874740e-05 -7.175027712946757674e-05 -3.280049713794142008e-05 8.082209205895196646e-06
1.165000000000000000e+03 2.128522300720214844e+01 4.154309630393981934e-01 7.924338569864630699e-05 6.899870641063898802e-05 4.447262836038134992e-05 -3.603564618970267475e-05
1.166000000000000000e+03 2.332580566406250000e+01 6.948071122169494629e-01 1.630377482797484845e-05 -1.224131119670346379e-04 -3.183280205121263862e-05 7.696316970395855606e-06
1.167000000000000000e+03 2.394888114929199219e+01 8.762882947921752930e-01 7.575956260552629828e-05 9.066702477866783738e-05 4.992797403247095644e-05 5.199494626140221953e-05
1.168000000000000000e+03 2.214656257629394531e+01 2.263362884521484375e+00 3.931803803425282240e-05 3.906300844391807914e-05 2.351431430724915117e-05 4.352741598268039525e-06
1.169000000000000000e+03 1.881333541870117188e+01 9.576508522033691406e+00 -8.255522116087377071e-04 1.325237681157886982e-03 1.499056234024465084e-04 7.433874998241662979e-05
1.170000000000000000e+03 1.838262748718261719e+01 1.376404953002929688e+01 1.360211870633065701e-03 5.258665885776281357e-03 1.985663315281271935e-03 8.526510791853070259e-04
1.171000000000000000e+03 1.825869560241699219e+01 1.665435600280761719e+01 3.233874216675758362e-03 1.003653835505247116e-02 3.981123678386211395e-03 2.659408142790198326e-03
1.172000000000000000e+03 2.475072479248046875e+01 2.176754379272460938e+01 -2.004864364862442017e-01 -1.543877087533473969e-02 -6.477756053209304810e-02 5.247844755649566650e-02
1.173000000000000000e+03 2.935282516479492188e+01 2.093963050842285156e+01 -2.980141639709472656e-01 -6.385144591331481934e-02 -1.085596829652786255e-01 1.239224597811698914e-01
1.174000000000000000e+03 3.769899368286132812e+01 1.496713161468505859e+01 -1.110537424683570862e-01 -3.904818370938301086e-02 -4.503057897090911865e-02 7.152640074491500854e-02
1.175000000000000000e+03 4.073377227783203125e+01 1.166217994689941406e+01 -1.657251454889774323e-02 1.211976166814565659e-02 -1.335826003924012184e-03 -1.330624101683497429e-03
1.176000000000000000e+03 4.234872817993164062e+01 7.580485343933105469e+00 1.369972713291645050e-03 5.437583196908235550e-03 2.042266773059964180e-03 -4.885149188339710236e-03
1.177000000000000000e+03 4.587371826171875000e+01 3.922643899917602539e+00 6.883674650453031063e-04 -2.049325994448736310e-04 1.450304553145542741e-04 -1.408271928085014224e-04
1.178000000000000000e+03 4.661450958251953125e+01 3.854422330856323242e+00 5.015762781113153324e-06 1.758681319188326597e-04 5.426516872830688953e-05 -1.344223710475489497e-04
1.179000000000000000e+03 4.665031051635742188e+01 4.863184452056884766e+00 4.614621575456112623e-04 4.101720114704221487e-04 2.614902623463422060e-04 1.835217553889378905e-04
1.180000000000000000e+03 4.882431030273437500e+01 1.089482593536376953e+01 3.418257459998130798e-03 1.871058717370033264e-02 6.638653110712766647e-03 6.440873257815837860e-03
1.181000000000000000e+03 6.482637023925781250e+01 2.177916717529296875e+01 -1.820822715759277344e+00 4.256688524037599564e-03 -5.449697971343994141e-01 1.879029422998428345e-01
1.182000000000000000e+03 6.967896270751953125e+01 2.117133903503417969e+01 3.925552666187286377e-01 1.410768890380859375e+01 4.350073337554931641e+00 -3.308122396469116211e+00
1.183000000000000000e+03 6.854714965820312500e+01 1.743170928955078125e+01 2.418613135814666748e-01 7.138723850250244141e+00 2.214175701141357422e+00 3.244436740875244141e+00
1.184000000000000000e+03 6.874385833740234375e+01 1.746612739562988281e+01 1.182629391551017761e-01 7.910804271697998047e+00 2.408720016479492188e+00 3.560114860534667969e+00
1.185000000000000000e+03 6.894531250000000000e+01 1.751133346557617188e+01 4.823123663663864136e-02 9.478165626525878906e+00 2.857918977737426758e+00 3.835681676864624023e+00
1.186000000000000000e+03 6.936006164550781250e+01 1.760961723327636719e+01 -3.789620101451873779e-01 1.274038600921630859e+01 3.708427190780639648e+00 4.179745674133300781e+00
1.187000000000000000e+03 5.747360992431640625e+01 -9.868062973022460938e+00 -1.512801408767700195e+00 -3.377181589603424072e-01 -5.551558732986450195e-01 8.578338027000427246e-01
1.188000000000000000e+03 6.236637878417968750e+01 -1.030584430694580078e+01 -1.622705817222595215e+00 4.024080187082290649e-02 -4.747395217418670654e-01 5.037901997566223145e-01
1.189000000000000000e+03 6.727444458007812500e+01 -1.396677684783935547e+01 7.225335240364074707e-01 5.635309219360351562e+00 1.907352805137634277e+00 -1.752524495124816895e+00
1.190000000000000000e+03 6.830356597900390625e+01 -1.716692352294921875e+01 5.251916646957397461e-01 1.178702259063720703e+01 3.693664312362670898e+00 -6.598412990570068359e-01
1.191000000000000000e+03 6.517435455322265625e+01 -2.483432388305664062e+01 9.485308527946472168e-01 2.319637060165405273e+00 9.804503321647644043e-01 1.431747198104858398e+00
1.192000000000000000e+03 6.419177246093750000e+01 -2.577060127258300781e+01 5.620602965354919434e-01 1.410711646080017090e+00 5.918315649032592773e-01 9.489735364913940430e-01
1.193000000000000000e+03 6.211527252197265625e+01 -2.762500953674316406e+01 -1.274085342884063721e-01 4.456466138362884521e-01 9.547142684459686279e-02 2.025388181209564209e-01
1.194000000000000000e+03 6.099144744873046875e+01 -2.850375556945800781e+01 -4.892150163650512695e-01 2.022806107997894287e-01 -8.608032017946243286e-02 -1.725810021162033081e-02
1.195000000000000000e+03 5.834893035888671875e+01 -2.969167137145996094e+01 -1.036741495132446289e+00 -6.683264672756195068e-02 -3.310722410678863525e-01 -2.172281444072723389e-01
1.196000000000000000e+03 4.919326782226562500e+01 -2.656183242797851562e+01 5.186331272125244141e-01 8.432627320289611816e-01 4.085687696933746338e-01 -6.186719536781311035e-01
1.197000000000000000e+03 4.828562927246093750e+01 -2.560563087463378906e+01 6.013447642326354980e-01 1.056657314300537109e+00 4.974006414413452148e-01 -8.130512237548828125e-01
1.198000000000000000e+03 4.600577926635742188e+01 -2.015691375732421875e+01 1.833314597606658936e-01 2.681456089019775391e+00 8.594362735748291016e-01 -1.446038186550140381e-01
1.199000000000000000e+03 4.606410598754882812e+01 -1.869320487976074219e+01 9.109233319759368896e-02 2.533808231353759766e+00 7.874702215194702148e-01 6.237353011965751648e-02
1.200000000000000000e+03 4.647194290161132812e+01 -1.589732170104980469e+01 1.687969714403152466e-01 2.690369606018066406e+00 8.577499985694885254e-01 4.373096823692321777e-01
1.201000000000000000e+03 4.674163055419921875e+01 -1.454065704345703125e+01 3.201995193958282471e-01 2.746074676513671875e+00 9.198822379112243652e-01 7.054659128189086914e-01
1.202000000000000000e+03 2.111123657226562500e+01 -1.266436004638671875e+01 -4.114633053541183472e-02 8.485545217990875244e-02 1.311273686587810516e-02 -2.140286415815353394e-01
1.203000000000000000e+03 2.478560638427734375e+01 -1.327855587005615234e+01 4.320912063121795654e-01 9.330775588750839233e-02 1.576196849346160889e-01 -3.358329236507415771e-01
1.204000000000000000e+03 2.870433044433593750e+01 -1.481962871551513672e+01 1.467577695846557617e+00 8.177717775106430054e-02 4.648064374923706055e-01 -2.866464555263519287e-01
1.205000000000000000e+03 3.255285263061523438e+01 -1.453111839294433594e+01 1.507515311241149902e+00 2.706733047962188721e-01 5.334565639495849609e-01 -3.636822104454040527e-01
1.206000000000000000e+03 3.602936172485351562e+01 -1.907776641845703125e+01 9.982894361019134521e-02 -5.375601649284362793e-01 -1.313193738460540771e-01 -8.621054887771606445e-02
1.207000000000000000e+03 3.623381042480468750e+01 -2.172587776184082031e+01 9.044646285474300385e-03 -7.174379229545593262e-01 -2.125179767608642578e-01 8.742561563849449158e-03
1.208000000000000000e+03 3.602538681030273438e+01 -2.452306747436523438e+01 -2.371628582477569580e-02 -6.133792996406555176e-01 -1.911286711692810059e-01 -7.938390225172042847e-02
1.209000000000000000e+03 3.339871597290039062e+01 -2.867473220825195312e+01 3.621303942054510117e-03 -8.778202533721923828e-02 -2.524821646511554718e-02 -5.943694338202476501e-02
1.210000000000000000e+03 3.225922393798828125e+01 -2.948194694519042969e+01 6.304758787155151367e-02 -6.053999438881874084e-02 7.522779633291065693e-04 -1.922317966818809509e-02
1.211000000000000000e+03 2.528081893920898438e+01 -3.091749382019042969e+01 4.619815349578857422e-01 4.131315648555755615e-02 1.509883999824523926e-01 -8.388394117355346680e-02
1.212000000000000000e+03 2.377667045593261719e+01 -3.068978881835937500e+01 5.140904188156127930e-01 6.332728266716003418e-02 1.732252985239028931e-01 -1.315978169441223145e-01
1.213000000000000000e+03 2.079219436645507812e+01 -2.996764755249023438e+01 6.025426387786865234e-01 1.682626157999038696e-01 2.312415689229965210e-01 -2.719637453556060791e-01
1.214000000000000000e+03 1.722315406799316406e+01 -2.759913444519042969e+01 5.798891782760620117e-01 4.165440201759338379e-01 2.989299595355987549e-01 -4.528226554393768311e-01
1.215000000000000000e+03 1.255647182464599609e+01 -2.275257682800292969e+01 2.968218326568603516e-01 3.047219812870025635e-01 1.804631352424621582e-01 -3.195606172084808350e-01
1.216000000000000000e+03 1.166977882385253906e+01 -1.949822235107421875e+01 -1.137672457844018936e-02 -3.440176844596862793e-01 -1.066183224320411682e-01 -1.008695363998413086e-01
1.217000000000000000e+03 1.407391548156738281e+01 -1.309551143646240234e+01 -1.145947098731994629e+00 -7.176467180252075195e-01 -5.590781569480895996e-01 -8.140911459922790527e-01
1.218000000000000000e+03 4.295331192016601562e+01 2.558935880661010742e-01 -5.009489655494689941e-01 -8.934570103883743286e-02 -1.770883947610855103e-01 -3.800610601902008057e-01
1.219000000000000000e+03 4.149316024780273438e+01 3.577987551689147949e-01 -1.420326083898544312e-01 -4.311270713806152344e-01 -1.719479113817214966e-01 -2.429805845022201538e-01
1.220000000000000000e+03 7.023480224609375000e+01 1.693873023986816406e+01 -9.141994118690490723e-01 1.441047763824462891e+01 4.048883438110351562e+00 1.667287707328796387e+00
1.221000000000000000e+03 6.921838378906250000e+01 2.107472610473632812e+01 1.161636471748352051e+00 1.095206928253173828e+01 3.634111881256103516e+00 -5.129695415496826172e+00
1.222000000000000000e+03 6.877651977539062500e+01 2.088737106323242188e+01 2.352867841720581055e+00 7.293496131896972656e+00 2.893909215927124023e+00 -5.004620552062988281e+00
1.223000000000000000e+03 6.724935150146484375e+01 2.051269531250000000e+01 9.003361463546752930e-01 2.568206489086151123e-01 3.471470475196838379e-01 -7.523777484893798828e-01
1.224000000000000000e+03 6.812525939941406250e+01 2.080181312561035156e+01 2.057923316955566406e+00 3.343063116073608398e+00 1.620295882225036621e+00 -3.132250785827636719e+00
1.225000000000000000e+03 6.959568786621093750e+01 1.728722953796386719e+01 -1.018073558807373047e+00 1.353516292572021484e+01 3.755126714706420898e+00 3.148955583572387695e+00
1.226000000000000000e+03 6.932464599609375000e+01 1.721565437316894531e+01 -5.462006330490112305e-01 1.201696491241455078e+01 3.441229104995727539e+00 3.556401252746582031e+00
1.227000000000000000e+03 7.013340759277343750e+01 1.737143707275390625e+01 -9.119087457656860352e-01 1.618068122863769531e+01 4.580631732940673828e+00 1.663074254989624023e+00
1.228000000000000000e+03 6.858663177490234375e+01 2.085831451416015625e+01 2.491898298263549805e+00 5.807991504669189453e+00 2.489966869354248047e+00 -4.479743480682373047e+00
1.229000000000000000e+03 6.777186584472656250e+01 2.063476181030273438e+01 1.806292772293090820e+00 1.232156395912170410e+00 9.115347266197204590e-01 -1.904731512069702148e+00
1.230000000000000000e+03 6.837135314941406250e+01 1.736222267150878906e+01 2.612066864967346191e-01 6.194464206695556641e+00 1.936701297760009766e+00 2.685046195983886719e+00
1.231000000000000000e+03 6.854549407958984375e+01 1.673504066467285156e+01 -1.447382420301437378e-01 8.124282836914062500e+00 2.393863439559936523e+00 2.672189474105834961e+00
1.232000000000000000e+03 6.907563781738281250e+01 1.718712234497070312e+01 -4.066828489303588867e-01 1.056329441070556641e+01 3.046983480453491211e+00 3.746922254562377930e+00
1.233000000000000000e+03 6.706295776367187500e+01 2.051276588439941406e+01 5.715804696083068848e-01 2.819988429546356201e-01 2.560738027095794678e-01 -3.597568273544311523e-01
1.234000000000000000e+03 4.208487319946289062e+01 -2.278264284133911133e+00 -1.512010693550109863e+00 -6.620211154222488403e-02 -4.734638631343841553e-01 -7.145521640777587891e-01
1.235000000000000000e+03 4.412012863159179688e+01 2.039049118757247925e-01 -7.250822186470031738e-01 9.305769205093383789e-02 -1.896073520183563232e-01 -3.430222272872924805e-01
1.236000000000000000e+03 4.242175674438476562e+01 2.925862669944763184e-01 -3.446383774280548096e-01 -1.589039266109466553e-01 -1.510626971721649170e-01 -3.067759275436401367e-01
1.237000000000000000e+03 4.242603302001953125e+01 -7.482123970985412598e-01 -7.534859180450439453e-01 -2.222299277782440186e-01 -2.927147448062896729e-01 -5.935566425323486328e-01
1.238000000000000000e+03 4.172835922241210938e+01 -4.929725825786590576e-01 -5.232994556427001953e-01 -4.035218060016632080e-01 -2.780463695526123047e-01 -4.741151332855224609e-01
1.239000000000000000e+03 5.072189331054687500e+01 -3.234802931547164917e-02 -1.354558110237121582e+00 -3.189318180084228516e-01 -5.020470023155212402e-01 4.178804159164428711e-01
1.240000000000000000e+03 4.856055831909179688e+01 -1.664626479148864746e+00 -9.834588766098022461e-01 3.449543714523315430e-01 -1.915513426065444946e-01 1.437326073646545410e-01
1.241000000000000000e+03 2.197196197509765625e+01 4.533481597900390625e-01 -6.075984492781572044e-05 -6.195510650286450982e-05 -3.681448652059771121e-05 2.226912511105183512e-05
1.242000000000000000e+03 2.099421882629394531e+01 1.394317626953125000e+00 -8.833721949486061931e-05 -9.274052717955783010e-05 -5.432332181953825057e-05 2.632545692904386669e-05
1.243000000000000000e+03 2.060547065734863281e+01 4.155208766460418701e-01 -7.464653754141181707e-05 -7.128297147573903203e-05 -4.377885488793253899e-05 1.714466520752466749e-06
1.244000000000000000e+03 2.072355461120605469e+01 2.409194469451904297e+00 6.878047133795917034e-05 1.810462854336947203e-04 7.494802412111312151e-05 -9.753980702953413129e-05
1.245000000000000000e+03 2.143590927124023438e+01 2.392289638519287109e+00 -8.991381764644756913e-05 -1.935476466314867139e-04 -8.503843855578452349e-05 -3.484251283225603402e-05
1.246000000000000000e+03 9.414077758789062500e+00 -1.868172168731689453e+00 2.109148949384689331e-01 -3.434715420007705688e-02 5.297031998634338379e-02 2.908404730260372162e-02
1.247000000000000000e+03 1.068834018707275391e+01 -2.734834909439086914e+00 1.740491688251495361e-01 -5.098365619778633118e-02 3.691965341567993164e-02 1.869785785675048828e-02
1.248000000000000000e+03 1.083986759185791016e+01 -2.040389060974121094e+00 2.285522371530532837e-01 -3.850410506129264832e-02 5.701444298028945923e-02 5.748006515204906464e-03
1.249000000000000000e+03 1.125215911865234375e+01 -3.530759096145629883e+00 1.178174242377281189e-01 -7.128661125898361206e-02 1.395924389362335205e-02 5.972173064947128296e-03
1.250000000000000000e+03 9.986813545227050781e+00 -2.650575637817382812e+00 1.708452254533767700e-01 -5.253268778324127197e-02 3.549376130104064941e-02 3.279612585902214050e-02
1.251000000000000000e+03 1.210047149658203125e+01 -2.959006309509277344e+00 1.621784120798110962e-01 -4.779813811182975769e-02 3.431408107280731201e-02 -1.991870254278182983e-02
1.252000000000000000e+03 1.798461532592773438e+01 1.066412568092346191e+00 2.936224518634844571e-05 1.392394915455952287e-04 5.058052192907780409e-05 -6.845033112767850980e-06
1.253000000000000000e+03 1.860921478271484375e+01 3.870700299739837646e-01 3.808458859566599131e-05 1.164414061349816620e-04 4.635779987438581884e-05 -9.230951036443002522e-06
1.254000000000000000e+03 1.444878292083740234e+01 2.608371496200561523e+00 3.891501401085406542e-04 8.098720718408003449e-05 1.410411932738497853e-04 1.969220174942165613e-04
1.255000000000000000e+03 1.967005920410156250e+01 1.273140549659729004e+00 -7.319775613723322749e-05 -3.472800017334520817e-05 -3.237772762076929212e-05 1.509967296442482620e-05
1.256000000000000000e+03 2.266079902648925781e+01 5.497768521308898926e-01 2.768052036117296666e-05 5.141343353898264468e-05 2.372818744333926588e-05 -5.415125633589923382e-05
1.257000000000000000e+03 2.323988342285156250e+01 1.967290759086608887e+00 -9.580963524058461189e-05 -1.783633197192102671e-04 -8.225188503274694085e-05 -7.177319639595225453e-05
1.258000000000000000e+03 8.600763320922851562e+00 4.034229755401611328e+00 3.187719848938286304e-04 -2.531134814489632845e-04 1.969754703168291599e-05 -4.893502409686334431e-05
1.259000000000000000e+03 6.963016510009765625e+00 2.614837408065795898e+00 2.732007123995572329e-04 -7.666446617804467678e-05 5.896087532164528966e-05 -1.496386539656668901e-04
1.260000000000000000e+03 4.752954483032226562e+00 3.388800144195556641e+00 1.713199453661218286e-04 2.014083975154790096e-06 5.200021041673608124e-05 -2.748474653344601393e-04
1.261000000000000000e+03 2.574209928512573242e+00 2.768216609954833984e+00 -4.275130777386948466e-05 1.011718559311702847e-04 1.752616481098812073e-05 -7.180375541793182492e-05
1.262000000000000000e+03 6.287308216094970703e+00 3.404205322265625000e+00 2.299008483532816172e-04 -7.483359513571485877e-05 4.652017742046155035e-05 -2.096514363074675202e-04
1.263000000000000000e+03 8.355604171752929688e+00 1.856027245521545410e+00 4.932854208163917065e-04 -2.252278363812365569e-06 1.473099400755017996e-04 -1.000288102659396827e-04
1.264000000000000000e+03 7.692483425140380859e+00 2.593489408493041992e+00 5.042149568907916546e-04 -2.833185135386884212e-05 1.427649258403107524e-04 -1.630194601602852345e-04
1.265000000000000000e+03 4.723991394042968750e+00 1.878212213516235352e+00 1.797246222849935293e-04 -1.649074874876532704e-05 4.897015969618223608e-05 -1.494740427006036043e-04
1.266000000000000000e+03 4.030478000640869141e+00 2.619505167007446289e+00 1.515520561952143908e-04 -1.357002565782750025e-05 4.139461088925600052e-05 -1.828048698371276259e-04
1.267000000000000000e+03 3.444858312606811523e+00 3.396036624908447266e+00 1.319082657573744655e-04 -1.872300526883918792e-05 3.395558087504468858e-05 -1.815138530218973756e-04
1.268000000000000000e+03 1.762842059135437012e+00 2.699501276016235352e+00 1.287025806959718466e-04 2.631284587550908327e-05 4.650462869904004037e-05 -5.165573020349256694e-05
1.269000000000000000e+03 1.856756806373596191e+00 1.911171197891235352e+00 3.535777068464085460e-05 2.145296275557484478e-05 1.704321948636788875e-05 -7.056241156533360481e-05
1.270000000000000000e+03 4.592472839355468750e+01 4.939933776855468750e+00 2.888984163291752338e-04 6.420456338673830032e-04 2.792832092382013798e-04 7.344136247411370277e-04
1.271000000000000000e+03 4.438008117675781250e+01 4.087093353271484375e+00 3.249899600632488728e-04 3.114985884167253971e-04 1.909465645439922810e-04 2.719994154176674783e-05
1.272000000000000000e+03 1.509002208709716797e+01 9.882668256759643555e-01 7.212870696093887091e-05 -3.543794082361273468e-05 1.100722965929890051e-05 1.049883358064107597e-04
1.273000000000000000e+03 1.669352722167968750e+01 1.530147314071655273e+00 2.022420667344704270e-04 6.684393883915618062e-05 8.072580385487526655e-05 -1.128159146901452914e-05
1.274000000000000000e+03 1.445422077178955078e+01 -2.688716888427734375e+00 1.633078455924987793e-01 -9.082277305424213409e-03 4.626766964793205261e-02 -9.319783002138137817e-02
1.275000000000000000e+03 1.656440544128417969e+01 -3.815567493438720703e+00 -3.970225527882575989e-02 -5.344315897673368454e-03 -1.351397205144166946e-02 -1.991604417562484741e-01
1.276000000000000000e+03 1.426921081542968750e+01 -3.361459016799926758e+00 9.305060654878616333e-02 -3.914161026477813721e-02 1.617269776761531830e-02 -1.071698293089866638e-01
1.277000000000000000e+03 1.281571769714355469e+01 -3.084872007369995117e+00 1.447599232196807861e-01 -4.875523969531059265e-02 2.880140393972396851e-02 -4.783903434872627258e-02
1.278000000000000000e+03 5.653522491455078125e+00 -1.836527109146118164e+00 1.178589314222335815e-01 -1.779069541953504086e-03 3.482395783066749573e-02 7.217393070459365845e-02
1.279000000000000000e+03 8.443026542663574219e+00 -3.289181232452392578e+00 1.142008230090141296e-01 -4.715183377265930176e-02 2.011469751596450806e-02 7.274194806814193726e-02
1.280000000000000000e+03 4.831571102142333984e+00 -3.207621812820434570e+00 5.914756655693054199e-02 6.280736997723579407e-03 1.962849125266075134e-02 1.013576686382293701e-01
1.281000000000000000e+03 4.850959777832031250e+00 -2.528669118881225586e+00 7.904829829931259155e-02 6.302100606262683868e-03 2.560511976480484009e-02 8.821396529674530029e-02
1.282000000000000000e+03 9.857209205627441406e+00 -3.359459877014160156e+00 1.243857368826866150e-01 -6.407964229583740234e-02 1.809182949364185333e-02 4.517494142055511475e-02
1.283000000000000000e+03 6.330879211425781250e+00 -2.512036561965942383e+00 1.108126565814018250e-01 -1.008476875722408295e-02 3.021836467087268829e-02 8.482175320386886597e-02
1.284000000000000000e+03 7.075582027435302734e+00 -2.530067205429077148e+00 1.234030574560165405e-01 -1.936003006994724274e-02 3.121290914714336395e-02 7.844553142786026001e-02
1.285000000000000000e+03 3.211982727050781250e+00 -4.206312656402587891e+00 2.241958864033222198e-02 4.929582029581069946e-02 2.151462249457836151e-02 9.818698465824127197e-02
1.286000000000000000e+03 5.271275639533996582e-01 -3.571813821792602539e+00 5.789576098322868347e-03 7.342091202735900879e-02 2.376314625144004822e-02 2.171237021684646606e-02
1.287000000000000000e+03 4.786016082763671875e+01 -8.335672020912170410e-01 -1.015087842941284180e+00 2.996904850006103516e-01 -2.146192044019699097e-01 6.622690707445144653e-02
1.288000000000000000e+03 4.786219024658203125e+01 -1.131119951605796814e-01 -1.006695508956909180e+00 1.749455332756042480e-01 -2.495249956846237183e-01 9.268437325954437256e-02
1.289000000000000000e+03 4.860314178466796875e+01 -8.855618834495544434e-01 -1.056560397148132324e+00 2.284067422151565552e-01 -2.484460920095443726e-01 1.280033886432647705e-01
1.290000000000000000e+03 4.712414932250976562e+01 -7.583408355712890625e-01 -1.001592397689819336e+00 2.587686181068420410e-01 -2.228471487760543823e-01 -2.623793669044971466e-02
1.291000000000000000e+03 4.935695266723632812e+01 -9.159404039382934570e-01 -1.002901434898376465e+00 2.006331980228424072e-01 -2.406804859638214111e-01 2.004919052124023438e-01
1.292000000000000000e+03 4.497170639038085938e+01 -5.604382753372192383e-01 -9.249540567398071289e-01 2.176141440868377686e-01 -2.122019827365875244e-01 -3.276673257350921631e-01
1.293000000000000000e+03 4.429160690307617188e+01 -5.586677193641662598e-01 -9.034592509269714355e-01 1.647863388061523438e-01 -2.216018736362457275e-01 -3.927391469478607178e-01
1.294000000000000000e+03 4.568397140502929688e+01 -6.011294126510620117e-01 -9.567393660545349121e-01 2.326135933399200439e-01 -2.172377407550811768e-01 -2.332821190357208252e-01
1.295000000000000000e+03 7.044997406005859375e+01 1.785475540161132812e+01 2.775374948978424072e-01 1.753344917297363281e+01 5.343296051025390625e+00 -2.184069752693176270e-01
1.296000000000000000e+03 7.083045959472656250e+01 2.212040901184082031e+01 -4.981660544872283936e-01 1.318139171600341797e+01 3.804967641830444336e+00 1.115074530243873596e-01
1.297000000000000000e+03 7.032569885253906250e+01 2.145474624633789062e+01 1.061583831906318665e-01 1.491874980926513672e+01 4.507472515106201172e+00 -1.120338201522827148e+00
1.298000000000000000e+03 7.226615142822265625e+01 2.081827545166015625e+01 2.714127779006958008e+00 1.177986145019531250e+01 4.348196506500244141e+00 1.955253481864929199e+00
1.299000000000000000e+03 7.174281311035156250e+01 2.111133575439453125e+01 1.929575324058532715e+00 1.276159858703613281e+01 4.407352447509765625e+00 1.759247541427612305e+00
1.300000000000000000e+03 7.198058319091796875e+01 1.671248245239257812e+01 5.215629935264587402e-01 1.283471012115478516e+01 4.006882190704345703e+00 -8.564721345901489258e-01
1.301000000000000000e+03 7.019925689697265625e+01 2.215793228149414062e+01 -8.149076104164123535e-01 1.220199394226074219e+01 3.416126012802124023e+00 -1.950806736946105957e+00
1.302000000000000000e+03 1.736109161376953125e+01 -3.935942888259887695e+00 -9.984302520751953125e-02 4.913119599223136902e-03 -2.847897261381149292e-02 -2.305717915296554565e-01
1.303000000000000000e+03 1.501526737213134766e+01 -3.514714002609252930e+00 5.840464308857917786e-02 -2.704041823744773865e-02 9.409267455339431763e-03 -1.366221606731414795e-01
1.304000000000000000e+03 1.966243362426757812e+01 -4.858244419097900391e+00 -3.021776676177978516e-01 6.156022846698760986e-02 -7.218523323535919189e-02 -2.889450192451477051e-01
1.305000000000000000e+03 1.142684173583984375e+01 2.307284355163574219e+00 3.523443592712283134e-04 -1.814550050767138600e-04 5.126680844114162028e-05 9.860775753622874618e-05
1.306000000000000000e+03 1.218882751464843750e+01 2.200368642807006836e+00 4.415453004185110331e-04 3.102029586443677545e-05 1.417696767020970583e-04 1.607013109605759382e-04
1.307000000000000000e+03 1.065500354766845703e+01 2.405783653259277344e+00 4.804555501323193312e-04 1.593202432559337467e-05 1.489162823418155313e-04 4.441727651283144951e-05
1.308000000000000000e+03 1.989998245239257812e+01 -3.392754793167114258e+00 -2.311907857656478882e-01 2.698390930891036987e-02 -6.126205995678901672e-02 -1.882663518190383911e-01
1.309000000000000000e+03 2.061309432983398438e+01 -4.159701347351074219e+00 -3.210083246231079102e-01 5.963621288537979126e-02 -7.841163128614425659e-02 -2.172576785087585449e-01
1.310000000000000000e+03 1.897376441955566406e+01 -4.076335906982421875e+00 -2.103178352117538452e-01 3.117280080914497375e-02 -5.374351143836975098e-02 -2.503896951675415039e-01
1.311000000000000000e+03 1.978833770751953125e+01 -4.119632244110107422e+00 -2.694026529788970947e-01 4.795534536242485046e-02 -6.643419712781906128e-02 -2.328357398509979248e-01
1.312000000000000000e+03 2.322447395324707031e+01 -4.080111503601074219e+00 -4.963897466659545898e-01 1.227193549275398254e-01 -1.121011152863502502e-01 -7.336327433586120605e-02
1.313000000000000000e+03 2.493519401550292969e+01 -3.847256898880004883e+00 -5.900161862373352051e-01 1.278736442327499390e-01 -1.386427730321884155e-01 4.762900248169898987e-02
1.314000000000000000e+03 2.586633872985839844e+01 -3.842220067977905273e+00 -6.272257566452026367e-01 1.068868786096572876e-01 -1.561016589403152466e-01 1.167081966996192932e-01
1.315000000000000000e+03 2.409505844116210938e+01 -3.155146598815917969e+00 -4.529769420623779297e-01 9.719762951135635376e-02 -1.067337915301322937e-01 2.838452160358428955e-02
1.316000000000000000e+03 2.562341880798339844e+01 -4.724636554718017578e+00 -7.912774682044982910e-01 1.640398055315017700e-01 -1.881712973117828369e-01 3.606455773115158081e-02
1.317000000000000000e+03 2.407549667358398438e+01 -3.946608304977416992e+00 -5.401028990745544434e-01 1.365108340978622437e-01 -1.210776269435882568e-01 -1.611954160034656525e-02
1.318000000000000000e+03 4.822376251220703125e+01 5.259499549865722656e+00 6.890877848491072655e-04 1.794861454982310534e-04 2.605721820145845413e-04 4.149400047026574612e-04
1.319000000000000000e+03 4.263550186157226562e+01 5.107643604278564453e+00 -3.616715781390666962e-03 -2.644517691805958748e-03 -1.878370065242052078e-03 -1.044592936523258686e-03
1.320000000000000000e+03 4.354622650146484375e+01 6.362140655517578125e+00 1.936619286425411701e-03 3.099096647929400206e-04 6.739586824551224709e-04 -3.218729980289936066e-03
1.321000000000000000e+03 1.932053565979003906e+01 -1.086154079437255859e+01 -4.544642567634582520e-01 1.158466935157775879e-01 -1.015852689743041992e-01 -3.944184482097625732e-01
1.322000000000000000e+03 6.726846313476562500e+01 -1.202565956115722656e+01 -1.524157166481018066e+00 4.873992443084716797e+00 1.004950523376464844e+00 -8.622642755508422852e-01
1.323000000000000000e+03 1.481944561004638672e+01 -1.056213855743408203e+01 -5.738769173622131348e-01 -4.807863533496856689e-01 -3.163989782333374023e-01 -3.755550086498260498e-01
1.324000000000000000e+03 6.978179931640625000e+01 -2.219787025451660156e+01 9.942222833633422852e-01 8.987513542175292969e+00 2.994520664215087891e+00 3.372650146484375000e-01
1.325000000000000000e+03 6.815029144287109375e+01 -2.110588073730468750e+01 2.094125270843505859e+00 1.112591266632080078e+01 3.966011285781860352e+00 2.950075387954711914e+00
1.326000000000000000e+03 6.568690490722656250e+01 2.176910400390625000e+01 -9.004492759704589844e-01 2.554777860641479492e-01 -1.934914439916610718e-01 -3.589672446250915527e-01
1.327000000000000000e+03 6.117393112182617188e+01 2.555288505554199219e+01 -7.121447920799255371e-01 2.828462421894073486e-01 -1.287895739078521729e-01 -3.696615397930145264e-01
1.328000000000000000e+03 6.095633316040039062e+01 2.260315322875976562e+01 -3.325208187103271484e+00 -1.611327081918716431e-01 -1.045902252197265625e+00 1.079404279589653015e-01
1.329000000000000000e+03 3.619334030151367188e+01 -1.776370811462402344e+01 4.605579972267150879e-01 -2.810696363449096680e-01 5.384650826454162598e-02 -2.835169136524200439e-01
1.330000000000000000e+03 5.268116378784179688e+01 -7.309682369232177734e+00 -5.882252454757690430e-01 3.271299600601196289e-02 -1.666536629199981689e-01 8.119115829467773438e-01
1.331000000000000000e+03 5.057189178466796875e+01 -5.698577404022216797e+00 -5.973196029663085938e-01 6.777623891830444336e-01 2.413283102214336395e-02 7.573705911636352539e-01
1.332000000000000000e+03 6.240862655639648438e+01 2.369159317016601562e+01 -1.631495833396911621e+00 9.941504895687103271e-02 -4.596242606639862061e-01 -3.188502192497253418e-01
1.333000000000000000e+03 6.478147888183593750e+01 2.291372489929199219e+01 -9.222186803817749023e-01 7.864241003990173340e-01 -4.073836281895637512e-02 -8.042132258415222168e-01
1.334000000000000000e+03 3.433402252197265625e+01 -1.485514640808105469e+01 1.174798369407653809e+00 -7.016031444072723389e-02 3.313914239406585693e-01 -4.543438553810119629e-02
1.335000000000000000e+03 5.115433120727539062e+01 -2.853795242309570312e+01 3.295564055442810059e-01 4.796448349952697754e-01 2.427603751420974731e-01 -3.998050987720489502e-01
1.336000000000000000e+03 5.007533645629882812e+01 -2.985390472412109375e+01 8.149869740009307861e-02 6.620274782180786133e-01 2.230578511953353882e-01 -4.118396341800689697e-01
1.337000000000000000e+03 5.340363311767578125e+01 -6.149077415466308594e+00 -5.338320136070251465e-01 -1.548209190368652344e-01 -2.065958678722381592e-01 9.912261962890625000e-01
1.338000000000000000e+03 5.389171981811523438e+01 -8.020078659057617188e+00 -1.235956430435180664e+00 -2.978616952896118164e-01 -4.601454138755798340e-01 6.859136819839477539e-01
1.339000000000000000e+03 6.408872985839843750e+01 -9.909597396850585938e+00 -1.078231334686279297e+00 8.280325531959533691e-01 -7.505964487791061401e-02 -1.540205031633377075e-01
1.340000000000000000e+03 4.622471618652343750e+01 -2.434662818908691406e+01 4.915698170661926270e-01 1.988482236862182617e+00 7.440156340599060059e-01 -5.213922858238220215e-01
1.341000000000000000e+03 4.664299392700195312e+01 -2.734772491455078125e+01 1.459324210882186890e-01 1.175978541374206543e+00 3.965732753276824951e-01 -2.465940117835998535e-01
1.342000000000000000e+03 6.837967681884765625e+01 -1.457033157348632812e+01 5.035107135772705078e-01 7.803509712219238281e+00 2.492106199264526367e+00 -9.913153648376464844e-01
1.343000000000000000e+03 4.477511978149414062e+01 -2.310049819946289062e+01 4.014515280723571777e-01 1.650317668914794922e+00 6.155307292938232422e-01 -1.858716905117034912e-01
1.344000000000000000e+03 4.747448348999023438e+01 -9.673142433166503906e+00 4.183627367019653320e-01 1.597402930259704590e+00 6.047297120094299316e-01 5.912718176841735840e-01
1.345000000000000000e+03 4.612334060668945312e+01 -1.023171710968017578e+01 4.274847805500030518e-01 1.400606393814086914e+00 5.484273433685302734e-01 4.373552203178405762e-01
1.346000000000000000e+03 5.836637115478515625e+01 -7.435820579528808594e+00 -8.546175956726074219e-01 -1.115507259964942932e-01 -2.898505032062530518e-01 5.960707068443298340e-01
1.347000000000000000e+03 1.185837936401367188e+01 -2.397232246398925781e+01 3.533672988414764404e-01 6.357005238533020020e-02 1.250811964273452759e-01 -2.525472640991210938e-01
1.348000000000000000e+03 1.001843070983886719e+01 -1.651330947875976562e+01 -3.561149537563323975e-01 -4.738000631332397461e-01 -2.489745020866394043e-01 -4.102177917957305908e-01
1.349000000000000000e+03 6.951200103759765625e+01 -1.849596595764160156e+01 1.009621858596801758e+00 1.072283267974853516e+01 3.519736289978027344e+00 6.762835979461669922e-01
1.350000000000000000e+03 3.781798553466796875e+01 -2.324358940124511719e+01 -6.401179358363151550e-03 -9.434373676776885986e-02 -3.022347390651702881e-02 5.288672074675559998e-02
1.351000000000000000e+03 6.129775619506835938e+01 -1.015425491333007812e+01 -1.622021198272705078e+00 3.988769277930259705e-02 -4.746400713920593262e-01 6.240144968032836914e-01
1.352000000000000000e+03 4.710906219482421875e+01 -1.319277477264404297e+01 5.036478042602539062e-01 2.728306770324707031e+00 9.695863723754882812e-01 9.908793568611145020e-01
1.353000000000000000e+03 4.761479187011718750e+01 -1.184218883514404297e+01 8.460317254066467285e-01 2.498585700988769531e+00 1.003385186195373535e+00 1.202681183815002441e+00
1.354000000000000000e+03 4.976445007324218750e+01 -8.034738540649414062e+00 7.122243940830230713e-02 1.105100274085998535e+00 3.528968095779418945e-01 6.840096712112426758e-01
1.355000000000000000e+03 7.105368041992187500e+01 -2.197964477539062500e+01 1.128013372421264648e+00 7.931674003601074219e+00 2.717906236648559570e+00 3.115196526050567627e-02
1.356000000000000000e+03 4.504515075683593750e+01 -1.091002750396728516e+01 3.995248973369598389e-01 1.186873793601989746e+00 4.759196043014526367e-01 3.318895101547241211e-01
1.357000000000000000e+03 5.513108825683593750e+01 -3.225319290161132812e+01 1.131500080227851868e-01 1.175565198063850403e-01 6.921195983886718750e-02 -3.830732703208923340e-01
1.358000000000000000e+03 5.706898880004882812e+01 -3.176651763916015625e+01 2.118187956511974335e-02 3.620591759681701660e-02 1.721633970737457275e-02 -2.148713618516921997e-01
1.359000000000000000e+03 6.102202987670898438e+01 -3.271329879760742188e+01 2.451531141996383667e-01 1.200627207756042480e+00 4.337340891361236572e-01 4.431392252445220947e-01
1.360000000000000000e+03 5.313100433349609375e+01 -3.195537567138671875e+01 8.389239013195037842e-02 2.904833257198333740e-01 1.123127117753028870e-01 -4.718478620052337646e-01
1.361000000000000000e+03 1.139624881744384766e+01 -1.403595733642578125e+01 -6.519931554794311523e-01 -6.823115348815917969e-01 -4.002914130687713623e-01 -3.891973793506622314e-01
1.362000000000000000e+03 6.112771987915039062e+01 -1.123780345916748047e+01 -2.254666090011596680e+00 -1.038328260183334351e-01 -7.075496912002563477e-01 5.767255425453186035e-01
1.363000000000000000e+03 5.913600921630859375e+01 -9.271243095397949219e+00 -1.339385271072387695e+00 -1.136027798056602478e-01 -4.358964264392852783e-01 7.609981894493103027e-01
1.364000000000000000e+03 6.503825378417968750e+01 -2.689322662353515625e+01 1.699060648679733276e-01 2.706731796264648438e+00 8.629913926124572754e-01 1.136381745338439941e+00
1.365000000000000000e+03 6.612690734863281250e+01 -2.391620063781738281e+01 1.271836996078491211e+00 3.404679059982299805e+00 1.402954816818237305e+00 2.048738956451416016e+00
1.366000000000000000e+03 6.902293395996093750e+01 -2.397853088378906250e+01 1.815851777791976929e-01 7.127401828765869141e+00 2.192696094512939453e+00 7.059523463249206543e-01
1.367000000000000000e+03 5.802085494995117188e+01 -8.674889564514160156e+00 -1.310038566589355469e+00 -2.247838824987411499e-01 -4.604467153549194336e-01 7.436043620109558105e-01
1.368000000000000000e+03 3.551417922973632812e+01 -5.926078796386718750e+00 -2.160370349884033203e+00 -2.531916201114654541e-01 -7.240685820579528809e-01 -5.061947107315063477e-01
1.369000000000000000e+03 3.826849365234375000e+01 -2.845224380493164062e+01 9.861517697572708130e-02 1.556375473737716675e-01 7.627581804990768433e-02 1.883594095706939697e-01
1.370000000000000000e+03 6.795343780517578125e+01 -2.460249710083007812e+01 -1.144173443317413330e-01 6.596846580505371094e+00 1.944728732109069824e+00 1.262367486953735352e+00
1.371000000000000000e+03 5.987792205810546875e+01 -1.090135765075683594e+01 -1.963409185409545898e+00 -1.240776404738426208e-01 -6.262460350990295410e-01 6.814785003662109375e-01
1.372000000000000000e+03 4.528394317626953125e+01 -1.563275337219238281e+01 3.763678371906280518e-01 2.063162565231323242e+00 7.318590879440307617e-01 4.082243740558624268e-01
1.373000000000000000e+03 4.465272903442382812e+01 -2.184263610839843750e+01 3.978939652442932129e-01 1.871566414833068848e+00 6.808381080627441406e-01 -2.346637248992919922e-01
1.374000000000000000e+03 4.828238677978515625e+01 -2.758925437927246094e+01 2.608546018600463867e-01 1.003762841224670410e+00 3.793852329254150391e-01 -5.002732276916503906e-01
1.375000000000000000e+03 1.229241943359375000e+01 -1.316838741302490234e+01 -7.162176370620727539e-01 -7.324103713035583496e-01 -4.345884025096893311e-01 -4.536509513854980469e-01
1.376000000000000000e+03 2.361285018920898438e+01 -3.252782058715820312e+01 4.052075445652008057e-01 1.341501176357269287e-01 1.618072986602783203e-01 -1.725135743618011475e-01
1.377000000000000000e+03 2.337072181701660156e+01 -1.433136463165283203e+01 4.763953983783721924e-01 2.748901583254337311e-02 1.511653214693069458e-01 -1.412571668624877930e-01
1.378000000000000000e+03 2.351597023010253906e+01 -1.313325691223144531e+01 2.655144929885864258e-01 6.762284785509109497e-02 9.994120895862579346e-02 -2.975253164768218994e-01
1.379000000000000000e+03 1.953456497192382812e+01 -2.918739318847656250e+01 6.556655168533325195e-01 2.326488345861434937e-01 2.664943039417266846e-01 -3.565972745418548584e-01
1.380000000000000000e+03 2.205679130554199219e+01 -3.246457672119140625e+01 3.874766826629638672e-01 1.838797330856323242e-01 1.714069247245788574e-01 -2.007535845041275024e-01
1.381000000000000000e+03 3.041241645812988281e+01 -3.258739471435546875e+01 2.849643826484680176e-01 6.327126640826463699e-03 8.738745003938674927e-02 -5.957035720348358154e-02
1.382000000000000000e+03 3.192611312866210938e+01 -3.198840904235839844e+01 2.584398090839385986e-01 -4.583444446325302124e-02 6.378161162137985229e-02 -2.908479049801826477e-02
1.383000000000000000e+03 1.029151821136474609e+01 -2.059260559082031250e+01 1.463815122842788696e-01 -2.916577458381652832e-01 -4.358286783099174500e-02 -3.832218050956726074e-01
1.384000000000000000e+03 3.560759353637695312e+01 -1.627272796630859375e+01 1.129055500030517578e+00 -2.734597623348236084e-01 2.566787302494049072e-01 -3.804471492767333984e-01
1.385000000000000000e+03 1.051394367218017578e+01 -1.940713119506835938e+01 2.684383280575275421e-02 -3.426650166511535645e-01 -9.474635124206542969e-02 -3.461045324802398682e-01
1.386000000000000000e+03 2.079792594909667969e+01 -1.382246398925781250e+01 1.531280428171157837e-01 5.589624121785163879e-02 6.270729005336761475e-02 -1.006287857890129089e-01
1.387000000000000000e+03 1.996924591064453125e+01 -1.228417873382568359e+01 -1.690766960382461548e-01 1.218991801142692566e-01 -1.415325421839952469e-02 -1.486677527427673340e-01
1.388000000000000000e+03 3.689472579956054688e+01 -2.900753021240234375e+01 1.410899609327316284e-01 3.150354698300361633e-02 5.177805200219154358e-02 1.510433554649353027e-01
1.389000000000000000e+03 2.713395500183105469e+01 -3.310902404785156250e+01 3.316114246845245361e-01 6.583487242460250854e-02 1.192338913679122925e-01 -1.050646603107452393e-01
1.390000000000000000e+03 2.228970527648925781e+01 -1.293931579589843750e+01 1.330680549144744873e-01 8.865532279014587402e-02 6.651701033115386963e-02 -2.383282482624053955e-01
1.391000000000000000e+03 2.737143135070800781e+01 -1.471437454223632812e+01 1.222415208816528320e+00 2.197784744203090668e-02 3.733179271221160889e-01 -2.343342453241348267e-01
1.392000000000000000e+03 2.470104598999023438e+01 -1.446744441986083984e+01 7.109879851341247559e-01 2.999212220311164856e-02 2.222940325736999512e-01 -1.739071160554885864e-01
1.393000000000000000e+03 3.380516815185546875e+01 -1.378156185150146484e+01 8.890058994293212891e-01 -8.188799256458878517e-04 2.664561271667480469e-01 -1.182154044508934021e-01
1.394000000000000000e+03 2.882423400878906250e+01 -3.294661712646484375e+01 3.120185434818267822e-01 1.330213341861963272e-02 9.759620577096939087e-02 -7.375638186931610107e-02
1.395000000000000000e+03 2.859988021850585938e+01 -1.351757812500000000e+01 8.761589527130126953e-01 4.774951562285423279e-02 2.771725356578826904e-01 -3.925830721855163574e-01
1.396000000000000000e+03 3.741500854492187500e+01 -2.016548919677734375e+01 9.631566703319549561e-02 -1.975634098052978516e-01 -3.037432394921779633e-02 -1.237363070249557495e-01
1.397000000000000000e+03 1.524183368682861328e+01 -2.564931488037109375e+01 4.470042288303375244e-01 4.054488837718963623e-01 2.557359337806701660e-01 -4.226675927639007568e-01
1.398000000000000000e+03 3.765634918212890625e+01 -2.131458091735839844e+01 3.695533052086830139e-02 -1.868597269058227539e-01 -4.497132077813148499e-02 -6.263297051191329956e-02
1.399000000000000000e+03 1.335684680938720703e+01 -2.560199737548828125e+01 3.665809035301208496e-01 2.588825821876525879e-01 1.876390576362609863e-01 -3.010957539081573486e-01
1.400000000000000000e+03 7.039821624755859375e+01 8.574203491210937500e+00 -2.602748870849609375e-01 7.846055030822753906e+00 2.275733947753906250e+00 -1.072096675634384155e-01
1.401000000000000000e+03 6.828734588623046875e+01 1.007426643371582031e+01 5.061959028244018555e-01 8.046906471252441406e+00 2.565930843353271484e+00 1.177137374877929688e+00
1.402000000000000000e+03 5.567422485351562500e+01 -1.131488323211669922e+00 -1.549168676137924194e-01 7.220078259706497192e-02 -2.481482550501823425e-02 4.196288287639617920e-01
1.403000000000000000e+03 6.943466186523437500e+01 1.685582733154296875e+01 -1.109746456146240234e+00 1.211332798004150391e+01 3.301074504852294922e+00 3.011641979217529297e+00
1.404000000000000000e+03 5.249641799926757812e+01 -1.219177961349487305e+00 -6.684495210647583008e-01 -1.064594462513923645e-01 -2.324726879596710205e-01 6.143498420715332031e-01
1.405000000000000000e+03 5.939174652099609375e+01 3.256185293197631836e+00 1.465894579887390137e-01 1.377743631601333618e-01 8.530914783477783203e-02 1.109579801559448242e-01
1.406000000000000000e+03 6.233905410766601562e+01 4.388585090637207031e+00 2.791413664817810059e-01 1.028634190559387207e+00 3.923326432704925537e-01 5.508404970169067383e-01
1.407000000000000000e+03 6.634049987792968750e+01 8.043125152587890625e+00 4.271542131900787354e-01 4.703272819519042969e+00 1.539128065109252930e+00 1.628228306770324707e+00
1.408000000000000000e+03 6.122998428344726562e+01 7.121309041976928711e-01 3.344340920448303223e-01 9.141878485679626465e-01 3.745865821838378906e-01 3.670332431793212891e-01
1.409000000000000000e+03 5.020773696899414062e+01 2.184574508666992188e+01 -7.695841193199157715e-01 1.416581869125366211e-01 -1.883777827024459839e-01 3.437389060854911804e-02
1.410000000000000000e+03 3.125873374938964844e+01 -7.161403656005859375e+00 -1.530100226402282715e+00 -4.063535332679748535e-01 -5.809361338615417480e-01 -3.085277378559112549e-01
1.411000000000000000e+03 5.482272720336914062e+01 2.406958007812500000e+01 -1.205081701278686523e+00 -1.057316511869430542e-01 -3.932440280914306641e-01 1.047005876898765564e-01
1.412000000000000000e+03 4.007890701293945312e+01 -3.768844127655029297e+00 -2.026682853698730469e+00 -7.016431093215942383e-01 -8.184977769851684570e-01 -8.234470486640930176e-01
1.413000000000000000e+03 3.895743560791015625e+01 -5.214456081390380859e+00 -1.508796215057373047e+00 -4.986937344074249268e-01 -6.022469997406005859e-01 -5.106390118598937988e-01
1.414000000000000000e+03 7.937814331054687500e+01 -2.211917877197265625e+01 6.602610927075147629e-03 7.047655582427978516e+00 2.116277456283569336e+00 -5.854692682623863220e-02
1.415000000000000000e+03 7.790270233154296875e+01 -3.031952667236328125e+01 -5.157307162880897522e-02 7.928627014160156250e+00 2.363116025924682617e+00 -1.773051470518112183e-01
1.416000000000000000e+03 7.928475189208984375e+01 -2.913193893432617188e+01 -4.032350610941648483e-03 8.124985694885253906e+00 2.436285972595214844e+00 -1.038033366203308105e-01
1.417000000000000000e+03 7.787289428710937500e+01 -2.599113273620605469e+01 -2.271049283444881439e-02 7.603285312652587891e+00 2.274172544479370117e+00 -3.215847909450531006e-01
1.418000000000000000e+03 7.658689117431640625e+01 -3.929442214965820312e+01 -2.080829814076423645e-02 7.858340740203857422e+00 2.351259708404541016e+00 2.922024205327033997e-02
1.419000000000000000e+03 7.897619628906250000e+01 -3.875735855102539062e+01 2.597851678729057312e-03 8.261475563049316406e+00 2.479221820831298828e+00 5.785453319549560547e-02
1.420000000000000000e+03 7.929419708251953125e+01 -3.330350875854492188e+01 -2.344903908669948578e-02 8.454172134399414062e+00 2.529216766357421875e+00 -2.770146541297435760e-02
1.421000000000000000e+03 7.749985504150390625e+01 -3.559707641601562500e+01 -5.074034258723258972e-02 7.931289672851562500e+00 2.364164829254150391e+00 2.349020214751362801e-03
1.422000000000000000e+03 7.931137847900390625e+01 -3.192087173461914062e+01 -1.884113182313740253e-03 8.390926361083984375e+00 2.516712665557861328e+00 -5.732567235827445984e-02
1.423000000000000000e+03 7.651918792724609375e+01 3.431119537353515625e+01 -1.533651351928710938e-01 7.797491550445556641e+00 2.293237924575805664e+00 7.605712115764617920e-02
1.424000000000000000e+03 7.943305206298828125e+01 3.632825851440429688e+01 1.304903719574213028e-02 8.727223396301269531e+00 2.622081756591796875e+00 2.512654289603233337e-02
1.425000000000000000e+03 7.810173034667968750e+01 -2.317249488830566406e+01 5.939805507659912109e-02 7.345936775207519531e+00 2.221600532531738281e+00 -2.261096835136413574e-01
1.426000000000000000e+03 7.639485168457031250e+01 -2.877565383911132812e+01 -1.099911481142044067e-01 7.590763568878173828e+00 2.244231700897216797e+00 -2.871628701686859131e-01
1.427000000000000000e+03 7.798094177246093750e+01 1.558077526092529297e+01 1.639424413442611694e-01 5.615316390991210938e+00 1.733777642250061035e+00 -7.305224537849426270e-01
1.428000000000000000e+03 7.804058837890625000e+01 1.413511466979980469e+01 5.699870362877845764e-02 5.948243618011474609e+00 1.801572680473327637e+00 -8.528897166252136230e-01
1.429000000000000000e+03 7.943564605712890625e+01 2.234231948852539062e+01 2.495341747999191284e-02 4.450693130493164062e+00 1.342693924903869629e+00 3.568824827671051025e-01
1.430000000000000000e+03 7.939648437500000000e+01 2.508090209960937500e+01 -1.384247560054063797e-02 6.179498195648193359e+00 1.849696636199951172e+00 3.504293560981750488e-01
1.431000000000000000e+03 7.825298309326171875e+01 2.372084808349609375e+01 -3.310110047459602356e-02 6.142062664031982422e+00 1.832688450813293457e+00 9.615489244461059570e-01
1.432000000000000000e+03 7.935548400878906250e+01 1.122947883605957031e+01 -3.727145493030548096e-03 6.211080074310302734e+00 1.862205862998962402e+00 -3.306432366371154785e-01
1.433000000000000000e+03 7.935304260253906250e+01 1.261662292480468750e+01 -5.484569352120161057e-03 5.523652076721191406e+00 1.655450224876403809e+00 -3.427611291408538818e-01
1.434000000000000000e+03 7.806990051269531250e+01 1.138742637634277344e+01 -2.943152002990245819e-02 6.709954738616943359e+00 2.004157066345214844e+00 -8.235471248626708984e-01
1.435000000000000000e+03 7.937351989746093750e+01 2.646261978149414062e+01 -9.622174315154552460e-03 6.920462608337402344e+00 2.073252201080322266e+00 3.224343061447143555e-01
1.436000000000000000e+03 7.746340942382812500e+01 3.062985229492187500e+01 -1.744917631149291992e-01 7.944423198699951172e+00 2.330979347229003906e+00 3.675456047058105469e-01
1.437000000000000000e+03 7.784177398681640625e+01 2.917173767089843750e+01 -1.769473701715469360e-01 7.840825080871582031e+00 2.299163341522216797e+00 5.073177814483642578e-01
1.438000000000000000e+03 7.891175079345703125e+01 3.380558776855468750e+01 -4.138464853167533875e-02 8.571615219116210938e+00 2.559069156646728516e+00 8.573210239410400391e-02
1.439000000000000000e+03 7.808558654785156250e+01 1.702451515197753906e+01 2.690253257751464844e-01 5.234154224395751953e+00 1.650953888893127441e+00 -4.805541634559631348e-01
1.440000000000000000e+03 7.938164520263671875e+01 -1.796378517150878906e+01 2.699906937777996063e-02 7.183925151824951172e+00 2.163277149200439453e+00 9.937906265258789062e-02
1.441000000000000000e+03 7.700810241699218750e+01 -2.152425956726074219e+01 2.272196114063262939e-01 7.392265796661376953e+00 2.285845518112182617e+00 -1.284856647253036499e-01
1.442000000000000000e+03 7.940281677246093750e+01 -1.378347587585449219e+01 -1.296494971029460430e-03 8.280715942382812500e+00 2.483825683593750000e+00 1.856105029582977295e-01
1.443000000000000000e+03 7.940188598632812500e+01 -1.102154827117919922e+01 -1.909622363746166229e-02 9.137002944946289062e+00 2.735372066497802734e+00 1.525618731975555420e-01
1.444000000000000000e+03 7.821715545654296875e+01 -1.349641609191894531e+01 1.549667678773403168e-03 8.275410652160644531e+00 2.483088016510009766e+00 5.163326263427734375e-01
1.445000000000000000e+03 7.939509582519531250e+01 -8.260605812072753906e+00 -2.441897988319396973e-02 9.735513687133789062e+00 2.913328409194946289e+00 7.826431095600128174e-02
1.446000000000000000e+03 7.702140808105468750e+01 -1.194271087646484375e+01 -9.056241065263748169e-02 8.403510093688964844e+00 2.493884325027465820e+00 6.746485829353332520e-01
1.447000000000000000e+03 7.939608001708984375e+01 -4.112159252166748047e+00 -1.141736563295125961e-02 1.000588989257812500e+01 2.998341798782348633e+00 -3.332256525754928589e-02
1.448000000000000000e+03 7.938988494873046875e+01 -1.337084174156188965e+00 -1.123821921646595001e-02 9.835294723510742188e+00 2.947216749191284180e+00 -8.779226243495941162e-02
1.449000000000000000e+03 7.689139556884765625e+01 -5.201904296875000000e+00 -1.667929738759994507e-01 8.779564857482910156e+00 2.583831548690795898e+00 2.843167632818222046e-02
1.450000000000000000e+03 7.935739135742187500e+01 1.448073148727416992e+00 -1.516878418624401093e-02 9.438432693481445312e+00 2.826979160308837891e+00 -1.461040079593658447e-01
1.451000000000000000e+03 7.933871459960937500e+01 2.845185518264770508e+00 -1.084806304425001144e-02 9.156620025634765625e+00 2.743731737136840820e+00 -1.753422319889068604e-01
1.452000000000000000e+03 7.933303070068359375e+01 4.241706848144531250e+00 -1.535662822425365448e-02 8.824276924133300781e+00 2.642676115036010742e+00 -2.036433368921279907e-01
1.453000000000000000e+03 7.933989715576171875e+01 5.640887737274169922e+00 -8.852494880557060242e-03 8.429616928100585938e+00 2.526229143142700195e+00 -2.312258034944534302e-01
1.454000000000000000e+03 7.799784088134765625e+01 4.357499122619628906e+00 -5.955755338072776794e-02 8.454048156738281250e+00 2.518347024917602539e+00 -4.961275756359100342e-01
1.455000000000000000e+03 7.684523773193359375e+01 3.232165145874023438e+01 -1.478870213031768799e-01 7.869089603424072266e+00 2.316360712051391602e+00 2.119202762842178345e-01
1.456000000000000000e+03 7.721397399902343750e+01 3.851880645751953125e+01 -6.692919135093688965e-02 8.158779144287109375e+00 2.427554845809936523e+00 -9.420198202133178711e-02
1.457000000000000000e+03 7.830333709716796875e+01 3.629067993164062500e+01 -7.517311722040176392e-02 8.327270507812500000e+00 2.475629329681396484e+00 -1.099679097533226013e-01
1.458000000000000000e+03 7.805593872070312500e+01 7.185758113861083984e+00 -5.671086162328720093e-02 7.860474586486816406e+00 2.341129064559936523e+00 -6.480482816696166992e-01
1.459000000000000000e+03 7.818041992187500000e+01 -2.609596252441406250e+00 -5.097741633653640747e-02 9.324103355407714844e+00 2.781937599182128906e+00 -1.279029548168182373e-01
1.460000000000000000e+03 7.817071533203125000e+01 -9.428356170654296875e+00 -9.002122282981872559e-02 9.049085617065429688e+00 2.687719345092773438e+00 3.266797363758087158e-01
1.461000000000000000e+03 7.814609527587890625e+01 -1.906285667419433594e+01 1.224469244480133057e-01 7.323598861694335938e+00 2.233813762664794922e+00 1.561088562011718750e-01
1.462000000000000000e+03 3.249668502807617188e+01 -7.161781787872314453e+00 -1.643992543220520020e+00 -4.225222468376159668e-01 -6.199544668197631836e-01 -2.405583709478378296e-01
1.463000000000000000e+03 2.694628143310546875e+01 -3.868527650833129883e+00 -6.428051590919494629e-01 -5.521100014448165894e-02 -2.094048410654067993e-01 2.246322482824325562e-01
1.464000000000000000e+03 4.824359512329101562e+01 6.697375774383544922e+00 1.052932348102331161e-04 2.395576797425746918e-03 7.502610096707940102e-04 1.368698780424892902e-03
1.465000000000000000e+03 4.712858963012695312e+01 6.854760169982910156e+00 3.200296545401215553e-03 -5.470098112709820271e-04 7.959860377013683319e-04 2.768684411421418190e-03
1.466000000000000000e+03 5.800333023071289062e+01 2.422147178649902344e+01 -1.595806241035461426e+00 -1.030517518520355225e-01 -5.096573829650878906e-01 1.026119813323020935e-01
1.467000000000000000e+03 4.720330047607421875e+01 8.252871513366699219e+00 2.522842725738883018e-03 -4.738059651572257280e-04 6.147110252641141415e-04 4.744188394397497177e-03
1.468000000000000000e+03 5.038044738769531250e+01 2.052958106994628906e+01 -8.253051042556762695e-01 1.259873211383819580e-01 -2.097953408956527710e-01 -1.614492982625961304e-01
1.469000000000000000e+03 4.997874450683593750e+01 1.950602149963378906e+01 -6.460685133934020996e-01 -3.955682739615440369e-03 -1.950072497129440308e-01 -2.889125347137451172e-01
1.470000000000000000e+03 4.753195190429687500e+01 1.103416061401367188e+01 -3.997439052909612656e-03 -1.436687656678259373e-03 -1.630238024517893791e-03 3.693894948810338974e-03
1.471000000000000000e+03 4.809117889404296875e+01 1.513124561309814453e+01 -7.835121452808380127e-02 -1.875536330044269562e-02 -2.913197316229343414e-02 -5.537682771682739258e-02
1.472000000000000000e+03 2.088147878646850586e+00 2.761110305786132812e+01 -1.249932829523459077e-04 -1.346609788015484810e-03 -4.414809227455407381e-04 3.174670739099383354e-03
1.473000000000000000e+03 2.154747247695922852e+00 3.194932746887207031e+01 -4.135802737437188625e-04 -8.692015893757343292e-03 -2.731678774580359459e-03 4.262608010321855545e-03
1.474000000000000000e+03 6.484072804450988770e-01 3.471999359130859375e+01 6.623878143727779388e-04 -1.127168536186218262e-02 -3.182789310812950134e-03 1.218110788613557816e-03
1.475000000000000000e+03 2.537950038909912109e+00 3.825532150268554688e+01 1.951265381649136543e-03 -2.039773948490619659e-02 -5.533942487090826035e-03 2.954401075839996338e-03
1.476000000000000000e+03 2.027516841888427734e+00 -3.783200836181640625e+01 1.156337000429630280e-02 -8.167183995246887207e-01 -2.415465116500854492e-01 2.130211144685745239e-02
1.477000000000000000e+03 7.192881703376770020e-01 -3.751331710815429688e+01 1.376586779952049255e-02 -9.170826673507690430e-01 -2.709950506687164307e-01 8.743052370846271515e-03
1.478000000000000000e+03 2.710684537887573242e+00 -3.476137924194335938e+01 1.163521781563758850e-02 -7.739784717559814453e-01 -2.287029772996902466e-01 -5.908009479753673077e-04
1.479000000000000000e+03 6.551499366760253906e-01 2.199225425720214844e+01 -5.411395104601979256e-04 6.984423380345106125e-03 1.932985149323940277e-03 3.291021494078449905e-05
1.480000000000000000e+03 1.999353051185607910e+00 2.478733634948730469e+01 -2.183700416935607791e-04 2.111950190737843513e-03 5.680740578100085258e-04 1.664626761339604855e-03
1.481000000000000000e+03 7.045002579689025879e-01 2.906350517272949219e+01 2.949450863525271416e-04 -3.705928247654810548e-05 7.736573752481490374e-05 1.306838355958461761e-03
1.482000000000000000e+03 1.822864770889282227e+00 3.602016448974609375e+01 7.297383272089064121e-04 -1.503612566739320755e-02 -4.291916266083717346e-03 3.103481838479638100e-03
1.483000000000000000e+03 6.184236407279968262e-01 3.609123992919921875e+01 -7.968664867803454399e-04 -1.418511476367712021e-02 -4.494594410061836243e-03 1.378493732772767544e-03
1.484000000000000000e+03 8.274357318878173828e-01 4.004392242431640625e+01 7.367788202827796340e-05 -1.895519345998764038e-02 -5.664454307407140732e-03 7.010551053099334240e-04
1.485000000000000000e+03 7.939677834510803223e-01 -3.045677947998046875e+01 7.286653853952884674e-03 -9.148902297019958496e-01 -2.722810804843902588e-01 -1.234741136431694031e-02
1.486000000000000000e+03 1.989532470703125000e+00 -2.750578117370605469e+01 1.875821314752101898e-02 -7.127885222434997559e-01 -2.082090973854064941e-01 -7.707599550485610962e-02
1.487000000000000000e+03 5.765117406845092773e-01 -6.452967643737792969e+00 -1.390659250319004059e-03 1.999060511589050293e-01 5.955461785197257996e-02 2.812991477549076080e-02
1.488000000000000000e+03 3.358248949050903320e+00 -3.285644531250000000e+00 3.514134883880615234e-02 3.236393257975578308e-02 2.025158330798149109e-02 8.669269829988479614e-02
1.489000000000000000e+03 5.845468640327453613e-01 -1.064264297485351562e+01 -4.022228065878152847e-03 3.442850708961486816e-01 1.020788550376892090e-01 7.446323521435260773e-03
1.490000000000000000e+03 1.709493875503540039e+00 -9.194107055664062500e+00 -1.656916551291942596e-02 2.116138339042663574e-01 5.851339921355247498e-02 4.517472535371780396e-02
1.491000000000000000e+03 6.414569616317749023e-01 -1.345442295074462891e+01 -7.336826529353857040e-03 3.066429197788238525e-01 8.979183435440063477e-02 -2.419291436672210693e-02
1.492000000000000000e+03 6.616207361221313477e-01 -1.773477172851562500e+01 -1.885922858491539955e-03 8.229682222008705139e-03 1.903127878904342651e-03 -6.318472325801849365e-02
1.493000000000000000e+03 2.024989604949951172e+00 -1.623561286926269531e+01 -2.903397008776664734e-02 2.885016053915023804e-02 -5.514298754860647023e-05 -1.496071070432662964e-01
1.494000000000000000e+03 6.108265519142150879e-01 -2.056165122985839844e+01 3.362085670232772827e-03 -2.899618744850158691e-01 -8.597993850708007812e-02 -6.760519742965698242e-02
1.495000000000000000e+03 1.984839797019958496e+00 -1.770773696899414062e+01 -1.793030276894569397e-02 -7.004569470882415771e-02 -2.639280073344707489e-02 -1.795942485332489014e-01
1.496000000000000000e+03 6.375138759613037109e-01 -2.337716102600097656e+01 1.517255674116313457e-03 -5.739682316780090332e-01 -1.717352867126464844e-01 -5.621680244803428650e-02
1.497000000000000000e+03 1.968473076820373535e+00 -2.609647750854492188e+01 2.924272976815700531e-02 -6.554042100906372070e-01 -1.878484338521957397e-01 -1.050017327070236206e-01
1.498000000000000000e+03 2.683235406875610352e+00 -3.331931686401367188e+01 2.071824111044406891e-02 -7.559915184974670410e-01 -2.205819934606552124e-01 -1.170474104583263397e-02
1.499000000000000000e+03 1.713594794273376465e+00 3.795200347900390625e+00 -4.162695040577091277e-05 1.639708934817463160e-04 3.670318619697354734e-05 -1.391380501445382833e-04
1.500000000000000000e+03 1.970856785774230957e+00 2.056153297424316406e+01 -7.310408400371670723e-04 4.023296758532524109e-03 9.876767871901392937e-04 -2.831009041983634233e-04
1.501000000000000000e+03 6.586104035377502441e-01 1.916503334045410156e+01 -4.120360827073454857e-04 6.349950563162565231e-03 1.781374332495033741e-03 -2.703212376218289137e-04
1.502000000000000000e+03 6.566222310066223145e-01 1.775362205505371094e+01 2.867230796255171299e-04 5.625123623758554459e-03 1.773554016835987568e-03 -3.936452267225831747e-04
1.503000000000000000e+03 6.339514255523681641e-01 1.493505001068115234e+01 2.169510262319818139e-04 3.960552159696817398e-03 1.253250986337661743e-03 -3.914613334927707911e-04
1.504000000000000000e+03 1.773336768150329590e+00 9.391739845275878906e+00 -6.293639307841658592e-05 1.005679252557456493e-03 2.828228753060102463e-04 -5.479589453898370266e-04
1.505000000000000000e+03 5.786330699920654297e-01 7.913709163665771484e+00 -9.321269317297264934e-05 8.193650864996016026e-04 2.178457216359674931e-04 -1.612625928828492761e-04
1.506000000000000000e+03 3.309490680694580078e+00 -3.879848098754882812e+01 1.234689727425575256e-02 -7.791631817817687988e-01 -2.300448864698410034e-01 1.302205119282007217e-02
1.507000000000000000e+03 2.677815914154052734e+00 -3.182661437988281250e+01 1.942055672407150269e-02 -7.464013695716857910e-01 -2.180942445993423462e-01 -2.943913452327251434e-02
1.508000000000000000e+03 1.995265841484069824e+00 -2.468183517456054688e+01 1.977354846894741058e-02 -5.796146392822265625e-01 -1.679523140192031860e-01 -1.366862058639526367e-01
1.509000000000000000e+03 6.551535725593566895e-01 -2.478127098083496094e+01 7.444576825946569443e-03 -6.847496628761291504e-01 -2.031915336847305298e-01 -4.609785601496696472e-02
1.510000000000000000e+03 1.998317599296569824e+00 -1.475744056701660156e+01 -3.418693691492080688e-02 1.081288605928421021e-01 2.218257822096347809e-02 -1.102700904011726379e-01
1.511000000000000000e+03 6.679871678352355957e-01 -1.487744998931884766e+01 -8.363801985979080200e-03 2.347998768091201782e-01 6.793082505464553833e-02 -4.131823033094406128e-02
1.512000000000000000e+03 2.918756246566772461e+00 -6.626902103424072266e+00 -8.609607815742492676e-03 9.349626302719116211e-02 2.546599507331848145e-02 9.666351974010467529e-02
1.513000000000000000e+03 5.658872127532958984e-01 -7.854161262512207031e+00 -2.197622321546077728e-03 2.646567523479461670e-01 7.873774319887161255e-02 2.379221841692924500e-02
1.514000000000000000e+03 2.107761144638061523e+00 -3.970049858093261719e+00 1.296193990856409073e-02 6.623495370149612427e-02 2.375906892120838165e-02 7.311192899942398071e-02
1.515000000000000000e+03 5.760040879249572754e-01 5.092361450195312500e+00 -6.330226460704579949e-05 2.784125390462577343e-04 6.453308742493391037e-05 -7.907157123554497957e-05
1.516000000000000000e+03 6.048334240913391113e-01 1.211950397491455078e+01 1.774884731275960803e-04 2.390636131167411804e-03 7.704373565502464771e-04 -2.975647803395986557e-04
1.517000000000000000e+03 1.966754674911499023e+00 2.197290420532226562e+01 -1.016811438603326678e-04 3.731008386239409447e-03 1.088798162527382374e-03 2.277517487527802587e-04
1.518000000000000000e+03 1.766309928894042969e+01 2.004006385803222656e+01 -1.929161697626113892e-02 1.699373475275933743e-03 -5.277673248201608658e-03 -5.320444703102111816e-03
1.519000000000000000e+03 1.769095802307128906e+01 1.996954798698425293e+00 1.315752797381719574e-05 1.378893648507073522e-04 4.531406739261001348e-05 -1.345911459793569520e-05
1.520000000000000000e+03 2.778226470947265625e+01 2.353143501281738281e+01 -1.675860285758972168e-01 -7.262988388538360596e-02 -7.206477224826812744e-02 1.114142462611198425e-01
1.521000000000000000e+03 1.793591117858886719e+01 7.135607719421386719e+00 6.632598815485835075e-04 6.645444082096219063e-04 3.983412752859294415e-04 3.166180977132171392e-04
1.522000000000000000e+03 1.729600906372070312e+01 1.098795795440673828e+01 -5.642201285809278488e-04 1.641189795918762684e-03 3.230908769182860851e-04 9.554435964673757553e-04
1.523000000000000000e+03 2.237878799438476562e+01 2.974110603332519531e+00 7.038427429506555200e-05 1.317036803811788559e-04 6.062638567527756095e-05 1.218630422954447567e-04
1.524000000000000000e+03 1.793609619140625000e+01 6.083220005035400391e+00 -6.144603830762207508e-04 3.072332183364778757e-04 -9.216814942192286253e-05 1.890788553282618523e-04
1.525000000000000000e+03 1.934677696228027344e+01 5.763867378234863281e+00 5.155167891643941402e-04 2.586733608040958643e-04 2.322570508113130927e-04 -9.630587737774476409e-05
1.526000000000000000e+03 4.267301177978515625e+01 1.071655178070068359e+01 -5.400164052844047546e-03 -1.120011904276907444e-03 -1.956052612513303757e-03 -1.879370247479528189e-04
1.527000000000000000e+03 1.774646377563476562e+01 8.321487426757812500e+00 -6.259068031795322895e-04 8.201368036679923534e-04 5.826900815009139478e-05 4.158346564508974552e-04
1.528000000000000000e+03 1.811477279663085938e+01 3.118772506713867188e+00 -1.562778343213722110e-04 7.153035403462126851e-05 -2.542424226703587919e-05 2.357040211791172624e-04
1.529000000000000000e+03 2.088432693481445312e+01 3.263372898101806641e+00 1.176997684524394572e-04 1.061335933627560735e-05 3.849393760901875794e-05 7.057374750729650259e-05
1.530000000000000000e+03 3.075335693359375000e+01 2.020823478698730469e+01 -3.343343138694763184e-01 -8.549639582633972168e-02 -1.259492188692092896e-01 1.553966104984283447e-01
1.531000000000000000e+03 3.509632873535156250e+01 2.105386734008789062e+01 -2.424267828464508057e-01 -2.197628282010555267e-02 -7.932092249393463135e-02 1.081258580088615417e-01
1.532000000000000000e+03 3.180370903015136719e+01 2.159642410278320312e+01 -2.420496493577957153e-01 -8.555635064840316772e-02 -9.828180074691772461e-02 1.175178512930870056e-01
1.533000000000000000e+03 4.436466979980468750e+01 5.112524032592773438e+00 1.396064413711428642e-03 2.022628614213317633e-04 4.794981796294450760e-04 -1.401568995788693428e-03
1.534000000000000000e+03 4.072834396362304688e+01 1.394485855102539062e+01 -9.524697810411453247e-02 1.367397699505090714e-02 -2.447190135717391968e-02 2.375148423016071320e-02
1.535000000000000000e+03 3.665786361694335938e+01 1.805624389648437500e+01 -2.304316908121109009e-01 -2.058560959994792938e-02 -7.530519366264343262e-02 9.675929695367813110e-02
1.536000000000000000e+03 4.331687164306640625e+01 -1.495023012161254883e+00 -1.070284247398376465e+00 1.346589326858520508e-01 -2.806875705718994141e-01 -5.310012102127075195e-01
1.537000000000000000e+03 4.307492065429687500e+01 -6.745191812515258789e-01 -8.556435704231262207e-01 5.291462875902652740e-03 -2.551056444644927979e-01 -5.335023403167724609e-01
1.538000000000000000e+03 3.868402862548828125e+01 1.592302513122558594e+01 -1.651850342750549316e-01 4.641246050596237183e-03 -4.816313832998275757e-02 5.977665632963180542e-02
1.539000000000000000e+03 1.512748241424560547e+01 -1.232826137542724609e+01 -1.347137331962585449e+00 -4.644468426704406738e-01 -5.434752702713012695e-01 -6.059502363204956055e-01
1.540000000000000000e+03 6.655701446533203125e+01 -1.098746299743652344e+01 -1.344645857810974121e+00 3.433196306228637695e+00 6.265651583671569824e-01 -1.080806493759155273e+00
1.541000000000000000e+03 5.795358657836914062e+01 -1.645176112651824951e-02 2.235718667507171631e-01 1.356313079595565796e-01 1.077609509229660034e-01 2.154034376144409180e-01
1.542000000000000000e+03 6.897574615478515625e+01 2.097545051574707031e+01 1.837591171264648438e+00 9.016151428222656250e+00 3.256122827529907227e+00 -5.012426853179931641e+00
1.543000000000000000e+03 6.885251617431640625e+01 2.133724784851074219e+01 1.199596405029296875e+00 8.216334342956542969e+00 2.824779272079467773e+00 -4.575484275817871094e+00
1.544000000000000000e+03 6.827252197265625000e+01 2.116040992736816406e+01 2.056077718734741211e+00 4.842565536499023438e+00 2.069592952728271484e+00 -4.030936241149902344e+00
1.545000000000000000e+03 6.949920654296875000e+01 1.644039535522460938e+01 -7.950357198715209961e-01 1.271221828460693359e+01 3.575154781341552734e+00 3.128211021423339844e+00
1.546000000000000000e+03 6.887019348144531250e+01 1.711570739746093750e+01 -1.017857044935226440e-01 9.389440536499023438e+00 2.786296606063842773e+00 3.345531940460205078e+00
1.547000000000000000e+03 1.055344676971435547e+01 -3.431185245513916016e+00 1.223960667848587036e-01 -7.421135157346725464e-02 1.445541530847549438e-02 2.505154162645339966e-02
1.548000000000000000e+03 9.278946876525878906e+00 -2.595593214035034180e+00 1.651668697595596313e-01 -4.416279494762420654e-02 3.630122169852256775e-02 4.669533297419548035e-02
1.549000000000000000e+03 1.996599960327148438e+01 2.375927925109863281e+00 -1.528659777250140905e-04 -6.742297955497633666e-06 -4.788248043041676283e-05 5.405547199188731611e-05
1.550000000000000000e+03 1.851161193847656250e+01 1.018834114074707031e+00 -2.462730117258615792e-05 -4.056671605212613940e-05 -1.955820516741368920e-05 4.007338429801166058e-05
1.551000000000000000e+03 7.063375091552734375e+01 1.739688301086425781e+01 7.914260029792785645e-02 1.561216640472412109e+01 4.707392692565917969e+00 -1.792985200881958008e-01
1.552000000000000000e+03 7.134661865234375000e+01 2.168282318115234375e+01 6.173518896102905273e-01 1.295891952514648438e+01 4.072881698608398438e+00 1.015709757804870605e+00
1.553000000000000000e+03 2.031699752807617188e+01 1.365905165672302246e+00 1.208856774610467255e-04 9.346102160634472966e-05 6.430401117540895939e-05 -3.450275107752531767e-05
1.554000000000000000e+03 1.440645980834960938e+01 1.857557535171508789e+00 1.137777144322171807e-04 -7.410660327877849340e-05 1.190133480122312903e-05 1.461741485400125384e-04
1.555000000000000000e+03 1.692142868041992188e+01 2.395950555801391602e+00 -5.916990266996435821e-05 3.030411971849389374e-05 -8.659735613036900759e-06 2.427946456009522080e-04
1.556000000000000000e+03 1.181131935119628906e+01 -4.360773563385009766e+00 5.481814220547676086e-02 -9.834697842597961426e-02 -1.305865123867988586e-02 -1.849705912172794342e-02
1.557000000000000000e+03 1.195249366760253906e+01 -3.647423744201660156e+00 1.034148931503295898e-01 -7.723503559827804565e-02 7.853955961763858795e-03 -2.067672275006771088e-02
1.558000000000000000e+03 5.515551567077636719e+00 3.426735877990722656e+00 4.222976276651024818e-04 -1.052578409144189209e-05 1.235315576195716858e-04 -2.571207005530595779e-04
1.559000000000000000e+03 5.488821506500244141e+00 2.642193078994750977e+00 2.011573960771784186e-04 -2.642632898641750216e-05 5.241931648924946785e-05 -2.037290832959115505e-04
1.560000000000000000e+03 3.882620096206665039e+00 3.908636093139648438e+00 1.703924208413809538e-04 1.304554461967200041e-04 9.025436156662181020e-05 -3.303535922896116972e-04
1.561000000000000000e+03 2.733063697814941406e+00 3.730309009552001953e+00 2.066711458610370755e-04 2.161479060305282474e-04 1.268457126570865512e-04 -3.065681376028805971e-04
1.562000000000000000e+03 8.500066757202148438e+00 3.289301633834838867e+00 5.764556117355823517e-04 -6.657086487393826246e-05 1.529654255136847496e-04 -1.590211322763934731e-04
1.563000000000000000e+03 6.227823257446289062e+00 2.634467124938964844e+00 4.246607131790369749e-04 -1.144784073403570801e-05 1.239638659171760082e-04 -1.998421794269233942e-04
1.564000000000000000e+03 7.039369583129882812e+00 3.369328260421752930e+00 5.156619590707123280e-04 -4.627337330020964146e-05 1.408165699103847146e-04 -2.348869311390444636e-04
1.565000000000000000e+03 9.893265724182128906e+00 2.483004331588745117e+00 3.757951781153678894e-04 -1.704876194708049297e-04 6.159226177260279655e-05 3.933271364076063037e-05
1.566000000000000000e+03 9.229446411132812500e+00 3.234010219573974609e+00 3.522631013765931129e-04 -2.204092888860031962e-04 3.955614374717697501e-05 1.766518107615411282e-05
1.567000000000000000e+03 4.059453964233398438e+00 3.301864624023437500e+00 2.442663535475730896e-04 1.038257760228589177e-04 1.044276432367041707e-04 -2.265903021907433867e-04
1.568000000000000000e+03 9.967345237731933594e+00 3.164533376693725586e+00 5.359321366995573044e-04 -2.572220910224132240e-05 1.530629815533757210e-04 -4.565429480862803757e-05
1.569000000000000000e+03 4.736629486083984375e+01 5.022140502929687500e+00 -4.741214215755462646e-04 -9.453336242586374283e-04 -4.258365079294890165e-04 -5.567326443269848824e-04
1.570000000000000000e+03 1.353907203674316406e+01 -3.218364715576171875e+00 1.258388757705688477e-01 -3.995518386363983154e-02 2.576510794460773468e-02 -7.270237058401107788e-02
1.571000000000000000e+03 1.593981170654296875e+01 1.668056368827819824e+00 -1.592211265233345330e-05 2.233427494502393529e-06 -4.106605501874582842e-06 1.445159723516553640e-04
1.572000000000000000e+03 1.407956790924072266e+01 -4.040007591247558594e+00 3.947741165757179260e-02 -6.591688096523284912e-02 -7.931841537356376648e-03 -1.138063892722129822e-01
1.573000000000000000e+03 1.637711715698242188e+01 -4.561780452728271484e+00 -1.004616543650627136e-01 -3.520648181438446045e-02 -4.070043936371803284e-02 -2.373704612255096436e-01
1.574000000000000000e+03 1.265634536743164062e+01 -3.768970727920532227e+00 9.046863764524459839e-02 -7.157284021377563477e-02 5.668739788234233856e-03 -4.557352140545845032e-02
1.575000000000000000e+03 1.336490631103515625e+01 -3.898276805877685547e+00 6.510743498802185059e-02 -7.514223456382751465e-02 -3.010441083461046219e-03 -8.151951432228088379e-02
1.576000000000000000e+03 5.586490154266357422e+00 -2.506292104721069336e+00 9.456377476453781128e-02 -4.587828647345304489e-03 2.699278295040130615e-02 8.838349580764770508e-02
1.577000000000000000e+03 6.979072093963623047e+00 -3.228408336639404297e+00 9.542438387870788574e-02 -2.430131658911705017e-02 2.133692055940628052e-02 9.166410565376281738e-02
1.578000000000000000e+03 3.462532281875610352e+00 -2.591602802276611328e+00 5.178304389119148254e-02 1.892264187335968018e-02 2.121170610189437866e-02 7.695451378822326660e-02
1.579000000000000000e+03 5.490509986877441406e+00 -3.762673854827880859e+00 5.396417528390884399e-02 -5.622265394777059555e-03 1.450257282704114914e-02 1.088852733373641968e-01
1.580000000000000000e+03 2.848188638687133789e+00 -2.781708955764770508e+00 3.506160527467727661e-02 2.813520282506942749e-02 1.895904168486595154e-02 7.216060906648635864e-02
1.581000000000000000e+03 4.114278793334960938e+00 -3.311731338500976562e+00 4.762993007898330688e-02 2.405984885990619659e-02 2.150693349540233612e-02 9.798730909824371338e-02
1.582000000000000000e+03 9.745656967163085938e+00 -4.070533752441406250e+00 7.701075077056884766e-02 -8.464053273200988770e-02 -2.288932912051677704e-03 4.898895695805549622e-02
1.583000000000000000e+03 7.714391231536865234e+00 -3.263023853302001953e+00 1.012293845415115356e-01 -3.706431388854980469e-02 1.924952119588851929e-02 8.336091041564941406e-02
1.584000000000000000e+03 4.632577133178710938e+01 -1.976712107658386230e+00 -1.061918854713439941e+00 4.638504087924957275e-01 -1.794205307960510254e-01 -1.333405822515487671e-01
1.585000000000000000e+03 4.781654739379882812e+01 -1.599247336387634277e+00 -1.031660437583923340e+00 3.543699085712432861e-01 -2.031871527433395386e-01 4.911578074097633362e-02
1.586000000000000000e+03 4.931445312500000000e+01 -1.688031673431396484e+00 -9.953474998474121094e-01 2.386546283960342407e-01 -2.270078659057617188e-01 2.144585400819778442e-01
1.587000000000000000e+03 4.509192276000976562e+01 -1.234000086784362793e+00 -1.027356147766113281e+00 2.862426638603210449e-01 -2.223340421915054321e-01 -3.290309607982635498e-01
1.588000000000000000e+03 4.574807739257812500e+01 -1.251619338989257812e+00 -1.032950401306152344e+00 3.490646183490753174e-01 -2.051657140254974365e-01 -2.379749417304992676e-01
1.589000000000000000e+03 4.269866943359375000e+01 -1.733247876167297363e+00 -1.175115346908569336e+00 -2.742494828999042511e-02 -3.607620894908905029e-01 -6.612596511840820312e-01
1.590000000000000000e+03 4.388813400268554688e+01 -1.343100309371948242e+00 -1.050480365753173828e+00 2.040009200572967529e-01 -2.539438307285308838e-01 -4.680912196636199951e-01
1.591000000000000000e+03 1.720863151550292969e+01 -4.703320026397705078e+00 -1.453485488891601562e-01 -1.359406858682632446e-02 -4.768278449773788452e-02 -2.619901597499847412e-01
1.592000000000000000e+03 1.578090000152587891e+01 -3.670219898223876953e+00 6.044841371476650238e-03 -2.038597874343395233e-02 -4.302341025322675705e-03 -1.743148267269134521e-01
1.593000000000000000e+03 1.459301948547363281e+01 -4.889688014984130859e+00 -4.441507160663604736e-02 -9.794318675994873047e-02 -4.270747676491737366e-02 -1.676106601953506470e-01
1.594000000000000000e+03 1.224062633514404297e+01 2.935386180877685547e+00 3.289601590950042009e-04 -2.434685447951778769e-04 2.564748501754365861e-05 1.441832137061282992e-04
1.595000000000000000e+03 1.072010803222656250e+01 3.086860418319702148e+00 4.006061062682420015e-04 -2.660145109985023737e-04 4.037747567053884268e-05 1.177543308585882187e-04
1.596000000000000000e+03 1.481449317932128906e+01 -4.202168464660644531e+00 -2.297006547451019287e-03 -6.351309269666671753e-02 -1.974303089082241058e-02 -1.557733416557312012e-01
1.597000000000000000e+03 2.048501586914062500e+01 -4.916116714477539062e+00 -3.649402558803558350e-01 8.280307799577713013e-02 -8.464115858078002930e-02 -2.637425661087036133e-01
1.598000000000000000e+03 1.874287223815917969e+01 -5.570827007293701172e+00 -2.996965944766998291e-01 4.433555528521537781e-02 -7.660831511020660400e-02 -3.355423212051391602e-01
1.599000000000000000e+03 2.234396934509277344e+01 -4.163982391357421875e+00 -4.387954473495483398e-01 9.970971196889877319e-02 -1.017257198691368103e-01 -1.255483478307723999e-01
1.600000000000000000e+03 4.641145324707031250e+01 -1.343019962310791016e+00 -1.030102491378784180e+00 3.531145453453063965e-01 -2.030964046716690063e-01 -1.344078332185745239e-01
1.601000000000000000e+03 1.367328929901123047e+01 1.975235581398010254e+00 3.924104094039648771e-04 3.842240039375610650e-05 1.292498345719650388e-04 1.667465548962354660e-04
1.602000000000000000e+03 1.298753929138183594e+01 2.855906248092651367e+00 4.609941097442060709e-04 4.920299033983610570e-05 1.530591252958402038e-04 2.500701230019330978e-04
1.603000000000000000e+03 5.076775741577148438e+01 -1.743315458297729492e+00 -7.680635452270507812e-01 -3.544344566762447357e-03 -2.314823567867279053e-01 4.604994356632232666e-01
1.604000000000000000e+03 2.409187126159667969e+01 -4.718464851379394531e+00 -6.228554248809814453e-01 1.795697212219238281e-01 -1.329857110977172852e-01 -7.872997969388961792e-02
1.605000000000000000e+03 2.647204971313476562e+01 -4.972123622894287109e+00 -1.002579212188720703e+00 1.651646047830581665e-01 -2.512243688106536865e-01 1.375461071729660034e-01
1.606000000000000000e+03 2.216442680358886719e+01 -5.847353935241699219e+00 -5.111375451087951660e-01 1.767660677433013916e-01 -1.003114432096481323e-01 -2.729005515575408936e-01
1.607000000000000000e+03 2.323024940490722656e+01 -4.931023120880126953e+00 -5.670853257179260254e-01 1.731455922126770020e-01 -1.181819140911102295e-01 -1.336472928524017334e-01
1.608000000000000000e+03 1.803964614868164062e+01 -4.770319461822509766e+00 -1.987909078598022461e-01 6.288884673267602921e-03 -5.775060877203941345e-02 -2.905661165714263916e-01
1.609000000000000000e+03 1.372534370422363281e+01 2.750780105590820312e+00 1.369405799778178334e-04 -1.242212747456505895e-04 3.815791842498583719e-06 1.796894357539713383e-04
1.610000000000000000e+03 4.515697097778320312e+01 5.013420104980468750e+00 2.433342160657048225e-03 -1.225166721269488335e-03 3.624526434578001499e-04 4.635250079445540905e-04
1.611000000000000000e+03 7.077105712890625000e+01 -1.619391632080078125e+01 7.082124352455139160e-01 8.530403137207031250e+00 2.771584749221801758e+00 6.194220185279846191e-01
1.612000000000000000e+03 6.892138671875000000e+01 -1.328079223632812500e+01 -6.816180944442749023e-01 6.784512996673583984e+00 1.830868482589721680e+00 5.879648402333259583e-02
1.613000000000000000e+03 6.475641632080078125e+01 -8.921133995056152344e+00 -8.928422331809997559e-01 1.467664480209350586e+00 1.724466681480407715e-01 -3.880828320980072021e-01
1.614000000000000000e+03 7.255909729003906250e+01 1.714716339111328125e+01 1.443620324134826660e+00 1.199460983276367188e+01 4.031468868255615234e+00 -1.422474980354309082e+00
1.615000000000000000e+03 7.279827880859375000e+01 1.992096710205078125e+01 3.912328720092773438e+00 1.049033355712890625e+01 4.320798397064208984e+00 7.694663405418395996e-01
1.616000000000000000e+03 7.207544708251953125e+01 2.229724311828613281e+01 1.196814551949501038e-01 1.153543758392333984e+01 3.496535778045654297e+00 1.293540716171264648e+00
1.617000000000000000e+03 7.374142456054687500e+01 1.979291915893554688e+01 2.898111343383789062e+00 9.329483032226562500e+00 3.668278217315673828e+00 5.667828321456909180e-01
1.618000000000000000e+03 1.751739883422851562e+01 4.225801467895507812e+00 -2.962948929052799940e-04 1.923003874253481627e-04 -3.119834946119226515e-05 3.241832891944795847e-04
1.619000000000000000e+03 1.822760772705078125e+01 1.522085547447204590e+00 1.169136448879726231e-04 3.172274091411964037e-06 3.602577635319903493e-05 9.300818055635318160e-05
1.620000000000000000e+03 1.680229568481445312e+01 -1.041942310333251953e+01 -5.388608574867248535e-01 -2.302641421556472778e-01 -2.307375073432922363e-01 -4.590447545051574707e-01
1.621000000000000000e+03 1.379559707641601562e+01 -9.879541397094726562e+00 -4.545352160930633545e-01 -4.571636915206909180e-01 -2.735096812248229980e-01 -2.643943428993225098e-01
1.622000000000000000e+03 4.158420181274414062e+01 -3.155431032180786133e+00 -1.640847086906433105e+00 -3.279517590999603271e-02 -5.020926594734191895e-01 -4.838081598281860352e-01
1.623000000000000000e+03 4.291463470458984375e+01 -3.017111539840698242e+00 -1.387496232986450195e+00 2.782739698886871338e-01 -3.327666819095611572e-01 -3.595409393310546875e-01
1.624000000000000000e+03 9.392471313476562500e+00 -1.913540458679199219e+01 -1.680081710219383240e-02 -4.182606339454650879e-01 -1.305184364318847656e-01 -4.612995684146881104e-01
1.625000000000000000e+03 2.377192497253417969e+01 -1.079218292236328125e+01 -2.022667825222015381e-01 1.793257594108581543e-01 -6.882308516651391983e-03 -4.474540650844573975e-01
1.626000000000000000e+03 6.922369384765625000e+01 1.504080390930175781e+01 3.929063081741333008e-01 1.119018268585205078e+01 3.474926710128784180e+00 2.506244897842407227e+00
1.627000000000000000e+03 6.904296112060546875e+01 1.589662551879882812e+01 -1.359076797962188721e-01 1.156068134307861328e+01 3.427432060241699219e+00 2.867449760437011719e+00
1.628000000000000000e+03 6.059074401855468750e+01 2.421180486679077148e+00 3.185303807258605957e-01 5.268282294273376465e-01 2.536076009273529053e-01 3.260999023914337158e-01
1.629000000000000000e+03 6.330831909179687500e+01 5.295438766479492188e+00 3.167939186096191406e-01 1.515163540840148926e+00 5.495872497558593750e-01 7.390356659889221191e-01
1.630000000000000000e+03 1.518217277526855469e+01 -3.009209442138671875e+01 3.223986029624938965e-01 1.996558308601379395e-01 1.566163301467895508e-01 -1.897879838943481445e-01
1.631000000000000000e+03 1.624899482727050781e+01 -2.879579162597656250e+01 4.559918642044067383e-01 2.862751185894012451e-01 2.226800918579101562e-01 -2.843097746372222900e-01
1.632000000000000000e+03 6.249671173095703125e+01 2.745267868041992188e+00 2.943713366985321045e-01 1.337749242782592773e+00 4.896361827850341797e-01 5.370082259178161621e-01
1.633000000000000000e+03 2.727761268615722656e+01 -5.408585071563720703e+00 -1.466357946395874023e+00 2.025012820959091187e-01 -3.791570067405700684e-01 2.394139952957630157e-02
1.634000000000000000e+03 2.866558837890625000e+01 -6.935436248779296875e+00 -1.237829923629760742e+00 -6.527226418256759644e-02 -3.909306526184082031e-01 -3.523234724998474121e-01
1.635000000000000000e+03 6.144911956787109375e+01 -9.124350547790527344e+00 -1.111137628555297852e+00 1.267101317644119263e-01 -2.953282594680786133e-01 4.936904907226562500e-01
1.636000000000000000e+03 6.052145004272460938e+01 -8.958484649658203125e+00 -1.162284135818481445e+00 7.052930444478988647e-02 -3.275264501571655273e-01 6.240431666374206543e-01
1.637000000000000000e+03 6.862593841552734375e+01 -1.044289016723632812e+01 -1.295258522033691406e+00 5.663338184356689453e+00 1.310423851013183594e+00 -4.693898260593414307e-01
1.638000000000000000e+03 3.790824890136718750e+01 -2.710526657104492188e+01 8.745431154966354370e-02 4.508743062615394592e-02 3.976251929998397827e-02 1.825697869062423706e-01
1.639000000000000000e+03 2.365464782714843750e+01 -1.195091438293457031e+01 4.218225181102752686e-02 1.496094167232513428e-01 5.753749981522560120e-02 -3.904089033603668213e-01
1.640000000000000000e+03 2.958191680908203125e+01 -1.213976287841796875e+01 3.363098502159118652e-01 6.148372218012809753e-02 1.193380728363990784e-01 -4.684771895408630371e-01
1.641000000000000000e+03 5.703960800170898438e+01 -5.455959796905517578e+00 -3.389142751693725586e-01 -2.029296159744262695e-01 -1.625531613826751709e-01 6.437768936157226562e-01
1.642000000000000000e+03 4.341670989990234375e+01 -1.256251049041748047e+01 5.134946107864379883e-01 8.923174142837524414e-01 4.217436015605926514e-01 2.439214736223220825e-01
1.643000000000000000e+03 1.885506057739257812e+01 -1.178752231597900391e+01 -5.657908916473388672e-01 1.448344290256500244e-01 -1.262869387865066528e-01 -2.146631330251693726e-01
1.644000000000000000e+03 1.764538955688476562e+01 -9.618743896484375000e+00 -5.176000595092773438e-01 -6.697534024715423584e-02 -1.753726154565811157e-01 -4.539347290992736816e-01
1.645000000000000000e+03 6.283400726318359375e+01 -3.176563072204589844e+01 5.835269764065742493e-02 1.886939048767089844e+00 5.835875272750854492e-01 7.514997720718383789e-01
1.646000000000000000e+03 1.973010063171386719e+01 -1.003054809570312500e+01 -4.673603177070617676e-01 1.202445253729820251e-01 -1.041347384452819824e-01 -4.080623388290405273e-01
1.647000000000000000e+03 6.332421875000000000e+01 -1.032622432708740234e+01 -1.182317733764648438e+00 2.987481951713562012e-01 -2.650708556175231934e-01 1.584950238466262817e-01
1.648000000000000000e+03 6.242386245727539062e+01 -9.223345756530761719e+00 -9.375929832458496094e-01 4.354199171066284180e-01 -1.506519317626953125e-01 2.549421787261962891e-01
1.649000000000000000e+03 2.032605934143066406e+01 -1.126846408843994141e+01 -3.928284645080566406e-01 1.713603734970092773e-01 -6.644042581319808960e-02 -3.093207776546478271e-01
1.650000000000000000e+03 6.973684692382812500e+01 -2.532901191711425781e+01 -2.270321696996688843e-01 7.089563369750976562e+00 2.058759450912475586e+00 5.181215405464172363e-01
1.651000000000000000e+03 6.833959960937500000e+01 8.058717727661132812e+00 -1.847177147865295410e-01 6.945105552673339844e+00 2.028116464614868164e+00 6.881386637687683105e-01
1.652000000000000000e+03 6.532331085205078125e+01 7.090906143188476562e+00 3.996852934360504150e-01 3.355595111846923828e+00 1.126584053039550781e+00 1.375236034393310547e+00
1.653000000000000000e+03 4.331069564819335938e+01 1.355036544799804688e+01 -8.333130925893783569e-02 4.610881209373474121e-03 -2.361612766981124878e-02 -5.076144356280565262e-03
1.654000000000000000e+03 4.215256881713867188e+01 1.211337947845458984e+01 -3.678898885846138000e-02 1.656618434935808182e-03 -1.053971145302057266e-02 4.125761333853006363e-03
1.655000000000000000e+03 2.728875732421875000e+01 -1.226071166992187500e+01 3.292669951915740967e-01 7.919608056545257568e-02 1.225389242172241211e-01 -4.824254214763641357e-01
1.656000000000000000e+03 5.161291122436523438e+01 -9.781157970428466797e-01 -7.139788866043090820e-01 -1.689244955778121948e-01 -2.648710012435913086e-01 4.517729878425598145e-01
1.657000000000000000e+03 1.853895950317382812e+01 2.424155616760253906e+01 -5.808301642537117004e-02 -5.943226628005504608e-03 -1.920787245035171509e-02 3.539510443806648254e-02
1.658000000000000000e+03 1.846463203430175781e+01 2.265018844604492188e+01 -5.350607633590698242e-02 8.439484983682632446e-03 -1.351997721940279007e-02 1.996821723878383636e-02
1.659000000000000000e+03 4.335539245605468750e+01 -2.459618949890136719e+01 2.535436451435089111e-01 1.179335832595825195e+00 4.298638403415679932e-01 1.446475647389888763e-02
1.660000000000000000e+03 4.332400512695312500e+01 -2.336080551147460938e+01 2.998093664646148682e-01 1.296273112297058105e+00 4.788247346878051758e-01 -1.064045820385217667e-02
1.661000000000000000e+03 4.503816223144531250e+01 6.879010677337646484e+00 6.663172505795955658e-03 -1.016813563182950020e-03 1.693907659500837326e-03 4.120222874917089939e-04
1.662000000000000000e+03 4.601464080810546875e+01 5.939969539642333984e+00 3.779328661039471626e-03 -1.651894883252680302e-03 6.382301216945052147e-04 3.574265574570745230e-04
1.663000000000000000e+03 1.599966812133789062e+01 9.649762153625488281e+00 -1.222035352839156985e-04 6.569683318957686424e-04 1.604294375283643603e-04 9.400868439115583897e-04
1.664000000000000000e+03 1.721583557128906250e+01 1.235071563720703125e+01 1.075814710929989815e-03 2.579088089987635612e-03 1.096470747143030167e-03 1.504038576968014240e-03
1.665000000000000000e+03 1.321397590637207031e+01 -1.228370094299316406e+01 -8.497861027717590332e-01 -6.299507617950439453e-01 -4.439210593700408936e-01 -4.414735138416290283e-01
1.666000000000000000e+03 3.559415435791015625e+01 -2.973262977600097656e+01 1.976701170206069946e-01 -7.642497867345809937e-02 3.637354075908660889e-02 9.932462871074676514e-02
1.667000000000000000e+03 4.676516723632812500e+01 -2.609989738464355469e+01 1.318082064390182495e-01 1.509899735450744629e+00 4.925124049186706543e-01 -3.648929595947265625e-01
1.668000000000000000e+03 5.174415588378906250e+01 -3.388819885253906250e+01 2.396763712167739868e-01 4.025723040103912354e-01 1.926746070384979248e-01 -4.367733895778656006e-01
1.669000000000000000e+03 2.606447219848632812e+01 -1.339507102966308594e+01 5.979986190795898438e-01 6.674153357744216919e-02 1.994220465421676636e-01 -3.639847040176391602e-01
1.670000000000000000e+03 3.445256805419921875e+01 -6.567754745483398438e+00 -1.854373812675476074e+00 -2.775398790836334229e-01 -6.395741105079650879e-01 -3.221024572849273682e-01
1.671000000000000000e+03 3.692099380493164062e+01 -6.676820755004882812e+00 -1.489388942718505859e+00 -3.846323788166046143e-01 -5.622063875198364258e-01 -4.185922741889953613e-01
1.672000000000000000e+03 6.395046997070312500e+01 2.454630851745605469e+01 -6.448314189910888672e-01 1.033004760742187500e+00 1.164519935846328735e-01 -1.063862562179565430e+00
1.673000000000000000e+03 6.264455413818359375e+01 2.511564064025878906e+01 -6.653686761856079102e-01 4.643124043941497803e-01 -6.031687185168266296e-02 -7.280923724174499512e-01
1.674000000000000000e+03 7.656260681152343750e+01 -3.152125930786132812e+01 -1.133333370089530945e-01 7.655351638793945312e+00 2.262605428695678711e+00 -1.516274660825729370e-01
1.675000000000000000e+03 7.658058929443359375e+01 -3.274612426757812500e+01 -9.438817203044891357e-02 7.644759654998779297e+00 2.265111446380615234e+00 -9.238447248935699463e-02
1.676000000000000000e+03 7.649237060546875000e+01 -3.019228363037109375e+01 -1.282749027013778687e-01 7.611299514770507812e+00 2.244907379150390625e+00 -2.388476729393005371e-01
1.677000000000000000e+03 7.659667968750000000e+01 2.064172554016113281e+01 7.908117771148681641e-01 6.623146533966064453e+00 2.224187612533569336e+00 8.783975243568420410e-01
1.678000000000000000e+03 7.700296783447265625e+01 1.745768737792968750e+01 5.843231081962585449e-01 6.278747081756591797e+00 2.058921098709106445e+00 -5.351255536079406738e-01
1.679000000000000000e+03 7.629379272460937500e+01 -2.720350074768066406e+01 -9.995884448289871216e-02 7.580953121185302734e+00 2.244298458099365234e+00 -3.827131390571594238e-01
1.680000000000000000e+03 7.565837860107421875e+01 -3.802598953247070312e+01 -8.555158227682113647e-02 7.452247619628906250e+00 2.210008859634399414e+00 -1.192241013050079346e-01
1.681000000000000000e+03 7.674792480468750000e+01 -2.418515968322753906e+01 1.024698540568351746e-01 7.489185333251953125e+00 2.277496576309204102e+00 -3.603512644767761230e-01
1.682000000000000000e+03 7.645493316650390625e+01 -2.561907196044921875e+01 1.147700659930706024e-02 7.532666206359863281e+00 2.263242959976196289e+00 -4.198616147041320801e-01
1.683000000000000000e+03 7.705724334716796875e+01 2.361621856689453125e+01 -5.561153870075941086e-03 6.975716590881347656e+00 2.091046571731567383e+00 1.372088193893432617e+00
1.684000000000000000e+03 7.677214813232421875e+01 1.417718410491943359e+01 7.731401175260543823e-02 6.988258838653564453e+00 2.119671821594238281e+00 -1.096863269805908203e+00
1.685000000000000000e+03 7.693973541259765625e+01 2.636672592163085938e+01 -3.001220226287841797e-01 7.574025154113769531e+00 2.182170867919921875e+00 1.099925160408020020e+00
1.686000000000000000e+03 7.691160583496093750e+01 2.498119163513183594e+01 -1.969380676746368408e-01 7.353291511535644531e+00 2.146906137466430664e+00 1.314607024192810059e+00
1.687000000000000000e+03 7.682725524902343750e+01 1.285498905181884766e+01 1.067356299608945847e-02 7.094422340393066406e+00 2.131528854370117188e+00 -1.117927908897399902e+00
1.688000000000000000e+03 7.677021789550781250e+01 1.153688049316406250e+01 -7.658071070909500122e-02 7.305252075195312500e+00 2.168601512908935547e+00 -1.124854683876037598e+00
1.689000000000000000e+03 7.680551147460937500e+01 1.015788841247558594e+01 -8.739086985588073730e-02 7.489028453826904297e+00 2.220491409301757812e+00 -1.059162616729736328e+00
1.690000000000000000e+03 7.489386749267578125e+01 2.951917457580566406e+01 -6.045619249343872070e-01 7.733525276184082031e+00 2.138689041137695312e+00 4.791726768016815186e-01
1.691000000000000000e+03 7.688575744628906250e+01 2.766023445129394531e+01 -3.346735239028930664e-01 7.725496292114257812e+00 2.217246770858764648e+00 8.770103454589843750e-01
1.692000000000000000e+03 7.720295715332031250e+01 2.143556976318359375e+01 5.039389133453369141e-01 6.307477474212646484e+00 2.043424844741821289e+00 1.039410114288330078e+00
1.693000000000000000e+03 7.714560699462890625e+01 1.851798820495605469e+01 6.155738830566406250e-01 6.000086784362792969e+00 1.984698176383972168e+00 -3.932775929570198059e-02
1.694000000000000000e+03 7.694825744628906250e+01 -1.743001365661621094e+01 2.254833877086639404e-01 7.633628368377685547e+00 2.357733488082885742e+00 4.774441421031951904e-01
1.695000000000000000e+03 7.699426269531250000e+01 -1.458928489685058594e+01 7.772142440080642700e-02 8.007710456848144531e+00 2.425629615783691406e+00 7.352421879768371582e-01
1.696000000000000000e+03 7.693422698974609375e+01 -1.601610374450683594e+01 1.613814532756805420e-01 7.790667057037353516e+00 2.385614633560180664e+00 6.388971805572509766e-01
1.697000000000000000e+03 7.686672973632812500e+01 -6.553926944732666016e+00 -1.893288046121597290e-01 8.765686035156250000e+00 2.572907209396362305e+00 1.492322087287902832e-01
1.698000000000000000e+03 7.686019897460937500e+01 -7.907731533050537109e+00 -2.083126902580261230e-01 8.732719421386718750e+00 2.557322025299072266e+00 3.005037307739257812e-01
1.699000000000000000e+03 7.694573211669921875e+01 1.740185469388961792e-01 -1.154251247644424438e-01 8.609073638916015625e+00 2.548094511032104492e+00 -3.606833517551422119e-01
1.700000000000000000e+03 7.696884155273437500e+01 -1.157283663749694824e+00 -1.144526228308677673e-01 8.700531005859375000e+00 2.575823545455932617e+00 -2.756828665733337402e-01
1.701000000000000000e+03 7.679121398925781250e+01 7.315369606018066406e+00 -1.307846754789352417e-01 7.863167285919189453e+00 2.319714784622192383e+00 -8.851938247680664062e-01
1.702000000000000000e+03 7.663397979736328125e+01 4.471895217895507812e+00 -1.541804820299148560e-01 8.164576530456542969e+00 2.403118848800659180e+00 -6.938760280609130859e-01
1.703000000000000000e+03 7.667763519287109375e+01 2.974978685379028320e+00 -1.484645307064056396e-01 8.299654960632324219e+00 2.445357084274291992e+00 -5.792214274406433105e-01
1.704000000000000000e+03 7.695620727539062500e+01 -2.498172521591186523e+00 -1.279125660657882690e-01 8.751369476318359375e+00 2.587037086486816406e+00 -1.824431270360946655e-01
1.705000000000000000e+03 7.573056793212890625e+01 -2.377619266510009766e+00 -2.058582156896591187e-01 8.229228973388671875e+00 2.407011270523071289e+00 -2.366531342267990112e-01
1.706000000000000000e+03 7.690351104736328125e+01 -9.252264022827148438e+00 -2.013520449399948120e-01 8.664508819580078125e+00 2.538947105407714844e+00 4.434099197387695312e-01
1.707000000000000000e+03 7.697283935546875000e+01 -1.060403537750244141e+01 -1.788417696952819824e-01 8.552390098571777344e+00 2.512064456939697266e+00 5.858029723167419434e-01
1.708000000000000000e+03 7.688762664794921875e+01 -1.880973052978515625e+01 2.791231870651245117e-01 7.493464469909667969e+00 2.331776380538940430e+00 3.044756650924682617e-01
1.709000000000000000e+03 7.693353271484375000e+01 -2.018330764770507812e+01 3.058204054832458496e-01 7.418272972106933594e+00 2.317228078842163086e+00 7.673747837543487549e-02
1.710000000000000000e+03 7.606375885009765625e+01 3.020767402648925781e+01 -3.621001839637756348e-01 7.797724246978759766e+00 2.230687379837036133e+00 4.500947892665863037e-01
1.711000000000000000e+03 7.630751037597656250e+01 1.822764015197753906e+01 1.009941458702087402e+00 6.963251113891601562e+00 2.391957759857177734e+00 -3.035836815834045410e-01
1.712000000000000000e+03 7.692514801025390625e+01 -3.852031707763671875e+00 -1.377148032188415527e-01 8.786224365234375000e+00 2.594552993774414062e+00 -8.659861981868743896e-02
1.713000000000000000e+03 3.781862258911132812e+01 -5.312279701232910156e+00 -1.846863031387329102e+00 -5.212032198905944824e-01 -7.104198932647705078e-01 -7.313401103019714355e-01
1.714000000000000000e+03 5.801257324218750000e+01 2.608271598815917969e+01 -6.848071217536926270e-01 -1.989608444273471832e-02 -2.114109545946121216e-01 1.384925246238708496e-01
1.715000000000000000e+03 5.633084487915039062e+01 2.609887313842773438e+01 -7.089061141014099121e-01 -2.055722661316394806e-02 -2.188390046358108521e-01 2.308756858110427856e-01
1.716000000000000000e+03 4.780662536621093750e+01 1.240053558349609375e+01 -9.904990904033184052e-03 -6.399730220437049866e-03 -4.891416057944297791e-03 -5.035540089011192322e-03
1.717000000000000000e+03 5.019970703125000000e+01 1.643907737731933594e+01 -6.333740055561065674e-02 -6.229557469487190247e-02 -3.768989443778991699e-02 -7.655903697013854980e-02
1.718000000000000000e+03 2.982121086120605469e+01 -1.347895812988281250e+01 1.008777260780334473e+00 1.005318462848663330e-01 3.327927291393280029e-01 -4.502198994159698486e-01
1.719000000000000000e+03 4.053343200683593750e+01 1.578294181823730469e+01 -1.701497137546539307e-01 3.363164514303207397e-02 -4.095541685819625854e-02 3.608311340212821960e-02
1.720000000000000000e+03 3.659317970275878906e+00 3.048162460327148438e+01 -9.548683301545679569e-04 -9.227073751389980316e-03 -3.054582746699452400e-03 6.629521027207374573e-03
1.721000000000000000e+03 3.656414747238159180e+00 3.201366806030273438e+01 1.810718968044966459e-04 -1.186696346849203110e-02 -3.505767323076725006e-03 7.060687988996505737e-03
1.722000000000000000e+03 3.305148363113403320e+00 2.333220672607421875e+01 -1.067293575033545494e-03 4.036978061776608229e-04 -1.990787131944671273e-04 1.670883735641837120e-03
1.723000000000000000e+03 3.365537643432617188e+00 2.472153091430664062e+01 -1.903020776808261871e-03 -6.584040820598602295e-04 -7.684274460189044476e-04 2.770914230495691299e-03
1.724000000000000000e+03 3.619948148727416992e+00 2.898809623718261719e+01 -6.363781867548823357e-04 -6.767920684069395065e-03 -2.221289556473493576e-03 6.178189534693956375e-03
1.725000000000000000e+03 4.099258422851562500e+00 3.715520477294921875e+01 2.039721235632896423e-03 -2.074692957103252411e-02 -5.612162873148918152e-03 6.285635754466056824e-03
1.726000000000000000e+03 4.916152477264404297e+00 2.599187088012695312e+01 -3.247898537665605545e-03 -4.709738772362470627e-03 -2.387291286140680313e-03 5.679983645677566528e-03
1.727000000000000000e+03 3.543539762496948242e+00 2.753864288330078125e+01 -1.726104761473834515e-03 -4.283507354557514191e-03 -1.802883576601743698e-03 5.053927656263113022e-03
1.728000000000000000e+03 3.417909860610961914e+00 -2.868311500549316406e+01 3.784302249550819397e-02 -6.323441863059997559e-01 -1.783503443002700806e-01 -9.372977167367935181e-02
1.729000000000000000e+03 3.234061241149902344e+00 -2.605130004882812500e+01 5.987756326794624329e-02 -5.707700252532958984e-01 -1.532677412033081055e-01 -1.577655375003814697e-01
1.730000000000000000e+03 3.759226560592651367e+00 -3.000015258789062500e+01 4.065687954425811768e-02 -6.332370638847351074e-01 -1.777740567922592163e-01 -7.550520449876785278e-02
1.731000000000000000e+03 3.278989315032958984e+00 2.194473648071289062e+01 -1.528931315988302231e-03 1.329846680164337158e-03 -5.972540748189203441e-05 6.232003797776997089e-04
1.732000000000000000e+03 3.090401411056518555e+00 -5.391647338867187500e+00 3.207589732483029366e-03 6.886427104473114014e-02 2.162155881524085999e-02 1.033591926097869873e-01
1.733000000000000000e+03 2.896123647689819336e+00 -1.043027591705322266e+01 -5.476327240467071533e-02 1.288583129644393921e-01 2.222851291298866272e-02 2.473386190831661224e-02
1.734000000000000000e+03 2.844410419464111328e+00 -9.146600723266601562e+00 -3.437636792659759521e-02 1.273426115512847900e-01 2.788987196981906891e-02 5.837116390466690063e-02
1.735000000000000000e+03 3.142834663391113281e+00 -1.310757923126220703e+01 -8.550486713647842407e-02 7.954451441764831543e-02 -1.788104302249848843e-03 -8.094535022974014282e-02
1.736000000000000000e+03 2.999429941177368164e+00 -1.173578071594238281e+01 -6.433302164077758789e-02 1.125907227396965027e-01 1.447731070220470428e-02 -2.416640147566795349e-02
1.737000000000000000e+03 3.000868320465087891e+00 -2.057424545288085938e+01 2.694121096283197403e-03 -2.969087362289428711e-01 -8.826438337564468384e-02 -2.716301679611206055e-01
1.738000000000000000e+03 3.229677200317382812e+00 -1.922145843505859375e+01 -9.463018737733364105e-03 -2.130861431360244751e-01 -6.676474958658218384e-02 -2.783382534980773926e-01
1.739000000000000000e+03 3.340981721878051758e+00 -2.309573173522949219e+01 4.514835402369499207e-02 -4.372528791427612305e-01 -1.176313608884811401e-01 -2.464532554149627686e-01
1.740000000000000000e+03 2.971470355987548828e+00 -2.176712226867675781e+01 3.099653869867324829e-02 -3.721452057361602783e-01 -1.023446023464202881e-01 -2.493334710597991943e-01
1.741000000000000000e+03 4.654346466064453125e+00 -2.836798858642578125e+01 6.631370633840560913e-02 -5.383509993553161621e-01 -1.416111886501312256e-01 -1.250646859407424927e-01
1.742000000000000000e+03 4.340104579925537109e+00 -3.138181686401367188e+01 4.388380795717239380e-02 -5.929630398750305176e-01 -1.647237837314605713e-01 -5.876458808779716492e-02
1.743000000000000000e+03 3.267671108245849609e+00 1.632731056213378906e+01 -3.562802739907056093e-04 1.592944143339991570e-03 3.709991869982331991e-04 -1.267491257749497890e-03
1.744000000000000000e+03 3.319144487380981445e+00 1.773552322387695312e+01 -2.251687328680418432e-05 1.689450116828083992e-03 5.000799428671598434e-04 -1.248757122084498405e-03
1.745000000000000000e+03 3.085134983062744141e+00 1.354214859008789062e+01 -4.412595080793835223e-05 1.281783450394868851e-03 3.712972393259406090e-04 -1.247084932401776314e-03
1.746000000000000000e+03 3.167697668075561523e+00 1.492400932312011719e+01 2.916759403888136148e-04 1.499772537499666214e-03 5.374345346353948116e-04 -1.407067989930510521e-03
1.747000000000000000e+03 2.904530763626098633e+00 6.843064308166503906e+00 3.117280430160462856e-04 3.413646772969514132e-04 1.959278160938993096e-04 -4.462964716367423534e-04
1.748000000000000000e+03 2.960791826248168945e+00 8.154370307922363281e+00 3.038085924345068634e-05 4.768181242980062962e-04 1.521596859674900770e-04 -6.407377077266573906e-04
1.749000000000000000e+03 3.430467128753662109e+00 -2.460021400451660156e+01 6.284336745738983154e-02 -5.010707974433898926e-01 -1.314682364463806152e-01 -2.120158374309539795e-01
1.750000000000000000e+03 3.383413791656494141e+00 -1.617679977416992188e+01 -7.066335529088973999e-02 -5.083665251731872559e-02 -3.645000234246253967e-02 -2.259309589862823486e-01
1.751000000000000000e+03 3.334397792816162109e+00 -1.459594631195068359e+01 -9.054393321275711060e-02 2.112261019647121429e-02 -2.082639560103416443e-02 -1.614099591970443726e-01
1.752000000000000000e+03 2.846996068954467773e+00 -7.879468441009521484e+00 -2.608482353389263153e-02 1.167524978518486023e-01 2.720030210912227631e-02 8.307565003633499146e-02
1.753000000000000000e+03 2.971982240676879883e+00 5.551036834716796875e+00 3.768758688238449395e-05 2.844899718184024096e-04 9.665326797403395176e-05 -3.840767312794923782e-04
1.754000000000000000e+03 3.015992879867553711e+00 1.082457160949707031e+01 3.277495125075802207e-05 8.556884713470935822e-04 2.665390202309936285e-04 -9.631142020225524902e-04
1.755000000000000000e+03 3.283622741699218750e+00 2.054788017272949219e+01 -5.701868794858455658e-04 1.535428222268819809e-03 2.895724028348922729e-04 -1.845637889346107841e-04
1.756000000000000000e+03 3.306321859359741211e+00 1.914202499389648438e+01 -9.473060490563511848e-04 1.862522913143038750e-03 2.745650708675384521e-04 -7.233025389723479748e-04
1.757000000000000000e+03 3.034910440444946289e+00 1.217976188659667969e+01 4.238871042616665363e-04 1.077076187357306480e-03 4.502889933064579964e-04 -1.120423199608922005e-03
1.758000000000000000e+03 3.008332252502441406e+00 9.479997634887695312e+00 4.068858688697218895e-04 6.495031411759555340e-04 3.169167030137032270e-04 -7.762054447084665298e-04
1.759000000000000000e+03 1.673916244506835938e+01 6.224581241607666016e+00 6.509932572953402996e-04 4.474520101211965084e-04 3.295335918664932251e-04 5.499158287420868874e-04
1.760000000000000000e+03 2.845435333251953125e+01 -1.225999546051025391e+01 4.133960604667663574e-01 7.890691608190536499e-02 1.476908922195434570e-01 -5.232415199279785156e-01
1.761000000000000000e+03 4.128063201904296875e+01 -4.240045070648193359e+00 -1.468317747116088867e+00 -1.253635436296463013e-01 -4.781043827533721924e-01 -3.636256754398345947e-01
1.762000000000000000e+03 4.257965850830078125e+01 -3.718739509582519531e+00 -1.357752084732055664e+00 1.787365972995758057e-01 -3.537046313285827637e-01 -3.758535385131835938e-01
1.763000000000000000e+03 7.096955871582031250e+01 -2.082499313354492188e+01 1.355909824371337891e+00 8.476299285888671875e+00 2.949662685394287109e+00 4.359664320945739746e-01
1.764000000000000000e+03 3.422376632690429688e+01 1.981949043273925781e+01 -2.656797468662261963e-01 -5.583616346120834351e-02 -9.645477682352066040e-02 1.193920895457267761e-01
1.765000000000000000e+03 3.305385208129882812e+01 2.280248069763183594e+01 -1.970164179801940918e-01 -6.275925785303115845e-02 -7.793270796537399292e-02 1.111807003617286682e-01
1.766000000000000000e+03 7.013516235351562500e+01 1.195795822143554688e+01 4.957541823387145996e-01 9.391043663024902344e+00 2.966039180755615234e+00 5.782853960990905762e-01
1.767000000000000000e+03 6.931473541259765625e+01 1.328931140899658203e+01 9.618303179740905762e-01 1.044365787506103516e+01 3.421646356582641602e+00 1.739712357521057129e+00
1.768000000000000000e+03 8.338991165161132812e+00 -1.628049278259277344e+01 -2.961873114109039307e-01 -2.873238027095794678e-01 -1.750533282756805420e-01 -4.045466482639312744e-01
1.769000000000000000e+03 1.050874137878417969e+01 -1.738265609741210938e+01 -2.308008223772048950e-01 -5.846656560897827148e-01 -2.446399480104446411e-01 -4.364622831344604492e-01
1.770000000000000000e+03 4.592588806152343750e+01 9.763453483581542969e+00 -6.257235072553157806e-04 -9.741141460835933685e-03 -3.110059304162859917e-03 1.757777412422001362e-03
1.771000000000000000e+03 6.589591979980468750e+01 -2.787514686584472656e+01 -9.108500927686691284e-02 3.622220277786254883e+00 1.059340596199035645e+00 1.194184422492980957e+00
1.772000000000000000e+03 6.923153686523437500e+01 9.004329681396484375e+00 -4.099103435873985291e-02 7.754969596862792969e+00 2.314193487167358398e+00 4.591339230537414551e-01
1.773000000000000000e+03 4.389805984497070312e+01 -1.944743347167968750e+01 3.293584287166595459e-01 1.700450301170349121e+00 6.089426279067993164e-01 -9.747019410133361816e-02
1.774000000000000000e+03 4.318153381347656250e+01 -2.220543861389160156e+01 3.425175845623016357e-01 1.256020188331604004e+00 4.795613288879394531e-01 -5.269862338900566101e-02
1.775000000000000000e+03 6.567868804931640625e+01 -9.961344718933105469e+00 -9.775185585021972656e-01 2.246941089630126953e+00 3.808267712593078613e-01 -7.856551408767700195e-01
1.776000000000000000e+03 6.099921417236328125e+01 2.399752044677734375e+01 -1.637883663177490234e+00 -1.684853136539459229e-01 -5.419107079505920410e-01 -1.328909248113632202e-01
1.777000000000000000e+03 4.341503524780273438e+01 -1.781350517272949219e+01 4.109235703945159912e-01 1.391678571701049805e+00 5.407806634902954102e-01 3.397740051150321960e-02
1.778000000000000000e+03 1.561900329589843750e+01 1.573313808441162109e+01 1.050856662914156914e-03 -1.882880344055593014e-03 -2.496071101631969213e-04 2.650358714163303375e-03
1.779000000000000000e+03 1.591317272186279297e+01 1.480293750762939453e+01 1.386923016980290413e-03 -3.923939948435872793e-04 2.983587037306278944e-04 2.790691098198294640e-03
1.780000000000000000e+03 4.964407348632812500e+01 2.352144622802734375e+01 -7.398475408554077148e-01 1.289206892251968384e-01 -1.832780539989471436e-01 1.762171387672424316e-01
1.781000000000000000e+03 4.904620742797851562e+01 2.038804435729980469e+01 -5.671026706695556641e-01 1.055446788668632507e-01 -1.384674012660980225e-01 -3.600963577628135681e-02
1.782000000000000000e+03 1.887279891967773438e+01 4.732580661773681641e+00 -2.866894647013396025e-04 1.582957775099202991e-04 -3.851811197819188237e-05 3.325551224406808615e-04
1.783000000000000000e+03 1.930577850341796875e+01 2.093807697296142578e+00 1.466207468183711171e-04 6.009068965795449913e-05 6.201343057909980416e-05 -4.086939497938146815e-06
1.784000000000000000e+03 2.521994972229003906e+01 -5.496563911437988281e+00 -8.518790006637573242e-01 2.492206394672393799e-01 -1.807975172996520996e-01 -7.973349839448928833e-02
1.785000000000000000e+03 3.771192932128906250e+01 -2.453626441955566406e+01 -2.663477696478366852e-02 -9.386450052261352539e-02 -3.614978492259979248e-02 1.150812357664108276e-01
1.786000000000000000e+03 6.933982086181640625e+01 -1.208777618408203125e+01 -1.197163820266723633e+00 6.815908432006835938e+00 1.685623407363891602e+00 7.155862986110150814e-04
1.787000000000000000e+03 2.591353607177734375e+01 2.526259994506835938e+01 -1.084113344550132751e-01 -7.055041939020156860e-02 -5.368852615356445312e-02 1.033108755946159363e-01
1.788000000000000000e+03 2.451659011840820312e+01 2.520076179504394531e+01 -1.002682298421859741e-01 -5.630110576748847961e-02 -4.697080329060554504e-02 9.852628409862518311e-02
1.789000000000000000e+03 1.589584064483642578e+01 1.366695117950439453e+01 1.498038531281054020e-03 1.465195789933204651e-03 8.889703312888741493e-04 2.426977502182126045e-03
1.790000000000000000e+03 5.630823516845703125e+01 -6.415894031524658203e+00 -5.934594869613647461e-01 -3.433746993541717529e-01 -2.810502648353576660e-01 7.168044447898864746e-01
1.791000000000000000e+03 3.017177772521972656e+01 -7.435529708862304688e+00 -1.367087006568908691e+00 -2.749809920787811279e-01 -4.926204085350036621e-01 -3.896121680736541748e-01
1.792000000000000000e+03 4.557903289794921875e+01 -2.736135482788085938e+01 6.447906047105789185e-02 1.245936274528503418e+00 3.931245803833007812e-01 -1.859003752470016479e-01
1.793000000000000000e+03 6.598886108398437500e+01 -2.601958465576171875e+01 2.665048539638519287e-01 3.654613971710205078e+00 1.176335573196411133e+00 1.459996700286865234e+00
1.794000000000000000e+03 6.870254516601562500e+01 -2.607694625854492188e+01 -1.841396093368530273e-01 6.114638805389404297e+00 1.779149651527404785e+00 8.410701751708984375e-01
1.795000000000000000e+03 5.761323165893554688e+01 -3.344911956787109375e+01 3.905853629112243652e-01 3.119887411594390869e-01 2.107722312211990356e-01 -9.047838300466537476e-02
1.796000000000000000e+03 5.917339324951171875e+01 -3.292772674560546875e+01 3.437395691871643066e-01 5.291170477867126465e-01 2.618569731712341309e-01 1.396535336971282959e-01
1.797000000000000000e+03 6.725429534912109375e+01 7.129402160644531250e+00 -1.248784065246582031e-01 5.671351432800292969e+00 1.663941979408264160e+00 1.090631246566772461e+00
1.798000000000000000e+03 4.677519226074218750e+01 -8.556953430175781250e+00 -1.241367217153310776e-02 1.259090542793273926e+00 3.740030527114868164e-01 3.331618905067443848e-01
1.799000000000000000e+03 4.552193832397460938e+01 -9.001615524291992188e+00 -7.774833589792251587e-03 1.124681711196899414e+00 3.350720405578613281e-01 2.256055772304534912e-01
1.800000000000000000e+03 4.445561218261718750e+01 6.176440715789794922e+00 3.122446127235889435e-03 -3.577681956812739372e-03 -1.365707430522888899e-04 -4.970257577951997519e-05
1.801000000000000000e+03 4.470995712280273438e+01 8.082696914672851562e+00 4.924478009343147278e-03 -6.602860055863857269e-03 -5.035146023146808147e-04 -2.502406248822808266e-03
1.802000000000000000e+03 3.902558898925781250e+01 -6.538558959960937500e+00 -1.200343132019042969e+00 -3.001286089420318604e-01 -4.501415193080902100e-01 -3.233619630336761475e-01
1.803000000000000000e+03 3.490005493164062500e+01 -1.572633457183837891e+01 1.333931803703308105e+00 -2.285623699426651001e-01 3.316108286380767822e-01 -2.405711114406585693e-01
1.804000000000000000e+03 2.144669914245605469e+01 -3.530499649047851562e+01 2.287316471338272095e-01 1.972078979015350342e-01 1.277818679809570312e-01 -1.446986645460128784e-01
1.805000000000000000e+03 5.263498306274414062e+01 2.608037185668945312e+01 -5.793030261993408203e-01 4.264385998249053955e-02 -1.609977483749389648e-01 3.675078153610229492e-01
1.806000000000000000e+03 7.067913818359375000e+01 -1.730667114257812500e+01 1.046405434608459473e+00 8.905161857604980469e+00 2.985470056533813477e+00 8.656655550003051758e-01
1.807000000000000000e+03 7.071149444580078125e+01 -1.846108245849609375e+01 1.529699087142944336e+00 8.590777397155761719e+00 3.036142826080322266e+00 6.716756820678710938e-01
1.808000000000000000e+03 6.420826721191406250e+01 4.535907268524169922e+00 1.945726871490478516e-01 2.351227283477783203e+00 7.637399435043334961e-01 8.478808403015136719e-01
1.809000000000000000e+03 6.936469268798828125e+01 1.076369667053222656e+01 5.246047377586364746e-01 8.798706054687500000e+00 2.796993255615234375e+00 7.332354784011840820e-01
1.810000000000000000e+03 9.885488510131835938e+00 -2.191385841369628906e+01 2.419119328260421753e-01 -2.626537382602691650e-01 -6.222544703632593155e-03 -3.435034155845642090e-01
1.811000000000000000e+03 1.262977313995361328e+01 -2.460517501831054688e+01 3.467304706573486328e-01 2.026584744453430176e-01 1.648166924715042114e-01 -2.669585347175598145e-01
1.812000000000000000e+03 3.547898101806640625e+01 1.900430870056152344e+01 -2.481853067874908447e-01 -3.575745224952697754e-02 -8.518283069133758545e-02 1.120490208268165588e-01
1.813000000000000000e+03 5.335048675537109375e+01 -1.808874726295471191e+00 -5.462357997894287109e-01 -2.746823988854885101e-02 -1.721112132072448730e-01 6.394795775413513184e-01
1.814000000000000000e+03 3.211768341064453125e+01 -1.305232524871826172e+01 6.923223733901977539e-01 9.318671375513076782e-02 2.356527298688888550e-01 -2.527414858341217041e-01
1.815000000000000000e+03 4.314560699462890625e+01 9.303027153015136719e+00 4.738847725093364716e-03 -4.579887725412845612e-03 4.768806320498697460e-05 -6.736177019774913788e-03
1.816000000000000000e+03 1.776524162292480469e+01 5.119629859924316406e+00 5.598731804639101028e-04 1.854908477980643511e-04 2.236092113889753819e-04 1.119012813433073461e-04
1.817000000000000000e+03 5.822089385986328125e+01 -1.189490318298339844e+00 1.490148603916168213e-01 2.159042358398437500e-01 1.094757318496704102e-01 3.234480321407318115e-01
1.818000000000000000e+03 2.918387985229492188e+01 -7.977769851684570312e+00 -1.124529838562011719e+00 -1.742588430643081665e-01 -3.896366059780120850e-01 -4.594039618968963623e-01
1.819000000000000000e+03 4.850408554077148438e+01 -3.118654060363769531e+01 3.028164990246295929e-02 7.916327118873596191e-01 2.465743124485015869e-01 -3.523898422718048096e-01
1.820000000000000000e+03 4.999356079101562500e+01 -3.258713912963867188e+01 6.600191444158554077e-02 6.047104597091674805e-01 2.012137025594711304e-01 -4.103605449199676514e-01
1.821000000000000000e+03 5.157247924804687500e+01 -6.434019088745117188e+00 -3.648639619350433350e-01 5.119969248771667480e-01 4.413989558815956116e-02 9.630228877067565918e-01
1.822000000000000000e+03 5.232196426391601562e+01 -5.476509094238281250e+00 -5.003945827484130859e-01 1.348881572484970093e-01 -1.096519231796264648e-01 9.646664261817932129e-01
1.823000000000000000e+03 2.464947319030761719e+01 2.354034042358398438e+01 -1.484088450670242310e-01 -4.585229605436325073e-02 -5.827834457159042358e-02 7.909075915813446045e-02
1.824000000000000000e+03 2.172921943664550781e+01 2.574299812316894531e+01 -7.024568319320678711e-02 -3.631223365664482117e-02 -3.196737542748451233e-02 7.675463706254959106e-02
1.825000000000000000e+03 2.098978614807128906e+01 2.762832832336425781e+01 -3.943381831049919128e-02 -4.627274721860885620e-02 -2.571197040379047394e-02 7.951277494430541992e-02
1.826000000000000000e+03 7.093352508544921875e+01 -1.509846878051757812e+01 4.304795563220977783e-01 8.096985816955566406e+00 2.558239698410034180e+00 8.196722865104675293e-01
1.827000000000000000e+03 4.656950759887695312e+01 1.252802562713623047e+01 -3.301178291440010071e-02 -1.408899016678333282e-02 -1.413023192435503006e-02 -1.302582584321498871e-02
1.828000000000000000e+03 2.733558273315429688e+01 2.530238914489746094e+01 -1.040206253528594971e-01 -7.960656285285949707e-02 -5.508815497159957886e-02 1.131340637803077698e-01
1.829000000000000000e+03 1.568193912506103516e+01 1.934742546081542969e+01 -1.121628377586603165e-02 -3.013515612110495567e-03 -4.268939606845378876e-03 -2.137509640306234360e-03
1.830000000000000000e+03 1.605307197570800781e+01 1.746260833740234375e+01 -9.872918017208576202e-04 -1.610382227227091789e-03 -7.793022086843848228e-04 2.315497957170009613e-03
1.831000000000000000e+03 6.769334411621093750e+01 2.196734809875488281e+01 8.065737485885620117e-01 3.968398571014404297e+00 1.432491660118103027e+00 -3.071546792984008789e+00
1.832000000000000000e+03 6.768364715576171875e+01 2.086870002746582031e+01 1.454500675201416016e+00 1.719658374786376953e+00 9.522477388381958008e-01 -2.012228250503540039e+00
1.833000000000000000e+03 6.844259643554687500e+01 2.131899070739746094e+01 1.458859443664550781e+00 5.914954185485839844e+00 2.212144136428833008e+00 -4.039414882659912109e+00
1.834000000000000000e+03 6.979620361328125000e+01 1.691147041320800781e+01 -1.086896657943725586e+00 1.403673648834228516e+01 3.884952068328857422e+00 2.786326169967651367e+00
1.835000000000000000e+03 6.914684295654296875e+01 2.157597160339355469e+01 4.100280106067657471e-01 1.049721240997314453e+01 3.272172212600708008e+00 -4.350234985351562500e+00
1.836000000000000000e+03 9.156837463378906250e+00 -3.316170215606689453e+00 1.178222894668579102e-01 -5.915164574980735779e-02 1.760119386017322540e-02 5.810750648379325867e-02
1.837000000000000000e+03 1.043020057678222656e+01 -4.131127834320068359e+00 7.563134282827377319e-02 -8.903047442436218262e-02 -4.019738640636205673e-03 3.275381773710250854e-02
1.838000000000000000e+03 6.861918640136718750e+01 1.711246681213378906e+01 6.884508579969406128e-02 8.037551879882812500e+00 2.431919097900390625e+00 3.148609638214111328e+00
1.839000000000000000e+03 1.934412002563476562e+01 3.291367769241333008e+00 1.446541573386639357e-04 1.489606711402302608e-05 4.786506542586721480e-05 1.417736202711239457e-04
1.840000000000000000e+03 6.860067749023437500e+01 2.162976837158203125e+01 1.052818894386291504e+00 7.351932525634765625e+00 2.521425485610961914e+00 -4.280028820037841797e+00
1.841000000000000000e+03 2.166497039794921875e+01 1.406250953674316406e+00 1.011465501505881548e-04 8.364879613509401679e-05 5.543860243051312864e-05 -3.660982838482595980e-05
1.842000000000000000e+03 1.111886501312255859e+01 -4.234044551849365234e+00 6.470490992069244385e-02 -1.018420234322547913e-01 -1.114113349467515945e-02 5.966397933661937714e-03
1.843000000000000000e+03 1.097996330261230469e+01 -4.928633689880371094e+00 2.112710662186145782e-02 -1.214381381869316101e-01 -3.009331040084362030e-02 1.105849817395210266e-02
1.844000000000000000e+03 9.320313453674316406e+00 3.955724239349365234e+00 6.322270492091774940e-04 -1.100323715945705771e-04 1.566583960084244609e-04 -1.454798766644671559e-04
1.845000000000000000e+03 7.137166500091552734e+00 4.137439727783203125e+00 2.982211299240589142e-04 -2.005980059038847685e-04 2.928694266302045435e-05 -2.104023878928273916e-04
1.846000000000000000e+03 1.250565719604492188e+01 -4.474124431610107422e+00 3.431099653244018555e-02 -1.094635501503944397e-01 -2.254576608538627625e-02 -5.221388861536979675e-02
1.847000000000000000e+03 7.772919654846191406e+00 3.332969427108764648e+00 2.974273520521819592e-04 -1.592554617673158646e-04 4.145156708545982838e-05 -1.226573513122275472e-04
1.848000000000000000e+03 6.369307994842529297e+00 4.179075717926025391e+00 5.138081614859402180e-04 -3.166948954458348453e-05 1.446415990358218551e-04 -3.375473606865853071e-04
1.849000000000000000e+03 5.710815429687500000e+00 5.049945354461669922e+00 4.938355414196848869e-04 4.847588934353552759e-05 1.626934244995936751e-04 -5.068278405815362930e-04
1.850000000000000000e+03 5.532122611999511719e+00 4.253985881805419922e+00 1.559647207614034414e-04 -3.016407572431489825e-05 3.774019205593504012e-05 -2.594389952719211578e-04
1.851000000000000000e+03 3.374979496002197266e+00 4.551581382751464844e+00 1.873367727966979146e-04 5.065971708972938359e-05 7.139895024010911584e-05 -1.869323023129254580e-04
1.852000000000000000e+03 1.319675922393798828e+01 -4.594128608703613281e+00 1.523465756326913834e-02 -1.031971648335456848e-01 -2.638875134289264679e-02 -8.457748591899871826e-02
1.853000000000000000e+03 4.197767257690429688e+00 -4.144682884216308594e+00 2.986837550997734070e-02 2.463359385728836060e-02 1.635059155523777008e-02 1.093188524246215820e-01
1.854000000000000000e+03 6.251351356506347656e+00 -3.183777332305908203e+00 8.339111506938934326e-02 -1.538524590432643890e-02 2.040176093578338623e-02 9.778574109077453613e-02
1.855000000000000000e+03 7.608407974243164062e+00 -4.005450725555419922e+00 7.019726186990737915e-02 -4.471532627940177917e-02 7.644580211490392685e-03 9.364856034517288208e-02
1.856000000000000000e+03 8.982254028320312500e+00 -4.800522804260253906e+00 3.202909603714942932e-02 -9.125324338674545288e-02 -1.776724494993686676e-02 7.112643867731094360e-02
1.857000000000000000e+03 8.342225074768066406e+00 -4.033082485198974609e+00 6.965345144271850586e-02 -6.054295971989631653e-02 2.733148401603102684e-03 8.126021921634674072e-02
1.858000000000000000e+03 4.067030906677246094e+00 -6.809299468994140625e+00 -2.405178919434547424e-02 4.833093285560607910e-02 7.283743005245923996e-03 1.069888547062873840e-01
1.859000000000000000e+03 5.535996437072753906e+00 -3.157400608062744141e+00 7.393398880958557129e-02 -3.264757804572582245e-03 2.120076864957809448e-02 9.998990595340728760e-02
1.860000000000000000e+03 6.139734268188476562e+00 -3.864238500595092773e+00 5.980093032121658325e-02 -1.532651577144861221e-02 1.334232464432716370e-02 1.064323633909225464e-01
1.861000000000000000e+03 4.901435852050781250e+00 -3.839592218399047852e+00 4.583738371729850769e-02 7.670789025723934174e-03 1.605245098471641541e-02 1.098562926054000854e-01
1.862000000000000000e+03 6.863070487976074219e+00 -3.952467918395996094e+00 6.104861199855804443e-02 -3.130239248275756836e-02 8.923864923417568207e-03 1.026914119720458984e-01
1.863000000000000000e+03 4.771307754516601562e+01 -2.415669441223144531e+00 -9.953438639640808105e-01 4.832192361354827881e-01 -1.536373943090438843e-01 7.627211511135101318e-02
1.864000000000000000e+03 1.388528156280517578e+01 -4.726365089416503906e+00 -1.253416482359170914e-02 -1.084019392728805542e-01 -3.628083318471908569e-02 -1.248993128538131714e-01
1.865000000000000000e+03 1.295018768310546875e+01 4.500293731689453125e+00 4.798345908056944609e-04 6.785247387597337365e-05 1.643061114009469748e-04 2.956431417260318995e-04
1.866000000000000000e+03 1.225119209289550781e+01 3.692113161087036133e+00 4.639292892534285784e-04 5.605907426797784865e-05 1.559965021442621946e-04 2.204104384873062372e-04
1.867000000000000000e+03 1.534004878997802734e+01 -5.108458995819091797e+00 -9.559607505798339844e-02 -9.141484647989273071e-02 -5.610327795147895813e-02 -2.136706411838531494e-01
1.868000000000000000e+03 1.557781314849853516e+01 -4.383736133575439453e+00 -4.086014255881309509e-02 -4.994409158825874329e-02 -2.724126912653446198e-02 -1.940984725952148438e-01
1.869000000000000000e+03 1.381703281402587891e+01 3.596380949020385742e+00 5.136539111845195293e-04 8.165081089828163385e-05 1.785914209904149175e-04 3.421909932512789965e-04
1.870000000000000000e+03 1.589709186553955078e+01 3.245272159576416016e+00 -1.098767315852455795e-04 1.256466639460995793e-04 4.730979071609908715e-06 5.911221887799911201e-05
1.871000000000000000e+03 1.519843101501464844e+01 2.502821683883666992e+00 3.732993718585930765e-05 -4.223486030241474509e-05 -1.471476480219280347e-06 1.552515896037220955e-04
1.872000000000000000e+03 1.454335021972656250e+01 3.357448101043701172e+00 8.995567623060196638e-05 -7.435367297148332000e-05 4.680600795836653560e-06 2.309764386154711246e-04
1.873000000000000000e+03 4.464984893798828125e+01 -1.918843746185302734e+00 -1.141887426376342773e+00 3.447027802467346191e-01 -2.391554117202758789e-01 -3.856120705604553223e-01
1.874000000000000000e+03 4.521541595458984375e+01 -1.870250105857849121e+00 -1.109992265701293945e+00 4.087663292884826660e-01 -2.103677690029144287e-01 -2.945110797882080078e-01
1.875000000000000000e+03 4.412164688110351562e+01 -1.966858506202697754e+00 -1.136638045310974121e+00 3.016072809696197510e-01 -2.505092322826385498e-01 -4.348372519016265869e-01
1.876000000000000000e+03 7.354086303710937500e+01 1.391910362243652344e+01 9.970153123140335083e-02 9.522750854492187500e+00 2.886735677719116211e+00 -8.174621462821960449e-01
1.877000000000000000e+03 6.989303588867187500e+01 1.651154708862304688e+01 -8.400702476501464844e-01 1.306039619445800781e+01 3.666097879409790039e+00 2.449187517166137695e+00
1.878000000000000000e+03 2.116754150390625000e+01 -5.835225105285644531e+00 -4.543790221214294434e-01 1.329569816589355469e-01 -9.642661362886428833e-02 -3.002376556396484375e-01
1.879000000000000000e+03 1.796140098571777344e+01 -5.554336547851562500e+00 -2.493929415941238403e-01 -1.156375464051961899e-02 -7.828700542449951172e-02 -3.313856720924377441e-01
1.880000000000000000e+03 4.849807739257812500e+01 -2.491937160491943359e+00 -9.796968102455139160e-01 4.240761995315551758e-01 -1.666861772537231445e-01 1.624522656202316284e-01
1.881000000000000000e+03 4.999989700317382812e+01 -2.487692117691040039e+00 -8.184208273887634277e-01 2.368290573358535767e-01 -1.744775176048278809e-01 4.314944148063659668e-01
1.882000000000000000e+03 2.030268669128417969e+01 -5.686462879180908203e+00 -3.890023231506347656e-01 1.077215000987052917e-01 -8.438424021005630493e-02 -3.245013356208801270e-01
1.883000000000000000e+03 1.150747966766357422e+01 3.721439361572265625e+00 4.305886395741254091e-04 -3.508193185552954674e-04 2.393079557805322111e-05 1.943511451827362180e-04
1.884000000000000000e+03 1.076863193511962891e+01 3.778374671936035156e+00 5.285216611810028553e-04 -2.918310019595082849e-05 1.498015626566484571e-04 2.145316102541983128e-05
1.885000000000000000e+03 2.314824104309082031e+01 -5.843913078308105469e+00 -6.339523196220397949e-01 2.174963057041168213e-01 -1.249368116259574890e-01 -2.354416996240615845e-01
1.886000000000000000e+03 7.328381347656250000e+01 1.837760353088378906e+01 2.797790527343750000e+00 1.006752490997314453e+01 3.859594821929931641e+00 -7.315937876701354980e-01
1.887000000000000000e+03 7.232743835449218750e+01 2.151156806945800781e+01 1.454670310020446777e+00 1.155892467498779297e+01 3.904078483581542969e+00 1.685403823852539062e+00
1.888000000000000000e+03 7.346887207031250000e+01 1.902927970886230469e+01 3.142416000366210938e+00 9.651740074157714844e+00 3.838246822357177734e+00 -1.455003023147583008e-01
1.889000000000000000e+03 7.405681610107421875e+01 2.183430671691894531e+01 1.101213574409484863e+00 9.299711227416992188e+00 3.120277643203735352e+00 1.760279059410095215e+00
1.890000000000000000e+03 2.483445549011230469e+01 -4.590036869049072266e+00 -6.809275150299072266e-01 1.845692843198776245e-01 -1.489074826240539551e-01 9.127107914537191391e-04
1.891000000000000000e+03 2.469996643066406250e+01 -6.766892910003662109e+00 -7.536995410919189453e-01 2.471639961004257202e-01 -1.519606709480285645e-01 -2.921184897422790527e-01
1.892000000000000000e+03 1.722107315063476562e+01 3.322453260421752930e+00 3.166816895827651024e-04 1.067091507138684392e-04 1.270172506337985396e-04 -4.758198315357731190e-07
1.893000000000000000e+03 1.518432235717773438e+01 3.178975582122802734e+00 4.222070565447211266e-04 5.372602026909589767e-05 1.427799288649111986e-04 3.218049823772162199e-04
1.894000000000000000e+03 1.641047477722167969e+01 3.681562900543212891e+00 -6.870859215268865228e-05 7.929317507660016418e-05 3.175374558850307949e-06 2.984875172842293978e-04
1.895000000000000000e+03 7.172998809814453125e+01 8.379434585571289062e+00 -3.116215765476226807e-01 8.066467285156250000e+00 2.326453685760498047e+00 -5.263520479202270508e-01
1.896000000000000000e+03 2.387851905822753906e+01 -9.665342330932617188e+00 -3.668800592422485352e-01 2.362545281648635864e-01 -3.918766230344772339e-02 -4.830173552036285400e-01
1.897000000000000000e+03 2.138730621337890625e+01 -1.156440353393554688e+01 -1.688346266746520996e-01 1.526466459035873413e-01 -4.856392741203308105e-03 -2.990186214447021484e-01
1.898000000000000000e+03 6.963485717773437500e+01 1.594611167907714844e+01 -3.043921887874603271e-01 1.194095611572265625e+01 3.490969181060791016e+00 2.697980165481567383e+00
1.899000000000000000e+03 1.906277656555175781e+01 -9.530874252319335938e+00 -4.785270690917968750e-01 7.349823415279388428e-02 -1.215086504817008972e-01 -4.449984431266784668e-01
1.900000000000000000e+03 4.605144882202148438e+01 7.017552375793457031e+00 2.805938478559255600e-03 -2.260691951960325241e-03 1.635739463381469250e-04 1.052695093676447868e-03
1.901000000000000000e+03 7.177523040771484375e+01 -1.741140556335449219e+01 1.099380612373352051e+00 8.141245841979980469e+00 2.772187948226928711e+00 7.357589006423950195e-01
1.902000000000000000e+03 7.196192169189453125e+01 -1.642069053649902344e+01 8.045848011970520020e-01 8.172957420349121094e+00 2.693262577056884766e+00 9.974741339683532715e-01
1.903000000000000000e+03 1.581458091735839844e+01 1.103952980041503906e+01 1.203041989356279373e-03 7.500919164158403873e-04 5.859401426278054714e-04 1.495321863330900669e-03
1.904000000000000000e+03 1.515742111206054688e+01 8.181858062744140625e+00 2.419472148176282644e-04 1.414534926880151033e-04 1.150202151620760560e-04 6.661338848061859608e-04
1.905000000000000000e+03 1.871302223205566406e+01 1.824785470962524414e+00 -1.096471096388995647e-04 8.561935101170092821e-05 -7.208328042906941846e-06 3.182509681209921837e-05
1.906000000000000000e+03 3.938123321533203125e+01 -1.913618278503417969e+01 3.693912327289581299e-01 3.121878802776336670e-01 2.044737339019775391e-01 -1.916327625513076782e-01
1.907000000000000000e+03 3.846989059448242188e+01 -1.894305419921875000e+01 3.848705589771270752e-01 1.320201437920331955e-02 1.194217726588249207e-01 -2.366972863674163818e-01
1.908000000000000000e+03 1.145650482177734375e+01 -1.227773952484130859e+01 -6.118465065956115723e-01 -5.053243637084960938e-01 -3.351512551307678223e-01 -2.374355494976043701e-01
1.909000000000000000e+03 7.571083831787109375e+01 -3.506255340576171875e+01 -8.438906818628311157e-02 7.348365306854248047e+00 2.179192781448364258e+00 -1.812386699020862579e-02
1.910000000000000000e+03 7.475323486328125000e+01 3.712391138076782227e+00 -2.915978729724884033e-01 7.859159469604492188e+00 2.270268440246582031e+00 -6.877509355545043945e-01
1.911000000000000000e+03 4.637491607666015625e+01 1.964165687561035156e+01 -4.039657711982727051e-01 1.103150621056556702e-01 -8.809521049261093140e-02 -2.358619123697280884e-02
1.912000000000000000e+03 1.490464782714843750e+01 1.653055572509765625e+01 8.696256554685533047e-04 -1.607846119441092014e-03 -2.214661217294633389e-04 6.440923898480832577e-04
1.913000000000000000e+03 1.483238887786865234e+01 1.493400955200195312e+01 1.641452661715447903e-03 -8.713764837011694908e-04 2.310228446731343865e-04 1.304604695178568363e-03
1.914000000000000000e+03 1.408133888244628906e+01 -1.143752861022949219e+01 -7.387486100196838379e-01 -5.598577260971069336e-01 -3.895819187164306641e-01 -3.531016707420349121e-01
1.915000000000000000e+03 1.226317596435546875e+01 -9.868399620056152344e+00 -3.771077394485473633e-01 -4.153285622596740723e-01 -2.377308905124664307e-01 -1.443837583065032959e-01
1.916000000000000000e+03 4.336239814758300781e+00 9.579641342163085938e+00 1.734820689307525754e-04 2.147839550161734223e-04 1.164798086392693222e-04 -9.386325837112963200e-04
1.917000000000000000e+03 7.463371276855468750e+01 -2.187954711914062500e+01 5.088210105895996094e-01 7.572647094726562500e+00 2.424440383911132812e+00 -1.920441091060638428e-01
1.918000000000000000e+03 5.707221508026123047e+00 -2.361096763610839844e+01 1.257565021514892578e-01 -4.024195969104766846e-01 -8.299893140792846680e-02 -3.133925199508666992e-01
1.919000000000000000e+03 7.077414703369140625e+01 -2.462366104125976562e+01 -4.064709320664405823e-02 7.468210697174072266e+00 2.228269100189208984e+00 5.294853821396827698e-02
1.920000000000000000e+03 7.249461364746093750e+01 -2.497609329223632812e+01 2.605973370373249054e-02 7.540042877197265625e+00 2.269830703735351562e+00 -2.853263020515441895e-01
1.921000000000000000e+03 3.629031372070312500e+01 -1.285950374603271484e+01 6.304213404655456543e-01 -2.987930476665496826e-01 9.948848187923431396e-02 -1.878814771771430969e-02
1.922000000000000000e+03 7.003877258300781250e+01 -1.365328502655029297e+01 -3.343134224414825439e-01 7.738903999328613281e+00 2.221377134323120117e+00 4.309223890304565430e-01
1.923000000000000000e+03 7.593789672851562500e+01 -1.308070659637451172e+01 -7.678899168968200684e-02 8.139700889587402344e+00 2.418873548507690430e+00 8.645777702331542969e-01
1.924000000000000000e+03 4.329999160766601562e+01 -2.499521732330322266e+00 -1.427168011665344238e+00 2.988433241844177246e-01 -3.384974300861358643e-01 -4.816359281539916992e-01
1.925000000000000000e+03 4.597663879394531250e+01 8.293130874633789062e+00 6.921772845089435577e-03 -5.489798262715339661e-03 4.295922990422695875e-04 3.942525014281272888e-03
1.926000000000000000e+03 4.402141189575195312e+01 1.106974315643310547e+01 -1.593679934740066528e-02 -1.291885506361722946e-02 -8.656696416437625885e-03 -2.917414996773004532e-03
1.927000000000000000e+03 1.698913383483886719e+01 -8.860499382019042969e+00 -4.147394597530364990e-01 -1.433355808258056641e-01 -1.674225032329559326e-01 -4.601081311702728271e-01
1.928000000000000000e+03 6.669806671142578125e+01 2.164222717285156250e+01 3.516355752944946289e-01 1.528257012367248535e+00 5.639677643775939941e-01 -1.523298740386962891e+00
1.929000000000000000e+03 4.618658447265625000e+01 1.120803833007812500e+01 -7.400652859359979630e-03 -1.441419404000043869e-02 -6.544454023241996765e-03 -4.291792574804276228e-04
1.930000000000000000e+03 7.364686584472656250e+01 -1.372793006896972656e+01 -3.389615565538406372e-02 7.967711448669433594e+00 2.380144596099853516e+00 1.024644613265991211e+00
1.931000000000000000e+03 4.447904586791992188e+01 -2.730514717102050781e+01 6.686162203550338745e-02 1.090508580207824707e+00 3.472110629081726074e-01 -1.777385361492633820e-02
1.932000000000000000e+03 3.973340225219726562e+01 -2.705638504028320312e+01 9.337347745895385742e-02 3.994383215904235840e-01 1.478435397148132324e-01 2.032242417335510254e-01
1.933000000000000000e+03 3.912171554565429688e+01 -2.955107688903808594e+01 1.311160922050476074e-01 2.999513447284698486e-01 1.293202340602874756e-01 2.099684327840805054e-01
1.934000000000000000e+03 3.916160964965820312e+01 -2.160144042968750000e+01 1.248833462595939636e-01 2.539064288139343262e-01 1.136369332671165466e-01 -4.918373003602027893e-02
1.935000000000000000e+03 1.454967784881591797e+01 1.380356884002685547e+01 7.843640050850808620e-04 -1.782784820534288883e-03 -2.995262620970606804e-04 2.131180837750434875e-03
1.936000000000000000e+03 1.586858081817626953e+01 1.239723110198974609e+01 1.201961931656114757e-04 6.125288782641291618e-04 2.198175207013264298e-04 1.875666319392621517e-03
1.937000000000000000e+03 7.545877075195312500e+01 1.182215118408203125e+01 -6.513026356697082520e-02 7.953095912933349609e+00 2.366389751434326172e+00 -1.181354641914367676e+00
1.938000000000000000e+03 5.631552696228027344e+00 -2.145903968811035156e+01 6.799744069576263428e-02 -3.460328578948974609e-01 -8.341062068939208984e-02 -3.770213425159454346e-01
1.939000000000000000e+03 3.909991025924682617e+00 -2.121061897277832031e+01 2.876411750912666321e-02 -3.368367850780487061e-01 -9.242180734872817993e-02 -3.128468096256256104e-01
1.940000000000000000e+03 4.657025814056396484e+00 1.916662788391113281e+01 -8.946512825787067413e-04 -1.953847386175766587e-04 -3.270108136348426342e-04 -6.533068371936678886e-04
1.941000000000000000e+03 4.333576679229736328e+00 5.002802848815917969e+00 1.109183285734616220e-04 2.276447630720213056e-04 1.015689267660491168e-04 -4.810250829905271530e-04
1.942000000000000000e+03 7.453275299072265625e+01 1.784429740905761719e+01 1.829862475395202637e+00 8.759057998657226562e+00 3.176676273345947266e+00 -6.788560748100280762e-01
1.943000000000000000e+03 7.564075469970703125e+01 1.763076210021972656e+01 1.208827257156372070e+00 7.643842697143554688e+00 2.655801057815551758e+00 -5.847368836402893066e-01
1.944000000000000000e+03 7.806739330291748047e+00 -1.808072853088378906e+01 -1.279203891754150391e-01 -2.990802824497222900e-01 -1.281002014875411987e-01 -4.401320517063140869e-01
1.945000000000000000e+03 5.455635833740234375e+01 2.606332969665527344e+01 -6.086629033088684082e-01 5.352040287107229233e-03 -1.809932589530944824e-01 3.453561067581176758e-01
1.946000000000000000e+03 9.735093116760253906e+00 -1.387482166290283203e+01 -5.164511799812316895e-01 -4.095433950424194336e-01 -2.777983546257019043e-01 -2.716647982597351074e-01
1.947000000000000000e+03 8.790459632873535156e+00 -1.459621906280517578e+01 -4.252460896968841553e-01 -3.030403256416320801e-01 -2.184859216213226318e-01 -3.034056425094604492e-01
1.948000000000000000e+03 8.521752357482910156e+00 -2.147940063476562500e+01 1.579748839139938354e-01 -3.131695985794067383e-01 -4.655840992927551270e-02 -4.176192879676818848e-01
1.949000000000000000e+03 6.977430725097656250e+01 -1.090967845916748047e+01 -1.216007113456726074e+00 6.614251613616943359e+00 1.619473338127136230e+00 -3.163370490074157715e-02
1.950000000000000000e+03 7.387432861328125000e+01 3.079304885864257812e+01 -6.022829413414001465e-01 7.375272274017333984e+00 2.031896829605102539e+00 1.164086088538169861e-01
1.951000000000000000e+03 7.661383819580078125e+01 2.891575431823730469e+01 -3.793605864048004150e-01 7.827788352966308594e+00 2.234528303146362305e+00 6.582089662551879883e-01
1.952000000000000000e+03 4.406112670898437500e+01 -1.533208370208740234e+01 4.934648573398590088e-01 1.487634301185607910e+00 5.943297743797302246e-01 3.011262416839599609e-01
1.953000000000000000e+03 1.569949817657470703e+01 6.233117580413818359e+00 -1.506456464994698763e-04 5.209183291299268603e-05 -2.956614298454951495e-05 2.702087804209440947e-04
1.954000000000000000e+03 6.334794235229492188e+01 -9.366020202636718750e+00 -1.131878137588500977e+00 6.895745396614074707e-01 -1.326910704374313354e-01 2.539575472474098206e-02
1.955000000000000000e+03 3.237621307373046875e+01 -8.487458229064941406e+00 -8.644725084304809570e-01 -3.307893276214599609e-01 -3.585785627365112305e-01 -2.816275358200073242e-01
1.956000000000000000e+03 4.095304489135742188e+01 -2.517416381835937500e+01 1.330865025520324707e-01 6.447701454162597656e-01 2.333569973707199097e-01 1.316138505935668945e-01
1.957000000000000000e+03 2.609911918640136719e+01 -1.217672061920166016e+01 2.565038800239562988e-01 1.412449628114700317e-01 1.193246543407440186e-01 -4.907797873020172119e-01
1.958000000000000000e+03 2.731262016296386719e+01 -1.108026409149169922e+01 -4.456954449415206909e-02 1.395395696163177490e-01 2.849100530147552490e-02 -5.693151950836181641e-01
1.959000000000000000e+03 7.458727264404296875e+01 7.477297782897949219e+00 -2.887081205844879150e-01 7.953121662139892578e+00 2.299324035644531250e+00 -9.672724604606628418e-01
1.960000000000000000e+03 4.132417678833007812e+01 1.496768856048583984e+01 -1.398774236440658569e-01 2.782110311090946198e-02 -3.361689299345016479e-02 2.636235579848289490e-02
1.961000000000000000e+03 4.443891143798828125e+01 1.370778656005859375e+01 -8.314912766218185425e-02 5.945371929556131363e-03 -2.316112630069255829e-02 -8.699484169483184814e-03
1.962000000000000000e+03 5.489198684692382812e+00 -1.245000076293945312e+01 -2.045272141695022583e-01 -4.971063509583473206e-02 -7.627135515213012695e-02 -9.108956158161163330e-02
1.963000000000000000e+03 3.802852630615234375e+01 -7.741405010223388672e+00 -9.055532813072204590e-01 -3.052904009819030762e-01 -3.632530868053436279e-01 -2.194226384162902832e-01
1.964000000000000000e+03 4.197084426879882812e+01 -2.368191909790039062e+01 2.348329275846481323e-01 9.118266105651855469e-01 3.439978659152984619e-01 5.349493771791458130e-02
1.965000000000000000e+03 4.251441001892089844e+00 1.222673606872558594e+01 1.663844886934384704e-04 2.969072957057505846e-04 1.389875396853312850e-04 -1.304407021962106228e-03
1.966000000000000000e+03 6.962223815917968750e+01 -2.099056053161621094e+01 1.725420117378234863e+00 8.843034744262695312e+00 3.170536279678344727e+00 3.181349933147430420e-01
1.967000000000000000e+03 7.507474517822265625e+01 -3.020714569091796875e+01 -1.805558949708938599e-01 7.327040195465087891e+00 2.143945217132568359e+00 -1.661851853132247925e-01
1.968000000000000000e+03 7.414060211181640625e+01 -7.600933074951171875e+00 -5.499146580696105957e-01 7.798659801483154297e+00 2.174623489379882812e+00 2.340488135814666748e-01
1.969000000000000000e+03 7.480137634277343750e+01 -1.581688594818115234e+01 3.570446372032165527e-01 7.832215785980224609e+00 2.456778049468994141e+00 9.025189876556396484e-01
1.970000000000000000e+03 7.571385955810546875e+01 1.425166964530944824e+00 -1.981159895658493042e-01 8.120086669921875000e+00 2.376591205596923828e+00 -5.042117834091186523e-01
1.971000000000000000e+03 7.488574981689453125e+01 1.010185909271240234e+01 -1.636001318693161011e-01 8.082632064819335938e+00 2.375709533691406250e+00 -1.105903506278991699e+00
1.972000000000000000e+03 7.389590454101562500e+01 1.022229957580566406e+01 -1.907514482736587524e-01 8.302754402160644531e+00 2.433600902557373047e+00 -1.013965129852294922e+00
1.973000000000000000e+03 7.503817749023437500e+01 1.831743240356445312e+01 1.735236406326293945e+00 8.132583618164062500e+00 2.960345983505249023e+00 -3.720066845417022705e-01
1.974000000000000000e+03 7.705204010009765625e+01 1.968445396423339844e+01 7.324583530426025391e-01 6.173386096954345703e+00 2.071753263473510742e+00 3.984115123748779297e-01
1.975000000000000000e+03 7.566444396972656250e+01 2.511160850524902344e+01 -3.899100422859191895e-01 8.014040946960449219e+00 2.287239313125610352e+00 1.417126536369323730e+00
1.976000000000000000e+03 7.461165618896484375e+01 2.325059127807617188e+01 5.827012658119201660e-02 8.849167823791503906e+00 2.672231197357177734e+00 1.670843720436096191e+00
1.977000000000000000e+03 4.789575195312500000e+01 -7.941479206085205078e+00 -1.695968657732009888e-01 1.326968073844909668e+00 3.472113609313964844e-01 4.015384614467620850e-01
1.978000000000000000e+03 5.800024795532226562e+01 -6.355723381042480469e+00 -5.405524373054504395e-01 -1.375543028116226196e-01 -2.034320235252380371e-01 5.909268856048583984e-01
1.979000000000000000e+03 5.732560729980468750e+01 -7.109541893005371094e+00 -8.096163868904113770e-01 -3.128016591072082520e-01 -3.367254137992858887e-01 6.328948736190795898e-01
1.980000000000000000e+03 4.351062774658203125e+01 1.233780097961425781e+01 -4.742486402392387390e-02 -1.291005173698067665e-03 -1.461476087570190430e-02 1.271387096494436264e-03
1.981000000000000000e+03 3.592877864837646484e+00 3.354177856445312500e+01 5.538530240301042795e-05 -1.445632148534059525e-02 -4.320281092077493668e-03 6.761375349014997482e-03
1.982000000000000000e+03 3.382530450820922852e+00 3.500981140136718750e+01 1.005943864583969116e-03 -1.618918031454086304e-02 -4.554970655590295792e-03 6.009741686284542084e-03
1.983000000000000000e+03 5.814352798461914062e+01 2.818756675720214844e+01 -8.158385753631591797e-02 2.468330413103103638e-01 4.957475885748863220e-02 8.775447495281696320e-03
1.984000000000000000e+03 3.795686721801757812e+01 -6.559234142303466797e+00 -1.260031580924987793e+00 -3.620731234550476074e-01 -4.866314232349395752e-01 -3.678461015224456787e-01
1.985000000000000000e+03 3.905481719970703125e+01 -7.737230777740478516e+00 -7.009670734405517578e-01 -2.499260753393173218e-01 -2.852679491043090820e-01 -1.755191087722778320e-01
1.986000000000000000e+03 3.136973571777343750e+01 -8.419308662414550781e+00 -9.985626935958862305e-01 -3.182462453842163086e-01 -3.950426876544952393e-01 -3.656121492385864258e-01
1.987000000000000000e+03 3.541976165771484375e+01 -1.434879016876220703e+01 9.683251976966857910e-01 -2.541590332984924316e-01 2.142498493194580078e-01 -9.518916904926300049e-02
1.988000000000000000e+03 7.085722351074218750e+01 -1.964211273193359375e+01 1.467529296875000000e+00 8.694967269897460938e+00 3.048748970031738281e+00 3.016184270381927490e-01
1.989000000000000000e+03 6.354396438598632812e+01 2.108023881912231445e+00 1.898344010114669800e-01 1.995165467262268066e+00 6.554999947547912598e-01 5.397855639457702637e-01
1.990000000000000000e+03 5.130250549316406250e+01 -4.818659782409667969e+00 -5.601150393486022949e-01 3.985770046710968018e-01 -4.846141114830970764e-02 8.310382962226867676e-01
1.991000000000000000e+03 4.977636718750000000e+01 -6.477160930633544922e+00 -4.150123000144958496e-01 9.096928834915161133e-01 1.484041661024093628e-01 6.756041049957275391e-01
1.992000000000000000e+03 5.724776840209960938e+01 -1.569884061813354492e+00 5.790404975414276123e-02 9.108581393957138062e-02 4.469696059823036194e-02 3.954732716083526611e-01
1.993000000000000000e+03 4.677361297607421875e+01 1.717332458496093750e+01 -2.595178782939910889e-01 3.341107070446014404e-02 -6.783204525709152222e-02 -9.023982286453247070e-02
1.994000000000000000e+03 4.772453689575195312e+01 1.635465812683105469e+01 -1.594272702932357788e-01 -2.643944136798381805e-02 -5.576001480221748352e-02 -9.802121669054031372e-02
1.995000000000000000e+03 5.520949935913085938e+01 -5.676095962524414062e+00 -4.301314055919647217e-01 -3.380031883716583252e-01 -2.304403781890869141e-01 8.113294839859008789e-01
1.996000000000000000e+03 5.298709487915039062e+01 -4.383890628814697266e+00 -4.435392916202545166e-01 -3.849582374095916748e-02 -1.446105390787124634e-01 9.047083854675292969e-01
1.997000000000000000e+03 6.516970825195312500e+01 -2.899589347839355469e+01 -1.477155387401580811e-01 3.088603019714355469e+00 8.822662830352783203e-01 1.022033572196960449e+00
1.998000000000000000e+03 9.402298927307128906e+00 -2.349713134765625000e+01 2.762585282325744629e-01 -2.148429304361343384e-01 1.842468231916427612e-02 -3.043468594551086426e-01
1.999000000000000000e+03 9.393177986145019531e+00 -2.507081794738769531e+01 2.762112915515899658e-01 -2.104419469833374023e-01 1.973080635070800781e-02 -2.484572827816009521e-01
2.000000000000000000e+03 1.171251678466796875e+01 -2.515596389770507812e+01 3.415124714374542236e-01 2.995257824659347534e-02 1.114395186305046082e-01 -2.511999309062957764e-01
2.001000000000000000e+03 4.237086486816406250e+01 -4.614249706268310547e+00 -1.340372323989868164e+00 2.354502528905868530e-01 -3.314766287803649902e-01 -2.765599787235260010e-01
2.002000000000000000e+03 5.147715377807617188e+01 -1.829786896705627441e+00 -7.335751056671142578e-01 -3.364311764016747475e-03 -2.210818231105804443e-01 5.539187788963317871e-01
2.003000000000000000e+03 5.409602355957031250e+01 -4.933147907257080078e+00 -3.801007270812988281e-01 -1.948989331722259521e-01 -1.724998950958251953e-01 8.917483091354370117e-01
2.004000000000000000e+03 6.563597869873046875e+01 -3.141348648071289062e+01 -1.262197643518447876e-01 3.408561944961547852e+00 9.847026467323303223e-01 8.550140261650085449e-01
2.005000000000000000e+03 6.524151611328125000e+01 2.675621795654296875e+01 -2.240451127290725708e-01 2.632557392120361328e+00 7.225537300109863281e-01 -1.558885455131530762e+00
2.006000000000000000e+03 1.664192390441894531e+01 2.171187973022460938e+01 -3.127715364098548889e-02 2.357908291742205620e-03 -8.675773628056049347e-03 8.129685185849666595e-03
2.007000000000000000e+03 3.822294998168945312e+01 -3.302701187133789062e+01 2.319794595241546631e-01 2.355682253837585449e-01 1.402643024921417236e-01 1.053928360342979431e-01
2.008000000000000000e+03 7.209082794189453125e+01 -1.536316871643066406e+01 3.931798636913299561e-01 8.093914031982421875e+00 2.546128273010253906e+00 9.473453164100646973e-01
2.009000000000000000e+03 5.991735839843750000e+01 2.775086784362792969e+01 -6.930173933506011963e-02 4.450476765632629395e-01 1.127237826585769653e-01 -2.008085399866104126e-01
2.010000000000000000e+03 3.282285308837890625e+01 -1.136486530303955078e+01 1.318501383066177368e-01 -1.057535633444786072e-01 7.828970439732074738e-03 -2.176104187965393066e-01
2.011000000000000000e+03 3.456692886352539062e+01 -1.189373397827148438e+01 3.368105888366699219e-01 -2.440659701824188232e-01 2.782338671386241913e-02 -5.452843382954597473e-02
2.012000000000000000e+03 2.717813491821289062e+01 -6.904100418090820312e+00 -1.070641636848449707e+00 1.303302794694900513e-01 -2.820934057235717773e-01 -2.880143523216247559e-01
2.013000000000000000e+03 2.773622894287109375e+01 -7.694138526916503906e+00 -1.042732000350952148e+00 1.202162951231002808e-01 -2.767547070980072021e-01 -4.436477422714233398e-01
2.014000000000000000e+03 3.403232574462890625e+01 2.177804946899414062e+01 -2.244773507118225098e-01 -5.168554186820983887e-02 -8.284886926412582397e-02 1.075649932026863098e-01
2.015000000000000000e+03 1.439880657196044922e+01 1.991390609741210938e+01 -1.253481954336166382e-02 -1.530917128548026085e-03 -4.219721071422100067e-03 8.496842929162085056e-04
2.016000000000000000e+03 6.934970855712890625e+01 -9.159634590148925781e+00 -1.166842579841613770e+00 5.791224002838134766e+00 1.387314319610595703e+00 -3.159015476703643799e-01
2.017000000000000000e+03 3.763178253173828125e+01 -1.659765243530273438e+01 7.801468968391418457e-01 -2.113982290029525757e-01 1.706246137619018555e-01 -2.851035594940185547e-01
2.018000000000000000e+03 3.860887527465820312e+01 -1.788751220703125000e+01 5.296651124954223633e-01 4.249669238924980164e-02 1.716485470533370972e-01 -2.627425193786621094e-01
2.019000000000000000e+03 4.784363174438476562e+01 -2.957074928283691406e+01 5.450699850916862488e-02 9.240742921829223633e-01 2.935743927955627441e-01 -3.228985369205474854e-01
2.020000000000000000e+03 4.942545890808105469e+00 3.544951248168945312e+01 1.610182109288871288e-03 -2.018960192799568176e-02 -5.573825910687446594e-03 8.079096674919128418e-03
2.021000000000000000e+03 3.944011306762695312e+01 2.013305473327636719e+01 -2.668177187442779541e-01 6.270142644643783569e-02 -6.123489141464233398e-02 8.239511400461196899e-02
2.022000000000000000e+03 3.487260818481445312e+01 -3.222906112670898438e+01 2.773616015911102295e-01 -3.902783617377281189e-03 8.203764259815216064e-02 6.183509156107902527e-02
2.023000000000000000e+03 1.558689308166503906e+01 -3.280578994750976562e+01 2.015008032321929932e-01 1.629457771778106689e-01 1.093339696526527405e-01 -1.254581063985824585e-01
2.024000000000000000e+03 2.316720008850097656e+01 2.550539016723632812e+01 -8.269339799880981445e-02 -4.979453608393669128e-02 -3.974638134241104126e-02 8.944314718246459961e-02
2.025000000000000000e+03 1.572411537170410156e+01 3.885576725006103516e+00 5.154312239028513432e-04 6.714335904689505696e-05 1.747723727021366358e-04 3.874950343742966652e-04
2.026000000000000000e+03 1.196842956542968750e+01 -2.854922676086425781e+01 2.726266980171203613e-01 3.157505765557289124e-03 8.273526281118392944e-02 -1.675947010517120361e-01
2.027000000000000000e+03 2.352631759643554688e+01 -3.664288711547851562e+01 2.193479239940643311e-01 1.698877811431884766e-01 1.167707145214080811e-01 -1.205918565392494202e-01
2.028000000000000000e+03 2.480815696716308594e+01 -3.507535552978515625e+01 2.861786484718322754e-01 1.362718492746353149e-01 1.267351508140563965e-01 -1.446734219789505005e-01
2.029000000000000000e+03 3.970783472061157227e+00 -7.941310882568359375e+00 -3.948173299431800842e-02 5.530925095081329346e-02 4.748254548758268356e-03 9.151756018400192261e-02
2.030000000000000000e+03 6.353104114532470703e+00 -6.321967601776123047e+00 -2.551827020943164825e-02 -4.061743989586830139e-02 -1.984071359038352966e-02 1.090183481574058533e-01
2.031000000000000000e+03 4.018767833709716797e+00 6.995774269104003906e+00 6.572663551196455956e-05 1.900283386930823326e-04 7.672649371670559049e-05 -5.367859266698360443e-04
2.032000000000000000e+03 2.684762001037597656e+01 -8.337911605834960938e+00 -7.285397648811340332e-01 1.630494296550750732e-01 -1.696470975875854492e-01 -4.818533957004547119e-01
2.033000000000000000e+03 2.640837287902832031e+01 -7.569684982299804688e+00 -9.028938412666320801e-01 2.389100044965744019e-01 -1.991951465606689453e-01 -4.497188925743103027e-01
2.034000000000000000e+03 7.014017486572265625e+01 9.663799285888671875e+00 1.361824013292789459e-02 8.323062896728515625e+00 2.501004457473754883e+00 1.029695197939872742e-01
2.035000000000000000e+03 6.088695526123046875e+01 -5.155442357063293457e-01 2.743543684482574463e-01 8.272199630737304688e-01 3.304722905158996582e-01 3.253728449344635010e-01
2.036000000000000000e+03 6.148233795166015625e+01 -8.118839263916015625e+00 -7.192155718803405762e-01 3.694113790988922119e-01 -1.049412637948989868e-01 3.558244109153747559e-01
2.037000000000000000e+03 3.598549270629882812e+01 -6.899132251739501953e+00 -1.463654279708862305e+00 -3.266499340534210205e-01 -5.370912551879882812e-01 -3.536084890365600586e-01
2.038000000000000000e+03 6.818601989746093750e+01 -2.830702209472656250e+01 -3.323495686054229736e-01 5.341717243194580078e+00 1.502810239791870117e+00 7.935480475425720215e-01
2.039000000000000000e+03 5.514325141906738281e+00 -3.527020645141601562e+01 1.858075894415378571e-02 -5.268304944038391113e-01 -1.524749100208282471e-01 -1.587996445596218109e-02
2.040000000000000000e+03 5.682065963745117188e+00 -1.627879714965820312e+01 -1.770528703927993774e-01 -1.613841503858566284e-01 -1.015311032533645630e-01 -3.274347186088562012e-01
2.041000000000000000e+03 7.343280792236328125e+01 2.710481834411621094e+01 -1.027414798736572266e+00 8.330550193786621094e+00 2.190940856933593750e+00 5.224252343177795410e-01
2.042000000000000000e+03 7.578398895263671875e+01 2.642742347717285156e+01 -5.072514414787292480e-01 7.947837829589843750e+00 2.232175827026367188e+00 1.165772676467895508e+00
2.043000000000000000e+03 7.480432891845703125e+01 -2.724986076354980469e+01 -1.556235849857330322e-01 7.433687686920166016e+00 2.183419227600097656e+00 -3.388651609420776367e-01
2.044000000000000000e+03 3.828776550292968750e+01 -2.217191123962402344e+01 3.450533375144004822e-02 1.202321262098848820e-03 1.071229577064514160e-02 1.311660395003855228e-03
2.045000000000000000e+03 3.923732376098632812e+01 -2.330601692199707031e+01 7.159723341464996338e-02 3.014410734176635742e-01 1.119114980101585388e-01 6.537010520696640015e-02
2.046000000000000000e+03 4.292079544067382812e+01 -2.105681610107421875e+01 3.732007443904876709e-01 1.240820169448852539e+00 4.842062890529632568e-01 -1.279321759939193726e-01
2.047000000000000000e+03 6.604582214355468750e+01 4.455042839050292969e+00 -1.079615801572799683e-01 3.931133270263671875e+00 1.146951556205749512e+00 8.054093122482299805e-01
2.048000000000000000e+03 6.710529327392578125e+01 5.242559432983398438e+00 -2.665859162807464600e-01 4.991727828979492188e+00 1.417542695999145508e+00 7.792938351631164551e-01
2.049000000000000000e+03 6.761286926269531250e+01 2.129618835449218750e+01 1.167646288871765137e+00 2.702309846878051758e+00 1.160986900329589844e+00 -2.571266174316406250e+00
2.050000000000000000e+03 6.724851989746093750e+01 2.075301551818847656e+01 1.144910097122192383e+00 8.582608103752136230e-01 6.009512543678283691e-01 -1.120347857475280762e+00
2.051000000000000000e+03 6.821584320068359375e+01 2.180677604675292969e+01 1.016349196434020996e+00 5.549304008483886719e+00 1.969695925712585449e+00 -3.730176925659179688e+00
2.052000000000000000e+03 6.886949157714843750e+01 2.200986480712890625e+01 2.080560326576232910e-01 8.669782638549804688e+00 2.663351535797119141e+00 -3.801696538925170898e+00
2.053000000000000000e+03 6.926528930664062500e+01 2.248461723327636719e+01 -6.334501504898071289e-01 9.571502685546875000e+00 2.681415796279907227e+00 -3.029418706893920898e+00
2.054000000000000000e+03 1.031611251831054688e+01 -4.821384906768798828e+00 2.917817607522010803e-02 -1.127495020627975464e-01 -2.507139928638935089e-02 3.126720711588859558e-02
2.055000000000000000e+03 9.053194046020507812e+00 -4.046924114227294922e+00 7.861115783452987671e-02 -7.094199210405349731e-02 2.300750464200973511e-03 6.912940740585327148e-02
2.056000000000000000e+03 6.632552337646484375e+01 2.420135498046875000e+01 -3.481345176696777344e-01 3.022699594497680664e+00 8.023695349693298340e-01 -2.119083642959594727e+00
2.057000000000000000e+03 6.995995330810546875e+01 1.536594581604003906e+01 -1.290714740753173828e-01 1.173653793334960938e+01 3.482239961624145508e+00 1.989090681076049805e+00
2.058000000000000000e+03 7.430970764160156250e+01 1.877611923217773438e+01 2.298438310623168945e+00 8.833689689636230469e+00 3.339638471603393555e+00 -2.022119462490081787e-01
2.059000000000000000e+03 9.444784164428710938e+00 4.716440677642822266e+00 3.723348490893840790e-04 -3.767890448216348886e-04 -1.336262243967212271e-06 8.255661668954417109e-05
2.060000000000000000e+03 8.001525878906250000e+00 4.898492813110351562e+00 3.284791891928762197e-04 -3.009123029187321663e-04 8.270067155535798520e-06 -1.723377208691090345e-04
2.061000000000000000e+03 5.429156780242919922e+00 5.998678684234619141e+00 4.266604373697191477e-04 1.634934596950188279e-04 1.770461676642298698e-04 -7.206576410681009293e-04
2.062000000000000000e+03 7.875855445861816406e+00 4.095066547393798828e+00 6.241070223040878773e-04 -1.180451508844271302e-04 1.518185745226219296e-04 -2.177730057155713439e-04
2.063000000000000000e+03 7.252361774444580078e+00 4.931372642517089844e+00 6.320380489341914654e-04 -1.382852933602407575e-04 1.481258223066106439e-04 -2.817095664795488119e-04
2.064000000000000000e+03 8.733476638793945312e+00 4.825595855712890625e+00 7.450762204825878143e-04 -2.205376804340630770e-04 1.573615591041743755e-04 -2.006601280299946666e-04
2.065000000000000000e+03 4.829639434814453125e+00 6.086218833923339844e+00 1.039829730871133506e-04 6.050910451449453831e-05 4.934762546326965094e-05 -4.061789659317582846e-04
2.066000000000000000e+03 4.653383255004882812e+00 4.190686702728271484e+00 3.768338938243687153e-04 -3.455859541645622812e-06 1.120134111260995269e-04 -2.755270106717944145e-04
2.067000000000000000e+03 1.219764137268066406e+01 4.452559947967529297e+00 4.281385627109557390e-04 -3.853462694678455591e-04 1.283768779103411362e-05 2.748984261415898800e-04
2.068000000000000000e+03 7.504298210144042969e+00 -4.791872978210449219e+00 2.732227742671966553e-02 -5.560146644711494446e-02 -8.483756333589553833e-03 9.918379038572311401e-02
2.069000000000000000e+03 5.937711715698242188e+00 -4.554344177246093750e+00 3.199908882379531860e-02 -1.477848924696445465e-02 5.166179966181516647e-03 1.142241433262825012e-01
2.070000000000000000e+03 6.535752296447753906e+00 -5.492415428161621094e+00 -2.126065781340003014e-03 -3.780192881822586060e-02 -1.197839807718992233e-02 1.111372187733650208e-01
2.071000000000000000e+03 5.265182495117187500e+00 -4.297976493835449219e+00 3.731092810630798340e-02 3.044475161004811525e-04 1.128461305052042007e-02 1.130338981747627258e-01
2.072000000000000000e+03 4.744231224060058594e+00 -4.869810581207275391e+00 1.814085990190505981e-02 1.630350574851036072e-02 1.033330988138914108e-02 1.169165447354316711e-01
2.073000000000000000e+03 2.298864173889160156e+01 -6.795827865600585938e+00 -5.871863365173339844e-01 2.345821112394332886e-01 -1.057812646031379700e-01 -3.300446569919586182e-01
2.074000000000000000e+03 1.671464920043945312e+01 5.314780235290527344e+00 -4.257668042555451393e-04 2.291883720317855477e-04 -5.897352821193635464e-05 2.041102998191490769e-04
2.075000000000000000e+03 1.499010944366455078e+01 3.806339979171752930e+00 1.583027187734842300e-05 1.463451280869776383e-05 9.139434951066505164e-06 8.423296822002157569e-05
2.076000000000000000e+03 8.265808105468750000e+00 -4.819960594177246094e+00 3.483242541551589966e-02 -7.081107050180435181e-02 -1.079359371215105057e-02 8.877680450677871704e-02
2.077000000000000000e+03 1.304434490203857422e+01 -5.323880195617675781e+00 -4.119990393519401550e-02 -1.457498818635940552e-01 -5.608493462204933167e-02 -9.728787094354629517e-02
2.078000000000000000e+03 5.034559249877929688e+01 -4.259434223175048828e+00 -7.147982120513916016e-01 4.717386364936828613e-01 -7.291787117719650269e-02 6.152316927909851074e-01
2.079000000000000000e+03 7.292517089843750000e+01 2.264957618713378906e+01 1.190301850438117981e-01 1.038181877136230469e+01 3.150254487991333008e+00 1.494713425636291504e+00
2.080000000000000000e+03 7.310349273681640625e+01 2.167142105102539062e+01 1.219228267669677734e+00 1.049981975555419922e+01 3.515714406967163086e+00 1.799681425094604492e+00
2.081000000000000000e+03 7.305170440673828125e+01 2.076858711242675781e+01 2.832303047180175781e+00 1.046295166015625000e+01 3.988576650619506836e+00 1.703779458999633789e+00
2.082000000000000000e+03 1.615961837768554688e+01 -5.325993537902832031e+00 -1.343646794557571411e-01 -7.519761472940444946e-02 -6.286868453025817871e-02 -2.596955001354217529e-01
2.083000000000000000e+03 2.106668472290039062e+01 -6.720741271972656250e+00 -4.522866010665893555e-01 1.504243165254592896e-01 -9.055868536233901978e-02 -3.670592606067657471e-01
2.084000000000000000e+03 6.909485626220703125e+01 1.688896560668945312e+01 -5.755844116210937500e-01 1.062869644165039062e+01 3.015933513641357422e+00 3.231632947921752930e+00
2.085000000000000000e+03 1.004096984863281250e+01 3.864492893218994141e+00 4.107645363546907902e-04 -3.386345342732965946e-04 2.163899989682249725e-05 1.236320240423083305e-04
2.086000000000000000e+03 7.390567779541015625e+01 1.636424446105957031e+01 9.463589191436767578e-01 9.738797187805175781e+00 3.205546855926513672e+00 -1.199443101882934570e+00
2.087000000000000000e+03 7.126743316650390625e+01 1.722678947448730469e+01 4.224038422107696533e-01 1.407600307464599609e+01 4.349522113800048828e+00 -5.067015290260314941e-01
2.088000000000000000e+03 7.272912597656250000e+01 1.615565299987792969e+01 5.219103097915649414e-01 1.113049793243408203e+01 3.495722293853759766e+00 -8.713638782501220703e-01
2.089000000000000000e+03 1.434446430206298828e+01 -5.560017585754394531e+00 -9.128065407276153564e-02 -1.485148221254348755e-01 -7.193864136934280396e-02 -1.790310144424438477e-01
2.090000000000000000e+03 1.572791576385498047e+01 -8.533134460449218750e+00 -3.270803093910217285e-01 -2.734072208404541016e-01 -1.801462620496749878e-01 -3.687539398670196533e-01
2.091000000000000000e+03 1.707403755187988281e+01 -5.535885334014892578e+00 -2.038707584142684937e-01 -4.343681409955024719e-02 -7.419227063655853271e-02 -3.105327188968658447e-01
2.092000000000000000e+03 2.587049865722656250e+01 -6.983762264251708984e+00 -9.451087713241577148e-01 2.483167797327041626e-01 -2.090376019477844238e-01 -2.852915525436401367e-01
2.093000000000000000e+03 7.098371124267578125e+01 2.309138298034667969e+01 -1.084037303924560547e+00 1.145530319213867188e+01 3.111379623413085938e+00 -3.510921001434326172e-01
2.094000000000000000e+03 5.360546588897705078e+00 -6.089025497436523438e+00 -1.727789640426635742e-02 -4.978426266461610794e-03 -6.676896940916776657e-03 1.169775277376174927e-01
2.095000000000000000e+03 4.595287322998046875e+01 -2.350080251693725586e+00 -1.090695977210998535e+00 4.920659363269805908e-01 -1.795890033245086670e-01 -1.653625071048736572e-01
2.096000000000000000e+03 4.753785705566406250e+01 -3.310194015502929688e+00 -9.765286445617675781e-01 6.016612648963928223e-01 -1.124602109193801880e-01 1.068139150738716125e-01
2.097000000000000000e+03 7.008043670654296875e+01 1.616018295288085938e+01 -6.049720048904418945e-01 1.291906261444091797e+01 3.694227218627929688e+00 1.990914344787597656e+00
2.098000000000000000e+03 4.578346252441406250e+01 -1.836397647857666016e+00 -1.075044989585876465e+00 4.005894064903259277e-01 -2.023366540670394897e-01 -2.201478630304336548e-01
2.099000000000000000e+03 4.536687850952148438e+01 -2.464372873306274414e+00 -1.134208440780639648e+00 4.901921153068542480e-01 -1.932048946619033813e-01 -2.283855229616165161e-01
2.100000000000000000e+03 5.133083724975585938e+01 -2.585551738739013672e+00 -6.632981896400451660e-01 8.806930482387542725e-02 -1.725686639547348022e-01 6.074032187461853027e-01
2.101000000000000000e+03 4.478607177734375000e+01 -2.559491395950317383e+00 -1.208201646804809570e+00 4.810498654842376709e-01 -2.181455194950103760e-01 -2.980175018310546875e-01
2.102000000000000000e+03 4.613878250122070312e+01 -2.907501459121704102e+00 -1.088745951652526855e+00 5.341936945915222168e-01 -1.663656681776046753e-01 -1.314341723918914795e-01
2.103000000000000000e+03 7.339988708496093750e+00 5.788751602172851562e+00 4.020456690341234207e-04 -3.799807163886725903e-04 6.619486157433129847e-06 -3.146262315567582846e-04
2.104000000000000000e+03 1.081564140319824219e+01 4.462296485900878906e+00 5.008077714592218399e-04 -4.629845789168030024e-04 1.134696594817796722e-05 2.262488997075706720e-04
2.105000000000000000e+03 1.681767082214355469e+01 -6.353611946105957031e+00 -2.438690960407257080e-01 -7.801932096481323242e-02 -9.656652808189392090e-02 -3.408076167106628418e-01
2.106000000000000000e+03 2.401036643981933594e+01 -7.544240474700927734e+00 -6.477045416831970215e-01 2.571131289005279541e-01 -1.171774268150329590e-01 -3.747565448284149170e-01
2.107000000000000000e+03 1.013731670379638672e+01 4.582468986511230469e+00 6.369603797793388367e-04 -1.235404051840305328e-04 1.540259836474433541e-04 -1.135865459218621254e-04
2.108000000000000000e+03 1.953041267395019531e+01 -5.613606929779052734e+00 -3.352604210376739502e-01 5.997494235634803772e-02 -8.258564025163650513e-02 -3.264922499656677246e-01
2.109000000000000000e+03 1.975481224060058594e+01 -6.263098716735839844e+00 -3.724060654640197754e-01 8.144071698188781738e-02 -8.728960156440734863e-02 -3.602819144725799561e-01
2.110000000000000000e+03 4.245323944091796875e+01 -6.863522529602050781e+00 -8.086177110671997070e-01 3.208118677139282227e-01 -1.463417559862136841e-01 -6.959076225757598877e-02
2.111000000000000000e+03 4.364107513427734375e+01 -6.845028877258300781e+00 -6.985907554626464844e-01 6.003258228302001953e-01 -2.947948127985000610e-02 -1.746146194636821747e-02
2.112000000000000000e+03 7.264685821533203125e+01 2.379442024230957031e+01 -7.614049315452575684e-01 1.013738155364990234e+01 2.812793016433715820e+00 1.060194611549377441e+00
2.113000000000000000e+03 4.927832794189453125e+01 -3.207667827606201172e+00 -8.666998744010925293e-01 4.700650572776794434e-01 -1.189904436469078064e-01 3.658226132392883301e-01
2.114000000000000000e+03 1.897451210021972656e+01 -6.791151046752929688e+00 -3.803198635578155518e-01 5.211158469319343567e-02 -9.846248477697372437e-02 -3.976819515228271484e-01
2.115000000000000000e+03 2.536524772644042969e+01 -6.485769271850585938e+00 -8.439942598342895508e-01 2.538745701313018799e-01 -1.770359128713607788e-01 -3.034475445747375488e-01
2.116000000000000000e+03 8.202658653259277344e+00 -1.367058944702148438e+01 -3.998202085494995117e-01 -2.412979304790496826e-01 -1.923354417085647583e-01 -2.156368643045425415e-01
2.117000000000000000e+03 7.780319213867187500e+00 -1.524184894561767578e+01 -3.457481265068054199e-01 -2.474924772977828979e-01 -1.779721826314926147e-01 -3.256949782371520996e-01
2.118000000000000000e+03 5.244482040405273438e+01 -3.159591674804687500e+00 -4.994332194328308105e-01 -3.190160915255546570e-02 -1.594004482030868530e-01 7.691992521286010742e-01
2.119000000000000000e+03 5.865218734741210938e+01 -2.085130453109741211e+00 1.123710572719573975e-01 2.619399726390838623e-01 1.122933030128479004e-01 3.658818900585174561e-01
2.120000000000000000e+03 7.199231719970703125e+01 -9.261875152587890625e+00 -8.689352273941040039e-01 7.222934246063232422e+00 1.906199693679809570e+00 2.295754700899124146e-01
2.121000000000000000e+03 7.042476654052734375e+01 -1.249394893646240234e+01 -8.962261080741882324e-01 7.383360385894775391e+00 1.946140289306640625e+00 4.741249084472656250e-01
2.122000000000000000e+03 2.204171562194824219e+01 -6.733238220214843750e+00 -5.491176247596740723e-01 1.968592107295989990e-01 -1.056775227189064026e-01 -3.392390310764312744e-01
2.123000000000000000e+03 7.083131408691406250e+01 1.354886817932128906e+01 3.982424437999725342e-01 1.033649921417236328e+01 3.220422506332397461e+00 8.168072104454040527e-01
2.124000000000000000e+03 7.035616302490234375e+01 -9.759583473205566406e+00 -1.123291373252868652e+00 6.613545894622802734e+00 1.647076249122619629e+00 -4.358310252428054810e-02
2.125000000000000000e+03 1.845154380798339844e+01 3.881591558456420898e+00 2.365237451158463955e-04 1.566191349411383271e-04 1.179428654722869396e-04 -1.149951131083071232e-04
2.126000000000000000e+03 1.613089752197265625e+01 -9.455328941345214844e+00 -4.941491484642028809e-01 -3.278538286685943604e-01 -2.466008812189102173e-01 -4.183173775672912598e-01
2.127000000000000000e+03 1.436176681518554688e+01 -9.209027290344238281e+00 -3.964927196502685547e-01 -4.035858809947967529e-01 -2.400235831737518311e-01 -2.801461219787597656e-01
2.128000000000000000e+03 5.698976135253906250e+01 -2.950572967529296875e+00 -8.703156560659408569e-02 2.344094216823577881e-02 -1.907718740403652191e-02 5.219438076019287109e-01
2.129000000000000000e+03 2.825373077392578125e+01 -8.631058692932128906e+00 -7.640755176544189453e-01 3.273145854473114014e-02 -2.194032222032546997e-01 -5.315794348716735840e-01
2.130000000000000000e+03 1.824127578735351562e+01 2.438528537750244141e+00 3.081747272517532110e-04 -2.814958315866533667e-05 8.400753722526133060e-05 8.987927867565304041e-05
2.131000000000000000e+03 6.654200744628906250e+01 3.473683118820190430e+00 -1.768020242452621460e-01 4.209380149841308594e+00 1.209773540496826172e+00 6.402390599250793457e-01
2.132000000000000000e+03 5.485696792602539062e+01 -3.797543525695800781e+00 -2.860473394393920898e-01 -1.489505767822265625e-01 -1.304993778467178345e-01 7.640010714530944824e-01
2.133000000000000000e+03 5.593379592895507812e+01 -4.614521980285644531e+00 -2.686278522014617920e-01 -2.019489705562591553e-01 -1.411730498075485229e-01 7.068813443183898926e-01
2.134000000000000000e+03 7.228387451171875000e+01 -1.431040668487548828e+01 8.106036484241485596e-02 7.944308757781982422e+00 2.407610654830932617e+00 9.967680573463439941e-01
2.135000000000000000e+03 7.153251647949218750e+01 -1.288594150543212891e+01 -5.050392746925354004e-01 7.778337478637695312e+00 2.181989431381225586e+00 7.797503471374511719e-01
2.136000000000000000e+03 6.559353637695312500e+01 2.263569068908691406e+01 -7.047529220581054688e-01 1.006840229034423828e+00 9.062618762254714966e-02 -1.133387088775634766e+00
2.137000000000000000e+03 6.329780197143554688e+01 3.663965940475463867e+00 2.436365783214569092e-01 1.750379800796508789e+00 5.982049107551574707e-01 6.557306051254272461e-01
2.138000000000000000e+03 6.506575012207031250e+01 2.378714561462402344e+00 2.966862171888351440e-02 3.040399789810180664e+00 9.210205078125000000e-01 5.700175762176513672e-01
2.139000000000000000e+03 1.411196327209472656e+01 7.827178955078125000e+00 5.498954560607671738e-04 -1.501788356108590961e-04 1.199149774038232863e-04 8.112615323625504971e-04
2.140000000000000000e+03 4.108454513549804688e+01 -1.714786148071289062e+01 5.862895846366882324e-01 5.989568829536437988e-01 3.555739223957061768e-01 -8.301936835050582886e-02
2.141000000000000000e+03 4.295909118652343750e+01 -1.888767242431640625e+01 3.889335691928863525e-01 1.328069448471069336e+00 5.151008963584899902e-01 -4.933090880513191223e-02
2.142000000000000000e+03 4.036156845092773438e+01 -1.947400474548339844e+01 3.956858217716217041e-01 4.959382116794586182e-01 2.674871981143951416e-01 -1.363892853260040283e-01
2.143000000000000000e+03 4.098567962646484375e+01 -2.079989242553710938e+01 3.174691200256347656e-01 7.295379638671875000e-01 3.141021430492401123e-01 -8.930376172065734863e-02
2.144000000000000000e+03 7.220789432525634766e+00 -1.693443107604980469e+01 -2.089045941829681396e-01 -2.562790811061859131e-01 -1.395550966262817383e-01 -4.133028984069824219e-01
2.145000000000000000e+03 4.419248199462890625e+01 -2.510887384414672852e+00 -1.286708831787109375e+00 3.904319405555725098e-01 -2.688830494880676270e-01 -3.916170597076416016e-01
2.146000000000000000e+03 4.508666992187500000e+01 1.172000503540039062e+01 -2.485175617039203644e-02 -9.199471212923526764e-03 -1.021536812186241150e-02 -3.382397582754492760e-03
2.147000000000000000e+03 6.365982818603515625e+01 -8.289960861206054688e+00 -6.572595238685607910e-01 1.159547448158264160e+00 1.506863981485366821e-01 -7.474341243505477905e-02
2.148000000000000000e+03 1.453973960876464844e+01 6.949305534362792969e+00 3.688131109811365604e-04 -1.229621848324313760e-04 7.375527638942003250e-05 5.702819325961172581e-04
2.149000000000000000e+03 1.574345970153808594e+01 5.388689517974853516e+00 6.045173504389822483e-04 2.773035375867038965e-04 2.645462518557906151e-04 6.176004535518586636e-04
2.150000000000000000e+03 7.095739746093750000e+01 1.162216091156005859e+01 2.548661231994628906e-01 9.205719947814941406e+00 2.838175773620605469e+00 2.015030384063720703e-01
2.151000000000000000e+03 7.055108642578125000e+01 1.476800155639648438e+01 -1.299567986279726028e-02 1.143787956237792969e+01 3.427465200424194336e+00 1.394715547561645508e+00
2.152000000000000000e+03 1.645705795288085938e+01 -7.027531623840332031e+00 -2.683891654014587402e-01 -1.486596763134002686e-01 -1.251146495342254639e-01 -3.516917228698730469e-01
2.153000000000000000e+03 5.198633575439453125e+01 -3.939670324325561523e+00 -5.803430676460266113e-01 1.362413614988327026e-01 -1.332305222749710083e-01 8.289042115211486816e-01
2.154000000000000000e+03 4.964723205566406250e+01 -5.012515068054199219e+00 -6.519860625267028809e-01 7.078152298927307129e-01 1.674876548349857330e-02 5.890439152717590332e-01
2.155000000000000000e+03 1.842756652832031250e+01 -8.851042747497558594e+00 -4.305624365806579590e-01 2.103271894156932831e-03 -1.285377591848373413e-01 -4.546232223510742188e-01
2.156000000000000000e+03 7.527908325195312500e+01 4.820247650146484375e+00 -2.645929157733917236e-01 7.933316707611083984e+00 2.300616979598999023e+00 -7.911860346794128418e-01
2.157000000000000000e+03 1.301139450073242188e+01 3.664873600006103516e+00 2.912296622525900602e-04 -2.871059696190059185e-04 1.237108904206252191e-06 1.831313420552760363e-04
2.158000000000000000e+03 7.599488830566406250e+01 2.309564399719238281e+01 1.317517161369323730e-01 7.651030063629150391e+00 2.334834575653076172e+00 1.552930116653442383e+00
2.159000000000000000e+03 7.506118774414062500e+01 2.230107116699218750e+01 6.545577645301818848e-01 8.418948173522949219e+00 2.722051858901977539e+00 1.675751686096191406e+00
2.160000000000000000e+03 2.019025421142578125e+01 -7.576506137847900391e+00 -4.342555105686187744e-01 1.253901720046997070e-01 -9.265960007905960083e-02 -4.208845198154449463e-01
2.161000000000000000e+03 7.262860774993896484e+00 -1.984658622741699219e+01 2.403607964515686035e-02 -3.271276354789733887e-01 -9.092746675014495850e-02 -4.478110074996948242e-01
2.162000000000000000e+03 7.315311431884765625e+00 -2.105506515502929688e+01 1.017230600118637085e-01 -3.366148769855499268e-01 -7.046754658222198486e-02 -4.182999432086944580e-01
2.163000000000000000e+03 7.571956634521484375e+01 8.996567726135253906e+00 -1.682178378105163574e-01 7.834080696105957031e+00 2.299758911132812500e+00 -1.093841910362243652e+00
2.164000000000000000e+03 1.661074447631835938e+01 4.469061374664306641e+00 5.149578792043030262e-04 1.617023081053048372e-04 2.029980532824993134e-04 2.248905075248330832e-04
2.165000000000000000e+03 7.516926574707031250e+01 -1.933606147766113281e+01 5.977922081947326660e-01 7.569745540618896484e+00 2.450261354446411133e+00 2.918404042720794678e-01
2.166000000000000000e+03 2.161771011352539062e+01 -1.050846576690673828e+01 -3.555435836315155029e-01 1.890600621700286865e-01 -4.994505271315574646e-02 -3.976745903491973877e-01
2.167000000000000000e+03 2.080293083190917969e+01 -9.367291450500488281e+00 -4.553526043891906738e-01 1.663423478603363037e-01 -8.670307695865631104e-02 -4.276909530162811279e-01
2.168000000000000000e+03 4.770923233032226562e+01 2.000370025634765625e+01 -5.256755352020263672e-01 1.357161551713943481e-01 -1.169878244400024414e-01 -6.995946168899536133e-02
2.169000000000000000e+03 4.532536697387695312e+01 1.613001441955566406e+01 -1.926484704017639160e-01 2.223963290452957153e-02 -5.112265422940254211e-02 -5.071782320737838745e-02
2.170000000000000000e+03 7.356169128417968750e+01 -2.109840202331542969e+01 8.638539314270019531e-01 7.659296989440917969e+00 2.556945323944091797e+00 5.087761580944061279e-02
2.171000000000000000e+03 7.580642700195312500e+01 -1.184895420074462891e+01 -1.970801651477813721e-01 8.239398002624511719e+00 2.412695407867431641e+00 7.991802096366882324e-01
2.172000000000000000e+03 1.145252132415771484e+01 -1.059473037719726562e+01 -4.297847747802734375e-01 -4.113619923591613770e-01 -2.523440122604370117e-01 -1.365378350019454956e-01
2.173000000000000000e+03 4.889455032348632812e+01 -7.225316524505615234e+00 -3.282130062580108643e-01 1.217350721359252930e+00 2.667413055896759033e-01 6.143456697463989258e-01
2.174000000000000000e+03 7.555468750000000000e+01 1.555964565277099609e+01 4.695716202259063721e-01 7.977472782135009766e+00 2.534113407135009766e+00 -1.152259349822998047e+00
2.175000000000000000e+03 7.449071502685546875e+01 1.338658237457275391e+01 1.894746907055377960e-02 8.756737709045410156e+00 2.632705450057983398e+00 -1.088712692260742188e+00
2.176000000000000000e+03 2.784410858154296875e+01 -1.020986175537109375e+01 -2.614969611167907715e-01 8.011288940906524658e-02 -5.441522225737571716e-02 -5.516737699508666992e-01
2.177000000000000000e+03 2.829338645935058594e+01 -1.111805057525634766e+01 -2.800416201353073120e-02 5.130911618471145630e-02 6.991486065089702606e-03 -5.480076670646667480e-01
2.178000000000000000e+03 9.038938522338867188e+00 -1.299016380310058594e+01 -4.362279176712036133e-01 -2.848533689975738525e-01 -2.163243889808654785e-01 -1.879917830228805542e-01
2.179000000000000000e+03 5.406282043457031250e+01 -2.791515350341796875e+00 -3.758876621723175049e-01 -8.006631582975387573e-02 -1.367861926555633545e-01 7.271111011505126953e-01
2.180000000000000000e+03 4.599534988403320312e+00 2.054964256286621094e+01 -1.950439764186739922e-03 -1.066222612280398607e-04 -6.171186105348169804e-04 1.186657682410441339e-04
2.181000000000000000e+03 7.627413940429687500e+01 1.674638748168945312e+01 6.469073891639709473e-01 7.013012886047363281e+00 2.297976016998291016e+00 -8.280119299888610840e-01
2.182000000000000000e+03 7.471422576904296875e+01 1.594298267364501953e+01 7.206942439079284668e-01 8.893085479736328125e+00 2.884134054183959961e+00 -1.147033095359802246e+00
2.183000000000000000e+03 4.304047393798828125e+01 -1.373927116394042969e+01 5.910165309906005859e-01 8.730177283287048340e-01 4.392102658748626709e-01 2.149977087974548340e-01
2.184000000000000000e+03 6.659578800201416016e+00 -2.233889389038085938e+01 1.289836019277572632e-01 -3.544997274875640869e-01 -6.765483319759368896e-02 -3.784369528293609619e-01
2.185000000000000000e+03 5.207881927490234375e+00 3.209437179565429688e+01 -5.008322186768054962e-04 -1.530482154339551926e-02 -4.741696175187826157e-03 9.832498617470264435e-03
2.186000000000000000e+03 4.867459869384765625e+01 -8.845879554748535156e+00 4.027010202407836914e-01 1.472666621208190918e+00 5.626103281974792480e-01 7.464894056320190430e-01
2.187000000000000000e+03 7.399650573730468750e+01 -1.517998218536376953e+01 3.069079816341400146e-01 7.911032199859619141e+00 2.465382099151611328e+00 1.002263903617858887e+00
2.188000000000000000e+03 1.572147750854492188e+01 4.597524166107177734e+00 -1.538435608381405473e-04 3.837114854832179844e-05 -3.464172550593502820e-05 1.675989478826522827e-04
2.189000000000000000e+03 7.146731567382812500e+01 -2.567666816711425781e+01 -1.775963604450225830e-01 7.364654541015625000e+00 2.156117439270019531e+00 3.182857856154441833e-02
2.190000000000000000e+03 7.310930633544921875e+01 -2.620689392089843750e+01 -1.490529179573059082e-01 7.385200977325439453e+00 2.170844316482543945e+00 -2.279654592275619507e-01
2.191000000000000000e+03 3.612217712402343750e+01 -7.783007621765136719e+00 -1.063998579978942871e+00 -3.599338531494140625e-01 -4.271797239780426025e-01 -2.858015298843383789e-01
2.192000000000000000e+03 3.703826522827148438e+01 -8.913714408874511719e+00 -5.473296642303466797e-01 -3.099196553230285645e-01 -2.571747899055480957e-01 -1.540101319551467896e-01
2.193000000000000000e+03 1.403028583526611328e+01 1.729427337646484375e+01 -2.088356763124465942e-03 -4.021736327558755875e-03 -1.833027927204966545e-03 8.635673439130187035e-04
2.194000000000000000e+03 3.223979187011718750e+01 -9.524079322814941406e+00 -5.633606314659118652e-01 -2.379710078239440918e-01 -2.403994947671890259e-01 -2.753372490406036377e-01
2.195000000000000000e+03 4.013080215454101562e+01 -2.132382392883300781e+01 1.932727992534637451e-01 5.103196501731872559e-01 2.110777497291564941e-01 -6.621301174163818359e-02
2.196000000000000000e+03 4.885947036743164062e+01 -5.708714008331298828e+00 -6.692112684249877930e-01 9.488916397094726562e-01 8.390410244464874268e-02 4.975608587265014648e-01
2.197000000000000000e+03 6.587680053710937500e+01 2.343682098388671875e+01 -3.166977465152740479e-01 1.954640626907348633e+00 4.913828670978546143e-01 -1.706817984580993652e+00
2.198000000000000000e+03 6.445372772216796875e+01 2.573929214477539062e+01 -2.710559368133544922e-01 1.727411866188049316e+00 4.369067847728729248e-01 -1.412156939506530762e+00
2.199000000000000000e+03 7.318967437744140625e+01 -1.555912685394287109e+01 4.137467443943023682e-01 7.943684577941894531e+00 2.507229328155517578e+00 1.018839120864868164e+00
2.200000000000000000e+03 3.174152565002441406e+01 -1.176123523712158203e+01 3.096421658992767334e-01 -5.055660009384155273e-02 7.772567123174667358e-02 -3.187060952186584473e-01
2.201000000000000000e+03 3.332191085815429688e+01 -1.254040813446044922e+01 6.011592149734497070e-01 -9.457981213927268982e-03 1.775103658437728882e-01 -1.308791488409042358e-01
2.202000000000000000e+03 2.615254211425781250e+01 -9.733470916748046875e+00 -3.666351437568664551e-01 1.926777511835098267e-01 -5.218722298741340637e-02 -5.586271882057189941e-01
2.203000000000000000e+03 3.136864280700683594e+01 -9.526688575744628906e+00 -4.786591529846191406e-01 -2.257040292024612427e-01 -2.113089561462402344e-01 -3.433758914470672607e-01
2.204000000000000000e+03 3.956556320190429688e+00 -9.115109443664550781e+00 -6.837040930986404419e-02 6.168619170784950256e-02 -2.005265560001134872e-03 6.445026397705078125e-02
2.205000000000000000e+03 5.052853107452392578e+00 -8.034883499145507812e+00 -6.773756444454193115e-02 7.128035183995962143e-03 -1.818285882472991943e-02 8.845245093107223511e-02
2.206000000000000000e+03 4.323756408691406250e+01 -2.593585395812988281e+01 1.538387984037399292e-01 1.055091500282287598e+00 3.626790940761566162e-01 8.618956059217453003e-02
2.207000000000000000e+03 4.554094314575195312e+01 1.379307460784912109e+01 -8.269953727722167969e-02 -7.689154241234064102e-03 -2.711660787463188171e-02 -2.806603722274303436e-02
2.208000000000000000e+03 7.421598052978515625e+01 6.473968505859375000e+00 -3.331343829631805420e-01 7.868336677551269531e+00 2.260560750961303711e+00 -9.095519781112670898e-01
2.209000000000000000e+03 7.522901916503906250e+01 8.165351867675781250e+00 -2.191186547279357910e-01 7.930910110473632812e+00 2.313537359237670898e+00 -1.033807754516601562e+00
2.210000000000000000e+03 4.223594284057617188e+01 -1.744462203979492188e+01 5.008974671363830566e-01 1.006028532981872559e+00 4.520777761936187744e-01 -8.099022321403026581e-03
2.211000000000000000e+03 4.546755981445312500e+01 1.493511390686035156e+01 -1.226828470826148987e-01 1.365856267511844635e-02 -3.270728513598442078e-02 -3.114948607981204987e-02
2.212000000000000000e+03 4.667382049560546875e+01 1.500351619720458984e+01 -1.201468259096145630e-01 -1.000862009823322296e-02 -3.904663398861885071e-02 -5.388973653316497803e-02
2.213000000000000000e+03 4.310210800170898438e+01 1.595905303955078125e+01 -1.832994818687438965e-01 3.936396539211273193e-02 -4.318065196275711060e-02 -4.906682879664003849e-04
2.214000000000000000e+03 5.926534652709960938e+01 -1.327668547630310059e+00 1.901179254055023193e-01 3.653265535831451416e-01 1.666333377361297607e-01 3.048413991928100586e-01
2.215000000000000000e+03 5.912408351898193359e+00 2.186556434631347656e+01 -3.592781722545623779e-03 -2.213850617408752441e-03 -1.741989748552441597e-03 1.790946116670966148e-03
2.216000000000000000e+03 4.456589126586914062e+01 -2.586305236816406250e+01 2.102163285017013550e-01 1.342513442039489746e+00 4.658189117908477783e-01 -5.455599725246429443e-02
2.217000000000000000e+03 7.463673400878906250e+01 2.668487548828125000e+01 -7.862564921379089355e-01 8.301166534423828125e+00 2.254473209381103516e+00 9.778679609298706055e-01
2.218000000000000000e+03 7.404469299316406250e+01 2.075062370300292969e+01 2.089570760726928711e+00 9.075432777404785156e+00 3.349500894546508789e+00 1.352224111557006836e+00
2.219000000000000000e+03 5.507446765899658203e+00 1.353019332885742188e+01 1.813949929783120751e-04 -5.939559196121990681e-04 -1.237682881765067577e-04 -1.390511752106249332e-03
2.220000000000000000e+03 7.224552154541015625e+01 1.181903266906738281e+01 2.902029827237129211e-02 9.153680801391601562e+00 2.754810333251953125e+00 -3.917016386985778809e-01
2.221000000000000000e+03 7.456356048583984375e+01 -2.385852622985839844e+01 2.501280605792999268e-01 7.561983108520507812e+00 2.343633413314819336e+00 -3.896936774253845215e-01
2.222000000000000000e+03 4.185102081298828125e+01 -2.585493850708007812e+01 1.310102194547653198e-01 8.356488943099975586e-01 2.899977266788482666e-01 1.492222398519515991e-01
2.223000000000000000e+03 6.563864898681640625e+01 -1.707936823368072510e-01 -5.868012458086013794e-02 3.250300645828247070e+00 9.574862122535705566e-01 2.377427667379379272e-01
2.224000000000000000e+03 6.243103027343750000e+01 3.035774528980255127e-01 2.518584728240966797e-01 1.428417325019836426e+00 5.040827393531799316e-01 3.669432103633880615e-01
2.225000000000000000e+03 5.644488525390625000e+01 2.417704772949218750e+01 -1.399694681167602539e+00 -4.831536114215850830e-02 -4.344030022621154785e-01 9.619761258363723755e-02
2.226000000000000000e+03 6.240874290466308594e+00 -1.473440933227539062e+01 -2.554894983768463135e-01 -1.343935579061508179e-01 -1.169649213552474976e-01 -2.469930648803710938e-01
2.227000000000000000e+03 5.790460109710693359e+00 -1.363394927978515625e+01 -2.286236435174942017e-01 -8.611024171113967896e-02 -9.442016482353210449e-02 -1.732368320226669312e-01
2.228000000000000000e+03 4.678847122192382812e+01 1.865574073791503906e+01 -4.112364351749420166e-01 1.115214601159095764e-01 -8.991449326276779175e-02 -7.456018030643463135e-02
2.229000000000000000e+03 4.720146179199218750e+01 -2.844564819335937500e+01 9.987951815128326416e-02 1.125609993934631348e+00 3.676468729972839355e-01 -3.173990845680236816e-01
2.230000000000000000e+03 1.519965362548828125e+01 2.207748985290527344e+01 -2.619288302958011627e-02 -2.038074657320976257e-03 -8.469287306070327759e-03 6.816843990236520767e-03
2.231000000000000000e+03 1.351528644561767578e+01 2.140129280090332031e+01 -1.671351864933967590e-02 -2.726571867242455482e-03 -5.832027178257703781e-03 4.049929324537515640e-03
2.232000000000000000e+03 4.150455093383789062e+01 1.648117256164550781e+01 -1.986563056707382202e-01 4.731569066643714905e-02 -4.540218412876129150e-02 2.544148825109004974e-02
2.233000000000000000e+03 4.085938644409179688e+01 1.750978660583496094e+01 -2.381383627653121948e-01 6.364137679338455200e-02 -5.234909430146217346e-02 4.112455993890762329e-02
2.234000000000000000e+03 7.333663940429687500e+01 -2.085995912551879883e+00 -3.700252175331115723e-01 7.234050273895263672e+00 2.059207439422607422e+00 -3.046749234199523926e-01
2.235000000000000000e+03 6.806484222412109375e+01 4.312019824981689453e+00 -3.881639540195465088e-01 5.402299880981445312e+00 1.504240870475769043e+00 3.788068294525146484e-01
2.236000000000000000e+03 4.282110977172851562e+01 -1.503212451934814453e+01 6.062024235725402832e-01 9.673853516578674316e-01 4.720763266086578369e-01 1.646805405616760254e-01
2.237000000000000000e+03 4.255440902709960938e+01 -1.626480102539062500e+01 5.629711151123046875e-01 9.861593246459960938e-01 4.647391438484191895e-01 7.798658311367034912e-02
2.238000000000000000e+03 7.351986694335937500e+01 2.408812332153320312e+01 -6.237732768058776855e-01 9.490373611450195312e+00 2.659980297088623047e+00 1.257163524627685547e+00
2.239000000000000000e+03 5.585070419311523438e+01 3.012587547302246094e+01 1.663156300783157349e-01 2.191829234361648560e-01 1.156495660543441772e-01 1.985262930393218994e-01
2.240000000000000000e+03 1.118502330780029297e+01 -3.086374473571777344e+01 1.860042959451675415e-01 -7.496203482151031494e-02 3.331267833709716797e-02 -1.020420640707015991e-01
2.241000000000000000e+03 1.393561172485351562e+01 -3.144570541381835938e+01 2.308184653520584106e-01 9.528742730617523193e-02 9.783176332712173462e-02 -1.280160993337631226e-01
2.242000000000000000e+03 4.020204162597656250e+01 1.871130561828613281e+01 -2.565422952175140381e-01 6.596031785011291504e-02 -5.717458948493003845e-02 6.372516602277755737e-02
2.243000000000000000e+03 3.452197074890136719e+00 2.612212562561035156e+01 -1.128817442804574966e-03 -2.469335217028856277e-03 -1.079445704817771912e-03 4.047352820634841919e-03
2.244000000000000000e+03 1.299845695495605469e+01 -9.107699394226074219e+00 -3.277071118354797363e-01 -3.875490725040435791e-01 -2.145768553018569946e-01 -1.741217225790023804e-01
2.245000000000000000e+03 6.733696746826171875e+01 -3.232750320434570312e+01 -1.782668232917785645e-01 4.431088447570800781e+00 1.275846481323242188e+00 6.599825024604797363e-01
2.246000000000000000e+03 2.552828025817871094e+01 2.902818679809570312e+01 -1.067020092159509659e-02 -9.038662165403366089e-02 -3.031704761087894440e-02 1.059421300888061523e-01
2.247000000000000000e+03 4.803983211517333984e+00 -2.044149208068847656e+01 2.644876390695571899e-02 -3.066014945507049561e-01 -8.404581993818283081e-02 -3.540302813053131104e-01
2.248000000000000000e+03 5.981115818023681641e+00 -1.750392913818359375e+01 -1.190016418695449829e-01 -2.175462841987609863e-01 -1.009643822908401489e-01 -3.833993673324584961e-01
2.249000000000000000e+03 7.524472808837890625e+01 -2.494348716735839844e+01 5.711043998599052429e-02 7.530385017395019531e+00 2.276248693466186523e+00 -4.246262013912200928e-01
2.250000000000000000e+03 7.351039886474609375e+01 -2.896759414672851562e+01 -2.934930622577667236e-01 7.106504917144775391e+00 2.043903589248657227e+00 -1.238631382584571838e-01
2.251000000000000000e+03 3.783061218261718750e+01 -1.400887393951416016e+01 7.743548154830932617e-01 -2.305536419153213501e-01 1.631403416395187378e-01 -5.889999866485595703e-02
2.252000000000000000e+03 4.615446090698242188e+00 -1.631748008728027344e+01 -1.268869489431381226e-01 -1.080767586827278137e-01 -7.048911601305007935e-02 -2.837718129158020020e-01
2.253000000000000000e+03 7.578739166259765625e+01 -1.052092266082763672e+01 -2.915908694267272949e-01 8.311114311218261719e+00 2.405856847763061523e+00 6.632719039916992188e-01
2.254000000000000000e+03 1.697262191772460938e+01 2.432271957397460938e+01 -4.369021952152252197e-02 -2.458499278873205185e-03 -1.384461577981710434e-02 2.696649357676506042e-02
2.255000000000000000e+03 7.358558654785156250e+01 -3.038827323913574219e+01 -2.601616978645324707e-01 7.018919944763183594e+00 2.027627468109130859e+00 -8.728933334350585938e-02
2.256000000000000000e+03 2.411907005310058594e+01 -8.684118270874023438e+00 -5.551834106445312500e-01 2.456491291522979736e-01 -9.286028891801834106e-02 -4.466777741909027100e-01
2.257000000000000000e+03 5.446218967437744141e+00 -3.272882080078125000e+01 5.607331171631813049e-02 -5.080758333206176758e-01 -1.356007605791091919e-01 -4.563819617033004761e-02
2.258000000000000000e+03 4.967465400695800781e+00 -2.953759765625000000e+01 6.766784191131591797e-02 -5.304266810417175293e-01 -1.388276517391204834e-01 -1.072791293263435364e-01
2.259000000000000000e+03 7.571802520751953125e+01 2.138349914550781250e+01 9.096228480339050293e-01 7.652804374694824219e+00 2.568728208541870117e+00 1.371173501014709473e+00
2.260000000000000000e+03 7.351579284667968750e+01 1.271736264228820801e+00 -3.623794317245483398e-01 7.377938270568847656e+00 2.104667663574218750e+00 -4.635550081729888916e-01
2.261000000000000000e+03 7.275248718261718750e+01 2.959132194519042969e+01 -8.332746028900146484e-01 7.473560810089111328e+00 1.992085933685302734e+00 3.321527689695358276e-02
2.262000000000000000e+03 7.386228179931640625e+01 -3.170268058776855469e+01 -2.481279671192169189e-01 6.990911483764648438e+00 2.022835016250610352e+00 -9.926429949700832367e-03
2.263000000000000000e+03 7.521728515625000000e+01 -3.153671646118164062e+01 -1.866815090179443359e-01 7.247401237487792969e+00 2.118216037750244141e+00 -1.441107392311096191e-01
2.264000000000000000e+03 4.137324905395507812e+01 -2.903316879272460938e+01 8.165890723466873169e-02 6.059024930000305176e-01 2.062684148550033569e-01 1.611664146184921265e-01
2.265000000000000000e+03 7.097594261169433594e+00 -2.712087631225585938e+01 1.715593636035919189e-01 -3.607296943664550781e-01 -5.675109848380088806e-02 -1.902562230825424194e-01
2.266000000000000000e+03 4.629163742065429688e+01 2.258527183532714844e+01 -4.947936534881591797e-01 1.622578650712966919e-01 -9.976073354482650757e-02 1.097222492098808289e-01
2.267000000000000000e+03 7.347026824951171875e+01 -3.640201950073242188e+01 -6.580438464879989624e-02 6.583384513854980469e+00 1.955273985862731934e+00 5.197408422827720642e-02
2.268000000000000000e+03 4.625021457672119141e+00 -1.418498420715332031e+01 -1.634140014648437500e-01 -3.802567347884178162e-02 -6.043190136551856995e-02 -1.779782176017761230e-01
2.269000000000000000e+03 4.408933162689208984e+00 1.487053966522216797e+01 -1.622115523787215352e-04 3.258412180002778769e-04 4.908889968646690249e-05 -1.418653526343405247e-03
2.270000000000000000e+03 7.530885314941406250e+01 2.393029212951660156e+01 -1.561817526817321777e-01 8.235133171081542969e+00 2.423685550689697266e+00 1.615435957908630371e+00
2.271000000000000000e+03 3.190896224975585938e+01 2.391040420532226562e+01 -1.595538556575775146e-01 -7.389423996210098267e-02 -7.003442943096160889e-02 1.194930076599121094e-01
2.272000000000000000e+03 7.306240081787109375e+01 -7.363359928131103516e+00 -6.563127040863037109e-01 7.401428222656250000e+00 2.023534536361694336e+00 1.198143735527992249e-01
2.273000000000000000e+03 3.704167175292968750e+01 -7.786401748657226562e+00 -8.939815759658813477e-01 -3.474902212619781494e-01 -3.724415600299835205e-01 -2.214452773332595825e-01
2.274000000000000000e+03 3.807271957397460938e+01 -8.873725891113281250e+00 -4.046041965484619141e-01 -2.792656421661376953e-01 -2.051609456539154053e-01 -1.085085496306419373e-01
2.275000000000000000e+03 1.225771522521972656e+01 1.723197555541992188e+01 -2.458246657624840736e-03 -4.554509185254573822e-03 -2.103826729580760002e-03 3.356568340677767992e-04
2.276000000000000000e+03 1.389853191375732422e+01 1.561275672912597656e+01 3.142451460007578135e-04 -3.690024139359593391e-03 -1.012733671814203262e-03 1.620386377908289433e-03
2.277000000000000000e+03 5.617582798004150391e+00 -1.959380912780761719e+01 -4.712698981165885925e-03 -2.732042372226715088e-01 -8.337508141994476318e-02 -3.991442918777465820e-01
2.278000000000000000e+03 1.432189559936523438e+01 1.134476089477539062e+01 4.020602500531822443e-04 -7.692034705542027950e-04 -1.101429588743485510e-04 1.593108987435698509e-03
2.279000000000000000e+03 4.737763404846191406e+00 1.773847389221191406e+01 -9.706793352961540222e-04 1.374094572383910418e-04 -2.499809488654136658e-04 -1.091860583983361721e-03
2.280000000000000000e+03 7.438320159912109375e+00 1.954359245300292969e+01 -2.909853821620345116e-03 -2.999878954142332077e-03 -1.772919786162674427e-03 2.260477922391146421e-04
2.281000000000000000e+03 7.398825836181640625e+01 5.316940784454345703e+00 -3.817386329174041748e-01 7.786918640136718750e+00 2.221554040908813477e+00 -7.913808226585388184e-01
2.282000000000000000e+03 3.150533866882324219e+01 2.790317916870117188e+01 -3.883176669478416443e-02 -9.172240644693374634e-02 -3.916625306010246277e-02 1.257046163082122803e-01
2.283000000000000000e+03 2.855323982238769531e+01 2.585416412353515625e+01 -8.583260327577590942e-02 -8.596247434616088867e-02 -5.153852328658103943e-02 1.179719641804695129e-01
2.284000000000000000e+03 7.456050109863281250e+01 -1.833270263671875000e+01 6.969453692436218262e-01 7.685742378234863281e+00 2.514806270599365234e+00 5.648378729820251465e-01
2.285000000000000000e+03 7.569061279296875000e+01 -1.845861434936523438e+01 4.564244151115417480e-01 7.622982025146484375e+00 2.423821926116943359e+00 4.333363771438598633e-01
2.286000000000000000e+03 1.178841876983642578e+01 1.447431850433349609e+01 9.858433622866868973e-04 -3.908779472112655640e-03 -8.768808329477906227e-04 6.239442154765129089e-04
2.287000000000000000e+03 1.449395465850830078e+01 1.256877899169921875e+01 1.740191830322146416e-03 -4.988072323612868786e-04 3.724153793882578611e-04 1.595673733390867710e-03
2.288000000000000000e+03 7.508708190917968750e+01 -1.346929264068603516e+01 -4.465070366859436035e-02 8.058434486389160156e+00 2.404135227203369141e+00 9.585900306701660156e-01
2.289000000000000000e+03 3.792461395263671875e+01 2.450231361389160156e+01 -1.942946612834930420e-01 2.909720316529273987e-02 -4.955923929810523987e-02 1.385402530431747437e-01
2.290000000000000000e+03 7.064903736114501953e+00 -2.460989189147949219e+01 1.934815496206283569e-01 -3.538302779197692871e-01 -4.810462146997451782e-02 -2.822851836681365967e-01
2.291000000000000000e+03 7.946080207824707031e+00 -2.309219551086425781e+01 2.116927057504653931e-01 -3.288358151912689209e-01 -3.514292836189270020e-02 -3.438890874385833740e-01
2.292000000000000000e+03 5.071948051452636719e+00 2.741916275024414062e+01 -2.155930269509553909e-03 -7.219775114208459854e-03 -2.812711754813790321e-03 7.306134328246116638e-03
2.293000000000000000e+03 4.756702423095703125e+00 2.460430145263671875e+01 -2.531367819756269455e-03 -3.064467571675777435e-03 -1.678750617429614067e-03 4.038736689835786819e-03
2.294000000000000000e+03 6.845207214355468750e+01 2.233376693725585938e+01 1.307312250137329102e-01 6.820358276367187500e+00 2.085326910018920898e+00 -3.550119400024414062e+00
2.295000000000000000e+03 6.808201599121093750e+01 2.418831443786621094e+01 -6.765737533569335938e-01 5.887206554412841797e+00 1.563189864158630371e+00 -2.715513229370117188e+00
2.296000000000000000e+03 6.904045104980468750e+01 1.649380493164062500e+01 -8.051734566688537598e-01 1.065293788909912109e+01 2.954329490661621094e+00 2.788349390029907227e+00
2.297000000000000000e+03 1.380990695953369141e+01 4.549464225769042969e+00 2.290391857968643308e-04 -2.713923167902976274e-04 -1.270594111701939255e-05 2.675416471902281046e-04
2.298000000000000000e+03 2.183829116821289062e+01 -8.548896789550781250e+00 -4.989911913871765137e-01 2.097113877534866333e-01 -8.678394556045532227e-02 -4.343238174915313721e-01
2.299000000000000000e+03 1.023978996276855469e+01 -5.510198593139648438e+00 -9.206017479300498962e-03 -1.327843666076660156e-01 -4.259711503982543945e-02 3.619618341326713562e-02
2.300000000000000000e+03 1.377496623992919922e+01 -8.459172248840332031e+00 -2.935299873352050781e-01 -3.565897941589355469e-01 -1.950359344482421875e-01 -2.083532363176345825e-01
2.301000000000000000e+03 7.221255493164062500e+01 1.373124504089355469e+01 7.372313737869262695e-02 1.016864681243896484e+01 3.072710990905761719e+00 -1.437609344720840454e-01
2.302000000000000000e+03 7.028263854980468750e+01 1.650197029113769531e+01 -8.750301599502563477e-01 1.378735256195068359e+01 3.873696804046630859e+00 1.719078660011291504e+00
2.303000000000000000e+03 8.144179344177246094e+00 5.762486934661865234e+00 8.002754184417426586e-04 -3.094676940236240625e-04 1.472423173254355788e-04 -2.253121201647445560e-04
2.304000000000000000e+03 6.495800018310546875e+00 4.948794364929199219e+00 3.281546523794531822e-04 -2.496149681974202394e-04 2.356190452701412141e-05 -3.005942853633314371e-04
2.305000000000000000e+03 5.979457378387451172e+00 5.744113922119140625e+00 3.789674083236604929e-04 -2.916984085459262133e-04 2.618069811433088034e-05 -2.351321600144729018e-04
2.306000000000000000e+03 5.711922645568847656e+00 6.696585178375244141e+00 4.234590742271393538e-04 -3.872516390401870012e-04 1.086223528545815498e-05 -3.764246648643165827e-04
2.307000000000000000e+03 1.375480461120605469e+01 6.622364044189453125e+00 3.594473528210073709e-04 -2.556603067205287516e-05 1.001643977360799909e-04 4.901216598227620125e-04
2.308000000000000000e+03 1.352060794830322266e+01 5.486188888549804688e+00 4.516572516877204180e-04 2.356834374950267375e-05 1.425676746293902397e-04 4.179212555754929781e-04
2.309000000000000000e+03 8.992820739746093750e+00 -5.595633029937744141e+00 -1.324441749602556229e-02 -1.054854542016983032e-01 -3.561896085739135742e-02 7.410722225904464722e-02
2.310000000000000000e+03 7.022132873535156250e+01 2.397879219055175781e+01 -1.398158311843872070e+00 9.867694854736328125e+00 2.540860891342163086e+00 -1.280790209770202637e+00
2.311000000000000000e+03 7.176098632812500000e+01 1.304249763488769531e+01 1.095423623919487000e-01 9.816766738891601562e+00 2.977892875671386719e+00 1.154602156020700932e-03
2.312000000000000000e+03 7.110797119140625000e+01 1.537149047851562500e+01 -2.558087706565856934e-01 1.196511363983154297e+01 3.512791633605957031e+00 8.070557713508605957e-01
2.313000000000000000e+03 9.639872550964355469e+00 5.526256084442138672e+00 8.071628981269896030e-04 -2.807155251502990723e-04 1.579342060722410679e-04 -1.917375047923997045e-04
2.314000000000000000e+03 2.533010292053222656e+01 -7.565070152282714844e+00 -7.378348112106323242e-01 2.486674785614013672e-01 -1.467501968145370483e-01 -4.407281577587127686e-01
2.315000000000000000e+03 7.402137279510498047e+00 -5.620910167694091797e+00 -3.335990244522690773e-03 -6.442110240459442139e-02 -2.032712846994400024e-02 1.008000299334526062e-01
2.316000000000000000e+03 7.310446929931640625e+01 1.667384147644042969e+01 9.474699497222900391e-01 1.102115726470947266e+01 3.590588331222534180e+00 -1.175100564956665039e+00
2.317000000000000000e+03 6.957427215576171875e+01 2.320047569274902344e+01 -1.043267250061035156e+00 9.698965072631835938e+00 2.596709489822387695e+00 -2.392185926437377930e+00
2.318000000000000000e+03 2.469570541381835938e+01 -7.386077880859375000e+00 -8.007164001464843750e-01 2.888351380825042725e-01 -1.535643935203552246e-01 -3.631521761417388916e-01
2.319000000000000000e+03 7.401963806152343750e+01 1.821153831481933594e+01 2.286477088928222656e+00 9.181170463562011719e+00 3.440294027328491211e+00 -6.377637982368469238e-01
2.320000000000000000e+03 7.321873474121093750e+01 1.777190399169921875e+01 2.244068861007690430e+00 1.033576965332031250e+01 3.773951530456542969e+00 -1.045647025108337402e+00
2.321000000000000000e+03 1.598952198028564453e+01 -7.472823619842529297e+00 -2.654400765895843506e-01 -1.931742131710052490e-01 -1.375842988491058350e-01 -3.420595228672027588e-01
2.322000000000000000e+03 1.503245544433593750e+01 -5.863154888153076172e+00 -1.225398108363151550e-01 -1.314045786857604980e-01 -7.618331164121627808e-02 -2.212633639574050903e-01
2.323000000000000000e+03 1.880898284912109375e+01 2.773328781127929688e+00 -8.895290375221520662e-05 1.870416017482057214e-04 2.942660830740351230e-05 4.492032167036086321e-05
2.324000000000000000e+03 5.065631484985351562e+01 -3.405183076858520508e+00 -6.896097064018249512e-01 2.763861715793609619e-01 -1.239670515060424805e-01 6.245608925819396973e-01
2.325000000000000000e+03 6.616130065917968750e+01 2.222507286071777344e+01 -1.860431581735610962e-01 1.357269525527954102e+00 3.513678908348083496e-01 -1.340090036392211914e+00
2.326000000000000000e+03 1.343807029724121094e+01 -7.517397403717041016e+00 -2.059812992811203003e-01 -2.937364280223846436e-01 -1.499153226613998413e-01 -1.754652559757232666e-01
2.327000000000000000e+03 1.261778640747070312e+01 -5.878238201141357422e+00 -5.836029350757598877e-02 -1.713776588439941406e-01 -6.892138719558715820e-02 -8.508836477994918823e-02
2.328000000000000000e+03 1.144184875488281250e+01 5.070096969604492188e+00 5.663497140631079674e-04 -4.626243025995790958e-04 3.111761907348409295e-05 2.909670292865484953e-04
2.329000000000000000e+03 1.149754238128662109e+01 4.419895648956298828e+00 5.167741328477859497e-04 -3.572215064195916057e-05 1.443156070308759809e-04 1.270805223612114787e-04
2.330000000000000000e+03 4.501940536499023438e+01 -3.177137613296508789e+00 -1.153671026229858398e+00 5.593929886817932129e-01 -1.782833933830261230e-01 -2.144463360309600830e-01
2.331000000000000000e+03 1.764559555053710938e+01 -6.856431484222412109e+00 -3.188302516937255859e-01 -4.633890464901924133e-02 -1.095507442951202393e-01 -3.855401575565338135e-01
2.332000000000000000e+03 1.533805465698242188e+01 -7.779304504394531250e+00 -2.906551957130432129e-01 -2.375636994838714600e-01 -1.584656685590744019e-01 -3.145321011543273926e-01
2.333000000000000000e+03 4.846942138671875000e+01 -3.395176887512207031e+00 -8.946955204010009766e-01 5.752814412117004395e-01 -9.582421928644180298e-02 2.321001440286636353e-01
2.334000000000000000e+03 4.959510421752929688e+01 -3.795564889907836914e+00 -7.577716708183288574e-01 5.029075145721435547e-01 -7.645925879478454590e-02 4.732229411602020264e-01
2.335000000000000000e+03 1.388173961639404297e+01 -6.121593475341796875e+00 -1.026964932680130005e-01 -1.820150315761566162e-01 -8.541345596313476562e-02 -1.619045883417129517e-01
2.336000000000000000e+03 7.134460449218750000e+01 1.232849979400634766e+01 1.611851900815963745e-01 9.572941780090332031e+00 2.920238256454467773e+00 6.918436288833618164e-02
2.337000000000000000e+03 7.396718597412109375e+01 1.272803688049316406e+01 -2.892062254250049591e-02 8.866486549377441406e+00 2.651269912719726562e+00 -9.477120637893676758e-01
2.338000000000000000e+03 1.505003261566162109e+01 -7.062915802001953125e+00 -2.075125724077224731e-01 -2.092502415180206299e-01 -1.250288486480712891e-01 -2.679217457771301270e-01
2.339000000000000000e+03 4.558146286010742188e+01 -3.599673509597778320e+00 -1.096992850303649902e+00 6.167890429496765137e-01 -1.440611332654953003e-01 -1.272056698799133301e-01
2.340000000000000000e+03 1.179764366149902344e+01 8.825158119201660156e+00 1.175747602246701717e-03 -7.493302691727876663e-04 1.279251882806420326e-04 3.182833897881209850e-04
2.341000000000000000e+03 7.394146728515625000e+01 1.460883045196533203e+01 1.356685906648635864e-01 9.445979118347167969e+00 2.874494314193725586e+00 -9.860733151435852051e-01
2.342000000000000000e+03 5.894805145263671875e+01 -5.592994213104248047e+00 -3.339082896709442139e-01 6.982272863388061523e-02 -7.922567427158355713e-02 5.039134621620178223e-01
2.343000000000000000e+03 5.942583084106445312e+01 -7.450322628021240234e+00 -7.918539047241210938e-01 -2.758598141372203827e-02 -2.458319664001464844e-01 5.947282910346984863e-01
2.344000000000000000e+03 7.605123138427734375e+01 1.985956573486328125e+01 1.197791576385498047e+00 7.082712650299072266e+00 2.484151124954223633e+00 5.478947162628173828e-01
2.345000000000000000e+03 4.026988029479980469e+00 5.905753135681152344e+00 4.489934653975069523e-04 6.939283048268407583e-05 1.555158960400149226e-04 -4.401321639306843281e-04
2.346000000000000000e+03 7.415035247802734375e+01 1.112091159820556641e+01 -1.120121330022811890e-01 8.408411026000976562e+00 2.488919734954833984e+00 -1.035573482513427734e+00
2.347000000000000000e+03 6.007525634765625000e+01 -3.173776626586914062e+00 5.534312874078750610e-02 5.120495557785034180e-01 1.702177971601486206e-01 3.402224481105804443e-01
2.348000000000000000e+03 5.775471115112304688e+01 -2.484900474548339844e+00 1.770894229412078857e-02 8.455337584018707275e-02 3.067869506776332855e-02 4.459168910980224609e-01
2.349000000000000000e+03 7.274815559387207031e+00 -6.485250949859619141e+00 -4.706415161490440369e-02 -7.291205972433090210e-02 -3.599286451935768127e-02 9.599658101797103882e-02
2.350000000000000000e+03 1.313706398010253906e+01 -6.582165241241455078e+00 -1.289481520652770996e-01 -2.141555547714233398e-01 -1.029311120510101318e-01 -1.228022128343582153e-01
2.351000000000000000e+03 1.454336929321289062e+01 -6.564940929412841797e+00 -1.755749732255935669e-01 -2.043633013963699341e-01 -1.139814853668212891e-01 -2.265715748071670532e-01
2.352000000000000000e+03 4.434716796875000000e+01 1.484870243072509766e+01 -1.326846480369567871e-01 1.239790767431259155e-02 -3.608602285385131836e-02 -2.129045315086841583e-02
2.353000000000000000e+03 6.574486255645751953e+00 -1.212342643737792969e+01 -2.543363273143768311e-01 -1.086621508002281189e-01 -1.088995411992073059e-01 -8.617577701807022095e-02
2.354000000000000000e+03 7.729963779449462891e+00 -1.087828445434570312e+01 -2.615533471107482910e-01 -1.600210666656494141e-01 -1.264723241329193115e-01 -3.163491934537887573e-02
2.355000000000000000e+03 2.278243637084960938e+01 -7.700272560119628906e+00 -5.955130457878112793e-01 2.419821023941040039e-01 -1.060592830181121826e-01 -3.979516327381134033e-01
2.356000000000000000e+03 6.550814819335937500e+01 2.492297935485839844e+01 -3.117493093013763428e-01 2.404475927352905273e+00 6.278179883956909180e-01 -1.737688064575195312e+00
2.357000000000000000e+03 7.152565765380859375e+01 5.457697868347167969e+00 -5.075640678405761719e-01 7.305387496948242188e+00 2.039346933364868164e+00 -4.342240989208221436e-01
2.358000000000000000e+03 6.919778442382812500e+01 6.952342987060546875e+00 -3.858851790428161621e-01 6.948508739471435547e+00 1.968787074089050293e+00 2.668059170246124268e-01
2.359000000000000000e+03 3.302701187133789062e+01 -9.863939285278320312e+00 -3.896870315074920654e-01 -2.672604322433471680e-01 -1.970842331647872925e-01 -2.459150701761245728e-01
2.360000000000000000e+03 1.906422996520996094e+01 -8.060199737548828125e+00 -4.308799803256988525e-01 6.845200061798095703e-02 -1.087283939123153687e-01 -4.399734437465667725e-01
2.361000000000000000e+03 2.176791191101074219e+01 -9.498803138732910156e+00 -3.884624242782592773e-01 2.009272724390029907e-01 -5.626054480671882629e-02 -4.414226114749908447e-01
2.362000000000000000e+03 2.266969299316406250e+01 -1.066287708282470703e+01 -2.305810004472732544e-01 1.964458227157592773e-01 -1.024055201560258865e-02 -4.156282246112823486e-01
2.363000000000000000e+03 5.669561862945556641e+00 9.894372940063476562e+00 7.301627774722874165e-04 -4.111214366275817156e-04 9.571240661898627877e-05 -7.916440954431891441e-04
2.364000000000000000e+03 7.343698120117187500e+01 -1.889327812194824219e+01 9.447711110115051270e-01 7.747233867645263672e+00 2.607601642608642578e+00 4.268644750118255615e-01
2.365000000000000000e+03 6.462531280517578125e+01 1.466954708099365234e+00 7.289191335439682007e-02 2.708304166793823242e+00 8.343588113784790039e-01 5.113478302955627441e-01
2.366000000000000000e+03 6.293590927124023438e+01 1.228298306465148926e+00 2.606769800186157227e-01 1.682044029235839844e+00 5.828163027763366699e-01 4.588101804256439209e-01
2.367000000000000000e+03 7.325181579589843750e+01 -1.462129497528076172e+01 1.328821629285812378e-01 7.977781295776367188e+00 2.433198928833007812e+00 1.040394783020019531e+00
2.368000000000000000e+03 7.319057464599609375e+01 -1.674087333679199219e+01 7.449182868003845215e-01 7.859326839447021484e+00 2.581273555755615234e+00 8.538274765014648438e-01
2.369000000000000000e+03 6.100528717041015625e+01 -5.998178005218505859e+00 -3.151276111602783203e-01 4.903092682361602783e-01 5.255449563264846802e-02 3.113712668418884277e-01
2.370000000000000000e+03 5.293408393859863281e+00 -1.128137397766113281e+01 -1.528972089290618896e-01 -2.420896477997303009e-02 -5.313185229897499084e-02 -2.345304936170578003e-02
2.371000000000000000e+03 7.383546447753906250e+01 -1.026437664031982422e+01 -5.899940133094787598e-01 7.868443012237548828e+00 2.183534622192382812e+00 5.954706668853759766e-01
2.372000000000000000e+03 7.364558410644531250e+01 -8.764332771301269531e+00 -6.181851625442504883e-01 7.749344825744628906e+00 2.139348030090332031e+00 3.509641587734222412e-01
2.373000000000000000e+03 4.355492401123046875e+01 -4.142943382263183594e+00 -1.278383731842041016e+00 4.773603677749633789e-01 -2.403070032596588135e-01 -2.288523167371749878e-01
2.374000000000000000e+03 6.661731719970703125e+00 1.127087020874023438e+01 9.671074803918600082e-04 -7.991457241587340832e-04 5.038852759753353894e-05 -8.987423498183488846e-04
2.375000000000000000e+03 6.720847129821777344e+00 1.236971855163574219e+01 5.373969324864447117e-04 -1.247733016498386860e-03 -2.131008368451148272e-04 -1.179647981189191341e-03
2.376000000000000000e+03 7.358964538574218750e+01 2.194067001342773438e+00 -3.658527433872222900e-01 7.454110622406005859e+00 2.126477479934692383e+00 -5.275649428367614746e-01
2.377000000000000000e+03 9.660013198852539062e+00 -4.787662029266357422e+00 3.621193766593933105e-02 -1.003629192709922791e-01 -1.924529485404491425e-02 5.480768531560897827e-02
2.378000000000000000e+03 4.339048767089843750e+01 -4.859715938568115234e+00 -1.132942318916320801e+00 4.721371829509735107e-01 -1.982415318489074707e-01 -1.658541709184646606e-01
2.379000000000000000e+03 7.442278289794921875e+01 2.419715499877929688e+01 -4.738417863845825195e-01 8.847244262695312500e+00 2.512020826339721680e+00 1.431083559989929199e+00
2.380000000000000000e+03 7.397270202636718750e+01 9.360381126403808594e+00 -2.229072302579879761e-01 8.197425842285156250e+00 2.392355680465698242e+00 -9.797419905662536621e-01
2.381000000000000000e+03 7.384632873535156250e+01 8.145414352416992188e+00 -3.021797537803649902e-01 8.004446983337402344e+00 2.310680150985717773e+00 -9.599825143814086914e-01
2.382000000000000000e+03 7.081647491455078125e+01 2.409741210937500000e+01 -1.437346935272216797e+00 1.017583179473876953e+01 2.621545314788818359e+00 -8.214139342308044434e-01
2.383000000000000000e+03 1.483019351959228516e+01 6.151916503906250000e+00 4.987090942449867725e-04 2.387342683505266905e-04 2.212330145994201303e-04 6.429746281355619431e-04
2.384000000000000000e+03 4.962344169616699219e+00 6.955543518066406250e+00 6.010172655805945396e-04 1.072158047463744879e-04 2.124699240084737539e-04 -7.356645073741674423e-04
2.385000000000000000e+03 5.871219253540039062e+01 -3.952962398529052734e+00 -7.992344349622726440e-02 1.500099599361419678e-01 2.102595381438732147e-02 4.670627415180206299e-01
2.386000000000000000e+03 5.736922073364257812e+01 -3.770086765289306641e+00 -1.153273358941078186e-01 -1.944990828633308411e-02 -4.043317586183547974e-02 5.506579875946044922e-01
2.387000000000000000e+03 5.647238540649414062e+01 -3.654352426528930664e+00 -1.606585532426834106e-01 -1.115007773041725159e-01 -8.164779841899871826e-02 6.173378825187683105e-01
2.388000000000000000e+03 1.986075782775878906e+01 -9.234701156616210938e+00 -4.263107776641845703e-01 1.195053532719612122e-01 -9.204163402318954468e-02 -4.553261101245880127e-01
2.389000000000000000e+03 2.091639709472656250e+01 -8.478335380554199219e+00 -4.435438513755798340e-01 1.730716824531555176e-01 -8.114165067672729492e-02 -4.415788650512695312e-01
2.390000000000000000e+03 6.823859691619873047e+00 -1.320061016082763672e+01 -3.049301207065582275e-01 -1.383518427610397339e-01 -1.329845935106277466e-01 -1.596256494522094727e-01
2.391000000000000000e+03 6.696001434326171875e+01 2.488447952270507812e+01 -4.535892009735107422e-01 4.292406082153320312e+00 1.151645064353942871e+00 -2.305923938751220703e+00
2.392000000000000000e+03 7.118766021728515625e+01 -1.398865222930908203e+01 -1.276160776615142822e-01 7.970090389251708984e+00 2.352742195129394531e+00 8.786834478378295898e-01
2.393000000000000000e+03 7.310863494873046875e+01 1.506923484802246094e+01 2.280488163232803345e-01 1.030738544464111328e+01 3.160630464553833008e+00 -7.307224869728088379e-01
2.394000000000000000e+03 7.433777618408203125e+01 1.527752590179443359e+01 4.530082046985626221e-01 9.226303100585937500e+00 2.903793334960937500e+00 -1.133275389671325684e+00
2.395000000000000000e+03 7.533502960205078125e+01 1.641165161132812500e+01 7.875325679779052734e-01 8.181937217712402344e+00 2.690840959548950195e+00 -1.051507353782653809e+00
2.396000000000000000e+03 3.489293670654296875e+01 -8.373311042785644531e+00 -9.433387517929077148e-01 -3.475920855998992920e-01 -3.872792422771453857e-01 -2.208817154169082642e-01
2.397000000000000000e+03 3.043278694152832031e+01 -9.521921157836914062e+00 -4.967053532600402832e-01 -1.827598810195922852e-01 -2.038395702838897705e-01 -4.468884766101837158e-01
2.398000000000000000e+03 2.726525115966796875e+01 -9.301002502441406250e+00 -5.799297690391540527e-01 1.241088211536407471e-01 -1.367462873458862305e-01 -5.449051260948181152e-01
2.399000000000000000e+03 7.352177429199218750e+01 1.571061611175537109e+01 4.492487907409667969e-01 1.017015075683593750e+01 3.185819864273071289e+00 -9.979175329208374023e-01
2.400000000000000000e+03 4.206247329711914062e+01 1.557703971862792969e+01 -1.693540662527084351e-01 3.898236528038978577e-02 -3.911150991916656494e-02 1.677245460450649261e-02
2.401000000000000000e+03 6.227354049682617188e+00 8.890995979309082031e+00 6.692698807455599308e-04 -2.136312978109344840e-04 1.366915676044300199e-04 -9.619880584068596363e-04
2.402000000000000000e+03 4.805313110351562500e+01 -6.399890422821044922e+00 -5.551290512084960938e-01 1.061694502830505371e+00 1.519696265459060669e-01 3.492878675460815430e-01
2.403000000000000000e+03 8.193738937377929688e+00 -2.587283134460449219e+01 2.330315113067626953e-01 -2.804509699344635010e-01 -1.422584243118762970e-02 -2.377191632986068726e-01
2.404000000000000000e+03 3.145429801940917969e+01 -1.060497856140136719e+01 -1.360060721635818481e-01 -1.172308251261711121e-01 -7.597107440233230591e-02 -3.425938487052917480e-01
2.405000000000000000e+03 3.904180908203125000e+01 -8.794124603271484375e+00 -4.557905197143554688e-01 -1.959494501352310181e-01 -1.955219954252243042e-01 -8.960327506065368652e-02
2.406000000000000000e+03 4.424097824096679688e+01 -9.111775398254394531e+00 -3.538289666175842285e-02 8.404631018638610840e-01 2.415240705013275146e-01 1.356856524944305420e-01
2.407000000000000000e+03 4.620995330810546875e+01 -7.529028415679931641e+00 -4.049813151359558105e-01 1.092926740646362305e+00 2.063836157321929932e-01 1.736825555562973022e-01
2.408000000000000000e+03 3.040488815307617188e+01 -1.067189788818359375e+01 -1.411900669336318970e-01 -7.841870933771133423e-02 -6.588263064622879028e-02 -4.418859481811523438e-01
2.409000000000000000e+03 4.676426315307617188e+01 -2.968982458114624023e+00 -1.049635052680969238e+00 6.104811429977416992e-01 -1.317461878061294556e-01 -3.004433587193489075e-02
2.410000000000000000e+03 2.499466514587402344e+01 -9.800947189331054688e+00 -3.818282783031463623e-01 2.055909931659698486e-01 -5.287118256092071533e-02 -4.960875213146209717e-01
2.411000000000000000e+03 4.419020080566406250e+01 -1.175068664550781250e+01 4.641622602939605713e-01 1.044970631599426270e+00 4.527398645877838135e-01 3.044747412204742432e-01
2.412000000000000000e+03 4.159722137451171875e+01 -1.479421710968017578e+01 6.682502627372741699e-01 5.555382966995239258e-01 3.671365678310394287e-01 5.224136263132095337e-02
2.413000000000000000e+03 7.220022583007812500e+01 -2.196321487426757812e+01 8.401539325714111328e-01 7.954180717468261719e+00 2.638300418853759766e+00 -4.445703327655792236e-02
2.414000000000000000e+03 1.459641361236572266e+01 -8.077849388122558594e+00 -2.778797149658203125e-01 -2.967869937419891357e-01 -1.724000126123428345e-01 -2.758548557758331299e-01
2.415000000000000000e+03 6.050172424316406250e+01 -1.843431115150451660e+00 1.981230229139328003e-01 7.016230225563049316e-01 2.699238061904907227e-01 3.012501299381256104e-01
2.416000000000000000e+03 5.069223022460937500e+01 -2.551254034042358398e+00 -7.321477532386779785e-01 1.491620987653732300e-01 -1.748957037925720215e-01 4.956031143665313721e-01
2.417000000000000000e+03 4.992723083496093750e+01 -3.215366125106811523e+00 -7.840663194656372070e-01 3.871369957923889160e-01 -1.190788000822067261e-01 4.608277678489685059e-01
2.418000000000000000e+03 6.838266754150390625e+01 -8.471509933471679688e+00 -1.099437117576599121e+00 5.074025630950927734e+00 1.192376613616943359e+00 -5.209994912147521973e-01
2.419000000000000000e+03 9.168508529663085938e+00 -2.714582824707031250e+01 2.457826733589172363e-01 -2.002096772193908691e-01 1.367189828306436539e-02 -1.848443150520324707e-01
2.420000000000000000e+03 7.451321411132812500e+01 -2.234983444213867188e+00 -3.004269599914550781e-01 7.713850498199462891e+00 2.224027156829833984e+00 -2.579737007617950439e-01
2.421000000000000000e+03 7.558214569091796875e+01 -5.050515651702880859e+00 -2.687342166900634766e-01 8.244366645812988281e+00 2.392689704895019531e+00 -8.141578175127506256e-03
2.422000000000000000e+03 2.494921875000000000e+01 -1.089495086669921875e+01 -1.318300664424896240e-01 1.943634748458862305e-01 1.876001991331577301e-02 -5.005521774291992188e-01
2.423000000000000000e+03 2.487095832824707031e+01 -1.207782459259033203e+01 1.336921602487564087e-01 1.174267455935478210e-01 7.533567398786544800e-02 -4.383121132850646973e-01
2.424000000000000000e+03 6.690444946289062500e+01 2.563919067382812500e+00 -2.175227105617523193e-01 4.270045280456542969e+00 1.215756773948669434e+00 3.539783656597137451e-01
2.425000000000000000e+03 4.208976364135742188e+01 -2.474577903747558594e+01 1.856971085071563721e-01 9.325339794158935547e-01 3.354693353176116943e-01 1.220989376306533813e-01
2.426000000000000000e+03 6.733404159545898438e+00 -1.580903816223144531e+01 -2.297518700361251831e-01 -1.901590079069137573e-01 -1.259732693433761597e-01 -3.392321467399597168e-01
2.427000000000000000e+03 3.777522659301757812e+01 -1.532979106903076172e+01 9.257641434669494629e-01 -2.394923269748687744e-01 2.058815509080886841e-01 -1.639754623174667358e-01
2.428000000000000000e+03 3.725217056274414062e+01 -1.133108997344970703e+01 2.222246229648590088e-01 -2.923002839088439941e-01 -2.102269977331161499e-02 -2.432352676987648010e-02
2.429000000000000000e+03 1.312547588348388672e+01 6.270132064819335938e+00 6.302498513832688332e-04 -3.643915697466582060e-04 7.975748303579166532e-05 5.876750219613313675e-04
2.430000000000000000e+03 1.325309371948242188e+01 7.368979454040527344e+00 7.688159239478409290e-04 -2.990551001857966185e-04 1.409282558597624302e-04 5.489074974320828915e-04
2.431000000000000000e+03 4.015547943115234375e+01 -1.572129917144775391e+01 7.134935855865478516e-01 2.315370887517929077e-01 2.835091948509216309e-01 -8.999931067228317261e-02
2.432000000000000000e+03 3.887504959106445312e+01 -1.225413131713867188e+01 4.747708141803741455e-01 -1.355501860380172729e-01 1.017661914229393005e-01 -2.847730647772550583e-03
2.433000000000000000e+03 6.245993423461914062e+01 -7.001732826232910156e+00 -4.539366364479064941e-01 8.528982400894165039e-01 1.196884810924530029e-01 1.574653685092926025e-01
2.434000000000000000e+03 4.151741027832031250e+01 -1.979038619995117188e+01 3.880214989185333252e-01 8.750355243682861328e-01 3.789170980453491211e-01 -1.222256496548652649e-01
2.435000000000000000e+03 7.218288421630859375e+01 -2.310411643981933594e+01 6.228532791137695312e-01 7.664126396179199219e+00 2.486093997955322266e+00 -2.156062573194503784e-01
2.436000000000000000e+03 7.174775695800781250e+01 -2.398511314392089844e+01 2.625854909420013428e-01 7.775804042816162109e+00 2.411516904830932617e+00 -1.649424135684967041e-01
2.437000000000000000e+03 4.135901260375976562e+01 -1.597683143615722656e+01 6.262705922126770020e-01 6.105949282646179199e-01 3.710596561431884766e-01 -7.896552793681621552e-03
2.438000000000000000e+03 1.771600341796875000e+01 -8.190722465515136719e+00 -4.083033502101898193e-01 -5.987917631864547729e-02 -1.404547542333602905e-01 -4.322549700736999512e-01
2.439000000000000000e+03 1.995011329650878906e+01 -8.383380889892578125e+00 -4.583462476730346680e-01 1.121774017810821533e-01 -1.038506552577018738e-01 -4.312992691993713379e-01
2.440000000000000000e+03 7.440513610839843750e+01 -3.544112205505371094e+00 -3.317611515522003174e-01 7.704405784606933594e+00 2.211793422698974609e+00 -1.816401779651641846e-01
2.441000000000000000e+03 6.692310810089111328e+00 2.722602272033691406e+01 -4.670453257858753204e-03 -9.057647548615932465e-03 -4.118429962545633316e-03 9.533556178212165833e-03
2.442000000000000000e+03 7.128358459472656250e+01 -2.738775444030761719e+01 -4.143465459346771240e-01 6.951494216918945312e+00 1.961144328117370605e+00 1.241364628076553345e-01
2.443000000000000000e+03 7.207091522216796875e+01 -2.664525985717773438e+01 -2.563991248607635498e-01 7.199803829193115234e+00 2.083021402359008789e+00 -1.092241927981376648e-01
2.444000000000000000e+03 7.495734405517578125e+01 2.780959510803222656e+01 -7.114576697349548340e-01 8.020442008972167969e+00 2.192695379257202148e+00 7.892296314239501953e-01
2.445000000000000000e+03 7.140425872802734375e+01 2.680704879760742188e+01 -1.291503667831420898e+00 8.118108749389648438e+00 2.047981500625610352e+00 -3.936937153339385986e-01
2.446000000000000000e+03 7.458094787597656250e+01 -1.165257453918457031e+01 -3.341513276100158691e-01 8.081663131713867188e+00 2.324253559112548828e+00 8.391956686973571777e-01
2.447000000000000000e+03 1.211845970153808594e+01 1.577751827239990234e+01 -3.463663451839238405e-04 -4.098629113286733627e-03 -1.333498628810048103e-03 5.710689583793282509e-04
2.448000000000000000e+03 1.100496387481689453e+01 1.396772766113281250e+01 1.036843750625848770e-03 -2.284731017425656319e-03 -3.743661509361118078e-04 -5.190672818571329117e-04
2.449000000000000000e+03 4.336270523071289062e+01 -2.932985687255859375e+01 4.280396550893783569e-02 8.328410983085632324e-01 2.626935243606567383e-01 4.913945868611335754e-02
2.450000000000000000e+03 7.344563293457031250e+01 -2.754076194763183594e+01 -2.838542759418487549e-01 7.243381023406982422e+00 2.087857961654663086e+00 -2.433483153581619263e-01
2.451000000000000000e+03 7.224779510498046875e+01 -2.769804382324218750e+01 -3.389624059200286865e-01 7.016384601593017578e+00 2.003226757049560547e+00 -1.200097333639860153e-02
2.452000000000000000e+03 3.596504592895507812e+01 -8.802160263061523438e+00 -6.367453932762145996e-01 -3.479784131050109863e-01 -2.954171597957611084e-01 -1.635684818029403687e-01
2.453000000000000000e+03 7.279109191894531250e+01 1.047429656982421875e+01 -9.749435633420944214e-02 8.627734184265136719e+00 2.559072017669677734e+00 -7.222143411636352539e-01
2.454000000000000000e+03 7.398950958251953125e+01 -3.300331497192382812e+01 -2.137548625469207764e-01 6.836678028106689453e+00 1.986876964569091797e+00 1.797603815793991089e-02
2.455000000000000000e+03 1.112504100799560547e+01 -2.723802947998046875e+01 2.882767617702484131e-01 -5.650724470615386963e-02 6.953085958957672119e-02 -1.924787163734436035e-01
2.456000000000000000e+03 5.246711730957031250e+00 -2.680369949340820312e+01 1.139019727706909180e-01 -4.645411372184753418e-01 -1.051917448639869690e-01 -1.859042048454284668e-01
2.457000000000000000e+03 4.333743095397949219e+00 -2.724861717224121094e+01 8.293449133634567261e-02 -5.376923084259033203e-01 -1.364273577928543091e-01 -1.485058367252349854e-01
2.458000000000000000e+03 6.598641967773437500e+01 2.179204225540161133e+00 -1.083967387676239014e-01 3.749103307723999023e+00 1.092211961746215820e+00 4.984944462776184082e-01
2.459000000000000000e+03 7.557218074798583984e+00 -2.992838096618652344e+01 1.277796030044555664e-01 -3.434693217277526855e-01 -6.470691412687301636e-02 -1.107701584696769714e-01
2.460000000000000000e+03 4.174061584472656250e+01 1.920184326171875000e+01 -2.873876094818115234e-01 9.274172782897949219e-02 -5.839376151561737061e-02 5.297745019197463989e-02
2.461000000000000000e+03 3.574607467651367188e+01 2.580457496643066406e+01 -1.313423663377761841e-01 -1.630848832428455353e-02 -4.429525882005691528e-02 1.444830000400543213e-01
2.462000000000000000e+03 7.387281036376953125e+01 3.478870391845703125e+01 -2.096474468708038330e-01 6.994591712951660156e+00 2.035483121871948242e+00 -5.978708714246749878e-02
2.463000000000000000e+03 6.649688720703125000e+01 -2.979252433776855469e+01 -2.471701949834823608e-01 4.070892810821533203e+00 1.147116780281066895e+00 9.407207965850830078e-01
2.464000000000000000e+03 5.599821567535400391e+00 1.476410675048828125e+01 3.723114205058664083e-04 -4.676919779740273952e-04 -2.861417124222498387e-05 -1.662621391005814075e-03
2.465000000000000000e+03 5.815623283386230469e+00 1.599081134796142578e+01 -5.099995178170502186e-04 -1.217424520291388035e-03 -5.182271706871688366e-04 -1.232492155395448208e-03
2.466000000000000000e+03 1.791131782531738281e+01 2.778293800354003906e+01 -3.386577963829040527e-02 -2.929446101188659668e-02 -1.894807256758213043e-02 5.698480084538459778e-02
2.467000000000000000e+03 1.845961380004882812e+01 2.608375549316406250e+01 -4.947108030319213867e-02 -1.653554290533065796e-02 -1.980198733508586884e-02 4.971179366111755371e-02
2.468000000000000000e+03 4.325413894653320312e+01 1.473190307617187500e+01 -1.298190802335739136e-01 2.722564525902271271e-02 -3.077803179621696472e-02 1.917412853799760342e-03
2.469000000000000000e+03 3.376416015625000000e+01 2.639920806884765625e+01 -8.144383132457733154e-02 -5.884231254458427429e-02 -4.208584502339363098e-02 1.404606103897094727e-01
2.470000000000000000e+03 5.427671432495117188e+01 2.971906471252441406e+01 9.586602449417114258e-02 1.484526246786117554e-01 7.329559326171875000e-02 3.248703181743621826e-01
2.471000000000000000e+03 4.076807785034179688e+01 -1.831151390075683594e+01 4.989273250102996826e-01 6.015825271606445312e-01 3.301529586315155029e-01 -1.384329497814178467e-01
2.472000000000000000e+03 7.240818786621093750e+01 -1.078537464141845703e+01 -7.791317105293273926e-01 7.603659152984619141e+00 2.047358274459838867e+00 5.347765684127807617e-01
2.473000000000000000e+03 7.344656372070312500e+01 -1.124795436859130859e+01 -5.716159343719482422e-01 7.858295440673828125e+00 2.186003684997558594e+00 7.472267150878906250e-01
2.474000000000000000e+03 4.536779785156250000e+01 2.411316108703613281e+01 -3.980304598808288574e-01 1.611222177743911743e-01 -7.107247412204742432e-02 1.885442435741424561e-01
2.475000000000000000e+03 7.154947662353515625e+01 7.227757930755615234e+00 -4.272895455360412598e-01 7.714237213134765625e+00 2.186084270477294922e+00 -4.762217998504638672e-01
2.476000000000000000e+03 6.754377841949462891e+00 3.215962982177734375e+01 -3.726012946572154760e-04 -1.784375868737697601e-02 -5.464907735586166382e-03 1.308675203472375870e-02
2.477000000000000000e+03 7.294064331054687500e+01 7.977143287658691406e+00 -3.438796401023864746e-01 8.043017387390136719e+00 2.309741258621215820e+00 -8.161474466323852539e-01
2.478000000000000000e+03 7.370597839355468750e+01 4.264645576477050781e+00 -4.005885720252990723e-01 7.624681949615478516e+00 2.167227983474731445e+00 -6.819776296615600586e-01
2.479000000000000000e+03 7.405941772460937500e+01 2.949741601943969727e+00 -3.551825881004333496e-01 7.626031398773193359e+00 2.181254625320434570e+00 -5.971247553825378418e-01
2.480000000000000000e+03 7.449954986572265625e+01 -1.702594375610351562e+01 5.517941713333129883e-01 7.804156780242919922e+00 2.506785154342651367e+00 7.618680596351623535e-01
2.481000000000000000e+03 1.271659755706787109e+01 1.942900466918945312e+01 -8.278598077595233917e-03 -3.112829988822340965e-03 -3.417428350076079369e-03 6.904631736688315868e-04
2.482000000000000000e+03 5.443371582031250000e+01 2.796981620788574219e+01 -2.451165765523910522e-01 5.920805037021636963e-02 -5.577255785465240479e-02 3.407497704029083252e-01
2.483000000000000000e+03 7.575167846679687500e+01 1.010669326782226562e+01 -1.460978537797927856e-01 7.809177398681640625e+00 2.298923730850219727e+00 -1.153773307800292969e+00
2.484000000000000000e+03 4.133203506469726562e+01 -8.103626251220703125e+00 -4.795499742031097412e-01 1.383865475654602051e-01 -1.023490279912948608e-01 -4.690906032919883728e-02
2.485000000000000000e+03 4.126679611206054688e+01 -6.774422168731689453e+00 -8.426931500434875488e-01 5.263321846723556519e-02 -2.370179742574691772e-01 -1.157714203000068665e-01
2.486000000000000000e+03 7.418280029296875000e+01 -6.258221626281738281e+00 -4.579120874404907227e-01 7.720222473144531250e+00 2.178693056106567383e+00 5.973138287663459778e-02
2.487000000000000000e+03 7.304489135742187500e+01 -6.410569667816162109e+00 -5.906284451484680176e-01 7.302779674530029297e+00 2.013645410537719727e+00 2.234078943729400635e-02
2.488000000000000000e+03 7.448167419433593750e+01 2.538737678527832031e+01 -6.973476409912109375e-01 8.623646736145019531e+00 2.377889871597290039e+00 1.228715538978576660e+00
2.489000000000000000e+03 5.028151988983154297e+00 -9.096155166625976562e+00 -9.039275348186492920e-02 9.084647172130644321e-04 -2.684528753161430359e-02 6.469789147377014160e-02
2.490000000000000000e+03 7.336445808410644531e+00 2.296913909912109375e+01 -5.783125758171081543e-03 -4.132511094212532043e-03 -2.974691102281212807e-03 4.033186007291078568e-03
2.491000000000000000e+03 7.461233615875244141e+00 2.411428642272949219e+01 -6.320361513644456863e-03 -5.576346535235643387e-03 -3.569012507796287537e-03 6.038638297468423843e-03
2.492000000000000000e+03 7.231041717529296875e+01 -2.074796485900878906e+01 1.128747224807739258e+00 7.893037319183349609e+00 2.706535339355468750e+00 2.762120217084884644e-02
2.493000000000000000e+03 4.295677947998046875e+01 2.107494163513183594e+01 -3.511223196983337402e-01 1.271471232175827026e-01 -6.719256192445755005e-02 7.536676526069641113e-02
2.494000000000000000e+03 7.260812377929687500e+01 -8.299420356750488281e+00 -7.665773034095764160e-01 7.290304660797119141e+00 1.957118272781372070e+00 1.971428841352462769e-01
2.495000000000000000e+03 7.329972076416015625e+01 -8.458014130592346191e-01 -3.551432192325592041e-01 7.205840587615966797e+00 2.055209159851074219e+00 -3.603498041629791260e-01
2.496000000000000000e+03 6.078909873962402344e+00 -2.585947036743164062e+01 1.516307145357131958e-01 -4.116469621658325195e-01 -7.800487428903579712e-02 -2.320105731487274170e-01
2.497000000000000000e+03 7.315264129638671875e+01 -2.319626235961914062e+01 4.547551572322845459e-01 7.723927974700927734e+00 2.453604936599731445e+00 -3.133320212364196777e-01
2.498000000000000000e+03 7.356300354003906250e+01 -2.439923667907714844e+01 2.153567075729370117e-01 7.570909976959228516e+00 2.335880041122436523e+00 -3.377862572669982910e-01
2.499000000000000000e+03 7.257122039794921875e+00 -1.422469043731689453e+01 -3.142087757587432861e-01 -1.806844919919967651e-01 -1.484679728746414185e-01 -2.389433234930038452e-01
2.500000000000000000e+03 1.493750572204589844e+01 1.825876426696777344e+01 -2.272156532853841782e-03 -3.133051563054323196e-03 -1.621562405489385128e-03 -5.358919734135270119e-04
2.501000000000000000e+03 6.902632141113281250e+01 2.414811515808105469e+01 -1.007206082344055176e+00 7.815891742706298828e+00 2.042605638504028320e+00 -2.405426979064941406e+00
2.502000000000000000e+03 6.710875701904296875e+01 2.233919143676757812e+01 3.658838272094726562e-01 2.961194276809692383e+00 9.981234669685363770e-01 -2.384808301925659180e+00
2.503000000000000000e+03 7.460144042968750000e+00 6.645979404449462891e+00 7.815874414518475533e-04 -3.093700797762721777e-04 1.416652085026726127e-04 -3.129616088699549437e-04
2.504000000000000000e+03 6.963123321533203125e+01 2.409413528442382812e+01 -1.222340464591979980e+00 8.788455963134765625e+00 2.269834756851196289e+00 -1.856905221939086914e+00
2.505000000000000000e+03 6.876545715332031250e+01 2.286346435546875000e+01 -4.754530489444732666e-01 7.775268554687500000e+00 2.189944744110107422e+00 -3.044275045394897461e+00
2.506000000000000000e+03 6.902946472167968750e+01 2.344446182250976562e+01 -8.348637819290161133e-01 8.161195755004882812e+00 2.197899580001831055e+00 -2.651273250579833984e+00
2.507000000000000000e+03 6.765421295166015625e+01 2.557279777526855469e+01 -7.545540332794189453e-01 5.407547473907470703e+00 1.395897984504699707e+00 -2.212932586669921875e+00
2.508000000000000000e+03 6.596019268035888672e+00 5.712793827056884766e+00 5.743472720496356487e-04 -1.284122408833354712e-04 1.337805151706561446e-04 -4.280403372831642628e-04
2.509000000000000000e+03 1.477029991149902344e+01 4.599704742431640625e+00 4.883129731751978397e-04 2.081357088172808290e-04 2.089346089633181691e-04 5.077082896605134010e-04
2.510000000000000000e+03 1.141172504425048828e+01 -8.190147399902343750e+00 -1.987326294183731079e-01 -2.767529487609863281e-01 -1.426456868648529053e-01 -4.600394144654273987e-02
2.511000000000000000e+03 9.381569862365722656e+00 -6.191470623016357422e+00 -4.281910136342048645e-02 -1.347024440765380859e-01 -5.325646325945854187e-02 5.710871517658233643e-02
2.512000000000000000e+03 1.006342220306396484e+01 -6.625629901885986328e+00 -9.161040931940078735e-02 -1.771962195634841919e-01 -8.064199239015579224e-02 2.993783913552761078e-02
2.513000000000000000e+03 9.948778152465820312e+00 6.371210575103759766e+00 4.947778652422130108e-04 -6.645823596045374870e-04 -5.094135121908038855e-05 1.868669642135500908e-04
2.514000000000000000e+03 1.644669151306152344e+01 -8.112838745117187500e+00 -3.527004718780517578e-01 -2.172489166259765625e-01 -1.709848195314407349e-01 -3.985234200954437256e-01
2.515000000000000000e+03 1.182156562805175781e+01 -7.419663906097412109e+00 -1.677499413490295410e-01 -2.608759403228759766e-01 -1.285877674818038940e-01 -5.995610356330871582e-02
2.516000000000000000e+03 1.224487495422363281e+01 -8.483829498291015625e+00 -2.674701809883117676e-01 -3.313854932785034180e-01 -1.796566992998123169e-01 -1.136522665619850159e-01
2.517000000000000000e+03 1.707973480224609375e+01 -7.547850608825683594e+00 -3.249379992485046387e-01 -9.980789572000503540e-02 -1.274237632751464844e-01 -4.127073884010314941e-01
2.518000000000000000e+03 1.090055084228515625e+01 5.098093509674072266e+00 5.882583791390061378e-04 -9.924246842274442315e-05 1.467047841288149357e-04 -7.040071068331599236e-06
2.519000000000000000e+03 1.274553012847900391e+01 5.327508449554443359e+00 3.670626319944858551e-04 -3.016832342837005854e-04 1.961381713044829667e-05 3.983281494583934546e-04
2.520000000000000000e+03 1.031364727020263672e+01 5.311975479125976562e+00 5.120960995554924011e-04 -5.578882410190999508e-04 -1.373764644085895270e-05 2.202261530328541994e-04
2.521000000000000000e+03 2.274023437500000000e+01 -8.560791969299316406e+00 -4.650645852088928223e-01 2.256287336349487305e-01 -7.183074951171875000e-02 -4.434166848659515381e-01
2.522000000000000000e+03 2.102929115295410156e+01 -7.600089073181152344e+00 -4.958715736865997314e-01 1.691242009401321411e-01 -9.802420437335968018e-02 -4.076309204101562500e-01
2.523000000000000000e+03 1.238526916503906250e+01 -5.210353374481201172e+00 -1.309729367494583130e-02 -1.377841681241989136e-01 -4.526443779468536377e-02 -5.303268879652023315e-02
2.524000000000000000e+03 1.080891132354736328e+01 -5.559182643890380859e+00 -2.145102433860301971e-02 -1.412028074264526367e-01 -4.879614710807800293e-02 9.804994799196720123e-03
2.525000000000000000e+03 7.049874114990234375e+01 1.580137538909912109e+01 -4.592894613742828369e-01 1.256327438354492188e+01 3.631195545196533203e+00 1.508728384971618652e+00
2.526000000000000000e+03 4.616984939575195312e+01 -4.901744842529296875e+00 -9.275751709938049316e-01 7.872819304466247559e-01 -4.208796098828315735e-02 2.041694149374961853e-02
2.527000000000000000e+03 4.795383834838867188e+01 -4.884703159332275391e+00 -8.051220774650573730e-01 8.257944583892822266e-01 6.201716605573892593e-03 2.649070918560028076e-01
2.528000000000000000e+03 5.162234783172607422e+00 -7.023000717163085938e+00 -3.800429031252861023e-02 2.680076053366065025e-03 -1.059726346284151077e-02 1.078569740056991577e-01
2.529000000000000000e+03 1.953626632690429688e+01 -7.331740379333496094e+00 -4.018580317497253418e-01 7.529871165752410889e-02 -9.796779602766036987e-02 -4.113021492958068848e-01
2.530000000000000000e+03 5.367010593414306641e+00 7.986636638641357422e+00 2.916904340963810682e-04 -2.806717820931226015e-04 3.305600557723664679e-06 -5.209879600442945957e-04
2.531000000000000000e+03 7.134478759765625000e+01 1.422809410095214844e+01 5.073516815900802612e-02 1.078951549530029297e+01 3.252074956893920898e+00 5.873818993568420410e-01
2.532000000000000000e+03 7.320731353759765625e+01 -2.216548728942871094e+01 7.570859789848327637e-01 7.688105106353759766e+00 2.533557415008544922e+00 -2.118588387966156006e-01
2.533000000000000000e+03 2.016711616516113281e+01 -6.869521617889404297e+00 -4.401435852050781250e-01 1.182405054569244385e-01 -9.657092392444610596e-02 -3.837499618530273438e-01
2.534000000000000000e+03 1.834348297119140625e+01 -7.486949920654296875e+00 -3.677530884742736816e-01 -1.412457553669810295e-03 -1.107496693730354309e-01 -4.286713302135467529e-01
2.535000000000000000e+03 6.192494869232177734e+00 -7.218282222747802734e+00 -6.477750092744827271e-02 -4.309003427624702454e-02 -3.236025944352149963e-02 1.020605862140655518e-01
2.536000000000000000e+03 8.150214195251464844e+00 -6.625746726989746094e+00 -5.284491181373596191e-02 -1.038180813193321228e-01 -4.699889943003654480e-02 8.201206475496292114e-02
2.537000000000000000e+03 6.694184875488281250e+01 2.355989837646484375e+01 -1.643621027469635010e-01 3.619508981704711914e+00 1.036544084548950195e+00 -2.433400869369506836e+00
2.538000000000000000e+03 1.047416591644287109e+01 -6.057298183441162109e+00 -4.355243965983390808e-02 -1.578143835067749023e-01 -6.041004508733749390e-02 1.571994461119174957e-02
2.539000000000000000e+03 7.467741394042968750e+01 1.950586891174316406e+01 2.211906433105468750e+00 8.376484870910644531e+00 3.176517486572265625e+00 3.752908110618591309e-01
2.540000000000000000e+03 1.483562946319580078e+01 5.430588245391845703e+00 -1.111757956095971167e-04 -6.200358620844781399e-05 -5.195381527300924063e-05 1.528115099063143134e-04
2.541000000000000000e+03 2.447453498840332031e+01 -7.976059913635253906e+00 -6.144570112228393555e-01 2.544637620449066162e-01 -1.079979836940765381e-01 -4.617341160774230957e-01
2.542000000000000000e+03 2.343235969543457031e+01 -8.132354736328125000e+00 -5.588511228561401367e-01 2.593642175197601318e-01 -8.984606713056564331e-02 -4.329769313335418701e-01
2.543000000000000000e+03 7.377341461181640625e+01 2.291974258422851562e+01 5.570847168564796448e-02 9.562757492065429688e+00 2.885539770126342773e+00 1.633506894111633301e+00
2.544000000000000000e+03 2.503191184997558594e+01 -8.871020317077636719e+00 -5.076872706413269043e-01 2.446827292442321777e-01 -7.890137284994125366e-02 -5.088213086128234863e-01
2.545000000000000000e+03 4.883967208862304688e+01 -4.274857521057128906e+00 -8.456926941871643066e-01 6.834485530853271484e-01 -4.867324605584144592e-02 3.694628477096557617e-01
2.546000000000000000e+03 4.514277267456054688e+01 -4.225955963134765625e+00 -1.075133681297302246e+00 6.527987122535705566e-01 -1.267004907131195068e-01 -9.203474968671798706e-02
2.547000000000000000e+03 7.281498718261718750e+01 2.661264419555664062e+00 -4.076163470745086670e-01 7.239024639129638672e+00 2.049422502517700195e+00 -5.117461681365966797e-01
2.548000000000000000e+03 7.246405029296875000e+01 9.177811145782470703e-01 -3.888665437698364258e-01 6.967547416687011719e+00 1.973604321479797363e+00 -4.122342765331268311e-01
2.549000000000000000e+03 7.335166168212890625e+01 3.379205226898193359e+00 -3.708814084529876709e-01 7.528079032897949219e+00 2.147159337997436523e+00 -5.895533561706542969e-01
2.550000000000000000e+03 6.077292919158935547e+00 -8.160946846008300781e+00 -9.197382628917694092e-02 -4.077689722180366516e-02 -3.982521966099739075e-02 8.421793580055236816e-02
2.551000000000000000e+03 8.888072013854980469e+00 -1.134439373016357422e+01 -3.501322567462921143e-01 -2.409687340259552002e-01 -1.773303002119064331e-01 -7.286186516284942627e-02
2.552000000000000000e+03 5.121026992797851562e+00 -1.017815971374511719e+01 -1.344136744737625122e-01 -7.242288906127214432e-03 -4.249678924679756165e-02 2.293948270380496979e-02
2.553000000000000000e+03 1.155895328521728516e+01 -9.066706657409667969e+00 -2.974857985973358154e-01 -3.307084739208221436e-01 -1.884582787752151489e-01 -8.611040562391281128e-02
2.554000000000000000e+03 7.170222473144531250e+01 -6.511547565460205078e+00 -7.328972220420837402e-01 6.753495693206787109e+00 1.806179523468017578e+00 -8.590122312307357788e-02
2.555000000000000000e+03 7.508664703369140625e+01 2.044877052307128906e+01 1.593950867652893066e+00 8.128850936889648438e+00 2.916840553283691406e+00 9.854715466499328613e-01
2.556000000000000000e+03 6.124308395385742188e+01 -3.585689306259155273e+00 4.759685322642326355e-02 8.405919075012207031e-01 2.664566338062286377e-01 2.600535452365875244e-01
2.557000000000000000e+03 6.176381301879882812e+01 -2.453276157379150391e+00 1.188233047723770142e-01 1.105653762817382812e+00 3.673431277275085449e-01 2.659773826599121094e-01
2.558000000000000000e+03 1.498471736907958984e+01 -8.811239242553710938e+00 -3.485935032367706299e-01 -3.417989909648895264e-01 -2.071177512407302856e-01 -3.076569437980651855e-01
2.559000000000000000e+03 7.267036437988281250e+01 1.440582084655761719e+01 2.094395831227302551e-02 1.034955406188964844e+01 3.111149311065673828e+00 -4.756802320480346680e-01
2.560000000000000000e+03 7.265437316894531250e+01 1.256574535369873047e+01 -2.063242346048355103e-02 9.400949478149414062e+00 2.814095258712768555e+00 -5.062561631202697754e-01
2.561000000000000000e+03 7.303608703613281250e+01 -1.226182746887207031e+01 -4.507150053977966309e-01 7.891041755676269531e+00 2.232098102569580078e+00 8.677908778190612793e-01
2.562000000000000000e+03 4.042529678344726562e+01 -1.269091510772705078e+01 5.059850811958312988e-01 1.481820940971374512e-01 1.962501555681228638e-01 4.743314906954765320e-02
2.563000000000000000e+03 7.346499443054199219e+00 9.543980598449707031e+00 8.246328216046094894e-04 -1.018254668451845646e-03 -5.808655623695813119e-05 -4.384800558909773827e-04
2.564000000000000000e+03 6.802716255187988281e+00 1.035771560668945312e+01 6.568031967617571354e-04 -5.972841172479093075e-04 1.785573476809076965e-05 -1.031761872582137585e-03
2.565000000000000000e+03 7.220316314697265625e+01 9.479343414306640625e+00 -2.173831015825271606e-01 8.359976768493652344e+00 2.442777872085571289e+00 -6.491359472274780273e-01
2.566000000000000000e+03 7.322698974609375000e+01 8.872638702392578125e+00 -2.716131210327148438e-01 8.187046051025390625e+00 2.374629974365234375e+00 -8.758161067962646484e-01
2.567000000000000000e+03 7.331056976318359375e+01 2.552096366882324219e+01 -1.035411953926086426e+00 8.884271621704101562e+00 2.354657888412475586e+00 7.562134861946105957e-01
2.568000000000000000e+03 6.396938800811767578e+00 -2.048909187316894531e+01 4.049623012542724609e-02 -3.183321952819824219e-01 -8.335078507661819458e-02 -4.230827689170837402e-01
2.569000000000000000e+03 1.259652042388916016e+01 8.093371391296386719e+00 6.396454991772770882e-04 -7.228768081404268742e-04 -2.496938395779579878e-05 6.946017965674400330e-04
2.570000000000000000e+03 7.394650268554687500e+01 1.769288825988769531e+01 1.954499363899230957e+00 9.411642074584960938e+00 3.409842491149902344e+00 -8.992095589637756348e-01
2.571000000000000000e+03 5.320544052124023438e+01 -3.299521446228027344e+00 -4.318968057632446289e-01 -5.862375348806381226e-02 -1.471561640501022339e-01 7.969574332237243652e-01
2.572000000000000000e+03 1.067389106750488281e+01 -9.651456832885742188e+00 -3.035735785961151123e-01 -3.106869459152221680e-01 -1.842781603336334229e-01 -5.328595265746116638e-02
2.573000000000000000e+03 4.038158798217773438e+01 -2.212164688110351562e+01 1.653111129999160767e-01 5.496003627777099609e-01 2.144734412431716919e-01 -2.124717086553573608e-02
2.574000000000000000e+03 4.477857208251953125e+01 -6.749983787536621094e+00 -6.690733432769775391e-01 8.226743936538696289e-01 4.608032107353210449e-02 3.575709834694862366e-02
2.575000000000000000e+03 2.279500389099121094e+01 -9.553088188171386719e+00 -4.259877204895019531e-01 2.198246717453002930e-01 -6.184891611337661743e-02 -4.465734362602233887e-01
2.576000000000000000e+03 6.699707794189453125e+01 2.637980079650878906e+01 -4.889269769191741943e-01 4.379627227783203125e+00 1.167209982872009277e+00 -1.897529602050781250e+00
2.577000000000000000e+03 3.590497970581054688e+01 -1.148529434204101562e+01 2.944739162921905518e-01 -3.018452823162078857e-01 -2.211405197158455849e-03 -2.668795548379421234e-02
2.578000000000000000e+03 3.762195968627929688e+01 -1.265049839019775391e+01 5.953103303909301758e-01 -2.562382221221923828e-01 1.017216220498085022e-01 -1.576605136506259441e-03
2.579000000000000000e+03 6.484785461425781250e+01 -6.742714881896972656e+00 -4.736908078193664551e-01 2.040580272674560547e+00 4.700668752193450928e-01 -3.058183789253234863e-01
2.580000000000000000e+03 6.349946594238281250e+01 -5.668656349182128906e+00 -2.397283166646957397e-01 1.626078486442565918e+00 4.159050583839416504e-01 -1.986534334719181061e-02
2.581000000000000000e+03 2.573076057434082031e+01 -8.029826164245605469e+00 -7.035691738128662109e-01 2.134155184030532837e-01 -1.470461040735244751e-01 -4.243344068527221680e-01
2.582000000000000000e+03 6.226740646362304688e+01 -5.883551120758056641e+00 -2.903768122196197510e-01 9.487848281860351562e-01 1.975224018096923828e-01 1.610455363988876343e-01
2.583000000000000000e+03 6.369614791870117188e+01 -6.988210201263427734e+00 -4.892958104610443115e-01 1.450485229492187500e+00 2.883568108081817627e-01 -1.169774532318115234e-01
2.584000000000000000e+03 7.349093627929687500e+01 1.214281845092773438e+01 -4.279932379722595215e-02 8.944396018981933594e+00 2.670479059219360352e+00 -8.184349536895751953e-01
2.585000000000000000e+03 7.434882354736328125e+01 1.199207687377929688e+01 -1.142156347632408142e-01 8.552176475524902344e+00 2.531388282775878906e+00 -1.084750533103942871e+00
2.586000000000000000e+03 3.820964813232421875e+01 -9.963961601257324219e+00 -1.051714047789573669e-01 -2.358036190271377563e-01 -1.022925078868865967e-01 -6.810509413480758667e-02
2.587000000000000000e+03 4.582677841186523438e+01 -1.287274456024169922e+01 6.377535462379455566e-01 1.878151059150695801e+00 7.547714114189147949e-01 6.787641048431396484e-01
2.588000000000000000e+03 7.417079925537109375e+01 -1.275397300720214844e+01 -2.293703854084014893e-01 8.009743690490722656e+00 2.334112167358398438e+00 9.562304019927978516e-01
2.589000000000000000e+03 7.067012023925781250e+01 2.506465530395507812e+01 -1.451151013374328613e+00 8.976848602294921875e+00 2.257709264755249023e+00 -8.779238462448120117e-01
2.590000000000000000e+03 4.004985046386718750e+01 -2.050782012939453125e+01 2.915966510772705078e-01 4.772351682186126709e-01 2.306495457887649536e-01 -1.325266659259796143e-01
2.591000000000000000e+03 7.054450225830078125e+01 4.928568840026855469e+00 -5.115259885787963867e-01 6.822698593139648438e+00 1.893351793289184570e+00 -1.827144473791122437e-01
2.592000000000000000e+03 4.402902603149414062e+01 -1.009867477416992188e+01 2.039122730493545532e-01 8.484696745872497559e-01 3.157145678997039795e-01 2.029583156108856201e-01
2.593000000000000000e+03 4.174687957763671875e+01 -1.357244682312011719e+01 5.842768549919128418e-01 5.041714906692504883e-01 3.265345096588134766e-01 1.016786321997642517e-01
2.594000000000000000e+03 1.418291378021240234e+01 5.845911979675292969e+00 5.773243610747158527e-04 -1.595810463186353445e-04 1.253229856956750154e-04 6.258413777686655521e-04
2.595000000000000000e+03 6.852792263031005859e+00 1.579286956787109375e+01 -2.774605818558484316e-04 -1.582690398208796978e-03 -5.580452852882444859e-04 -1.336803776212036610e-03
2.596000000000000000e+03 8.324877738952636719e+00 -1.931592750549316406e+01 -2.711877785623073578e-02 -3.129186630249023438e-01 -1.020112335681915283e-01 -4.741255342960357666e-01
2.597000000000000000e+03 4.631896972656250000e+01 -3.527275323867797852e+00 -1.065572142601013184e+00 6.545389294624328613e-01 -1.233099624514579773e-01 -5.096295475959777832e-02
2.598000000000000000e+03 4.698580932617187500e+01 -4.141111850738525391e+00 -9.734169244766235352e-01 7.270523309707641602e-01 -7.390937209129333496e-02 7.824813574552536011e-02
2.599000000000000000e+03 7.050446319580078125e+01 3.466095447540283203e+00 -4.883268773555755615e-01 6.559377670288085938e+00 1.821315169334411621e+00 -2.035124450922012329e-01
2.600000000000000000e+03 2.510069274902343750e+01 -8.147816658020019531e+00 -7.195988893508911133e-01 2.698741853237152100e-01 -1.349174082279205322e-01 -4.179231226444244385e-01
2.601000000000000000e+03 7.320540618896484375e+01 -3.324455976486206055e+00 -4.043119847774505615e-01 7.212287902832031250e+00 2.042392730712890625e+00 -2.215062230825424194e-01
2.602000000000000000e+03 3.894815063476562500e+01 -1.548408699035644531e+01 7.842151522636413574e-01 -4.982179403305053711e-02 2.203180044889450073e-01 -1.470905542373657227e-01
2.603000000000000000e+03 6.599467754364013672e+00 1.678749656677246094e+01 -7.112739840522408485e-04 -1.308324979618191719e-03 -6.058797007426619530e-04 -1.413547317497432232e-03
2.604000000000000000e+03 3.453460693359375000e+01 -9.601885795593261719e+00 -4.201457202434539795e-01 -3.224030435085296631e-01 -2.227646261453628540e-01 -1.288437694311141968e-01
2.605000000000000000e+03 1.283820629119873047e+01 1.489038276672363281e+01 7.229759357869625092e-04 -2.460768911987543106e-03 -5.213379045017063618e-04 3.617191687226295471e-04
2.606000000000000000e+03 1.306932640075683594e+01 1.646098709106445312e+01 2.173081738874316216e-04 -3.505550324916839600e-03 -9.864727035164833069e-04 -2.831897108990233392e-05
2.607000000000000000e+03 7.038074493408203125e+01 7.420935153961181641e+00 -4.150582551956176758e-01 7.518816471099853516e+00 2.131127595901489258e+00 -1.208408549427986145e-01
2.608000000000000000e+03 6.988835906982421875e+01 5.868639469146728516e+00 -5.008655190467834473e-01 6.803410530090332031e+00 1.890763521194458008e+00 -6.231532990932464600e-02
2.609000000000000000e+03 8.242222785949707031e+00 -2.836394119262695312e+01 1.878264397382736206e-01 -2.757562696933746338e-01 -2.637894637882709503e-02 -1.535432636737823486e-01
2.610000000000000000e+03 4.264579772949218750e+01 -8.127762794494628906e+00 -3.709436058998107910e-01 4.079922437667846680e-01 1.111459545791149139e-02 1.075052935630083084e-02
2.611000000000000000e+03 4.120582199096679688e+01 2.058625984191894531e+01 -2.916908860206604004e-01 9.821824729442596436e-02 -5.804178863763809204e-02 7.845538109540939331e-02
2.612000000000000000e+03 4.346620178222656250e+01 1.942288208007812500e+01 -3.249661922454833984e-01 1.063285991549491882e-01 -6.559127569198608398e-02 2.627788111567497253e-02
2.613000000000000000e+03 3.993236160278320312e+01 -1.689891815185546875e+01 6.364138126373291016e-01 2.794774770736694336e-01 2.747673988342285156e-01 -1.593521684408187866e-01
2.614000000000000000e+03 4.037637710571289062e+01 -1.458135604858398438e+01 6.814450025558471680e-01 2.385603487491607666e-01 2.760016024112701416e-01 -2.641348913311958313e-02
2.615000000000000000e+03 6.900978088378906250e+01 -5.432172775268554688e+00 -6.296419501304626465e-01 5.135731697082519531e+00 1.351827025413513184e+00 -3.625428676605224609e-01
2.616000000000000000e+03 6.825115966796875000e+01 -6.512088298797607422e+00 -7.763660550117492676e-01 4.735195636749267578e+00 1.187648773193359375e+00 -4.282106161117553711e-01
2.617000000000000000e+03 1.316336631774902344e+01 1.274007797241210938e+01 1.028834609314799309e-03 -2.203189767897129059e-03 -3.523065533954650164e-04 1.284446683712303638e-03
2.618000000000000000e+03 1.262830352783203125e+01 1.101839733123779297e+01 6.533918203786015511e-04 -1.289749634452164173e-03 -1.909073616843670607e-04 1.069671823643147945e-03
2.619000000000000000e+03 3.224434375762939453e+00 -2.738448715209960938e+01 4.747668653726577759e-02 -6.140290498733520508e-01 -1.699657142162322998e-01 -1.181826069951057434e-01
2.620000000000000000e+03 7.402732086181640625e+01 -2.277845764160156250e+01 4.990657866001129150e-01 7.558956146240234375e+00 2.417406558990478516e+00 -2.521021366119384766e-01
2.621000000000000000e+03 1.313686180114746094e+01 2.038486480712890625e+01 -1.201900746673345566e-02 -4.464294295758008957e-03 -4.944990389049053192e-03 1.951863407157361507e-03
2.622000000000000000e+03 1.188342666625976562e+01 2.080565071105957031e+01 -1.147210225462913513e-02 -3.228883258998394012e-03 -4.410295747220516205e-03 2.699686679989099503e-03
2.623000000000000000e+03 7.254279327392578125e+01 -3.230404663085937500e+01 -2.518768608570098877e-01 6.449449062347412109e+00 1.859271645545959473e+00 1.286868453025817871e-01
2.624000000000000000e+03 9.701208114624023438e+00 -1.043454170227050781e+01 -3.383105695247650146e-01 -2.774951756000518799e-01 -1.847417354583740234e-01 -5.332980304956436157e-02
2.625000000000000000e+03 4.510649490356445312e+01 -7.826088905334472656e+00 -3.655947446823120117e-01 9.136309027671813965e-01 1.644108444452285767e-01 1.171413362026214600e-01
2.626000000000000000e+03 4.631049346923828125e+01 -2.963510131835937500e+01 -9.076295420527458191e-03 9.987427592277526855e-01 2.968999445438385010e-01 -1.718345433473587036e-01
2.627000000000000000e+03 3.236481857299804688e+01 -1.039858055114746094e+01 -1.289299130439758301e-01 -2.115401178598403931e-01 -1.021410077810287476e-01 -2.709356248378753662e-01
2.628000000000000000e+03 7.951153278350830078e+00 2.536213493347167969e+01 -7.590098306536674500e-03 -7.555563002824783325e-03 -4.543698392808437347e-03 9.146625176072120667e-03
2.629000000000000000e+03 7.453002929687500000e+01 -1.432024669647216797e+01 7.045094668865203857e-02 7.963262081146240234e+00 2.410114049911499023e+00 9.995173215866088867e-01
2.630000000000000000e+03 4.391312408447265625e+01 -7.975225925445556641e+00 -3.876205682754516602e-01 7.385871410369873047e-01 1.052899733185768127e-01 5.162550508975982666e-02
2.631000000000000000e+03 4.108106994628906250e+01 -9.397732734680175781e+00 -1.280325055122375488e-01 1.360398530960083008e-01 2.402205718681216240e-03 6.593227386474609375e-03
2.632000000000000000e+03 7.295526123046875000e+01 -9.765623092651367188e+00 -7.617914676666259766e-01 7.611195087432861328e+00 2.054821014404296875e+00 4.677431285381317139e-01
2.633000000000000000e+03 7.172885131835937500e+01 -7.808721065521240234e+00 -8.553809523582458496e-01 6.852584362030029297e+00 1.799160957336425781e+00 -9.214970283210277557e-03
2.634000000000000000e+03 6.446437835693359375e+01 -2.592388689517974854e-01 3.832851722836494446e-02 2.599609613418579102e+00 7.913814187049865723e-01 2.966389656066894531e-01
2.635000000000000000e+03 3.450464248657226562e+01 2.399116134643554688e+01 -1.792926937341690063e-01 -3.197706118226051331e-02 -6.338092684745788574e-02 1.160719916224479675e-01
2.636000000000000000e+03 7.137432098388671875e+01 -5.236525058746337891e+00 -6.368287801742553711e-01 6.418631076812744141e+00 1.734540700912475586e+00 -2.152254730463027954e-01
2.637000000000000000e+03 5.968700027465820312e+01 -4.475531101226806641e+00 -1.054078117012977600e-01 3.162215650081634521e-01 6.324412673711776733e-02 3.859026134014129639e-01
2.638000000000000000e+03 5.110367202758789062e+01 3.073067283630371094e+01 1.190850511193275452e-01 7.503516227006912231e-02 5.823606252670288086e-02 3.787661492824554443e-01
2.639000000000000000e+03 6.725439548492431641e+00 1.354413127899169922e+01 6.474478286691009998e-04 -1.151065458543598652e-03 -1.510852744104340672e-04 -1.356314402073621750e-03
2.640000000000000000e+03 8.311490058898925781e+00 1.169364547729492188e+01 1.209096983075141907e-03 -1.466857967898249626e-03 -7.732832455076277256e-05 -8.865711279213428497e-04
2.641000000000000000e+03 7.271224975585937500e+01 5.605795383453369141e+00 -4.614789485931396484e-01 7.579935550689697266e+00 2.135536909103393555e+00 -6.438285708427429199e-01
2.642000000000000000e+03 6.935090637207031250e+01 -3.311299896240234375e+01 -2.124646753072738647e-01 5.248256683349609375e+00 1.510737538337707520e+00 5.091416835784912109e-01
2.643000000000000000e+03 3.926265335083007812e+01 -3.170136833190917969e+01 1.619387567043304443e-01 3.122849762439727783e-01 1.422671228647232056e-01 1.525013893842697144e-01
2.644000000000000000e+03 6.766336822509765625e+01 1.825610995292663574e+00 -3.052223920822143555e-01 4.685155391693115234e+00 1.313979864120483398e+00 2.258866578340530396e-01
2.645000000000000000e+03 6.584261322021484375e+01 1.107506871223449707e+00 -1.099213808774948120e-01 3.499678850173950195e+00 1.016927242279052734e+00 3.451474905014038086e-01
2.646000000000000000e+03 1.015272903442382812e+01 -2.811693572998046875e+01 2.389608323574066162e-01 -1.378030031919479370e-01 3.034734725952148438e-02 -1.635084003210067749e-01
2.647000000000000000e+03 6.313296127319335938e+01 -9.112376570701599121e-01 1.734276264905929565e-01 1.781815171241760254e+00 5.865728259086608887e-01 2.935511171817779541e-01
2.648000000000000000e+03 4.567908096313476562e+01 1.806330490112304688e+01 -3.035492002964019775e-01 7.358907163143157959e-02 -6.898803263902664185e-02 -4.857796803116798401e-02
2.649000000000000000e+03 7.566133880615234375e+01 -3.711311340332031250e+00 -2.511943578720092773e-01 8.229124069213867188e+00 2.393378973007202148e+00 -1.210147067904472351e-01
2.650000000000000000e+03 6.797308349609375000e+01 2.263328170776367188e+01 9.932775795459747314e-02 5.421633720397949219e+00 1.656288385391235352e+00 -3.180516719818115234e+00
2.651000000000000000e+03 1.175691604614257812e+01 5.978616237640380859e+00 5.448632873594760895e-04 -3.568670072127133608e-04 5.639888331643305719e-05 2.915789082180708647e-04
2.652000000000000000e+03 9.146172523498535156e+00 6.612287044525146484e+00 1.021121628582477570e-03 -4.952353192493319511e-04 1.577659131726250052e-04 -2.304989175172522664e-04
2.653000000000000000e+03 7.404187774658203125e+01 1.706113052368164062e+01 1.394399285316467285e+00 9.545796394348144531e+00 3.282058954238891602e+00 -1.102742910385131836e+00
2.654000000000000000e+03 1.260169601440429688e+01 6.826687335968017578e+00 3.775206860154867172e-04 -5.231137620285153389e-04 -4.367791916592977941e-05 4.811642575077712536e-04
2.655000000000000000e+03 7.897164344787597656e+00 -8.503703117370605469e+00 -1.461944431066513062e-01 -1.330935209989547729e-01 -8.378639072179794312e-02 5.242597311735153198e-02
2.656000000000000000e+03 1.074234485626220703e+01 -7.011401653289794922e+00 -1.158351302146911621e-01 -2.074751108884811401e-01 -9.699307382106781006e-02 -5.224314983934164047e-03
2.657000000000000000e+03 7.230864715576171875e+01 1.554815959930419922e+01 9.292952716350555420e-02 1.143926811218261719e+01 3.459659337997436523e+00 -5.105833411216735840e-01
2.658000000000000000e+03 7.154578399658203125e+01 1.603897857666015625e+01 -1.811497509479522705e-01 1.266850566864013672e+01 3.746206998825073242e+00 1.110417097806930542e-01
2.659000000000000000e+03 1.432073211669921875e+01 -7.289773464202880859e+00 -2.050354033708572388e-01 -2.538137137889862061e-01 -1.376547366380691528e-01 -2.220078110694885254e-01
2.660000000000000000e+03 1.575861072540283203e+01 -6.836138725280761719e+00 -2.347186058759689331e-01 -1.572709530591964722e-01 -1.175968647003173828e-01 -3.019970059394836426e-01
2.661000000000000000e+03 1.246659946441650391e+01 6.133224487304687500e+00 8.402141393162310123e-04 -2.793156309053301811e-04 1.682695437921211123e-04 2.876525395549833775e-04
2.662000000000000000e+03 7.395265102386474609e+00 7.407656669616699219e+00 5.323897348716855049e-04 -4.039376508444547653e-04 3.853562884614802897e-05 -4.950405564159154892e-04
2.663000000000000000e+03 8.350687026977539062e+00 -1.225797939300537109e+01 -3.712461888790130615e-01 -2.206342071294784546e-01 -1.775641143321990967e-01 -1.202289611101150513e-01
2.664000000000000000e+03 7.132133960723876953e+00 -7.392862796783447266e+00 -7.713621854782104492e-02 -8.341256529092788696e-02 -4.816463217139244080e-02 8.757700771093368530e-02
2.665000000000000000e+03 7.236142730712890625e+01 -5.654871940612792969e+00 -6.013135313987731934e-01 6.954284667968750000e+00 1.905891418457031250e+00 -8.431626856327056885e-02
2.666000000000000000e+03 1.138186168670654297e+01 -6.883086681365966797e+00 -1.194781139492988586e-01 -2.221317142248153687e-01 -1.024829447269439697e-01 -3.019100427627563477e-02
2.667000000000000000e+03 4.377423858642578125e+01 -3.514130592346191406e+00 -1.260029792785644531e+00 3.905245661735534668e-01 -2.608515620231628418e-01 -3.051352202892303467e-01
2.668000000000000000e+03 7.219680023193359375e+01 -1.946007537841796875e+01 1.269871950149536133e+00 8.014822959899902344e+00 2.785408496856689453e+00 4.779495596885681152e-01
2.669000000000000000e+03 7.317354583740234375e+01 1.138277530670166016e+01 -1.044564023613929749e-01 8.850530624389648438e+00 2.623822212219238281e+00 -7.701960802078247070e-01
2.670000000000000000e+03 7.219939422607421875e+01 2.523139572143554688e+01 -1.288629531860351562e+00 9.326841354370117188e+00 2.411463499069213867e+00 2.308192849159240723e-01
2.671000000000000000e+03 1.196630477905273438e+01 -6.336811542510986328e+00 -9.169480204582214355e-02 -2.052622139453887939e-01 -8.908710628747940063e-02 -5.419106408953666687e-02
2.672000000000000000e+03 6.849579620361328125e+01 2.490332984924316406e+01 -9.276605844497680664e-01 6.586036682128906250e+00 1.697512865066528320e+00 -2.390544891357421875e+00
2.673000000000000000e+03 4.012362670898437500e+01 -7.863196849822998047e+00 -6.102518439292907715e-01 -8.418667316436767578e-02 -2.083315551280975342e-01 -1.070777028799057007e-01
2.674000000000000000e+03 6.181223869323730469e+00 7.444605350494384766e+00 5.858977674506604671e-04 -3.888915307470597327e-05 1.641025883145630360e-04 -6.927683134563267231e-04
2.675000000000000000e+03 6.332961082458496094e+00 6.307190418243408203e+00 4.959365469403564930e-04 -2.463474629621487111e-05 1.413905411027371883e-04 -5.576541880145668983e-04
2.676000000000000000e+03 6.388605880737304688e+01 -3.794204473495483398e+00 -1.115557923913002014e-01 1.916235685348510742e+00 5.414039492607116699e-01 2.804462425410747528e-02
2.677000000000000000e+03 6.311357879638671875e+01 -4.610528945922851562e+00 -1.279961168766021729e-01 1.562893390655517578e+00 4.304691851139068604e-01 6.208315119147300720e-02
2.678000000000000000e+03 4.648522567749023438e+01 1.619883155822753906e+01 -1.706274300813674927e-01 2.169178053736686707e-02 -4.468069225549697876e-02 -6.646512448787689209e-02
2.679000000000000000e+03 7.092393493652343750e+01 6.430579662322998047e+00 -4.839278757572174072e-01 7.334880352020263672e+00 2.055285692214965820e+00 -2.928854525089263916e-01
2.680000000000000000e+03 7.181332397460937500e+01 4.467686653137207031e+00 -4.753789603710174561e-01 7.166807651519775391e+00 2.007428646087646484e+00 -4.702247381210327148e-01
2.681000000000000000e+03 6.902416992187500000e+01 3.497785806655883789e+00 -4.641582071781158447e-01 5.870295047760009766e+00 1.621841073036193848e+00 1.023516729474067688e-01
2.682000000000000000e+03 6.004235267639160156e+00 -9.083928108215332031e+00 -1.247527748346328735e-01 -4.025008529424667358e-02 -4.950085654854774475e-02 5.530170723795890808e-02
2.683000000000000000e+03 7.185003662109375000e+01 1.489397811889648438e+01 -7.966474443674087524e-02 1.129057979583740234e+01 3.363274574279785156e+00 1.545998305082321167e-01
2.684000000000000000e+03 4.718308639526367188e+01 -5.598951816558837891e+00 -7.624801397323608398e-01 9.482606649398803711e-01 5.573416501283645630e-02 2.175550460815429688e-01
2.685000000000000000e+03 1.239332485198974609e+01 -6.961071491241455078e+00 -1.394062787294387817e-01 -2.401065230369567871e-01 -1.138538420200347900e-01 -9.349592775106430054e-02
2.686000000000000000e+03 1.094805335998535156e+01 1.117893791198730469e+01 1.041095587424933910e-03 -2.120305085554718971e-03 -3.237628843635320663e-04 2.817935601342469454e-04
2.687000000000000000e+03 1.271778392791748047e+01 9.561058998107910156e+00 6.865946343168616295e-04 -9.266886045224964619e-04 -7.202819688245654106e-05 9.785365546122193336e-04
2.688000000000000000e+03 4.431701660156250000e+01 -4.747485160827636719e+00 -1.091666102409362793e+00 5.924602150917053223e-01 -1.497617512941360474e-01 -1.539978981018066406e-01
2.689000000000000000e+03 4.347554779052734375e+01 -5.776666641235351562e+00 -1.008092284202575684e+00 5.072444081306457520e-01 -1.502543538808822632e-01 -1.226384788751602173e-01
2.690000000000000000e+03 9.945733070373535156e+00 -8.758549690246582031e+00 -2.250746041536331177e-01 -2.488591074943542480e-01 -1.421801149845123291e-01 -1.007428113371133804e-02
2.691000000000000000e+03 2.192363739013671875e+01 -7.633933544158935547e+00 -5.006644725799560547e-01 2.053987234830856323e-01 -8.857972919940948486e-02 -4.026213288307189941e-01
2.692000000000000000e+03 1.098887634277343750e+01 -6.408149719238281250e+00 -8.894202858209609985e-02 -1.808009296655654907e-01 -8.092288672924041748e-02 -3.937108907848596573e-03
2.693000000000000000e+03 7.709352493286132812e+00 -1.282686233520507812e+01 -3.379880785942077637e-01 -1.861960142850875854e-01 -1.572552323341369629e-01 -1.486135125160217285e-01
2.694000000000000000e+03 6.859308624267578125e+01 2.376182365417480469e+01 -7.370678782463073730e-01 6.900996685028076172e+00 1.849178671836853027e+00 -2.656960964202880859e+00
2.695000000000000000e+03 6.322967910766601562e+01 2.957595062255859375e+01 1.775835454463958740e-01 2.034743785858154297e+00 6.636982560157775879e-01 -9.311590790748596191e-01
2.696000000000000000e+03 7.194227600097656250e+01 -1.182044219970703125e+01 -7.567204833030700684e-01 7.646510601043701172e+00 2.066936969757080078e+00 6.707419753074645996e-01
2.697000000000000000e+03 7.183665466308593750e+01 -1.834623527526855469e+01 1.163887381553649902e+00 8.270735740661621094e+00 2.830387115478515625e+00 5.802451968193054199e-01
2.698000000000000000e+03 4.076462936401367188e+01 -1.050968360900878906e+01 1.401317417621612549e-01 1.265275180339813232e-01 7.999777793884277344e-02 2.903801389038562775e-02
2.699000000000000000e+03 2.883480453491210938e+01 -9.649221420288085938e+00 -5.281334519386291504e-01 -4.295994341373443604e-02 -1.713280081748962402e-01 -5.498858094215393066e-01
2.700000000000000000e+03 5.065411090850830078e+00 5.418314933776855469e+00 4.152717883698642254e-04 -1.993089827010408044e-04 6.478884461103007197e-05 -2.645320200826972723e-04
2.701000000000000000e+03 3.928066253662109375e+01 -9.699612617492675781e+00 -8.218489587306976318e-02 -1.304261535406112671e-01 -6.378331035375595093e-02 -3.996169939637184143e-02
2.702000000000000000e+03 6.133119583129882812e+01 -7.087584018707275391e+00 -5.863844156265258789e-01 4.402878582477569580e-01 -4.382896423339843750e-02 3.451994657516479492e-01
2.703000000000000000e+03 6.210459518432617188e+01 -4.875659465789794922e+00 -1.117515712976455688e-01 1.030797600746154785e+00 2.757138013839721680e-01 1.546222716569900513e-01
2.704000000000000000e+03 4.057213211059570312e+01 -1.357311534881591797e+01 6.537672877311706543e-01 1.963376998901367188e-01 2.550314962863922119e-01 2.518534101545810699e-02
2.705000000000000000e+03 1.044890499114990234e+01 1.476879405975341797e+01 8.739361655898392200e-04 -3.718527033925056458e-03 -8.533772779628634453e-04 -2.718264586292207241e-04
2.706000000000000000e+03 1.196860790252685547e+01 1.370176601409912109e+01 7.665115408599376678e-04 -2.996915951371192932e-03 -6.691213347949087620e-04 5.307137616910040379e-04
2.707000000000000000e+03 6.650824737548828125e+01 -6.800172805786132812e+00 -6.532525420188903809e-01 3.391269683837890625e+00 8.214051723480224609e-01 -4.879373013973236084e-01
2.708000000000000000e+03 6.743552398681640625e+01 -7.672337055206298828e+00 -8.512078523635864258e-01 4.170470714569091797e+00 9.957788586616516113e-01 -6.088560223579406738e-01
2.709000000000000000e+03 6.993828582763671875e+01 -6.027742862701416016e+00 -7.433878183364868164e-01 5.748122215270996094e+00 1.501420378684997559e+00 -2.954013049602508545e-01
2.710000000000000000e+03 6.935307025909423828e+00 8.126084327697753906e+00 7.053037406876683235e-04 -6.706657586619257927e-04 1.039139897329732776e-05 -4.169653984718024731e-04
2.711000000000000000e+03 6.796185970306396484e+00 6.894317150115966797e+00 5.889492458663880825e-04 -5.705424118787050247e-04 5.522040282812668011e-06 -4.335862759035080671e-04
2.712000000000000000e+03 4.096348953247070312e+01 -1.144365787506103516e+01 3.199724555015563965e-01 1.963261961936950684e-01 1.548895984888076782e-01 6.890486180782318115e-02
2.713000000000000000e+03 7.891320228576660156e+00 1.251680278778076172e+01 8.673471165820956230e-04 -1.433746190741658211e-03 -1.699197164271026850e-04 -9.217779152095317841e-04
2.714000000000000000e+03 1.185324859619140625e+01 7.376925468444824219e+00 9.244783432222902775e-04 -4.015350714325904846e-04 1.568829757161438465e-04 3.023858880624175072e-04
2.715000000000000000e+03 5.792718505859375000e+01 -4.683483600616455078e+00 -2.018121480941772461e-01 -1.836409792304039001e-02 -6.605287641286849976e-02 5.478020310401916504e-01
2.716000000000000000e+03 1.051399040222167969e+01 3.092468833923339844e+01 -3.488623304292559624e-03 -2.365905418992042542e-02 -8.144303224980831146e-03 2.205485478043556213e-02
2.717000000000000000e+03 4.577744293212890625e+01 -6.607278347015380859e+00 -6.367310285568237305e-01 9.192070960998535156e-01 8.474282175302505493e-02 1.016027852892875671e-01
2.718000000000000000e+03 6.410808563232421875e+01 -1.332429170608520508e+00 6.912924349308013916e-02 2.349366664886474609e+00 7.255487442016601562e-01 1.987770199775695801e-01
2.719000000000000000e+03 6.955973815917968750e+01 -5.421146154403686523e-01 -4.175358414649963379e-01 5.579164981842041016e+00 1.548488736152648926e+00 -1.551838964223861694e-01
2.720000000000000000e+03 7.231986236572265625e+01 -7.020715713500976562e+00 -7.202007174491882324e-01 6.958769321441650391e+00 1.871570467948913574e+00 4.364637192338705063e-03
2.721000000000000000e+03 7.997851371765136719e+00 8.688617706298828125e+00 7.516766199842095375e-04 -5.894055357202887535e-04 4.868132964475080371e-05 -6.680675433017313480e-04
2.722000000000000000e+03 6.345479583740234375e+01 -2.248271226882934570e+00 4.180206730961799622e-02 1.838543772697448730e+00 5.641037225723266602e-01 1.574269980192184448e-01
2.723000000000000000e+03 6.878421020507812500e+01 3.053218841552734375e+01 -4.838601052761077881e-01 5.426635742187500000e+00 1.482832670211791992e+00 -9.413421750068664551e-01
2.724000000000000000e+03 8.650570869445800781e+00 2.872905158996582031e+01 -5.985020659863948822e-03 -1.434594579041004181e-02 -6.099290214478969574e-03 1.494934409856796265e-02
2.725000000000000000e+03 1.230575180053710938e+01 2.174641418457031250e+01 -1.379112061113119125e-02 -4.941365681588649750e-03 -5.619745701551437378e-03 5.335788708180189133e-03
2.726000000000000000e+03 6.467580795288085938e+00 -1.098321151733398438e+01 -2.128112018108367920e-01 -8.694507181644439697e-02 -8.992688357830047607e-02 -2.282618358731269836e-02
2.727000000000000000e+03 6.200982093811035156e+00 -9.962591171264648438e+00 -1.590992510318756104e-01 -6.317415088415145874e-02 -6.668201833963394165e-02 2.548330277204513550e-02
2.728000000000000000e+03 1.153566837310791016e+01 1.979218101501464844e+01 -7.954367436468601227e-03 -4.877064842730760574e-03 -3.849429776892066002e-03 1.415877253748476505e-03
2.729000000000000000e+03 1.137415027618408203e+01 1.881501579284667969e+01 -5.444254260510206223e-03 -4.003843292593955994e-03 -2.834429265931248665e-03 2.905710716731846333e-04
2.730000000000000000e+03 4.565517044067382812e+01 2.059797668457031250e+01 -4.356062412261962891e-01 1.369933634996414185e-01 -8.958386629819869995e-02 1.908722519874572754e-02
2.731000000000000000e+03 2.595002937316894531e+01 -8.758856773376464844e+00 -6.719031929969787598e-01 2.222138792276382446e-01 -1.349067986011505127e-01 -4.945806264877319336e-01
2.732000000000000000e+03 7.255188465118408203e+00 2.181773376464843750e+01 -4.901586100459098816e-03 -3.527016146108508110e-03 -2.528580836951732635e-03 2.625000663101673126e-03
2.733000000000000000e+03 7.259159851074218750e+01 3.501614570617675781e+00 -4.264527261257171631e-01 7.185768127441406250e+00 2.027794599533081055e+00 -5.493831634521484375e-01
2.734000000000000000e+03 7.472751617431640625e+01 -1.051464462280273438e+01 -4.176171720027923584e-01 8.117342948913574219e+00 2.309917688369750977e+00 6.820999383926391602e-01
2.735000000000000000e+03 7.270638275146484375e+01 4.490453720092773438e+00 -4.556957185268402100e-01 7.406471252441406250e+00 2.085232496261596680e+00 -5.869753956794738770e-01
2.736000000000000000e+03 1.053129577636718750e+01 2.861443901062011719e+01 -8.187033236026763916e-03 -1.801372133195400238e-02 -7.860226556658744812e-03 2.057161927223205566e-02
2.737000000000000000e+03 6.091595840454101562e+01 -4.804289817810058594e+00 -1.491231024265289307e-01 5.912361145019531250e-01 1.326339095830917358e-01 3.098290562629699707e-01
2.738000000000000000e+03 8.034742355346679688e+00 1.588342285156250000e+01 -5.031567998230457306e-04 -2.472877269610762596e-03 -8.928102324716746807e-04 -1.234534429386258125e-03
2.739000000000000000e+03 6.914717102050781250e+01 -2.881806612014770508e+00 -4.653322100639343262e-01 5.098267078399658203e+00 1.389880537986755371e+00 -2.448705136775970459e-01
2.740000000000000000e+03 7.293058013916015625e+01 -4.577519893646240234e+00 -5.096877813339233398e-01 7.156176090240478516e+00 1.993946552276611328e+00 -1.546486467123031616e-01
2.741000000000000000e+03 7.228723907470703125e+01 -1.994620323181152344e+00 -4.057372212409973145e-01 6.819847106933593750e+00 1.924232959747314453e+00 -2.975045144557952881e-01
2.742000000000000000e+03 7.102263641357421875e+01 -3.619410705566406250e+01 -3.932339325547218323e-02 5.601051330566406250e+00 1.668518304824829102e+00 2.354119569063186646e-01
2.743000000000000000e+03 1.160375976562500000e+01 1.797743415832519531e+01 -2.758927643299102783e-03 -4.177597817033529282e-03 -2.080957638099789619e-03 -6.694152252748608589e-04
2.744000000000000000e+03 9.350713729858398438e+00 1.594160461425781250e+01 -1.100382069125771523e-04 -3.329869359731674194e-03 -1.031972235068678856e-03 -6.678189965896308422e-04
2.745000000000000000e+03 6.746449279785156250e+01 2.302560234069824219e+01 -4.608655720949172974e-02 4.540645599365234375e+00 1.348367691040039062e+00 -2.917490720748901367e+00
2.746000000000000000e+03 6.991199493408203125e+01 2.477699851989746094e+01 -1.316778898239135742e+00 8.629801750183105469e+00 2.193907022476196289e+00 -1.450338959693908691e+00
2.747000000000000000e+03 8.289511680603027344e+00 6.687528610229492188e+00 4.168630111962556839e-04 -5.085472948849201202e-04 -2.750529165496118367e-05 -2.855463535524904728e-04
2.748000000000000000e+03 8.706218719482421875e+00 -7.698973178863525391e+00 -1.144517138600349426e-01 -1.455938667058944702e-01 -7.801367342472076416e-02 5.358498916029930115e-02
2.749000000000000000e+03 7.948588848114013672e+00 1.356972408294677734e+01 4.902876680716872215e-04 -2.182407537475228310e-03 -5.076359375379979610e-04 -9.883211459964513779e-04
2.750000000000000000e+03 9.312099456787109375e+00 1.466629981994628906e+01 5.257560405880212784e-05 -2.642885316163301468e-03 -7.770928787067532539e-04 -7.228677277453243732e-04
2.751000000000000000e+03 1.254343509674072266e+01 -7.679138183593750000e+00 -1.942293643951416016e-01 -2.888668179512023926e-01 -1.449288576841354370e-01 -1.104048117995262146e-01
2.752000000000000000e+03 4.461859130859375000e+01 -5.699169635772705078e+00 -8.961034417152404785e-01 7.039694786071777344e-01 -5.764019116759300232e-02 -3.276953101158142090e-02
2.753000000000000000e+03 8.971367835998535156e+00 -6.908674716949462891e+00 -9.353408217430114746e-02 -1.358116716146469116e-01 -6.880372762680053711e-02 5.911176279187202454e-02
2.754000000000000000e+03 1.052307701110839844e+01 -7.874126434326171875e+00 -1.789866983890533447e-01 -2.372343242168426514e-01 -1.248663067817687988e-01 -1.257022563368082047e-02
2.755000000000000000e+03 4.168156814575195312e+01 -1.092047882080078125e+01 2.379744797945022583e-01 3.059954345226287842e-01 1.631909757852554321e-01 7.984623312950134277e-02
2.756000000000000000e+03 7.969923496246337891e+00 -7.545855998992919922e+00 -1.125003322958946228e-01 -1.154052764177322388e-01 -6.837168335914611816e-02 6.775663793087005615e-02
2.757000000000000000e+03 9.414363861083984375e+00 2.227478790283203125e+01 -8.289576508104801178e-03 -4.386814311146736145e-03 -3.802917199209332466e-03 4.310312680900096893e-03
2.758000000000000000e+03 1.195505428314208984e+01 1.177513790130615234e+01 1.212453935295343399e-03 -1.915171509608626366e-03 -2.108152693836018443e-04 5.773635348305106163e-04
2.759000000000000000e+03 7.090032196044921875e+01 -6.269141674041748047e+00 -7.515240907669067383e-01 6.267209529876708984e+00 1.654705643653869629e+00 -1.817525625228881836e-01
2.760000000000000000e+03 8.021742820739746094e+00 1.470026302337646484e+01 3.769303439185023308e-04 -2.127997344359755516e-03 -5.253200652077794075e-04 -1.142213470302522182e-03
2.761000000000000000e+03 1.052382564544677734e+01 1.575730228424072266e+01 -8.664884371683001518e-04 -3.632808802649378777e-03 -1.349789206869900227e-03 -4.348214424680918455e-04
2.762000000000000000e+03 6.594191741943359375e+01 -1.425943374633789062e+00 -1.330050826072692871e-01 3.281372785568237305e+00 9.445102810859680176e-01 6.377114355564117432e-02
2.763000000000000000e+03 1.051793861389160156e+01 1.304949569702148438e+01 7.006888627074658871e-04 -3.034665016457438469e-03 -7.001928752288222313e-04 1.656248059589415789e-04
2.764000000000000000e+03 7.178162384033203125e+01 1.102670001983642578e+01 4.745667055249214172e-02 8.937983512878417969e+00 2.695631980895996094e+00 -3.406361639499664307e-01
2.765000000000000000e+03 6.230464172363281250e+01 -3.987028121948242188e+00 -5.518157407641410828e-02 1.235194921493530273e+00 3.540039956569671631e-01 1.674170047044754028e-01
2.766000000000000000e+03 6.804825592041015625e+01 2.652850723266601562e+01 -8.308292031288146973e-01 5.758298873901367188e+00 1.478240966796875000e+00 -1.849308013916015625e+00
2.767000000000000000e+03 6.284740066528320312e+01 -3.124855041503906250e+00 2.432325296103954315e-02 1.503819704055786133e+00 4.584428966045379639e-01 1.674845963716506958e-01
2.768000000000000000e+03 6.559799957275390625e+01 -7.838664054870605469e+00 -6.455102562904357910e-01 2.493808031082153320e+00 5.544893741607666016e-01 -5.581622123718261719e-01
2.769000000000000000e+03 9.314173698425292969e+00 -8.076314926147460938e+00 -1.579143702983856201e-01 -1.804345995187759399e-01 -1.015046909451484680e-01 3.276025131344795227e-02
2.770000000000000000e+03 1.091146278381347656e+01 9.554951667785644531e+00 8.494623471051454544e-04 -1.425176858901977539e-03 -1.727143535390496254e-04 3.979145258199423552e-04
2.771000000000000000e+03 1.180955505371093750e+01 1.033563709259033203e+01 1.495999400503933430e-03 -1.234241994097828865e-03 7.852722774259746075e-05 4.342253378126770258e-04
2.772000000000000000e+03 3.997397994995117188e+01 -1.176306629180908203e+01 4.157189428806304932e-01 5.988674610853195190e-02 1.426817029714584351e-01 2.672394737601280212e-02
2.773000000000000000e+03 6.838417816162109375e+01 2.676853895187377930e+00 -3.939023315906524658e-01 5.326553344726562500e+00 1.479795217514038086e+00 1.903681755065917969e-01
2.774000000000000000e+03 7.033318328857421875e+01 1.050396323204040527e+00 -4.371559619903564453e-01 6.084569454193115234e+00 1.694224119186401367e+00 -2.079665362834930420e-01
2.775000000000000000e+03 7.110509490966796875e+01 4.117418289184570312e+00 -5.215231776237487793e-01 6.880101680755615234e+00 1.907573580741882324e+00 -3.163204491138458252e-01
2.776000000000000000e+03 1.099931430816650391e+01 8.039429664611816406e+00 6.647019763477146626e-04 -9.948214283213019371e-04 -9.903583122650161386e-05 3.498679143376648426e-04
2.777000000000000000e+03 3.847538375854492188e+01 -1.107137012481689453e+01 2.390798330307006836e-01 -1.959380060434341431e-01 1.294254790991544724e-02 -1.195653993636369705e-02
2.778000000000000000e+03 3.964565277099609375e+01 -1.068837738037109375e+01 1.305810809135437012e-01 -4.909930378198623657e-02 2.444453351199626923e-02 -2.052217721939086914e-03
2.779000000000000000e+03 6.657470703125000000e+01 -8.832675933837890625e+00 -1.054476380348205566e+00 3.355491876602172852e+00 6.903046369552612305e-01 -7.629469633102416992e-01
2.780000000000000000e+03 6.565370178222656250e+01 -5.974497318267822266e+00 -4.462558329105377197e-01 2.833190917968750000e+00 7.160805463790893555e-01 -4.002057909965515137e-01
2.781000000000000000e+03 1.183320999145507812e+01 1.275922775268554688e+01 1.439192565158009529e-03 -1.967337680980563164e-03 -1.584435376571491361e-04 3.236417251173406839e-04
2.782000000000000000e+03 6.769219207763671875e+01 2.808352851867675781e+01 -6.250390410423278809e-01 5.167035102844238281e+00 1.362598896026611328e+00 -1.580872654914855957e+00
2.783000000000000000e+03 4.311275100708007812e+01 -9.297932624816894531e+00 -8.572085201740264893e-02 5.566593408584594727e-01 1.412815600633621216e-01 8.058157563209533691e-02
2.784000000000000000e+03 1.060917758941650391e+01 2.133166313171386719e+01 -9.524334222078323364e-03 -5.376512184739112854e-03 -4.470253828912973404e-03 3.801488783210515976e-03
2.785000000000000000e+03 1.120147418975830078e+01 6.672818183898925781e+00 6.281412206590175629e-04 -7.262708386406302452e-04 -2.943887557194102556e-05 3.613693697843700647e-04
2.786000000000000000e+03 6.251093292236328125e+01 -1.617234349250793457e+00 1.724099665880203247e-01 1.428166508674621582e+00 4.801729321479797363e-01 2.700974345207214355e-01
2.787000000000000000e+03 6.966149139404296875e+01 -4.559936046600341797e+00 -6.299527287483215332e-01 5.481871604919433594e+00 1.455575585365295410e+00 -2.752775251865386963e-01
2.788000000000000000e+03 9.977340698242187500e+00 1.195598030090332031e+01 1.428775372914969921e-03 -1.707850373350083828e-03 -8.372251613764092326e-05 -3.825264284387230873e-04
2.789000000000000000e+03 8.319513320922851562e+00 1.022911071777343750e+01 1.106938230805099010e-03 -1.005521160550415516e-03 3.042511343664955348e-05 -7.373378030024468899e-04
2.790000000000000000e+03 6.992385101318359375e+01 2.706489801406860352e+00 -4.411932528018951416e-01 6.078383922576904297e+00 1.691157102584838867e+00 -1.290248781442642212e-01
2.791000000000000000e+03 7.090211486816406250e+01 2.010544538497924805e+00 -4.547784626483917236e-01 6.488880634307861328e+00 1.810230612754821777e+00 -2.828679680824279785e-01
2.792000000000000000e+03 7.661945343017578125e+00 1.828354835510253906e+01 -2.390143694356083870e-03 -2.516041975468397141e-03 -1.471855677664279938e-03 -5.919380928389728069e-04
2.793000000000000000e+03 1.022155380249023438e+01 2.004467582702636719e+01 -6.795118562877178192e-03 -4.046246875077486038e-03 -3.252409631386399269e-03 1.271065091714262962e-03
2.794000000000000000e+03 7.309617614746093750e+01 1.325195598602294922e+01 -1.738253608345985413e-02 9.503321647644042969e+00 2.845781803131103516e+00 -6.820059418678283691e-01
2.795000000000000000e+03 1.056638717651367188e+01 2.348336982727050781e+01 -1.193925552070140839e-02 -7.165199145674705505e-03 -5.731336306780576706e-03 8.739756420254707336e-03
2.796000000000000000e+03 7.046137237548828125e+01 -4.936638355255126953e+00 -6.131505966186523438e-01 5.918206214904785156e+00 1.591516733169555664e+00 -2.358767688274383545e-01
2.797000000000000000e+03 7.181127929687500000e+01 -4.189526081085205078e+00 -5.456067323684692383e-01 6.555821418762207031e+00 1.803064465522766113e+00 -1.990622133016586304e-01
2.798000000000000000e+03 7.138359832763671875e+01 -1.708139657974243164e+00 -4.549133181571960449e-01 6.389221668243408203e+00 1.780292391777038574e+00 -2.694224715232849121e-01
2.799000000000000000e+03 7.106011962890625000e+01 -2.810977697372436523e+00 -4.714877903461456299e-01 6.163727283477783203e+00 1.707671761512756348e+00 -2.299869060516357422e-01
2.800000000000000000e+03 6.689962005615234375e+01 -1.006705641746520996e+00 -2.155869454145431519e-01 3.907110214233398438e+00 1.107456922531127930e+00 2.945853956043720245e-02
2.801000000000000000e+03 6.748312377929687500e+01 -1.806982278823852539e+00 -3.036565780639648438e-01 4.226687908172607422e+00 1.176909446716308594e+00 -1.091933697462081909e-01
2.802000000000000000e+03 4.099197006225585938e+01 2.416175270080566406e+01 -2.696385979652404785e-01 9.216547757387161255e-02 -5.324193462729454041e-02 1.494845747947692871e-01
2.803000000000000000e+03 1.057111358642578125e+01 1.753867912292480469e+01 -2.573364414274692535e-03 -4.166729748249053955e-03 -2.022028202190995216e-03 -2.239522145828232169e-04
2.804000000000000000e+03 1.027679157257080078e+01 1.873268699645996094e+01 -4.136746749281883240e-03 -4.157524090260267258e-03 -2.488281344994902611e-03 -1.017147660604678094e-04
2.805000000000000000e+03 6.783043670654296875e+01 2.358636093139648438e+01 -3.607593476772308350e-01 5.354091644287109375e+00 1.497999668121337891e+00 -2.890398740768432617e+00
2.806000000000000000e+03 6.829140472412109375e+01 2.321268844604492188e+01 -3.634205460548400879e-01 6.285700798034667969e+00 1.776684165000915527e+00 -3.044844627380371094e+00
2.807000000000000000e+03 6.851755619049072266e+00 -9.327828407287597656e+00 -1.636312454938888550e-01 -9.571041166782379150e-02 -7.780249416828155518e-02 4.083943367004394531e-02
2.808000000000000000e+03 8.707617759704589844e+00 -8.468175888061523438e+00 -1.731096208095550537e-01 -1.626550704240798950e-01 -1.007294058799743652e-01 3.646634519100189209e-02
2.809000000000000000e+03 9.717410087585449219e+00 -7.376155853271484375e+00 -1.214956492185592651e-01 -1.866869330406188965e-01 -9.245477616786956787e-02 3.252463042736053467e-02
2.810000000000000000e+03 1.118835735321044922e+01 5.597914695739746094e+00 6.421330035664141178e-04 -5.669204401783645153e-04 2.256376865261700004e-05 2.082901628455147147e-04
2.811000000000000000e+03 8.343345642089843750e+00 7.701195716857910156e+00 1.021584030240774155e-03 -6.830893107689917088e-04 1.015484231174923480e-04 -2.624335465952754021e-04
2.812000000000000000e+03 9.027170181274414062e+00 -9.413137435913085938e+00 -2.366281896829605103e-01 -2.083173096179962158e-01 -1.334836483001708984e-01 4.345054738223552704e-03
2.813000000000000000e+03 6.915681457519531250e+01 2.577804756164550781e+01 -1.194163441658020020e+00 7.104806900024414062e+00 1.773193001747131348e+00 -1.749848008155822754e+00
2.814000000000000000e+03 6.650208282470703125e+01 -2.602685689926147461e+00 -2.535219490528106689e-01 3.546789169311523438e+00 9.879801273345947266e-01 -1.013679429888725281e-01
2.815000000000000000e+03 8.917258262634277344e+00 1.245492362976074219e+01 6.590308039449155331e-04 -2.339552389457821846e-03 -5.041565163992345333e-04 -4.960526712238788605e-04
2.816000000000000000e+03 1.001458072662353516e+01 8.665581703186035156e+00 1.224769162945449352e-03 -8.387138950638473034e-04 1.158165614469908178e-04 -1.945505064213648438e-04
2.817000000000000000e+03 6.538102722167968750e+01 -3.029364585876464844e+00 -1.798113584518432617e-01 2.951203584671020508e+00 8.314176797866821289e-01 -7.784810662269592285e-02
2.818000000000000000e+03 6.437596893310546875e+01 -2.799331188201904297e+00 -3.915036097168922424e-02 2.282739877700805664e+00 6.730768084526062012e-01 2.949567139148712158e-02
2.819000000000000000e+03 6.974360656738281250e+01 -1.994026064872741699e+00 -4.611234068870544434e-01 5.533970355987548828e+00 1.521854043006896973e+00 -2.309503257274627686e-01
2.820000000000000000e+03 1.190760517120361328e+01 2.581465530395507812e+01 -1.591756381094455719e-02 -1.101859193295240402e-02 -8.080846630036830902e-03 1.666572690010070801e-02
2.821000000000000000e+03 7.008222198486328125e+01 -2.798765897750854492e+00 -4.984729588031768799e-01 5.738761901855468750e+00 1.572086691856384277e+00 -2.664351463317871094e-01
2.822000000000000000e+03 6.731232452392578125e+01 -5.674782752990722656e+00 -5.611543059349060059e-01 4.036692142486572266e+00 1.042661428451538086e+00 -4.279042184352874756e-01
2.823000000000000000e+03 9.024220466613769531e+00 1.853953742980957031e+01 -3.351176856085658073e-03 -3.653795458376407623e-03 -2.101491671055555344e-03 -1.857827301137149334e-04
2.824000000000000000e+03 9.085966110229492188e+00 9.409904479980468750e+00 8.539707632735371590e-04 -1.329328864812850952e-03 -1.426074304617941380e-04 -7.959374488564208150e-05
2.825000000000000000e+03 7.219094848632812500e+01 2.789071464538574219e+01 -1.114272475242614746e+00 7.928225517272949219e+00 2.044185876846313477e+00 -5.348322540521621704e-02
2.826000000000000000e+03 7.086569976806640625e+01 2.845356559753417969e+01 -1.067625761032104492e+00 7.194208621978759766e+00 1.837974905967712402e+00 -6.652760505676269531e-01
2.827000000000000000e+03 6.944221496582031250e+01 3.857053816318511963e-01 -3.902498185634613037e-01 5.585227966308593750e+00 1.558493375778198242e+00 -1.224142909049987793e-01
2.828000000000000000e+03 6.876750946044921875e+01 -1.826592236757278442e-01 -3.799770772457122803e-01 5.130294322967529297e+00 1.425095081329345703e+00 -7.194793224334716797e-02
2.829000000000000000e+03 1.003680896759033203e+01 1.030362510681152344e+01 1.256029005162417889e-03 -1.191437127999961376e-03 1.937754495884291828e-05 -2.775677712634205818e-04
2.830000000000000000e+03 8.341729164123535156e+00 2.122138023376464844e+01 -5.822409875690937042e-03 -4.526530392467975616e-03 -3.104682080447673798e-03 2.471859334036707878e-03
2.831000000000000000e+03 7.200904369354248047e+00 2.071588897705078125e+01 -3.936756867915391922e-03 -2.543320879340171814e-03 -1.944023300893604755e-03 8.889309247024357319e-04
2.832000000000000000e+03 6.036708831787109375e+00 1.929096603393554688e+01 -2.098195720463991165e-03 -1.295972266234457493e-03 -1.018250361084938049e-03 -3.374573134351521730e-04
2.833000000000000000e+03 9.425041198730468750e+00 7.643086910247802734e+00 4.752239910885691643e-04 -8.515932713635265827e-04 -1.129107768065296113e-04 2.851696262951008976e-05
2.834000000000000000e+03 1.377147769927978516e+01 2.249466133117675781e+01 -2.059228345751762390e-02 -3.474981989711523056e-03 -7.220179773867130280e-03 9.529016911983489990e-03
2.835000000000000000e+03 4.264464950561523438e+01 2.493947410583496094e+01 -2.667335867881774902e-01 1.088301688432693481e-01 -4.737102612853050232e-02 1.880729347467422485e-01
2.836000000000000000e+03 1.137792015075683594e+01 2.233130455017089844e+01 -1.327280607074499130e-02 -4.005089402198791504e-03 -5.183368921279907227e-03 5.966455210000276566e-03
2.837000000000000000e+03 6.632334899902343750e+01 -4.818025588989257812e+00 -4.092165827751159668e-01 3.340491294860839844e+00 8.793824315071105957e-01 -3.184271156787872314e-01
2.838000000000000000e+03 1.038792896270751953e+01 7.215343952178955078e+00 1.021132338792085648e-03 -4.915831377729773521e-04 1.588647719472646713e-04 -5.560736099141649902e-05
2.839000000000000000e+03 9.178351402282714844e+00 1.103116607666015625e+01 8.249397506006062031e-04 -1.764935790561139584e-03 -2.819988294504582882e-04 -1.638937392272055149e-04
2.840000000000000000e+03 6.728671264648437500e+01 -3.638357877731323242e+00 -3.720279633998870850e-01 4.006090164184570312e+00 1.090218663215637207e+00 -2.553726732730865479e-01
2.841000000000000000e+03 6.896818542480468750e+01 -1.492853879928588867e+00 -3.752450942993164062e-01 5.185326099395751953e+00 1.443024396896362305e+00 -1.581174731254577637e-01
2.842000000000000000e+03 1.330534362792968750e+01 2.424883270263671875e+01 -2.061616070568561554e-02 -9.046755731105804443e-03 -8.898874744772911072e-03 1.585789397358894348e-02
2.843000000000000000e+03 6.259034347534179688e+01 3.196899032592773438e+01 3.713507652282714844e-01 2.077558517456054688e+00 7.346727848052978516e-01 -6.832701563835144043e-01
2.844000000000000000e+03 6.818617248535156250e+01 -4.575459957122802734e+00 -5.440661907196044922e-01 4.580819129943847656e+00 1.211025834083557129e+00 -3.215590119361877441e-01
2.845000000000000000e+03 6.912548828125000000e+01 -3.880479335784912109e+00 -5.182085037231445312e-01 5.125181198120117188e+00 1.382091760635375977e+00 -2.900360226631164551e-01
2.846000000000000000e+03 1.377735137939453125e+01 2.621846008300781250e+01 -2.158260531723499298e-02 -1.196739170700311661e-02 -1.006499957293272018e-02 2.242847718298435211e-02
2.847000000000000000e+03 1.198914432525634766e+01 2.407971000671386719e+01 -1.647684909403324127e-02 -6.046427413821220398e-03 -6.756982766091823578e-03 1.148501411080360413e-02
2.848000000000000000e+03 1.486244106292724609e+01 2.683727836608886719e+01 -2.468644827604293823e-02 -1.663079112768173218e-02 -1.239517144858837128e-02 3.240711987018585205e-02
2.849000000000000000e+03 1.397101020812988281e+01 2.815811920166015625e+01 -1.684669032692909241e-02 -2.139768749475479126e-02 -1.147331297397613525e-02 3.134058788418769836e-02
2.850000000000000000e+03 1.538262367248535156e+01 2.556750869750976562e+01 -3.192210942506790161e-02 -8.489903993904590607e-03 -1.212360430508852005e-02 2.670448273420333862e-02
2.851000000000000000e+03 1.690165901184082031e+01 2.294452667236328125e+01 -4.054507613182067871e-02 -1.837942632846534252e-03 -1.271490566432476044e-02 1.490327902138233185e-02
2.852000000000000000e+03 2.018523788452148438e+01 -3.330764007568359375e+01 2.839179635047912598e-01 2.190182358026504517e-01 1.508808583021163940e-01 -1.817622482776641846e-01
2.853000000000000000e+03 1.742350006103515625e+01 -2.970312309265136719e+01 4.483181536197662354e-01 3.019669353961944580e-01 2.250855267047882080e-01 -2.682480514049530029e-01
2.854000000000000000e+03 3.200611114501953125e+01 -3.400419998168945312e+01 3.164198994636535645e-01 -1.086055487394332886e-02 9.166780114173889160e-02 -3.480764105916023254e-02
2.855000000000000000e+03 2.678503751754760742e+00 -3.633003616333007812e+01 1.061392016708850861e-02 -7.846145033836364746e-01 -2.322001755237579346e-01 1.729076914489269257e-02
2.856000000000000000e+03 7.048677825927734375e+01 -2.650822257995605469e+01 -2.912350893020629883e-01 6.838934898376464844e+00 1.964309930801391602e+00 2.368804663419723511e-01
2.857000000000000000e+03 4.430991744995117188e+01 2.575852203369140625e+01 -2.848197519779205322e-01 1.272689849138259888e-01 -4.726522788405418396e-02 2.398961782455444336e-01
2.858000000000000000e+03 5.999774169921875000e+01 3.127585601806640625e+01 4.247286319732666016e-01 1.054274439811706543e+00 4.437009096145629883e-01 -3.183809220790863037e-01
2.859000000000000000e+03 4.771485900878906250e+01 2.724812698364257812e+01 -2.976547181606292725e-01 1.073182225227355957e-01 -5.710095167160034180e-02 3.422411084175109863e-01
2.860000000000000000e+03 1.782556915283203125e+01 -3.369673156738281250e+01 2.119163274765014648e-01 2.214430123567581177e-01 1.300078034400939941e-01 -1.476749479770660400e-01
2.861000000000000000e+03 1.425808143615722656e+01 -3.470552444458007812e+01 1.107135564088821411e-01 6.641038507223129272e-02 5.313718318939208984e-02 -7.724180817604064941e-02
2.862000000000000000e+03 4.139153289794921875e+01 2.827951622009277344e+01 -9.776590764522552490e-02 4.171931371092796326e-02 -1.681397855281829834e-02 2.422499805688858032e-01
2.863000000000000000e+03 4.448584365844726562e+01 2.866316032409667969e+01 -9.291853755712509155e-02 7.010342180728912354e-02 -6.844533141702413559e-03 3.046237230300903320e-01
2.864000000000000000e+03 3.593053054809570312e+01 2.855610084533691406e+01 -3.633597493171691895e-02 -4.346224293112754822e-02 -2.393946610391139984e-02 1.664139479398727417e-01
2.865000000000000000e+03 2.302445030212402344e+01 2.872570610046386719e+01 -2.445145137608051300e-02 -6.829641014337539673e-02 -2.782435715198516846e-02 9.106763452291488647e-02
2.866000000000000000e+03 1.947275543212890625e+01 3.122953605651855469e+01 2.599981380626559258e-03 -6.067320704460144043e-02 -1.742196828126907349e-02 6.286630034446716309e-02
2.867000000000000000e+03 6.547239685058593750e+01 3.254429244995117188e+01 1.306898444890975952e-01 3.477123022079467773e+00 1.082343816757202148e+00 -8.549688458442687988e-01
2.868000000000000000e+03 7.190707397460937500e+01 -3.075635147094726562e+01 -3.305178880691528320e-01 6.489836692810058594e+00 1.847795605659484863e+00 1.570315659046173096e-01
2.869000000000000000e+03 4.958752059936523438e+01 2.775177764892578125e+01 -2.665748596191406250e-01 8.717495203018188477e-02 -5.381997302174568176e-02 3.987438082695007324e-01
2.870000000000000000e+03 7.557962036132812500e+01 -2.376289749145507812e+01 2.208776473999023438e-01 7.500916957855224609e+00 2.316538333892822266e+00 -3.768690526485443115e-01
2.871000000000000000e+03 4.209588623046875000e+01 4.452860355377197266e+00 -1.383661874569952488e-03 2.054357901215553284e-03 2.012088225455954671e-04 -2.156615490093827248e-03
2.872000000000000000e+03 6.791854858398437500e+01 1.692357254028320312e+01 1.670317202806472778e-01 5.259057521820068359e+00 1.627826809883117676e+00 7.146413922309875488e-01
2.873000000000000000e+03 6.915570068359375000e+01 1.755499649047851562e+01 -2.722007036209106445e-01 1.108637714385986328e+01 3.244252920150756836e+00 4.166945934295654297e+00
2.874000000000000000e+03 6.972351074218750000e+01 1.772019767761230469e+01 -5.692441463470458984e-01 1.531301784515380859e+01 4.423131942749023438e+00 2.926936864852905273e+00
2.875000000000000000e+03 6.976445770263671875e+01 1.746181297302246094e+01 -9.441259503364562988e-01 1.451555633544921875e+01 4.071429252624511719e+00 2.931623935699462891e+00
2.876000000000000000e+03 6.997531127929687500e+01 1.773491477966308594e+01 -1.157161593437194824e+00 1.685371971130371094e+01 4.708967685699462891e+00 2.325278043746948242e+00
2.877000000000000000e+03 1.050237894058227539e+00 4.115515518188476562e+01 -1.798920711735263467e-04 -2.039414830505847931e-02 -6.172212306410074234e-03 8.670033421367406845e-04
2.878000000000000000e+03 6.711310577392578125e+01 2.111501693725585938e+01 5.313011407852172852e-01 1.161993265151977539e+00 5.079883337020874023e-01 -1.479836106300354004e+00
2.879000000000000000e+03 6.759960937500000000e+01 2.057523727416992188e+01 1.440326571464538574e+00 1.057169318199157715e+00 7.492488026618957520e-01 -1.573066353797912598e+00
2.880000000000000000e+03 6.802501678466796875e+01 2.119720458984375000e+01 1.714431762695312500e+00 4.043189048767089844e+00 1.727286338806152344e+00 -3.460337400436401367e+00
2.881000000000000000e+03 6.836737060546875000e+01 2.084239387512207031e+01 2.401715517044067383e+00 4.586474895477294922e+00 2.096457242965698242e+00 -4.020134925842285156e+00
2.882000000000000000e+03 6.864696502685546875e+01 2.112432098388671875e+01 1.804300427436828613e+00 6.827311038970947266e+00 2.589483499526977539e+00 -4.556935787200927734e+00
2.883000000000000000e+03 7.803037261962890625e+01 4.155137252807617188e+01 1.456187665462493896e-01 8.249491691589355469e+00 2.518533229827880859e+00 -4.089219495654106140e-02
2.884000000000000000e+03 4.352668762207031250e+01 5.187307357788085938e+00 6.730920867994427681e-04 1.420729095116257668e-03 6.281464011408388615e-04 -4.079956270288676023e-04
2.885000000000000000e+03 4.489279985427856445e-01 2.202382087707519531e+00 -2.174958171963226050e-05 3.136583836749196053e-05 2.884876494135824032e-06 -1.250560126209165901e-05
2.886000000000000000e+03 1.409158229827880859e+00 -3.273739337921142578e+00 8.686557412147521973e-03 6.140194088220596313e-02 2.102654986083507538e-02 5.000578984618186951e-02
2.887000000000000000e+03 4.521423339843750000e+01 5.971259117126464844e+00 5.276075680740177631e-04 3.762462583836168051e-04 2.711561683099716902e-04 -2.449624589644372463e-04
2.888000000000000000e+03 3.097419738769531250e+00 4.173421096801757812e+01 5.845476407557725906e-04 -2.286081947386264801e-02 -6.682881154119968414e-03 -5.001702811568975449e-04
2.889000000000000000e+03 2.478151082992553711e+00 3.970307922363281250e+01 4.924202803522348404e-04 -2.126326784491539001e-02 -6.231254432350397110e-03 1.665023737587034702e-03
2.890000000000000000e+03 7.320352077484130859e+00 -3.583586120605468750e+01 2.773229964077472687e-02 -3.804025650024414062e-01 -1.058010831475257874e-01 -2.287756279110908508e-02
2.891000000000000000e+03 5.065930175781250000e+01 2.585077476501464844e+01 -5.083994865417480469e-01 8.058120310306549072e-02 -1.283454895019531250e-01 3.448280692100524902e-01
2.892000000000000000e+03 2.517801475524902344e+01 -3.823959732055664062e+01 2.334458827972412109e-01 1.455144435167312622e-01 1.136881038546562195e-01 -9.075924009084701538e-02
2.893000000000000000e+03 4.520375251770019531e+00 4.008566665649414062e+01 4.186960868537425995e-03 -2.576193399727344513e-02 -6.472492124885320663e-03 4.282182548195123672e-03
2.894000000000000000e+03 1.064581584930419922e+01 -1.830447959899902344e+01 -8.785925060510635376e-02 -6.009503006935119629e-01 -2.066428661346435547e-01 -3.876738250255584717e-01
2.895000000000000000e+03 3.569694519042968750e+01 -1.534313869476318359e+01 1.120547652244567871e+00 -2.892705202102661133e-01 2.493831366300582886e-01 -1.185038164258003235e-01
2.896000000000000000e+03 6.747803497314453125e+01 2.074734497070312500e+01 1.315305233001708984e+00 1.172571182250976562e+00 7.463629841804504395e-01 -1.463370203971862793e+00
2.897000000000000000e+03 4.447230148315429688e+01 -1.264941811561584473e+00 -1.017287015914916992e+00 2.594060599803924561e-01 -2.273643016815185547e-01 -4.004164636135101318e-01
2.898000000000000000e+03 6.817903137207031250e+01 2.141245269775390625e+01 1.296396136283874512e+00 4.846976757049560547e+00 1.843011975288391113e+00 -3.673578262329101562e+00
2.899000000000000000e+03 1.701655960083007812e+01 1.867020606994628906e+01 3.697395368362776935e-05 3.877548151649534702e-04 1.274186361115425825e-04 -6.379773840308189392e-04
2.900000000000000000e+03 1.623843002319335938e+01 2.052412033081054688e+01 -2.159918285906314850e-02 2.162515884265303612e-03 -5.831000395119190216e-03 5.451745819300413132e-04
2.901000000000000000e+03 7.733206176757812500e+01 -3.691802215576171875e+01 -6.976624578237533569e-02 7.958794593811035156e+00 2.366708517074584961e+00 2.840233780443668365e-02
2.902000000000000000e+03 5.281637954711914062e+01 -2.514017581939697266e+00 -4.990271031856536865e-01 -7.733731716871261597e-02 -1.729093194007873535e-01 7.189754247665405273e-01
2.903000000000000000e+03 5.187761688232421875e+01 -2.777347803115844727e+00 -6.062166690826416016e-01 4.213409498333930969e-02 -1.692247688770294189e-01 7.464356422424316406e-01
2.904000000000000000e+03 6.653125762939453125e+01 2.288796806335449219e+01 -1.250846087932586670e-01 2.485472440719604492e+00 7.081163525581359863e-01 -2.072265625000000000e+00
2.905000000000000000e+03 5.562517929077148438e+01 -2.875242233276367188e+00 -2.111132889986038208e-01 -6.171398982405662537e-02 -8.184818178415298462e-02 6.095729470252990723e-01
2.906000000000000000e+03 3.953691101074218750e+01 -2.564456367492675781e+01 7.357461750507354736e-02 3.713192641735076904e-01 1.334681659936904907e-01 1.972067952156066895e-01
2.907000000000000000e+03 7.235813140869140625e+01 1.779976463317871094e+01 2.555677890777587891e+00 1.194002914428710938e+01 4.348711967468261719e+00 -1.574560880661010742e+00
2.908000000000000000e+03 2.448314476013183594e+01 -5.233305454254150391e+00 -7.460616230964660645e-01 2.233062982559204102e-01 -1.568266004323959351e-01 -1.078537106513977051e-01
2.909000000000000000e+03 2.062388610839843750e+01 -1.029643630981445312e+01 -3.720963001251220703e-01 1.596980690956115723e-01 -6.371947377920150757e-02 -4.126905202865600586e-01
2.910000000000000000e+03 6.689804840087890625e+01 -2.836690139770507812e+01 -3.585873544216156006e-01 4.540169239044189453e+00 1.254474520683288574e+00 9.910150766372680664e-01
2.911000000000000000e+03 4.273012542724609375e+01 -1.993331146240234375e+01 3.761484622955322266e-01 1.235802412033081055e+00 4.835852682590484619e-01 -1.065401732921600342e-01
2.912000000000000000e+03 3.968748855590820312e+01 -2.845843315124511719e+01 1.090176552534103394e-01 3.645377159118652344e-01 1.420666128396987915e-01 2.114461064338684082e-01
2.913000000000000000e+03 5.140518951416015625e+01 -3.304482221603393555e+00 -6.190406084060668945e-01 2.025834321975708008e-01 -1.249371469020843506e-01 6.879355311393737793e-01
2.914000000000000000e+03 4.623466873168945312e+01 -3.172739410400390625e+01 3.802676871418952942e-02 8.200864195823669434e-01 2.574339509010314941e-01 -1.926155239343643188e-01
2.915000000000000000e+03 7.083449554443359375e+01 1.636226844787597656e+01 -4.389545619487762451e-01 1.332933235168457031e+01 3.867113113403320312e+00 7.564452290534973145e-01
2.916000000000000000e+03 6.149602413177490234e+00 2.441189575195312500e+01 -5.010128952562808990e-03 -4.497507587075233459e-03 -2.852290868759155273e-03 5.264167673885822296e-03
2.917000000000000000e+03 6.423320770263671875e+00 2.576453399658203125e+01 -4.342909436672925949e-03 -6.852428428828716278e-03 -3.358601359650492668e-03 7.437565363943576813e-03
2.918000000000000000e+03 8.470169067382812500e+00 -3.274230575561523438e+01 9.144842624664306641e-02 -2.737982273101806641e-01 -5.470494180917739868e-02 -5.693978816270828247e-02
2.919000000000000000e+03 4.186690521240234375e+01 -1.860036468505859375e+01 4.560680985450744629e-01 9.409730434417724609e-01 4.191123545169830322e-01 -8.946990966796875000e-02
2.920000000000000000e+03 7.324820709228515625e+01 1.718964385986328125e+01 1.806641817092895508e+00 1.055056285858154297e+01 3.707161426544189453e+00 -1.335888385772705078e+00
2.921000000000000000e+03 4.067694091796875000e+01 -2.407413101196289062e+01 1.396699100732803345e-01 6.112620234489440918e-01 2.252795845270156860e-01 1.116978302597999573e-01
2.922000000000000000e+03 3.928984451293945312e+01 -2.237692070007324219e+01 8.243252336978912354e-02 2.866362929344177246e-01 1.107206419110298157e-01 1.608694903552532196e-02
2.923000000000000000e+03 7.140528106689453125e+01 2.453498840332031250e+01 -1.424251794815063477e+00 9.696737289428710938e+00 2.481745719909667969e+00 -2.979948520660400391e-01
2.924000000000000000e+03 2.968046188354492188e+01 -9.003982543945312500e+00 -6.778771877288818359e-01 -1.352679133415222168e-01 -2.439435273408889771e-01 -4.762267768383026123e-01
2.925000000000000000e+03 1.545444107055664062e+01 2.902221488952636719e+01 -1.661434024572372437e-02 -2.844286896288394928e-02 -1.351716276258230209e-02 4.203440248966217041e-02
2.926000000000000000e+03 3.223435592651367188e+01 2.615854644775390625e+01 -8.604341745376586914e-02 -7.987333834171295166e-02 -4.977502673864364624e-02 1.282583475112915039e-01
2.927000000000000000e+03 6.746646118164062500e+01 2.413423538208007812e+01 -5.020636320114135742e-01 4.977643013000488281e+00 1.342673897743225098e+00 -2.618824958801269531e+00
2.928000000000000000e+03 5.348595046997070312e+01 3.120087432861328125e+01 2.577523589134216309e-01 1.668252646923065186e-01 1.273732930421829224e-01 3.158226013183593750e-01
2.929000000000000000e+03 4.450251007080078125e+01 -3.510956764221191406e+00 -1.264746308326721191e+00 5.379194021224975586e-01 -2.180480659008026123e-01 -2.701455354690551758e-01
2.930000000000000000e+03 6.559935092926025391e+00 -1.872279739379882812e+01 -5.866964161396026611e-02 -2.715561687946319580e-01 -9.906774014234542847e-02 -4.367156028747558594e-01
2.931000000000000000e+03 1.078421115875244141e+01 -2.922717666625976562e+01 2.279501706361770630e-01 -9.817884117364883423e-02 3.893139958381652832e-02 -1.353547573089599609e-01
2.932000000000000000e+03 1.383128643035888672e+01 1.890854072570800781e+01 -7.954804226756095886e-03 -4.251050762832164764e-03 -3.661756403744220734e-03 -6.259212968870997429e-04
2.933000000000000000e+03 7.272586822509765625e+01 -1.783536911010742188e+01 9.864916801452636719e-01 7.979082107543945312e+00 2.689671993255615234e+00 7.897239327430725098e-01
2.934000000000000000e+03 6.036022949218750000e+01 -7.305600166320800781e+00 -6.426212191581726074e-01 2.412878125905990601e-01 -1.204000264406204224e-01 4.602763652801513672e-01
2.935000000000000000e+03 4.155337142944335938e+01 -2.159940338134765625e+01 2.710990011692047119e-01 8.676375150680541992e-01 3.416209518909454346e-01 -3.936326503753662109e-02
2.936000000000000000e+03 4.554067993164062500e+01 -3.022858142852783203e+00 -1.120230436325073242e+00 5.505356192588806152e-01 -1.709084510803222656e-01 -1.647697538137435913e-01
2.937000000000000000e+03 7.553308105468750000e+01 -6.402987480163574219e+00 -3.399160802364349365e-01 8.246954917907714844e+00 2.372111558914184570e+00 1.373418122529983521e-01
2.938000000000000000e+03 7.488813781738281250e+01 1.719002914428710938e+01 1.241966724395751953e+00 8.434910774230957031e+00 2.903063297271728516e+00 -8.743243813514709473e-01
2.939000000000000000e+03 6.420683288574218750e+01 2.975108146667480469e+00 1.548393964767456055e-01 2.413022279739379883e+00 7.703585028648376465e-01 6.592422127723693848e-01
2.940000000000000000e+03 6.565429687500000000e+01 3.016339302062988281e+00 -6.500541418790817261e-02 3.540144205093383789e+00 1.042541623115539551e+00 6.549289822578430176e-01
2.941000000000000000e+03 7.447866821289062500e+01 8.717111587524414062e+00 -2.588024437427520752e-01 8.017757415771484375e+00 2.327686309814453125e+00 -1.044027209281921387e+00
2.942000000000000000e+03 4.570047378540039062e+01 -5.741613388061523438e+00 -8.517192602157592773e-01 8.499171733856201172e-01 -5.406243144534528255e-04 4.347177594900131226e-02
2.943000000000000000e+03 4.551142883300781250e+01 1.270280838012695312e+01 -4.200913384556770325e-02 -1.156844105571508408e-02 -1.607327349483966827e-02 -1.162868458777666092e-02
2.944000000000000000e+03 4.457855987548828125e+01 1.263808917999267578e+01 -5.152262374758720398e-02 -9.821936488151550293e-03 -1.840336807072162628e-02 -1.324196439236402512e-02
2.945000000000000000e+03 1.412187957763671875e+01 2.347300529479980469e+01 -2.344215102493762970e-02 -5.884906742721796036e-03 -8.798117749392986298e-03 1.248638331890106201e-02
2.946000000000000000e+03 7.516331481933593750e+01 1.085100555419921875e+01 -1.470330804586410522e-01 7.992269039154052734e+00 2.353570938110351562e+00 -1.139247059822082520e+00
2.947000000000000000e+03 7.512294769287109375e+01 -2.089577865600585938e+01 5.747134089469909668e-01 7.511954307556152344e+00 2.426000356674194336e+00 -2.457426744513213634e-04
2.948000000000000000e+03 7.422560119628906250e+01 -2.005522537231445312e+01 7.686016559600830078e-01 7.687174320220947266e+00 2.536732912063598633e+00 1.673948615789413452e-01
2.949000000000000000e+03 7.202880859375000000e+01 -2.904755020141601562e+01 -4.008069932460784912e-01 6.731292247772216797e+00 1.899145483970642090e+00 4.423891380429267883e-02
2.950000000000000000e+03 7.560321807861328125e+01 2.852713203430175781e+01 -5.469563007354736328e-01 7.882226943969726562e+00 2.200581073760986328e+00 7.046931982040405273e-01
2.951000000000000000e+03 7.567973327636718750e+01 1.407507038116455078e+01 1.479961127042770386e-01 7.873459815979003906e+00 2.406436681747436523e+00 -1.229737758636474609e+00
2.952000000000000000e+03 7.479013824462890625e+01 1.417971706390380859e+01 1.613018959760665894e-01 8.645844459533691406e+00 2.642143964767456055e+00 -1.147191643714904785e+00
2.953000000000000000e+03 2.405913352966308594e+01 -5.950141906738281250e+00 -7.019187211990356445e-01 2.434501796960830688e-01 -1.375405639410018921e-01 -1.965708583593368530e-01
2.954000000000000000e+03 6.713716506958007812e+00 -4.708091735839843750e+00 3.354091942310333252e-02 -3.461116179823875427e-02 -3.210723516531288624e-04 1.084583848714828491e-01
2.955000000000000000e+03 2.481988143920898438e+01 -6.148215770721435547e+00 -8.684563040733337402e-01 2.787064611911773682e-01 -1.769249439239501953e-01 -2.474438101053237915e-01
2.956000000000000000e+03 6.056600570678710938e+01 -8.167670249938964844e+00 -8.458634018898010254e-01 1.363225728273391724e-01 -2.128622531890869141e-01 5.205242037773132324e-01
2.957000000000000000e+03 4.149835205078125000e+01 -1.241010761260986328e+01 5.057359933853149414e-01 3.742464184761047363e-01 2.639947235584259033e-01 1.022684946656227112e-01
2.958000000000000000e+03 4.258789443969726562e+01 1.702262878417968750e+01 -2.289705425500869751e-01 6.168093159794807434e-02 -5.018688365817070007e-02 6.888496689498424530e-03
2.959000000000000000e+03 1.424473667144775391e+01 2.533160781860351562e+01 -2.501491084694862366e-02 -1.100276503711938858e-02 -1.080530323088169098e-02 2.234630286693572998e-02
2.960000000000000000e+03 4.208008193969726562e+01 1.799114799499511719e+01 -2.660271227359771729e-01 7.721944898366928101e-02 -5.664230510592460632e-02 2.959665283560752869e-02
2.961000000000000000e+03 7.585338592529296875e+01 -2.027999687194824219e+01 4.803994894027709961e-01 7.518407344818115234e+00 2.399641990661621094e+00 9.828948974609375000e-02
2.962000000000000000e+03 7.875607490539550781e+00 -9.631263732910156250e+00 -2.242456525564193726e-01 -1.501724421977996826e-01 -1.123254299163818359e-01 1.635446026921272278e-02
2.963000000000000000e+03 7.017488002777099609e+00 -8.346264839172363281e+00 -1.349429488182067871e-01 -9.612440317869186401e-02 -6.932020187377929688e-02 7.077275216579437256e-02
2.964000000000000000e+03 7.563004302978515625e+01 7.298550128936767578e+00 -2.281677126884460449e-01 7.892118930816650391e+00 2.299185276031494141e+00 -9.907210469245910645e-01
2.965000000000000000e+03 2.388598823547363281e+01 -6.800590991973876953e+00 -7.097762823104858398e-01 2.681853771209716797e-01 -1.324772834777832031e-01 -3.368749320507049561e-01
2.966000000000000000e+03 7.550626754760742188e+00 -1.196279335021972656e+01 -3.166635036468505859e-01 -1.618537157773971558e-01 -1.435551643371582031e-01 -8.876337856054306030e-02
2.967000000000000000e+03 6.972964477539062500e+01 4.263579845428466797e+00 -4.982863962650299072e-01 6.300504684448242188e+00 1.740665435791015625e+00 -6.002225726842880249e-02
2.968000000000000000e+03 4.336425018310546875e+01 1.791900825500488281e+01 -2.705173790454864502e-01 8.501508831977844238e-02 -5.565068498253822327e-02 5.018678959459066391e-03
2.969000000000000000e+03 7.422582244873046875e+01 -4.894012928009033203e+00 -4.132513403892517090e-01 7.676375389099121094e+00 2.178937196731567383e+00 -5.372815206646919250e-02
2.970000000000000000e+03 6.999607086181640625e+01 -3.760946273803710938e+00 -5.073112249374389648e-01 5.692982196807861328e+00 1.555701255798339844e+00 -2.341601848602294922e-01
2.971000000000000000e+03 6.930888366699218750e+01 1.913788080215454102e+00 -4.571457207202911377e-01 5.697854995727539062e+00 1.572212815284729004e+00 -9.174119681119918823e-03
2.972000000000000000e+03 1.128501892089843750e+01 1.519235420227050781e+01 3.214786120224744081e-04 -2.790939761325716972e-03 -7.408383535221219063e-04 -3.355686494614928961e-04
2.973000000000000000e+03 1.370215225219726562e+01 -5.441931724548339844e+00 -5.754066631197929382e-02 -1.426998525857925415e-01 -6.007215753197669983e-02 -1.257354766130447388e-01
2.974000000000000000e+03 6.673085021972656250e+01 -1.329852491617202759e-01 -1.985715776681900024e-01 3.909035444259643555e+00 1.113139152526855469e+00 1.273212730884552002e-01
2.975000000000000000e+03 6.703158569335937500e+01 8.663249611854553223e-01 -1.951650679111480713e-01 4.177430152893066406e+00 1.194679498672485352e+00 1.819742619991302490e-01
2.976000000000000000e+03 1.065465545654296875e+01 6.017954349517822266e+00 7.238454418256878853e-04 -2.426967839710414410e-04 1.443446089979261160e-04 -2.625725028337910771e-05
2.977000000000000000e+03 7.132842254638671875e+01 2.832266330718994141e+00 -4.681638479232788086e-01 6.782077789306640625e+00 1.894174218177795410e+00 -3.467005789279937744e-01
2.978000000000000000e+03 7.177820587158203125e+01 3.595774650573730469e+00 -4.683391153812408447e-01 6.996725082397460938e+00 1.958515763282775879e+00 -4.020453393459320068e-01
2.979000000000000000e+03 6.861457061767578125e+01 1.156641006469726562e+00 -3.528078198432922363e-01 5.228641986846923828e+00 1.462750196456909180e+00 9.220689535140991211e-03
2.980000000000000000e+03 7.048814392089843750e+01 -1.031220912933349609e+00 -4.323456585407257080e-01 5.921910285949707031e+00 1.646869421005249023e+00 -2.519354820251464844e-01
2.981000000000000000e+03 9.219605445861816406e+00 1.347239589691162109e+01 1.073252526111900806e-03 -2.109215129166841507e-03 -3.107887750957161188e-04 -7.920418865978717804e-04
2.982000000000000000e+03 7.194185638427734375e+01 2.023348808288574219e+00 -4.448592364788055420e-01 6.861564636230468750e+00 1.925011634826660156e+00 -3.960927724838256836e-01
2.983000000000000000e+03 7.449637603759765625e+01 2.261811733245849609e+00 -3.118410706520080566e-01 7.728705883026123047e+00 2.225059270858764648e+00 -5.661768317222595215e-01
2.984000000000000000e+03 7.341625213623046875e+01 2.778217196464538574e-01 -3.654321730136871338e-01 7.257382392883300781e+00 2.067584991455078125e+00 -4.231554269790649414e-01
2.985000000000000000e+03 4.816661834716796875e+01 2.860905408859252930e+00 -1.507832930656149983e-04 -1.281060162000358105e-03 -4.295530379749834538e-04 -2.217770670540630817e-04
2.986000000000000000e+03 4.884421157836914062e+01 2.272418737411499023e+00 3.496209319564513862e-05 7.377685979008674622e-04 2.318192127859219909e-04 5.936596789979375899e-05
2.987000000000000000e+03 4.734590530395507812e+01 2.888893842697143555e+00 -8.189771906472742558e-04 6.095825228840112686e-04 -6.281839159782975912e-05 -7.665224984521046281e-06
2.988000000000000000e+03 4.729567718505859375e+01 2.148694038391113281e+00 1.929818681674078107e-04 4.785626661032438278e-04 2.014633646467700601e-04 -3.028442733921110630e-04
2.989000000000000000e+03 4.813059616088867188e+01 2.117087602615356445e+00 7.223243301268666983e-05 -1.001973985694348812e-03 -2.789224963635206223e-04 2.156544796889647841e-04
2.990000000000000000e+03 4.574391174316406250e+01 2.291988372802734375e+00 -1.769077061908319592e-04 -2.688642125576734543e-04 -1.337315770797431469e-04 -4.475350942811928689e-05
2.991000000000000000e+03 4.508349609375000000e+01 3.115487337112426758e+00 2.733009409894293640e-07 -4.729896027129143476e-04 -1.418148895027115941e-04 -2.689731190912425518e-04
2.992000000000000000e+03 4.654520034790039062e+01 2.946180820465087891e+00 4.266640753485262394e-04 -2.104523155139759183e-04 6.486352503998205066e-05 -1.219454352394677699e-04
2.993000000000000000e+03 4.435177612304687500e+01 3.206143379211425781e+00 1.039884373312816024e-04 5.731560522690415382e-04 2.031433541560545564e-04 6.620627245865762234e-04
2.994000000000000000e+03 4.426314163208007812e+01 2.471468925476074219e+00 -2.395554765826091170e-04 -1.254016766324639320e-03 -4.480716597754508257e-04 -4.062822845298796892e-04
2.995000000000000000e+03 4.500381088256835938e+01 2.379753112792968750e+00 -2.303195215063169599e-04 6.384309381246566772e-04 1.224334264406934381e-04 2.621501625981181860e-04
2.996000000000000000e+03 4.581465530395507812e+01 3.028782367706298828e+00 -1.866224483819678426e-04 4.299982974771410227e-04 7.301275763893499970e-05 8.677524601807817817e-05
2.997000000000000000e+03 4.648339843750000000e+01 2.208327293395996094e+00 -3.576784511096775532e-04 -2.621314365569560323e-07 -1.073821767931804061e-04 5.704306749976240098e-05
2.998000000000000000e+03 4.252347946166992188e+01 2.680981159210205078e+00 -1.283046789467334747e-03 -2.242655958980321884e-03 -1.057710847817361355e-03 -1.204541884362697601e-03
2.999000000000000000e+03 4.351091384887695312e+01 3.309151887893676758e+00 4.844085196964442730e-04 -4.807299992535263300e-04 1.103556428461160976e-06 -3.683337708935141563e-04
3.000000000000000000e+03 4.341752243041992188e+01 2.575045585632324219e+00 -4.320055086282081902e-05 1.531742746010422707e-03 4.465626843739300966e-04 5.955692613497376442e-04
3.001000000000000000e+03 4.205744171142578125e+01 3.310378789901733398e+00 1.251720357686281204e-03 1.671987469308078289e-03 8.771123248152434826e-04 1.824799459427595139e-03
3.002000000000000000e+03 4.261743545532226562e+01 3.415010452270507812e+00 6.138621247373521328e-04 3.169359988532960415e-04 2.792394370771944523e-04 -1.118698055506683886e-04
3.003000000000000000e+03 4.345193862915039062e+01 9.467082619667053223e-01 -3.858860731124877930e-01 -3.100509755313396454e-02 -1.250673532485961914e-01 -2.465830296277999878e-01
3.004000000000000000e+03 4.217771530151367188e+01 1.240924596786499023e+00 -7.387936115264892578e-02 -1.377307474613189697e-01 -6.348303705453872681e-02 -1.162889748811721802e-01
3.005000000000000000e+03 4.329924774169921875e+01 1.814638257026672363e+00 -1.556763052940368652e-01 -3.085264749825000763e-02 -5.595868453383445740e-02 -5.554011091589927673e-02
3.006000000000000000e+03 4.298704147338867188e+01 9.238630533218383789e-01 -3.192088007926940918e-01 -1.008506938815116882e-01 -1.260178536176681519e-01 -2.383181452751159668e-01
3.007000000000000000e+03 4.261388397216796875e+01 1.074863910675048828e+00 -2.612022161483764648e-01 -1.846492476761341095e-02 -8.390013873577117920e-02 -1.516883820295333862e-01
3.008000000000000000e+03 4.240362930297851562e+01 1.957117438316345215e+00 -1.785853877663612366e-02 1.792838238179683685e-02 2.095257150358520448e-05 -1.730968430638313293e-02
3.009000000000000000e+03 4.180619812011718750e+01 1.473482251167297363e+00 4.288760945200920105e-02 3.814904019236564636e-02 2.431099489331245422e-02 5.946385860443115234e-02
3.010000000000000000e+03 4.315832901000976562e+01 1.278418898582458496e+00 -2.980129122734069824e-01 -3.325263783335685730e-02 -9.937966614961624146e-02 -1.866876482963562012e-01
3.011000000000000000e+03 4.559793090820312500e+01 7.826830744743347168e-01 -8.289579749107360840e-01 7.711101323366165161e-02 -2.255540937185287476e-01 -1.463968902826309204e-01
3.012000000000000000e+03 4.566867446899414062e+01 1.519477009773254395e+00 -7.948001027107238770e-01 2.389372326433658600e-02 -2.312719225883483887e-01 -5.018281750380992889e-03
3.013000000000000000e+03 4.641819000244140625e+01 1.431636214256286621e+00 -9.742223620414733887e-01 8.274718187749385834e-03 -2.897843122482299805e-01 2.878769114613533020e-02
3.014000000000000000e+03 4.491914367675781250e+01 1.608290433883666992e+00 -5.933826565742492676e-01 1.191273890435695648e-02 -1.744409650564193726e-01 -3.727499768137931824e-02
3.015000000000000000e+03 4.416964721679687500e+01 1.698033809661865234e+00 -3.752272427082061768e-01 3.597304224967956543e-02 -1.017762571573257446e-01 -7.028939574956893921e-02
3.016000000000000000e+03 4.408101654052734375e+01 9.633592367172241211e-01 -5.567986965179443359e-01 4.615245759487152100e-02 -1.531938612461090088e-01 -2.251192033290863037e-01
3.017000000000000000e+03 4.635638427734375000e+01 6.937649250030517578e-01 -9.052574634552001953e-01 7.302667200565338135e-02 -2.496692389249801636e-01 -9.180453419685363770e-02
3.018000000000000000e+03 4.483945465087890625e+01 8.725561499595642090e-01 -7.027140855789184570e-01 8.689644187688827515e-02 -1.847452968358993530e-01 -2.086968123912811279e-01
3.019000000000000000e+03 1.771456718444824219e+01 -1.730482935905456543e+00 1.287992596626281738e-01 1.847729273140430450e-02 4.418296366930007935e-02 -6.056169793009757996e-02
3.020000000000000000e+03 1.610380172729492188e+01 -2.246368169784545898e+00 1.604607254266738892e-01 1.432503480464220047e-02 5.243572965264320374e-02 -1.135535985231399536e-01
3.021000000000000000e+03 1.839386558532714844e+01 -2.573463201522827148e+00 -4.434788227081298828e-02 2.742959372699260712e-02 -5.075486842542886734e-03 -1.307892352342605591e-01
3.022000000000000000e+03 1.696483802795410156e+01 -1.623387813568115234e+00 2.094637453556060791e-01 7.506887894123792648e-03 6.509119272232055664e-02 -6.928683072328567505e-02
3.023000000000000000e+03 1.846432685852050781e+01 -1.836017131805419922e+00 3.320440277457237244e-02 2.327054738998413086e-03 1.065943669527769089e-02 -5.839333683252334595e-02
3.024000000000000000e+03 1.763043975830078125e+01 -2.465977191925048828e+00 3.165337070822715759e-02 1.631413958966732025e-02 1.439025253057479858e-02 -1.310735344886779785e-01
3.025000000000000000e+03 1.621526145935058594e+01 -1.514777898788452148e+00 2.811306118965148926e-01 1.736125908792018890e-02 8.954756706953048706e-02 -7.253415137529373169e-02
3.026000000000000000e+03 1.686704444885253906e+01 -2.356930017471313477e+00 1.044522300362586975e-01 2.252790145576000214e-02 3.809404000639915466e-02 -1.185190305113792419e-01
3.027000000000000000e+03 1.922108840942382812e+01 -1.901556968688964844e+00 -7.010655105113983154e-02 1.717288047075271606e-02 -1.588010229170322418e-02 -4.729027301073074341e-02
3.028000000000000000e+03 2.075429344177246094e+01 -2.688717842102050781e+00 -2.684583365917205811e-01 4.261550493538379669e-03 -7.925903797149658203e-02 -1.092910319566726685e-01
3.029000000000000000e+03 1.917129516601562500e+01 -2.640394687652587891e+00 -1.207185462117195129e-01 1.141257677227258682e-02 -3.279178962111473083e-02 -1.359251141548156738e-01
3.030000000000000000e+03 2.154723358154296875e+01 -2.711827993392944336e+00 -3.171134293079376221e-01 1.966101676225662231e-02 -8.923572301864624023e-02 -8.545951545238494873e-02
3.031000000000000000e+03 2.151402282714843750e+01 -1.970406651496887207e+00 -3.411857187747955322e-01 -1.984638534486293793e-02 -1.083096340298652649e-01 -3.464555740356445312e-02
3.032000000000000000e+03 1.998429870605468750e+01 -1.925167441368103027e+00 -1.667333096265792847e-01 -8.146978914737701416e-03 -5.246408656239509583e-02 -4.206912964582443237e-02
3.033000000000000000e+03 1.996217155456542969e+01 -2.664836645126342773e+00 -1.975666284561157227e-01 2.671865932643413544e-02 -5.125439167022705078e-02 -1.169637367129325867e-01
3.034000000000000000e+03 2.074875450134277344e+01 -1.948217391967773438e+00 -2.555485069751739502e-01 1.907500810921192169e-02 -7.094205170869827271e-02 -3.305674716830253601e-02
3.035000000000000000e+03 2.611742591857910156e+01 -1.812861442565917969e+00 -7.751139253377914429e-02 -3.637576848268508911e-02 -3.416614606976509094e-02 5.157940834760665894e-02
3.036000000000000000e+03 2.535475349426269531e+01 -1.400197505950927734e+00 -6.982060521841049194e-02 8.461065590381622314e-03 -1.840786077082157135e-02 2.221012488007545471e-02
3.037000000000000000e+03 2.464254951477050781e+01 -1.533933281898498535e+00 -1.666277796030044556e-01 -3.231746610254049301e-03 -5.095785483717918396e-02 2.820449322462081909e-02
3.038000000000000000e+03 2.386987686157226562e+01 -1.667217731475830078e+00 -2.579156756401062012e-01 2.979636937379837036e-02 -6.843579560518264771e-02 -2.989466302096843719e-03
3.039000000000000000e+03 2.308257675170898438e+01 -1.796454071998596191e+00 -3.222368061542510986e-01 -6.344858556985855103e-03 -9.857449680566787720e-02 -2.495318464934825897e-02
3.040000000000000000e+03 2.229188537597656250e+01 -1.919883370399475098e+00 -3.670611381530761719e-01 9.341752156615257263e-03 -1.073158159852027893e-01 -4.125226661562919617e-02
3.041000000000000000e+03 2.236002731323242188e+01 -2.659403562545776367e+00 -3.488597571849822998e-01 7.564095780253410339e-03 -1.023886948823928833e-01 -4.103647544980049133e-02
3.042000000000000000e+03 2.559163856506347656e+01 -2.120468139648437500e+00 -2.509422302246093750e-01 -2.491524256765842438e-02 -8.275723457336425781e-02 1.196078658103942871e-01
3.043000000000000000e+03 2.483724784851074219e+01 -2.259016275405883789e+00 -3.208374381065368652e-01 5.899278819561004639e-02 -7.855339348316192627e-02 7.063110172748565674e-02
3.044000000000000000e+03 2.402239036560058594e+01 -2.397113323211669922e+00 -3.514502942562103271e-01 4.178244993090629578e-02 -9.290035068988800049e-02 3.824316710233688354e-02
3.045000000000000000e+03 2.319290542602539062e+01 -2.531162023544311523e+00 -3.709152638912200928e-01 5.216439068317413330e-02 -9.562525898218154907e-02 -2.381697995588183403e-03
3.046000000000000000e+03 2.371628379821777344e+01 -9.129138588905334473e-01 -2.329225389985367656e-05 -5.525409505935385823e-05 -2.356390541535802186e-05 -4.062243021962785861e-07
3.047000000000000000e+03 2.216311264038085938e+01 -4.021605253219604492e-01 3.100199683103710413e-05 7.862317579565569758e-05 3.288755033281631768e-05 -2.770016726572066545e-05
3.048000000000000000e+03 2.297673416137695312e+01 -1.029608249664306641e+00 4.565445692605862860e-07 7.382508920272812247e-05 2.228449011454358697e-05 -1.976145767912385054e-06
3.049000000000000000e+03 2.288781547546386719e+01 -2.915260493755340576e-01 -1.429832252597407205e-07 -1.122974863392300904e-04 -3.373213985469192266e-05 6.985113486734917387e-06
3.050000000000000000e+03 2.359944915771484375e+01 -1.773885339498519897e-01 2.388251596130430698e-05 1.016645910567604005e-04 3.766412919503636658e-05 4.157847433816641569e-05
3.051000000000000000e+03 2.222411346435546875e+01 -1.142714738845825195e+00 -1.550968408992048353e-05 -8.164398605003952980e-05 -2.914610013249330223e-05 6.808012585679534823e-06
3.052000000000000000e+03 2.425791740417480469e+01 -6.540381163358688354e-02 -8.154179522534832358e-05 -2.234010753454640508e-05 -3.116457082796841860e-05 -5.024360871175304055e-05
3.053000000000000000e+03 2.440266609191894531e+01 -7.983722686767578125e-01 2.209204285463783890e-05 4.321923552197404206e-05 1.959338260348886251e-05 -1.832953421398997307e-05
3.054000000000000000e+03 2.494900894165039062e+01 -5.251957774162292480e-01 -5.167076324141817167e-06 -2.606763882795348763e-05 -9.370414773002266884e-06 5.829504971188725904e-06
3.055000000000000000e+03 2.074404335021972656e+01 -1.171212673187255859e+00 -3.810904672718606889e-05 -7.421871850965544581e-05 -3.369832847965881228e-05 -4.522310064203338698e-06
3.056000000000000000e+03 2.073850631713867188e+01 -4.307121932506561279e-01 4.485433964873664081e-05 9.324878192273899913e-05 4.143093610764481127e-05 -3.554728891685954295e-06
3.057000000000000000e+03 2.144596099853515625e+01 -4.485336542129516602e-01 -5.990144200040958822e-05 -8.461691322736442089e-05 -4.335550693213008344e-05 4.142234956816537306e-06
3.058000000000000000e+03 1.932354164123535156e+01 -3.847304880619049072e-01 1.700930260994937271e-05 1.079932262655347586e-04 3.750075848074629903e-05 1.403692567691905424e-05
3.059000000000000000e+03 2.000878715515136719e+01 -1.149096250534057617e+00 -1.365509160677902400e-05 8.633277320768684149e-05 2.180330375267658383e-05 7.458811978722224012e-06
3.060000000000000000e+03 1.927374839782714844e+01 -1.123568177223205566e+00 -4.411225745570845902e-05 -9.918760770233348012e-05 -4.298995918361470103e-05 -1.226508993568131700e-05
3.061000000000000000e+03 2.147916603088378906e+01 -1.189865589141845703e+00 4.161709057370899245e-06 7.729092612862586975e-05 2.443579069222323596e-05 -1.324457844020798802e-05
3.062000000000000000e+03 2.003091430664062500e+01 -4.094271957874298096e-01 -5.346346733858808875e-05 -9.528521331958472729e-05 -4.462460492504760623e-05 -2.541249705245718360e-05
3.063000000000000000e+03 1.706781387329101562e+01 -8.498843908309936523e-01 -7.791286407154984772e-06 7.136938802432268858e-05 1.907342993945349008e-05 1.928602387124556117e-06
3.064000000000000000e+03 1.780313491821289062e+01 -9.543285965919494629e-01 -3.500842285575345159e-05 -9.661049989517778158e-05 -3.948567609768360853e-05 8.962046194938011467e-06
3.065000000000000000e+03 1.633273124694824219e+01 -7.435764670372009277e-01 -1.563381374580785632e-06 -4.049418566864915192e-05 -1.261726993107004091e-05 2.543288428569212556e-05
3.066000000000000000e+03 1.853857803344726562e+01 -1.058050036430358887e+00 -2.465103170834481716e-05 1.082439630408771336e-04 2.507788121874909848e-05 1.222336413775337860e-05
3.067000000000000000e+03 1.860903930664062500e+01 -3.206039965152740479e-01 -2.444491838105022907e-05 -8.743485523154959083e-05 -3.356393062858842313e-05 5.892219633096829057e-06
3.068000000000000000e+03 1.644419097900390625e+01 -1.198618113994598389e-02 8.420324593316763639e-05 5.179205254535190761e-05 4.079858990735374391e-05 -1.148377305071335286e-05
3.069000000000000000e+03 1.788726234436035156e+01 -2.188344895839691162e-01 1.732864438963588327e-05 9.641142969485372305e-05 3.412202204344794154e-05 -4.896418431599158794e-06
3.070000000000000000e+03 1.716560745239257812e+01 -1.163421869277954102e-01 1.001853979687439278e-05 -7.206407462945207953e-05 -1.861366035882383585e-05 6.474233668996021152e-05
3.071000000000000000e+03 1.425216674804687500e+01 3.718594610691070557e-01 1.317817368544638157e-04 -2.770013088593259454e-05 3.122448106296360493e-05 5.754979792982339859e-05
3.072000000000000000e+03 1.486107063293457031e+01 -4.904564023017883301e-01 7.108591671567410231e-05 5.439839696919079870e-06 2.295772537763696164e-05 1.883802542579360306e-05
3.073000000000000000e+03 1.338883495330810547e+01 -2.235203832387924194e-01 1.864333025878295302e-04 1.115238228521775454e-05 5.927570600761100650e-05 -6.378361376846441999e-07
3.074000000000000000e+03 1.498471641540527344e+01 2.391885817050933838e-01 1.740182342473417521e-04 9.527137081022374332e-06 5.506361048901453614e-05 3.088772064074873924e-05
3.075000000000000000e+03 1.559718132019042969e+01 -6.234676241874694824e-01 5.194448021939024329e-05 7.319350515899714082e-06 1.777914803824387491e-05 -1.252251308869745117e-06
3.076000000000000000e+03 1.571725749969482422e+01 1.068236008286476135e-01 4.246661046636290848e-05 -3.498214573482982814e-05 2.245339828732539900e-06 7.463695510523393750e-05
3.077000000000000000e+03 1.351961708068847656e+01 5.048320889472961426e-01 2.787826233543455601e-04 -2.828639708241098560e-06 8.278619498014450073e-05 5.817087730974890292e-05
3.078000000000000000e+03 1.412495326995849609e+01 -3.571392297744750977e-01 1.512271701358258724e-04 -1.987895666388794780e-05 3.940446549677290022e-05 -1.163394699688069522e-06
3.079000000000000000e+03 1.115447902679443359e+01 1.927391290664672852e-01 4.337779828347265720e-04 4.889881893177516758e-06 1.316003617830574512e-04 -3.506368739181198180e-05
3.080000000000000000e+03 1.124617767333984375e+01 9.282501339912414551e-01 3.838930570054799318e-04 -5.329983832780271769e-05 9.917796705849468708e-05 2.988066262332722545e-05
3.081000000000000000e+03 1.040858840942382812e+01 3.243718445301055908e-01 5.058542010374367237e-04 1.335014417236379813e-06 1.521567610325291753e-04 -3.864988684654235840e-05
3.082000000000000000e+03 1.190096187591552734e+01 5.598175525665283203e-02 3.323927812743932009e-04 -6.977320481382776052e-07 9.950851381290704012e-05 -2.515208143449854106e-05
3.083000000000000000e+03 1.277217197418212891e+01 6.438671946525573730e-01 2.512261562515050173e-04 -4.262022048351354897e-05 6.258178473217412829e-05 4.196868394501507282e-05
3.084000000000000000e+03 1.264777946472167969e+01 -8.565847575664520264e-02 2.839893859345465899e-04 -1.170509040093747899e-05 8.168529166141524911e-05 -1.186809004138922319e-05
3.085000000000000000e+03 1.048394012451171875e+01 1.062875509262084961e+00 4.723394522443413734e-04 2.538203261792659760e-05 1.493164454586803913e-04 2.045844667009077966e-05
3.086000000000000000e+03 1.200900745391845703e+01 7.885000705718994141e-01 3.936563152819871902e-04 -3.919368296578795707e-08 1.180851395474746823e-04 5.098839756101369858e-05
3.087000000000000000e+03 9.734361648559570312e+00 1.127145886421203613e+00 4.256143874954432249e-04 -3.162606662954203784e-05 1.181964908028021455e-04 -1.502646409790031612e-05
3.088000000000000000e+03 8.896935462951660156e+00 3.830009996891021729e-01 5.044544814154505730e-04 -1.764355511113535613e-05 1.460432686144486070e-04 -1.399137545377016068e-05
3.089000000000000000e+03 8.138064384460449219e+00 3.806286156177520752e-01 4.896181053481996059e-04 1.024743323796428740e-05 1.499596546636894345e-04 -2.173837856389582157e-05
3.090000000000000000e+03 7.379830837249755859e+00 3.796389997005462646e-01 4.115783667657524347e-04 -1.514034738647751510e-05 1.189314061775803566e-04 -2.743278491834644228e-05
3.091000000000000000e+03 5.863903999328613281e+00 3.757120370864868164e-01 2.795257314573973417e-04 -2.230555401183664799e-05 7.716604886809363961e-05 -3.994203871116042137e-05
3.092000000000000000e+03 5.320739269256591797e+00 1.112017512321472168e+00 2.186184865422546864e-04 -2.572066841821651906e-05 5.786934707430191338e-05 -1.040709394146688282e-04
3.093000000000000000e+03 4.347909450531005859e+00 3.707045614719390869e-01 1.399254251737147570e-04 -2.685971958271693438e-05 3.391971040400676429e-05 -3.756572550628334284e-05
3.094000000000000000e+03 2.832280635833740234e+00 3.607113361358642578e-01 2.546646101109217852e-05 -2.195365232182666659e-05 1.053842652254388668e-06 -2.757993752311449498e-05
3.095000000000000000e+03 2.076677560806274414e+00 3.580510318279266357e-01 1.675101339060347527e-05 2.429083360766526312e-05 1.231255373568274081e-05 -9.663485798228066415e-06
3.096000000000000000e+03 2.381986141204833984e+00 1.098051071166992188e+00 3.160816049785353243e-05 -5.671270628226920962e-06 7.781067324685864151e-06 -4.927871486870571971e-05
3.097000000000000000e+03 1.333416581153869629e+00 3.665323555469512939e-01 -1.668971708568278700e-05 -7.358554739766987041e-06 -7.214481684059137478e-06 -6.053689958207542077e-07
3.098000000000000000e+03 1.661404132843017578e+00 1.106532335281372070e+00 4.975059709977358580e-05 5.028437226428650320e-05 3.001049117301590741e-05 -3.547908272594213486e-05
3.099000000000000000e+03 6.549507379531860352e-01 3.948049247264862061e-01 7.194996214821003377e-06 5.275095645629335195e-06 3.741027512660366483e-06 -3.856614796404755907e-07
3.100000000000000000e+03 3.114910125732421875e+00 1.100711345672607422e+00 1.314783003181219101e-04 3.464994733803905547e-05 4.983847611583769321e-05 -6.964289059396833181e-05
3.101000000000000000e+03 3.589553356170654297e+00 3.676617443561553955e-01 1.069987629307433963e-04 2.894694443966727704e-05 4.078371057403273880e-05 -2.028090239036828279e-05
3.102000000000000000e+03 5.106146812438964844e+00 3.720174431800842285e-01 2.374590258114039898e-04 2.709336877160239965e-05 7.936571637401357293e-05 -2.506894452380947769e-05
3.103000000000000000e+03 6.055817127227783203e+00 1.115712046623229980e+00 3.488886577542871237e-04 1.604756653250660747e-05 1.094808685593307018e-04 -8.722253551241010427e-05
3.104000000000000000e+03 6.621888637542724609e+00 3.785927593708038330e-01 3.784557047765702009e-04 1.414093003404559568e-05 1.177789890789426863e-04 -2.636086901475209743e-05
3.105000000000000000e+03 8.261940002441406250e+00 1.120628595352172852e+00 4.048513656016439199e-04 -4.108983557671308517e-05 1.091284648282453418e-04 -5.160886939847841859e-05
3.106000000000000000e+03 8.998131752014160156e+00 1.123000979423522949e+00 5.020746029913425446e-04 1.901144241855945438e-05 1.563258119858801365e-04 -4.778932270710356534e-05
3.107000000000000000e+03 9.655843734741210938e+00 3.871458470821380615e-01 5.643626791425049305e-04 2.479572322044987231e-05 1.767475187079980969e-04 -2.046916051767766476e-05
3.108000000000000000e+03 7.526385784149169922e+00 1.119639039039611816e+00 4.455573216546326876e-04 1.066214190359460190e-05 1.368658413412049413e-04 -7.419326720992103219e-05
3.109000000000000000e+03 6.791122913360595703e+00 1.118592739105224609e+00 3.204066015314310789e-04 -3.109376484644599259e-05 8.679385064169764519e-05 -8.887799049261957407e-05
3.110000000000000000e+03 4.585180759429931641e+00 1.110704541206359863e+00 2.270227269036695361e-04 3.463694883976131678e-05 7.849790563341230154e-05 -8.944054570747539401e-05
3.111000000000000000e+03 3.849503755569458008e+00 1.107661724090576172e+00 1.125991548178717494e-04 -1.702485496934968978e-05 2.867228977265767753e-05 -8.031319885049015284e-05
3.112000000000000000e+03 1.005617380142211914e+00 1.134804964065551758e+00 -3.086274591623805463e-05 2.405095074209384620e-06 -8.537294888810720295e-06 1.312966105615487322e-05
3.113000000000000000e+03 3.521488606929779053e-01 9.576021432876586914e-01 1.469623748562298715e-05 -1.868379740699310787e-06 3.848357209790265188e-06 -2.188955249948776327e-06
3.114000000000000000e+03 1.473077964782714844e+01 -1.259489893913269043e+00 3.634961247444152832e-01 1.431551761925220490e-02 1.133434921503067017e-01 -7.789077609777450562e-02
3.115000000000000000e+03 1.399090099334716797e+01 -1.125491499900817871e+00 3.822798132896423340e-01 1.046507526189088821e-02 1.178234666585922241e-01 -7.547727227210998535e-02
3.116000000000000000e+03 1.312020874023437500e+01 -1.719582676887512207e+00 2.894328236579895020e-01 -4.413259681314229965e-03 8.550587296485900879e-02 -5.560777336359024048e-02
3.117000000000000000e+03 1.535054302215576172e+01 -2.123512268066406250e+00 2.118814438581466675e-01 1.412996184080839157e-02 6.780342012643814087e-02 -9.621597826480865479e-02
3.118000000000000000e+03 1.547062015533447266e+01 -1.393221139907836914e+00 3.320138454437255859e-01 1.312575768679380417e-02 1.035418808460235596e-01 -7.906842976808547974e-02
3.119000000000000000e+03 1.460713481903076172e+01 -1.989134907722473145e+00 2.499077022075653076e-01 4.202541895210742950e-03 7.623307406902313232e-02 -8.504403382539749146e-02
3.120000000000000000e+03 1.325099086761474609e+01 -9.912301898002624512e-01 3.892459869384765625e-01 1.059374306350946426e-02 1.199519187211990356e-01 -7.011307030916213989e-02
3.121000000000000000e+03 1.386368751525878906e+01 -1.854490160942077637e+00 2.760107517242431641e-01 1.920936512760818005e-03 8.337950706481933594e-02 -6.940152496099472046e-02
3.122000000000000000e+03 4.878850173950195312e+01 1.049355626106262207e+00 -8.454122543334960938e-01 1.308654397726058960e-01 -2.143640369176864624e-01 1.736291646957397461e-01
3.123000000000000000e+03 5.012623596191406250e+01 9.023151993751525879e-01 -9.497531056404113770e-01 -2.850253582000732422e-01 -3.704335391521453857e-01 4.414683282375335693e-01
3.124000000000000000e+03 4.808418273925781250e+01 1.328896045684814453e+00 -9.424981474876403809e-01 4.652746394276618958e-02 -2.687911987304687500e-01 9.997009485960006714e-02
3.125000000000000000e+03 4.723052215576171875e+01 1.373414754867553711e+00 -1.053673863410949707e+00 -5.803564563393592834e-03 -3.178432285785675049e-01 3.330701589584350586e-02
3.126000000000000000e+03 4.713285446166992188e+01 6.349517107009887695e-01 -9.288495182991027832e-01 6.347588449716567993e-02 -2.596120834350585938e-01 3.157068416476249695e-02
3.127000000000000000e+03 4.976459503173828125e+01 6.056182384490966797e-01 -1.200532674789428711e+00 -1.778296008706092834e-02 -3.654946684837341309e-01 2.965047657489776611e-01
3.128000000000000000e+03 4.861405944824218750e+01 4.997989833354949951e-01 -1.049614191055297852e+00 1.552837640047073364e-01 -2.682991325855255127e-01 2.060758620500564575e-01
3.129000000000000000e+03 4.930008697509765625e+01 1.340341091156005859e+00 -5.921476483345031738e-01 -4.022124037146568298e-02 -1.897106617689132690e-01 2.843404114246368408e-01
3.130000000000000000e+03 4.923085403442382812e+01 4.904414713382720947e-01 -9.982473850250244141e-01 1.000260338187217712e-01 -2.694664001464843750e-01 2.169293910264968872e-01
3.131000000000000000e+03 4.790584564208984375e+01 5.903443694114685059e-01 -9.769361019134521484e-01 1.156367883086204529e-01 -2.583898007869720459e-01 1.344701945781707764e-01
3.132000000000000000e+03 1.105858802795410156e+01 -5.865809917449951172e-01 3.413008153438568115e-01 2.786792349070310593e-03 1.032262817025184631e-01 -4.625960066914558411e-02
3.133000000000000000e+03 1.167972469329833984e+01 -1.452614903450012207e+00 2.915878891944885254e-01 -1.240716781467199326e-02 8.375421911478042603e-02 -2.656565792858600616e-02
3.134000000000000000e+03 1.025387477874755859e+01 -1.193646550178527832e+00 2.766731083393096924e-01 -2.617373317480087280e-02 7.514981180429458618e-02 -8.087074966169893742e-04
3.135000000000000000e+03 1.239226341247558594e+01 -1.585148334503173828e+00 2.953017652034759521e-01 -7.101414725184440613e-03 8.646010607481002808e-02 -3.980292379856109619e-02
3.136000000000000000e+03 1.251665687561035156e+01 -8.556226491928100586e-01 3.838338255882263184e-01 7.759343832731246948e-03 1.174779534339904785e-01 -6.438241153955459595e-02
3.137000000000000000e+03 1.178777027130126953e+01 -7.200965881347656250e-01 3.679271340370178223e-01 5.856914445757865906e-03 1.121352165937423706e-01 -5.613495782017707825e-02
3.138000000000000000e+03 1.096688938140869141e+01 -1.322091937065124512e+00 2.820897102355957031e-01 -1.877817884087562561e-02 7.899346202611923218e-02 -1.049024891108274460e-02
3.139000000000000000e+03 1.032922649383544922e+01 -4.551429152488708496e-01 3.009365797042846680e-01 -7.130597252398729324e-03 8.814179152250289917e-02 -2.912797406315803528e-02
3.140000000000000000e+03 8.732760429382324219e+00 -1.120617032051086426e+00 2.329115569591522217e-01 -1.430275849997997284e-02 6.558264046907424927e-02 2.008892409503459930e-02
3.141000000000000000e+03 8.744119644165039062e+00 -3.806170821189880371e-01 2.856916785240173340e-01 -2.742965240031480789e-03 8.488461375236511230e-02 6.673483178019523621e-03
3.142000000000000000e+03 9.557686805725097656e+00 -3.860147297382354736e-01 2.847298979759216309e-01 -8.849569596350193024e-03 8.276409655809402466e-02 -6.865001283586025238e-03
3.143000000000000000e+03 7.929113388061523438e+00 -3.783791959285736084e-01 2.644322216510772705e-01 -1.428570365533232689e-03 7.890109717845916748e-02 1.153728924691677094e-02
3.144000000000000000e+03 6.294783592224121094e+00 -3.763209879398345947e-01 1.972700357437133789e-01 -2.001437242142856121e-04 5.912096798419952393e-02 1.644586399197578430e-02
3.145000000000000000e+03 5.471644878387451172e+00 -3.752553761005401611e-01 1.572968214750289917e-01 -8.594425744377076626e-04 4.693121463060379028e-02 1.774892583489418030e-02
3.146000000000000000e+03 4.613348007202148438e+00 -3.803671598434448242e-01 1.149617880582809448e-01 4.005237424280494452e-04 3.460869193077087402e-02 1.814411208033561707e-02
3.147000000000000000e+03 3.732568025588989258e+00 -3.332802653312683105e-01 7.804049551486968994e-02 2.738831797614693642e-03 2.423379942774772644e-02 1.450665853917598724e-02
3.148000000000000000e+03 3.565870285034179688e+00 -8.610453605651855469e-01 7.173407822847366333e-02 3.471817821264266968e-03 2.256176806986331940e-02 3.536072000861167908e-02
3.149000000000000000e+03 2.136041402816772461e+00 -7.255376577377319336e-01 2.622989192605018616e-02 5.119791254401206970e-03 9.404905140399932861e-03 1.719026640057563782e-02
3.150000000000000000e+03 1.105533838272094727e+00 -3.810451924800872803e-01 2.788107376545667648e-03 1.510050380602478981e-03 1.289447303861379623e-03 2.153377979993820190e-03
3.151000000000000000e+03 3.938522040843963623e-01 -5.564679503440856934e-01 2.438361480017192662e-05 7.518274742324138060e-06 9.570566362526733428e-06 -1.693073954811552539e-06
3.152000000000000000e+03 6.703363060951232910e-01 -1.121045231819152832e+00 4.470993764698505402e-03 4.830113612115383148e-03 2.790332306176424026e-03 4.871746525168418884e-03
3.153000000000000000e+03 9.509115219116210938e+00 -1.126014709472656250e+00 2.593747675418853760e-01 -2.303342893719673157e-02 7.090239971876144409e-02 5.701191723346710205e-03
3.154000000000000000e+03 7.954967498779296875e+00 -1.118379235267639160e+00 2.164433598518371582e-01 -7.602909114211797714e-03 6.265213340520858765e-02 3.370533138513565063e-02
3.155000000000000000e+03 7.175180912017822266e+00 -1.117205142974853516e+00 1.932039409875869751e-01 -5.468327552080154419e-03 5.632068589329719543e-02 4.133783653378486633e-02
3.156000000000000000e+03 6.395063877105712891e+00 -1.116320967674255371e+00 1.679320335388183594e-01 -2.974718110635876656e-03 4.948719590902328491e-02 4.634544998407363892e-02
3.157000000000000000e+03 5.609138011932373047e+00 -1.115255355834960938e+00 1.399783492088317871e-01 -1.512763090431690216e-03 4.153967648744583130e-02 4.851073771715164185e-02
3.158000000000000000e+03 4.788054466247558594e+00 -1.120367169380187988e+00 1.101882383227348328e-01 1.168334856629371643e-03 3.340697288513183594e-02 4.774586483836174011e-02
3.159000000000000000e+03 4.061712265014648438e+00 -1.217836499214172363e+00 8.185717463493347168e-02 4.788109101355075836e-03 2.599358558654785156e-02 4.826159775257110596e-02
3.160000000000000000e+03 3.415162801742553711e+00 -1.287765026092529297e+00 5.978462845087051392e-02 8.227013051509857178e-03 2.040349319577217102e-02 4.774626716971397400e-02
3.161000000000000000e+03 2.701009988784790039e+00 -1.257357716560363770e+00 4.413186013698577881e-02 9.995657950639724731e-03 1.623825542628765106e-02 4.036676883697509766e-02
3.162000000000000000e+03 1.974916696548461914e+00 -1.234486579895019531e+00 2.451265230774879456e-02 1.337356027215719223e-02 1.136586349457502365e-02 2.730751410126686096e-02
3.163000000000000000e+03 7.112113475799560547e+00 -3.772051930427551270e-01 2.339112609624862671e-01 -1.338804839178919792e-03 6.977173686027526855e-02 1.471873093396425247e-02
3.164000000000000000e+03 2.813032150268554688e+00 -7.646003365516662598e-01 4.570248350501060486e-02 4.000124987214803696e-03 1.491078268736600876e-02 2.490982599556446075e-02
3.165000000000000000e+03 2.897913694381713867e+00 -2.672426402568817139e-01 4.040405899286270142e-02 9.930625092238187790e-04 1.241913624107837677e-02 8.360417559742927551e-03
3.166000000000000000e+03 1.625427722930908203e+00 -5.587234497070312500e-01 1.124604698270559311e-02 2.593619981780648232e-03 4.151900298893451691e-03 7.203920744359493256e-03
3.167000000000000000e+03 1.293549656867980957e+00 -1.184639215469360352e+00 9.938341565430164337e-03 1.060942281037569046e-02 6.164329126477241516e-03 1.351182721555233002e-02
3.168000000000000000e+03 2.151047229766845703e+00 -2.510510981082916260e-01 1.688120327889919281e-02 8.539461414329707623e-04 5.320544820278882980e-03 5.010715685784816742e-03
3.169000000000000000e+03 6.952567291259765625e+01 1.935030555725097656e+01 2.877849388122558594e+01 1.099592971801757812e+01 1.193232727050781250e+01 1.562442493438720703e+01
3.170000000000000000e+03 6.953367614746093750e+01 1.933258056640625000e+01 2.259996414184570312e+01 2.431805419921875000e+01 1.407540512084960938e+01 2.174065017700195312e+01
3.171000000000000000e+03 6.954497528076171875e+01 1.931674957275390625e+01 1.892578315734863281e+01 3.511006164550781250e+01 1.621075439453125000e+01 2.246079635620117188e+01
3.172000000000000000e+03 6.955913543701171875e+01 1.930341911315917969e+01 1.498596763610839844e+01 4.508148193359375000e+01 1.802023506164550781e+01 2.061101341247558594e+01
3.173000000000000000e+03 6.957561492919921875e+01 1.929309463500976562e+01 1.219395923614501953e+01 5.284916305541992188e+01 1.951293754577636719e+01 1.674792480468750000e+01
3.174000000000000000e+03 6.959378814697265625e+01 1.928617477416992188e+01 1.091045379638671875e+01 5.855965423583984375e+01 2.084103202819824219e+01 1.126897144317626953e+01
3.175000000000000000e+03 6.961296081542968750e+01 1.928292083740234375e+01 1.092218875885009766e+01 6.138289260864257812e+01 2.169152450561523438e+01 5.179473876953125000e+00
3.176000000000000000e+03 6.963240051269531250e+01 1.928345680236816406e+01 1.300819683074951172e+01 6.169503784179687500e+01 2.241097068786621094e+01 -6.626718044281005859e-01
3.177000000000000000e+03 6.965136718750000000e+01 1.928776550292968750e+01 1.629537010192871094e+01 5.954125213623046875e+01 2.275098609924316406e+01 -5.682628154754638672e+00
3.178000000000000000e+03 6.966912841796875000e+01 1.929567718505859375e+01 2.056991195678710938e+01 5.598159408569335938e+01 2.296545219421386719e+01 -8.968482017517089844e+00
3.179000000000000000e+03 6.968502044677734375e+01 1.930689430236816406e+01 2.544787025451660156e+01 5.129476928710937500e+01 2.302279281616210938e+01 -1.060505867004394531e+01
3.180000000000000000e+03 6.969841766357421875e+01 1.932098770141601562e+01 2.926390647888183594e+01 4.673627090454101562e+01 2.280005264282226562e+01 -1.053547477722167969e+01
3.181000000000000000e+03 6.970882415771484375e+01 1.933741760253906250e+01 3.314176559448242188e+01 4.294281768798828125e+01 2.282537460327148438e+01 -8.700986862182617188e+00
3.182000000000000000e+03 6.971583557128906250e+01 1.935555648803710938e+01 3.529007720947265625e+01 4.004513931274414062e+01 2.260056495666503906e+01 -6.148863315582275391e+00
3.183000000000000000e+03 6.971918487548828125e+01 1.937471389770507812e+01 3.635531997680664062e+01 3.836508941650390625e+01 2.241612243652343750e+01 -2.710603475570678711e+00
3.184000000000000000e+03 6.971875000000000000e+01 1.939415740966796875e+01 3.626765441894531250e+01 3.863023757934570312e+01 2.246936607360839844e+01 4.216263294219970703e-01
3.185000000000000000e+03 6.971453857421875000e+01 1.941314315795898438e+01 3.458504867553710938e+01 3.995793533325195312e+01 2.236289596557617188e+01 3.815277576446533203e+00
3.186000000000000000e+03 6.970671081542968750e+01 1.943094635009765625e+01 3.224113082885742188e+01 4.244220733642578125e+01 2.240500259399414062e+01 5.993865013122558594e+00
3.187000000000000000e+03 6.969557189941406250e+01 1.944688987731933594e+01 2.862864303588867188e+01 4.632864379882812500e+01 2.248718643188476562e+01 7.311693668365478516e+00
3.188000000000000000e+03 6.968154907226562500e+01 1.946036338806152344e+01 2.466482162475585938e+01 5.026964569091796875e+01 2.248034095764160156e+01 7.163239002227783203e+00
3.189000000000000000e+03 6.966516876220703125e+01 1.947084999084472656e+01 2.043351745605468750e+01 5.430582427978515625e+01 2.242180252075195312e+01 5.317799568176269531e+00
3.190000000000000000e+03 6.964706420898437500e+01 1.947795104980468750e+01 1.683874702453613281e+01 5.744356536865234375e+01 2.228469276428222656e+01 1.861537933349609375e+00
3.191000000000000000e+03 6.962792205810546875e+01 1.948139762878417969e+01 1.399557209014892578e+01 5.887375259399414062e+01 2.186079788208007812e+01 -2.940438985824584961e+00
3.192000000000000000e+03 6.960848236083984375e+01 1.948105621337890625e+01 1.261726951599121094e+01 5.810245132446289062e+01 2.121591567993164062e+01 -8.456524848937988281e+00
3.193000000000000000e+03 6.958947753906250000e+01 1.947693824768066406e+01 1.292333602905273438e+01 5.490864562988281250e+01 2.034959411621093750e+01 -1.392739772796630859e+01
3.194000000000000000e+03 6.957163238525390625e+01 1.946920204162597656e+01 1.426744937896728516e+01 4.912732696533203125e+01 1.901843261718750000e+01 -1.864468002319335938e+01
3.195000000000000000e+03 6.955563354492187500e+01 1.945814514160156250e+01 1.661507415771484375e+01 4.168429946899414062e+01 1.748981285095214844e+01 -2.173441314697265625e+01
3.196000000000000000e+03 6.954209136962890625e+01 1.944418716430664062e+01 1.914853668212890625e+01 3.284993362426757812e+01 1.559954166412353516e+01 -2.298654556274414062e+01
3.197000000000000000e+03 6.953152465820312500e+01 1.942786216735839844e+01 2.101799774169921875e+01 2.374623107910156250e+01 1.342926883697509766e+01 -2.229939079284667969e+01
3.198000000000000000e+03 6.952433013916015625e+01 1.940979385375976562e+01 2.228887748718261719e+01 1.493310928344726562e+01 1.116659545898437500e+01 -1.945039176940917969e+01
3.199000000000000000e+03 6.952079010009765625e+01 1.939067077636718750e+01 2.184035873413085938e+01 7.190794467926025391e+00 8.709345817565917969e+00 -1.508495521545410156e+01
3.200000000000000000e+03 6.952103424072265625e+01 1.937122535705566406e+01 1.967356491088867188e+01 1.677800178527832031e+00 6.405409812927246094e+00 -5.351583003997802734e+00
