# el_label, x, y, sXX, sYY, sZZ, sXY
1.000000000000000000e+00 2.157371139526367188e+01 -1.611383438110351562e+00 -7.129202365875244141e+00 -1.884144425392150879e+00 -2.704004049301147461e+00 -2.602016210556030273e+00
2.000000000000000000e+00 2.137522315979003906e+01 -1.626207232475280762e+00 -1.217718243598937988e+00 6.900308728218078613e-01 -1.583062261343002319e-01 2.510936260223388672e-01
3.000000000000000000e+00 2.117673492431640625e+01 -1.641031026840209961e+00 -1.156513690948486328e+00 -3.538396358489990234e-01 -4.531059861183166504e-01 -2.283802032470703125e-01
4.000000000000000000e+00 2.097824668884277344e+01 -1.655854821205139160e+00 -6.902608275413513184e-01 2.324509918689727783e-01 -1.373429447412490845e-01 -1.183499693870544434e-01
5.000000000000000000e+00 2.158373641967773438e+01 -1.668921828269958496e+00 5.735320568084716797e+00 -2.180804729461669922e+00 1.066354870796203613e+00 -2.403246462345123291e-01
6.000000000000000000e+00 2.139193153381347656e+01 -1.722104668617248535e+00 1.765790700912475586e+00 -1.371828168630599976e-01 4.885823726654052734e-01 -4.042319953441619873e-02
7.000000000000000000e+00 2.120012664794921875e+01 -1.775287389755249023e+00 2.569460868835449219e+00 4.072969257831573486e-01 8.930273652076721191e-01 7.012978792190551758e-01
8.000000000000000000e+00 2.100832366943359375e+01 -1.828470110893249512e+00 1.998089432716369629e+00 1.550082233734428883e-03 5.998918414115905762e-01 2.852351367473602295e-01
9.000000000000000000e+00 2.160477256774902344e+01 -1.723407506942749023e+00 1.058706474304199219e+01 9.233043193817138672e-01 3.453110694885253906e+00 4.759499073028564453e+00
1.000000000000000000e+01 2.142699241638183594e+01 -1.812914013862609863e+00 6.697509765625000000e+00 4.113032519817352295e-01 2.132643938064575195e+00 2.379377365112304688e+00
1.100000000000000000e+01 2.124921226501464844e+01 -1.902420401573181152e+00 4.751430511474609375e+00 9.047214984893798828e-01 1.696845650672912598e+00 1.769279360771179199e+00
1.200000000000000000e+01 2.107143211364746094e+01 -1.991926908493041992e+00 4.463743686676025391e+00 9.208055138587951660e-01 1.615364789962768555e+00 1.811592578887939453e+00
1.300000000000000000e+01 2.163601303100585938e+01 -1.772755265235900879e+00 1.267442226409912109e+01 5.689574718475341797e+00 5.509199142456054688e+00 8.858465194702148438e+00
1.400000000000000000e+01 2.147905921936035156e+01 -1.895160198211669922e+00 8.282108306884765625e+00 3.317512035369873047e+00 3.479886293411254883e+00 5.388516426086425781e+00
1.500000000000000000e+01 2.132210731506347656e+01 -2.017565250396728516e+00 6.803345680236816406e+00 2.649720907211303711e+00 2.835919857025146484e+00 3.943450689315795898e+00
1.600000000000000000e+01 2.116515350341796875e+01 -2.139970064163208008e+00 5.530641078948974609e+00 2.220709085464477539e+00 2.325405120849609375e+00 3.216503620147705078e+00
1.700000000000000000e+01 2.167626380920410156e+01 -1.815076589584350586e+00 1.170203495025634766e+01 1.207219505310058594e+01 7.132268905639648438e+00 1.169024085998535156e+01
1.800000000000000000e+01 2.154614257812500000e+01 -1.965695858001708984e+00 8.580753326416015625e+00 7.502158641815185547e+00 4.824873447418212891e+00 7.683866977691650391e+00
1.900000000000000000e+01 2.141602325439453125e+01 -2.116315126419067383e+00 6.856244564056396484e+00 5.786289691925048828e+00 3.792760372161865234e+00 5.762111186981201172e+00
2.000000000000000000e+01 2.128590393066406250e+01 -2.266934394836425781e+00 5.895690917968750000e+00 4.784485816955566406e+00 3.204053163528442383e+00 4.821354389190673828e+00
2.100000000000000000e+01 2.172398376464843750e+01 -1.848752140998840332e+00 9.650694847106933594e+00 1.892174530029296875e+01 8.571732521057128906e+00 1.258891868591308594e+01
2.200000000000000000e+01 2.162567520141601562e+01 -2.021821737289428711e+00 7.342011451721191406e+00 1.257459545135498047e+01 5.974982261657714844e+00 8.617036819458007812e+00
2.300000000000000000e+01 2.152736854553222656e+01 -2.194891452789306641e+00 6.114111900329589844e+00 9.684981346130371094e+00 4.739727973937988281e+00 6.825757026672363281e+00
2.400000000000000000e+01 2.142906188964843750e+01 -2.367960929870605469e+00 5.273926258087158203e+00 8.113677978515625000e+00 4.016281127929687500e+00 5.619028568267822266e+00
2.500000000000000000e+01 2.177734565734863281e+01 -1.872493028640747070e+00 7.120903015136718750e+00 2.563738441467285156e+01 9.827486038208007812e+00 1.124175071716308594e+01
2.600000000000000000e+01 2.171461296081542969e+01 -2.061389923095703125e+00 5.788315773010253906e+00 1.752932167053222656e+01 6.995291233062744141e+00 8.215171813964843750e+00
2.700000000000000000e+01 2.165188217163085938e+01 -2.250286817550659180e+00 4.783058166503906250e+00 1.389715290069580078e+01 5.604063510894775391e+00 6.538861274719238281e+00
2.800000000000000000e+01 2.158914947509765625e+01 -2.439183712005615234e+00 4.165938854217529297e+00 1.160602855682373047e+01 4.731590270996093750e+00 5.484743595123291016e+00
2.900000000000000000e+01 2.183430862426757812e+01 -1.885390877723693848e+00 5.310352325439453125e+00 3.100333786010742188e+01 1.089410686492919922e+01 8.237277984619140625e+00
3.000000000000000000e+01 2.180955314636230469e+01 -2.082886219024658203e+00 4.418257713317871094e+00 2.198220634460449219e+01 7.920138835906982422e+00 6.293636798858642578e+00
3.100000000000000000e+01 2.178479576110839844e+01 -2.280381679534912109e+00 3.589488744735717773e+00 1.757152938842773438e+01 6.348305225372314453e+00 5.190344333648681641e+00
3.200000000000000000e+01 2.176004028320312500e+01 -2.477877140045166016e+00 3.016939878463745117e+00 1.495192241668701172e+01 5.390658378601074219e+00 4.224871158599853516e+00
3.300000000000000000e+01 2.189269256591796875e+01 -1.886952042579650879e+00 4.923686504364013672e+00 3.459814071655273438e+01 1.185654735565185547e+01 3.940365552902221680e+00
3.400000000000000000e+01 2.190686035156250000e+01 -2.085488319396972656e+00 3.765912055969238281e+00 2.520139122009277344e+01 8.690191268920898438e+00 3.559024810791015625e+00
3.500000000000000000e+01 2.192102622985839844e+01 -2.284024477005004883e+00 2.987602710723876953e+00 2.047508621215820312e+01 7.038806438446044922e+00 2.725054264068603516e+00
3.600000000000000000e+01 2.193519210815429688e+01 -2.482560634613037109e+00 2.428669929504394531e+00 1.734834671020507812e+01 5.933104991912841797e+00 2.300966739654541016e+00
3.700000000000000000e+01 2.195026397705078125e+01 -1.877116799354553223e+00 6.046880245208740234e+00 3.611009216308593750e+01 1.264709186553955078e+01 -4.092437028884887695e-01
3.800000000000000000e+01 2.200281143188476562e+01 -2.069096088409423828e+00 4.294550418853759766e+00 2.700235939025878906e+01 9.389073371887207031e+00 1.502438038587570190e-01
3.900000000000000000e+01 2.205535888671875000e+01 -2.261075496673583984e+00 3.182219982147216797e+00 2.213472557067871094e+01 7.595083713531494141e+00 3.404423967003822327e-02
4.000000000000000000e+01 2.210790634155273438e+01 -2.453054904937744141e+00 2.663507938385009766e+00 1.887242889404296875e+01 6.460781097412109375e+00 -3.867823779582977295e-01
4.100000000000000000e+01 2.200481796264648438e+01 -1.856261491775512695e+00 8.743278503417968750e+00 3.568465423583984375e+01 1.332837963104248047e+01 -4.311651229858398438e+00
4.200000000000000000e+01 2.209373664855957031e+01 -2.034337282180786133e+00 5.785117626190185547e+00 2.743467140197753906e+01 9.965936660766601562e+00 -2.960087299346923828e+00
4.300000000000000000e+01 2.218265342712402344e+01 -2.212413072586059570e+00 4.533048629760742188e+00 2.243409729003906250e+01 8.090144157409667969e+00 -2.855619192123413086e+00
4.400000000000000000e+01 2.227157211303710938e+01 -2.390488862991333008e+00 3.573538303375244141e+00 1.929602813720703125e+01 6.860869884490966797e+00 -2.689035654067993164e+00
4.500000000000000000e+01 2.205426979064941406e+01 -1.825184226036071777e+00 1.229208946228027344e+01 3.411768341064453125e+01 1.392293167114257812e+01 -6.913006782531738281e+00
4.600000000000000000e+01 2.217615509033203125e+01 -1.982541799545288086e+00 8.301285743713378906e+00 2.641488456726074219e+01 1.041485118865966797e+01 -5.546331882476806641e+00
4.700000000000000000e+01 2.229803848266601562e+01 -2.139899492263793945e+00 6.512032985687255859e+00 2.187569999694824219e+01 8.516320228576660156e+00 -5.049431800842285156e+00
4.800000000000000000e+01 2.241992378234863281e+01 -2.297256946563720703e+00 5.557804584503173828e+00 1.840806388854980469e+01 7.189760684967041016e+00 -4.851490497589111328e+00
4.900000000000000000e+01 2.209672355651855469e+01 -1.785074234008789062e+00 1.610596466064453125e+01 3.159381484985351562e+01 1.430993366241455078e+01 -8.187298774719238281e+00
5.000000000000000000e+01 2.224691200256347656e+01 -1.915691852569580078e+00 1.130226230621337891e+01 2.490049743652343750e+01 1.086082744598388672e+01 -6.969430923461914062e+00
5.100000000000000000e+01 2.239709854125976562e+01 -2.046309471130371094e+00 9.039607048034667969e+00 2.019303131103515625e+01 8.769791603088378906e+00 -6.482810020446777344e+00
5.200000000000000000e+01 2.254728698730468750e+01 -2.176927089691162109e+00 7.711826324462890625e+00 1.733656311035156250e+01 7.514516830444335938e+00 -6.141772747039794922e+00
5.300000000000000000e+01 2.213055801391601562e+01 -1.737466573715209961e+00 1.968917274475097656e+01 2.949542617797851562e+01 1.475537967681884766e+01 -7.999710083007812500e+00
5.400000000000000000e+01 2.230330085754394531e+01 -1.836345672607421875e+00 1.425960540771484375e+01 2.262109565734863281e+01 1.106420993804931641e+01 -7.263264656066894531e+00
5.500000000000000000e+01 2.247604370117187500e+01 -1.935224890708923340e+00 1.155375385284423828e+01 1.873135375976562500e+01 9.085532188415527344e+00 -6.767821788787841797e+00
5.600000000000000000e+01 2.264878654479980469e+01 -2.034104108810424805e+00 9.878224372863769531e+00 1.542618942260742188e+01 7.591323852539062500e+00 -6.493152141571044922e+00
5.700000000000000000e+01 2.215447616577148438e+01 -1.684183001518249512e+00 2.227792549133300781e+01 2.728080749511718750e+01 1.486761951446533203e+01 -6.779690742492675781e+00
5.800000000000000000e+01 2.234316444396972656e+01 -1.747539758682250977e+00 1.683831596374511719e+01 2.117130661010742188e+01 1.140288734436035156e+01 -6.375789165496826172e+00
5.900000000000000000e+01 2.253185272216796875e+01 -1.810896515846252441e+00 1.360367584228515625e+01 1.685795211791992188e+01 9.138488769531250000e+00 -6.038610458374023438e+00
6.000000000000000000e+01 2.272053909301757812e+01 -1.874253273010253906e+00 1.157989597320556641e+01 1.423249816894531250e+01 7.743718147277832031e+00 -5.864402294158935547e+00
6.100000000000000000e+01 2.216756057739257812e+01 -1.627262473106384277e+00 2.405352401733398438e+01 2.664462089538574219e+01 1.520944404602050781e+01 -4.802240371704101562e+00
6.200000000000000000e+01 2.236497306823730469e+01 -1.652672290802001953e+00 1.827279853820800781e+01 1.960911560058593750e+01 1.136457347869873047e+01 -4.671346187591552734e+00
6.300000000000000000e+01 2.256238555908203125e+01 -1.678082227706909180e+00 1.498261547088623047e+01 1.630650520324707031e+01 9.386735916137695312e+00 -4.512710094451904297e+00
6.400000000000000000e+01 2.275979804992675781e+01 -1.703492045402526855e+00 1.264739227294921875e+01 1.297335338592529297e+01 7.686223983764648438e+00 -4.516861438751220703e+00
6.500000000000000000e+01 2.216931533813476562e+01 -1.568883657455444336e+00 2.430907249450683594e+01 2.598305320739746094e+01 1.508763790130615234e+01 -2.419361591339111328e+00
6.600000000000000000e+01 2.236789703369140625e+01 -1.555374145507812500e+00 1.870865631103515625e+01 1.996046447753906250e+01 1.160073661804199219e+01 -2.632719993591308594e+00
6.700000000000000000e+01 2.256647872924804688e+01 -1.541864752769470215e+00 1.515812969207763672e+01 1.560780715942382812e+01 9.229781150817871094e+00 -2.564563989639282227e+00
6.800000000000000000e+01 2.276506042480468750e+01 -1.528355360031127930e+00 1.292615699768066406e+01 1.359677982330322266e+01 7.956881046295166016e+00 -2.907705307006835938e+00
6.900000000000000000e+01 2.215967178344726562e+01 -1.511280298233032227e+00 2.367968177795410156e+01 2.710097503662109375e+01 1.523419761657714844e+01 -4.064570665359497070e-01
7.000000000000000000e+01 2.235182380676269531e+01 -1.459368586540222168e+00 1.766125488281250000e+01 2.044891738891601562e+01 1.143305206298828125e+01 -3.882913291454315186e-01
7.100000000000000000e+01 2.254397583007812500e+01 -1.407456994056701660e+00 1.435268592834472656e+01 1.678739166259765625e+01 9.342023849487304688e+00 -1.008355617523193359e+00
7.200000000000000000e+01 2.273612785339355469e+01 -1.355545282363891602e+00 1.175819206237792969e+01 1.393739986419677734e+01 7.708677768707275391e+00 -1.008844733238220215e+00
7.300000000000000000e+01 2.213899612426757812e+01 -1.456656813621520996e+00 2.155432701110839844e+01 2.873683738708496094e+01 1.508734893798828125e+01 1.470054149627685547e+00
7.400000000000000000e+01 2.231736564636230469e+01 -1.368329405784606934e+00 1.583287334442138672e+01 2.212417984008789062e+01 1.138711643218994141e+01 9.365944862365722656e-01
7.500000000000000000e+01 2.249573516845703125e+01 -1.280002117156982422e+00 1.223379802703857422e+01 1.840975379943847656e+01 9.193065643310546875e+00 4.598515033721923828e-01
7.600000000000000000e+01 2.267410469055175781e+01 -1.191674709320068359e+00 1.006116008758544922e+01 1.532918739318847656e+01 7.617104053497314453e+00 -2.853697165846824646e-03
7.700000000000000000e+01 2.210808372497558594e+01 -1.407103419303894043e+00 1.879654693603515625e+01 3.080229377746582031e+01 1.487965202331542969e+01 2.300199508666992188e+00
7.800000000000000000e+01 2.226584434509277344e+01 -1.285740494728088379e+00 1.296685314178466797e+01 2.450276756286621094e+01 1.124088573455810547e+01 1.477612257003784180e+00
7.900000000000000000e+01 2.242360496520996094e+01 -1.164377570152282715e+00 9.753061294555664062e+00 2.017664337158203125e+01 8.978911399841308594e+00 9.736080765724182129e-01
8.000000000000000000e+01 2.258136558532714844e+01 -1.043014645576477051e+00 7.603879451751708984e+00 1.760867309570312500e+01 7.563765525817871094e+00 3.455905616283416748e-01
8.100000000000000000e+01 2.206811332702636719e+01 -1.364516496658325195e+00 1.544862079620361328e+01 3.359481430053710938e+01 1.471302986145019531e+01 1.906356334686279297e+00
8.200000000000000000e+01 2.219923019409179688e+01 -1.214762330055236816e+00 9.871549606323242188e+00 2.642983818054199219e+01 1.089041614532470703e+01 9.844745397567749023e-01
8.300000000000000000e+01 2.233034324645996094e+01 -1.065008163452148438e+00 7.062294006347656250e+00 2.236495590209960938e+01 8.828174591064453125e+00 2.962643504142761230e-01
8.400000000000000000e+01 2.246145820617675781e+01 -9.152539372444152832e-01 4.905452728271484375e+00 1.930544662475585938e+01 7.263269901275634766e+00 1.116652134805917740e-02
8.500000000000000000e+01 2.202062034606933594e+01 -1.330525755882263184e+00 1.188855648040771484e+01 3.559745407104492188e+01 1.424580383300781250e+01 3.578572571277618408e-01
8.600000000000000000e+01 2.212007141113281250e+01 -1.158111095428466797e+00 7.180747032165527344e+00 2.828250312805175781e+01 1.063897514343261719e+01 -8.654879927635192871e-01
8.700000000000000000e+01 2.221952247619628906e+01 -9.856964349746704102e-01 4.468188285827636719e+00 2.360150718688964844e+01 8.420908927917480469e+00 -1.147503495216369629e+00
8.800000000000000000e+01 2.231897354125976562e+01 -8.132817745208740234e-01 2.794480323791503906e+00 2.079549980163574219e+01 7.076993942260742188e+00 -1.411303162574768066e+00
8.900000000000000000e+01 2.196741676330566406e+01 -1.306432008743286133e+00 9.182586669921875000e+00 3.704818725585937500e+01 1.386923217773437500e+01 -2.656646490097045898e+00
9.000000000000000000e+01 2.203139686584472656e+01 -1.117954730987548828e+00 4.947230339050292969e+00 2.873687362670898438e+01 1.010523128509521484e+01 -3.386917352676391602e+00
9.100000000000000000e+01 2.209537887573242188e+01 -9.294775724411010742e-01 2.804172754287719727e+00 2.423548316955566406e+01 8.111896514892578125e+00 -3.572833299636840820e+00
9.200000000000000000e+01 2.215936088562011719e+01 -7.410003542900085449e-01 1.183009862899780273e+00 2.096227645874023438e+01 6.643585681915283203e+00 -3.394721508026123047e+00
9.300000000000000000e+01 2.191053962707519531e+01 -1.293157100677490234e+00 7.341962814331054688e+00 3.672903442382812500e+01 1.322129917144775391e+01 -6.415098190307617188e+00
9.400000000000000000e+01 2.193660354614257812e+01 -1.095829963684082031e+00 4.016810894012451172e+00 2.800806999206542969e+01 9.607464790344238281e+00 -6.554872035980224609e+00
9.500000000000000000e+01 2.196266746520996094e+01 -8.985028862953186035e-01 1.914064645767211914e+00 2.334734725952148438e+01 7.578423500061035156e+00 -6.096082687377929688e+00
9.600000000000000000e+01 2.198873138427734375e+01 -7.011758089065551758e-01 5.628078579902648926e-01 2.045029067993164062e+01 6.303929805755615234e+00 -5.899570465087890625e+00
9.700000000000000000e+01 2.185216522216796875e+01 -1.291209220886230469e+00 7.145508766174316406e+00 3.457590866088867188e+01 1.251642513275146484e+01 -1.057856559753417969e+01
9.800000000000000000e+01 2.183931541442871094e+01 -1.092583537101745605e+00 4.156650066375732422e+00 2.557740783691406250e+01 8.920217514038085938e+00 -9.441520690917968750e+00
9.900000000000000000e+01 2.182646369934082031e+01 -8.939577937126159668e-01 2.168098449707031250e+00 2.120469474792480469e+01 7.011837959289550781e+00 -8.614391326904296875e+00
1.000000000000000000e+02 2.181361389160156250e+01 -6.953321099281311035e-01 8.164840936660766602e-01 1.861734962463378906e+01 5.830150127410888672e+00 -7.788315773010253906e+00
1.010000000000000000e+02 2.179453086853027344e+01 -1.300662755966186523e+00 8.430889129638671875e+00 3.034691429138183594e+01 1.163334083557128906e+01 -1.404058647155761719e+01
1.020000000000000000e+02 2.174325752258300781e+01 -1.108339548110961914e+00 5.392338752746582031e+00 2.170924758911132812e+01 8.130475997924804688e+00 -1.177622222900390625e+01
1.030000000000000000e+02 2.169198226928710938e+01 -9.160162210464477539e-01 3.275799989700317383e+00 1.783381843566894531e+01 6.332885742187500000e+00 -1.019509601593017578e+01
1.040000000000000000e+02 2.164070892333984375e+01 -7.236928939819335938e-01 1.864098668098449707e+00 1.545736503601074219e+01 5.196438789367675781e+00 -9.251687049865722656e+00
1.050000000000000000e+02 2.173983955383300781e+01 -1.321156024932861328e+00 1.099573993682861328e+01 2.426696014404296875e+01 1.057880973815917969e+01 -1.630600357055664062e+01
1.060000000000000000e+02 2.165210342407226562e+01 -1.142495036125183105e+00 7.174778938293457031e+00 1.681739234924316406e+01 7.197651386260986328e+00 -1.264441394805908203e+01
1.070000000000000000e+02 2.156436920166015625e+01 -9.638339281082153320e-01 4.902025699615478516e+00 1.357763671875000000e+01 5.543899059295654297e+00 -1.086510372161865234e+01
1.080000000000000000e+02 2.147663307189941406e+01 -7.851728200912475586e-01 3.191217184066772461e+00 1.177830886840820312e+01 4.490857601165771484e+00 -9.590665817260742188e+00
1.090000000000000000e+02 2.169018363952636719e+01 -1.351904869079589844e+00 1.377343082427978516e+01 1.723207855224609375e+01 9.301652908325195312e+00 -1.639727020263671875e+01
1.100000000000000000e+02 2.156934547424316406e+01 -1.193742990493774414e+00 9.138526916503906250e+00 1.132959079742431641e+01 6.140435218811035156e+00 -1.209993648529052734e+01
1.110000000000000000e+02 2.144850540161132812e+01 -1.035581111907958984e+00 6.174690723419189453e+00 9.217198371887207031e+00 4.617566585540771484e+00 -9.999731063842773438e+00
1.120000000000000000e+02 2.132766723632812500e+01 -8.774191737174987793e-01 4.423256874084472656e+00 8.070693969726562500e+00 3.748185157775878906e+00 -8.965372085571289062e+00
1.130000000000000000e+02 2.164746475219726562e+01 -1.391732454299926758e+00 1.629957580566406250e+01 9.776957511901855469e+00 7.822959899902343750e+00 -1.424916362762451172e+01
1.140000000000000000e+02 2.149814605712890625e+01 -1.260122299194335938e+00 9.863663673400878906e+00 6.364718437194824219e+00 4.868514537811279297e+00 -9.792250633239746094e+00
1.150000000000000000e+02 2.134882736206054688e+01 -1.128512144088745117e+00 6.946733951568603516e+00 5.259842872619628906e+00 3.661972999572753906e+00 -8.118003845214843750e+00
1.160000000000000000e+02 2.119950866699218750e+01 -9.969019889831542969e-01 4.684317111968994141e+00 4.832561016082763672e+00 2.855063438415527344e+00 -7.062221527099609375e+00
1.170000000000000000e+02 2.161331748962402344e+01 -1.439114809036254883e+00 1.632979774475097656e+01 3.475459814071655273e+00 5.941577434539794922e+00 -9.961056709289550781e+00
1.180000000000000000e+02 2.144123268127441406e+01 -1.339092731475830078e+00 9.497912406921386719e+00 2.320587158203125000e+00 3.545549869537353516e+00 -6.319846153259277344e+00
1.190000000000000000e+02 2.126914787292480469e+01 -1.239070773124694824e+00 5.734380722045898438e+00 2.639027833938598633e+00 2.512022495269775391e+00 -5.294332981109619141e+00
1.200000000000000000e+02 2.109706497192382812e+01 -1.139048814773559570e+00 4.277863025665283203e+00 2.437623977661132812e+00 2.014646053314208984e+00 -5.007146358489990234e+00
1.210000000000000000e+02 2.158904647827148438e+01 -1.492238521575927734e+00 1.376210975646972656e+01 -1.546657085418701172e+00 3.664635896682739258e+00 -3.782339334487915039e+00
1.220000000000000000e+02 2.140078353881835938e+01 -1.427632331848144531e+00 5.717583179473876953e+00 9.225083589553833008e-01 1.992027401924133301e+00 -2.683292627334594727e+00
1.230000000000000000e+02 2.121251869201660156e+01 -1.363026142120361328e+00 4.188497066497802734e+00 1.068547964096069336e+00 1.577113509178161621e+00 -3.103965759277343750e+00
1.240000000000000000e+02 2.102425575256347656e+01 -1.298419952392578125e+00 2.144620418548583984e+00 6.869795918464660645e-01 8.494799733161926270e-01 -2.361016035079956055e+00
1.250000000000000000e+02 2.157558441162109375e+01 -1.549070715904235840e+00 2.989220857620239258e+00 -2.067885637283325195e+00 2.764005064964294434e-01 1.228452086448669434e+00
1.260000000000000000e+02 2.137834358215332031e+01 -1.522352695465087891e+00 3.284546136856079102e+00 8.956717252731323242e-01 1.254065394401550293e+00 -1.314547181129455566e+00
1.270000000000000000e+02 2.118110466003417969e+01 -1.495634675025939941e+00 6.459358930587768555e-01 -2.246496379375457764e-01 1.263858675956726074e-01 -5.144453644752502441e-01
1.280000000000000000e+02 2.098386573791503906e+01 -1.468916654586791992e+00 -6.801681518554687500e-01 2.259047180414199829e-01 -1.362790316343307495e-01 -5.107716321945190430e-01
1.290000000000000000e+02 1.620078277587890625e+01 -1.508890867233276367e+00 -4.033770859241485596e-01 -2.579863369464874268e-02 -1.287527233362197876e-01 1.566417813301086426e-01
1.300000000000000000e+02 1.729480171203613281e+01 -2.514943838119506836e+00 5.989255905151367188e-01 -1.051956415176391602e-01 1.481189876794815063e-01 3.063465356826782227e-01
1.310000000000000000e+02 1.860573387145996094e+01 -2.599723339080810547e+00 1.302157640457153320e+00 -4.741332307457923889e-02 3.764232993125915527e-01 3.751709759235382080e-01
1.320000000000000000e+02 1.605081367492675781e+01 -2.234981060028076172e+00 2.514667436480522156e-02 -8.354372531175613403e-02 -1.751911640167236328e-02 2.917271256446838379e-01
1.330000000000000000e+02 1.850108909606933594e+01 -2.827446222305297852e+00 1.478284716606140137e+00 -3.191574290394783020e-02 4.339106976985931396e-01 5.289048552513122559e-01
1.340000000000000000e+02 1.870504760742187500e+01 -2.237527847290039062e+00 8.926159739494323730e-01 -1.353440061211585999e-02 2.637244760990142822e-01 1.154852882027626038e-01
1.350000000000000000e+02 1.819548988342285156e+01 -1.826642632484436035e+00 1.515293121337890625e-01 -5.189139395952224731e-02 2.989137545228004456e-02 3.447902947664260864e-02
1.360000000000000000e+02 1.693030738830566406e+01 -1.619200110435485840e+00 -2.151426672935485840e-01 -4.512929171323776245e-02 -7.808159291744232178e-02 1.182929128408432007e-01
1.370000000000000000e+02 1.867689704895019531e+01 -2.415487766265869141e+00 1.146124482154846191e+00 -5.127569288015365601e-02 3.284546434879302979e-01 2.794476747512817383e-01
1.380000000000000000e+02 1.850434112548828125e+01 -2.243899583816528320e+00 7.937214374542236328e-01 -4.765162616968154907e-02 2.238209396600723267e-01 1.755293607711791992e-01
1.390000000000000000e+02 1.869290733337402344e+01 -1.857465744018554688e+00 3.560833930969238281e-01 4.596421122550964355e-02 1.206142827868461609e-01 4.014794528484344482e-02
1.400000000000000000e+02 1.807339859008789062e+01 -2.223072528839111328e+00 5.385574698448181152e-01 -5.047620087862014771e-02 1.464243829250335693e-01 2.000520974397659302e-01
1.410000000000000000e+02 1.871397590637207031e+01 -2.045347452163696289e+00 6.844629645347595215e-01 -2.127969451248645782e-02 1.989549845457077026e-01 4.162924736738204956e-02
1.420000000000000000e+02 1.764570617675781250e+01 -2.224264860153198242e+00 4.566197693347930908e-01 -7.860720902681350708e-02 1.134037747979164124e-01 2.093534469604492188e-01
1.430000000000000000e+02 1.778053855895996094e+01 -2.649396419525146484e+00 9.760460853576660156e-01 -6.385231018066406250e-02 2.736581265926361084e-01 3.868692517280578613e-01
1.440000000000000000e+02 1.815097999572753906e+01 -2.581820487976074219e+00 1.053425669670104980e+00 -7.098357379436492920e-02 2.947326302528381348e-01 3.703759610652923584e-01
1.450000000000000000e+02 1.834093856811523438e+01 -2.385887861251831055e+00 8.922007679939270020e-01 -6.644134968519210815e-02 2.477278113365173340e-01 2.526096701622009277e-01
1.460000000000000000e+02 1.671698951721191406e+01 -2.336242198944091797e+00 2.732079923152923584e-01 -7.629095017910003662e-02 5.907511338591575623e-02 2.878999710083007812e-01
1.470000000000000000e+02 1.765339088439941406e+01 -1.686708688735961914e+00 -7.460173219442367554e-02 -2.981086634099483490e-02 -3.132377937436103821e-02 7.355213165283203125e-02
1.480000000000000000e+02 1.857943725585937500e+01 -1.615290760993957520e+00 -5.920571461319923401e-02 9.491546079516410828e-03 -1.491425093263387680e-02 6.128191947937011719e-03
1.490000000000000000e+02 1.849308013916015625e+01 -2.002372264862060547e+00 5.215807557106018066e-01 2.660436183214187622e-02 1.644555330276489258e-01 9.796170890331268311e-02
1.500000000000000000e+02 2.036965370178222656e+01 -1.646645188331604004e+00 -4.216376841068267822e-01 1.397397369146347046e-02 -1.222991123795509338e-01 2.474611066281795502e-02
1.510000000000000000e+02 2.238775062561035156e+01 -2.571069955825805664e+00 3.318386554718017578e+00 1.659624862670898438e+01 5.974390506744384766e+00 -3.064650058746337891e+00
1.520000000000000000e+02 2.324822807312011719e+01 -1.744730949401855469e+00 9.429933547973632812e+00 8.417182922363281250e+00 5.354135036468505859e+00 -4.223809719085693359e+00
1.530000000000000000e+02 2.293311309814453125e+01 -7.365875840187072754e-01 3.966455459594726562e+00 1.336513042449951172e+01 5.199475765228271484e+00 1.325539499521255493e-01
1.540000000000000000e+02 2.119375610351562500e+01 -2.176628261804580688e-01 5.674532055854797363e-01 9.235866546630859375e+00 2.940995693206787109e+00 -7.588690280914306641e+00
1.550000000000000000e+02 1.986157798767089844e+01 -1.672686636447906494e-01 -4.976899623870849609e-01 2.482699871063232422e+00 5.955029726028442383e-01 -3.402634382247924805e+00
1.560000000000000000e+02 2.270614433288574219e+01 -2.313712835311889648e+00 6.860104560852050781e+00 1.465450954437255859e+01 6.454383850097656250e+00 -5.950285911560058594e+00
1.570000000000000000e+02 2.204060745239257812e+01 -2.857363462448120117e+00 1.852398872375488281e+00 1.412010860443115234e+01 4.791752338409423828e+00 8.864268064498901367e-01
1.580000000000000000e+02 2.155218887329101562e+01 -2.678901433944702148e+00 3.473269462585449219e+00 1.033377838134765625e+01 4.142114162445068359e+00 4.452610492706298828e+00
1.590000000000000000e+02 2.075835609436035156e+01 -1.679859042167663574e+00 -4.247307777404785156e-01 -1.907505542039871216e-01 -1.846444010734558105e-01 -1.206803098320960999e-01
1.600000000000000000e+02 1.886188507080078125e+01 -2.888128995895385742e+00 1.873820066452026367e+00 1.382700502872467041e-01 6.036270260810852051e-01 6.680502891540527344e-01
1.610000000000000000e+02 1.907558059692382812e+01 -2.888080358505249023e+00 1.987808227539062500e+00 1.156001612544059753e-01 6.310225129127502441e-01 7.032725811004638672e-01
1.620000000000000000e+02 1.957042312622070312e+01 -1.662067174911499023e+00 -1.140215545892715454e-01 -2.343702316284179688e-02 -4.123757407069206238e-02 -1.963976770639419556e-02
1.630000000000000000e+02 2.030500602722167969e+01 -2.895388841629028320e+00 3.546308517456054688e+00 1.399511098861694336e+00 1.483745932579040527e+00 1.987024068832397461e+00
1.640000000000000000e+02 2.133260345458984375e+01 -2.949386835098266602e+00 3.241105794906616211e+00 7.716422080993652344e+00 3.287258386611938477e+00 3.870867490768432617e+00
1.650000000000000000e+02 2.073011779785156250e+01 -2.899941205978393555e+00 3.872814178466796875e+00 2.978374958038330078e+00 2.055356740951538086e+00 2.887345552444458008e+00
1.660000000000000000e+02 2.077463722229003906e+01 -1.906963586807250977e+00 1.983031272888183594e+00 9.678735584020614624e-02 6.239455938339233398e-01 3.728570938110351562e-01
1.670000000000000000e+02 2.017456054687500000e+01 -1.659989595413208008e+00 -3.791542053222656250e-01 6.225684657692909241e-02 -9.506920725107192993e-02 -5.113524571061134338e-02
1.680000000000000000e+02 1.988412284851074219e+01 -2.906480789184570312e+00 2.908408403396606445e+00 6.905156970024108887e-01 1.079677224159240723e+00 1.318585634231567383e+00
1.690000000000000000e+02 1.927858734130859375e+01 -2.898641109466552734e+00 2.162334918975830078e+00 2.194587439298629761e-01 7.145380973815917969e-01 8.296990394592285156e-01
1.700000000000000000e+02 2.225078582763671875e+01 -4.665118455886840820e-01 -1.149075850844383240e-01 1.852264976501464844e+01 5.522322654724121094e+00 -3.366431236267089844e+00
1.710000000000000000e+02 2.252411842346191406e+01 -3.121953904628753662e-01 -2.678079605102539062e-01 1.546708011627197266e+01 4.559781551361083984e+00 -2.057945728302001953e+00
1.720000000000000000e+02 2.275027275085449219e+01 -9.095064401626586914e-01 5.647221088409423828e+00 1.471702289581298828e+01 6.109273433685302734e+00 1.980796605348587036e-01
1.730000000000000000e+02 2.259974861145019531e+01 -7.558225393295288086e-01 3.450408697128295898e+00 1.698985290527343750e+01 6.132078170776367188e+00 -3.625981509685516357e-01
1.740000000000000000e+02 2.196669387817382812e+01 -2.688383340835571289e+00 2.121345758438110352e+00 1.521728134155273438e+01 5.201588153839111328e+00 1.627701520919799805e+00
1.750000000000000000e+02 1.908863258361816406e+01 -1.086477488279342651e-01 -1.800594925880432129e+00 1.875095367431640625e+00 2.235013432800769806e-02 -2.066491603851318359e+00
1.760000000000000000e+02 1.905470466613769531e+01 -7.258799076080322266e-01 -3.424085855484008789e+00 6.247002482414245605e-01 -8.398157358169555664e-01 -6.883113980293273926e-01
1.770000000000000000e+02 1.947036552429199219e+01 -1.292209923267364502e-01 -1.295459389686584473e+00 1.966480255126953125e+00 2.013062685728073120e-01 -2.540449857711791992e+00
1.780000000000000000e+02 2.140156364440917969e+01 -2.416204959154129028e-01 3.220821022987365723e-01 1.117963123321533203e+01 3.450514078140258789e+00 -7.829214572906494141e+00
1.790000000000000000e+02 1.898809432983398438e+01 -1.373450517654418945e+00 -5.598842144012451172e+00 7.876478880643844604e-02 -1.656023144721984863e+00 3.679619431495666504e-01
1.800000000000000000e+02 1.939856338500976562e+01 -1.380104422569274902e+00 -5.567408084869384766e+00 8.315228670835494995e-02 -1.645276665687561035e+00 1.393579989671707153e-01
1.810000000000000000e+02 1.997658920288085938e+01 -1.431903123855590820e+00 -4.609709262847900391e+00 3.338766470551490784e-02 -1.372896432876586914e+00 5.149406194686889648e-02
1.820000000000000000e+02 2.088295555114746094e+01 -1.020298600196838379e+00 2.415091991424560547e+00 1.954790592193603516e+00 1.310964822769165039e+00 -4.280249118804931641e+00
1.830000000000000000e+02 2.078291511535644531e+01 -1.443526029586791992e+00 -1.764321208000183105e+00 -5.293295904994010925e-02 -5.451762676239013672e-01 -4.275605082511901855e-01
1.840000000000000000e+02 2.294541931152343750e+01 -1.737842440605163574e+00 1.118544387817382812e+01 1.150215721130371094e+01 6.806280612945556641e+00 -4.571642398834228516e+00
1.850000000000000000e+02 2.298101425170898438e+01 -1.525927543640136719e+00 1.084615612030029297e+01 1.063265514373779297e+01 6.443643569946289062e+00 -2.894528150558471680e+00
1.860000000000000000e+02 2.243917274475097656e+01 -4.947215914726257324e-01 6.812459826469421387e-01 1.717820739746093750e+01 5.357835769653320312e+00 -1.993105411529541016e+00
1.870000000000000000e+02 2.241270065307617188e+01 -6.496294736862182617e-01 1.652974128723144531e+00 1.842153739929199219e+01 6.022353172302246094e+00 -1.443374872207641602e+00
1.880000000000000000e+02 2.161474609375000000e+01 -2.276569604873657227e-01 -2.287435531616210938e-01 1.341903209686279297e+01 3.957086801528930664e+00 -7.551290512084960938e+00
1.890000000000000000e+02 2.104912567138671875e+01 -4.546918570995330811e-01 1.792418956756591797e+00 7.053252220153808594e+00 2.653701305389404297e+00 -7.420422077178955078e+00
1.900000000000000000e+02 2.055033874511718750e+01 -1.666335821151733398e+00 -3.277763724327087402e-01 1.415443979203701019e-02 -9.408657997846603394e-02 5.911434814333915710e-02
1.910000000000000000e+02 1.997331619262695312e+01 -1.658570885658264160e+00 -2.660284638404846191e-01 -3.704577684402465820e-02 -9.092226624488830566e-02 -6.812022626399993896e-02
1.920000000000000000e+02 1.967993354797363281e+01 -2.907902717590332031e+00 2.644146203994750977e+00 5.050252676010131836e-01 9.447514414787292480e-01 1.113752126693725586e+00
1.930000000000000000e+02 1.977281379699707031e+01 -1.657567739486694336e+00 -1.651256829500198364e-01 2.998694078996777534e-03 -4.863809794187545776e-02 -3.833920136094093323e-02
1.940000000000000000e+02 1.947764587402343750e+01 -2.907906055450439453e+00 2.404557943344116211e+00 3.189638853073120117e-01 8.170565366744995117e-01 9.461470246315002441e-01
1.950000000000000000e+02 1.936817741394042969e+01 -1.655944347381591797e+00 -8.300667256116867065e-02 2.105549536645412445e-02 -1.858535408973693848e-02 -1.767505146563053131e-02
1.960000000000000000e+02 1.894284439086914062e+01 -1.842586994171142578e+00 2.959595918655395508e-01 -7.534515857696533203e-02 6.618432700634002686e-02 1.999102719128131866e-02
1.970000000000000000e+02 1.896269989013671875e+01 -1.629570603370666504e+00 -4.951165989041328430e-02 -2.111884579062461853e-02 -2.118915133178234100e-02 1.921501196920871735e-02
1.980000000000000000e+02 2.182450485229492188e+01 -2.251783907413482666e-01 -8.404595255851745605e-01 1.526580619812011719e+01 4.327603816986083984e+00 -6.419343471527099609e+00
1.990000000000000000e+02 1.906982994079589844e+01 -3.151594102382659912e-01 -2.413564682006835938e+00 1.387362122535705566e+00 -3.078607320785522461e-01 -1.388828635215759277e+00
2.000000000000000000e+02 2.101271438598632812e+01 -8.296728134155273438e-01 3.078653335571289062e+00 4.197562217712402344e+00 2.182864665985107422e+00 -6.325689792633056641e+00
2.010000000000000000e+02 1.944362640380859375e+01 -1.148564577102661133e+00 -4.340665817260742188e+00 1.573159396648406982e-01 -1.255005002021789551e+00 -1.786337047815322876e-01
2.020000000000000000e+02 2.006642532348632812e+01 -1.767628639936447144e-01 -2.216453999280929565e-01 2.722240447998046875e+00 7.501785159111022949e-01 -3.940807104110717773e+00
2.030000000000000000e+02 1.985361862182617188e+01 -1.083911776542663574e+00 -2.957764148712158203e+00 4.012165069580078125e-01 -7.669643163681030273e-01 -8.972406983375549316e-01
2.040000000000000000e+02 2.310842704772949219e+01 -1.961200118064880371e+00 9.343026161193847656e+00 9.590733528137207031e+00 5.680128097534179688e+00 -5.511112689971923828e+00
2.050000000000000000e+02 2.293538475036621094e+01 -1.307822108268737793e+00 1.018934631347656250e+01 1.180486011505126953e+01 6.598261833190917969e+00 -1.620981216430664062e+00
2.060000000000000000e+02 2.037130355834960938e+01 -1.417996168136596680e+00 -3.455769300460815430e+00 5.074984580278396606e-02 -1.021505832672119141e+00 -2.557383179664611816e-01
2.070000000000000000e+02 2.081844902038574219e+01 -1.234000802040100098e+00 8.025394678115844727e-01 6.214925646781921387e-01 4.272096157073974609e-01 -2.170822143554687500e+00
2.080000000000000000e+02 2.083778762817382812e+01 -6.110875010490417480e-01 1.957762598991394043e+00 4.224956989288330078e+00 1.854815840721130371e+00 -5.993868827819824219e+00
2.090000000000000000e+02 2.140258979797363281e+01 -5.519286990165710449e-01 1.784772753715515137e+00 1.098474121093750000e+01 3.830854415893554688e+00 -8.688568115234375000e+00
2.100000000000000000e+02 2.031986808776855469e+01 -7.093550562858581543e-01 8.043384552001953125e-02 1.657860398292541504e+00 5.214883089065551758e-01 -3.269599914550781250e+00
2.110000000000000000e+02 2.309766197204589844e+01 -1.235900163650512695e+00 8.574482917785644531e+00 1.086512470245361328e+01 5.831882476806640625e+00 -1.103053092956542969e+00
2.120000000000000000e+02 2.036336326599121094e+01 -1.186269164085388184e+00 -1.576285600662231445e+00 4.834198057651519775e-01 -3.278597295284271240e-01 -1.306168317794799805e+00
2.130000000000000000e+02 2.160976791381835938e+01 -5.008898973464965820e-01 7.162654399871826172e-01 1.424565982818603516e+01 4.488577365875244141e+00 -8.319122314453125000e+00
2.140000000000000000e+02 2.181842803955078125e+01 -4.797355830669403076e-01 -3.133686631917953491e-02 1.678488349914550781e+01 5.026063919067382812e+00 -7.227595806121826172e+00
2.150000000000000000e+02 2.210516166687011719e+01 -3.852800130844116211e-01 -7.018948197364807129e-01 1.767507934570312500e+01 5.091955184936523438e+00 -4.855648994445800781e+00
2.160000000000000000e+02 2.307286834716796875e+01 -1.822121739387512207e+00 1.025128841400146484e+01 1.018453025817871094e+01 6.130745410919189453e+00 -4.993364334106445312e+00
2.170000000000000000e+02 2.129745292663574219e+01 -2.529995441436767578e+00 4.808697223663330078e+00 6.770028114318847656e+00 3.473617553710937500e+00 4.804715633392333984e+00
2.180000000000000000e+02 2.218507194519042969e+01 -2.642423391342163086e+00 2.272813558578491211e+00 1.657655143737792969e+01 5.654809474945068359e+00 -7.964795827865600586e-01
2.190000000000000000e+02 2.084632110595703125e+01 -2.130835771560668945e+00 3.963189125061035156e+00 6.734352707862854004e-01 1.390987396240234375e+00 1.453358769416809082e+00
2.200000000000000000e+02 2.302290916442871094e+01 -2.360465764999389648e+00 7.259729385375976562e+00 1.150992679595947266e+01 5.630897045135498047e+00 -6.105173110961914062e+00
2.210000000000000000e+02 2.281104087829589844e+01 -2.128788948059082031e+00 8.690732002258300781e+00 1.375472450256347656e+01 6.733636856079101562e+00 -6.311606407165527344e+00
2.220000000000000000e+02 2.136231803894042969e+01 -2.697656393051147461e+00 3.998276710510253906e+00 7.889624118804931641e+00 3.566370248794555664e+00 4.526021957397460938e+00
2.230000000000000000e+02 2.097404670715332031e+01 -2.312749862670898438e+00 4.955291271209716797e+00 2.178330659866333008e+00 2.140086650848388672e+00 2.815679550170898438e+00
2.240000000000000000e+02 2.264274597167968750e+01 -4.366595745086669922e-01 7.496734261512756348e-01 1.535704994201660156e+01 4.832016944885253906e+00 -1.242390871047973633e+00
2.250000000000000000e+02 2.227366828918457031e+01 -2.950421810150146484e+00 1.885869503021240234e+00 1.341022586822509766e+01 4.588828563690185547e+00 -8.395704030990600586e-01
2.260000000000000000e+02 2.256236267089843750e+01 -2.760356187820434570e+00 3.085091829299926758e+00 1.422614097595214844e+01 5.193369865417480469e+00 -3.408563375473022461e+00
2.270000000000000000e+02 2.306907272338867188e+01 -8.708022236824035645e-01 4.368321418762207031e+00 1.116898345947265625e+01 4.661191463470458984e+00 5.178869515657424927e-02
2.280000000000000000e+02 2.314701461791992188e+01 -2.242147922515869141e+00 7.719541072845458984e+00 1.002558040618896484e+01 5.323536396026611328e+00 -5.783934116363525391e+00
2.290000000000000000e+02 2.272886466979980469e+01 -2.640794038772583008e+00 4.418797016143798828e+00 1.366936492919921875e+01 5.426448822021484375e+00 -4.876428127288818359e+00
2.300000000000000000e+02 2.255725097656250000e+01 -2.456946849822998047e+00 4.667356491088867188e+00 1.606093978881835938e+01 6.218489170074462891e+00 -4.689014434814453125e+00
2.310000000000000000e+02 2.238348197937011719e+01 -2.402420639991760254e-01 -8.245235681533813477e-01 1.595363140106201172e+01 4.538732528686523438e+00 -3.079090595245361328e+00
2.320000000000000000e+02 2.324548721313476562e+01 -1.334876418113708496e+00 8.373582839965820312e+00 8.685826301574707031e+00 5.117822647094726562e+00 -2.566866159439086914e+00
2.330000000000000000e+02 2.193589401245117188e+01 -2.988256216049194336e+00 1.846750617027282715e+00 1.260316467285156250e+01 4.334974288940429688e+00 1.593100905418395996e+00
2.340000000000000000e+02 2.299110603332519531e+01 -1.969043612480163574e+00 9.940349578857421875e+00 1.182113170623779297e+01 6.528444290161132812e+00 -5.683831691741943359e+00
2.350000000000000000e+02 2.321891403198242188e+01 -2.101387500762939453e+00 8.421511650085449219e+00 8.606335639953613281e+00 5.108354091644287109e+00 -5.637951850891113281e+00
2.360000000000000000e+02 2.278209304809570312e+01 -5.826117396354675293e-01 2.510766983032226562e+00 1.420500469207763672e+01 5.014731407165527344e+00 -2.787370383739471436e-01
2.370000000000000000e+02 2.221385002136230469e+01 -2.079060822725296021e-01 -1.187887430191040039e+00 1.638651657104492188e+01 4.559588432312011719e+00 -3.828721523284912109e+00
2.380000000000000000e+02 2.202271270751953125e+01 -5.145149230957031250e-01 -2.840529382228851318e-01 1.848935317993164062e+01 5.461590290069580078e+00 -5.315386772155761719e+00
2.390000000000000000e+02 1.980284118652343750e+01 -1.411788105964660645e+00 -5.027808666229248047e+00 -2.681623911485075951e-03 -1.509147167205810547e+00 9.774743020534515381e-02
2.400000000000000000e+02 2.027238845825195312e+01 -1.798624992370605469e-01 8.869428187608718872e-02 3.548670053482055664e+00 1.091209292411804199e+00 -4.578531742095947266e+00
2.410000000000000000e+02 2.057737922668457031e+01 -1.425379157066345215e+00 -2.667264938354492188e+00 1.306329667568206787e-01 -7.609896063804626465e-01 -3.776037395000457764e-01
2.420000000000000000e+02 1.993275642395019531e+01 -1.268129587173461914e+00 -3.788635015487670898e+00 1.928190588951110840e-01 -1.078744769096374512e+00 -4.946911036968231201e-01
2.430000000000000000e+02 2.059190368652343750e+01 -1.192131042480468750e+00 -3.948579728603363037e-01 4.737816751003265381e-01 2.367710694670677185e-02 -1.760498046875000000e+00
2.440000000000000000e+02 1.916534233093261719e+01 -1.641720890998840332e+00 -5.110488831996917725e-02 -2.085580863058567047e-02 -2.158821001648902893e-02 -1.753946766257286072e-02
2.450000000000000000e+02 1.937725448608398438e+01 -2.303387641906738281e+00 1.474064826965332031e+00 3.750216960906982422e-02 4.534701108932495117e-01 2.515793442726135254e-01
2.460000000000000000e+02 2.175325965881347656e+01 -2.705262184143066406e+00 2.600735425949096680e+00 1.307965850830078125e+01 4.704118251800537109e+00 3.444557428359985352e+00
2.470000000000000000e+02 1.989575958251953125e+01 -2.662730693817138672e+00 2.693840980529785156e+00 4.351180791854858398e-01 9.386876821517944336e-01 1.002295613288879395e+00
2.480000000000000000e+02 2.009206390380859375e+01 -2.902971267700195312e+00 3.213587522506713867e+00 9.694740176200866699e-01 1.254918456077575684e+00 1.614041686058044434e+00
2.490000000000000000e+02 2.052043342590332031e+01 -2.890409231185913086e+00 3.813529968261718750e+00 2.098462581634521484e+00 1.773597717285156250e+00 2.446844100952148438e+00
2.500000000000000000e+02 2.113198852539062500e+01 -2.942811965942382812e+00 3.710102796554565430e+00 5.580219268798828125e+00 2.787096738815307617e+00 3.747059345245361328e+00
2.510000000000000000e+02 1.890268135070800781e+01 -2.455172300338745117e+00 1.332598924636840820e+00 1.274604722857475281e-02 4.036034941673278809e-01 2.993161082267761230e-01
2.520000000000000000e+02 2.101203346252441406e+01 -2.656798601150512695e+00 4.518296718597412109e+00 4.032629489898681641e+00 2.565277814865112305e+00 3.633653163909912109e+00
2.530000000000000000e+02 1.986357307434082031e+01 -2.073571205139160156e+00 1.420222997665405273e+00 1.161036733537912369e-02 4.295499920845031738e-01 1.293807774782180786e-01
2.540000000000000000e+02 2.153236198425292969e+01 -2.951689243316650391e+00 2.749161481857299805e+00 9.540275573730468750e+00 3.686830997467041016e+00 3.617914438247680664e+00
2.550000000000000000e+02 2.174124526977539062e+01 -2.959641456604003906e+00 2.226361751556396484e+00 1.140588569641113281e+01 4.089673995971679688e+00 2.716046810150146484e+00
2.560000000000000000e+02 1.901389884948730469e+01 -1.155982375144958496e+00 -5.085124492645263672e+00 2.190242856740951538e-01 -1.459830045700073242e+00 1.949285715818405151e-01
2.570000000000000000e+02 1.926880264282226562e+01 -9.209284186363220215e-01 -3.690188884735107422e+00 4.453051686286926270e-01 -9.734650850296020508e-01 -5.163827538490295410e-01
2.580000000000000000e+02 1.903725814819335938e+01 -9.398903250694274902e-01 -4.285660266876220703e+00 4.020224511623382568e-01 -1.165091395378112793e+00 -2.964780628681182861e-01
2.590000000000000000e+02 1.961033439636230469e+01 -1.382973551750183105e+00 -5.313537597656250000e+00 -3.453902900218963623e-02 -1.604422926902770996e+00 6.045584753155708313e-02
2.600000000000000000e+02 1.891998481750488281e+01 -2.048816442489624023e+00 7.370103597640991211e-01 -3.026833571493625641e-02 2.120226025581359863e-01 2.213943935930728912e-02
2.610000000000000000e+02 2.067124748229980469e+01 -1.645020246505737305e-01 5.247757434844970703e-01 5.351637840270996094e+00 1.762924075126647949e+00 -5.906245231628417969e+00
2.620000000000000000e+02 2.061480712890625000e+01 -9.482973217964172363e-01 9.901014566421508789e-01 1.573713183403015137e+00 7.691444158554077148e-01 -3.435707569122314453e+00
2.630000000000000000e+02 2.047565078735351562e+01 -1.763506531715393066e-01 3.961173892021179199e-01 4.363623619079589844e+00 1.427922368049621582e+00 -5.308330535888671875e+00
2.640000000000000000e+02 1.928085708618164062e+01 -1.131810247898101807e-01 -1.534249186515808105e+00 1.535186052322387695e+00 2.810522855725139380e-04 -2.071872234344482422e+00
2.650000000000000000e+02 1.919468116760253906e+01 -1.375297307968139648e+00 -5.681550502777099609e+00 2.866950631141662598e-02 -1.695864319801330566e+00 2.375973761081695557e-01
2.660000000000000000e+02 1.968652153015136719e+01 -2.429820537567138672e+00 2.040982723236083984e+00 1.686474829912185669e-01 6.628890633583068848e-01 5.187860727310180664e-01
2.670000000000000000e+02 2.081276893615722656e+01 -2.584852933883666992e+00 4.409123897552490234e+00 2.280045032501220703e+00 2.006750583648681641e+00 2.796362161636352539e+00
2.680000000000000000e+02 1.925328254699707031e+01 -3.082692623138427734e-01 -1.956316351890563965e+00 1.493206501007080078e+00 -1.389329433441162109e-01 -1.907581686973571777e+00
2.690000000000000000e+02 1.923326873779296875e+01 -1.147425055503845215e+00 -4.646157741546630859e+00 2.460282444953918457e-01 -1.320038914680480957e+00 -1.731018722057342529e-02
2.700000000000000000e+02 2.101634979248046875e+01 -1.588286757469177246e-01 6.691739559173583984e-01 7.456293582916259766e+00 2.437640190124511719e+00 -7.049484729766845703e+00
2.710000000000000000e+02 1.941543960571289062e+01 -3.501196801662445068e-01 -1.672639846801757812e+00 1.254233598709106445e+00 -1.255218684673309326e-01 -1.957235455513000488e+00
2.720000000000000000e+02 1.888875198364257812e+01 -2.667630672454833984e+00 1.530899405479431152e+00 6.133887544274330139e-02 4.776714742183685303e-01 4.734995663166046143e-01
2.730000000000000000e+02 1.957268142700195312e+01 -1.926337242126464844e+00 6.648169755935668945e-01 -4.720209166407585144e-03 1.980290263891220093e-01 -1.797114871442317963e-02
2.740000000000000000e+02 2.052178764343261719e+01 -4.326491355895996094e-01 8.086954355239868164e-01 3.606963157653808594e+00 1.324697494506835938e+00 -5.041509628295898438e+00
2.750000000000000000e+02 2.008558464050292969e+01 -9.831245541572570801e-01 -1.697939634323120117e+00 6.322732567787170410e-01 -3.196999132633209229e-01 -1.625295877456665039e+00
2.760000000000000000e+02 1.932799339294433594e+01 -2.671369791030883789e+00 1.981618642807006836e+00 9.680620580911636353e-02 6.235274672508239746e-01 5.720042586326599121e-01
2.770000000000000000e+02 2.057578086853027344e+01 -2.567425251007080078e+00 3.922079563140869141e+00 1.419815063476562500e+00 1.602568387985229492e+00 2.014833450317382812e+00
2.780000000000000000e+02 1.990016746520996094e+01 -2.425373315811157227e+00 2.298894405364990234e+00 1.827498376369476318e-01 7.444933056831359863e-01 6.232581138610839844e-01
2.790000000000000000e+02 1.912668228149414062e+01 -2.645480155944824219e+00 1.766229629516601562e+00 8.774618804454803467e-02 5.561927556991577148e-01 5.286727547645568848e-01
2.800000000000000000e+02 2.058974838256835938e+01 -6.901131272315979004e-01 1.184886813163757324e+00 2.613234996795654297e+00 1.139436483383178711e+00 -4.465004444122314453e+00
2.810000000000000000e+02 2.005846786499023438e+01 -4.554279148578643799e-01 -3.431045711040496826e-01 1.984609842300415039e+00 4.924515783786773682e-01 -3.284730434417724609e+00
2.820000000000000000e+02 2.005305480957031250e+01 -7.280280590057373047e-01 -9.965037107467651367e-01 1.164288043975830078e+00 5.033529177308082581e-02 -2.377821683883666992e+00
2.830000000000000000e+02 2.009107398986816406e+01 -2.416526317596435547e+00 2.661853790283203125e+00 3.732716739177703857e-01 9.105376005172729492e-01 8.152728676795959473e-01
2.840000000000000000e+02 1.926614379882812500e+01 -2.125033378601074219e+00 1.006754994392395020e+00 -3.157943859696388245e-02 2.925526797771453857e-01 1.020604595541954041e-01
2.850000000000000000e+02 2.018697738647460938e+01 -1.889204502105712891e+00 9.914512634277343750e-01 -4.430416971445083618e-03 2.961062490940093994e-01 -4.776127170771360397e-03
2.860000000000000000e+02 1.949219703674316406e+01 -9.199742674827575684e-01 -3.094077348709106445e+00 4.501537084579467773e-01 -7.931770682334899902e-01 -8.000338077545166016e-01
2.870000000000000000e+02 2.050386619567871094e+01 -2.017908573150634766e+00 2.095407724380493164e+00 7.926358282566070557e-02 6.524013876914978027e-01 3.186425864696502686e-01
2.880000000000000000e+02 1.913801002502441406e+01 -2.414057016372680664e+00 1.449240326881408691e+00 1.201558299362659454e-02 4.383767843246459961e-01 3.226405978202819824e-01
2.890000000000000000e+02 1.909997177124023438e+01 -2.226735591888427734e+00 1.201252222061157227e+00 -2.342246659100055695e-02 3.533489108085632324e-01 1.257571876049041748e-01
2.900000000000000000e+02 1.890680694580078125e+01 -2.251408815383911133e+00 1.043485879898071289e+00 -3.650997951626777649e-02 3.020927608013153076e-01 1.421430110931396484e-01
2.910000000000000000e+02 1.914396095275878906e+01 -1.864492893218994141e+00 4.052283167839050293e-01 -1.701050065457820892e-02 1.164653375744819641e-01 2.002570778131484985e-02
2.920000000000000000e+02 1.935180854797363281e+01 -1.911689877510070801e+00 6.034097075462341309e-01 -1.894777826964855194e-02 1.753385812044143677e-01 -5.246767308562994003e-03
2.930000000000000000e+02 1.964972877502441406e+01 -1.156989574432373047e+00 -3.956015586853027344e+00 8.725938946008682251e-02 -1.160626888275146484e+00 -3.310306668281555176e-01
2.940000000000000000e+02 2.016812515258789062e+01 -1.419988512992858887e+00 -4.113024234771728516e+00 1.317420303821563721e-01 -1.194384694099426270e+00 -1.125052273273468018e-01
2.950000000000000000e+02 2.014147567749023438e+01 -1.207508802413940430e+00 -2.702849864959716797e+00 2.897954285144805908e-01 -7.239162921905517578e-01 -8.339101076126098633e-01
2.960000000000000000e+02 1.906110954284667969e+01 -5.190082788467407227e-01 -2.730387449264526367e+00 7.430878877639770508e-01 -5.961898565292358398e-01 -9.785086512565612793e-01
2.970000000000000000e+02 1.929589653015136719e+01 -6.866078972816467285e-01 -2.800400495529174805e+00 7.392554283142089844e-01 -6.183435320854187012e-01 -1.120850682258605957e+00
2.980000000000000000e+02 1.966168594360351562e+01 -1.512891650199890137e-01 -7.906442880630493164e-01 2.145131349563598633e+00 4.063461124897003174e-01 -2.980662584304809570e+00
2.990000000000000000e+02 1.960137748718261719e+01 -4.124370813369750977e-01 -1.487074136734008789e+00 1.485856056213378906e+00 -3.654332249425351620e-04 -2.197378635406494141e+00
3.000000000000000000e+02 1.982744407653808594e+01 -4.420029222965240479e-01 -9.627895951271057129e-01 1.607834100723266602e+00 1.935133785009384155e-01 -2.716843605041503906e+00
3.010000000000000000e+02 1.978925895690917969e+01 -7.136051654815673828e-01 -1.717177987098693848e+00 9.908967614173889160e-01 -2.178843766450881958e-01 -1.852273583412170410e+00
3.020000000000000000e+02 1.950044441223144531e+01 -2.695199251174926758e+00 2.257430076599121094e+00 2.214739173650741577e-01 7.436711788177490234e-01 7.382896542549133301e-01
3.030000000000000000e+02 1.969317245483398438e+01 -2.673733234405517578e+00 2.454194545745849609e+00 3.080829381942749023e-01 8.286832571029663086e-01 8.336473703384399414e-01
3.040000000000000000e+02 2.010418128967285156e+01 -2.646170377731323242e+00 3.009933471679687500e+00 6.136234402656555176e-01 1.087067127227783203e+00 1.205469727516174316e+00
3.050000000000000000e+02 2.032813072204589844e+01 -2.610045671463012695e+00 3.418795824050903320e+00 8.922844529151916504e-01 1.293324112892150879e+00 1.509766459465026855e+00
3.060000000000000000e+02 2.093199157714843750e+01 -2.922339916229248047e+00 3.889830827713012695e+00 3.958588600158691406e+00 2.354525804519653320e+00 3.339172363281250000e+00
3.070000000000000000e+02 2.114127349853515625e+01 -2.435920715332031250e+00 5.259052753448486328e+00 4.233804702758789062e+00 2.847857236862182617e+00 4.051832675933837891e+00
3.080000000000000000e+02 2.210466384887695312e+01 -2.992537021636962891e+00 1.712627172470092773e+00 1.323160076141357422e+01 4.483268260955810547e+00 -5.188802629709243774e-02
3.090000000000000000e+02 2.241625022888183594e+01 -2.871987581253051758e+00 2.401436090469360352e+00 1.418714523315429688e+01 4.976574420928955078e+00 -2.340997457504272461e+00
3.100000000000000000e+02 2.287827110290527344e+01 -2.497298240661621094e+00 5.629906654357910156e+00 1.263457775115966797e+01 5.479345321655273438e+00 -5.497137069702148438e+00
3.110000000000000000e+02 2.296345138549804688e+01 -2.157323360443115234e+00 8.285783767700195312e+00 1.159909820556640625e+01 5.965464591979980469e+00 -6.092412471771240234e+00
3.120000000000000000e+02 2.325112533569335938e+01 -1.931857585906982422e+00 8.906407356262207031e+00 8.867217063903808594e+00 5.332087039947509766e+00 -5.234789848327636719e+00
3.130000000000000000e+02 2.323248291015625000e+01 -1.533208250999450684e+00 9.606077194213867188e+00 9.158120155334472656e+00 5.629259109497070312e+00 -3.521523237228393555e+00
3.140000000000000000e+02 2.322968482971191406e+01 -1.168279170989990234e+00 7.490182399749755859e+00 1.002489089965820312e+01 5.254521846771240234e+00 -1.926897168159484863e+00
3.150000000000000000e+02 2.316730308532714844e+01 -1.004849672317504883e+00 5.913885593414306641e+00 1.089984226226806641e+01 5.044118404388427734e+00 -4.375594854354858398e-01
3.160000000000000000e+02 2.285575675964355469e+01 -1.097626924514770508e+00 7.990348339080810547e+00 1.355243778228759766e+01 6.462835788726806641e+00 -1.262605935335159302e-01
3.170000000000000000e+02 2.302483940124511719e+01 -1.044841885566711426e+00 7.435938835144042969e+00 1.157064151763916016e+01 5.701974391937255859e+00 -8.786379098892211914e-01
3.180000000000000000e+02 2.202789497375488281e+01 -2.114966809749603271e-01 -1.069601535797119141e+00 1.617106628417968750e+01 4.530439376831054688e+00 -5.262268543243408203e+00
3.190000000000000000e+02 2.085148620605468750e+01 -1.451367437839508057e-01 6.377935409545898438e-01 6.361779212951660156e+00 2.099871873855590820e+00 -6.466804504394531250e+00
3.200000000000000000e+02 2.091044616699218750e+01 -3.033100664615631104e-01 9.667055606842041016e-01 6.310895442962646484e+00 2.183280229568481445e+00 -6.723014354705810547e+00
3.210000000000000000e+02 2.029256820678710938e+01 -4.515739679336547852e-01 2.940503060817718506e-01 2.491716146469116211e+00 8.357299566268920898e-01 -4.055443763732910156e+00
3.220000000000000000e+02 2.041876411437988281e+01 -1.819533467292785645e+00 6.355968713760375977e-01 6.735508143901824951e-02 2.108855843544006348e-01 -1.002203077077865601e-01
3.230000000000000000e+02 2.056962776184082031e+01 -2.269195556640625000e+00 3.496424674987792969e+00 6.810069084167480469e-01 1.253229498863220215e+00 1.260185122489929199e+00
3.240000000000000000e+02 1.997155952453613281e+01 -1.886076927185058594e+00 8.413181304931640625e-01 2.969126962125301361e-02 2.613028287887573242e-01 1.315660960972309113e-02
3.250000000000000000e+02 2.118592643737792969e+01 -2.712131738662719727e+00 4.304092407226562500e+00 5.536846160888671875e+00 2.952281713485717773e+00 4.034155845642089844e+00
3.260000000000000000e+02 2.119990730285644531e+01 -6.668339967727661133e-01 2.699961423873901367e+00 7.649195671081542969e+00 3.104747056961059570e+00 -8.044847488403320312e+00
3.270000000000000000e+02 2.221380996704101562e+01 -5.836622714996337891e-01 2.657970786094665527e-01 1.945098114013671875e+01 5.915033340454101562e+00 -3.526502609252929688e+00
3.280000000000000000e+02 2.287622642517089844e+01 -1.930105924606323242e+00 1.053630638122558594e+01 1.198156929016113281e+01 6.755362510681152344e+00 -5.735250473022460938e+00
3.290000000000000000e+02 2.310205078125000000e+01 -2.115377426147460938e+00 8.362663269042968750e+00 1.049636363983154297e+01 5.657708168029785156e+00 -5.825448036193847656e+00
3.300000000000000000e+02 2.223676109313964844e+01 -2.808165788650512695e+00 2.099267721176147461e+00 1.507687759399414062e+01 5.152843475341796875e+00 -1.050657749176025391e+00
3.310000000000000000e+02 1.910330963134765625e+01 -2.058343648910522461e+00 7.366865277290344238e-01 -5.063825473189353943e-02 2.058144807815551758e-01 4.306107386946678162e-02
3.320000000000000000e+02 1.927180099487304688e+01 -4.834842681884765625e-01 -2.356296300888061523e+00 1.179293513298034668e+00 -3.531008362770080566e-01 -1.436179280281066895e+00
3.330000000000000000e+02 1.978271865844726562e+01 -1.883648276329040527e+00 6.337360739707946777e-01 -5.853966996073722839e-02 1.725589185953140259e-01 -2.674050442874431610e-02
3.340000000000000000e+02 1.962689971923828125e+01 -2.184078693389892578e+00 1.490476846694946289e+00 -1.681120321154594421e-02 4.420996904373168945e-01 2.061725407838821411e-01
3.350000000000000000e+02 2.000713729858398438e+01 -2.232855081558227539e+00 2.005565643310546875e+00 1.220423430204391479e-01 6.382824182510375977e-01 4.297941625118255615e-01
3.360000000000000000e+02 1.954080772399902344e+01 -6.752392649650573730e-01 -2.285364866256713867e+00 9.002168178558349609e-01 -4.155444502830505371e-01 -1.491131782531738281e+00
3.370000000000000000e+02 2.034569358825683594e+01 -9.529025554656982422e-01 -5.255598425865173340e-01 1.012248992919921875e+00 1.460067480802536011e-01 -2.339652776718139648e+00
3.380000000000000000e+02 2.224279212951660156e+01 -3.488597273826599121e-01 -6.793755888938903809e-01 1.710361480712890625e+01 4.927271366119384766e+00 -3.601413011550903320e+00
3.390000000000000000e+02 2.239684104919433594e+01 -3.554286062717437744e-01 -4.893436133861541748e-01 1.659943389892578125e+01 4.833027362823486328e+00 -2.661930799484252930e+00
3.400000000000000000e+02 2.073201942443847656e+01 -3.855313360691070557e-01 1.101375341415405273e+00 4.847379207611083984e+00 1.784626364707946777e+00 -5.986459255218505859e+00
3.410000000000000000e+02 1.971152687072753906e+01 -9.510543346405029297e-01 -2.682931661605834961e+00 5.010172724723815918e-01 -6.545743346214294434e-01 -1.097102046012878418e+00
3.420000000000000000e+02 2.024109268188476562e+01 -2.117107629776000977e+00 2.037295103073120117e+00 1.773820519447326660e-01 6.644031405448913574e-01 3.713652193546295166e-01
3.430000000000000000e+02 2.030860710144042969e+01 -2.348964214324951172e+00 2.936842441558837891e+00 4.288970530033111572e-01 1.009721875190734863e+00 9.355275630950927734e-01
3.440000000000000000e+02 1.946159553527832031e+01 -2.507074356079101562e+00 1.898159027099609375e+00 6.915053725242614746e-02 5.901928544044494629e-01 4.879015386104583740e-01
3.450000000000000000e+02 1.824376296997070312e+01 -8.976827263832092285e-01 -5.255706310272216797e+00 2.037213444709777832e-01 -1.515595436096191406e+00 3.146206438541412354e-01
3.460000000000000000e+02 1.721331405639648438e+01 -6.293348968029022217e-02 -3.960607528686523438e+00 4.357449412345886230e-01 -1.057458758354187012e+00 2.391275912523269653e-01
3.470000000000000000e+02 1.839742469787597656e+01 -4.847186803817749023e-01 -3.776640892028808594e+00 7.284675836563110352e-01 -9.144519567489624023e-01 -3.695820569992065430e-01
3.480000000000000000e+02 1.878676414489746094e+01 -7.195724248886108398e-01 -3.783835649490356445e+00 5.880826115608215332e-01 -9.587258696556091309e-01 -4.282261133193969727e-01
3.490000000000000000e+02 1.745030021667480469e+01 -1.060771822929382324e+00 -6.672069072723388672e+00 -1.214036270976066589e-01 -2.038041830062866211e+00 9.898102283477783203e-01
3.500000000000000000e+02 1.871901893615722656e+01 -7.407759130001068115e-02 -2.466388225555419922e+00 1.269017338752746582e+00 -3.592112660408020020e-01 -1.332462787628173828e+00
3.510000000000000000e+02 1.877164459228515625e+01 -5.084257721900939941e-01 -3.186507225036621094e+00 8.092730641365051270e-01 -7.131702303886413574e-01 -7.743114233016967773e-01
3.520000000000000000e+02 1.878084754943847656e+01 -2.978692352771759033e-01 -2.703734636306762695e+00 8.337146639823913574e-01 -5.610059499740600586e-01 -1.059895157814025879e+00
3.530000000000000000e+02 1.646350288391113281e+01 -1.430422067642211914e-02 -4.380534648895263672e+00 1.300472021102905273e-01 -1.275146245956420898e+00 6.730658411979675293e-01
3.540000000000000000e+02 1.631493949890136719e+01 -7.405949831008911133e-01 -6.387838840484619141e+00 -1.549534052610397339e-01 -1.962837696075439453e+00 1.077959895133972168e+00
3.550000000000000000e+02 1.736101913452148438e+01 -6.166506409645080566e-01 -5.416464328765869141e+00 1.175294294953346252e-01 -1.589680433273315430e+00 5.604202747344970703e-01
3.560000000000000000e+02 1.876142311096191406e+01 -9.089853167533874512e-01 -4.627472877502441406e+00 3.962794542312622070e-01 -1.269358038902282715e+00 -1.011658161878585815e-01
3.570000000000000000e+02 1.860708045959472656e+01 -1.321617960929870605e+00 -6.031916618347167969e+00 -1.268778555095195770e-02 -1.813381314277648926e+00 7.228239774703979492e-01
3.580000000000000000e+02 1.840676879882812500e+01 -1.903982013463973999e-01 -3.100227832794189453e+00 1.143318533897399902e+00 -5.870727896690368652e-01 -7.899414300918579102e-01
3.590000000000000000e+02 1.851477432250976562e+01 -7.477073669433593750e-01 -4.321968555450439453e+00 5.352430939674377441e-01 -1.136017680168151855e+00 -1.325776129961013794e-01
3.600000000000000000e+02 1.790476799011230469e+01 -8.010324090719223022e-02 -3.389313459396362305e+00 6.966120600700378418e-01 -8.078104257583618164e-01 -3.518231511116027832e-01
3.610000000000000000e+02 1.868052101135253906e+01 -1.101731061935424805e+00 -5.501930713653564453e+00 2.235841453075408936e-01 -1.583503961563110352e+00 3.002862632274627686e-01
3.620000000000000000e+02 1.803868293762207031e+01 -1.175164461135864258e+00 -6.575155258178710938e+00 -1.307912617921829224e-01 -2.011784076690673828e+00 9.354138374328613281e-01
3.630000000000000000e+02 1.690919494628906250e+01 -9.161238670349121094e-01 -6.561419486999511719e+00 -1.395962834358215332e-01 -2.010304689407348633e+00 1.062790632247924805e+00
3.640000000000000000e+02 1.795409011840820312e+01 -5.328087210655212402e-01 -4.496310710906982422e+00 3.014692962169647217e-01 -1.258452415466308594e+00 1.047235950827598572e-01
3.650000000000000000e+02 1.498471641540527344e+01 2.391885817050933838e-01 -4.435493469238281250e+00 -7.697548717260360718e-02 -1.353740692138671875e+00 1.005705952644348145e+00
3.660000000000000000e+02 1.425216674804687500e+01 3.718594610691070557e-01 -4.352471351623535156e+00 -1.941845118999481201e-01 -1.363996744155883789e+00 1.117489337921142578e+00
3.670000000000000000e+02 1.571725749969482422e+01 1.068236008286476135e-01 -4.504335880279541016e+00 1.162206847220659256e-02 -1.347814083099365234e+00 8.895264267921447754e-01
3.680000000000000000e+02 1.351961708068847656e+01 5.048320889472961426e-01 -4.219069004058837891e+00 -2.214027792215347290e-01 -1.332141518592834473e+00 1.163833498954772949e+00
3.690000000000000000e+02 1.486107063293457031e+01 -4.904564023017883301e-01 -6.179820537567138672e+00 -2.413248121738433838e-01 -1.926343560218811035e+00 1.240059256553649902e+00
3.700000000000000000e+02 1.338883495330810547e+01 -2.235203832387924194e-01 -5.690368175506591797e+00 -2.507672309875488281e-01 -1.782340645790100098e+00 1.213843345642089844e+00
3.710000000000000000e+02 1.559718132019042969e+01 -6.234676241874694824e-01 -6.274569511413574219e+00 -1.317408382892608643e-01 -1.921893119812011719e+00 1.178560137748718262e+00
3.720000000000000000e+02 1.412495326995849609e+01 -3.571392297744750977e-01 -5.969306468963623047e+00 -2.262498140335083008e-01 -1.858666896820068359e+00 1.239072203636169434e+00
3.730000000000000000e+02 1.115447902679443359e+01 1.927391290664672852e-01 -4.755321979522705078e+00 -2.269326150417327881e-01 -1.494676351547241211e+00 1.040822744369506836e+00
3.740000000000000000e+02 1.124617767333984375e+01 9.282501339912414551e-01 -3.613771200180053711e+00 -3.546766638755798340e-01 -1.190534353256225586e+00 1.057474613189697266e+00
3.750000000000000000e+02 1.040858840942382812e+01 3.243718445301055908e-01 -4.622175693511962891e+00 -2.983466088771820068e-01 -1.476156711578369141e+00 8.653325438499450684e-01
3.760000000000000000e+02 1.190096187591552734e+01 5.598175525665283203e-02 -5.055241107940673828e+00 -2.511010468006134033e-01 -1.591902613639831543e+00 1.110924243927001953e+00
3.770000000000000000e+02 1.277217197418212891e+01 6.438671946525573730e-01 -4.045013904571533203e+00 -2.814233899116516113e-01 -1.297931194305419922e+00 1.167604923248291016e+00
3.780000000000000000e+02 1.264777946472167969e+01 -8.565847575664520264e-02 -5.373398303985595703e+00 -2.377778887748718262e-01 -1.683352947235107422e+00 1.173879384994506836e+00
3.790000000000000000e+02 1.048394012451171875e+01 1.062875509262084961e+00 -3.177763700485229492e+00 -4.250352680683135986e-01 -1.080839753150939941e+00 9.828519225120544434e-01
3.800000000000000000e+02 1.200900745391845703e+01 7.885000705718994141e-01 -3.808373212814331055e+00 -2.884579598903656006e-01 -1.229049324989318848e+00 1.152742147445678711e+00
3.810000000000000000e+02 8.878479003906250000e+00 3.908094167709350586e-01 -3.235880374908447266e+00 -2.862586081027984619e-02 -9.793518781661987305e-01 3.292251527309417725e-01
3.820000000000000000e+02 9.649624824523925781e+00 3.904530405998229980e-01 -4.098644733428955078e+00 -1.921798735857009888e-01 -1.287247419357299805e+00 5.415601134300231934e-01
3.830000000000000000e+02 7.383328437805175781e+00 1.131017208099365234e+00 -1.850370168685913086e+00 -7.409051805734634399e-02 -5.773382186889648438e-01 6.377398967742919922e-01
3.840000000000000000e+02 7.334236621856689453e+00 3.910171389579772949e-01 -2.122482776641845703e+00 -1.465173810720443726e-02 -6.411403417587280273e-01 2.318875044584274292e-01
3.850000000000000000e+02 5.016752243041992188e+00 3.915317654609680176e-01 -9.450940489768981934e-01 -1.223395299166440964e-02 -2.871983945369720459e-01 1.581379026174545288e-01
3.860000000000000000e+02 2.718189001083374023e+00 1.131889939308166504e+00 -2.891693413257598877e-01 -7.009156793355941772e-02 -1.077782735228538513e-01 2.356254160404205322e-01
3.870000000000000000e+02 3.472350120544433594e+00 3.917863070964813232e-01 -3.970030844211578369e-01 -1.329261716455221176e-02 -1.230887100100517273e-01 1.104029119014739990e-01
3.880000000000000000e+02 2.700102567672729492e+00 3.918899297714233398e-01 -2.028844058513641357e-01 -1.657017692923545837e-02 -6.583636999130249023e-02 7.944020628929138184e-02
3.890000000000000000e+02 1.941753506660461426e+00 1.131839513778686523e+00 -1.526597440242767334e-01 -8.103641122579574585e-02 -7.010884582996368408e-02 1.457779407501220703e-01
3.900000000000000000e+02 1.928834557533264160e+00 3.918395042419433594e-01 -7.498314976692199707e-02 -1.692081056535243988e-02 -2.757118828594684601e-02 4.553458094596862793e-02
3.910000000000000000e+02 1.157405972480773926e+00 3.914729654788970947e-01 -1.436385139822959900e-02 -1.362873613834381104e-02 -8.397776633501052856e-03 1.365926302969455719e-02
3.920000000000000000e+02 3.884848952293395996e-01 1.130593895912170410e+00 -1.216386351734399796e-02 -1.214339211583137512e-02 -7.292177062481641769e-03 1.210811920464038849e-02
3.930000000000000000e+02 3.859011232852935791e-01 3.905938863754272461e-01 -2.202449977630749345e-04 4.179913230473175645e-05 -5.353376036509871483e-05 1.709064526949077845e-04
3.940000000000000000e+02 4.244657516479492188e+00 3.916697502136230469e-01 -6.471006870269775391e-01 -1.089996565133333206e-02 -1.974001824855804443e-01 1.344963461160659790e-01
3.950000000000000000e+02 3.495604276657104492e+00 1.131786346435546875e+00 -4.603475630283355713e-01 -5.807391554117202759e-02 -1.555264443159103394e-01 3.064649999141693115e-01
3.960000000000000000e+02 4.273078918457031250e+00 1.131669759750366211e+00 -6.647061109542846680e-01 -5.586104840040206909e-02 -2.161701470613479614e-01 3.764350712299346924e-01
3.970000000000000000e+02 5.789580821990966797e+00 3.914089500904083252e-01 -1.289769768714904785e+00 -1.088046003133058548e-02 -3.901950716972351074e-01 1.809034049510955811e-01
3.980000000000000000e+02 5.828337669372558594e+00 1.131408929824829102e+00 -1.189723968505859375e+00 -5.223714932799339294e-02 -3.725883364677429199e-01 4.999382793903350830e-01
3.990000000000000000e+02 6.606027126312255859e+00 1.131122112274169922e+00 -1.501768350601196289e+00 -5.528113245964050293e-02 -4.671148657798767090e-01 5.605117082595825195e-01
4.000000000000000000e+02 6.562102794647216797e+00 3.911220729351043701e-01 -1.680548310279846191e+00 -1.289940159767866135e-02 -5.080342888832092285e-01 2.049264758825302124e-01
4.010000000000000000e+02 8.106598854064941406e+00 3.909416198730468750e-01 -2.630611658096313477e+00 -2.716726250946521759e-02 -7.973336577415466309e-01 2.734477519989013672e-01
4.020000000000000000e+02 8.937906265258789062e+00 1.130809426307678223e+00 -2.660410404205322266e+00 -1.928960382938385010e-01 -8.559919595718383789e-01 8.918367028236389160e-01
4.030000000000000000e+02 9.714219093322753906e+00 1.130452990531921387e+00 -2.855811834335327148e+00 -3.828060925006866455e-01 -9.715853929519653320e-01 1.014484763145446777e+00
4.040000000000000000e+02 8.160858154296875000e+00 1.130941629409790039e+00 -2.227493047714233398e+00 -9.052029252052307129e-02 -6.954039931297302246e-01 7.196613550186157227e-01
4.050000000000000000e+02 5.050341606140136719e+00 1.131531715393066406e+00 -9.099986553192138672e-01 -5.138384178280830383e-02 -2.884147465229034424e-01 4.388685822486877441e-01
4.060000000000000000e+02 1.165157318115234375e+00 1.131472945213317871e+00 -6.031603738665580750e-02 -6.157949566841125488e-02 -3.656866028904914856e-02 6.178965419530868530e-02
4.070000000000000000e+02 1.473077964782714844e+01 -1.259489893913269043e+00 -7.211876511573791504e-01 -3.168570250272750854e-02 -2.258620113134384155e-01 1.977396309375762939e-01
4.080000000000000000e+02 1.399090099334716797e+01 -1.125491499900817871e+00 -8.418081402778625488e-01 -4.133342579007148743e-02 -2.649424672126770020e-01 1.988998353481292725e-01
4.090000000000000000e+02 1.312020874023437500e+01 -1.719582676887512207e+00 -6.243889927864074707e-01 -1.706472784280776978e-02 -1.924361288547515869e-01 2.188599705696105957e-01
4.100000000000000000e+02 1.535054302215576172e+01 -2.123512268066406250e+00 -1.699721962213516235e-01 -5.975057557225227356e-02 -6.891683489084243774e-02 2.965173125267028809e-01
4.110000000000000000e+02 1.547062015533447266e+01 -1.393221139907836914e+00 -5.780959129333496094e-01 -5.176581442356109619e-02 -1.889585107564926147e-01 1.773415356874465942e-01
4.120000000000000000e+02 1.460713481903076172e+01 -1.989134907722473145e+00 -3.637581765651702881e-01 -5.313705280423164368e-02 -1.250685751438140869e-01 2.752132117748260498e-01
4.130000000000000000e+02 1.325099086761474609e+01 -9.912301898002624512e-01 -9.277825951576232910e-01 -2.848713658750057220e-02 -2.868809103965759277e-01 2.001511901617050171e-01
4.140000000000000000e+02 1.386368751525878906e+01 -1.854490160942077637e+00 -5.092871189117431641e-01 -2.560437284409999847e-02 -1.604674458503723145e-01 2.581423819065093994e-01
4.150000000000000000e+02 8.759500503540039062e+00 -1.867676496505737305e+00 -6.118478775024414062e-01 1.057147532701492310e-01 -1.518399417400360107e-01 -6.868897378444671631e-02
4.160000000000000000e+02 5.002473354339599609e+00 -1.885364174842834473e+00 -3.473813235759735107e-01 3.298847470432519913e-03 -1.032247468829154968e-01 -2.417274564504623413e-01
4.170000000000000000e+02 5.667196512222290039e-01 -1.073858261108398438e+01 3.061231691390275955e-03 -1.670828342437744141e+00 -5.003301501274108887e-01 -1.085646077990531921e-01
4.180000000000000000e+02 1.143225002288818359e+01 -1.351799488067626953e+01 1.045014142990112305e+00 3.725772857666015625e+00 1.431236147880554199e+00 8.602184653282165527e-01
4.190000000000000000e+02 1.563937377929687500e+01 -1.237623882293701172e+01 8.006460070610046387e-01 6.679318547248840332e-01 4.405733644962310791e-01 1.252675652503967285e+00
4.200000000000000000e+02 1.715864372253417969e+01 -3.012647628784179688e+00 8.303920030593872070e-01 -8.700624108314514160e-02 2.230157256126403809e-01 5.367707610130310059e-01
4.210000000000000000e+02 1.593075275421142578e+01 -2.866298675537109375e+00 3.719133436679840088e-01 -8.588231354951858521e-02 8.580931276082992554e-02 4.665130674839019775e-01
4.220000000000000000e+02 1.163255596160888672e+01 -2.180241346359252930e+00 -5.497279167175292969e-01 8.521587401628494263e-02 -1.393536031246185303e-01 1.456846147775650024e-01
4.230000000000000000e+02 1.022345924377441406e+01 -1.951179504394531250e+00 -6.316836476325988770e-01 1.187202855944633484e-01 -1.538890153169631958e-01 3.494028374552726746e-02
4.240000000000000000e+02 1.316055202484130859e+01 -1.284604740142822266e+01 1.702952027320861816e+00 3.117297887802124023e+00 1.446074962615966797e+00 1.866088628768920898e+00
4.250000000000000000e+02 1.442941093444824219e+01 -1.280707645416259766e+01 2.204517602920532227e+00 2.105433702468872070e+00 1.292985320091247559e+00 1.976289987564086914e+00
4.260000000000000000e+02 1.713092088699340820e+00 -1.082722949981689453e+01 2.838884480297565460e-02 -1.177118897438049316e+00 -3.446190059185028076e-01 -3.051835298538208008e-01
4.270000000000000000e+02 5.916150808334350586e-01 -1.778842926025390625e+01 1.611828617751598358e-02 -2.235242366790771484e+00 -6.657372713088989258e-01 6.408894062042236328e-02
4.280000000000000000e+02 1.201549530029296875e+01 -2.104759407043457031e+01 4.726507365703582764e-01 4.804500579833984375e+00 1.583145380020141602e+00 -9.617073535919189453e-01
4.290000000000000000e+02 1.168659305572509766e+01 -1.679646301269531250e+01 7.726205587387084961e-01 7.044595241546630859e+00 2.345164775848388672e+00 1.288761854171752930e+00
4.300000000000000000e+02 1.156756782531738281e+01 -1.822553634643554688e+01 3.104420602321624756e-01 6.517806529998779297e+00 2.048474550247192383e+00 2.111855447292327881e-01
4.310000000000000000e+02 8.341310501098632812e+00 -1.954211235046386719e+01 7.168096303939819336e-01 2.479831457138061523e+00 9.589923024177551270e-01 6.953219771385192871e-01
4.320000000000000000e+02 1.758907318115234375e+00 -1.783840942382812500e+01 1.019667685031890869e-01 -1.441612005233764648e+00 -4.018935859203338623e-01 1.711975634098052979e-01
4.330000000000000000e+02 6.051373481750488281e-01 -2.344947242736816406e+01 2.119371900334954262e-03 -1.052652835845947266e+00 -3.151600658893585205e-01 1.650981605052947998e-01
4.340000000000000000e+02 1.241335868835449219e+01 -2.426599121093750000e+01 -3.385085612535476685e-02 2.285491466522216797e+00 6.754921674728393555e-01 -4.125718772411346436e-01
4.350000000000000000e+02 1.726552963256835938e+01 -2.757123565673828125e+01 -3.004812002182006836e-01 1.151924207806587219e-01 -5.558662861585617065e-02 3.633829951286315918e-02
4.360000000000000000e+02 1.428141689300537109e+01 -2.460956954956054688e+01 3.397780060768127441e-01 9.834907054901123047e-01 3.969806134700775146e-01 -5.711113810539245605e-01
4.370000000000000000e+02 6.067210435867309570e-01 -2.485635566711425781e+01 -7.740447763353586197e-04 -6.634215712547302246e-01 -1.992586851119995117e-01 1.669115871191024780e-01
4.380000000000000000e+02 7.289500236511230469e-01 -3.050637435913085938e+01 -3.811599453911185265e-03 5.729027986526489258e-01 1.707273572683334351e-01 1.097969487309455872e-01
4.390000000000000000e+02 8.213171958923339844e+00 -3.834496307373046875e+01 -1.689056009054183960e-01 9.141393303871154785e-01 2.235701233148574829e-01 7.321057468652725220e-02
4.400000000000000000e+02 2.006700897216796875e+01 -3.768761444091796875e+01 -6.667057424783706665e-02 2.597876489162445068e-01 5.793511867523193359e-02 -1.607674360275268555e-01
4.410000000000000000e+02 1.555976772308349609e+01 -3.523646926879882812e+01 -3.438525199890136719e-01 6.077204346656799316e-01 7.916036993265151978e-02 -1.788570731878280640e-01
4.420000000000000000e+02 2.286050987243652344e+01 -4.108725738525390625e+01 1.031166613101959229e-01 4.294041097164154053e-01 1.597562283277511597e-01 -1.568396948277950287e-02
4.430000000000000000e+02 2.354734992980957031e+01 -3.818772125244140625e+01 1.188458967953920364e-02 4.259984791278839111e-01 1.313649266958236694e-01 3.908382728695869446e-02
4.440000000000000000e+02 2.517348670959472656e+01 -3.090952301025390625e+01 -1.587247610092163086e+00 -6.472204625606536865e-02 -4.955908954143524170e-01 1.680915802717208862e-01
4.450000000000000000e+02 2.324978637695312500e+01 -3.251561355590820312e+01 -7.855770587921142578e-01 -1.783351227641105652e-02 -2.410231679677963257e-01 -2.801983244717121124e-02
4.460000000000000000e+02 2.092875862121582031e+01 -2.974077415466308594e+01 -1.177699327468872070e+00 -8.661901205778121948e-02 -3.792954981327056885e-01 2.761743366718292236e-01
4.470000000000000000e+02 1.962405204772949219e+01 -2.915241241455078125e+01 -9.120789766311645508e-01 -1.047097072005271912e-01 -3.050366044044494629e-01 2.504302859306335449e-01
4.480000000000000000e+02 1.947176933288574219e+01 -3.283896255493164062e+01 -5.750174522399902344e-01 2.098702043294906616e-01 -1.095441728830337524e-01 -1.829807013273239136e-01
4.490000000000000000e+02 9.006926536560058594e+00 -3.075918388366699219e+01 -4.688580930233001709e-01 1.285016417503356934e+00 2.448474913835525513e-01 3.221213519573211670e-01
4.500000000000000000e+02 8.546615600585937500e+00 -2.894078826904296875e+01 -4.694288969039916992e-01 1.408160448074340820e+00 2.816194593906402588e-01 4.589388072490692139e-01
4.510000000000000000e+02 7.710940837860107422e-01 -3.193548202514648438e+01 -1.289449073374271393e-02 7.653630971908569336e-01 2.257405817508697510e-01 9.436886012554168701e-02
4.520000000000000000e+02 7.688538432121276855e-01 -3.734363937377929688e+01 -3.738287137821316719e-03 1.158293128013610840e+00 3.463664650917053223e-01 1.498004421591758728e-02
4.530000000000000000e+02 3.188419342041015625e+00 -3.922451400756835938e+01 -4.160880297422409058e-02 1.129910349845886230e+00 3.264904618263244629e-01 6.052168086171150208e-02
4.540000000000000000e+02 2.752895736694335938e+01 -4.112776565551757812e+01 -1.061084493994712830e-01 1.314234375953674316e+00 3.624377846717834473e-01 1.367355734109878540e-01
4.550000000000000000e+02 3.217550659179687500e+01 -2.920922279357910156e+01 1.343361735343933105e+00 1.977158188819885254e+00 9.961559772491455078e-01 1.582315206527709961e+00
4.560000000000000000e+02 2.961110115051269531e+01 -3.045634460449218750e+01 -6.085652112960815430e-01 3.529015481472015381e-01 -7.669910043478012085e-02 3.644579648971557617e-01
4.570000000000000000e+02 4.516141891479492188e+01 -2.296700286865234375e+01 2.191927909851074219e+00 1.021657657623291016e+01 3.722551584243774414e+00 -1.374104619026184082e+00
4.580000000000000000e+02 4.620494842529296875e+01 -1.851594734191894531e+01 1.261586695909500122e-01 1.274903488159179688e+01 3.862557888031005859e+00 6.299123764038085938e-01
4.590000000000000000e+02 4.126031875610351562e+01 -1.259858608245849609e+00 3.757485151290893555e+00 1.348475456237792969e+01 5.172671794891357422e+00 5.904232978820800781e+00
4.600000000000000000e+02 4.235263824462890625e+01 2.666549444198608398e+00 8.997458219528198242e-01 1.932318496704101562e+01 6.066878795623779297e+00 2.249966621398925781e+00
4.610000000000000000e+02 4.176909637451171875e+01 -7.533922791481018066e-03 2.381571531295776367e+00 1.678248405456542969e+01 5.749216556549072266e+00 5.251748561859130859e+00
4.620000000000000000e+02 4.245951843261718750e+01 -4.104691696166992188e+01 -1.575878381729125977e+00 5.367963314056396484e+00 1.137625575065612793e+00 -8.940393477678298950e-02
4.630000000000000000e+02 4.236654281616210938e+01 -3.814608383178710938e+01 -1.492667555809020996e+00 5.449474811553955078e+00 1.187042236328125000e+00 -2.382062673568725586e-01
4.640000000000000000e+02 4.729988098144531250e+01 -3.023019599914550781e+01 -3.021431863307952881e-01 5.666375637054443359e+00 1.609269738197326660e+00 -1.728903770446777344e+00
4.650000000000000000e+02 4.989275360107421875e+01 -2.748201179504394531e+01 1.749453902244567871e+00 3.099729299545288086e+00 1.454754948616027832e+00 -2.406366348266601562e+00
4.660000000000000000e+02 4.821194076538085938e+01 -2.538292694091796875e+01 2.855120182037353516e+00 5.699645042419433594e+00 2.566429615020751953e+00 -3.928487062454223633e+00
4.670000000000000000e+02 4.581304168701171875e+01 -2.396510314941406250e+01 2.160652160644531250e+00 9.885190963745117188e+00 3.613753080368041992e+00 -1.925830245018005371e+00
4.680000000000000000e+02 4.682870101928710938e+01 -1.451851844787597656e+01 1.064220905303955078e+00 1.292877006530761719e+01 4.197897434234619141e+00 2.868527173995971680e+00
4.690000000000000000e+02 4.722279357910156250e+01 -1.317989349365234375e+01 1.583601355552673340e+00 1.157551765441894531e+01 3.947735786437988281e+00 3.582939863204956055e+00
4.700000000000000000e+02 4.496076583862304688e+01 -1.258561420440673828e+01 7.841486930847167969e-01 9.664450645446777344e+00 3.134579896926879883e+00 1.294972896575927734e+00
4.710000000000000000e+02 4.781823348999023438e+01 -1.190239524841308594e+01 1.977157592773437500e+00 9.149722099304199219e+00 3.338063955307006836e+00 3.722655773162841797e+00
4.720000000000000000e+02 4.962788009643554688e+01 -9.716580390930175781e+00 6.512337327003479004e-01 2.543073177337646484e+00 9.582920670509338379e-01 1.526672124862670898e+00
4.730000000000000000e+02 5.206763839721679688e+01 -8.039425849914550781e+00 -1.901936411857604980e+00 4.560099542140960693e-02 -5.569006204605102539e-01 -4.447080194950103760e-02
4.740000000000000000e+02 5.365871810913085938e+01 -7.847753047943115234e+00 -2.068270683288574219e+00 -3.308814764022827148e-01 -7.197456359863281250e-01 2.068830132484436035e-01
4.750000000000000000e+02 5.637773513793945312e+01 -9.157146453857421875e+00 -1.158527493476867676e+00 -3.374610245227813721e-01 -4.487965703010559082e-01 6.205576062202453613e-01
4.760000000000000000e+02 5.871343612670898438e+01 -1.038213539123535156e+01 -1.045637845993041992e+00 -1.233881413936614990e-01 -3.507077693939208984e-01 4.300794303417205811e-01
4.770000000000000000e+02 6.120409774780273438e+01 -1.115287399291992188e+01 -1.162101030349731445e+00 -4.516936838626861572e-03 -3.499853909015655518e-01 2.220164090394973755e-01
4.780000000000000000e+02 6.251267623901367188e+01 -1.138362026214599609e+01 -1.048405170440673828e+00 1.811465322971343994e-01 -2.601775825023651123e-01 2.431539073586463928e-02
4.790000000000000000e+02 7.230812835693359375e+01 -1.852880954742431641e+00 -4.771992564201354980e-01 6.915791511535644531e+00 1.931577682495117188e+00 1.429917570203542709e-02
4.800000000000000000e+02 7.935016632080078125e+01 2.883689641952514648e+00 -7.612377870827913284e-03 7.988343238830566406e+00 2.394219160079956055e+00 -1.026999428868293762e-01
4.810000000000000000e+02 7.805448150634765625e+01 4.485375404357910156e+00 -5.734188482165336609e-02 7.630877494812011719e+00 2.272060632705688477e+00 -3.416765928268432617e-01
4.820000000000000000e+02 7.938244628906250000e+01 8.446671485900878906e+00 -2.017776854336261749e-02 6.776360511779785156e+00 2.026854753494262695e+00 -1.557875871658325195e-01
4.830000000000000000e+02 7.814833068847656250e+01 1.136813449859619141e+01 1.255568116903305054e-01 6.681365013122558594e+00 2.042076587677001953e+00 -2.432959824800491333e-01
4.840000000000000000e+02 7.935252380371093750e+01 1.679110908508300781e+01 -2.697674930095672607e-02 6.232829570770263672e+00 1.861755728721618652e+00 1.697908043861389160e-01
4.850000000000000000e+02 6.641226959228515625e+01 2.146057319641113281e+01 -9.395190477371215820e-01 2.920852899551391602e+00 5.944001674652099609e-01 -1.337996959686279297e+00
4.860000000000000000e+02 6.852770233154296875e+01 1.831676673889160156e+01 1.290216684341430664e+00 1.411638355255126953e+01 4.621980190277099609e+00 -8.054665327072143555e-01
4.870000000000000000e+02 7.001419830322265625e+01 1.807655525207519531e+01 1.453724384307861328e+00 1.076830673217773438e+01 3.666609287261962891e+00 -9.198518842458724976e-02
4.880000000000000000e+02 6.944348144531250000e+01 1.286183452606201172e+01 1.397624850273132324e+00 1.097742557525634766e+01 3.712515115737915039e+00 1.150098323822021484e+00
4.890000000000000000e+02 6.833717346191406250e+01 1.134803390502929688e+01 1.709479570388793945e+00 1.066083335876464844e+01 3.711093902587890625e+00 2.367556095123291016e+00
4.900000000000000000e+02 6.799803924560546875e+01 1.272558403015136719e+01 1.519297838211059570e+00 1.265490722656250000e+01 4.252261638641357422e+00 3.108102560043334961e+00
4.910000000000000000e+02 6.808583831787109375e+01 9.323236465454101562e+00 4.521920680999755859e-01 8.343969345092773438e+00 2.638848304748535156e+00 1.328570485115051270e+00
4.920000000000000000e+02 6.628770446777343750e+01 9.679917335510253906e+00 2.155397176742553711e+00 5.885043144226074219e+00 2.412132024765014648e+00 3.336294174194335938e+00
4.930000000000000000e+02 6.430731964111328125e+01 7.709405422210693359e+00 1.395929098129272461e+00 2.280994892120361328e+00 1.103077173233032227e+00 1.784939169883728027e+00
4.940000000000000000e+02 6.188574600219726562e+01 3.923639774322509766e+00 6.415407061576843262e-01 1.320859551429748535e+00 5.887200832366943359e-01 8.548060655593872070e-01
4.950000000000000000e+02 5.675826644897460938e+01 1.301257371902465820e+00 1.423203110694885254e+00 3.982841074466705322e-01 5.464461445808410645e-01 6.307257413864135742e-01
4.960000000000000000e+02 5.515551757812500000e+01 -8.376289367675781250e+00 -1.595409393310546875e+00 -3.823059201240539551e-01 -5.933145880699157715e-01 5.239182114601135254e-01
4.970000000000000000e+02 4.740429306030273438e+01 -4.090441894531250000e+01 -8.895717263221740723e-01 4.238299369812011719e+00 1.004618287086486816e+00 -3.006741702556610107e-01
4.980000000000000000e+02 5.302176284790039062e+01 -3.817568588256835938e+01 6.427924335002899170e-02 2.427686691284179688e+00 7.475897669792175293e-01 -8.218305110931396484e-01
4.990000000000000000e+02 5.416159439086914062e+01 -2.966722679138183594e+01 -1.375444293022155762e+00 2.096185237169265747e-01 -3.497477471828460693e-01 -3.352436125278472900e-01
5.000000000000000000e+02 4.948448181152343750e+01 -3.112858390808105469e+01 -2.868243455886840820e-01 4.081015110015869141e+00 1.138257265090942383e+00 -1.898858666419982910e+00
5.010000000000000000e+02 6.155942535400390625e+01 -3.861074829101562500e+01 6.512136459350585938e-01 2.094456434249877930e+00 8.237009644508361816e-01 1.926856189966201782e-01
5.020000000000000000e+02 5.723109436035156250e+01 -3.865034484863281250e+01 6.549310684204101562e-01 1.589994430541992188e+00 6.734776496887207031e-01 -2.012905329465866089e-01
5.030000000000000000e+02 5.693156433105468750e+01 -2.977047920227050781e+01 -2.872227430343627930e+00 -1.167044267058372498e-01 -8.966795802116394043e-01 -3.163293302059173584e-01
5.040000000000000000e+02 5.434308624267578125e+01 -3.128809547424316406e+01 -4.711334407329559326e-01 6.132056117057800293e-01 4.262165725231170654e-02 -1.202888131141662598e+00
5.050000000000000000e+02 6.220115280151367188e+01 -4.122602081298828125e+01 7.013399600982666016e-01 2.391496419906616211e+00 9.278509020805358887e-01 6.879248470067977905e-02
5.060000000000000000e+02 6.714476776123046875e+01 -2.250444412231445312e+01 1.858487844467163086e+00 7.013250350952148438e+00 2.661521434783935547e+00 3.709774732589721680e+00
5.070000000000000000e+02 6.927355194091796875e+01 -2.570721244812011719e+01 -8.099910020828247070e-01 7.977930545806884766e+00 2.150381803512573242e+00 4.511595070362091064e-01
5.080000000000000000e+02 6.539704895019531250e+01 -2.487990951538085938e+01 6.684700250625610352e-01 3.146296024322509766e+00 1.144429802894592285e+00 1.530101776123046875e+00
5.090000000000000000e+02 6.208843994140625000e+01 -2.761667633056640625e+01 -9.187948703765869141e-01 2.905398607254028320e-01 -1.884765028953552246e-01 -2.200756222009658813e-01
5.100000000000000000e+02 5.833674621582031250e+01 -2.961345291137695312e+01 -3.049301147460937500e+00 -3.127870261669158936e-01 -1.008626461029052734e+00 -5.706527829170227051e-01
5.110000000000000000e+02 6.500033569335937500e+01 -2.927210235595703125e+01 -8.484292626380920410e-01 3.333197355270385742e+00 7.454304099082946777e-01 9.767038226127624512e-01
5.120000000000000000e+02 6.382196807861328125e+01 -3.027594184875488281e+01 -8.357197642326354980e-01 2.578934431076049805e+00 5.229643583297729492e-01 8.878392577171325684e-01
5.130000000000000000e+02 6.701843261718750000e+01 -4.104914855957031250e+01 3.129447400569915771e-01 4.246913433074951172e+00 1.367957472801208496e+00 1.244858056306838989e-01
5.140000000000000000e+02 7.379183197021484375e+01 -3.837226486206054688e+01 -1.092911139130592346e-01 6.918271064758300781e+00 2.042694091796875000e+00 -7.175856083631515503e-02
5.150000000000000000e+02 7.931445312500000000e+01 -3.343976593017578125e+01 2.137280069291591644e-03 8.955577850341796875e+00 2.687314510345458984e+00 -7.968592643737792969e-02
5.160000000000000000e+02 7.779637908935546875e+01 -3.066188621520996094e+01 -1.198437660932540894e-01 8.179609298706054688e+00 2.417929649353027344e+00 -3.944068849086761475e-01
5.170000000000000000e+02 7.932735443115234375e+01 -2.644085502624511719e+01 -8.116800338029861450e-03 7.333532333374023438e+00 2.197624683380126953e+00 -2.642935812473297119e-01
5.180000000000000000e+02 7.813261413574218750e+01 -2.355162429809570312e+01 4.313569515943527222e-02 6.652128219604492188e+00 2.008579015731811523e+00 -6.808233261108398438e-01
5.190000000000000000e+02 7.938456726074218750e+01 -2.225197982788085938e+01 1.398655585944652557e-02 5.678319454193115234e+00 1.707691788673400879e+00 -2.270368784666061401e-01
5.200000000000000000e+02 6.751203155517578125e+01 -1.443874359130859375e+01 2.500789403915405273e+00 1.061877059936523438e+01 3.935867786407470703e+00 -4.141656398773193359e+00
5.210000000000000000e+02 6.957997131347656250e+01 -1.707491683959960938e+01 1.754511117935180664e+00 1.254293060302734375e+01 4.289232730865478516e+00 -8.971832990646362305e-01
5.220000000000000000e+02 6.836585998535156250e+01 -1.855967903137207031e+01 2.337920218706130981e-01 1.583465576171875000e+01 4.820534229278564453e+00 4.044613614678382874e-02
5.230000000000000000e+02 6.785547637939453125e+01 -2.130723190307617188e+01 2.891592025756835938e+00 1.359825325012207031e+01 4.946953296661376953e+00 4.193161964416503906e+00
5.240000000000000000e+02 6.833891296386718750e+01 -2.297530174255371094e+01 2.662596404552459717e-01 9.957317352294921875e+00 3.067073106765747070e+00 1.537742018699645996e+00
5.250000000000000000e+02 7.796448516845703125e+01 -4.164746475219726562e+01 1.422179490327835083e-01 8.671863555908203125e+00 2.644224405288696289e+00 3.992372378706932068e-02
5.260000000000000000e+02 7.799385833740234375e+01 -3.699600982666015625e+01 -2.412800863385200500e-02 8.602735519409179688e+00 2.573582172393798828e+00 3.609529882669448853e-02
5.270000000000000000e+02 7.801649475097656250e+01 -1.655619239807128906e+01 1.863845884799957275e-01 5.873404026031494141e+00 1.817936658859252930e+00 2.342059612274169922e-01
5.280000000000000000e+02 7.938513946533203125e+01 -1.245107460021972656e+01 1.181229669600725174e-02 6.034371852874755859e+00 1.813855171203613281e+00 2.242615371942520142e-01
5.290000000000000000e+02 7.312036895751953125e+01 -6.009897232055664062e+00 -5.575697422027587891e-01 7.370151996612548828e+00 2.043774604797363281e+00 3.148981034755706787e-01
5.300000000000000000e+02 6.838561248779296875e+01 -1.293861865997314453e+01 1.307689100503921509e-01 9.361602783203125000e+00 2.847711563110351562e+00 -1.203507542610168457e+00
5.310000000000000000e+02 6.686276245117187500e+01 -1.330160331726074219e+01 1.794387221336364746e+00 6.468553066253662109e+00 2.478882074356079102e+00 -3.245238304138183594e+00
5.320000000000000000e+02 6.684902954101562500e+01 -1.015561485290527344e+01 -5.420734286308288574e-01 5.471277713775634766e+00 1.478761315345764160e+00 -1.406143426895141602e+00
5.330000000000000000e+02 7.823616790771484375e+01 -9.483431816101074219e+00 -5.449183657765388489e-02 7.174756050109863281e+00 2.136079311370849609e+00 5.227525234222412109e-01
5.340000000000000000e+02 7.937840270996093750e+01 -5.481731891632080078e+00 -9.829767979681491852e-03 8.050484657287597656e+00 2.412196636199951172e+00 1.022240370512008667e-01
5.350000000000000000e+02 7.808773803710937500e+01 -2.535028934478759766e+00 -8.105305582284927368e-02 8.002025604248046875e+00 2.376291751861572266e+00 6.492645293474197388e-02
5.360000000000000000e+02 7.810446929931640625e+01 1.964976119995117188e+01 7.746958732604980469e-02 7.474107742309570312e+00 2.265473365783691406e+00 6.261768937110900879e-01
5.370000000000000000e+02 7.934408569335937500e+01 2.367111206054687500e+01 -2.193874306976795197e-02 8.630727767944335938e+00 2.582636594772338867e+00 2.236785441637039185e-01
5.380000000000000000e+02 7.213881683349609375e+01 3.256401443481445312e+01 -2.178373336791992188e-01 6.812103271484375000e+00 1.978279709815979004e+00 -3.672764599323272705e-01
5.390000000000000000e+02 6.228678131103515625e+01 4.100057601928710938e+01 5.840619802474975586e-01 3.650746822357177734e+00 1.270442605018615723e+00 2.497577853500843048e-02
5.400000000000000000e+02 5.738137817382812500e+01 4.104381942749023438e+01 3.650430738925933838e-01 3.059175491333007812e+00 1.027265548706054688e+00 1.093254759907722473e-01
5.410000000000000000e+02 5.248568344116210938e+01 4.105608749389648438e+01 -7.056347280740737915e-02 3.015658378601074219e+00 8.835284709930419922e-01 1.433478146791458130e-01
5.420000000000000000e+02 4.791143417358398438e+01 3.800382232666015625e+01 -5.162308812141418457e-01 3.168298482894897461e+00 7.956203222274780273e-01 2.477756440639495850e-01
5.430000000000000000e+02 5.384940338134765625e+01 2.131466102600097656e+01 1.149216175079345703e+00 2.220052003860473633e+00 1.010780453681945801e+00 1.963927030563354492e+00
5.440000000000000000e+02 4.998818206787109375e+01 1.486811447143554688e+01 1.152789473533630371e+00 1.102171230316162109e+01 3.652350425720214844e+00 3.533300399780273438e+00
5.450000000000000000e+02 5.260794067382812500e+01 2.066150283813476562e+01 2.208267450332641602e+00 5.483672618865966797e+00 2.307581901550292969e+00 2.972423553466796875e+00
5.460000000000000000e+02 5.327136993408203125e+01 2.294382095336914062e+01 -6.541154980659484863e-01 4.230832099914550781e+00 1.073015093803405762e+00 2.417709112167358398e+00
5.470000000000000000e+02 5.523422622680664062e+01 2.177391815185546875e+01 -5.337166190147399902e-01 7.820977568626403809e-01 7.451433688402175903e-02 8.257923722267150879e-01
5.480000000000000000e+02 5.807362747192382812e+01 2.237391281127929688e+01 -2.951612710952758789e+00 1.412882208824157715e-01 -8.430973291397094727e-01 1.350477803498506546e-03
5.490000000000000000e+02 6.088440704345703125e+01 2.394151496887207031e+01 -2.478305816650390625e+00 -2.252991348505020142e-01 -8.110815286636352539e-01 3.917528390884399414e-01
5.500000000000000000e+02 6.513139343261718750e+01 2.340984916687011719e+01 -1.605300188064575195e+00 1.732915997505187988e+00 3.828475251793861389e-02 -1.348177552223205566e+00
5.510000000000000000e+02 6.779946136474609375e+01 2.144315338134765625e+01 -8.475959300994873047e-01 6.876671314239501953e+00 1.808722615242004395e+00 -1.594350457191467285e+00
5.520000000000000000e+02 6.900952148437500000e+01 2.357031440734863281e+01 -1.817927360534667969e+00 7.328320503234863281e+00 1.653118014335632324e+00 -9.068295955657958984e-01
5.530000000000000000e+02 7.561454010009765625e+01 2.307083702087402344e+01 -2.337832003831863403e-01 8.365097999572753906e+00 2.439394235610961914e+00 1.019392490386962891e+00
5.540000000000000000e+02 7.921960449218750000e+01 2.926689720153808594e+01 -4.562663286924362183e-02 9.608862876892089844e+00 2.868970870971679688e+00 5.458922311663627625e-02
5.550000000000000000e+02 7.034513092041015625e+01 3.786659622192382812e+01 2.798356711864471436e-01 6.038309574127197266e+00 1.895443558692932129e+00 -2.720035314559936523e-01
5.560000000000000000e+02 7.922749328613281250e+01 3.209903335571289062e+01 -2.800326049327850342e-02 9.612526893615722656e+00 2.875356912612915039e+00 -2.070524729788303375e-02
5.570000000000000000e+02 7.935622406005859375e+01 3.753274917602539062e+01 -5.961389839649200439e-02 9.220835685729980469e+00 2.748366594314575195e+00 -8.501742035150527954e-02
5.580000000000000000e+02 7.320643615722656250e+01 3.731835174560546875e+01 1.065637916326522827e-01 6.979154109954833984e+00 2.125715255737304688e+00 -1.636421233415603638e-01
5.590000000000000000e+02 3.782114791870117188e+01 4.062404251098632812e+01 -4.575815796852111816e-01 2.364703893661499023e+00 5.721366405487060547e-01 -7.953862100839614868e-02
5.600000000000000000e+02 4.277332687377929688e+01 4.092475128173828125e+01 -5.797736644744873047e-01 2.897866725921630859e+00 6.954278945922851562e-01 1.173913385719060898e-02
5.610000000000000000e+02 4.673148727416992188e+01 3.065253639221191406e+01 -1.086108565330505371e+00 4.000016689300537109e+00 8.741723895072937012e-01 3.503053784370422363e-01
5.620000000000000000e+02 4.318205261230468750e+01 2.287989234924316406e+01 -7.441198825836181641e-01 4.862189769744873047e+00 1.235421061515808105e+00 -6.931567192077636719e-01
5.630000000000000000e+02 3.985131454467773438e+01 1.438353538513183594e+01 5.225584506988525391e-01 3.320773839950561523e+00 1.152999639511108398e+00 -1.374096870422363281e+00
5.640000000000000000e+02 4.087633895874023438e+01 1.125342273712158203e+01 1.306819915771484375e+00 5.365500450134277344e+00 2.001696109771728516e+00 -2.356185436248779297e+00
5.650000000000000000e+02 4.582610702514648438e+01 1.203146553039550781e+01 7.376186251640319824e-01 1.017878532409667969e+01 3.274921417236328125e+00 1.487243652343750000e+00
5.660000000000000000e+02 4.230875778198242188e+01 8.994139671325683594e+00 1.314805746078491211e+00 1.254424381256103516e+01 4.157714843750000000e+00 -2.064328670501708984e+00
5.670000000000000000e+02 4.271530151367187500e+01 6.694940090179443359e+00 6.619050502777099609e-01 1.579082489013671875e+01 4.935819149017333984e+00 -5.513730645179748535e-01
5.680000000000000000e+02 4.306226348876953125e+01 1.120988011360168457e+00 1.925083041191101074e+00 1.565502643585205078e+01 5.274032592773437500e+00 2.646293640136718750e+00
5.690000000000000000e+02 4.261682510375976562e+01 5.356837272644042969e+00 1.963326334953308105e-01 1.648858833312988281e+01 5.005475997924804688e+00 3.485675752162933350e-01
5.700000000000000000e+02 4.813367462158203125e+01 5.108171939849853516e+00 3.015689849853515625e-01 1.163873291015625000e+01 3.582090616226196289e+00 6.122114062309265137e-01
5.710000000000000000e+02 4.853956604003906250e+01 9.410242080688476562e+00 6.473109722137451172e-01 1.264303874969482422e+01 3.987104892730712891e+00 2.423343896865844727e+00
5.720000000000000000e+02 4.722923660278320312e+01 1.276764011383056641e+01 8.407722711563110352e-01 1.057722854614257812e+01 3.425400257110595703e+00 2.077955484390258789e+00
5.730000000000000000e+02 4.958854293823242188e+01 1.353608989715576172e+01 1.263944506645202637e+00 1.215100574493408203e+01 4.024485111236572266e+00 3.431866884231567383e+00
5.740000000000000000e+02 5.078082275390625000e+01 1.749576950073242188e+01 1.711810946464538574e+00 9.734129905700683594e+00 3.433782339096069336e+00 3.732840061187744141e+00
5.750000000000000000e+02 3.960847473144531250e+01 1.638932037353515625e+01 1.630784571170806885e-01 3.199271917343139648e+00 1.008705139160156250e+00 -1.167556643486022949e+00
5.760000000000000000e+02 3.917260360717773438e+01 3.714693832397460938e+01 -5.610220432281494141e-01 2.597574710845947266e+00 6.109657883644104004e-01 -1.871757805347442627e-01
5.770000000000000000e+02 3.329809570312500000e+01 3.046385765075683594e+01 -3.627800643444061279e-01 1.548442244529724121e+00 3.556986451148986816e-01 -4.877512454986572266e-01
5.780000000000000000e+02 3.310509109497070312e+01 2.195238494873046875e+01 -8.268551230430603027e-01 6.667962074279785156e-01 -4.801766201853752136e-02 -4.267944693565368652e-01
5.790000000000000000e+02 3.396230316162109375e+01 1.799204635620117188e+01 -5.425043702125549316e-01 1.079828664660453796e-02 -1.595118343830108643e-01 1.760589778423309326e-01
5.800000000000000000e+02 3.579701232910156250e+01 1.816138076782226562e+01 -2.560921311378479004e-01 8.612793684005737305e-01 1.815561801195144653e-01 -4.067318737506866455e-01
5.810000000000000000e+02 3.715268707275390625e+01 1.533702182769775391e+01 3.434599339962005615e-01 7.788339257240295410e-01 3.366881608963012695e-01 -5.398960113525390625e-01
5.820000000000000000e+02 3.611536407470703125e+01 1.624857902526855469e+01 6.025276705622673035e-02 4.249126017093658447e-01 1.455496102571487427e-01 -2.676820755004882812e-01
5.830000000000000000e+02 3.265450668334960938e+01 4.059193801879882812e+01 -2.838559746742248535e-01 1.832904458045959473e+00 4.647145569324493408e-01 -6.800093501806259155e-02
5.840000000000000000e+02 2.746982383728027344e+01 3.749405288696289062e+01 -1.841511577367782593e-01 1.378632307052612305e+00 3.583443462848663330e-01 1.641876809298992157e-02
5.850000000000000000e+02 3.060539817810058594e+01 2.852828025817871094e+01 -3.328601419925689697e-01 9.720492959022521973e-01 1.917567402124404907e-01 -3.343892991542816162e-01
5.860000000000000000e+02 2.489323425292968750e+01 2.164988517761230469e+01 -2.325643777847290039e+00 -5.496938526630401611e-02 -7.141839265823364258e-01 4.280688762664794922e-01
5.870000000000000000e+02 2.899984550476074219e+01 2.060688400268554688e+01 -2.054960489273071289e+00 -1.556597203016281128e-01 -6.631860136985778809e-01 4.952166080474853516e-01
5.880000000000000000e+02 2.955301856994628906e+01 2.195806884765625000e+01 -1.446645975112915039e+00 -2.123960666358470917e-02 -4.403656721115112305e-01 1.502940654754638672e-01
5.890000000000000000e+02 3.282027435302734375e+01 1.880161857604980469e+01 -9.305321574211120605e-01 -1.227409690618515015e-01 -3.159819245338439941e-01 3.616089224815368652e-01
5.900000000000000000e+02 1.780850219726562500e+01 4.100072097778320312e+01 -3.336103856563568115e-01 1.485595226287841797e+00 3.455954492092132568e-01 2.478928118944168091e-02
5.910000000000000000e+02 2.263256454467773438e+01 4.094849395751953125e+01 -2.337069064378738403e-01 1.394894480705261230e+00 3.483562469482421875e-01 3.554264828562736511e-02
5.920000000000000000e+02 2.815450477600097656e+01 3.015979385375976562e+01 -2.269852906465530396e-01 9.010729193687438965e-01 2.022262811660766602e-01 -4.573556035757064819e-02
5.930000000000000000e+02 2.204875373840332031e+01 2.203038597106933594e+01 -1.353451728820800781e+00 5.661491751670837402e-01 -2.361907660961151123e-01 7.091989517211914062e-01
5.940000000000000000e+02 2.628143310546875000e+01 2.133889389038085938e+01 -2.386548757553100586e+00 -1.519050002098083496e-01 -7.615361213684082031e-01 4.526989161968231201e-01
5.950000000000000000e+02 1.649138069152832031e+01 2.807353782653808594e+01 -9.536721706390380859e-01 2.403499126434326172e+00 4.349480569362640381e-01 1.256831139326095581e-01
5.960000000000000000e+02 2.037144088745117188e+01 2.230080223083496094e+01 -8.439800739288330078e-01 2.107125043869018555e+00 3.789435029029846191e-01 9.933834075927734375e-01
5.970000000000000000e+02 1.832504272460937500e+01 1.544623374938964844e+01 1.863784343004226685e-01 8.627565383911132812e+00 2.644183158874511719e+00 4.309070482850074768e-02
5.980000000000000000e+02 1.860336685180664062e+01 1.121547985076904297e+01 5.475143194198608398e-01 1.076652622222900391e+01 3.394212007522583008e+00 -1.689118146896362305e+00
5.990000000000000000e+02 1.965893173217773438e+01 7.161962509155273438e+00 2.395050525665283203e+00 1.295576095581054688e+01 4.605243206024169922e+00 -4.985480785369873047e+00
6.000000000000000000e+02 1.921277236938476562e+01 8.484101295471191406e+00 1.468558788299560547e+00 1.213047790527343750e+01 4.079710960388183594e+00 -3.804810523986816406e+00
6.010000000000000000e+02 1.303670024871826172e+01 4.082661437988281250e+01 -3.283804953098297119e-01 1.505152225494384766e+00 3.530315160751342773e-01 -2.046730928122997284e-02
6.020000000000000000e+02 7.302838802337646484e+00 3.061072540283203125e+01 -3.222411274909973145e-01 1.390495300292968750e+00 3.204762339591979980e-01 -5.651267170906066895e-01
6.030000000000000000e+02 7.864114284515380859e+00 2.388513565063476562e+01 -1.867728680372238159e-01 1.365879535675048828e+00 3.537320196628570557e-01 -1.040244460105895996e+00
6.040000000000000000e+02 1.374459552764892578e+01 1.688276863098144531e+01 9.134185314178466797e-01 3.838279962539672852e+00 1.425509572029113770e+00 -1.070722341537475586e+00
6.050000000000000000e+02 7.553541660308837891e+00 6.824611186981201172e+00 6.630482673645019531e-01 -3.105100989341735840e-01 1.057614535093307495e-01 8.786247968673706055e-01
6.060000000000000000e+02 6.710484504699707031e+00 1.873980641365051270e+00 -1.264841556549072266e+00 -1.326294392347335815e-01 -4.192412793636322021e-01 8.453250527381896973e-01
6.070000000000000000e+02 1.062260913848876953e+01 1.768899679183959961e+00 -2.255982160568237305e+00 -4.342083632946014404e-01 -8.070571422576904297e-01 1.144335985183715820e+00
6.080000000000000000e+02 1.218049144744873047e+01 1.511432766914367676e+00 -2.690772294998168945e+00 -3.015574216842651367e-01 -8.976989388465881348e-01 1.098686456680297852e+00
6.090000000000000000e+02 1.370991611480712891e+01 1.234103560447692871e+00 -2.876327276229858398e+00 -1.255196779966354370e-01 -9.005540609359741211e-01 9.954419136047363281e-01
6.100000000000000000e+02 1.660375213623046875e+01 6.888750195503234863e-01 -2.691771745681762695e+00 6.706151366233825684e-01 -6.063469648361206055e-01 1.040781363844871521e-01
6.110000000000000000e+02 2.277984237670898438e+01 -2.658510804176330566e-01 3.155067861080169678e-01 1.354724311828613281e+01 4.158824920654296875e+00 -9.073807001113891602e-01
6.120000000000000000e+02 2.329327201843261719e+01 -6.487693786621093750e-01 3.349044561386108398e+00 9.905834197998046875e+00 3.976463556289672852e+00 -1.415325552225112915e-01
6.130000000000000000e+02 2.408175659179687500e+01 -1.027785062789916992e+00 4.554217815399169922e+00 3.539024591445922852e+00 2.427972793579101562e+00 -1.372041702270507812e+00
6.140000000000000000e+02 2.342579460144042969e+01 -2.433028459548950195e+00 6.959155082702636719e+00 8.227924346923828125e+00 4.556123733520507812e+00 -5.576173782348632812e+00
6.150000000000000000e+02 2.295734977722167969e+01 -2.910500049591064453e+00 3.869486808776855469e+00 1.097987747192382812e+01 4.454809188842773438e+00 -4.595366477966308594e+00
6.160000000000000000e+02 2.131536102294921875e+01 -3.439232110977172852e+00 2.378574609756469727e+00 6.997363567352294922e+00 2.812781572341918945e+00 2.863274574279785156e+00
6.170000000000000000e+02 2.018373012542724609e+00 4.164218139648437500e+01 -2.233214303851127625e-02 1.369563937187194824e+00 4.041695296764373779e-01 -6.342585198581218719e-03
6.180000000000000000e+02 4.533327579498291016e+00 3.777145385742187500e+01 -8.338256180286407471e-02 1.288139939308166504e+00 3.614272177219390869e-01 -1.406341940164566040e-01
6.190000000000000000e+02 2.106156587600708008e+00 3.572375869750976562e+01 -3.054222464561462402e-02 1.197312831878662109e+00 3.500311672687530518e-01 -1.159852966666221619e-01
6.200000000000000000e+02 1.893478870391845703e+00 2.886875343322753906e+01 -2.894081734120845795e-02 5.603570938110351562e-01 1.594248861074447632e-01 -3.017715215682983398e-01
6.210000000000000000e+02 1.830790877342224121e+00 2.313942146301269531e+01 -7.480277679860591888e-03 -4.012095928192138672e-01 -1.226069554686546326e-01 -4.086763858795166016e-01
6.220000000000000000e+02 1.835050106048583984e+00 1.756633186340332031e+01 4.474238306283950806e-02 -1.400359869003295898e+00 -4.066852629184722900e-01 -3.178226053714752197e-01
6.230000000000000000e+02 4.929043948650360107e-01 6.480903625488281250e+00 1.438714191317558289e-02 -1.328351736068725586e+00 -3.941893577575683594e-01 1.575968116521835327e-01
6.240000000000000000e+02 1.547633647918701172e+00 9.259177207946777344e+00 6.572265177965164185e-02 -1.664048910140991211e+00 -4.794978797435760498e-01 2.897826731204986572e-01
6.250000000000000000e+02 2.163677692413330078e+00 3.172519445419311523e+00 -1.559000611305236816e-01 -3.696972727775573730e-01 -1.576792001724243164e-01 4.734511673450469971e-01
6.260000000000000000e+02 6.111907958984375000e+01 4.928213596343994141e+00 5.208261013031005859e-01 6.266712546348571777e-01 3.442492187023162842e-01 5.447363853454589844e-01
6.270000000000000000e+02 5.792875289916992188e+01 2.135303974151611328e+00 8.865769505500793457e-01 3.870084881782531738e-01 3.820756077766418457e-01 5.441294908523559570e-01
6.280000000000000000e+02 5.558630371093750000e+01 -3.354160547256469727e+00 1.458496928215026855e+00 2.871286310255527496e-02 4.461629390716552734e-01 3.337592061143368483e-04
6.290000000000000000e+02 5.262018966674804688e+01 -1.459927111864089966e-02 2.439850568771362305e+00 2.099345624446868896e-02 7.382531762123107910e-01 2.983139455318450928e-01
6.300000000000000000e+02 4.996226119995117188e+01 -7.960435867309570312e+00 -8.200784921646118164e-01 3.015357017517089844e+00 6.585835218429565430e-01 1.221278905868530273e+00
6.310000000000000000e+02 5.057312011718750000e+01 -1.766697049140930176e+00 1.824490904808044434e+00 2.236689329147338867e+00 1.218353986740112305e+00 -2.814032733440399170e-01
6.320000000000000000e+02 4.847880554199218750e+01 2.211676836013793945e+00 1.270137429237365723e+00 8.012763977050781250e+00 2.784870386123657227e+00 -1.946490287780761719e+00
6.330000000000000000e+02 4.819801712036132812e+01 3.660790920257568359e+00 8.585686683654785156e-01 1.162431907653808594e+01 3.744866132736206055e+00 -8.098163604736328125e-01
6.340000000000000000e+02 4.055403137207031250e+01 -2.338191509246826172e+00 2.904382228851318359e+00 8.112742424011230469e+00 3.305137395858764648e+00 4.563497066497802734e+00
6.350000000000000000e+02 4.188900375366210938e+01 -2.615927934646606445e+00 3.228060901165008545e-01 1.132759761810302734e+01 3.495121002197265625e+00 2.314573526382446289e+00
6.360000000000000000e+02 4.025949478149414062e+01 -3.560470581054687500e+00 8.419159650802612305e-01 6.571634769439697266e+00 2.224065303802490234e+00 3.089844226837158203e+00
6.370000000000000000e+02 3.486396789550781250e+01 -4.766345500946044922e+00 -1.578864693641662598e+00 -1.287131011486053467e-01 -5.122733712196350098e-01 -6.464967727661132812e-01
6.380000000000000000e+02 3.644934463500976562e+01 -5.674735546112060547e+00 -1.007632613182067871e-01 9.612823128700256348e-01 2.581557035446166992e-01 2.372254133224487305e-01
6.390000000000000000e+02 3.213280868530273438e+01 -5.296414375305175781e+00 9.763373732566833496e-01 -6.252373754978179932e-02 2.741440832614898682e-01 -7.612414360046386719e-01
6.400000000000000000e+02 2.922755432128906250e+01 -1.338742351531982422e+01 -6.801021285355091095e-03 5.555584430694580078e-01 1.646272242069244385e-01 -1.343853831291198730e+00
6.410000000000000000e+02 1.802091979980468750e+01 4.102730453014373779e-01 -2.300443410873413086e+00 1.322757005691528320e+00 -2.933059334754943848e-01 -9.608063697814941406e-01
6.420000000000000000e+02 1.835851287841796875e+01 1.402079677581787109e+01 2.587312161922454834e-01 9.160678863525390625e+00 2.825823068618774414e+00 -4.380240440368652344e-01
6.430000000000000000e+02 1.922552299499511719e+01 1.960984992980957031e+01 1.125734090805053711e+00 5.068638324737548828e+00 1.858311653137207031e+00 1.866085648536682129e+00
6.440000000000000000e+02 1.783764457702636719e+01 1.996764183044433594e+01 5.603047087788581848e-02 5.007625579833984375e+00 1.519096851348876953e+00 -1.336790714412927628e-02
6.450000000000000000e+02 1.993244934082031250e+01 2.076416587829589844e+01 1.032466366887092590e-01 2.765825748443603516e+00 8.607217073440551758e-01 1.262566089630126953e+00
6.460000000000000000e+02 1.700988388061523438e+01 -1.227391910552978516e+01 -1.974941492080688477e+00 -4.945481717586517334e-01 -7.408468723297119141e-01 1.297623872756958008e+00
6.470000000000000000e+02 2.116152572631835938e+01 -1.288465785980224609e+01 -2.187155246734619141e+00 2.422098964452743530e-01 -5.834835767745971680e-01 7.844247817993164062e-01
6.480000000000000000e+02 2.081028175354003906e+01 -1.389059448242187500e+01 -2.667435407638549805e+00 -1.863532662391662598e-01 -8.561365604400634766e-01 8.817937374114990234e-01
6.490000000000000000e+02 2.206929206848144531e+01 -1.422200679779052734e+01 -2.828555822372436523e+00 7.383948564529418945e-02 -8.264149427413940430e-01 5.928924083709716797e-01
6.500000000000000000e+02 2.230450439453125000e+01 -1.318336200714111328e+01 -2.282030582427978516e+00 2.518735229969024658e-01 -6.090471148490905762e-01 5.108465552330017090e-01
6.510000000000000000e+02 2.884156227111816406e+01 -1.471911430358886719e+01 -1.013673305511474609e+00 7.282307744026184082e-02 -2.822550535202026367e-01 -4.362645149230957031e-01
6.520000000000000000e+02 3.316382980346679688e+01 -1.558008670806884766e+01 2.863846540451049805e+00 2.276542663574218750e+00 1.542116761207580566e+00 -2.175082206726074219e+00
6.530000000000000000e+02 3.426680755615234375e+01 -1.654646682739257812e+01 3.299870729446411133e+00 4.140435695648193359e+00 2.232091903686523438e+00 -3.373190879821777344e+00
6.540000000000000000e+02 3.521987915039062500e+01 -1.589598274230957031e+01 2.159591197967529297e+00 5.854449748992919922e+00 2.404212236404418945e+00 -2.353774785995483398e+00
6.550000000000000000e+02 3.800285339355468750e+01 -6.689700126647949219e+00 -6.775803118944168091e-02 3.748771429061889648e+00 1.104303956031799316e+00 1.325432538986206055e+00
6.560000000000000000e+02 3.669991683959960938e+01 -6.928930759429931641e+00 5.909758806228637695e-01 2.128141641616821289e+00 8.157352805137634277e-01 4.727376103401184082e-01
6.570000000000000000e+02 2.960303688049316406e+01 -6.304324626922607422e+00 2.636347532272338867e+00 2.282242536544799805e+00 1.475576996803283691e+00 -2.617313146591186523e+00
6.580000000000000000e+02 3.074244689941406250e+01 -5.321566581726074219e+00 4.068291664123535156e+00 5.318553447723388672e-01 1.380044102668762207e+00 -1.491964697837829590e+00
6.590000000000000000e+02 2.601176261901855469e+01 -1.460427665710449219e+01 -2.573288440704345703e+00 5.796831473708152771e-02 -7.545960545539855957e-01 2.908088034018874168e-03
6.600000000000000000e+02 3.573696136474609375e+01 -1.891835784912109375e+01 1.751795291900634766e+00 1.181153774261474609e+01 4.068999767303466797e+00 -2.563866615295410156e+00
6.610000000000000000e+02 3.515814208984375000e+01 -1.766523742675781250e+01 3.025820493698120117e+00 8.047488212585449219e+00 3.321992635726928711e+00 -3.987702369689941406e+00
6.620000000000000000e+02 4.602402496337890625e+01 -1.978494834899902344e+01 6.980668902397155762e-01 1.337261676788330078e+01 4.221204757690429688e+00 -3.386678099632263184e-01
6.630000000000000000e+02 3.597425460815429688e+01 -2.025504302978515625e+01 3.912267088890075684e-01 1.094932651519775391e+01 3.402166128158569336e+00 -5.937370657920837402e-01
6.640000000000000000e+02 3.690547180175781250e+01 -2.414953613281250000e+01 1.851085543632507324e+00 1.033984279632568359e+01 3.657278537750244141e+00 1.588006019592285156e+00
6.650000000000000000e+02 3.583588409423828125e+01 -2.512352371215820312e+01 1.796336531639099121e+00 1.052697372436523438e+01 3.696993112564086914e+00 2.852474689483642578e+00
6.660000000000000000e+02 3.328757858276367188e+01 -2.833225822448730469e+01 2.066127777099609375e+00 3.301635265350341797e+00 1.610328912734985352e+00 2.578186750411987305e+00
6.670000000000000000e+02 3.296312332153320312e+01 -3.036717033386230469e+01 2.126991003751754761e-01 3.314410686492919922e+00 1.058132886886596680e+00 1.850528240203857422e+00
6.680000000000000000e+02 2.998414802551269531e+01 -3.503132629394531250e+01 -3.623526692390441895e-01 1.817781686782836914e+00 4.366286993026733398e-01 1.068509101867675781e+00
6.690000000000000000e+02 2.670068740844726562e+01 -3.096496009826660156e+01 -1.408173203468322754e+00 3.144306316971778870e-02 -4.130190312862396240e-01 1.462437659502029419e-01
6.700000000000000000e+02 1.220833873748779297e+01 -2.641147804260253906e+01 -4.023772776126861572e-01 1.759522318840026855e+00 4.071435034275054932e-01 -8.851668983697891235e-02
6.710000000000000000e+02 6.820207214355468750e+01 -1.170509624481201172e+01 -3.157175779342651367e-01 8.126322746276855469e+00 2.343181371688842773e+00 -1.408220767974853516e+00
6.720000000000000000e+02 2.349357414245605469e+01 -1.335999011993408203e+01 -2.164171457290649414e+00 2.976230084896087646e-01 -5.599645376205444336e-01 2.420473396778106689e-01
6.730000000000000000e+02 5.234680938720703125e+01 -2.399882793426513672e+00 1.855694293975830078e+00 8.504452109336853027e-01 8.118418455123901367e-01 1.246616542339324951e-01
6.740000000000000000e+02 6.425536346435546875e+01 -5.941972732543945312e+00 9.411557018756866455e-02 2.950305223464965820e+00 9.133262634277343750e-01 -7.424219250679016113e-01
6.750000000000000000e+02 6.319490432739257812e+01 1.343476623296737671e-01 6.404531002044677734e-01 2.362480401992797852e+00 9.008800387382507324e-01 4.472379982471466064e-01
6.760000000000000000e+02 3.054722976684570312e+01 -1.365636825561523438e+01 6.744228005409240723e-01 6.481137871742248535e-01 3.967609703540802002e-01 -1.666536092758178711e+00
6.770000000000000000e+02 4.213388824462890625e+01 -3.007996940612792969e+01 -3.604328930377960205e-01 7.090502262115478516e+00 2.019020795822143555e+00 -2.890526652336120605e-01
6.780000000000000000e+02 6.762074279785156250e+01 5.532422542572021484e+00 -1.672156602144241333e-01 6.054481983184814453e+00 1.766179800033569336e+00 9.529080390930175781e-01
6.790000000000000000e+02 7.353040313720703125e+01 2.697045087814331055e+00 -3.359183073043823242e-01 7.326368808746337891e+00 2.097135066986083984e+00 -2.592696547508239746e-01
6.800000000000000000e+02 6.373501968383789062e+01 3.880728960037231445e+00 5.062670111656188965e-01 2.627385377883911133e+00 9.400956630706787109e-01 1.127744674682617188e+00
6.810000000000000000e+02 5.779833984375000000e+01 -7.110516548156738281e+00 -2.082609534263610840e-01 6.040839478373527527e-02 -4.435576498508453369e-02 -1.475927531719207764e-01
6.820000000000000000e+02 6.376984786987304688e+01 2.218443870544433594e+01 -4.064047813415527344e+00 -2.377671189606189728e-03 -1.219927668571472168e+00 5.573489665985107422e-01
6.830000000000000000e+02 6.568650054931640625e+01 3.158405113220214844e+01 1.204058080911636353e-01 3.914005517959594727e+00 1.210323333740234375e+00 -5.771759748458862305e-01
6.840000000000000000e+02 5.690903854370117188e+01 3.230453109741210938e+01 5.884547531604766846e-02 2.575070381164550781e+00 7.901747822761535645e-01 9.994273185729980469e-01
6.850000000000000000e+02 5.495831298828125000e+01 2.954260635375976562e+01 -4.425026178359985352e-01 2.715819597244262695e+00 6.819950938224792480e-01 1.519590258598327637e+00
6.860000000000000000e+02 5.438415527343750000e+01 3.149030685424804688e+01 -3.497166037559509277e-01 2.909820318222045898e+00 7.680311203002929688e-01 1.227807998657226562e+00
6.870000000000000000e+02 5.184889221191406250e+01 2.244941329956054688e+01 -8.701564073562622070e-01 5.619373798370361328e+00 1.424765229225158691e+00 1.739465832710266113e+00
6.880000000000000000e+02 4.434893798828125000e+01 2.381537246704101562e+01 -8.948103189468383789e-01 5.086744785308837891e+00 1.257580280303955078e+00 -4.218957126140594482e-01
6.890000000000000000e+02 3.536088180541992188e+01 2.224270439147949219e+01 -6.208908557891845703e-01 1.455600261688232422e+00 2.504128515720367432e-01 -7.626821398735046387e-01
6.900000000000000000e+02 2.384461402893066406e+01 2.366795539855957031e+01 -9.320181012153625488e-01 1.272206306457519531e-01 -2.414392381906509399e-01 5.827723145484924316e-01
6.910000000000000000e+02 2.049698257446289062e+01 2.431315040588378906e+01 -1.153218150138854980e+00 1.913130283355712891e+00 2.279736250638961792e-01 1.006299138069152832e+00
6.920000000000000000e+02 7.051805496215820312e+00 2.524877166748046875e+01 -2.253340035676956177e-01 1.214579820632934570e+00 2.967737615108489990e-01 -9.391769170761108398e-01
6.930000000000000000e+02 9.513885498046875000e+00 2.016230010986328125e+01 1.821072548627853394e-01 1.767757296562194824e+00 5.849593877792358398e-01 -1.195603132247924805e+00
6.940000000000000000e+02 7.415785980224609375e+01 3.252064514160156250e+01 -1.475230455398559570e-01 7.656464099884033203e+00 2.252682209014892578e+00 -2.427878826856613159e-01
6.950000000000000000e+02 6.446317291259765625e+01 3.012057304382324219e+01 3.398593282327055931e-03 3.218326091766357422e+00 9.665173888206481934e-01 -4.987981915473937988e-01
6.960000000000000000e+02 4.422773361206054688e+01 3.453203964233398438e+01 -7.915058135986328125e-01 3.290754795074462891e+00 7.497746944427490234e-01 5.182560533285140991e-02
6.970000000000000000e+02 3.800821304321289062e+01 2.769804000854492188e+01 -6.838474869728088379e-01 2.655789375305175781e+00 5.915825963020324707e-01 -7.756093740463256836e-01
6.980000000000000000e+02 3.067158126831054688e+01 3.152173995971679688e+01 -2.498882263898849487e-01 1.235662102699279785e+00 2.957321703433990479e-01 -2.790496945381164551e-01
6.990000000000000000e+02 2.118270492553710938e+01 3.240591430664062500e+01 -4.630219042301177979e-01 1.455390572547912598e+00 2.977105677127838135e-01 3.330250680446624756e-01
7.000000000000000000e+02 1.828360748291015625e+01 2.818313407897949219e+01 -8.857413530349731445e-01 2.123995065689086914e+00 3.714761435985565186e-01 4.497671425342559814e-01
7.010000000000000000e+02 7.163515567779541016e+00 3.349452972412109375e+01 -2.640703320503234863e-01 1.374141573905944824e+00 3.330213427543640137e-01 -3.759547173976898193e-01
7.020000000000000000e+02 2.027591705322265625e+00 3.161898803710937500e+01 -3.448298573493957520e-02 8.994000554084777832e-01 2.594751417636871338e-01 -2.160095572471618652e-01
7.030000000000000000e+02 8.027334213256835938e+00 7.671020984649658203e+00 9.429022073745727539e-01 -1.223256811499595642e-01 2.461729496717453003e-01 6.565105915069580078e-01
7.040000000000000000e+02 1.812969803810119629e+00 1.616858291625976562e+01 6.219975650310516357e-02 -1.593850016593933105e+00 -4.594950675964355469e-01 -2.417818605899810791e-01
7.050000000000000000e+02 4.636901855468750000e+01 -1.720168304443359375e+01 4.337275028228759766e-01 1.310322666168212891e+01 4.061086177825927734e+00 1.078072667121887207e+00
7.060000000000000000e+02 4.676833343505859375e+01 -2.314171409606933594e+01 2.004846334457397461e+00 1.213836860656738281e+01 4.242964267730712891e+00 -3.799587249755859375e+00
7.070000000000000000e+02 4.629163742065429688e+01 -2.195912551879882812e+01 1.263237118721008301e+00 1.316274642944335938e+01 4.327795028686523438e+00 -2.221764802932739258e+00
7.080000000000000000e+02 1.751180839538574219e+01 1.165385484695434570e+00 -1.323347449302673340e+00 1.743533253669738770e+00 1.260557174682617188e-01 -8.925899267196655273e-01
7.090000000000000000e+02 8.010653495788574219e+00 -1.860739231109619141e+00 -5.693485140800476074e-01 8.060450106859207153e-02 -1.466232091188430786e-01 -1.228851228952407837e-01
7.100000000000000000e+02 7.259993076324462891e+00 -1.861023664474487305e+00 -5.242612957954406738e-01 5.873110145330429077e-02 -1.396590620279312134e-01 -1.733853816986083984e-01
7.110000000000000000e+02 6.508627414703369141e+00 -1.864527106285095215e+00 -4.729028642177581787e-01 4.115438833832740784e-02 -1.295245438814163208e-01 -2.076185941696166992e-01
7.120000000000000000e+02 3.487709760665893555e+00 -1.944736361503601074e+00 -2.049445360898971558e-01 -3.979470953345298767e-02 -7.342177629470825195e-02 -2.133206129074096680e-01
7.130000000000000000e+02 4.244840145111083984e+00 -1.910332322120666504e+00 -2.787457108497619629e-01 -1.769754290580749512e-02 -8.893298357725143433e-02 -2.351327538490295410e-01
7.140000000000000000e+02 3.954515695571899414e+00 -3.625462770462036133e+00 -1.698597073554992676e-01 -7.881797105073928833e-02 -7.460330426692962646e-02 -3.409990966320037842e-01
7.150000000000000000e+02 1.972686171531677246e+00 -2.028427839279174805e+00 -8.425070345401763916e-02 -9.694541990756988525e-02 -5.435883626341819763e-02 -1.533259004354476929e-01
7.160000000000000000e+02 1.210017800331115723e+00 -2.129931926727294922e+00 -3.587005659937858582e-02 -1.096393316984176636e-01 -4.365281760692596436e-02 -8.881981670856475830e-02
7.170000000000000000e+02 4.120943248271942139e-01 -2.195197820663452148e+00 -1.158711221069097519e-02 -7.064014673233032227e-02 -2.466817758977413177e-02 -3.093729354441165924e-02
7.180000000000000000e+02 1.988119244575500488e+00 -4.163801574707031250e+01 7.469480391591787338e-03 1.184571027755737305e+00 3.576121330261230469e-01 -2.163232769817113876e-03
7.190000000000000000e+02 9.323342442512512207e-01 -3.871173095703125000e+01 1.783619285561144352e-03 1.182775497436523438e+00 3.553677201271057129e-01 1.473154500126838684e-02
7.200000000000000000e+02 6.877380013465881348e-01 -3.481253814697265625e+01 -3.428607806563377380e-02 1.034036993980407715e+00 2.999252676963806152e-01 5.391286313533782959e-02
7.210000000000000000e+02 8.279974460601806641e-01 -3.342218780517578125e+01 -3.720043459907174110e-03 9.206710457801818848e-01 2.750853002071380615e-01 7.884275913238525391e-02
7.220000000000000000e+02 6.862136721611022949e-01 -2.908621025085449219e+01 -1.464020460844039917e-02 3.341187834739685059e-01 9.584356844425201416e-02 1.286380589008331299e-01
7.230000000000000000e+02 6.493117213249206543e-01 -2.767035293579101562e+01 -1.444590889150276780e-04 4.430097341537475586e-02 1.324695441871881485e-02 1.441156119108200073e-01
7.240000000000000000e+02 6.218422651290893555e-01 -2.626133537292480469e+01 -9.545546956360340118e-03 -2.903536558151245117e-01 -8.996976166963577271e-02 1.551978439092636108e-01
7.250000000000000000e+02 6.111368536949157715e-01 -2.203484725952148438e+01 6.470858119428157806e-03 -1.423164606094360352e+00 -4.250081181526184082e-01 1.548578739166259766e-01
7.260000000000000000e+02 6.125000715255737305e-01 -2.061687278747558594e+01 6.795542314648628235e-03 -1.758991956710815430e+00 -5.256589055061340332e-01 1.393555551767349243e-01
7.270000000000000000e+02 1.833750724792480469e+00 -2.067049407958984375e+01 4.890757426619529724e-02 -1.053195953369140625e+00 -3.012864887714385986e-01 3.633824288845062256e-01
7.280000000000000000e+02 5.881540179252624512e-01 -1.637322807312011719e+01 2.760662697255611420e-02 -2.315651893615722656e+00 -6.864135265350341797e-01 1.093697361648082733e-02
7.290000000000000000e+02 5.926536321640014648e-01 -1.495996093750000000e+01 1.403759513050317764e-02 -2.271180391311645508e+00 -6.771428585052490234e-01 -3.843948617577552795e-02
7.300000000000000000e+02 5.947746038436889648e-01 -1.354951000213623047e+01 1.114259008318185806e-02 -2.133599758148193359e+00 -6.367371678352355957e-01 -6.773173809051513672e-02
7.310000000000000000e+02 1.794982433319091797e+00 -1.361733245849609375e+01 6.132667139172554016e-02 -1.431891202926635742e+00 -4.111693799495697021e-01 -1.893709152936935425e-01
7.320000000000000000e+02 5.456430912017822266e-01 -9.339118957519531250e+00 2.169638639315962791e-03 -1.376368880271911621e+00 -4.122597873210906982e-01 -1.145101636648178101e-01
7.330000000000000000e+02 5.331417918205261230e-01 -7.944494247436523438e+00 -1.477475161664187908e-03 -1.065974473953247070e+00 -3.202355802059173584e-01 -1.139043197035789490e-01
7.340000000000000000e+02 4.414264678955078125e+00 -2.708498239517211914e+00 -2.464078515768051147e-01 -2.556937001645565033e-02 -8.159316331148147583e-02 -3.014937937259674072e-01
7.350000000000000000e+02 5.418751239776611328e-01 -6.545314788818359375e+00 1.373403938487172127e-03 -7.562900781631469727e-01 -2.264750003814697266e-01 -1.135170087218284607e-01
7.360000000000000000e+02 7.498143005371093750e+01 -4.038905715942382812e+01 4.301694035530090332e-02 7.604228496551513672e+00 2.294173717498779297e+00 -1.220471113920211792e-01
7.370000000000000000e+02 5.244884872436523438e+01 -4.098282623291015625e+01 1.425299327820539474e-02 2.712044477462768555e+00 8.178892135620117188e-01 -3.282146453857421875e-01
7.380000000000000000e+02 3.243064880371093750e+01 -4.088395309448242188e+01 -8.456233739852905273e-01 3.276111125946044922e+00 7.291463613510131836e-01 2.762967348098754883e-01
7.390000000000000000e+02 1.109406757354736328e+01 -3.797079849243164062e+01 -2.286445051431655884e-01 8.166449069976806641e-01 1.764001250267028809e-01 -8.266502059996128082e-03
7.400000000000000000e+02 7.483990478515625000e+01 3.995014572143554688e+01 1.569834500551223755e-01 7.774283885955810547e+00 2.379380226135253906e+00 -1.890114508569240570e-02
7.410000000000000000e+02 7.921121215820312500e+01 3.871260452270507812e+01 4.440390318632125854e-02 9.018566131591796875e+00 2.718891143798828125e+00 -7.617359608411788940e-02
7.420000000000000000e+02 7.871479034423828125e+01 3.995087051391601562e+01 -7.504976540803909302e-02 8.819105148315429688e+00 2.623216390609741211e+00 -1.531329005956649780e-01
7.430000000000000000e+02 7.805625915527343750e+01 3.764925003051757812e+01 8.336371392942965031e-04 8.808593750000000000e+00 2.642828226089477539e+00 -1.699456274509429932e-01
7.440000000000000000e+02 7.931707000732421875e+01 3.487940216064453125e+01 -2.810939028859138489e-02 9.463232040405273438e+00 2.830536842346191406e+00 -3.792571276426315308e-02
7.450000000000000000e+02 7.775483703613281250e+01 3.366923522949218750e+01 -4.697870463132858276e-02 8.992225646972656250e+00 2.683573961257934570e+00 -1.328704357147216797e-01
7.460000000000000000e+02 7.926432037353515625e+01 3.349810791015625000e+01 1.895286887884140015e-02 9.545958518981933594e+00 2.869473218917846680e+00 -3.191409260034561157e-02
7.470000000000000000e+02 7.921656799316406250e+01 3.068528938293457031e+01 -5.490895826369524002e-03 9.641210556030273438e+00 2.890715837478637695e+00 8.778508752584457397e-03
7.480000000000000000e+02 7.613899993896484375e+01 2.762519836425781250e+01 -2.959028482437133789e-01 8.492686271667480469e+00 2.459034919738769531e+00 2.856639325618743896e-01
7.490000000000000000e+02 7.926034545898437500e+01 2.644072914123535156e+01 -4.766386002302169800e-02 9.312841415405273438e+00 2.779553413391113281e+00 1.403588503599166870e-01
7.500000000000000000e+02 7.644301605224609375e+01 2.464974212646484375e+01 -2.752788066864013672e-01 8.491861343383789062e+00 2.464974880218505859e+00 7.170269489288330078e-01
7.510000000000000000e+02 7.930191802978515625e+01 2.505234527587890625e+01 -5.688878241926431656e-03 9.024480819702148438e+00 2.705637454986572266e+00 1.958563476800918579e-01
7.520000000000000000e+02 7.938436889648437500e+01 2.092308616638183594e+01 1.568871177732944489e-02 7.598685264587402344e+00 2.284312248229980469e+00 2.526711821556091309e-01
7.530000000000000000e+02 7.937631225585937500e+01 1.955256843566894531e+01 -1.385419350117444992e-02 7.060068607330322266e+00 2.113864183425903320e+00 2.548316121101379395e-01
7.540000000000000000e+02 7.936021423339843750e+01 1.817688941955566406e+01 6.131673976778984070e-02 6.596988201141357422e+00 1.997491359710693359e+00 1.954633891582489014e-01
7.550000000000000000e+02 7.936735534667968750e+01 1.399655723571777344e+01 -2.880995534360408783e-02 5.915938377380371094e+00 1.766138553619384766e+00 1.554438006132841110e-02
7.560000000000000000e+02 7.937701416015625000e+01 1.260523319244384766e+01 8.009075373411178589e-02 5.973871231079101562e+00 1.816188693046569824e+00 -5.259462818503379822e-02
7.570000000000000000e+02 7.938388061523437500e+01 1.122239494323730469e+01 -2.713179588317871094e-02 6.162971019744873047e+00 1.840751767158508301e+00 -1.002426221966743469e-01
7.580000000000000000e+02 7.937416839599609375e+01 7.057524681091308594e+00 1.362550817430019379e-02 7.124370574951171875e+00 2.141398668289184570e+00 -1.530534178018569946e-01
7.590000000000000000e+02 7.936399841308593750e+01 5.671320915222167969e+00 -1.566146127879619598e-02 7.458854675292968750e+00 2.232958078384399414e+00 -1.466935724020004272e-01
7.600000000000000000e+02 7.935481262207031250e+01 4.280736923217773438e+00 -9.273536503314971924e-03 7.746731758117675781e+00 2.321237325668334961e+00 -1.202792897820472717e-01
7.610000000000000000e+02 7.935803222656250000e+01 8.849611878395080566e-02 -5.429880693554878235e-03 8.291187286376953125e+00 2.485727071762084961e+00 -3.992898017168045044e-02
7.620000000000000000e+02 7.936179351806640625e+01 -1.307798743247985840e+00 -2.507201582193374634e-02 8.343095779418945312e+00 2.495407104492187500e+00 -3.670785576105117798e-03
7.630000000000000000e+02 7.810611724853515625e+01 -3.921165227890014648e+00 -7.128286361694335938e-02 7.946520328521728516e+00 2.362571239471435547e+00 1.595171391963958740e-01
7.640000000000000000e+02 7.937035369873046875e+01 -4.089118480682373047e+00 -2.384764328598976135e-02 8.226182937622070312e+00 2.460700750350952148e+00 6.671679764986038208e-02
7.650000000000000000e+02 7.939856719970703125e+01 -8.263586997985839844e+00 -1.419418584555387497e-02 7.447206974029541016e+00 2.229903936386108398e+00 1.750556975603103638e-01
7.660000000000000000e+02 7.822550201416015625e+01 -1.087318706512451172e+01 -2.014506794512271881e-02 6.861067771911621094e+00 2.052276849746704102e+00 5.644778013229370117e-01
7.670000000000000000e+02 7.939950561523437500e+01 -1.105340671539306641e+01 -1.302468683570623398e-02 6.538833141326904297e+00 1.957742571830749512e+00 2.259207963943481445e-01
7.680000000000000000e+02 7.934240722656250000e+01 -1.525443649291992188e+01 4.210578650236129761e-02 5.192014694213867188e+00 1.570236086845397949e+00 1.533811241388320923e-01
7.690000000000000000e+02 7.806677246093750000e+01 -1.800196647644042969e+01 1.984300613403320312e-01 5.803655147552490234e+00 1.800625562667846680e+00 -1.258919108659029007e-02
7.700000000000000000e+02 7.935358428955078125e+01 -1.806966400146484375e+01 6.274363398551940918e-02 4.852190017700195312e+00 1.474480032920837402e+00 1.261376892216503620e-03
7.710000000000000000e+02 7.937610626220703125e+01 -2.364508247375488281e+01 1.680943183600902557e-02 6.212653160095214844e+00 1.868838787078857422e+00 -2.607093751430511475e-01
7.720000000000000000e+02 7.807371520996093750e+01 -2.494165992736816406e+01 -1.164281181991100311e-02 7.042061805725097656e+00 2.109125614166259766e+00 -7.008607983589172363e-01
7.730000000000000000e+02 7.935636138916015625e+01 -2.504058837890625000e+01 -1.302894670516252518e-03 6.784692764282226562e+00 2.035017013549804688e+00 -2.763229906558990479e-01
7.740000000000000000e+02 7.927841949462890625e+01 -2.924884796142578125e+01 -2.482677251100540161e-02 8.227318763732910156e+00 2.460747480392456055e+00 -2.024196237325668335e-01
7.750000000000000000e+02 7.781973266601562500e+01 -3.209947967529296875e+01 -9.638794511556625366e-02 8.347191810607910156e+00 2.475241184234619141e+00 -2.817491590976715088e-01
7.760000000000000000e+02 7.928313446044921875e+01 -3.205575180053710938e+01 -3.328347206115722656e-02 8.789060592651367188e+00 2.626733064651489258e+00 -1.107363030314445496e-01
7.770000000000000000e+02 7.937283325195312500e+01 -3.613400650024414062e+01 2.533886395394802094e-02 9.058852195739746094e+00 2.725257396697998047e+00 -3.941962961107492447e-03
7.780000000000000000e+02 7.927860260009765625e+01 -3.744515609741210938e+01 -5.660162866115570068e-02 8.988455772399902344e+00 2.679556131362915039e+00 4.751738533377647400e-02
7.790000000000000000e+02 7.904293060302734375e+01 -3.874365234375000000e+01 7.335514761507511139e-03 8.868802070617675781e+00 2.662841320037841797e+00 7.194703072309494019e-02
7.800000000000000000e+02 7.866281127929687500e+01 -4.009479522705078125e+01 -5.295590311288833618e-02 8.731680870056152344e+00 2.603617429733276367e+00 1.182161346077919006e-01
7.810000000000000000e+02 6.211085319519042969e+00 3.812261199951171875e+01 -1.533237099647521973e-01 1.342869043350219727e+00 3.568635880947113037e-01 -1.499910205602645874e-01
7.820000000000000000e+02 2.754262733459472656e+01 4.083512115478515625e+01 -1.815067827701568604e-01 1.448414564132690430e+00 3.800723254680633545e-01 -2.764313248917460442e-03
7.830000000000000000e+02 4.761941528320312500e+01 4.102675247192382812e+01 -4.444452822208404541e-01 3.080450534820556641e+00 7.908015847206115723e-01 7.443039864301681519e-02
7.840000000000000000e+02 4.049347937107086182e-01 2.188341617584228516e+00 -1.667948067188262939e-02 -1.222480535507202148e-01 -4.167826101183891296e-02 5.416192486882209778e-02
7.850000000000000000e+02 2.997908353805541992e+00 3.075589656829833984e+00 -2.542966902256011963e-01 -3.241029381752014160e-01 -1.735198944807052612e-01 5.878194570541381836e-01
7.860000000000000000e+02 5.163164138793945312e+00 4.285419464111328125e+00 -2.297405898571014404e-01 -4.131813943386077881e-01 -1.928765922784805298e-01 1.013604640960693359e+00
7.870000000000000000e+02 1.582127809524536133e+00 5.269070625305175781e+00 -5.173088982701301575e-03 -8.457382917404174805e-01 -2.552734315395355225e-01 4.554072320461273193e-01
7.880000000000000000e+02 5.138455033302307129e-01 9.265589714050292969e+00 1.604241319000720978e-02 -2.092254161834716797e+00 -6.228635311126708984e-01 9.989001601934432983e-02
7.890000000000000000e+02 5.581517815589904785e-01 1.206217575073242188e+01 1.960143633186817169e-02 -2.447340965270996094e+00 -7.283218502998352051e-01 2.402243763208389282e-02
7.900000000000000000e+02 1.678935050964355469e+00 1.198756694793701172e+01 8.064617961645126343e-02 -1.853383421897888184e+00 -5.318211913108825684e-01 8.068958669900894165e-02
7.910000000000000000e+02 6.060364246368408203e-01 1.628071594238281250e+01 1.261009462177753448e-02 -2.206470966339111328e+00 -6.581582427024841309e-01 -9.109249711036682129e-02
7.920000000000000000e+02 6.132438182830810547e-01 1.768951225280761719e+01 9.105525910854339600e-03 -1.968782544136047363e+00 -5.879031419754028320e-01 -1.160089448094367981e-01
7.930000000000000000e+02 6.153882741928100586e-01 2.191239547729492188e+01 5.486459122039377689e-04 -1.029402136802673340e+00 -3.086560368537902832e-01 -1.482887864112854004e-01
7.940000000000000000e+02 6.182516217231750488e-01 2.331901359558105469e+01 -9.671024745330214500e-04 -6.895285248756408691e-01 -2.071486860513687134e-01 -1.475994288921356201e-01
7.950000000000000000e+02 6.261238455772399902e-01 2.473091888427734375e+01 -2.904457272961735725e-03 -3.603870272636413574e-01 -1.089874431490898132e-01 -1.429680734872817993e-01
7.960000000000000000e+02 6.409443020820617676e-01 2.899962997436523438e+01 -1.218526996672153473e-02 4.791782498359680176e-01 1.400978863239288330e-01 -1.052949950098991394e-01
7.970000000000000000e+02 6.470450162887573242e-01 3.041031265258789062e+01 -2.684684237465262413e-03 6.938824057579040527e-01 2.073593139648437500e-01 -8.983808010816574097e-02
7.980000000000000000e+02 1.921355724334716797e+00 3.025030517578125000e+01 -3.846887871623039246e-02 7.573823332786560059e-01 2.156740278005599976e-01 -2.590605914592742920e-01
7.990000000000000000e+02 6.673837900161743164e-01 3.181134033203125000e+01 -8.493825793266296387e-03 8.718662261962890625e-01 2.590117156505584717e-01 -7.712291181087493896e-02
8.000000000000000000e+02 7.006936669349670410e-01 3.599784088134765625e+01 -4.963984247297048569e-03 1.216852784156799316e+00 3.635666370391845703e-01 -3.796961158514022827e-02
8.010000000000000000e+02 2.464418888092041016e+00 3.812642288208007812e+01 -2.571039833128452301e-02 1.292921423912048340e+00 3.801633119583129883e-01 -7.854125648736953735e-02
8.020000000000000000e+02 9.161676168441772461e-01 3.873028182983398438e+01 -1.125957118347287178e-03 1.329059958457946777e+00 3.983802199363708496e-01 -2.525240369141101837e-02
8.030000000000000000e+02 1.293761253356933594e+00 4.009095001220703125e+01 -3.199595026671886444e-03 1.359735131263732910e+00 4.069606363773345947e-01 -2.181446366012096405e-02
8.040000000000000000e+02 9.835267066955566406e+00 1.838805913925170898e+00 -2.077002286911010742e+00 -3.937571644783020020e-01 -7.412278652191162109e-01 1.138105511665344238e+00
8.050000000000000000e+02 9.050938606262207031e+00 1.855011940002441406e+00 -1.892326235771179199e+00 -3.357324898242950439e-01 -6.684176325798034668e-01 1.127721786499023438e+00
8.060000000000000000e+02 8.270154953002929688e+00 1.863599658012390137e+00 -1.749262452125549316e+00 -2.165960818529129028e-01 -5.897575616836547852e-01 1.051666736602783203e+00
8.070000000000000000e+02 7.489497661590576172e+00 1.868958115577697754e+00 -1.500292181968688965e+00 -1.567977517843246460e-01 -4.971269965171813965e-01 9.278373122215270996e-01
8.080000000000000000e+02 5.934741497039794922e+00 1.882845878601074219e+00 -1.033974170684814453e+00 -1.217004358768463135e-01 -3.467023670673370361e-01 7.558112144470214844e-01
8.090000000000000000e+02 5.158311843872070312e+00 1.898889780044555664e+00 -8.233231306076049805e-01 -1.196884140372276306e-01 -2.829034626483917236e-01 6.779874563217163086e-01
8.100000000000000000e+02 4.378354549407958984e+00 1.925403475761413574e+00 -6.295568943023681641e-01 -1.311584115028381348e-01 -2.282145917415618896e-01 5.947721600532531738e-01
8.110000000000000000e+02 3.593157768249511719e+00 1.967294454574584961e+00 -4.539627432823181152e-01 -1.495706290006637573e-01 -1.810600161552429199e-01 5.036479234695434570e-01
8.120000000000000000e+02 2.008322238922119141e+00 2.065355062484741211e+00 -1.860766112804412842e-01 -2.008885890245437622e-01 -1.160895600914955139e-01 3.051802814006805420e-01
8.130000000000000000e+02 1.208567500114440918e+00 2.125419139862060547e+00 -7.415821403264999390e-02 -2.142546772956848145e-01 -8.652386814355850220e-02 1.744936704635620117e-01
8.140000000000000000e+02 1.140509223937988281e+01 1.645027995109558105e+00 -2.458116531372070312e+00 -3.915635943412780762e-01 -8.549040555953979492e-01 1.099331021308898926e+00
8.150000000000000000e+02 1.295404720306396484e+01 1.371882677078247070e+00 -2.781872272491455078e+00 -2.065864801406860352e-01 -8.965376019477844238e-01 1.080300331115722656e+00
8.160000000000000000e+02 1.516794013977050781e+01 9.621417522430419922e-01 -2.915140390396118164e+00 1.589305102825164795e-01 -8.268629908561706543e-01 7.157286405563354492e-01
8.170000000000000000e+02 1.589141654968261719e+01 8.232624530792236328e-01 -2.835782527923583984e+00 3.349330127239227295e-01 -7.502548098564147949e-01 4.731629788875579834e-01
8.180000000000000000e+02 1.904864883422851562e+01 1.188676282763481140e-01 -1.639660477638244629e+00 1.331233620643615723e+00 -9.252805262804031372e-02 -2.055691003799438477e+00
8.190000000000000000e+02 1.730468177795410156e+01 5.543862581253051758e-01 -2.597703695297241211e+00 9.971610307693481445e-01 -4.801627993583679199e-01 -3.114059269428253174e-01
8.200000000000000000e+02 1.923710823059082031e+01 3.289007544517517090e-01 -1.149803400039672852e+00 2.587774753570556641e+00 4.313914179801940918e-01 -2.851975917816162109e+00
8.210000000000000000e+02 2.143251228332519531e+01 7.866737991571426392e-02 -6.755566000938415527e-01 1.119952678680419922e+01 3.157190799713134766e+00 -7.048293113708496094e+00
8.220000000000000000e+02 2.163552856445312500e+01 3.920731246471405029e-01 -1.432698011398315430e+00 1.163626289367675781e+01 3.061069488525390625e+00 -6.131148338317871094e+00
8.230000000000000000e+02 2.238864898681640625e+01 3.863377273082733154e-01 -2.022554159164428711e+00 1.330785942077636719e+01 3.385591745376586914e+00 -3.516284704208374023e+00
8.240000000000000000e+02 2.246364593505859375e+01 -5.853710696101188660e-02 -1.218232631683349609e+00 1.493689823150634766e+01 4.115599632263183594e+00 -2.817359447479248047e+00
8.250000000000000000e+02 2.262754440307617188e+01 -1.765538454055786133e-01 -6.232696175575256348e-01 1.477986049652099609e+01 4.246977329254150391e+00 -2.064256429672241211e+00
8.260000000000000000e+02 2.352289962768554688e+01 1.463091135025024414e+00 -7.852101325988769531e-02 4.049900054931640625e+00 1.191413640975952148e+00 -1.487186789512634277e+00
8.270000000000000000e+02 2.295596504211425781e+01 -3.422287702560424805e-01 1.094106078147888184e+00 1.205511856079101562e+01 3.944767475128173828e+00 -7.160602211952209473e-01
8.280000000000000000e+02 2.338331222534179688e+01 -1.030005812644958496e-01 3.556252121925354004e-01 8.782333374023437500e+00 2.741387605667114258e+00 -6.882129907608032227e-01
8.290000000000000000e+02 2.327907562255859375e+01 -2.611570835113525391e+00 5.722595214843750000e+00 9.133565902709960938e+00 4.456848621368408203e+00 -5.439683437347412109e+00
8.300000000000000000e+02 2.345850181579589844e+01 -2.943400621414184570e+00 4.674077033996582031e+00 8.483839035034179688e+00 3.947374820709228516e+00 -5.150081157684326172e+00
8.310000000000000000e+02 2.277533340454101562e+01 -3.031278371810913086e+00 2.907246828079223633e+00 1.176716232299804688e+01 4.402322769165039062e+00 -3.714086055755615234e+00
8.320000000000000000e+02 2.215809249877929688e+01 -3.527812480926513672e+00 1.358696699142456055e+00 1.048223876953125000e+01 3.552280664443969727e+00 6.716795265674591064e-02
8.330000000000000000e+02 2.196524429321289062e+01 -3.257638216018676758e+00 1.527458071708679199e+00 1.106842422485351562e+01 3.778764724731445312e+00 1.112214088439941406e+00
8.340000000000000000e+02 2.094812202453613281e+01 -3.268513441085815430e+00 3.242839574813842773e+00 4.743055820465087891e+00 2.395768642425537109e+00 3.161317110061645508e+00
8.350000000000000000e+02 2.133223915100097656e+01 -3.202897071838378906e+00 2.760576009750366211e+00 7.474978923797607422e+00 3.070666551589965820e+00 3.425407409667968750e+00
8.360000000000000000e+02 2.049530029296875000e+01 -3.240129470825195312e+00 3.336908817291259766e+00 2.620616674423217773e+00 1.787257671356201172e+00 2.537808179855346680e+00
8.370000000000000000e+02 1.915194702148437500e+01 -3.711944341659545898e+00 2.386948108673095703e+00 6.608825325965881348e-01 9.143491387367248535e-01 1.458819746971130371e+00
8.380000000000000000e+02 1.873611259460449219e+01 -3.210864067077636719e+00 1.938146114349365234e+00 1.332864463329315186e-01 6.214297413825988770e-01 8.736772537231445312e-01
8.390000000000000000e+02 1.655040359497070312e+01 -2.943165302276611328e+00 6.034010648727416992e-01 -9.926337003707885742e-02 1.512413173913955688e-01 5.072929859161376953e-01
8.400000000000000000e+02 1.586679077148437500e+01 -3.414279460906982422e+00 5.758436918258666992e-01 -6.914165616035461426e-02 1.520106196403503418e-01 6.388197541236877441e-01
8.410000000000000000e+02 1.525543498992919922e+01 -2.765994071960449219e+00 1.270036995410919189e-01 -6.837258487939834595e-02 1.758933626115322113e-02 4.239000678062438965e-01
8.420000000000000000e+02 1.233798503875732422e+01 -2.295690774917602539e+00 -4.819027781486511230e-01 5.118423700332641602e-02 -1.292155534029006958e-01 2.084682732820510864e-01
8.430000000000000000e+02 1.305811119079589844e+01 -2.411396503448486328e+00 -3.806716501712799072e-01 2.910684794187545776e-02 -1.054694354534149170e-01 2.760709822177886963e-01
8.440000000000000000e+02 1.092764282226562500e+01 -2.064173221588134766e+00 -6.101602911949157715e-01 1.073453277349472046e-01 -1.508444845676422119e-01 8.301579952239990234e-02
8.450000000000000000e+02 1.025075054168701172e+01 -2.718990802764892578e+00 -4.942039251327514648e-01 1.826710700988769531e-01 -9.345985949039459229e-02 3.864823654294013977e-02
8.460000000000000000e+02 6.375088119506835938e+01 2.362343978881835938e+01 -2.262998580932617188e+00 4.448406398296356201e-01 -5.454474091529846191e-01 -3.328485190868377686e-01
8.470000000000000000e+02 6.514292907714843750e+01 2.187674140930175781e+01 -2.977588891983032227e+00 2.478517442941665649e-01 -8.189211487770080566e-01 1.613542437553405762e-01
8.480000000000000000e+02 6.822454071044921875e+01 1.977659225463867188e+01 1.316547513008117676e+00 1.073560428619384766e+01 3.615645408630371094e+00 -1.842120647430419922e+00
8.490000000000000000e+02 6.832518005371093750e+01 1.540578174591064453e+01 8.805928826332092285e-01 1.502881145477294922e+01 4.772821426391601562e+00 9.913311004638671875e-01
8.500000000000000000e+02 6.818310546875000000e+01 1.403489208221435547e+01 7.502488493919372559e-01 1.457543277740478516e+01 4.597704410552978516e+00 2.339532375335693359e+00
8.510000000000000000e+02 6.715801239013671875e+01 1.068176746368408203e+01 2.192400217056274414e+00 9.147312164306640625e+00 3.401913642883300781e+00 3.599374055862426758e+00
8.520000000000000000e+02 6.533197784423828125e+01 8.672686576843261719e+00 1.929430484771728516e+00 3.921931266784667969e+00 1.755408525466918945e+00 2.544228076934814453e+00
8.530000000000000000e+02 6.326406097412109375e+01 6.762046813964843750e+00 9.910145401954650879e-01 1.529163718223571777e+00 7.560535073280334473e-01 1.194600582122802734e+00
8.540000000000000000e+02 6.220344924926757812e+01 5.831956863403320312e+00 7.165630459785461426e-01 9.820669293403625488e-01 5.095890164375305176e-01 8.260899782180786133e-01
8.550000000000000000e+02 5.900191497802734375e+01 3.067500591278076172e+00 5.699383616447448730e-01 3.957580327987670898e-01 2.897089123725891113e-01 4.201516509056091309e-01
8.560000000000000000e+02 5.545308685302734375e+01 5.674511194229125977e-01 2.057578802108764648e+00 3.019523620605468750e-01 7.078593373298645020e-01 6.674493551254272461e-01
8.570000000000000000e+02 4.814166259765625000e+01 6.545761108398437500e+00 3.255374133586883545e-01 1.209341430664062500e+01 3.725685358047485352e+00 1.207602143287658691e+00
8.580000000000000000e+02 4.826740646362304688e+01 7.987367630004882812e+00 6.125928163528442383e-01 1.267466640472412109e+01 3.986177682876586914e+00 1.827608227729797363e+00
8.590000000000000000e+02 4.922113037109375000e+01 1.217907428741455078e+01 8.774994015693664551e-01 1.258303165435791016e+01 4.038159370422363281e+00 3.052569389343261719e+00
8.600000000000000000e+02 5.038119125366210938e+01 1.618971824645996094e+01 1.435940027236938477e+00 1.048198509216308594e+01 3.575377464294433594e+00 3.567548274993896484e+00
8.610000000000000000e+02 5.106373596191406250e+01 2.026953506469726562e+01 1.471442222595214844e+00 6.924249172210693359e+00 2.518707513809204102e+00 2.493793010711669922e+00
8.620000000000000000e+02 5.951467132568359375e+01 2.255506515502929688e+01 -4.165128707885742188e+00 -9.828689694404602051e-02 -1.279024720191955566e+00 -1.804906991310417652e-03
8.630000000000000000e+02 6.095655822753906250e+01 2.258437919616699219e+01 -4.958190441131591797e+00 -2.254184782505035400e-01 -1.555082678794860840e+00 3.345015943050384521e-01
8.640000000000000000e+02 3.033603668212890625e+01 2.015361595153808594e+01 -1.871290922164916992e+00 -2.291345447301864624e-01 -6.301276087760925293e-01 5.331482291221618652e-01
8.650000000000000000e+02 3.161612892150878906e+01 1.954049301147460938e+01 -1.412184119224548340e+00 -2.107574045658111572e-01 -4.868824481964111328e-01 5.042966604232788086e-01
8.660000000000000000e+02 3.505772399902343750e+01 1.713744354248046875e+01 -2.227050662040710449e-01 2.038472592830657959e-01 -5.657343659549951553e-03 -3.058655187487602234e-02
8.670000000000000000e+02 3.816178131103515625e+01 1.439014530181884766e+01 6.224602460861206055e-01 1.287344574928283691e+00 5.729414820671081543e-01 -8.978037238121032715e-01
8.680000000000000000e+02 3.912510299682617188e+01 1.339179992675781250e+01 8.947893381118774414e-01 2.113523721694946289e+00 9.024938941001892090e-01 -1.309220671653747559e+00
8.690000000000000000e+02 4.164816665649414062e+01 1.012808227539062500e+01 1.322996139526367188e+00 8.356504440307617188e+00 2.903850078582763672e+00 -2.821745157241821289e+00
8.700000000000000000e+02 4.333847808837890625e+01 8.103317260742187500e+00 1.337232828140258789e+00 1.346222591400146484e+01 4.439837455749511719e+00 -3.671872019767761230e-01
8.710000000000000000e+02 4.249554443359375000e+01 4.012939929962158203e+00 3.428080677986145020e-01 1.769005012512207031e+01 5.409857749938964844e+00 9.313457608222961426e-01
8.720000000000000000e+02 4.211343002319335938e+01 1.319655060768127441e+00 1.441868543624877930e+00 1.871117401123046875e+01 6.045912742614746094e+00 3.962421894073486328e+00
8.730000000000000000e+02 3.883279800415039062e+01 -3.697875499725341797e+00 6.423292160034179688e-01 2.777251005172729492e+00 1.025874137878417969e+00 1.934090018272399902e+00
8.740000000000000000e+02 3.351439285278320312e+01 -5.098835945129394531e+00 -7.982484102249145508e-01 -1.838725507259368896e-01 -2.946362793445587158e-01 -7.281223535537719727e-01
8.750000000000000000e+02 2.946992111206054688e+01 -5.107392787933349609e+00 5.830709934234619141e+00 2.299562215805053711e+00 2.439081668853759766e+00 -3.042977809906005859e+00
8.760000000000000000e+02 2.834049797058105469e+01 -5.113446235656738281e+00 4.768462181091308594e+00 2.747483491897583008e+00 2.254783630371093750e+00 -2.951920986175537109e+00
8.770000000000000000e+02 2.364389801025390625e+01 -1.789757370948791504e+00 8.016504287719726562e+00 5.873902797698974609e+00 4.167121887207031250e+00 -4.163186550140380859e+00
8.780000000000000000e+02 2.226207733154296875e+01 3.372665867209434509e-02 -1.576437830924987793e+00 1.499996566772460938e+01 4.027058124542236328e+00 -3.893449544906616211e+00
8.790000000000000000e+02 2.163140869140625000e+01 7.850432395935058594e-02 -1.143704771995544434e+00 1.249140167236328125e+01 3.404309034347534180e+00 -6.534462928771972656e+00
8.800000000000000000e+02 2.020993041992187500e+01 5.886979103088378906e+00 3.989486694335937500e+00 1.321721744537353516e+01 5.162011146545410156e+00 -6.517926692962646484e+00
8.810000000000000000e+02 1.845054054260253906e+01 1.260994434356689453e+01 2.993687987327575684e-01 9.853667259216308594e+00 3.045910835266113281e+00 -9.971972107887268066e-01
8.820000000000000000e+02 1.840293502807617188e+01 1.688185501098632812e+01 4.679192602634429932e-01 8.592632293701171875e+00 2.718165397644042969e+00 6.628378033638000488e-01
8.830000000000000000e+02 2.468358993530273438e+01 -1.452247714996337891e+01 -3.036884546279907227e+00 6.707210838794708252e-02 -8.909437656402587891e-01 1.784636527299880981e-01
8.840000000000000000e+02 2.739952087402343750e+01 -1.460250377655029297e+01 -1.821670174598693848e+00 2.058526277542114258e-01 -4.847452640533447266e-01 -2.610587775707244873e-01
8.850000000000000000e+02 3.176045989990234375e+01 -1.510174846649169922e+01 1.502808451652526855e+00 7.650908231735229492e-01 6.803697943687438965e-01 -1.275398731231689453e+00
8.860000000000000000e+02 3.027070426940917969e+01 -1.496083354949951172e+01 8.017353713512420654e-02 3.065531551837921143e-01 1.160180121660232544e-01 -6.056618094444274902e-01
8.870000000000000000e+02 3.625354766845703125e+01 -2.286027717590332031e+01 8.101282119750976562e-01 1.139251899719238281e+01 3.660794258117675781e+00 1.058974146842956543e+00
8.880000000000000000e+02 2.370581245422363281e+01 -3.062717056274414062e+01 -1.552856564521789551e+00 -5.272995680570602417e-02 -4.816759526729583740e-01 2.118728756904602051e-01
8.890000000000000000e+02 1.838870811462402344e+01 -2.844268608093261719e+01 -6.161630749702453613e-01 -1.369255967438220978e-02 -1.889566928148269653e-01 1.959835737943649292e-01
8.900000000000000000e+02 1.623511314392089844e+01 -2.661192893981933594e+01 -5.068962275981903076e-02 3.394966125488281250e-01 8.664210140705108643e-02 -1.171519979834556580e-01
8.910000000000000000e+02 1.336514663696289062e+01 -2.353833580017089844e+01 5.642392039299011230e-01 1.745671749114990234e+00 6.929733157157897949e-01 -9.727459549903869629e-01
8.920000000000000000e+02 1.257311820983886719e+01 -2.235999679565429688e+01 7.314013242721557617e-01 3.357455730438232422e+00 1.226657152175903320e+00 -1.218415617942810059e+00
8.930000000000000000e+02 1.168187808990478516e+01 -1.965396881103515625e+01 2.933347523212432861e-01 5.674716472625732422e+00 1.790415406227111816e+00 -4.176098108291625977e-01
8.940000000000000000e+02 1.201587486267089844e+01 -1.540561580657958984e+01 1.525225162506103516e+00 6.045164585113525391e+00 2.271116971969604492e+00 2.233004331588745117e+00
8.950000000000000000e+02 5.752986145019531250e+01 -9.842385292053222656e+00 -1.003279805183410645e+00 -1.960885375738143921e-01 -3.598105013370513916e-01 5.203089714050292969e-01
8.960000000000000000e+02 6.039610671997070312e+01 -9.538168907165527344e+00 -5.049063563346862793e-01 1.552109420299530029e-01 -1.049086302518844604e-01 1.106355711817741394e-01
8.970000000000000000e+02 6.272082519531250000e+01 -1.013303279876708984e+01 -1.420410275459289551e-01 5.528777837753295898e-01 1.232510209083557129e-01 -4.492714405059814453e-01
8.980000000000000000e+02 6.515122222900390625e+01 -1.183271884918212891e+01 8.081997632980346680e-01 2.626836299896240234e+00 1.030510783195495605e+00 -1.682059526443481445e+00
8.990000000000000000e+02 6.804267120361328125e+01 -1.572746753692626953e+01 1.958871841430664062e+00 1.508181667327880859e+01 5.112206459045410156e+00 -3.433254241943359375e+00
9.000000000000000000e+02 6.426896667480468750e+01 -2.583245086669921875e+01 2.067936807870864868e-01 1.735110402107238770e+00 5.825712680816650391e-01 7.918325066566467285e-01
9.010000000000000000e+02 6.094464874267578125e+01 -2.847009468078613281e+01 -1.672019243240356445e+00 -1.349604725837707520e-01 -5.420939326286315918e-01 -5.777841806411743164e-01
9.020000000000000000e+02 5.284141540527343750e+01 -2.955923652648925781e+01 -2.009958475828170776e-01 9.266219735145568848e-01 2.176878452301025391e-01 -9.281127452850341797e-01
9.030000000000000000e+02 5.127761840820312500e+01 -3.007946777343750000e+01 1.232168450951576233e-01 2.294234991073608398e+00 7.252355813980102539e-01 -1.576388597488403320e+00
9.040000000000000000e+02 4.906493377685546875e+01 -2.642347335815429688e+01 2.328794002532958984e+00 4.042560577392578125e+00 1.911406397819519043e+00 -2.956203699111938477e+00
9.050000000000000000e+02 4.740077209472656250e+01 -2.430760002136230469e+01 3.168154478073120117e+00 9.430338859558105469e+00 3.779547929763793945e+00 -4.478261947631835938e+00
9.060000000000000000e+02 4.863895416259765625e+01 -1.073948764801025391e+01 1.761617422103881836e+00 5.604695796966552734e+00 2.209893941879272461e+00 2.920310735702514648e+00
9.070000000000000000e+02 1.839063644409179688e+01 1.546824216842651367e+00 -3.262728750705718994e-01 3.430902481079101562e+00 9.313888549804687500e-01 -2.256821632385253906e+00
9.080000000000000000e+02 2.119008827209472656e+01 3.148657977581024170e-01 -7.438430786132812500e-01 9.537830352783203125e+00 2.638196229934692383e+00 -6.605622768402099609e+00
9.090000000000000000e+02 1.943061256408691406e+01 1.102302670478820801e-01 -1.053314447402954102e+00 2.376244544982910156e+00 3.968789875507354736e-01 -2.873870372772216797e+00
9.100000000000000000e+02 2.036639213562011719e+01 4.322526752948760986e-01 -1.289104521274566650e-01 5.557723522186279297e+00 1.628643989562988281e+00 -5.425755023956298828e+00
9.110000000000000000e+02 2.066553115844726562e+01 1.292370855808258057e-01 1.514524221420288086e-01 6.008221626281738281e+00 1.847902178764343262e+00 -5.946177959442138672e+00
9.120000000000000000e+02 2.274555206298828125e+01 2.481192350387573242e+00 2.173816680908203125e+00 7.065695285797119141e+00 2.771853685379028320e+00 -4.180799484252929688e+00
9.130000000000000000e+02 2.079498100280761719e+01 4.027692079544067383e-01 -2.513659000396728516e-01 7.303255081176757812e+00 2.115566730499267578e+00 -6.250291824340820312e+00
9.140000000000000000e+02 2.046703147888183594e+01 1.381517946720123291e-01 6.464732438325881958e-02 5.300361633300781250e+00 1.609502673149108887e+00 -5.532944679260253906e+00
9.150000000000000000e+02 2.106051826477050781e+01 9.395609796047210693e-02 1.049459427595138550e-01 8.485802650451660156e+00 2.577224493026733398e+00 -7.028656959533691406e+00
9.160000000000000000e+02 2.086696243286132812e+01 1.127703264355659485e-01 1.662656813859939575e-01 7.215352058410644531e+00 2.214485168457031250e+00 -6.532880306243896484e+00
9.170000000000000000e+02 2.261953353881835938e+01 -3.445468187332153320e+00 1.826973915100097656e+00 1.077339458465576172e+01 3.780110359191894531e+00 -2.169862270355224609e+00
9.180000000000000000e+02 2.345252609252929688e+01 -8.200315237045288086e-01 3.728716373443603516e+00 6.866030693054199219e+00 3.178424119949340820e+00 -1.301322937011718750e+00
9.190000000000000000e+02 2.688911628723144531e+01 -4.508043289184570312e+00 4.291705131530761719e+00 1.588216543197631836e+00 1.763976454734802246e+00 -2.841764688491821289e+00
9.200000000000000000e+02 2.356290626525878906e+01 -1.029853701591491699e+00 4.994425773620605469e+00 5.576382160186767578e+00 3.171242475509643555e+00 -1.606721401214599609e+00
9.210000000000000000e+02 2.465638732910156250e+01 -1.439031958580017090e+00 4.647089004516601562e+00 1.493832826614379883e+00 1.842276573181152344e+00 -2.195912122726440430e+00
9.220000000000000000e+02 2.175365066528320312e+01 -3.263063669204711914e+00 1.819409608840942383e+00 9.956405639648437500e+00 3.532744646072387695e+00 2.000700712203979492e+00
9.230000000000000000e+02 2.430713653564453125e+01 -4.431346952915191650e-01 4.112847149372100830e-01 1.204437613487243652e+00 4.847167134284973145e-01 4.335824847221374512e-01
9.240000000000000000e+02 2.367528152465820312e+01 -1.536142230033874512e+00 7.239990711212158203e+00 5.098007202148437500e+00 3.701399326324462891e+00 -2.979695081710815430e+00
9.250000000000000000e+02 2.601181411743164062e+01 -1.914343476295471191e+00 2.402108907699584961e+00 3.934596776962280273e-01 8.386706113815307617e-01 -1.365479946136474609e+00
9.260000000000000000e+02 2.258571434020996094e+01 -3.126080036163330078e+00 2.257933855056762695e+00 1.215889167785644531e+01 4.325047492980957031e+00 -2.689751863479614258e+00
9.270000000000000000e+02 2.312101936340332031e+01 -2.771782636642456055e+00 4.760552406311035156e+00 1.029413986206054688e+01 4.516407966613769531e+00 -5.220865726470947266e+00
9.280000000000000000e+02 2.217647171020507812e+01 -3.239528179168701172e+00 1.537877798080444336e+00 1.187725067138671875e+01 4.024538516998291016e+00 -2.403744459152221680e-01
9.290000000000000000e+02 2.278209114074707031e+01 -4.963410273194313049e-02 -5.253826379776000977e-01 1.278649139404296875e+01 3.678332567214965820e+00 -1.601857662200927734e+00
9.300000000000000000e+02 2.184147644042968750e+01 4.075939059257507324e-01 -1.785964727401733398e+00 1.250061035156250000e+01 3.214393615722656250e+00 -5.329706668853759766e+00
9.310000000000000000e+02 1.832933807373046875e+01 -3.156670570373535156e+00 1.605425000190734863e+00 3.922380134463310242e-02 4.933946132659912109e-01 7.250044345855712891e-01
9.320000000000000000e+02 2.115146255493164062e+01 -3.232119083404541016e+00 3.047119140625000000e+00 6.021986484527587891e+00 2.720731735229492188e+00 3.329792261123657227e+00
9.330000000000000000e+02 2.007167243957519531e+01 -3.212782859802246094e+00 3.195000886917114258e+00 1.392748594284057617e+00 1.376324892044067383e+00 1.943917989730834961e+00
9.340000000000000000e+02 1.965137290954589844e+01 -3.524264574050903320e+00 2.764583349227905273e+00 1.040650486946105957e+00 1.141570210456848145e+00 1.719059944152832031e+00
9.350000000000000000e+02 1.921436691284179688e+01 -3.235870361328125000e+00 2.354897260665893555e+00 3.653781712055206299e-01 8.160826563835144043e-01 1.099621415138244629e+00
9.360000000000000000e+02 1.986493301391601562e+01 -3.197440385818481445e+00 2.987116813659667969e+00 1.032982110977172852e+00 1.206029653549194336e+00 1.660707831382751465e+00
9.370000000000000000e+02 1.898356056213378906e+01 -3.231371879577636719e+00 2.152662038803100586e+00 2.815441191196441650e-01 7.302618026733398438e-01 9.880695939064025879e-01
9.380000000000000000e+02 1.886171913146972656e+01 -3.687311649322509766e+00 2.180264472961425781e+00 4.172456860542297363e-01 7.792530059814453125e-01 1.281319856643676758e+00
9.390000000000000000e+02 2.027988433837890625e+01 -3.227798223495483398e+00 3.311228990554809570e+00 1.912818551063537598e+00 1.567214250564575195e+00 2.247862100601196289e+00
9.400000000000000000e+02 1.648771095275878906e+01 -3.467616081237792969e+00 8.097257018089294434e-01 -7.121124118566513062e-02 2.215543389320373535e-01 6.884476542472839355e-01
9.410000000000000000e+02 1.707878684997558594e+01 -3.504704475402832031e+00 1.092613220214843750e+00 -7.495585829019546509e-02 3.052972257137298584e-01 7.440522909164428711e-01
9.420000000000000000e+02 1.775581550598144531e+01 -3.081671714782714844e+00 1.197376608848571777e+00 -6.983717530965805054e-02 3.382618427276611328e-01 5.753897428512573242e-01
9.430000000000000000e+02 1.452686882019042969e+01 -2.647762298583984375e+00 -7.816656678915023804e-02 -3.324728831648826599e-02 -3.342415764927864075e-02 3.856500387191772461e-01
9.440000000000000000e+02 1.520318031311035156e+01 -3.339000701904296875e+00 3.478249311447143555e-01 -3.885738551616668701e-02 9.269026666879653931e-02 5.800212621688842773e-01
9.450000000000000000e+02 9.502388954162597656e+00 -1.884928464889526367e+00 -6.347042322158813477e-01 1.174643635749816895e-01 -1.551719605922698975e-01 -2.113426290452480316e-02
9.460000000000000000e+02 1.029945850372314453e+01 -3.482104539871215820e+00 -3.692111074924468994e-01 2.729898095130920410e-01 -2.886639162898063660e-02 7.610736787319183350e-02
9.470000000000000000e+02 1.095503234863281250e+01 -2.808069229125976562e+00 -4.470587968826293945e-01 1.743502467870712280e-01 -8.181256055831909180e-02 1.182176247239112854e-01
9.480000000000000000e+02 1.166068077087402344e+01 -2.901065349578857422e+00 -3.878752887248992920e-01 1.481555402278900146e-01 -7.191592454910278320e-02 1.944332271814346313e-01
9.490000000000000000e+02 1.379290294647216797e+01 -2.529231786727905273e+00 -2.502940297126770020e-01 -9.442532435059547424e-03 -7.792096585035324097e-02 3.288658261299133301e-01
9.500000000000000000e+02 1.639270591735839844e+01 2.217878341674804688e+00 -3.371130228042602539e-01 1.618515729904174805e+00 3.844208419322967529e-01 -5.067847371101379395e-01
9.510000000000000000e+02 1.938347625732421875e+01 4.705025851726531982e-01 -8.100528717041015625e-01 2.978490829467773438e+00 6.505313515663146973e-01 -3.202019691467285156e+00
9.520000000000000000e+02 2.090693092346191406e+01 4.647277355194091797e+00 4.678578376770019531e+00 1.136873531341552734e+01 4.814194202423095703e+00 -6.915154457092285156e+00
9.530000000000000000e+02 1.684025573730468750e+01 1.360683679580688477e+00 -1.421257972717285156e+00 1.302353024482727051e+00 -3.567150980234146118e-02 -4.382059276103973389e-01
9.540000000000000000e+02 2.180283355712890625e+01 3.508501291275024414e+00 3.863231658935546875e+00 9.381771087646484375e+00 3.973500728607177734e+00 -6.182728767395019531e+00
9.550000000000000000e+02 1.444235420227050781e+01 1.099040031433105469e+00 -2.902859687805175781e+00 8.989516645669937134e-03 -8.681610822677612305e-01 8.733800053596496582e-01
9.560000000000000000e+02 1.469945812225341797e+01 1.827876329421997070e+00 -1.625538706779479980e+00 3.070659041404724121e-01 -3.955418169498443604e-01 5.208995938301086426e-01
9.570000000000000000e+02 1.868167495727539062e+01 6.838992595672607422e+00 3.141965627670288086e+00 9.482490539550781250e+00 3.787336826324462891e+00 -4.273474216461181641e+00
9.580000000000000000e+02 1.541747760772705078e+01 1.680793642997741699e+00 -1.526922225952148438e+00 5.276364088058471680e-01 -2.997857332229614258e-01 3.055799305438995361e-01
9.590000000000000000e+02 1.396279907226562500e+01 1.964126110076904297e+00 -1.658001780509948730e+00 1.397287845611572266e-01 -4.554818868637084961e-01 7.372118234634399414e-01
9.600000000000000000e+02 1.236640548706054688e+01 -2.991938114166259766e+00 -2.930168509483337402e-01 1.189836040139198303e-01 -5.220997333526611328e-02 2.811003029346466064e-01
9.610000000000000000e+02 1.307680320739746094e+01 -3.078236103057861328e+00 -1.831506341695785522e-01 7.613506913185119629e-02 -3.210466727614402771e-02 3.588354885578155518e-01
9.620000000000000000e+02 5.756482601165771484e+00 -1.871779084205627441e+00 -4.080753922462463379e-01 2.125919051468372345e-02 -1.160448640584945679e-01 -2.325345873832702637e-01
9.630000000000000000e+02 8.826078414916992188e+00 -2.613459587097167969e+00 -5.056417584419250488e-01 1.638227701187133789e-01 -1.025457084178924561e-01 -9.353086352348327637e-02
9.640000000000000000e+02 6.631990909576416016e+00 -2.600501298904418945e+00 -4.044599235057830811e-01 7.627376914024353027e-02 -9.845584630966186523e-02 -2.527606785297393799e-01
9.650000000000000000e+02 8.098510742187500000e+00 -2.595284938812255859e+00 -4.833956658840179443e-01 1.415008157491683960e-01 -1.025684550404548645e-01 -1.527610123157501221e-01
9.660000000000000000e+02 7.366612434387207031e+00 -2.593899726867675781e+00 -4.487910270690917969e-01 1.089639812707901001e-01 -1.019481122493743896e-01 -2.076001018285751343e-01
9.670000000000000000e+02 5.158678531646728516e+00 -2.642508983612060547e+00 -3.038542866706848145e-01 1.041372772306203842e-02 -8.803217113018035889e-02 -2.997682690620422363e-01
9.680000000000000000e+02 2.729972600936889648e+00 -1.971720814704895020e+00 -1.445770263671875000e-01 -6.321024894714355469e-02 -6.233618035912513733e-02 -1.940767914056777954e-01
9.690000000000000000e+02 1.607585787773132324e+00 -8.115648269653320312e+00 -3.832274582237005234e-03 -8.170860409736633301e-01 -2.462754994630813599e-01 -3.153839409351348877e-01
9.700000000000000000e+02 3.502941131591796875e+00 -4.157224178314208984e+00 -1.283064484596252441e-01 -1.321341544389724731e-01 -7.813218235969543457e-02 -3.635764122009277344e-01
9.710000000000000000e+02 1.627352595329284668e+00 -6.786411285400390625e+00 -9.702797979116439819e-03 -6.218426823616027832e-01 -1.894636452198028564e-01 -3.018217086791992188e-01
9.720000000000000000e+02 5.416271090507507324e-01 -3.627977609634399414e+00 -1.985791884362697601e-02 -2.548027932643890381e-01 -8.239821344614028931e-02 -8.222928643226623535e-02
9.730000000000000000e+02 5.956873893737792969e-01 -5.104229450225830078e+00 -3.251389833167195320e-03 -4.677483737468719482e-01 -1.412999331951141357e-01 -1.092814356088638306e-01
9.740000000000000000e+02 9.422052383422851562e+00 3.286714553833007812e+00 -7.364606857299804688e-01 -3.798715174198150635e-01 -3.348996639251708984e-01 1.220420718193054199e+00
9.750000000000000000e+02 1.002296352386474609e+01 2.533699035644531250e+00 -1.367350459098815918e+00 -4.089320003986358643e-01 -5.328847169876098633e-01 1.212901473045349121e+00
9.760000000000000000e+02 8.446987152099609375e+00 2.588648796081542969e+00 -1.208767294883728027e+00 -3.228292465209960938e-01 -4.594789743423461914e-01 1.187304496765136719e+00
9.770000000000000000e+02 7.664941787719726562e+00 2.604591608047485352e+00 -1.120940208435058594e+00 -2.539637386798858643e-01 -4.124711751937866211e-01 1.131947040557861328e+00
9.780000000000000000e+02 6.890130519866943359e+00 2.622031688690185547e+00 -9.747545719146728516e-01 -2.233002483844757080e-01 -3.594164550304412842e-01 1.035759568214416504e+00
9.790000000000000000e+02 6.128419399261474609e+00 2.648265361785888672e+00 -8.311087489128112793e-01 -2.098598033189773560e-01 -3.122905790805816650e-01 9.595428705215454102e-01
9.800000000000000000e+02 1.491262197494506836e+00 7.921526432037353516e+00 4.936141148209571838e-02 -1.446776270866394043e+00 -4.192244410514831543e-01 3.689773082733154297e-01
9.810000000000000000e+02 4.133166790008544922e+00 3.693866014480590820e+00 -2.959601283073425293e-01 -3.719489276409149170e-01 -2.003727257251739502e-01 8.323171138763427734e-01
9.820000000000000000e+02 1.367498755455017090e+00 3.356832742691040039e+00 -6.363072991371154785e-02 -4.399093389511108398e-01 -1.510620266199111938e-01 3.186801671981811523e-01
9.830000000000000000e+02 2.804093360900878906e+00 2.021139621734619141e+00 -3.119941055774688721e-01 -1.683367043733596802e-01 -1.440992355346679688e-01 4.030119776725769043e-01
9.840000000000000000e+02 1.964808702468872070e+00 4.153566837310791016e+00 -7.977411895990371704e-02 -5.650250315666198730e-01 -1.934397518634796143e-01 4.956415295600891113e-01
9.850000000000000000e+02 1.163134288787841797e+01 2.375059604644775391e+00 -1.541592597961425781e+00 -3.229490816593170166e-01 -5.593625307083129883e-01 1.078329920768737793e+00
9.860000000000000000e+02 1.319620323181152344e+01 2.105102777481079102e+00 -1.660753726959228516e+00 -5.495938286185264587e-02 -5.147139430046081543e-01 9.040414690971374512e-01
9.870000000000000000e+02 1.241636085510253906e+01 2.249860048294067383e+00 -1.571791052818298340e+00 -2.138550281524658203e-01 -5.356938242912292480e-01 1.002254843711853027e+00
9.880000000000000000e+02 9.229960441589355469e+00 2.567773103713989258e+00 -1.309886336326599121e+00 -3.623602390289306641e-01 -5.016739368438720703e-01 1.212414026260375977e+00
9.890000000000000000e+02 6.782653045654296875e+01 -2.432611465454101562e+01 -2.007263302803039551e-01 7.308989524841308594e+00 2.132478952407836914e+00 1.683557510375976562e+00
9.900000000000000000e+02 1.959437179565429688e+01 -1.338403797149658203e+01 -2.619341611862182617e+00 -3.738341927528381348e-01 -8.979527354240417480e-01 1.278471231460571289e+00
9.910000000000000000e+02 1.560560512542724609e+01 -1.139815521240234375e+01 4.873369634151458740e-02 1.025701284408569336e+00 3.223305046558380127e-01 2.275318384170532227e+00
9.920000000000000000e+02 3.704910278320312500e+01 -1.981123352050781250e+01 1.619364976882934570e+00 9.915412902832031250e+00 3.460433244705200195e+00 -1.214119195938110352e+00
9.930000000000000000e+02 5.403456497192382812e+01 1.484213322401046753e-01 2.412112951278686523e+00 2.694778442382812500e-01 8.044772148132324219e-01 4.916590452194213867e-01
9.940000000000000000e+02 5.229064178466796875e+01 -3.355009841918945312e+01 -2.518034577369689941e-01 2.268646001815795898e+00 6.050527095794677734e-01 -1.631255269050598145e+00
9.950000000000000000e+02 5.071550750732421875e+01 -2.852722930908203125e+01 9.687500596046447754e-01 2.387343883514404297e+00 1.006828188896179199e+00 -1.800744652748107910e+00
9.960000000000000000e+02 5.552746200561523438e+01 -2.976396560668945312e+01 -2.295476675033569336e+00 5.300691351294517517e-03 -6.870527863502502441e-01 -2.196002751588821411e-01
9.970000000000000000e+02 5.969149398803710938e+01 -2.917563819885253906e+01 -2.544766902923583984e+00 -3.363345265388488770e-01 -8.643304109573364258e-01 -7.367060780525207520e-01
9.980000000000000000e+02 6.187668609619140625e+01 -8.840020179748535156e+00 5.609475076198577881e-02 6.801669001579284668e-01 2.208784967660903931e-01 -3.931936919689178467e-01
9.990000000000000000e+02 6.385574340820312500e+01 -1.155310153961181641e+01 -4.156244695186614990e-01 4.615020751953125000e-01 1.376327872276306152e-02 -4.953320026397705078e-01
1.000000000000000000e+03 4.649063491821289062e+01 -2.502798652648925781e+01 1.766706705093383789e+00 8.760224342346191406e+00 3.158079147338867188e+00 -2.342891693115234375e+00
1.001000000000000000e+03 4.630776596069335938e+01 -2.673598861694335938e+01 8.326513767242431641e-01 7.403943061828613281e+00 2.470978260040283203e+00 -1.816660523414611816e+00
1.002000000000000000e+03 7.113894653320312500e+01 -1.346435546875000000e+01 5.440350770950317383e-01 9.088922500610351562e+00 2.889887332916259766e+00 5.311676859855651855e-01
1.003000000000000000e+03 6.831601715087890625e+01 -1.712664413452148438e+01 1.108228683471679688e+00 1.643718528747558594e+01 5.263624191284179688e+00 -1.388595819473266602e+00
1.004000000000000000e+03 6.878294372558593750e+01 -1.415272140502929688e+01 1.023501396179199219e+00 1.052706050872802734e+01 3.465168476104736328e+00 -9.979604482650756836e-01
1.005000000000000000e+03 6.318111801147460938e+01 -2.673061180114746094e+01 -3.573876321315765381e-01 7.407386302947998047e-01 1.150052919983863831e-01 2.721315026283264160e-01
1.006000000000000000e+03 4.616652679443359375e+01 -1.276794338226318359e+01 1.190561175346374512e+00 1.026145172119140625e+01 3.435603857040405273e+00 2.016362190246582031e+00
1.007000000000000000e+03 5.709183502197265625e+01 -8.063888549804687500e+00 -8.336129784584045410e-01 -2.935046330094337463e-02 -2.588890194892883301e-01 1.855096817016601562e-01
1.008000000000000000e+03 4.536981201171875000e+01 -2.099075317382812500e+01 1.498872637748718262e+00 1.232009315490722656e+01 4.145689487457275391e+00 -1.007887125015258789e+00
1.009000000000000000e+03 9.978350639343261719e+00 -2.216916275024414062e+01 2.262498140335083008e-01 2.974435091018676758e+00 9.602054953575134277e-01 3.989293873310089111e-01
1.010000000000000000e+03 7.149360656738281250e+01 -1.996710014343261719e+01 1.861118912696838379e+00 9.823123931884765625e+00 3.505272865295410156e+00 -5.038779973983764648e-01
1.011000000000000000e+03 5.736118698120117188e+01 3.259167671203613281e-01 1.603098750114440918e+00 2.510328292846679688e-01 5.562394857406616211e-01 4.008359611034393311e-01
1.012000000000000000e+03 3.513864135742187500e+01 -2.626055526733398438e+01 2.248829364776611328e+00 8.153065681457519531e+00 3.120568513870239258e+00 3.668638229370117188e+00
1.013000000000000000e+03 4.096577835083007812e+01 -2.461216545104980469e+01 1.835275888442993164e+00 8.420431137084960938e+00 3.076711893081665039e+00 2.256373614072799683e-01
1.014000000000000000e+03 6.095922088623046875e+01 -8.309118270874023438e+00 -2.097637392580509186e-02 5.952911376953125000e-01 1.722944229841232300e-01 -2.609594762325286865e-01
1.015000000000000000e+03 4.655708694458007812e+01 -1.586572360992431641e+01 6.415529847145080566e-01 1.343840217590332031e+01 4.223986625671386719e+00 1.986597895622253418e+00
1.016000000000000000e+03 4.881547927856445312e+01 -9.007995605468750000e+00 -4.209841191768646240e-01 4.998109817504882812e+00 1.373137712478637695e+00 1.630508422851562500e+00
1.017000000000000000e+03 5.074231719970703125e+01 -8.797849655151367188e+00 -5.991585254669189453e-01 9.728115797042846680e-01 1.120959222316741943e-01 3.210956454277038574e-01
1.018000000000000000e+03 6.945530700683593750e+01 -2.025128746032714844e+01 2.405107498168945312e+00 1.204373168945312500e+01 4.334651947021484375e+00 7.498906850814819336e-01
1.019000000000000000e+03 6.827036285400390625e+01 -1.998015785217285156e+01 1.594270825386047363e+00 1.722592926025390625e+01 5.646060466766357422e+00 1.858996629714965820e+00
1.020000000000000000e+03 4.780559921264648438e+01 -1.015375137329101562e+01 2.654857374727725983e-02 7.300403594970703125e+00 2.198085546493530273e+00 1.892172455787658691e+00
1.021000000000000000e+03 4.359883880615234375e+01 -1.370084381103515625e+01 1.056586623191833496e+00 9.346953392028808594e+00 3.121062040328979492e+00 9.747533202171325684e-01
1.022000000000000000e+03 5.569063568115234375e+01 -3.124890708923339844e+01 -9.122591614723205566e-01 9.756795316934585571e-02 -2.444073557853698730e-01 -7.498853206634521484e-01
1.023000000000000000e+03 5.869829177856445312e+01 -3.116239738464355469e+01 -1.144743561744689941e+00 -7.928463816642761230e-02 -3.672084808349609375e-01 -1.157214194536209106e-01
1.024000000000000000e+03 6.164452362060546875e+01 -2.987875366210937500e+01 -1.236889481544494629e+00 1.022072434425354004e+00 -6.444513052701950073e-02 3.698799610137939453e-01
1.025000000000000000e+03 5.306681823730468750e+01 -3.148851394653320312e+01 -4.249320924282073975e-01 1.533330798149108887e+00 3.325196206569671631e-01 -1.656812906265258789e+00
1.026000000000000000e+03 1.268171215057373047e+01 -1.415671443939208984e+01 2.237638235092163086e+00 4.336397647857666016e+00 1.972210764884948730e+00 2.406746387481689453e+00
1.027000000000000000e+03 1.036413764953613281e+01 -1.425391769409179688e+01 1.267726540565490723e+00 3.334399223327636719e+00 1.380637764930725098e+00 5.337787270545959473e-01
1.028000000000000000e+03 6.661996459960937500e+01 -1.189919662475585938e+01 7.064145803451538086e-01 5.328927040100097656e+00 1.810602545738220215e+00 -2.137217760086059570e+00
1.029000000000000000e+03 4.494794845581054688e+01 -1.803916931152343750e+01 9.322441220283508301e-01 1.203304767608642578e+01 3.889587640762329102e+00 5.010437965393066406e-01
1.030000000000000000e+03 4.457364273071289062e+01 -1.917405891418457031e+01 1.326597809791564941e+00 1.114536190032958984e+01 3.741587877273559570e+00 -1.438492834568023682e-01
1.031000000000000000e+03 5.994009017944335938e+01 -1.081295585632324219e+01 -1.133179068565368652e+00 -1.748055778443813324e-02 -3.451978862285614014e-01 3.502271175384521484e-01
1.032000000000000000e+03 5.929003524780273438e+01 -9.089891433715820312e+00 -5.934053659439086914e-01 1.257328838109970093e-01 -1.403017491102218628e-01 1.961283683776855469e-01
1.033000000000000000e+03 6.637091064453125000e+01 -2.373478126525878906e+01 1.089044928550720215e+00 4.560602664947509766e+00 1.694894313812255859e+00 2.310311555862426758e+00
1.034000000000000000e+03 5.818320083618164062e+01 -8.633873939514160156e+00 -6.736313104629516602e-01 4.597096890211105347e-02 -1.882981061935424805e-01 2.721214294433593750e-01
1.035000000000000000e+03 3.614023590087890625e+01 -2.736827468872070312e+01 1.111724734306335449e+00 7.814843654632568359e+00 2.677970409393310547e+00 1.735064744949340820e+00
1.036000000000000000e+03 6.152439117431640625e+01 -9.923612594604492188e+00 -4.352240562438964844e-01 3.622737824916839600e-01 -2.188508957624435425e-02 -6.828029453754425049e-02
1.037000000000000000e+03 6.291968154907226562e+01 -2.895892906188964844e+01 -9.767169952392578125e-01 1.547962307929992676e+00 1.713736057281494141e-01 5.396741032600402832e-01
1.038000000000000000e+03 6.637753295898437500e+01 -2.628245162963867188e+01 -3.882095217704772949e-01 4.806381225585937500e+00 1.325451493263244629e+00 1.281425356864929199e+00
1.039000000000000000e+03 5.715365600585937500e+01 -3.128084754943847656e+01 -1.109050512313842773e+00 -9.944248944520950317e-02 -3.625478744506835938e-01 -5.166441202163696289e-01
1.040000000000000000e+03 4.581536865234375000e+01 -1.420082378387451172e+01 1.309542894363403320e+00 1.123160552978515625e+01 3.762344598770141602e+00 2.062032461166381836e+00
1.041000000000000000e+03 4.552576828002929688e+01 -1.554147720336914062e+01 1.209243416786193848e+00 1.169358634948730469e+01 3.870849132537841797e+00 1.650776028633117676e+00
1.042000000000000000e+03 4.404428482055664062e+01 -2.026718711853027344e+01 1.811527252197265625e+00 1.060113430023193359e+01 3.723798513412475586e+00 -2.469686865806579590e-01
1.043000000000000000e+03 4.525302886962890625e+01 -1.682036972045898438e+01 9.328526258468627930e-01 1.178803253173828125e+01 3.816265583038330078e+00 1.343110680580139160e+00
1.044000000000000000e+03 4.793516921997070312e+01 -2.712660026550292969e+01 1.177726507186889648e+00 5.688160896301269531e+00 2.059766292572021484e+00 -2.673062086105346680e+00
1.045000000000000000e+03 4.849686813354492188e+01 -2.830184936523437500e+01 6.433515548706054688e-01 4.859524250030517578e+00 1.650862812995910645e+00 -2.119206428527832031e+00
1.046000000000000000e+03 1.186640834808349609e+01 -1.245542812347412109e+01 7.230949997901916504e-01 3.363865613937377930e+00 1.226088166236877441e+00 1.014392137527465820e+00
1.047000000000000000e+03 6.406386566162109375e+01 -2.802229118347167969e+01 -6.805580854415893555e-01 2.299126386642456055e+00 4.855705201625823975e-01 7.768216729164123535e-01
1.048000000000000000e+03 6.780947875976562500e+01 -2.585605239868164062e+01 -5.466639399528503418e-01 6.459313869476318359e+00 1.773795008659362793e+00 1.126112699508666992e+00
1.049000000000000000e+03 6.965972137451171875e+01 -1.868623542785644531e+01 1.564045667648315430e+00 1.334829998016357422e+01 4.473703384399414062e+00 1.434957534074783325e-01
1.050000000000000000e+03 1.888237190246582031e+01 -3.050496101379394531e+01 -7.553118467330932617e-01 1.694099009037017822e-01 -1.757705807685852051e-01 -3.582849726080894470e-02
1.051000000000000000e+03 2.229324150085449219e+01 -3.022535896301269531e+01 -1.393997311592102051e+00 -1.045281067490577698e-01 -4.495576322078704834e-01 2.423648536205291748e-01
1.052000000000000000e+03 2.496192932128906250e+01 -3.305766677856445312e+01 -6.161386966705322266e-01 9.390686452388763428e-02 -1.566695570945739746e-01 1.290660053491592407e-01
1.053000000000000000e+03 2.336727714538574219e+01 -1.440634536743164062e+01 -3.087161540985107422e+00 3.333589760586619377e-03 -9.251484274864196777e-01 3.224317431449890137e-01
1.054000000000000000e+03 1.440945529937744141e+01 -1.152035045623779297e+01 1.852506995201110840e-01 2.228308916091918945e+00 7.240678668022155762e-01 1.859956979751586914e+00
1.055000000000000000e+03 1.326998233795166016e+01 -1.148603725433349609e+01 3.710651993751525879e-01 2.529561042785644531e+00 8.701878786087036133e-01 1.423377871513366699e+00
1.056000000000000000e+03 3.093649291992187500e+01 -2.992237854003906250e+01 2.668216526508331299e-01 7.723782062530517578e-01 3.117599487304687500e-01 8.303495049476623535e-01
1.057000000000000000e+03 3.391239166259765625e+01 -3.163030624389648438e+01 -4.029952287673950195e-01 4.236507415771484375e+00 1.150053620338439941e+00 1.647978544235229492e+00
1.058000000000000000e+03 2.025876426696777344e+01 -3.123544883728027344e+01 -8.359578847885131836e-01 2.919314056634902954e-02 -2.420294284820556641e-01 -4.940164461731910706e-02
1.059000000000000000e+03 3.039552497863769531e+01 -3.211155700683593750e+01 -2.533182203769683838e-01 1.315142512321472168e+00 3.185472786426544189e-01 1.154205918312072754e+00
1.060000000000000000e+03 1.101853561401367188e+01 -2.153330230712890625e+01 4.442661702632904053e-01 3.683466434478759766e+00 1.238319754600524902e+00 -1.116727814078330994e-01
1.061000000000000000e+03 3.663628005981445312e+01 -1.849834442138671875e+01 2.404951095581054688e+00 9.105785369873046875e+00 3.453221082687377930e+00 -1.399673819541931152e+00
1.062000000000000000e+03 2.781616401672363281e+01 -3.940202474594116211e+00 4.388927459716796875e+00 2.787101745605468750e+00 2.152808666229248047e+00 -3.335150718688964844e+00
1.063000000000000000e+03 1.032728767395019531e+01 -1.841353034973144531e+01 7.913742065429687500e-01 4.430696487426757812e+00 1.566621303558349609e+00 6.067196726799011230e-01
1.064000000000000000e+03 1.836510848999023438e+01 -1.273008728027343750e+01 -2.712818384170532227e+00 -7.815090417861938477e-01 -1.048298239707946777e+00 1.387658834457397461e+00
1.065000000000000000e+03 3.411404037475585938e+01 -2.940104484558105469e+01 6.433298587799072266e-01 4.817073345184326172e+00 1.638120889663696289e+00 2.058914422988891602e+00
1.066000000000000000e+03 3.428536224365234375e+01 -2.734114074707031250e+01 2.542566061019897461e+00 5.723062515258789062e+00 2.479688644409179688e+00 3.322479724884033203e+00
1.067000000000000000e+03 3.610776901245117188e+01 -2.157514190673828125e+01 1.497556567192077637e-01 1.039980030059814453e+01 3.164866685867309570e+00 -5.077594891190528870e-02
1.068000000000000000e+03 3.517114257812500000e+01 -2.838709259033203125e+01 8.659026026725769043e-01 6.249788761138916016e+00 2.134707450866699219e+00 2.054234743118286133e+00
1.069000000000000000e+03 2.694087600708007812e+01 -3.319913864135742188e+01 -4.819338917732238770e-01 3.154546618461608887e-01 -4.994376376271247864e-02 4.609576761722564697e-01
1.070000000000000000e+03 1.529020881652832031e+01 -2.768028068542480469e+01 -3.309848010540008545e-01 7.265096306800842285e-01 1.186574399471282959e-01 -1.787262707948684692e-01
1.071000000000000000e+03 1.639290428161621094e+01 -2.868933296203613281e+01 -4.769689738750457764e-01 5.144291520118713379e-01 1.123805250972509384e-02 -8.902817219495773315e-02
1.072000000000000000e+03 1.758856773376464844e+01 -2.965435791015625000e+01 -6.248679757118225098e-01 3.001922070980072021e-01 -9.740272164344787598e-02 -8.132446557283401489e-02
1.073000000000000000e+03 1.895884513854980469e+01 -1.180692100524902344e+01 -1.454245686531066895e+00 -2.893735468387603760e-01 -5.230857729911804199e-01 1.083621025085449219e+00
1.074000000000000000e+03 2.591892433166503906e+01 -1.346322822570800781e+01 -1.686483144760131836e+00 3.272635936737060547e-01 -4.077658653259277344e-01 -4.041716158390045166e-01
1.075000000000000000e+03 2.470720672607421875e+01 -1.344928455352783203e+01 -2.002572774887084961e+00 2.028878629207611084e-01 -5.399054288864135742e-01 -1.030849441885948181e-01
1.076000000000000000e+03 3.201411819458007812e+01 -1.364752674102783203e+01 1.287995696067810059e+00 1.699724793434143066e+00 8.963161706924438477e-01 -2.212344408035278320e+00
1.077000000000000000e+03 1.048028278350830078e+01 -2.002014923095703125e+01 5.271224975585937500e-01 4.139924049377441406e+00 1.400113940238952637e+00 2.022777646780014038e-01
1.078000000000000000e+03 2.820169448852539062e+01 -3.080316734313964844e+01 -1.115109562873840332e+00 7.961196452379226685e-02 -3.106492757797241211e-01 1.962613165378570557e-01
1.079000000000000000e+03 2.885266113281250000e+01 -3.283724975585937500e+01 -3.622459769248962402e-01 7.633284330368041992e-01 1.203247383236885071e-01 8.372305035591125488e-01
1.080000000000000000e+03 1.524463462829589844e+01 -2.562642478942871094e+01 1.132672429084777832e-01 5.652222633361816406e-01 2.035468518733978271e-01 -3.364596068859100342e-01
1.081000000000000000e+03 3.736768341064453125e+01 -2.105232429504394531e+01 1.023688793182373047e+00 1.048290824890136719e+01 3.451979160308837891e+00 7.019048184156417847e-02
1.082000000000000000e+03 3.771237564086914062e+01 -2.222374343872070312e+01 1.523391604423522949e+00 9.534238815307617188e+00 3.317289113998413086e+00 8.119443655014038086e-01
1.083000000000000000e+03 1.425653266906738281e+01 -2.663284301757812500e+01 -2.050697952508926392e-01 1.073610782623291016e+00 2.605623006820678711e-01 -2.802962958812713623e-01
1.084000000000000000e+03 1.329088687896728516e+01 -2.549618339538574219e+01 -1.319940537214279175e-01 1.530437469482421875e+00 4.195330142974853516e-01 -4.165853857994079590e-01
1.085000000000000000e+03 2.596718406677246094e+01 2.463074874877929688e+01 -7.829799056053161621e-01 6.585784256458282471e-02 -2.151366174221038818e-01 2.609400153160095215e-01
1.086000000000000000e+03 2.348151016235351562e+01 2.193549156188964844e+01 -2.221421957015991211e+00 -1.023810580372810364e-01 -6.971409320831298828e-01 3.907899260520935059e-01
1.087000000000000000e+03 1.704117012023925781e+01 1.698623466491699219e+01 8.716439604759216309e-01 6.421208858489990234e+00 2.187855958938598633e+00 7.168353069573640823e-03
1.088000000000000000e+03 1.869213676452636719e+01 1.829753494262695312e+01 9.587448835372924805e-01 7.662034511566162109e+00 2.586233854293823242e+00 1.597218394279479980e+00
1.089000000000000000e+03 4.252011489868164062e+01 -1.509708523750305176e+00 1.611260056495666504e+00 1.206243324279785156e+01 4.102108001708984375e+00 2.166097640991210938e+00
1.090000000000000000e+03 3.224976730346679688e+01 -6.401953697204589844e+00 1.822829961776733398e+00 2.025719583034515381e-01 6.076205968856811523e-01 -2.006573677062988281e+00
1.091000000000000000e+03 2.764818191528320312e+01 2.098792266845703125e+01 -2.225666046142578125e+00 -1.222812086343765259e-01 -7.043841481208801270e-01 5.043261647224426270e-01
1.092000000000000000e+03 2.674439430236816406e+01 2.271138572692871094e+01 -1.525020122528076172e+00 -5.494009703397750854e-02 -4.739880561828613281e-01 2.502879500389099121e-01
1.093000000000000000e+03 2.533164978027343750e+01 2.318211174011230469e+01 -1.450315237045288086e+00 -7.065411657094955444e-02 -4.562908113002777100e-01 2.835523188114166260e-01
1.094000000000000000e+03 4.887478637695312500e+01 1.080370903015136719e+01 7.032012939453125000e-01 1.248112106323242188e+01 3.955296754837036133e+00 2.735772848129272461e+00
1.095000000000000000e+03 4.735210800170898438e+01 9.714146614074707031e+00 9.344690442085266113e-01 1.196180629730224609e+01 3.868882656097412109e+00 2.143633604049682617e+00
1.096000000000000000e+03 3.777850341796875000e+01 -5.390248775482177734e+00 9.266526997089385986e-02 2.295428276062011719e+00 7.164280414581298828e-01 1.483083128929138184e+00
1.097000000000000000e+03 3.167779350280761719e+01 2.276276779174804688e+01 -9.125967025756835938e-01 4.530099034309387207e-01 -1.378760337829589844e-01 -3.019072413444519043e-01
1.098000000000000000e+03 1.854067420959472656e+01 2.276423835754394531e+01 -1.014264822006225586e+00 3.594845294952392578e+00 7.741740942001342773e-01 6.527938246726989746e-01
1.099000000000000000e+03 1.823603439331054688e+01 2.131240653991699219e+01 -8.244579434394836426e-01 4.451490879058837891e+00 1.088109850883483887e+00 3.174660205841064453e-01
1.100000000000000000e+03 3.753241729736328125e+01 -4.069621086120605469e+00 -1.057559251785278320e+00 5.354432463645935059e-01 -1.566347777843475342e-01 3.087427914142608643e-01
1.101000000000000000e+03 4.053065872192382812e+01 -5.012000083923339844e+00 -1.057032227516174316e+00 7.317129611968994141e+00 1.878029108047485352e+00 2.289533376693725586e+00
1.102000000000000000e+03 1.747637557983398438e+01 1.097066974639892578e+01 1.300503730773925781e+00 8.698791503906250000e+00 2.999788522720336914e+00 -2.090885400772094727e+00
1.103000000000000000e+03 1.884814834594726562e+01 9.837621688842773438e+00 1.089638471603393555e+00 1.171565628051757812e+01 3.841588497161865234e+00 -2.731272697448730469e+00
1.104000000000000000e+03 4.169437789916992188e+01 1.233487415313720703e+01 4.940837919712066650e-01 6.603924274444580078e+00 2.129402399063110352e+00 -1.564110994338989258e+00
1.105000000000000000e+03 1.820664596557617188e+01 8.175715446472167969e+00 2.245605468750000000e+00 9.426042556762695312e+00 3.501494407653808594e+00 -3.425543069839477539e+00
1.106000000000000000e+03 4.601830673217773438e+01 3.833839416503906250e+00 1.448745369911193848e+00 1.182032489776611328e+01 3.980720996856689453e+00 1.055132508277893066e+00
1.107000000000000000e+03 4.472377014160156250e+01 7.421493530273437500e+00 1.139733791351318359e+00 1.274582576751708984e+01 4.165668010711669922e+00 1.081720113754272461e+00
1.108000000000000000e+03 3.354961013793945312e+01 1.990900611877441406e+01 -8.296860456466674805e-01 4.203266203403472900e-01 -1.228078305721282959e-01 -1.267071366310119629e-01
1.109000000000000000e+03 3.619747543334960938e+01 -4.402812957763671875e+00 -1.648884534835815430e+00 1.603380292654037476e-01 -4.465639591217041016e-01 -3.472470045089721680e-01
1.110000000000000000e+03 3.909444427490234375e+01 -5.155431270599365234e+00 -5.013414621353149414e-01 4.844373226165771484e+00 1.302909612655639648e+00 2.407189369201660156e+00
1.111000000000000000e+03 1.729045486450195312e+01 1.240768146514892578e+01 8.684909343719482422e-01 8.272168159484863281e+00 2.742197513580322266e+00 -1.412675023078918457e+00
1.112000000000000000e+03 3.508884048461914062e+01 -5.990571498870849609e+00 1.561117321252822876e-01 3.934076130390167236e-01 1.648557931184768677e-01 -5.381564497947692871e-01
1.113000000000000000e+03 3.532653808593750000e+01 -7.238865852355957031e+00 9.286147952079772949e-01 1.224549174308776855e+00 6.459491848945617676e-01 -6.267587542533874512e-01
1.114000000000000000e+03 3.786555480957031250e+01 1.633620071411132812e+01 2.058062106370925903e-01 1.656820774078369141e+00 5.587881207466125488e-01 -8.578094840049743652e-01
1.115000000000000000e+03 2.413453292846679688e+01 4.374567568302154541e-01 -1.062228441238403320e+00 5.901344418525695801e-01 -1.416281908750534058e-01 8.480049371719360352e-01
1.116000000000000000e+03 2.519934272766113281e+01 -9.582170248031616211e-01 4.254696965217590332e-01 -1.537107944488525391e+00 -3.334914743900299072e-01 4.418576061725616455e-01
1.117000000000000000e+03 3.762548065185546875e+01 1.828932380676269531e+01 -1.265732496976852417e-01 1.932121992111206055e+00 5.416646003723144531e-01 -8.596917390823364258e-01
1.118000000000000000e+03 2.691566848754882812e+01 -2.941091537475585938e+00 2.998290538787841797e+00 1.660893440246582031e+00 1.397755265235900879e+00 -2.559911489486694336e+00
1.119000000000000000e+03 1.713769531250000000e+01 1.386849308013916016e+01 6.676993370056152344e-01 7.718111991882324219e+00 2.515743494033813477e+00 -8.966081738471984863e-01
1.120000000000000000e+03 3.368582534790039062e+01 -6.273148536682128906e+00 8.385347127914428711e-01 2.696480602025985718e-02 2.596498429775238037e-01 -1.279091596603393555e+00
1.121000000000000000e+03 2.814286994934082031e+01 2.233595275878906250e+01 -1.572256922721862793e+00 -3.529066219925880432e-02 -4.822642505168914795e-01 1.716947555541992188e-01
1.122000000000000000e+03 4.288102340698242188e+01 -1.944575756788253784e-01 2.205379724502563477e+00 1.391689205169677734e+01 4.836681365966796875e+00 2.799215078353881836e+00
1.123000000000000000e+03 1.695621109008789062e+01 1.539490795135498047e+01 6.745868325233459473e-01 7.139558315277099609e+00 2.344243526458740234e+00 -3.910973668098449707e-01
1.124000000000000000e+03 3.095907974243164062e+01 2.141474914550781250e+01 -1.263254046440124512e+00 6.961154192686080933e-02 -3.580927550792694092e-01 2.422395162284374237e-02
1.125000000000000000e+03 3.230387878417968750e+01 2.071260452270507812e+01 -1.095967292785644531e+00 2.486832886934280396e-01 -2.541851997375488281e-01 -6.144226714968681335e-02
1.126000000000000000e+03 4.255937194824218750e+01 1.131978321075439453e+01 3.101864457130432129e-01 9.093780517578125000e+00 2.821190118789672852e+00 -9.482338428497314453e-01
1.127000000000000000e+03 4.545861053466796875e+01 1.577879428863525391e+00 1.749199748039245605e+00 1.135639381408691406e+01 3.931678056716918945e+00 9.010576009750366211e-01
1.128000000000000000e+03 4.583109283447265625e+01 4.986400604248046875e+00 1.333812713623046875e+00 1.236687946319580078e+01 4.110207557678222656e+00 1.263744473457336426e+00
1.129000000000000000e+03 4.547106552124023438e+01 6.317506790161132812e+00 1.171555161476135254e+00 1.282422733306884766e+01 4.198734760284423828e+00 1.245541810989379883e+00
1.130000000000000000e+03 1.730257606506347656e+01 2.761715173721313477e+00 6.532898545265197754e-01 3.134588479995727539e+00 1.136363506317138672e+00 -1.500769734382629395e+00
1.131000000000000000e+03 1.818238639831542969e+01 9.606217741966247559e-01 -1.244140625000000000e+00 2.284889221191406250e+00 3.122245669364929199e-01 -1.670258283615112305e+00
1.132000000000000000e+03 3.470581436157226562e+01 1.904891967773437500e+01 -5.347549319267272949e-01 6.273909807205200195e-01 2.779081091284751892e-02 -2.414522022008895874e-01
1.133000000000000000e+03 3.684324264526367188e+01 1.725976943969726562e+01 -1.423189975321292877e-02 1.209962606430053711e+00 3.587192296981811523e-01 -6.122097373008728027e-01
1.134000000000000000e+03 5.131880187988281250e+01 -7.070547342300415039e-02 2.323846578598022461e+00 7.321903705596923828e-01 9.168110489845275879e-01 -5.766892433166503906e-01
1.135000000000000000e+03 4.999352264404296875e+01 -3.963558971881866455e-01 1.934689164161682129e+00 2.615249633789062500e+00 1.364981651306152344e+00 -9.329012036323547363e-01
1.136000000000000000e+03 7.737979888916015625e+01 -3.798064422607421875e+01 -8.213751018047332764e-02 8.430159568786621094e+00 2.504406452178955078e+00 7.053729146718978882e-02
1.137000000000000000e+03 7.935623168945312500e+01 -3.479821777343750000e+01 -5.191370844841003418e-02 9.046967506408691406e+00 2.698516130447387695e+00 -2.576266601681709290e-02
1.138000000000000000e+03 7.929866027832031250e+01 -2.784437179565429688e+01 -1.363732945173978806e-02 7.819164276123046875e+00 2.341658115386962891e+00 -2.416922450065612793e-01
1.139000000000000000e+03 7.764004516601562500e+01 3.221688842773437500e+01 -5.528612434864044189e-02 8.990650177001953125e+00 2.680609226226806641e+00 -6.464250385761260986e-02
1.140000000000000000e+03 7.932127380371093750e+01 3.623080062866210938e+01 2.344920858740806580e-02 9.360108375549316406e+00 2.815067291259765625e+00 -4.493205249309539795e-02
1.141000000000000000e+03 7.938218688964843750e+01 -2.086113166809082031e+01 4.028721153736114502e-02 5.240748405456542969e+00 1.584310770034790039e+00 -1.670650392770767212e-01
1.142000000000000000e+03 7.788842010498046875e+01 -2.777951049804687500e+01 -8.992307633161544800e-02 7.727824211120605469e+00 2.291370391845703125e+00 -6.059153079986572266e-01
1.143000000000000000e+03 7.798452758789062500e+01 -2.635157394409179688e+01 -5.549881607294082642e-02 7.413481712341308594e+00 2.207394838333129883e+00 -6.827708482742309570e-01
1.144000000000000000e+03 7.927133941650390625e+01 -3.065488815307617188e+01 -1.831652969121932983e-02 8.550042152404785156e+00 2.559517860412597656e+00 -1.610937118530273438e-01
1.145000000000000000e+03 7.789904022216796875e+01 -3.348894500732421875e+01 -9.915114939212799072e-02 8.465926170349121094e+00 2.510032415390014648e+00 -1.493529826402664185e-01
1.146000000000000000e+03 7.517733001708984375e+01 -3.777365875244140625e+01 -1.246681511402130127e-01 7.719300746917724609e+00 2.278389930725097656e+00 -2.047769427299499512e-01
1.147000000000000000e+03 7.648642730712890625e+01 -3.910847473144531250e+01 -5.037597194314002991e-02 8.373732566833496094e+00 2.497006893157958984e+00 5.470209289342164993e-03
1.148000000000000000e+03 7.811248779296875000e+01 1.410232925415039062e+01 1.867270171642303467e-01 6.599551677703857422e+00 2.035883665084838867e+00 3.303183987736701965e-02
1.149000000000000000e+03 7.935751342773437500e+01 1.539526939392089844e+01 9.858740866184234619e-02 5.993736267089843750e+00 1.827697038650512695e+00 7.812491059303283691e-02
1.150000000000000000e+03 7.813973999023437500e+01 2.095613670349121094e+01 -9.440287947654724121e-03 7.800843715667724609e+00 2.337421178817749023e+00 6.933237910270690918e-01
1.151000000000000000e+03 7.937398529052734375e+01 2.229422950744628906e+01 -9.147261269390583038e-03 8.141069412231445312e+00 2.439576387405395508e+00 2.605140507221221924e-01
1.152000000000000000e+03 7.761157989501953125e+01 3.073187828063964844e+01 -9.894182533025741577e-02 8.977610588073730469e+00 2.663600683212280273e+00 1.176292635500431061e-02
1.153000000000000000e+03 7.768796539306640625e+01 2.776898574829101562e+01 -1.585052907466888428e-01 8.947905540466308594e+00 2.636820077896118164e+00 2.319251745939254761e-01
1.154000000000000000e+03 7.923297119140625000e+01 2.784781837463378906e+01 -9.204188827425241470e-04 9.498531341552734375e+00 2.849283218383789062e+00 9.810888022184371948e-02
1.155000000000000000e+03 7.788988494873046875e+01 2.493048095703125000e+01 -1.329098492860794067e-01 8.687595367431640625e+00 2.566405773162841797e+00 4.720184206962585449e-01
1.156000000000000000e+03 7.803330230712890625e+01 2.358801651000976562e+01 -8.501844108104705811e-02 8.460505485534667969e+00 2.512645959854125977e+00 6.056743860244750977e-01
1.157000000000000000e+03 7.805091094970703125e+01 1.830928230285644531e+01 7.416915893554687500e-02 7.160916328430175781e+00 2.170525789260864258e+00 5.923039317131042480e-01
1.158000000000000000e+03 7.807844543457031250e+01 1.551165485382080078e+01 1.287997961044311523e-01 6.726740360260009766e+00 2.056662082672119141e+00 2.408687919378280640e-01
1.159000000000000000e+03 7.804016876220703125e+01 1.692436408996582031e+01 1.722158789634704590e-01 6.900163173675537109e+00 2.121713638305664062e+00 4.065338075160980225e-01
1.160000000000000000e+03 7.813160705566406250e+01 1.272210979461669922e+01 7.471408694982528687e-02 6.618651866912841797e+00 2.008009672164916992e+00 -1.369104534387588501e-01
1.161000000000000000e+03 7.689152526855468750e+01 1.150246334075927734e+01 1.949185580015182495e-01 7.153634071350097656e+00 2.204565763473510742e+00 -3.406135439872741699e-01
1.162000000000000000e+03 7.815023040771484375e+01 8.623154640197753906e+00 4.766571521759033203e-02 7.031535148620605469e+00 2.123760223388671875e+00 -3.908812403678894043e-01
1.163000000000000000e+03 7.938611602783203125e+01 9.837389945983886719e+00 4.769120365381240845e-02 6.438004970550537109e+00 1.945708751678466797e+00 -1.338285803794860840e-01
1.164000000000000000e+03 7.807090759277343750e+01 2.532591819763183594e-01 -7.147275656461715698e-02 7.975733757019042969e+00 2.371278285980224609e+00 -1.066602841019630432e-01
1.165000000000000000e+03 7.935260009765625000e+01 1.485896706581115723e+00 -2.269652858376502991e-02 8.170510292053222656e+00 2.444344282150268555e+00 -6.767453998327255249e-02
1.166000000000000000e+03 7.683895111083984375e+01 7.465106964111328125e+00 7.079497445374727249e-03 7.394033908843994141e+00 2.220334053039550781e+00 -5.333811044692993164e-01
1.167000000000000000e+03 7.937084197998046875e+01 -1.946878623962402344e+01 2.525155618786811829e-02 4.954521656036376953e+00 1.493931889533996582e+00 -9.328364580869674683e-02
1.168000000000000000e+03 7.936268615722656250e+01 -1.385085678100585938e+01 4.342936910688877106e-03 5.566370010375976562e+00 1.671213865280151367e+00 2.074662148952484131e-01
1.169000000000000000e+03 7.938899230957031250e+01 -6.872410297393798828e+00 -1.919001340866088867e-02 7.792523384094238281e+00 2.332000017166137695e+00 1.370462030172348022e-01
1.170000000000000000e+03 7.763893127441406250e+01 2.924889755249023438e+01 -9.205808490514755249e-02 8.972113609313964844e+00 2.664016485214233398e+00 9.373319149017333984e-02
1.171000000000000000e+03 7.663726043701171875e+01 3.848469543457031250e+01 -5.405166652053594589e-03 8.534567832946777344e+00 2.558748960494995117e+00 -1.868953704833984375e-01
1.172000000000000000e+03 7.816044616699218750e+01 1.000518226623535156e+01 3.136288747191429138e-02 6.839667320251464844e+00 2.061309099197387695e+00 -3.580813705921173096e-01
1.173000000000000000e+03 7.678591918945312500e+01 3.900871276855468750e-01 -1.584621667861938477e-01 7.734122753143310547e+00 2.272698163986206055e+00 -1.604410558938980103e-01
1.174000000000000000e+03 7.804408264160156250e+01 3.072700738906860352e+00 -5.472891777753829956e-02 7.778758049011230469e+00 2.317208766937255859e+00 -2.602866291999816895e-01
1.175000000000000000e+03 7.807889556884765625e+01 -1.148784160614013672e+00 -6.520728766918182373e-02 8.010559082031250000e+00 2.383605480194091797e+00 -2.472479641437530518e-02
1.176000000000000000e+03 7.936547851562500000e+01 -2.698944568634033203e+00 -7.429912220686674118e-03 8.323342323303222656e+00 2.494773864746093750e+00 2.944049425423145294e-02
1.177000000000000000e+03 7.821456146240234375e+01 -8.092470169067382812e+00 -7.032497227191925049e-02 7.454216480255126953e+00 2.215167522430419922e+00 4.306668937206268311e-01
1.178000000000000000e+03 7.813444519042968750e+01 -5.317032337188720703e+00 -8.270665258169174194e-02 7.837431907653808594e+00 2.326417684555053711e+00 2.542478144168853760e-01
1.179000000000000000e+03 7.940352630615234375e+01 -9.658032417297363281e+00 -7.683912757784128189e-03 7.023359775543212891e+00 2.104702711105346680e+00 2.003204375505447388e-01
1.180000000000000000e+03 7.802721405029296875e+01 -1.509995174407958984e+01 1.196675300598144531e-01 6.044257640838623047e+00 1.849177598953247070e+00 4.319965243339538574e-01
1.181000000000000000e+03 7.817865753173828125e+01 -1.226762199401855469e+01 4.610167350620031357e-03 6.548749923706054688e+00 1.966008067131042480e+00 5.941617488861083984e-01
1.182000000000000000e+03 7.933944702148437500e+01 -1.666290092468261719e+01 1.903336681425571442e-02 4.945455074310302734e+00 1.489346504211425781e+00 9.128449112176895142e-02
1.183000000000000000e+03 7.814951324462890625e+01 -2.079168319702148438e+01 1.292319595813751221e-01 6.012716770172119141e+00 1.842584609985351562e+00 -4.438532292842864990e-01
1.184000000000000000e+03 7.811758422851562500e+01 -1.940954589843750000e+01 1.875113844871520996e-01 5.840424537658691406e+00 1.808380722999572754e+00 -2.423055619001388550e-01
1.185000000000000000e+03 4.879375839233398438e+01 2.172558975219726562e+01 -1.901635974645614624e-01 6.526294708251953125e+00 1.900839447975158691e+00 8.593906164169311523e-01
1.186000000000000000e+03 5.119784164428710938e+01 1.874818038940429688e+01 2.052940130233764648e+00 8.213561058044433594e+00 3.079950332641601562e+00 3.592284679412841797e+00
1.187000000000000000e+03 4.920880508422851562e+01 9.216886162757873535e-01 1.458450317382812500e+00 4.315409183502197266e+00 1.732157945632934570e+00 -1.748841762542724609e+00
1.188000000000000000e+03 5.664500808715820312e+01 2.212066650390625000e+01 -1.867059230804443359e+00 2.964224517345428467e-01 -4.711910486221313477e-01 2.974371910095214844e-01
1.189000000000000000e+03 4.781298446655273438e+01 3.923633601516485214e-03 1.073078870773315430e+00 7.301326751708984375e+00 2.512321710586547852e+00 -8.575305938720703125e-01
1.190000000000000000e+03 4.393513107299804688e+01 4.931282997131347656e+00 9.534707665443420410e-01 1.485243988037109375e+01 4.741773128509521484e+00 1.017641901969909668e+00
1.191000000000000000e+03 6.987320709228515625e+01 2.050198745727539062e+01 -2.523126006126403809e-01 9.813514709472656250e+00 2.868360757827758789e+00 1.008161067962646484e+00
1.192000000000000000e+03 6.769499206542968750e+01 2.330200576782226562e+01 -2.190140962600708008e+00 5.826565265655517578e+00 1.090927362442016602e+00 -1.237369179725646973e+00
1.193000000000000000e+03 6.840751647949218750e+01 1.681402015686035156e+01 -2.136074602603912354e-01 1.384293937683105469e+01 4.088799476623535156e+00 3.089261054992675781e-01
1.194000000000000000e+03 7.071194458007812500e+01 1.511525917053222656e+01 1.383423447608947754e+00 1.094940471649169922e+01 3.699848413467407227e+00 6.032397747039794922e-01
1.195000000000000000e+03 4.927540969848632812e+01 1.766084480285644531e+01 1.342962503433227539e+00 8.490426063537597656e+00 2.950016498565673828e+00 2.332652091979980469e+00
1.196000000000000000e+03 5.859354019165039062e+01 1.139509439468383789e+00 1.262291550636291504e+00 3.701974153518676758e-01 4.897466897964477539e-01 4.568459093570709229e-01
1.197000000000000000e+03 6.710607910156250000e+01 8.528470039367675781e+00 6.750022172927856445e-01 7.153693199157714844e+00 2.348608493804931641e+00 2.134720325469970703e+00
1.198000000000000000e+03 6.938774108886718750e+01 1.404060935974121094e+01 1.656322121620178223e+00 1.195106315612792969e+01 4.082215785980224609e+00 1.210847616195678711e+00
1.199000000000000000e+03 6.370116424560546875e+01 2.514874839782714844e+01 -1.148038387298583984e+00 1.182003974914550781e+00 1.018968876451253891e-02 -8.336526751518249512e-01
1.200000000000000000e+03 6.237718963623046875e+01 2.242946624755859375e+01 -4.683828830718994141e+00 -1.755961626768112183e-01 -1.457827568054199219e+00 6.212986707687377930e-01
1.201000000000000000e+03 6.005013275146484375e+01 4.011314392089843750e+00 4.532622694969177246e-01 4.407193660736083984e-01 2.681944966316223145e-01 4.294201135635375977e-01
1.202000000000000000e+03 5.499785232543945312e+01 -1.472316145896911621e+00 1.916598677635192871e+00 2.157294899225234985e-01 6.396984457969665527e-01 2.511436939239501953e-01
1.203000000000000000e+03 5.606184387207031250e+01 -4.433684647083282471e-01 1.850538372993469238e+00 1.989420205354690552e-01 6.148441433906555176e-01 2.986410260200500488e-01
1.204000000000000000e+03 5.021832275390625000e+01 -6.127500057220458984e+00 -6.491573154926300049e-02 2.963089227676391602e+00 8.694519996643066406e-01 9.247823357582092285e-01
1.205000000000000000e+03 5.385893630981445312e+01 -6.218502044677734375e+00 5.906197428703308105e-02 -2.151175737380981445e-01 -4.681668058037757874e-02 2.777388086542487144e-03
1.206000000000000000e+03 5.782790756225585938e+01 2.390859794616699219e+01 -1.811284184455871582e+00 5.193732380867004395e-01 -3.875733017921447754e-01 1.063534259796142578e+00
1.207000000000000000e+03 6.234059524536132812e+01 2.381231689453125000e+01 -2.587620258331298828e+00 1.521903369575738907e-02 -7.717203497886657715e-01 7.880804128944873810e-03
1.208000000000000000e+03 5.628108215332031250e+01 2.373945999145507812e+01 -1.166375875473022461e+00 1.193387150764465332e+00 8.103388361632823944e-03 1.479679226875305176e+00
1.209000000000000000e+03 4.779854965209960938e+01 1.111582374572753906e+01 7.588988542556762695e-01 1.176313304901123047e+01 3.756609439849853516e+00 2.497624874114990234e+00
1.210000000000000000e+03 5.476169967651367188e+01 2.341024208068847656e+01 -6.842663884162902832e-01 2.173873424530029297e+00 4.468821287155151367e-01 2.083261489868164062e+00
1.211000000000000000e+03 6.401496124267578125e+01 5.783592224121093750e+00 7.008133530616760254e-01 2.584297418594360352e+00 9.855331778526306152e-01 1.432039856910705566e+00
1.212000000000000000e+03 6.913537597656250000e+01 9.983377456665039062e+00 8.341165184974670410e-01 8.652051925659179688e+00 2.845850467681884766e+00 8.923841714859008789e-01
1.213000000000000000e+03 5.937311553955078125e+01 2.397487068176269531e+01 -2.231626033782958984e+00 4.818608239293098450e-02 -6.550320386886596680e-01 7.815216779708862305e-01
1.214000000000000000e+03 4.922357177734375000e+01 2.023038101196289062e+01 2.909815013408660889e-01 7.221125602722167969e+00 2.253632068634033203e+00 1.262812376022338867e+00
1.215000000000000000e+03 4.936777114868164062e+01 1.890315246582031250e+01 9.690762758255004883e-01 7.703308105468750000e+00 2.601715326309204102e+00 1.638486027717590332e+00
1.216000000000000000e+03 6.505980682373046875e+01 6.714494705200195312e+00 7.383102774620056152e-01 3.783203363418579102e+00 1.356454133987426758e+00 1.803933024406433105e+00
1.217000000000000000e+03 4.882479095458984375e+01 1.510095214843750000e+01 1.073210835456848145e+00 1.042316818237304688e+01 3.448913574218750000e+00 2.643111467361450195e+00
1.218000000000000000e+03 6.886573028564453125e+01 8.131062507629394531e+00 2.541540563106536865e-01 7.722417354583740234e+00 2.392971277236938477e+00 9.037999510765075684e-01
1.219000000000000000e+03 4.907152938842773438e+01 1.638760757446289062e+01 1.199969649314880371e+00 9.468257904052734375e+00 3.200468301773071289e+00 2.663892269134521484e+00
1.220000000000000000e+03 6.081679916381835938e+01 2.994007110595703125e+00 7.490851283073425293e-01 9.278192520141601562e-01 5.030713081359863281e-01 6.646246314048767090e-01
1.221000000000000000e+03 6.609311676025390625e+01 7.636666774749755859e+00 7.508406043052673340e-01 5.087293624877929688e+00 1.751440167427062988e+00 2.065858840942382812e+00
1.222000000000000000e+03 4.820680999755859375e+01 1.246837806701660156e+01 1.083806157112121582e+00 1.135889816284179688e+01 3.732811212539672852e+00 2.622406482696533203e+00
1.223000000000000000e+03 5.930564117431640625e+01 2.319487743079662323e-02 1.342416167259216309e+00 5.403460264205932617e-01 5.648286938667297363e-01 3.195428550243377686e-01
1.224000000000000000e+03 6.950825500488281250e+01 1.531070423126220703e+01 1.073747754096984863e+00 1.211640071868896484e+01 3.957044601440429688e+00 1.174338817596435547e+00
1.225000000000000000e+03 1.251404523849487305e+00 -4.008884429931640625e+01 -1.866076514124870300e-02 1.187149167060852051e+00 3.505465090274810791e-01 -2.108995104208588600e-03
1.226000000000000000e+03 7.498759627342224121e-01 3.737796020507812500e+01 -4.090766888111829758e-03 1.280963420867919922e+00 3.830617964267730713e-01 -2.923270128667354584e-02
1.227000000000000000e+03 6.802749633789062500e-01 3.460217666625976562e+01 -6.219660863280296326e-03 1.128886818885803223e+00 3.368001282215118408e-01 -4.932727292180061340e-02
1.228000000000000000e+03 6.774278283119201660e-01 3.320415496826171875e+01 -6.092039868235588074e-03 1.014890313148498535e+00 3.026394844055175781e-01 -6.222025677561759949e-02
1.229000000000000000e+03 6.422120928764343262e-01 2.758195304870605469e+01 -3.518760437145829201e-03 2.304317057132720947e-01 6.807388365268707275e-02 -1.234858036041259766e-01
1.230000000000000000e+03 6.346043944358825684e-01 2.615454483032226562e+01 -5.460641346871852875e-03 -5.208459123969078064e-02 -1.726357080042362213e-02 -1.331455111503601074e-01
1.231000000000000000e+03 6.048942804336547852e-01 -3.605006408691406250e+01 6.395649164915084839e-03 1.128332138061523438e+00 3.404183387756347656e-01 1.472724694758653641e-02
1.232000000000000000e+03 2.396530151367187500e+00 -3.341198348999023438e+01 -5.638482049107551575e-02 8.958030343055725098e-01 2.518254816532135010e-01 1.916840523481369019e-01
1.233000000000000000e+03 3.047333240509033203e+00 2.581513595581054688e+01 -5.331115797162055969e-02 3.266991972923278809e-01 8.201640844345092773e-02 -5.554445385932922363e-01
1.234000000000000000e+03 3.001254796981811523e+00 2.437449645996093750e+01 -3.616441786289215088e-02 1.119126752018928528e-01 2.272447571158409119e-02 -5.862911343574523926e-01
1.235000000000000000e+03 2.034205436706542969e+00 3.435764312744140625e+01 -2.921762876212596893e-02 1.112229704856872559e+00 3.249036073684692383e-01 -1.498508602380752563e-01
1.236000000000000000e+03 2.060479402542114258e+00 3.298629379272460938e+01 -3.208822011947631836e-02 1.007579684257507324e+00 2.926474511623382568e-01 -1.852658092975616455e-01
1.237000000000000000e+03 3.381372928619384766e+00 3.913555526733398438e+01 -3.654243424534797668e-02 1.309927701950073242e+00 3.820155858993530273e-01 -8.434049040079116821e-02
1.238000000000000000e+03 2.052968978881835938e+00 -2.908144187927246094e+01 -4.256613552570343018e-02 4.680753648281097412e-01 1.276527643203735352e-01 3.474181294441223145e-01
1.239000000000000000e+03 1.858373403549194336e+00 -2.627832031250000000e+01 -2.363730594515800476e-02 -6.667559966444969177e-03 -9.091460146009922028e-03 4.218899905681610107e-01
1.240000000000000000e+03 1.648402333259582520e+00 -9.459058761596679688e+00 9.530349634587764740e-03 -1.007237553596496582e+00 -2.993121743202209473e-01 -3.211772739887237549e-01
1.241000000000000000e+03 1.750092387199401855e+00 -1.643143844604492188e+01 9.948458522558212280e-02 -1.515405654907226562e+00 -4.247763156890869141e-01 2.643187530338764191e-02
1.242000000000000000e+03 2.253798007965087891e+00 -3.681628036499023438e+01 -2.287469059228897095e-02 1.077690482139587402e+00 3.164447546005249023e-01 8.506093174219131470e-02
1.243000000000000000e+03 6.155284643173217773e-01 2.050652885437011719e+01 3.159973304718732834e-03 -1.364284634590148926e+00 -4.083373844623565674e-01 -1.442462950944900513e-01
1.244000000000000000e+03 6.151251792907714844e-01 1.909904670715332031e+01 6.319161504507064819e-03 -1.683213353157043457e+00 -5.030682682991027832e-01 -1.336186528205871582e-01
1.245000000000000000e+03 5.937677025794982910e-01 1.487358474731445312e+01 1.717673614621162415e-02 -2.377088308334350586e+00 -7.079734802246093750e-01 -5.634215474128723145e-02
1.246000000000000000e+03 5.773940682411193848e-01 1.346649074554443359e+01 1.446878444403409958e-02 -2.461500644683837891e+00 -7.341095209121704102e-01 -1.786156184971332550e-02
1.247000000000000000e+03 4.950908422470092773e-01 7.874399185180664062e+00 5.520080681890249252e-03 -1.756730437278747559e+00 -5.253630876541137695e-01 1.294268816709518433e-01
1.248000000000000000e+03 4.737884521484375000e+00 -4.038358688354492188e+01 -6.087992712855339050e-02 1.050660729408264160e+00 2.969342172145843506e-01 5.659982934594154358e-02
1.249000000000000000e+03 3.839085102081298828e+00 -3.621100234985351562e+01 -9.839875251054763794e-02 1.009908795356750488e+00 2.734530270099639893e-01 1.622225642204284668e-01
1.250000000000000000e+03 1.727764248847961426e+00 -3.552300262451171875e+01 -3.361723944544792175e-02 1.029152035713195801e+00 2.986604273319244385e-01 9.539126604795455933e-02
1.251000000000000000e+03 2.314335823059082031e+00 -3.195575904846191406e+01 -4.627262800931930542e-02 7.935326099395751953e-01 2.241779863834381104e-01 2.453489601612091064e-01
1.252000000000000000e+03 1.937368631362915039e+00 -2.766816711425781250e+01 -4.660670459270477295e-02 2.469750642776489258e-01 6.011050939559936523e-02 3.859365284442901611e-01
1.253000000000000000e+03 3.089330196380615234e+00 -2.625270652770996094e+01 -7.934489846229553223e-02 3.003083467483520508e-01 6.628903001546859741e-02 5.991407036781311035e-01
1.254000000000000000e+03 1.822234630584716797e+00 -2.210295867919921875e+01 3.155443817377090454e-02 -8.182941675186157227e-01 -2.360219210386276245e-01 4.257564842700958252e-01
1.255000000000000000e+03 1.815922617912292480e+00 -2.490180587768554688e+01 -2.638516947627067566e-02 -2.702841758728027344e-01 -8.900080621242523193e-02 4.420015811920166016e-01
1.256000000000000000e+03 1.805369257926940918e+00 -1.925003051757812500e+01 6.321540474891662598e-02 -1.263146162033081055e+00 -3.599792420864105225e-01 2.899104356765747070e-01
1.257000000000000000e+03 6.034646630287170410e-01 -1.920264816284179688e+01 2.027420140802860260e-02 -2.039637327194213867e+00 -6.058089137077331543e-01 1.073014289140701294e-01
1.258000000000000000e+03 1.771433830261230469e+00 -1.221626567840576172e+01 4.879707098007202148e-02 -1.317190408706665039e+00 -3.805180191993713379e-01 -2.594985067844390869e-01
1.259000000000000000e+03 5.856143832206726074e-01 -1.214262771606445312e+01 1.056065410375595093e-02 -1.929718852043151855e+00 -5.757474303245544434e-01 -9.323909878730773926e-02
1.260000000000000000e+03 4.632197380065917969e+00 -3.441091299057006836e+00 -2.177625894546508789e-01 -2.672231197357177734e-02 -7.334546744823455811e-02 -3.548489809036254883e-01
1.261000000000000000e+03 3.650130510330200195e+00 -2.845987081527709961e+00 -1.879974454641342163e-01 -6.392560154199600220e-02 -7.557691633701324463e-02 -2.938574850559234619e-01
1.262000000000000000e+03 2.888929605484008789e+00 -2.889593839645385742e+00 -1.369448155164718628e-01 -1.011032462120056152e-01 -7.141441851854324341e-02 -2.645693719387054443e-01
1.263000000000000000e+03 2.201810359954833984e+00 -3.005403041839599609e+00 -8.554021269083023071e-02 -1.511971503496170044e-01 -7.102120667695999146e-02 -2.282129526138305664e-01
1.264000000000000000e+03 5.332909822463989258e-01 5.049514293670654297e+00 -1.394144492223858833e-04 -8.462690711021423340e-01 -2.539225518703460693e-01 1.754611581563949585e-01
1.265000000000000000e+03 3.586284160614013672e+00 5.151730060577392578e+00 -4.590642824769020081e-02 -6.342034339904785156e-01 -2.040329575538635254e-01 8.313567042350769043e-01
1.266000000000000000e+03 1.614835739135742188e+00 1.061726856231689453e+01 7.571499049663543701e-02 -1.799977183341979980e+00 -5.172786116600036621e-01 1.914269626140594482e-01
1.267000000000000000e+03 5.363140702247619629e-01 1.066236591339111328e+01 1.115646772086620331e-02 -2.324068069458007812e+00 -6.938735246658325195e-01 6.398642808198928833e-02
1.268000000000000000e+03 1.734417915344238281e+00 1.337178230285644531e+01 8.236318081617355347e-02 -1.834771394729614258e+00 -5.257224440574645996e-01 -3.252527490258216858e-02
1.269000000000000000e+03 1.833832383155822754e+00 2.036338806152343750e+01 1.521386951208114624e-02 -9.272755980491638184e-01 -2.736185193061828613e-01 -3.987236917018890381e-01
1.270000000000000000e+03 1.838681697845458984e+00 1.896773147583007812e+01 3.057730756700038910e-02 -1.174928188323974609e+00 -3.433052599430084229e-01 -3.686890304088592529e-01
1.271000000000000000e+03 1.845890879631042480e+00 2.454378700256347656e+01 -1.721713505685329437e-02 -1.337667256593704224e-01 -4.529515653848648071e-02 -3.936040699481964111e-01
1.272000000000000000e+03 4.003593444824218750e+01 1.234477329254150391e+01 1.134182929992675781e+00 3.364139080047607422e+00 1.349496603012084961e+00 -1.854704976081848145e+00
1.273000000000000000e+03 1.980814933776855469e+01 2.120709568262100220e-01 -5.130151510238647461e-01 3.293667554855346680e+00 8.341957330703735352e-01 -3.872847795486450195e+00
1.274000000000000000e+03 2.004375076293945312e+01 2.094906419515609741e-01 -2.540688812732696533e-01 3.925711870193481445e+00 1.101492881774902344e+00 -4.394193172454833984e+00
1.275000000000000000e+03 2.106173324584960938e+01 6.060730218887329102e-01 -8.293070793151855469e-01 8.896161079406738281e+00 2.420056104660034180e+00 -6.154483318328857422e+00
1.276000000000000000e+03 2.026870155334472656e+01 1.404734253883361816e-01 -8.705504238605499268e-02 4.536815166473388672e+00 1.334928035736083984e+00 -4.953368186950683594e+00
1.277000000000000000e+03 2.140031051635742188e+01 7.737810015678405762e-01 -1.346584200859069824e+00 1.035021877288818359e+01 2.701090335845947266e+00 -5.818134307861328125e+00
1.278000000000000000e+03 2.255785751342773438e+01 8.111565113067626953e-01 -1.810972809791564941e+00 1.130113983154296875e+01 2.847050189971923828e+00 -3.392404079437255859e+00
1.279000000000000000e+03 1.965402412414550781e+01 -3.200107574462890625e+00 2.748655557632446289e+00 7.328959703445434570e-01 1.044465422630310059e+00 1.416159152984619141e+00
1.280000000000000000e+03 1.854751014709472656e+01 -3.642467260360717773e+00 1.957461357116699219e+00 2.148169428110122681e-01 6.516835093498229980e-01 1.103350043296813965e+00
1.281000000000000000e+03 2.104676437377929688e+01 -4.078349590301513672e+00 2.046058654785156250e+00 5.142445087432861328e+00 2.156551122665405273e+00 2.321408033370971680e+00
1.282000000000000000e+03 1.943680763244628906e+01 -3.221373558044433594e+00 2.533276796340942383e+00 5.188856124877929688e-01 9.156487584114074707e-01 1.240751862525939941e+00
1.283000000000000000e+03 2.264391326904296875e+01 1.844947785139083862e-01 -1.434645175933837891e+00 1.323239612579345703e+01 3.539325237274169922e+00 -2.564996004104614258e+00
1.284000000000000000e+03 2.363393592834472656e+01 -4.301914870738983154e-01 1.831646800041198730e+00 6.410589218139648438e+00 2.472670793533325195e+00 -7.913820743560791016e-01
1.285000000000000000e+03 2.615079879760742188e+01 -3.609793424606323242e+00 4.524272441864013672e+00 1.600971341133117676e+00 1.837573170661926270e+00 -3.336835145950317383e+00
1.286000000000000000e+03 2.183506584167480469e+01 -4.049559593200683594e+00 1.324444413185119629e+00 7.668242931365966797e+00 2.697806119918823242e+00 9.759029746055603027e-01
1.287000000000000000e+03 1.984108543395996094e+01 -3.505935907363891602e+00 2.900551795959472656e+00 1.276382327079772949e+00 1.253080248832702637e+00 1.862173914909362793e+00
1.288000000000000000e+03 2.414836883544921875e+01 -1.739340782165527344e+00 6.505198955535888672e+00 3.670844078063964844e+00 3.052812814712524414e+00 -3.193467378616333008e+00
1.289000000000000000e+03 1.763811111450195312e+01 -3.539301872253417969e+00 1.369486689567565918e+00 -1.889348030090332031e-02 4.051779806613922119e-01 8.390851616859436035e-01
1.290000000000000000e+03 9.543625831604003906e+00 -2.652347087860107422e+00 -5.089868903160095215e-01 1.840667128562927246e-01 -9.747605025768280029e-02 -2.474331483244895935e-02
1.291000000000000000e+03 1.645116996765136719e+01 -4.024064540863037109e+00 9.965704679489135742e-01 -3.179223090410232544e-02 2.894334793090820312e-01 9.074996113777160645e-01
1.292000000000000000e+03 1.701139068603515625e+01 -4.601082801818847656e+00 1.332045793533325195e+00 8.402860909700393677e-02 4.248223304748535156e-01 1.229441404342651367e+00
1.293000000000000000e+03 1.450374221801757812e+01 -3.252653121948242188e+00 1.373155564069747925e-01 -7.157592102885246277e-03 3.904739022254943848e-02 5.092382431030273438e-01
1.294000000000000000e+03 1.583746433258056641e+01 -3.995835065841674805e+00 7.497082352638244629e-01 -2.126802131533622742e-02 2.185320705175399780e-01 8.353091478347778320e-01
1.295000000000000000e+03 1.866662216186523438e+01 2.250026911497116089e-01 -1.931506872177124023e+00 1.918717384338378906e+00 -3.836836200207471848e-03 -1.673936963081359863e+00
1.296000000000000000e+03 1.613388824462890625e+01 1.525096774101257324e+00 -1.468441247940063477e+00 9.455477595329284668e-01 -1.568680256605148315e-01 -3.432166203856468201e-02
1.297000000000000000e+03 1.518625545501708984e+01 -3.947244882583618164e+00 5.257133841514587402e-01 7.717917673289775848e-03 1.600293964147567749e-01 7.564544081687927246e-01
1.298000000000000000e+03 1.100785923004150391e+01 -3.557598590850830078e+00 -3.195387721061706543e-01 2.585615217685699463e-01 -1.829317584633827209e-02 1.700363606214523315e-01
1.299000000000000000e+03 1.171642398834228516e+01 -3.632917404174804688e+00 -2.356025129556655884e-01 2.368559837341308594e-01 3.760381368920207024e-04 2.763991355895996094e-01
1.300000000000000000e+03 9.596447944641113281e+00 -3.421244621276855469e+00 -4.036213755607604980e-01 2.625085413455963135e-01 -4.233384877443313599e-02 -1.844241097569465637e-02
1.301000000000000000e+03 1.923302459716796875e+01 5.573894500732421875e+00 3.757623910903930664e+00 9.372164726257324219e+00 3.938936471939086914e+00 -4.506929874420166016e+00
1.302000000000000000e+03 1.714412117004394531e+01 2.057364940643310547e+00 -2.063362002372741699e-01 2.266899585723876953e+00 6.181690692901611328e-01 -1.117139339447021484e+00
1.303000000000000000e+03 1.379211902618408203e+01 -3.165050268173217773e+00 -3.676475584506988525e-02 3.869951143860816956e-02 5.804262473247945309e-04 4.421771466732025146e-01
1.304000000000000000e+03 1.496442317962646484e+01 2.579384565353393555e+00 -5.046074986457824707e-01 7.206172347068786621e-01 6.480292230844497681e-02 1.514744907617568970e-01
1.305000000000000000e+03 1.716417312622070312e+01 7.836270332336425781e+00 2.720032215118408203e+00 6.931708335876464844e+00 2.895522117614746094e+00 -2.848330497741699219e+00
1.306000000000000000e+03 1.421575546264648438e+01 2.698897361755371094e+00 -5.722287893295288086e-01 4.920158982276916504e-01 -2.406386472284793854e-02 4.166949987411499023e-01
1.307000000000000000e+03 1.381889629364013672e+01 -3.826545953750610352e+00 1.390813738107681274e-01 9.945928305387496948e-02 7.156220078468322754e-02 5.762014985084533691e-01
1.308000000000000000e+03 1.242064189910888672e+01 -3.702730178833007812e+00 -1.399886757135391235e-01 1.960668563842773438e-01 1.682345755398273468e-02 3.765926659107208252e-01
1.309000000000000000e+03 1.312099266052246094e+01 -3.765215873718261719e+00 -1.066429261118173599e-02 1.532021611928939819e-01 4.276136308908462524e-02 4.826851785182952881e-01
1.310000000000000000e+03 5.895836830139160156e+00 -2.614729881286621094e+00 -3.610069751739501953e-01 4.720265790820121765e-02 -9.414129704236984253e-02 -2.826488018035888672e-01
1.311000000000000000e+03 8.187063217163085938e+00 -3.356529474258422852e+00 -4.027704596519470215e-01 2.101387530565261841e-01 -5.778950825333595276e-02 -1.716831624507904053e-01
1.312000000000000000e+03 6.038452148437500000e+00 -3.364364624023437500e+00 -3.087141513824462891e-01 7.761717587709426880e-02 -6.932909041643142700e-02 -3.210524618625640869e-01
1.313000000000000000e+03 5.327428817749023438e+00 -3.371536254882812500e+00 -2.723374366760253906e-01 3.575443476438522339e-02 -7.097490131855010986e-02 -3.457096219062805176e-01
1.314000000000000000e+03 2.692308664321899414e+00 -7.068927288055419922e+00 -3.136326372623443604e-02 -4.271514117717742920e-01 -1.375544071197509766e-01 -4.324158430099487305e-01
1.315000000000000000e+03 7.588421344757080078e+00 -4.141118526458740234e+00 -3.179273903369903564e-01 2.493700832128524780e-01 -2.056719735264778137e-02 -2.508768439292907715e-01
1.316000000000000000e+03 6.759415149688720703e+00 -3.357267618179321289e+00 -3.487202525138854980e-01 1.264341622591018677e-01 -6.668582558631896973e-02 -2.860229611396789551e-01
1.317000000000000000e+03 7.476368904113769531e+00 -3.351956605911254883e+00 -3.783340752124786377e-01 1.733402460813522339e-01 -6.149815022945404053e-02 -2.338920980691909790e-01
1.318000000000000000e+03 4.221041679382324219e+00 -4.306488990783691406e+00 -1.588510274887084961e-01 -7.901627570390701294e-02 -7.136018574237823486e-02 -4.028134644031524658e-01
1.319000000000000000e+03 1.485163092613220215e+00 -3.401621580123901367e+00 -4.421682283282279968e-02 -2.173862010240554810e-01 -7.848090678453445435e-02 -1.835036724805831909e-01
1.320000000000000000e+03 1.763647556304931641e+00 -5.451080322265625000e+00 -2.687279693782329559e-02 -4.189089834690093994e-01 -1.337345391511917114e-01 -2.865208387374877930e-01
1.321000000000000000e+03 7.099074363708496094e+00 3.370177507400512695e+00 -6.554232239723205566e-01 -3.046123683452606201e-01 -2.880106866359710693e-01 1.159199237823486328e+00
1.322000000000000000e+03 6.360254764556884766e+00 3.413506984710693359e+00 -5.774742960929870605e-01 -3.018725216388702393e-01 -2.638040482997894287e-01 1.079162359237670898e+00
1.323000000000000000e+03 8.642111778259277344e+00 3.309213399887084961e+00 -7.467369437217712402e-01 -3.412682116031646729e-01 -3.264015316963195801e-01 1.230281472206115723e+00
1.324000000000000000e+03 5.616852283477783203e+00 3.463068008422851562e+00 -4.959571063518524170e-01 -3.034718036651611328e-01 -2.398286759853363037e-01 1.010193705558776855e+00
1.325000000000000000e+03 3.811090230941772461e+00 2.873639583587646484e+00 -3.922753036022186279e-01 -2.708296775817871094e-01 -1.989315003156661987e-01 6.941403746604919434e-01
1.326000000000000000e+03 4.593592166900634766e+00 2.757075071334838867e+00 -5.336285829544067383e-01 -2.288004308938980103e-01 -2.287287116050720215e-01 7.842770814895629883e-01
1.327000000000000000e+03 5.364831924438476562e+00 2.689156055450439453e+00 -6.792128086090087891e-01 -2.156711965799331665e-01 -2.684651911258697510e-01 8.688809871673583984e-01
1.328000000000000000e+03 4.941534996032714844e-01 3.597004175186157227e+00 -3.085906617343425751e-02 -4.533714652061462402e-01 -1.452691555023193359e-01 1.364410370588302612e-01
1.329000000000000000e+03 1.082883167266845703e+01 2.471498250961303711e+00 -1.461812376976013184e+00 -3.706767261028289795e-01 -5.497466921806335449e-01 1.148690581321716309e+00
1.330000000000000000e+03 1.103257751464843750e+01 3.216784238815307617e+00 -6.717003583908081055e-01 -2.702797353267669678e-01 -2.825940251350402832e-01 1.092022180557250977e+00
1.331000000000000000e+03 1.266452121734619141e+01 3.019518613815307617e+00 -6.631026268005371094e-01 -3.226954862475395203e-02 -2.086116522550582886e-01 8.047190308570861816e-01
1.332000000000000000e+03 1.344391727447509766e+01 2.837234497070312500e+00 -6.009427905082702637e-01 2.244368195533752441e-01 -1.129517927765846252e-01 6.556349992752075195e-01
1.333000000000000000e+03 1.038758850097656250e+01 3.991763830184936523e+00 -1.510199904441833496e-01 -2.661082446575164795e-01 -1.251384764909744263e-01 1.070021390914916992e+00
1.334000000000000000e+03 5.989416122436523438e+01 -7.730211734771728516e+00 -4.463418945670127869e-02 3.992024362087249756e-01 1.063704714179039001e-01 -1.491045057773590088e-01
1.335000000000000000e+03 2.359005737304687500e+01 -1.234853839874267578e+01 -1.511696457862854004e+00 5.672860145568847656e-01 -2.833231091499328613e-01 -1.567607186734676361e-02
1.336000000000000000e+03 2.149176216125488281e+01 -1.196745395660400391e+01 -1.662418007850646973e+00 4.815635979175567627e-01 -3.542563319206237793e-01 5.631085038185119629e-01
1.337000000000000000e+03 2.097792243957519531e+01 -1.079799747467041016e+01 -8.021834492683410645e-01 6.421769857406616211e-01 -4.800194129347801208e-02 7.279054522514343262e-01
1.338000000000000000e+03 2.005631065368652344e+01 -1.243774890899658203e+01 -2.169834613800048828e+00 -8.788135834038257599e-03 -6.535868048667907715e-01 8.841624259948730469e-01
1.339000000000000000e+03 2.219909477233886719e+01 2.018203735351562500e+00 -9.114781022071838379e-02 9.317407608032226562e+00 2.767878055572509766e+00 -4.267195224761962891e+00
1.340000000000000000e+03 2.267150306701660156e+01 -1.133303928375244141e+01 -1.077518939971923828e+00 8.686490654945373535e-01 -6.266096234321594238e-02 9.713115543127059937e-02
1.341000000000000000e+03 3.300330734252929688e+01 -1.179012012481689453e+01 1.240857481956481934e+00 2.282942056655883789e+00 1.057139873504638672e+00 -2.336562871932983398e+00
1.342000000000000000e+03 6.516555786132812500e+01 -2.710689163208007812e+01 -4.274429380893707275e-01 3.162893533706665039e+00 8.206351399421691895e-01 1.060637354850769043e+00
1.343000000000000000e+03 3.086388397216796875e+01 2.497771644592285156e+01 -6.398468017578125000e-01 5.552888512611389160e-01 -2.536738291382789612e-02 -3.652895390987396240e-01
1.344000000000000000e+03 6.280891418457031250e+01 -9.006689071655273438e+00 1.808050423860549927e-01 1.208287835121154785e+00 4.167278707027435303e-01 -8.439605832099914551e-01
1.345000000000000000e+03 1.967959403991699219e+01 -1.105270957946777344e+01 -8.379826545715332031e-01 1.891327202320098877e-01 -1.946549862623214722e-01 1.060688257217407227e+00
1.346000000000000000e+03 2.733893585205078125e+01 -5.494749546051025391e+00 3.709561109542846680e+00 2.084669113159179688e+00 1.738269090652465820e+00 -2.485740423202514648e+00
1.347000000000000000e+03 3.926212310791015625e+01 -6.494379043579101562e+00 -4.607883393764495850e-01 5.287992477416992188e+00 1.448161244392395020e+00 1.756699681282043457e+00
1.348000000000000000e+03 6.158970642089843750e+01 2.008579730987548828e+00 8.283772468566894531e-01 1.394171595573425293e+00 6.667646169662475586e-01 7.071506381034851074e-01
1.349000000000000000e+03 6.266546630859375000e+01 2.950031042098999023e+00 6.439313292503356934e-01 1.974277853965759277e+00 7.854627370834350586e-01 8.930594325065612793e-01
1.350000000000000000e+03 6.479040527343750000e+01 4.798053264617919922e+00 3.742058277130126953e-01 3.571883201599121094e+00 1.183826684951782227e+00 1.353656530380249023e+00
1.351000000000000000e+03 6.295605850219726562e+01 4.851981163024902344e+00 6.303211450576782227e-01 1.891932725906372070e+00 7.566761374473571777e-01 1.074948668479919434e+00
1.352000000000000000e+03 1.815446281433105469e+01 -1.093932723999023438e+01 -4.875909388065338135e-01 -3.549337983131408691e-01 -2.527574300765991211e-01 1.472312688827514648e+00
1.353000000000000000e+03 6.685224914550781250e+01 6.572955131530761719e+00 1.305103302001953125e-01 5.922230243682861328e+00 1.815822243690490723e+00 1.545022726058959961e+00
1.354000000000000000e+03 4.358541870117187500e+01 3.650440454483032227e+00 1.193432211875915527e+00 1.562782764434814453e+01 5.046377658843994141e+00 1.783103942871093750e+00
1.355000000000000000e+03 1.431636905670166016e+01 -2.879369926452636719e+01 -4.870650172233581543e-01 1.030186772346496582e+00 1.629365235567092896e-01 -1.401544064283370972e-01
1.356000000000000000e+03 3.887866973876953125e+01 -2.162552452087402344e+01 1.813090920448303223e+00 9.378407478332519531e+00 3.357449531555175781e+00 1.962182670831680298e-01
1.357000000000000000e+03 4.378595733642578125e+01 -1.752220916748046875e+01 1.513607501983642578e+00 1.038321208953857422e+01 3.569045782089233398e+00 6.436173915863037109e-01
1.358000000000000000e+03 4.334189987182617188e+01 -1.858844184875488281e+01 1.717022180557250977e+00 1.032841110229492188e+01 3.613630056381225586e+00 3.609756529331207275e-01
1.359000000000000000e+03 1.321086597442626953e+01 -2.769488906860351562e+01 -4.605997800827026367e-01 1.321525096893310547e+00 2.582775950431823730e-01 -1.536368876695632935e-01
1.360000000000000000e+03 2.854795265197753906e+01 -6.338971138000488281e+00 3.103368997573852539e+00 2.325533628463745117e+00 1.628670811653137207e+00 -2.362995624542236328e+00
1.361000000000000000e+03 2.868767166137695312e+01 -7.356181144714355469e+00 2.045898437500000000e+00 2.265105247497558594e+00 1.293301105499267578e+00 -2.673151016235351562e+00
1.362000000000000000e+03 6.401143646240234375e+01 -1.015352439880371094e+01 2.699440419673919678e-01 1.656657457351684570e+00 5.779804587364196777e-01 -1.332839250564575195e+00
1.363000000000000000e+03 2.172591400146484375e+01 -3.187350082397460938e+01 -8.706677556037902832e-01 1.556286029517650604e-02 -2.565314769744873047e-01 -4.059452936053276062e-02
1.364000000000000000e+03 4.724795913696289062e+01 -2.605721473693847656e+01 1.491993069648742676e+00 7.433427333831787109e+00 2.677626132965087891e+00 -2.732199430465698242e+00
1.365000000000000000e+03 4.706987762451171875e+01 -2.879659652709960938e+01 3.633342310786247253e-02 6.191771984100341797e+00 1.868431687355041504e+00 -1.920672774314880371e+00
1.366000000000000000e+03 6.693637084960937500e+01 -2.770808219909667969e+01 -8.394913077354431152e-01 5.343722343444824219e+00 1.351269364356994629e+00 9.302291870117187500e-01
1.367000000000000000e+03 7.249488830566406250e+01 -2.324442672729492188e+01 3.502728044986724854e-01 8.484340667724609375e+00 2.650383949279785156e+00 -1.101459980010986328e+00
1.368000000000000000e+03 3.887050247192382812e+01 1.537952232360839844e+01 3.925582170486450195e-01 2.359961032867431641e+00 8.257557749748229980e-01 -1.107537269592285156e+00
1.369000000000000000e+03 3.862038040161132812e+01 1.735073089599609375e+01 2.391115948557853699e-02 2.484858512878417969e+00 7.526309490203857422e-01 -1.020099997520446777e+00
1.370000000000000000e+03 2.266533088684082031e+01 2.611299514770507812e+01 -7.239117622375488281e-01 1.009221196174621582e+00 8.559280633926391602e-02 7.591667771339416504e-01
1.371000000000000000e+03 7.555961608886718750e+01 -1.808178901672363281e+01 7.751770019531250000e-01 7.144457817077636719e+00 2.375890493392944336e+00 -8.655086904764175415e-02
1.372000000000000000e+03 4.899863815307617188e+01 -2.958440780639648438e+01 8.906566537916660309e-03 4.448945045471191406e+00 1.337355375289916992e+00 -2.003315448760986328e+00
1.373000000000000000e+03 1.611174392700195312e+01 1.217250537872314453e+01 1.334051966667175293e+00 6.609055995941162109e+00 2.382932424545288086e+00 -1.557597041130065918e+00
1.374000000000000000e+03 1.778183937072753906e+01 9.558063507080078125e+00 1.756402611732482910e+00 9.008504867553710938e+00 3.229472398757934570e+00 -2.603876829147338867e+00
1.375000000000000000e+03 7.477278137207031250e+01 -3.230758666992187500e+01 -3.761337399482727051e-01 7.563072681427001953e+00 2.156081676483154297e+00 -2.837460339069366455e-01
1.376000000000000000e+03 7.715214538574218750e+01 -3.619438552856445312e+01 -1.277164369821548462e-01 8.268754959106445312e+00 2.442311763763427734e+00 -2.444004267454147339e-02
1.377000000000000000e+03 7.573461151123046875e+01 -2.205168151855468750e+01 4.085476696491241455e-01 7.327488899230957031e+00 2.320811033248901367e+00 -9.637725949287414551e-01
1.378000000000000000e+03 7.782037353515625000e+01 -2.921577453613281250e+01 -9.816141426563262939e-02 7.976192951202392578e+00 2.363409280776977539e+00 -5.168926715850830078e-01
1.379000000000000000e+03 7.818372344970703125e+01 -3.597909164428710938e+01 -9.458541870117187500e-02 8.668405532836914062e+00 2.572145938873291016e+00 -1.001226529479026794e-02
1.380000000000000000e+03 7.566401672363281250e+01 1.550420856475830078e+01 5.355066061019897461e-01 7.703951835632324219e+00 2.471837520599365234e+00 4.127087593078613281e-01
1.381000000000000000e+03 7.682979583740234375e+01 1.556597232818603516e+01 3.875494003295898438e-01 7.233735084533691406e+00 2.286385297775268555e+00 3.435401320457458496e-01
1.382000000000000000e+03 7.797006225585937500e+01 3.500204467773437500e+01 1.820684783160686493e-02 8.958850860595703125e+00 2.693117380142211914e+00 -1.393944323062896729e-01
1.383000000000000000e+03 7.596482086181640625e+01 3.237065887451171875e+01 -1.188848391175270081e-01 8.306290626525878906e+00 2.456221818923950195e+00 -1.035081371665000916e-01
1.384000000000000000e+03 7.815737152099609375e+01 -2.216892242431640625e+01 1.018132492899894714e-01 6.289668560028076172e+00 1.917444586753845215e+00 -5.777467489242553711e-01
1.385000000000000000e+03 7.690227508544921875e+01 -2.344738388061523438e+01 9.723857045173645020e-02 7.072283267974853516e+00 2.150856494903564453e+00 -9.334763288497924805e-01
1.386000000000000000e+03 7.629080963134765625e+01 -3.068158149719238281e+01 -2.587570846080780029e-01 7.907326221466064453e+00 2.294570684432983398e+00 -5.123990178108215332e-01
1.387000000000000000e+03 7.803855133056640625e+01 -3.479442977905273438e+01 -4.442249238491058350e-02 8.570300102233886719e+00 2.557763338088989258e+00 -9.741927683353424072e-02
1.388000000000000000e+03 7.632488250732421875e+01 -2.916424560546875000e+01 -2.554972767829895020e-01 7.849250316619873047e+00 2.278125762939453125e+00 -6.733584403991699219e-01
1.389000000000000000e+03 7.555539703369140625e+01 -2.463876533508300781e+01 -4.075167328119277954e-02 7.623830795288085938e+00 2.274923801422119141e+00 -1.099293112754821777e+00
1.390000000000000000e+03 7.646245574951171875e+01 -2.767166137695312500e+01 -2.050508409738540649e-01 7.738559246063232422e+00 2.260052442550659180e+00 -8.308708667755126953e-01
1.391000000000000000e+03 7.680564117431640625e+01 -2.480867385864257812e+01 -1.830466650426387787e-02 7.324526786804199219e+00 2.191866636276245117e+00 -9.828515648841857910e-01
1.392000000000000000e+03 7.638516235351562500e+01 -3.367479705810546875e+01 -1.825970709323883057e-01 8.031543731689453125e+00 2.354684114456176758e+00 -2.385080605745315552e-01
1.393000000000000000e+03 7.479293823242187500e+01 -3.071714019775390625e+01 -4.585029482841491699e-01 7.695314407348632812e+00 2.171043395996093750e+00 -4.705684185028076172e-01
1.394000000000000000e+03 7.630109405517578125e+01 -3.220088577270507812e+01 -2.452151775360107422e-01 7.940184116363525391e+00 2.308490753173828125e+00 -3.401288092136383057e-01
1.395000000000000000e+03 7.812149047851562500e+01 2.226126098632812500e+01 -3.754752874374389648e-02 8.148832321166992188e+00 2.433385610580444336e+00 6.350468397140502930e-01
1.396000000000000000e+03 7.678823852539062500e+01 1.978434753417968750e+01 9.137962758541107178e-02 7.800419330596923828e+00 2.367539644241333008e+00 9.800658822059631348e-01
1.397000000000000000e+03 7.573460388183593750e+01 2.207659530639648438e+01 -1.959956288337707520e-01 8.268835067749023438e+00 2.421851873397827148e+00 9.740124344825744629e-01
1.398000000000000000e+03 7.687206268310546875e+01 2.099103546142578125e+01 2.834297250956296921e-03 8.022046089172363281e+00 2.407464027404785156e+00 9.252090454101562500e-01
1.399000000000000000e+03 7.686797332763671875e+01 1.282189464569091797e+01 3.101908862590789795e-01 7.093842506408691406e+00 2.221210002899169922e+00 -1.389081776142120361e-01
1.400000000000000000e+03 7.578382110595703125e+01 9.015263557434082031e+00 1.448355615139007568e-01 7.524061203002929688e+00 2.300669193267822266e+00 -5.644966363906860352e-01
1.401000000000000000e+03 7.688199615478515625e+01 1.416990566253662109e+01 3.172096312046051025e-01 7.164898872375488281e+00 2.244632720947265625e+00 8.636886626482009888e-02
1.402000000000000000e+03 7.775976562500000000e+01 2.631618499755859375e+01 -1.079155504703521729e-01 8.832843780517578125e+00 2.617478370666503906e+00 3.837855458259582520e-01
1.403000000000000000e+03 7.693988800048828125e+01 -2.209700584411621094e+01 2.286311388015747070e-01 6.824653625488281250e+00 2.115985393524169922e+00 -8.331916332244873047e-01
1.404000000000000000e+03 7.807901763916015625e+01 5.876559257507324219e+00 -2.260887436568737030e-02 7.445851802825927734e+00 2.226972818374633789e+00 -3.726311922073364258e-01
1.405000000000000000e+03 7.672499847412109375e+01 3.246211767196655273e+00 -1.460633724927902222e-01 7.657458305358886719e+00 2.253418445587158203e+00 -3.704067170619964600e-01
1.406000000000000000e+03 7.280827331542968750e+01 -1.655670547485351562e+01 1.466990709304809570e+00 8.789962768554687500e+00 3.077086210250854492e+00 3.083081245422363281e-01
1.407000000000000000e+03 7.691931915283203125e+01 -2.074933624267578125e+01 3.384079635143280029e-01 6.638788700103759766e+00 2.093158960342407227e+00 -5.972795486450195312e-01
1.408000000000000000e+03 7.609666442871093750e+01 -9.276444435119628906e+00 -1.940890401601791382e-01 7.456358909606933594e+00 2.178680896759033203e+00 7.925409078598022461e-01
1.409000000000000000e+03 7.686896514892578125e+01 -1.344631958007812500e+01 1.251697540283203125e-01 6.842019081115722656e+00 2.090156555175781250e+00 7.795742750167846680e-01
1.410000000000000000e+03 7.541909790039062500e+01 -2.302133083343505859e+00 -3.067183792591094971e-01 7.523873329162597656e+00 2.165146350860595703e+00 6.718607246875762939e-02
1.411000000000000000e+03 7.697508239746093750e+01 -6.599465370178222656e+00 -1.785987615585327148e-01 7.615157127380371094e+00 2.230967521667480469e+00 4.627847671508789062e-01
1.412000000000000000e+03 7.675341796875000000e+01 3.555094528198242188e+01 -4.826234281063079834e-02 8.605472564697265625e+00 2.567163228988647461e+00 -2.167177349328994751e-01
1.413000000000000000e+03 7.789535522460937500e+01 3.625631713867187500e+01 -6.656233966350555420e-02 8.826153755187988281e+00 2.627877473831176758e+00 -1.767212301492691040e-01
1.414000000000000000e+03 7.811597442626953125e+01 7.246992588043212891e+00 -3.231649100780487061e-02 7.254885673522949219e+00 2.166770696640014648e+00 -4.184738993644714355e-01
1.415000000000000000e+03 7.676163482666015625e+01 6.107809066772460938e+00 -8.861374109983444214e-02 7.507392883300781250e+00 2.225633859634399414e+00 -5.431899428367614746e-01
1.416000000000000000e+03 7.678293609619140625e+01 -2.396373510360717773e+00 -1.691128760576248169e-01 7.754125595092773438e+00 2.275503635406494141e+00 7.016197592020034790e-02
1.417000000000000000e+03 7.713003540039062500e+01 -9.352971076965332031e+00 -1.266662031412124634e-01 7.330760002136230469e+00 2.161228179931640625e+00 6.863021850585937500e-01
1.418000000000000000e+03 7.668146514892578125e+01 -1.647957611083984375e+01 4.308704137802124023e-01 6.652449131011962891e+00 2.124995946884155273e+00 3.454233109951019287e-01
1.419000000000000000e+03 7.618724060058593750e+01 3.400798416137695312e+01 -8.228836953639984131e-02 8.395646095275878906e+00 2.494007349014282227e+00 -1.316642612218856812e-01
1.420000000000000000e+03 7.446060180664062500e+01 3.447341918945312500e+01 -6.165855750441551208e-02 7.602906227111816406e+00 2.262374162673950195e+00 -2.152981013059616089e-01
1.421000000000000000e+03 7.594002532958984375e+01 3.074336242675781250e+01 -1.706626862287521362e-01 8.373640060424804688e+00 2.460893154144287109e+00 -5.284157022833824158e-02
1.422000000000000000e+03 7.666651916503906250e+01 1.845791053771972656e+01 2.728500366210937500e-01 7.629536151885986328e+00 2.370715856552124023e+00 8.008240461349487305e-01
1.423000000000000000e+03 7.805313110351562500e+01 1.660741686820983887e+00 -6.411225348711013794e-02 7.895405292510986328e+00 2.349387884140014648e+00 -1.964411139488220215e-01
1.424000000000000000e+03 7.677784729003906250e+01 -1.013229846954345703e+00 -1.634769588708877563e-01 7.753707885742187500e+00 2.277069330215454102e+00 -3.765081614255905151e-02
1.425000000000000000e+03 7.810237121582031250e+01 -1.367184829711914062e+01 8.463706821203231812e-02 6.267921447753906250e+00 1.905767560005187988e+00 5.415993928909301758e-01
1.426000000000000000e+03 7.669255065917968750e+01 -1.491279792785644531e+01 3.070697486400604248e-01 6.741206169128417969e+00 2.114482879638671875e+00 6.207531690597534180e-01
1.427000000000000000e+03 7.817464447021484375e+01 -6.706032276153564453e+00 -6.900046020746231079e-02 7.670787334442138672e+00 2.280536174774169922e+00 3.519728183746337891e-01
1.428000000000000000e+03 7.707563018798828125e+01 -7.981374263763427734e+00 -1.527719050645828247e-01 7.485277652740478516e+00 2.199751853942871094e+00 5.987097024917602539e-01
1.429000000000000000e+03 7.673889160156250000e+01 4.692943096160888672e+00 -1.089236438274383545e-01 7.592471599578857422e+00 2.245064258575439453e+00 -4.473911821842193604e-01
1.430000000000000000e+03 7.683031463623046875e+01 -3.790668964385986328e+00 -1.952447593212127686e-01 7.738081455230712891e+00 2.262850999832153320e+00 2.047497779130935669e-01
1.431000000000000000e+03 7.688552856445312500e+01 -5.202547073364257812e+00 -1.740988045930862427e-01 7.686207294464111328e+00 2.253632545471191406e+00 3.443958461284637451e-01
1.432000000000000000e+03 7.702281951904296875e+01 -1.206756401062011719e+01 2.839410863816738129e-02 6.970549106597900391e+00 2.099683046340942383e+00 7.953884601593017578e-01
1.433000000000000000e+03 7.711675262451171875e+01 -1.071081066131591797e+01 -6.699050962924957275e-02 7.147944450378417969e+00 2.124286174774169922e+00 7.916526794433593750e-01
1.434000000000000000e+03 7.541503143310546875e+01 -1.450923633575439453e+01 4.165322482585906982e-01 7.361449718475341797e+00 2.333394527435302734e+00 8.002327084541320801e-01
1.435000000000000000e+03 5.128954315185546875e+01 -6.985374927520751953e+00 -5.184208750724792480e-01 1.228047847747802734e+00 2.128880769014358521e-01 8.295994997024536133e-01
1.436000000000000000e+03 5.543968582153320312e+01 -4.684257030487060547e+00 9.862490296363830566e-01 -1.818342208862304688e-01 2.413244396448135376e-01 -1.234743595123291016e-01
1.437000000000000000e+03 4.783619689941406250e+01 1.770762252807617188e+01 6.708958745002746582e-01 8.074399948120117188e+00 2.623588562011718750e+00 1.282315969467163086e+00
1.438000000000000000e+03 4.770648574829101562e+01 1.649168777465820312e+01 8.899021744728088379e-01 8.801458358764648438e+00 2.907408237457275391e+00 1.624878525733947754e+00
1.439000000000000000e+03 4.784933090209960938e+01 -8.293416976928710938e+00 -1.052910208702087402e+00 6.696341514587402344e+00 1.693029403686523438e+00 1.319018721580505371e+00
1.440000000000000000e+03 1.546317863464355469e+01 -2.985092163085937500e+01 -5.437820553779602051e-01 7.331473827362060547e-01 5.680960416793823242e-02 -1.673516333103179932e-01
1.441000000000000000e+03 2.125359725952148438e+01 2.841107368469238281e+00 1.530476212501525879e+00 9.324516296386718750e+00 3.256497621536254883e+00 -5.126841545104980469e+00
1.442000000000000000e+03 1.983723449707031250e+01 4.340819835662841797e+00 3.098314046859741211e+00 9.117802619934082031e+00 3.664834976196289062e+00 -4.569086074829101562e+00
1.443000000000000000e+03 3.800376510620117188e+01 -2.540968704223632812e+01 1.776436924934387207e+00 8.381115913391113281e+00 3.047265768051147461e+00 1.037298679351806641e+00
1.444000000000000000e+03 3.825783538818359375e+01 -2.337440872192382812e+01 1.775881648063659668e+00 9.065643310546875000e+00 3.252457618713378906e+00 7.952227592468261719e-01
1.445000000000000000e+03 2.028756141662597656e+01 1.010129690170288086e+00 -5.001084208488464355e-01 6.415701866149902344e+00 1.774677991867065430e+00 -5.168609619140625000e+00
1.446000000000000000e+03 2.098029708862304688e+01 2.134878635406494141e+00 -6.291440129280090332e-02 8.771050453186035156e+00 2.612440824508666992e+00 -4.780679702758789062e+00
1.447000000000000000e+03 4.336299896240234375e+01 1.250710868835449219e+01 3.117031157016754150e-01 8.369920730590820312e+00 2.604486942291259766e+00 -8.867692202329635620e-02
1.448000000000000000e+03 4.437359237670898438e+01 9.525013923645019531e+00 1.086741805076599121e+00 1.100999259948730469e+01 3.629020214080810547e+00 8.468182682991027832e-01
1.449000000000000000e+03 4.691534805297851562e+01 8.202589035034179688e+00 1.002032041549682617e+00 1.206351184844970703e+01 3.919663190841674805e+00 1.862024903297424316e+00
1.450000000000000000e+03 5.766232681274414062e+01 2.551629829406738281e+01 -9.388902187347412109e-01 9.834857583045959473e-01 1.337865926325321198e-02 1.483008861541748047e+00
1.451000000000000000e+03 5.015891075134277344e+00 3.653058624267578125e+01 -1.162729114294052124e-01 1.284401893615722656e+00 3.504387140274047852e-01 -1.826972216367721558e-01
1.452000000000000000e+03 1.905371785163879395e+00 2.744611930847167969e+01 -3.040708601474761963e-02 3.596172034740447998e-01 9.876304119825363159e-02 -3.340586423873901367e-01
1.453000000000000000e+03 3.109663486480712891e+00 3.003187561035156250e+01 -7.967011630535125732e-02 8.352000117301940918e-01 2.266589701175689697e-01 -3.862839341163635254e-01
1.454000000000000000e+03 1.874109148979187012e+00 2.598428344726562500e+01 -2.302871271967887878e-02 1.286672949790954590e-01 3.169157728552818298e-02 -3.713221549987792969e-01
1.455000000000000000e+03 3.164093255996704102e+00 2.735525894165039062e+01 -7.299260795116424561e-02 5.510754585266113281e-01 1.434248536825180054e-01 -5.125597119331359863e-01
1.456000000000000000e+03 5.930899620056152344e+00 2.959511947631835938e+01 -2.279478758573532104e-01 1.163670659065246582e+00 2.807168364524841309e-01 -6.048138737678527832e-01
1.457000000000000000e+03 3.487896203994750977e+00 3.135219001770019531e+01 -9.315985441207885742e-02 9.748954176902770996e-01 2.645206749439239502e-01 -3.580954670906066895e-01
1.458000000000000000e+03 3.089235782623291016e+00 2.879741287231445312e+01 -7.408273220062255859e-02 7.014954090118408203e-01 1.882238090038299561e-01 -4.486229419708251953e-01
1.459000000000000000e+03 2.157132387161254883e+00 3.702686691284179688e+01 -2.547316625714302063e-02 1.253470897674560547e+00 3.683993220329284668e-01 -9.205654263496398926e-02
1.460000000000000000e+03 3.323978900909423828e+00 3.417416381835937500e+01 -7.630541920661926270e-02 1.152593135833740234e+00 3.228863179683685303e-01 -2.219034582376480103e-01
1.461000000000000000e+03 3.534729003906250000e+00 3.280822372436523438e+01 -8.999800682067871094e-02 1.079305052757263184e+00 2.967921197414398193e-01 -3.026009500026702881e-01
1.462000000000000000e+03 3.039446353912353516e+00 -3.473945999145507812e+01 -6.875987350940704346e-02 9.766223430633544922e-01 2.723587453365325928e-01 1.836055517196655273e-01
1.463000000000000000e+03 2.548924207687377930e+00 -3.812405395507812500e+01 -3.642721101641654968e-02 1.098372220993041992e+00 3.185834884643554688e-01 5.400928109884262085e-02
1.464000000000000000e+03 2.190562963485717773e+00 -3.051100540161132812e+01 -6.479097157716751099e-02 6.544793844223022461e-01 1.769065260887145996e-01 2.999362945556640625e-01
1.465000000000000000e+03 3.391853094100952148e+00 -2.899369430541992188e+01 -1.296663731336593628e-01 6.553904414176940918e-01 1.577172279357910156e-01 4.971715509891510010e-01
1.466000000000000000e+03 1.829419851303100586e+00 2.175076484680175781e+01 3.888224018737673759e-03 -6.670786142349243164e-01 -1.989571154117584229e-01 -4.107834100723266602e-01
1.467000000000000000e+03 2.999098062515258789e+00 2.298891448974609375e+01 -1.881476491689682007e-02 -9.331840276718139648e-02 -3.363995254039764404e-02 -6.068493723869323730e-01
1.468000000000000000e+03 2.881843328475952148e+00 -1.088939285278320312e+01 6.941003352403640747e-02 -6.839289069175720215e-01 -1.843556612730026245e-01 -4.269934594631195068e-01
1.469000000000000000e+03 2.880805492401123047e+00 -1.785980606079101562e+01 2.210635989904403687e-01 -7.511005401611328125e-01 -1.590110808610916138e-01 2.492988258600234985e-01
1.470000000000000000e+03 1.777093529701232910e+00 -1.502564811706542969e+01 7.787945121526718140e-02 -1.503362417221069336e+00 -4.276448786258697510e-01 -8.636298030614852905e-02
1.471000000000000000e+03 3.015332698822021484e+00 2.162531089782714844e+01 8.265187032520771027e-03 -2.969334125518798828e-01 -8.660046756267547607e-02 -6.184093952178955078e-01
1.472000000000000000e+03 2.813967943191528320e+00 1.193414020538330078e+01 1.999765783548355103e-01 -1.367076873779296875e+00 -3.501300811767578125e-01 1.117904633283615112e-01
1.473000000000000000e+03 4.280330181121826172e+00 1.883657836914062500e+01 1.451927274465560913e-01 -2.388528734445571899e-01 -2.809804677963256836e-02 -7.106638550758361816e-01
1.474000000000000000e+03 3.034986972808837891e+00 2.025930404663085938e+01 4.407376423478126526e-02 -5.046686530113220215e-01 -1.381784677505493164e-01 -5.986788272857666016e-01
1.475000000000000000e+03 3.003644704818725586e+00 -1.925613975524902344e+01 1.622397154569625854e-01 -6.072109341621398926e-01 -1.334913671016693115e-01 4.087457656860351562e-01
1.476000000000000000e+03 2.991190433502197266e+00 -1.227802371978759766e+01 1.180891990661621094e-01 -7.373235225677490234e-01 -1.857703030109405518e-01 -3.636419475078582764e-01
1.477000000000000000e+03 2.503265857696533203e+00 8.007700920104980469e+00 1.278520673513412476e-01 -1.194797754287719727e+00 -3.200836777687072754e-01 5.358069539070129395e-01
1.478000000000000000e+03 1.481960892677307129e+00 6.600608348846435547e+00 3.291027620434761047e-02 -1.168598771095275879e+00 -3.407065570354461670e-01 4.228740632534027100e-01
1.479000000000000000e+03 1.778482675552368164e+00 1.477109813690185547e+01 7.518405467271804810e-02 -1.743239879608154297e+00 -5.004167556762695312e-01 -1.470143049955368042e-01
1.480000000000000000e+03 3.018327474594116211e+00 1.608698654174804688e+01 1.540748625993728638e-01 -1.055272221565246582e+00 -2.703592181205749512e-01 -3.700651228427886963e-01
1.481000000000000000e+03 2.736033439636230469e+00 -3.667922019958496094e+00 -1.037917658686637878e-01 -1.568615287542343140e-01 -7.819598913192749023e-02 -2.999024689197540283e-01
1.482000000000000000e+03 2.184461355209350586e+00 -4.389062881469726562e+00 -5.849782004952430725e-02 -2.681153118610382080e-01 -9.798393398523330688e-02 -2.854707539081573486e-01
1.483000000000000000e+03 2.600308656692504883e+00 9.279510498046875000e+00 1.630349159240722656e-01 -1.312194466590881348e+00 -3.447478413581848145e-01 4.162462055683135986e-01
1.484000000000000000e+03 3.196525335311889648e+00 -2.760208892822265625e+01 -8.341704308986663818e-02 4.775824248790740967e-01 1.182496175169944763e-01 5.609015226364135742e-01
1.485000000000000000e+03 3.056653738021850586e+00 -2.070391654968261719e+01 1.219351887702941895e-01 -4.359154999256134033e-01 -9.419409185647964478e-02 5.391027331352233887e-01
1.486000000000000000e+03 2.767409086227416992e+00 -9.555086135864257812e+00 1.996383070945739746e-02 -6.257609724998474121e-01 -1.817391365766525269e-01 -4.492680430412292480e-01
1.487000000000000000e+03 2.687329292297363281e+00 -8.281863212585449219e+00 -5.237137433141469955e-03 -5.442268848419189453e-01 -1.648391932249069214e-01 -4.474344551563262939e-01
1.488000000000000000e+03 2.965426921844482422e+00 -1.512548828125000000e+01 1.905451565980911255e-01 -8.335551619529724121e-01 -1.929030120372772217e-01 -9.353975951671600342e-02
1.489000000000000000e+03 1.806186676025390625e+00 -2.351743698120117188e+01 1.454507373273372650e-02 -5.421782732009887695e-01 -1.582899689674377441e-01 4.560325741767883301e-01
1.490000000000000000e+03 3.011979341506958008e+00 -2.216886901855468750e+01 9.091664105653762817e-02 -2.411638647317886353e-01 -4.507416859269142151e-02 6.310197114944458008e-01
1.491000000000000000e+03 3.950029134750366211e+00 -3.786728286743164062e+01 -7.644654810428619385e-02 1.066423416137695312e+00 2.969930768013000488e-01 1.204615533351898193e-01
1.492000000000000000e+03 3.876940727233886719e+00 -3.194277572631835938e+01 -1.449110954999923706e-01 8.739900588989257812e-01 2.187236994504928589e-01 3.469568192958831787e-01
1.493000000000000000e+03 4.167954921722412109e+00 -2.360997581481933594e+01 8.977948687970638275e-03 3.960358500480651855e-01 1.215041354298591614e-01 7.684729695320129395e-01
1.494000000000000000e+03 3.029018402099609375e+00 -2.492235183715820312e+01 -3.678184375166893005e-02 1.219562217593193054e-01 2.555231377482414246e-02 6.365417242050170898e-01
1.495000000000000000e+03 3.025962829589843750e+00 -1.370010089874267578e+01 1.698166728019714355e-01 -7.825361490249633789e-01 -1.838158369064331055e-01 -2.431892603635787964e-01
1.496000000000000000e+03 2.712922096252441406e+00 1.059489059448242188e+01 1.882865577936172485e-01 -1.364995360374450684e+00 -3.530126512050628662e-01 2.725036144256591797e-01
1.497000000000000000e+03 4.071160793304443359e+00 1.326136970520019531e+01 3.675227165222167969e-01 -8.558596372604370117e-01 -1.465010792016983032e-01 -1.015308424830436707e-01
1.498000000000000000e+03 2.895506143569946289e+00 1.330051231384277344e+01 2.027863562107086182e-01 -1.306325912475585938e+00 -3.310618400573730469e-01 -6.033229455351829529e-02
1.499000000000000000e+03 3.053902387619018555e+00 1.887649154663085938e+01 7.377747446298599243e-02 -6.955009102821350098e-01 -1.865170300006866455e-01 -5.523572564125061035e-01
1.500000000000000000e+03 4.435120773315429688e+01 -2.211708831787109375e+01 2.130928277969360352e+00 1.020323657989501953e+01 3.700249433517456055e+00 -9.527145028114318848e-01
1.501000000000000000e+03 7.479339599609375000e+01 1.794803428649902344e+01 6.186156868934631348e-01 8.180488586425781250e+00 2.639731168746948242e+00 9.457597732543945312e-01
1.502000000000000000e+03 6.970439147949218750e+01 1.664145469665527344e+01 1.017653107643127441e+00 1.282419395446777344e+01 4.152554035186767578e+00 2.900822162628173828e-01
1.503000000000000000e+03 1.165137767791748047e+01 -2.294479560852050781e+01 1.797152012586593628e-01 3.036457777023315430e+00 9.648519158363342285e-01 -2.668219208717346191e-01
1.504000000000000000e+03 6.928045654296875000e+01 -1.552873420715332031e+01 2.025227785110473633e+00 1.169643020629882812e+01 4.116497516632080078e+00 -7.649233341217041016e-01
1.505000000000000000e+03 3.553310012817382812e+01 2.013314247131347656e+01 -5.066916942596435547e-01 1.205472230911254883e+00 2.096341550350189209e-01 -5.874727368354797363e-01
1.506000000000000000e+03 3.660501098632812500e+01 1.920716285705566406e+01 -3.137349486351013184e-01 1.545629978179931641e+00 3.695684969425201416e-01 -7.085567116737365723e-01
1.507000000000000000e+03 3.611391830444335938e+01 -9.644464492797851562e+00 1.044248938560485840e+00 3.314657926559448242e+00 1.307672023773193359e+00 -7.916814684867858887e-01
1.508000000000000000e+03 3.495487976074218750e+01 -1.014380073547363281e+01 1.238303780555725098e+00 2.874910354614257812e+00 1.233964204788208008e+00 -1.427463650703430176e+00
1.509000000000000000e+03 3.712046432495117188e+01 -3.085573005676269531e+01 -5.543188452720642090e-01 6.407164096832275391e+00 1.755853652954101562e+00 8.217834830284118652e-01
1.510000000000000000e+03 3.713891220092773438e+01 -2.859271812438964844e+01 3.689897656440734863e-01 7.130897045135498047e+00 2.249965906143188477e+00 9.482185244560241699e-01
1.511000000000000000e+03 6.817226409912109375e+01 -2.743556785583496094e+01 -9.582697153091430664e-01 6.259150028228759766e+00 1.590264081954956055e+00 7.235081791877746582e-01
1.512000000000000000e+03 4.854635620117187500e+01 1.379666519165039062e+01 1.010216951370239258e+00 1.087883472442626953e+01 3.566715478897094727e+00 2.579105377197265625e+00
1.513000000000000000e+03 4.556343078613281250e+01 8.725635528564453125e+00 1.238652706146240234e+00 1.197032737731933594e+01 3.962693929672241211e+00 1.438089966773986816e+00
1.514000000000000000e+03 6.595611572265625000e+01 -2.830227279663085938e+01 -7.988862395286560059e-01 4.254329204559326172e+00 1.036632895469665527e+00 1.040544629096984863e+00
1.515000000000000000e+03 1.481470775604248047e+01 1.612422180175781250e+01 1.003020167350769043e+00 4.813515663146972656e+00 1.744960665702819824e+00 -8.805892467498779297e-01
1.516000000000000000e+03 1.560238265991210938e+01 1.501570606231689453e+01 1.025909304618835449e+00 5.719032287597656250e+00 2.023482561111450195e+00 -8.348501920700073242e-01
1.517000000000000000e+03 5.425949859619140625e+01 2.518336105346679688e+01 -1.022132992744445801e+00 3.156683921813964844e+00 6.403652429580688477e-01 2.163862705230712891e+00
1.518000000000000000e+03 5.465048599243164062e+01 -3.270844650268554688e+01 -2.840773761272430420e-01 9.565723538398742676e-01 2.017484903335571289e-01 -1.306421279907226562e+00
1.519000000000000000e+03 5.724177169799804688e+01 -3.291282272338867188e+01 -1.302938908338546753e-01 2.622511088848114014e-01 3.958716616034507751e-02 -5.502765178680419922e-01
1.520000000000000000e+03 1.662427139282226562e+01 9.209490776062011719e+00 2.225592136383056641e+00 6.733167171478271484e+00 2.687627792358398438e+00 -2.388218879699707031e+00
1.521000000000000000e+03 6.505133819580078125e+01 2.649728775024414062e+01 -7.746894955635070801e-01 2.768577337265014648e+00 5.981663465499877930e-01 -1.055779099464416504e+00
1.522000000000000000e+03 6.022424316406250000e+01 -3.068333053588867188e+01 -1.234447717666625977e+00 3.189380466938018799e-01 -2.746528983116149902e-01 2.238570749759674072e-01
1.523000000000000000e+03 4.304658508300781250e+01 -1.596507740020751953e+01 1.557310938835144043e+00 9.568237304687500000e+00 3.337664604187011719e+00 8.201062083244323730e-01
1.524000000000000000e+03 4.340993499755859375e+01 1.036987209320068359e+01 5.321353673934936523e-01 1.025731182098388672e+01 3.236834049224853516e+00 2.974678874015808105e-01
1.525000000000000000e+03 5.973431015014648438e+01 2.057138204574584961e+00 9.542009234428405762e-01 6.044027805328369141e-01 4.675811231136322021e-01 5.549388527870178223e-01
1.526000000000000000e+03 6.048902511596679688e+01 1.042823910713195801e+00 1.060140967369079590e+00 9.514802098274230957e-01 6.034863591194152832e-01 5.006710886955261230e-01
1.527000000000000000e+03 2.719495201110839844e+01 -3.564294052124023438e+01 -1.855760067701339722e-01 9.027467966079711914e-01 2.151512354612350464e-01 4.997996985912322998e-01
1.528000000000000000e+03 3.637348937988281250e+01 -1.534488582611083984e+01 1.467188000679016113e+00 6.515579700469970703e+00 2.394830226898193359e+00 -1.260555028915405273e+00
1.529000000000000000e+03 3.602340698242187500e+01 -1.716679000854492188e+01 2.154464960098266602e+00 7.969955921173095703e+00 3.037326335906982422e+00 -1.944976449012756348e+00
1.530000000000000000e+03 5.928294372558593750e+01 2.549337005615234375e+01 -1.088624238967895508e+00 4.367155432701110840e-01 -1.955726295709609985e-01 9.766368269920349121e-01
1.531000000000000000e+03 5.595294952392578125e+01 2.551290893554687500e+01 -9.014258384704589844e-01 1.886158227920532227e+00 2.954197227954864502e-01 1.925972819328308105e+00
1.532000000000000000e+03 1.593181800842285156e+01 1.359887313842773438e+01 1.081016898155212402e+00 6.463797569274902344e+00 2.263444423675537109e+00 -1.112050294876098633e+00
1.533000000000000000e+03 7.114502716064453125e+01 1.218027687072753906e+01 1.108437895774841309e+00 9.561912536621093750e+00 3.201105117797851562e+00 3.005638420581817627e-01
1.534000000000000000e+03 7.060871887207031250e+01 1.312617969512939453e+01 1.495520472526550293e+00 1.002604866027832031e+01 3.456470489501953125e+00 4.848732650279998779e-01
1.535000000000000000e+03 1.492656326293945312e+01 2.038276863098144531e+01 -3.843469172716140747e-02 3.949150800704956055e+00 1.173214912414550781e+00 -9.057975411415100098e-01
1.536000000000000000e+03 1.609135055541992188e+01 1.879045486450195312e+01 5.225477218627929688e-01 4.878526687622070312e+00 1.620322227478027344e+00 -6.214249730110168457e-01
1.537000000000000000e+03 4.079619598388671875e+01 1.336012649536132812e+01 5.470252037048339844e-01 4.783999919891357422e+00 1.599307537078857422e+00 -1.535983443260192871e+00
1.538000000000000000e+03 4.627414321899414062e+01 1.657694625854492188e+01 5.080848932266235352e-01 7.988401889801025391e+00 2.548945903778076172e+00 7.832207083702087402e-01
1.539000000000000000e+03 4.419075012207031250e+01 6.235581398010253906e+00 1.309201717376708984e+00 1.344876956939697266e+01 4.427391529083251953e+00 7.492031455039978027e-01
1.540000000000000000e+03 6.642914581298828125e+01 2.325808334350585938e+01 -2.066985607147216797e+00 4.236886978149414062e+00 6.509704589843750000e-01 -1.855891466140747070e+00
1.541000000000000000e+03 6.635005187988281250e+01 2.487145042419433594e+01 -1.486390590667724609e+00 3.812393188476562500e+00 6.978008151054382324e-01 -1.355244636535644531e+00
1.542000000000000000e+03 4.472924041748046875e+01 -1.393442726135253906e+01 1.303790092468261719e+00 1.016977787017822266e+01 3.442070484161376953e+00 1.358763456344604492e+00
1.543000000000000000e+03 4.758383941650390625e+01 -3.197299766540527344e+01 -6.706942319869995117e-01 5.104607582092285156e+00 1.330174088478088379e+00 -1.612973570823669434e+00
1.544000000000000000e+03 4.315161895751953125e+01 -2.901825332641601562e+01 -6.636285036802291870e-02 7.298813819885253906e+00 2.169735193252563477e+00 -5.797094702720642090e-01
1.545000000000000000e+03 4.331622695922851562e+01 2.396069526672363281e+00 1.708805203437805176e+00 1.583048915863037109e+01 5.261788368225097656e+00 2.174528121948242188e+00
1.546000000000000000e+03 4.710635375976562500e+01 3.691644191741943359e+00 1.468666076660156250e+00 1.077435398101806641e+01 3.672905921936035156e+00 1.936217099428176880e-01
1.547000000000000000e+03 3.170895957946777344e+01 -3.125882148742675781e+01 -1.275806427001953125e-01 2.371005296707153320e+00 6.730273962020874023e-01 1.512159466743469238e+00
1.548000000000000000e+03 3.905359268188476562e+01 -2.657842254638671875e+01 1.187532305717468262e+00 8.050941467285156250e+00 2.771542072296142578e+00 5.000826120376586914e-01
1.549000000000000000e+03 3.703866195678710938e+01 -2.636290359497070312e+01 1.489201188087463379e+00 8.176596641540527344e+00 2.899739265441894531e+00 1.174406051635742188e+00
1.550000000000000000e+03 1.049832630157470703e+01 -1.687736320495605469e+01 1.254110217094421387e+00 4.597768306732177734e+00 1.755563497543334961e+00 9.221645593643188477e-01
1.551000000000000000e+03 9.103694915771484375e+00 -1.827609825134277344e+01 9.506130218505859375e-01 3.142245531082153320e+00 1.227857589721679688e+00 6.630845069885253906e-01
1.552000000000000000e+03 1.625075531005859375e+01 1.067938137054443359e+01 1.808352470397949219e+00 6.567113876342773438e+00 2.512639760971069336e+00 -1.921214938163757324e+00
1.553000000000000000e+03 4.748944473266601562e+01 1.400214004516601562e+01 8.907046914100646973e-01 1.009060478210449219e+01 3.294393062591552734e+00 2.000033378601074219e+00
1.554000000000000000e+03 3.254426193237304688e+01 2.417358970642089844e+01 -6.774866580963134766e-01 8.210616707801818848e-01 4.307251051068305969e-02 -5.410776734352111816e-01
1.555000000000000000e+03 2.855770492553710938e+01 2.370740699768066406e+01 -1.029637217521667480e+00 1.257205307483673096e-01 -2.711749970912933350e-01 1.206697430461645126e-02
1.556000000000000000e+03 6.081798171997070312e+01 2.544107818603515625e+01 -1.160974502563476562e+00 3.049969971179962158e-01 -2.567932307720184326e-01 4.424563944339752197e-01
1.557000000000000000e+03 5.396220016479492188e+01 -8.913545012474060059e-01 2.116655349731445312e+00 2.075648605823516846e-01 6.972660422325134277e-01 3.998173177242279053e-01
1.558000000000000000e+03 5.172870254516601562e+01 -1.305217981338500977e+00 2.254094600677490234e+00 1.086183309555053711e+00 1.002083301544189453e+00 -9.353826940059661865e-02
1.559000000000000000e+03 6.988357543945312500e+01 8.787074089050292969e+00 1.675246059894561768e-01 8.480075836181640625e+00 2.594280004501342773e+00 4.668388068675994873e-01
1.560000000000000000e+03 3.084608840942382812e+01 -6.372698307037353516e+00 2.550957918167114258e+00 1.315592408180236816e+00 1.159965038299560547e+00 -2.811493396759033203e+00
1.561000000000000000e+03 7.013078308105468750e+01 -2.216526222229003906e+01 1.003416299819946289e+00 1.010988521575927734e+01 3.333990335464477539e+00 -2.601957619190216064e-01
1.562000000000000000e+03 1.779522895812988281e+01 1.794315338134765625e+00 -2.325028032064437866e-01 2.774728536605834961e+00 7.626677155494689941e-01 -1.573634505271911621e+00
1.563000000000000000e+03 4.684053039550781250e+01 -1.138402271270751953e+01 7.207310795783996582e-01 9.095977783203125000e+00 2.945012569427490234e+00 1.959980845451354980e+00
1.564000000000000000e+03 4.479421615600585938e+01 -1.133761596679687500e+01 1.479146331548690796e-01 9.229887008666992188e+00 2.813340425491333008e+00 1.034549951553344727e+00
1.565000000000000000e+03 4.248144531250000000e+01 1.345372772216796875e+01 1.558753848075866699e-01 7.164508342742919922e+00 2.196115016937255859e+00 -8.005112409591674805e-01
1.566000000000000000e+03 4.581972885131835938e+01 2.683262348175048828e+00 1.677806854248046875e+00 1.147392654418945312e+01 3.945519924163818359e+00 9.524672031402587891e-01
1.567000000000000000e+03 4.435627365112304688e+01 2.051017761230468750e+00 1.853448152542114258e+00 1.347601604461669922e+01 4.598839282989501953e+00 1.714757800102233887e+00
1.568000000000000000e+03 4.576408386230468750e+01 -2.763475036621093750e+01 3.434507846832275391e-01 7.315928936004638672e+00 2.297813892364501953e+00 -1.496893286705017090e+00
1.569000000000000000e+03 4.682654571533203125e+01 -2.762465095520019531e+01 4.798110723495483398e-01 6.809420585632324219e+00 2.186769485473632812e+00 -1.880700111389160156e+00
1.570000000000000000e+03 2.100736999511718750e+01 -3.348384475708007812e+01 -5.358719229698181152e-01 6.162064149975776672e-02 -1.422753930091857910e-01 -1.788777559995651245e-01
1.571000000000000000e+03 2.236672782897949219e+01 -3.443983840942382812e+01 -3.436339497566223145e-01 1.176785677671432495e-01 -6.778661906719207764e-02 -7.378897815942764282e-02
1.572000000000000000e+03 6.786556243896484375e+01 7.393805027008056641e+00 1.317387074232101440e-02 6.936553478240966797e+00 2.084918260574340820e+00 1.108023762702941895e+00
1.573000000000000000e+03 4.816416549682617188e+01 2.330560493469238281e+01 -9.727740883827209473e-01 5.936297416687011719e+00 1.489056944847106934e+00 4.899392724037170410e-01
1.574000000000000000e+03 3.988699340820312500e+01 -2.119352340698242188e+01 2.128459215164184570e+00 8.982563018798828125e+00 3.333306789398193359e+00 1.058340594172477722e-01
1.575000000000000000e+03 3.987783813476562500e+01 -1.692887687683105469e+01 1.929878830909729004e+00 8.289062500000000000e+00 3.065682411193847656e+00 1.073010265827178955e-01
1.576000000000000000e+03 6.340740966796875000e+01 -3.255325698852539062e+01 -4.606574475765228271e-01 2.389051437377929688e+00 5.785182118415832520e-01 8.723115921020507812e-01
1.577000000000000000e+03 5.802317047119140625e+01 -3.370922803878784180e+00 1.134175181388854980e+00 2.722340226173400879e-01 4.219227731227874756e-01 -1.747424751520156860e-01
1.578000000000000000e+03 5.798541259765625000e+01 -7.717632055282592773e-01 1.549235343933105469e+00 2.777108848094940186e-01 5.480838418006896973e-01 1.720129698514938354e-01
1.579000000000000000e+03 1.861343765258789062e+01 -3.463708877563476562e+01 -3.364763557910919189e-01 3.069102466106414795e-01 -8.869834244251251221e-03 -2.517685294151306152e-01
1.580000000000000000e+03 4.281496047973632812e+01 -1.963173294067382812e+01 1.915283679962158203e+00 9.885445594787597656e+00 3.540218830108642578e+00 -1.548242196440696716e-02
1.581000000000000000e+03 4.335667419433593750e+01 -2.137116813659667969e+01 2.152989625930786133e+00 1.000508499145507812e+01 3.647422313690185547e+00 -4.076283872127532959e-01
1.582000000000000000e+03 5.351796722412109375e+01 -3.307281875610351562e+01 -2.357573211193084717e-01 1.490950345993041992e+00 3.765579164028167725e-01 -1.417527198791503906e+00
1.583000000000000000e+03 3.500478363037109375e+01 -3.297803115844726562e+01 -8.449627161026000977e-01 4.818060874938964844e+00 1.191929459571838379e+00 1.132598280906677246e+00
1.584000000000000000e+03 1.062963008880615234e+01 -1.547339057922363281e+01 1.493992447853088379e+00 4.161194324493408203e+00 1.696556091308593750e+00 8.998094201087951660e-01
1.585000000000000000e+03 5.636332035064697266e+00 -1.661999320983886719e+01 6.377248167991638184e-01 5.979411005973815918e-01 3.706997931003570557e-01 2.260746061801910400e-01
1.586000000000000000e+03 1.811785316467285156e+01 2.937735319137573242e+00 1.143821358680725098e+00 4.349858283996582031e+00 1.648103833198547363e+00 -2.362781047821044922e+00
1.587000000000000000e+03 1.206746482849121094e+01 -1.125227832794189453e+01 3.855894207954406738e-01 2.704642772674560547e+00 9.270696640014648438e-01 9.766299128532409668e-01
1.588000000000000000e+03 4.698234558105468750e+01 5.116934776306152344e+00 9.267267584800720215e-01 1.219721031188964844e+01 3.937180995941162109e+00 6.674690246582031250e-01
1.589000000000000000e+03 4.679668426513671875e+01 6.615946769714355469e+00 9.030568003654479980e-01 1.222546482086181641e+01 3.938556671142578125e+00 1.506014943122863770e+00
1.590000000000000000e+03 3.268611145019531250e+01 -3.256919860839843750e+01 -4.342316091060638428e-01 3.248393058776855469e+00 8.442484140396118164e-01 1.622498393058776855e+00
1.591000000000000000e+03 4.362283706665039062e+01 -1.165386104583740234e+01 1.841330528259277344e-01 8.997595787048339844e+00 2.754518747329711914e+00 8.409621715545654297e-01
1.592000000000000000e+03 1.904265785217285156e+01 -1.038298034667968750e+01 -3.571358025074005127e-01 1.478986442089080811e-01 -6.277114152908325195e-02 1.344161272048950195e+00
1.593000000000000000e+03 1.060562324523925781e+01 -2.361043930053710938e+01 -5.560451000928878784e-02 2.662702083587646484e+00 7.821292877197265625e-01 2.202285677194595337e-01
1.594000000000000000e+03 3.654826354980468750e+01 -3.428459930419921875e+01 -1.194249272346496582e+00 5.549771785736083984e+00 1.306656718254089355e+00 8.369418978691101074e-01
1.595000000000000000e+03 4.059336090087890625e+01 1.540221405029296875e+01 2.310217916965484619e-01 4.253134250640869141e+00 1.345246791839599609e+00 -1.236664295196533203e+00
1.596000000000000000e+03 9.746198654174804688e+00 -1.322039890289306641e+01 7.432153224945068359e-01 2.544307231903076172e+00 9.862567782402038574e-01 2.147150486707687378e-01
1.597000000000000000e+03 4.375064849853515625e+01 -1.825044631958007812e+00 7.015639543533325195e-01 1.130768775939941406e+01 3.602775335311889648e+00 1.125936388969421387e+00
1.598000000000000000e+03 4.491253280639648438e+01 6.036735177040100098e-01 1.563253045082092285e+00 1.136762905120849609e+01 3.879264593124389648e+00 8.379048705101013184e-01
1.599000000000000000e+03 5.038363265991210938e+01 2.202883148193359375e+01 -3.527293503284454346e-01 6.086905479431152344e+00 1.720252752304077148e+00 1.189844250679016113e+00
1.600000000000000000e+03 6.969920349121093750e+01 -1.273009872436523438e+01 4.537189751863479614e-02 9.276558876037597656e+00 2.796579122543334961e+00 -2.125433385372161865e-01
1.601000000000000000e+03 1.743050384521484375e+01 1.853294563293457031e+01 8.939151167869567871e-01 5.700756072998046875e+00 1.978401303291320801e+00 8.065371215343475342e-02
1.602000000000000000e+03 1.378781032562255859e+01 1.519244194030761719e+01 1.189729094505310059e+00 4.110948562622070312e+00 1.590203285217285156e+00 -1.120153069496154785e+00
1.603000000000000000e+03 2.251123046875000000e+01 -1.221907234191894531e+01 -1.588559865951538086e+00 5.788614153861999512e-01 -3.029095232486724854e-01 3.333758711814880371e-01
1.604000000000000000e+03 1.237152767181396484e+01 -1.012849617004394531e+01 -2.371220383793115616e-03 2.110108613967895508e+00 6.323212385177612305e-01 1.107644677162170410e+00
1.605000000000000000e+03 4.496267700195312500e+01 1.274346446990966797e+01 4.823679029941558838e-01 9.320405960083007812e+00 2.940832376480102539e+00 9.469038248062133789e-01
1.606000000000000000e+03 6.244733047485351562e+01 -3.129276657104492188e+01 -7.042892575263977051e-01 1.743026018142700195e+00 3.116210103034973145e-01 8.081028461456298828e-01
1.607000000000000000e+03 4.062052917480468750e+01 -6.412290573120117188e+00 -9.726707339286804199e-01 7.322013378143310547e+00 1.904802799224853516e+00 1.935844063758850098e+00
1.608000000000000000e+03 5.406761169433593750e+01 -2.399953126907348633e+00 1.855578064918518066e+00 2.301977574825286865e-01 6.257327198982238770e-01 1.697587221860885620e-01
1.609000000000000000e+03 5.602798080444335938e+01 -7.247177600860595703e+00 -6.591975688934326172e-01 -1.285946369171142578e-01 -2.363376617431640625e-01 -5.841438844799995422e-02
1.610000000000000000e+03 2.715777969360351562e+01 -1.329020881652832031e+01 -9.692498445510864258e-01 3.847959637641906738e-01 -1.753361672163009644e-01 -8.228669762611389160e-01
1.611000000000000000e+03 2.578962898254394531e+01 -1.241608142852783203e+01 -8.972479104995727539e-01 5.642094016075134277e-01 -9.991154074668884277e-02 -7.274040579795837402e-01
1.612000000000000000e+03 2.224647140502929688e+01 2.405610847473144531e+01 -8.722104430198669434e-01 9.453939199447631836e-01 2.195504121482372284e-02 1.093914031982421875e+00
1.613000000000000000e+03 2.060522460937500000e+01 2.641704177856445312e+01 -8.299543261528015137e-01 1.704170823097229004e+00 2.622649371623992920e-01 8.183525204658508301e-01
1.614000000000000000e+03 3.611752700805664062e+01 -2.955834960937500000e+01 2.733427472412586212e-02 6.571233272552490234e+00 1.979570269584655762e+00 1.319743514060974121e+00
1.615000000000000000e+03 3.809643173217773438e+01 -2.757917785644531250e+01 8.140102624893188477e-01 7.683868408203125000e+00 2.549363613128662109e+00 7.819465398788452148e-01
1.616000000000000000e+03 7.101974487304687500e+01 -1.861772537231445312e+01 2.115745782852172852e+00 1.049529743194580078e+01 3.783313035964965820e+00 -9.991949051618576050e-02
1.617000000000000000e+03 7.081325531005859375e+01 -1.716276741027832031e+01 1.877400040626525879e+00 1.085353088378906250e+01 3.819279432296752930e+00 1.223571039736270905e-02
1.618000000000000000e+03 7.191590118408203125e+01 1.474574279785156250e+01 1.490498423576354980e+00 9.113488197326660156e+00 3.181195974349975586e+00 3.721361458301544189e-01
1.619000000000000000e+03 7.049254608154296875e+01 1.404364299774169922e+01 1.445525407791137695e+00 1.033110523223876953e+01 3.532989263534545898e+00 7.675811648368835449e-01
1.620000000000000000e+03 7.292052459716796875e+01 1.020616817474365234e+01 5.461785197257995605e-01 8.298516273498535156e+00 2.653408527374267578e+00 -3.432467579841613770e-01
1.621000000000000000e+03 6.978669738769531250e+01 1.171746635437011719e+01 1.189271450042724609e+00 9.998616218566894531e+00 3.356366157531738281e+00 8.179370760917663574e-01
1.622000000000000000e+03 4.711889266967773438e+01 2.243914604187011719e+00 1.304006695747375488e+00 9.624423027038574219e+00 3.278528928756713867e+00 6.030669808387756348e-02
1.623000000000000000e+03 4.865057373046875000e+01 -1.180992722511291504e+00 1.240976929664611816e+00 5.180274486541748047e+00 1.926375508308410645e+00 -9.883038997650146484e-01
1.624000000000000000e+03 7.460072994232177734e+00 -2.243606567382812500e+01 1.874403208494186401e-01 1.714245319366455078e+00 5.705056786537170410e-01 8.327071666717529297e-01
1.625000000000000000e+03 4.348840713500976562e+01 -2.320993232727050781e+01 2.130456686019897461e+00 9.253516197204589844e+00 3.415191888809204102e+00 -5.326136946678161621e-01
1.626000000000000000e+03 4.481504440307617188e+01 -2.483877944946289062e+01 1.622053503990173340e+00 8.737863540649414062e+00 3.107975244522094727e+00 -1.021082043647766113e+00
1.627000000000000000e+03 2.758867263793945312e+01 -6.532951354980468750e+00 3.007732391357421875e+00 2.384041547775268555e+00 1.617532253265380859e+00 -2.405057907104492188e+00
1.628000000000000000e+03 4.182214355468750000e+01 -2.356578445434570312e+01 2.006821393966674805e+00 8.679093360900878906e+00 3.205774545669555664e+00 4.941904917359352112e-02
1.629000000000000000e+03 9.181771278381347656e+00 -1.475108146667480469e+01 1.176450252532958984e+00 2.648790121078491211e+00 1.147572159767150879e+00 2.451435476541519165e-01
1.630000000000000000e+03 6.746253204345703125e+01 2.641370391845703125e+01 -1.264812111854553223e+00 4.935337066650390625e+00 1.101157426834106445e+00 -1.186779737472534180e+00
1.631000000000000000e+03 6.391972351074218750e+01 -8.806524276733398438e+00 -3.010953217744827271e-02 2.281032562255859375e+00 6.752769351005554199e-01 -1.249943017959594727e+00
1.632000000000000000e+03 5.167421340942382812e+01 -3.200166702270507812e+01 -4.408930540084838867e-01 2.393547773361206055e+00 5.857964158058166504e-01 -1.702046036720275879e+00
1.633000000000000000e+03 3.063949012756347656e+01 -1.259138870239257812e+01 8.965263366699218750e-01 1.172375917434692383e+00 6.206706762313842773e-01 -2.248690128326416016e+00
1.634000000000000000e+03 2.972741889953613281e+01 -1.239447975158691406e+01 6.528398990631103516e-01 8.707188963890075684e-01 4.570676386356353760e-01 -2.029647827148437500e+00
1.635000000000000000e+03 5.119197082519531250e+01 -2.984531641006469727e+00 1.531491160392761230e+00 1.767799854278564453e+00 9.897872805595397949e-01 1.276953965425491333e-01
1.636000000000000000e+03 4.811754608154296875e+01 -6.077855110168457031e+00 -7.480787038803100586e-01 6.062303066253662109e+00 1.594267249107360840e+00 8.684908151626586914e-01
1.637000000000000000e+03 2.819686698913574219e+01 -1.265877628326416016e+01 -2.059647440910339355e-01 5.713695883750915527e-01 1.096214503049850464e-01 -1.402795553207397461e+00
1.638000000000000000e+03 1.474726486206054688e+01 1.902931404113769531e+01 3.763759136199951172e-01 4.184980392456054688e+00 1.368406891822814941e+00 -9.868317842483520508e-01
1.639000000000000000e+03 5.150680541992187500e+01 -4.160408020019531250e+00 1.136526226997375488e+00 1.430289745330810547e+00 7.700448036193847656e-01 3.889479041099548340e-01
1.640000000000000000e+03 5.202664184570312500e+01 2.619625473022460938e+01 -1.179291009902954102e+00 4.264945983886718750e+00 9.256964921951293945e-01 1.739371895790100098e+00
1.641000000000000000e+03 4.992358016967773438e+01 -3.493421316146850586e+00 9.462558031082153320e-01 3.331783056259155273e+00 1.283411622047424316e+00 1.760276556015014648e-01
1.642000000000000000e+03 3.768011856079101562e+01 -1.798937606811523438e+01 2.160327196121215820e+00 8.437883377075195312e+00 3.179463386535644531e+00 -7.570034265518188477e-01
1.643000000000000000e+03 7.061917877197265625e+01 -2.080371093750000000e+01 1.655785322189331055e+00 1.054521656036376953e+01 3.660300731658935547e+00 -4.324318766593933105e-01
1.644000000000000000e+03 5.704685974121093750e+01 -6.490083694458007812e+00 3.869175910949707031e-02 6.462293677031993866e-04 1.180139649659395218e-02 -1.476427167654037476e-01
1.645000000000000000e+03 7.845946311950683594e+00 -4.109853363037109375e+01 -1.194815039634704590e-01 9.055067300796508789e-01 2.358075678348541260e-01 3.166403993964195251e-02
1.646000000000000000e+03 5.000369548797607422e+00 4.030189514160156250e+01 -8.343052119016647339e-02 1.330751299858093262e+00 3.741962313652038574e-01 -7.260879129171371460e-02
1.647000000000000000e+03 2.071727371215820312e+01 -3.256256103515625000e+00 3.356365919113159180e+00 3.547992706298828125e+00 2.071307659149169922e+00 2.841694116592407227e+00
1.648000000000000000e+03 2.047404289245605469e+01 -3.917730331420898438e+00 2.662638664245605469e+00 3.139908075332641602e+00 1.740764021873474121e+00 2.518320322036743164e+00
1.649000000000000000e+03 2.083893203735351562e+01 -4.188278675079345703e+00 2.155709266662597656e+00 4.435999870300292969e+00 1.977512717247009277e+00 2.366507768630981445e+00
1.650000000000000000e+03 2.131608772277832031e+01 -3.756770133972167969e+00 2.065195322036743164e+00 6.566964149475097656e+00 2.589647769927978516e+00 2.363867759704589844e+00
1.651000000000000000e+03 2.562751007080078125e+01 -4.314200878143310547e+00 4.138906478881835938e+00 2.166926383972167969e+00 1.891749858856201172e+00 -3.433608770370483398e+00
1.652000000000000000e+03 2.235590934753417969e+01 -4.078013420104980469e+00 1.207047343254089355e+00 8.377526283264160156e+00 2.875371932983398438e+00 -6.314322948455810547e-01
1.653000000000000000e+03 2.249860382080078125e+01 -3.761433601379394531e+00 1.449488043785095215e+00 9.442319869995117188e+00 3.267542362213134766e+00 -1.308244705200195312e+00
1.654000000000000000e+03 2.344532203674316406e+01 -3.337747335433959961e+00 3.514713764190673828e+00 7.800153732299804688e+00 3.394460201263427734e+00 -4.546777725219726562e+00
1.655000000000000000e+03 2.444235038757324219e+01 -2.232838153839111328e+00 5.982599735260009766e+00 3.359255075454711914e+00 2.802556514739990234e+00 -4.254613399505615234e+00
1.656000000000000000e+03 2.085959243774414062e+01 9.619678258895874023e-01 -8.014509081840515137e-01 8.157916069030761719e+00 2.206939697265625000e+00 -5.747436523437500000e+00
1.657000000000000000e+03 2.171078872680664062e+01 7.003190517425537109e-01 -1.695282936096191406e+00 1.132333564758300781e+01 2.888416051864624023e+00 -5.419143676757812500e+00
1.658000000000000000e+03 2.054911613464355469e+01 1.297414898872375488e+00 -6.418043375015258789e-01 7.411058902740478516e+00 2.030776262283325195e+00 -5.304027557373046875e+00
1.659000000000000000e+03 1.973905181884765625e+01 9.176207184791564941e-01 -4.220014512538909912e-01 4.508494377136230469e+00 1.225947976112365723e+00 -4.072378158569335938e+00
1.660000000000000000e+03 2.208959770202636719e+01 4.551505148410797119e-01 -2.011071681976318359e+00 1.298644542694091797e+01 3.292612075805664062e+00 -4.529038429260253906e+00
1.661000000000000000e+03 2.292313957214355469e+01 3.814394772052764893e-01 -1.115703940391540527e+00 1.071649456024169922e+01 2.880237340927124023e+00 -1.717765450477600098e+00
1.662000000000000000e+03 1.874763107299804688e+01 -4.133579254150390625e+00 2.114049196243286133e+00 5.315663814544677734e-01 7.936846613883972168e-01 1.477288961410522461e+00
1.663000000000000000e+03 1.802067184448242188e+01 -4.043423652648925781e+00 1.708099126815795898e+00 1.586446166038513184e-01 5.600231289863586426e-01 1.179777741432189941e+00
1.664000000000000000e+03 1.933517265319824219e+01 1.131707549095153809e+00 -4.652284979820251465e-01 4.060501098632812500e+00 1.078581809997558594e+00 -3.621494054794311523e+00
1.665000000000000000e+03 2.520768547058105469e+01 -2.179944038391113281e+00 4.438924789428710938e+00 3.565852642059326172e-01 1.438653111457824707e+00 -2.871826887130737305e+00
1.666000000000000000e+03 1.036704826354980469e+01 -4.241199970245361328e+00 -2.754659950733184814e-01 3.759458959102630615e-01 3.014397062361240387e-02 1.241009682416915894e-01
1.667000000000000000e+03 9.664356231689453125e+00 -4.192293643951416016e+00 -3.114715218544006348e-01 3.754444122314453125e-01 1.919187605381011963e-02 1.540885027498006821e-02
1.668000000000000000e+03 1.705428123474121094e+01 -5.210278511047363281e+00 1.332281708717346191e+00 2.068165689706802368e-01 4.617294967174530029e-01 1.465638041496276855e+00
1.669000000000000000e+03 1.755226516723632812e+01 -4.033952236175537109e+00 1.488829374313354492e+00 5.490011349320411682e-02 4.631188511848449707e-01 1.074090480804443359e+00
1.670000000000000000e+03 1.936030197143554688e+01 1.595139265060424805e+00 -1.534182131290435791e-01 4.923323631286621094e+00 1.430971622467041016e+00 -3.639340162277221680e+00
1.671000000000000000e+03 1.450920295715332031e+01 -3.888133525848388672e+00 3.198615610599517822e-01 5.204659700393676758e-02 1.115724518895149231e-01 6.731765866279602051e-01
1.672000000000000000e+03 1.520194435119628906e+01 -4.589094638824462891e+00 6.601606011390686035e-01 7.982905954122543335e-02 2.219968885183334351e-01 9.608427286148071289e-01
1.673000000000000000e+03 1.108364295959472656e+01 -4.305169105529785156e+00 -2.067736834287643433e-01 3.744087815284729004e-01 5.029052868485450745e-02 2.504216134548187256e-01
1.674000000000000000e+03 1.615966987609863281e+01 7.487074375152587891e+00 2.794267892837524414e+00 5.180335521697998047e+00 2.392380952835083008e+00 -2.217477083206176758e+00
1.675000000000000000e+03 1.568215656280517578e+01 2.409336328506469727e+00 -4.540730416774749756e-01 1.096179008483886719e+00 1.926317811012268066e-01 -1.691936105489730835e-01
1.676000000000000000e+03 1.776752471923828125e+01 3.791091918945312500e+00 1.874955296516418457e+00 4.757836818695068359e+00 1.989837646484375000e+00 -2.327395439147949219e+00
1.677000000000000000e+03 1.179808998107910156e+01 -4.369380950927734375e+00 -1.238624379038810730e-01 3.410306870937347412e-01 6.515047699213027954e-02 3.771903514862060547e-01
1.678000000000000000e+03 1.441862964630126953e+01 3.453190088272094727e+00 3.622778952121734619e-01 9.087562561035156250e-01 3.813102543354034424e-01 8.871828019618988037e-02
1.679000000000000000e+03 1.369829177856445312e+01 3.532351732254028320e+00 1.505721956491470337e-01 5.152991414070129395e-01 1.997613906860351562e-01 3.799778223037719727e-01
1.680000000000000000e+03 1.620545768737792969e+01 5.211625099182128906e+00 2.391942501068115234e+00 3.645371437072753906e+00 1.811194181442260742e+00 -1.614586472511291504e+00
1.681000000000000000e+03 1.250052452087402344e+01 -4.423819541931152344e+00 -7.125842850655317307e-03 3.001184165477752686e-01 8.789777010679244995e-02 5.048258304595947266e-01
1.682000000000000000e+03 5.438109397888183594e+00 -4.073011875152587891e+00 -2.312197834253311157e-01 5.811458826065063477e-02 -5.193156003952026367e-02 -3.821433484554290771e-01
1.683000000000000000e+03 6.883080005645751953e+00 -4.147001266479492188e+00 -2.918867766857147217e-01 1.924203038215637207e-01 -2.983994223177433014e-02 -3.099066615104675293e-01
1.684000000000000000e+03 7.713355064392089844e+00 -4.965523719787597656e+00 -2.562599778175354004e-01 3.462650179862976074e-01 2.700151130557060242e-02 -2.505701780319213867e-01
1.685000000000000000e+03 3.739623785018920898e+00 -8.394970893859863281e+00 -8.504194207489490509e-03 -2.422987520694732666e-01 -7.524088770151138306e-02 -5.200342535972595215e-01
1.686000000000000000e+03 3.780196905136108398e+00 -6.323946952819824219e+00 -7.539889961481094360e-02 -1.783829331398010254e-01 -7.613454759120941162e-02 -4.743297696113586426e-01
1.687000000000000000e+03 2.843430519104003906e+00 -5.941370964050292969e+00 -5.686772614717483521e-02 -3.159419894218444824e-01 -1.118429154157638550e-01 -4.141931831836700439e-01
1.688000000000000000e+03 8.894320487976074219e+00 -3.379925489425659180e+00 -4.094520509243011475e-01 2.466996312141418457e-01 -4.882572218775749207e-02 -9.567715972661972046e-02
1.689000000000000000e+03 8.543606758117675781e+00 5.244569778442382812e+00 2.370275855064392090e-01 -2.950104176998138428e-01 -1.739485375583171844e-02 1.078876733779907227e+00
1.690000000000000000e+03 1.021554470062255859e+01 3.255851984024047852e+00 -7.191022038459777832e-01 -3.479668498039245605e-01 -3.201207220554351807e-01 1.170586466789245605e+00
1.691000000000000000e+03 4.415023326873779297e+00 7.110454559326171875e+00 2.524445652961730957e-01 -7.445535063743591309e-01 -1.476326882839202881e-01 8.176523447036743164e-01
1.692000000000000000e+03 7.862240314483642578e+00 3.333993911743164062e+00 -7.027622461318969727e-01 -3.314847350120544434e-01 -3.102740943431854248e-01 1.205317974090576172e+00
1.693000000000000000e+03 7.343227863311767578e+00 4.122485160827636719e+00 -3.220607638359069824e-01 -3.638550639152526855e-01 -2.057747393846511841e-01 1.180927753448486328e+00
1.694000000000000000e+03 8.077597618103027344e+00 4.048343181610107422e+00 -3.236809372901916504e-01 -3.470513820648193359e-01 -2.012196928262710571e-01 1.207504868507385254e+00
1.695000000000000000e+03 8.844946861267089844e+00 4.019843578338623047e+00 -2.803398966789245605e-01 -3.492916822433471680e-01 -1.888894736766815186e-01 1.204086542129516602e+00
1.696000000000000000e+03 5.410612106323242188e+00 5.619797706604003906e+00 7.410080730915069580e-02 -5.305219888687133789e-01 -1.369263529777526855e-01 1.009403824806213379e+00
1.697000000000000000e+03 4.868234634399414062e+00 3.541553020477294922e+00 -3.972443044185638428e-01 -3.336039781570434570e-01 -2.192544788122177124e-01 9.196254611015319824e-01
1.698000000000000000e+03 2.559810876846313477e+00 5.655870437622070312e+00 6.601825822144746780e-03 -8.159413933753967285e-01 -2.428018599748611450e-01 6.619382500648498535e-01
1.699000000000000000e+03 1.186174869537353516e+01 3.152781248092651367e+00 -6.562230587005615234e-01 -1.533063650131225586e-01 -2.428588271141052246e-01 9.496957063674926758e-01
1.700000000000000000e+03 3.409653663635253906e+00 3.993602752685546875e+00 -1.848211884498596191e-01 -4.654181897640228271e-01 -1.950718164443969727e-01 7.368100285530090332e-01
1.701000000000000000e+03 3.462198019027709961e+00 5.971266746520996094e+00 4.395029693841934204e-02 -7.534293532371520996e-01 -2.128437161445617676e-01 7.948265671730041504e-01
1.702000000000000000e+03 2.846133470535278320e+00 4.649675369262695312e+00 -7.908133417367935181e-02 -6.218168139457702637e-01 -2.102694362401962280e-01 6.921644806861877441e-01
1.703000000000000000e+03 1.318928718566894531e+01 -4.466640472412109375e+00 1.182869151234626770e-01 2.480016499757766724e-01 1.098865717649459839e-01 6.222088932991027832e-01
1.704000000000000000e+03 1.387074565887451172e+01 -4.508700370788574219e+00 2.756708264350891113e-01 1.919176876544952393e-01 1.402765512466430664e-01 7.464575171470642090e-01
1.705000000000000000e+03 1.296311855316162109e+01 3.848573207855224609e+00 2.851848900318145752e-01 3.094723820686340332e-01 1.783971786499023438e-01 5.421311259269714355e-01
1.706000000000000000e+03 2.013563156127929688e+01 2.341435670852661133e+00 5.216609835624694824e-01 7.381278991699218750e+00 2.370882034301757812e+00 -4.433724403381347656e+00
1.707000000000000000e+03 9.794942855834960938e+00 4.780840873718261719e+00 2.645131647586822510e-01 -2.300918400287628174e-01 1.032639667391777039e-02 1.023645639419555664e+00
1.708000000000000000e+03 1.119347763061523438e+01 3.986203193664550781e+00 1.523065753281116486e-02 -1.040535271167755127e-01 -2.664685994386672974e-02 9.259439110755920410e-01
1.709000000000000000e+03 2.168688201904296875e+01 1.566073298454284668e+00 -1.299812793731689453e+00 1.023425102233886719e+01 2.680331468582153320e+00 -4.766223430633544922e+00
1.710000000000000000e+03 2.971790122985839844e+01 -1.097620773315429688e+01 9.312016963958740234e-01 1.308026790618896484e+00 6.717685461044311523e-01 -2.478387832641601562e+00
1.711000000000000000e+03 2.179281234741210938e+01 -1.112273216247558594e+01 -9.614501595497131348e-01 8.024827241897583008e-01 -4.769024252891540527e-02 4.108910560607910156e-01
1.712000000000000000e+03 1.695194625854492188e+01 -1.127261829376220703e+01 -3.735836148262023926e-01 -3.432811498641967773e-01 -2.150594294071197510e-01 1.880958557128906250e+00
1.713000000000000000e+03 2.443087387084960938e+01 -3.149076938629150391e+00 4.542638778686523438e+00 3.735586404800415039e+00 2.483467578887939453e+00 -4.737980842590332031e+00
1.714000000000000000e+03 2.438500404357910156e+01 -3.530328989028930664e+00 4.312068939208984375e+00 4.255027294158935547e+00 2.570128917694091797e+00 -4.548723697662353516e+00
1.715000000000000000e+03 2.078025817871093750e+01 1.625077605247497559e+00 -6.741617321968078613e-01 8.406565666198730469e+00 2.319721221923828125e+00 -5.096573352813720703e+00
1.716000000000000000e+03 1.989915084838867188e+01 1.380645036697387695e+00 -3.359345197677612305e-01 6.061999797821044922e+00 1.717819571495056152e+00 -4.391877174377441406e+00
1.717000000000000000e+03 4.155944061279296875e+01 1.441494560241699219e+01 2.512122988700866699e-01 5.531444072723388672e+00 1.734796881675720215e+00 -1.150681138038635254e+00
1.718000000000000000e+03 4.037627792358398438e+01 1.737412261962890625e+01 -5.075037479400634766e-02 3.918446779251098633e+00 1.160308957099914551e+00 -1.133416175842285156e+00
1.719000000000000000e+03 6.251874923706054688e+01 -8.073698997497558594e+00 1.302493661642074585e-01 1.471511244773864746e+00 4.805281758308410645e-01 -8.095788955688476562e-01
1.720000000000000000e+03 2.053918457031250000e+01 -9.779530525207519531e+00 -1.997203230857849121e-01 9.062668085098266602e-01 2.119639515876770020e-01 9.538040161132812500e-01
1.721000000000000000e+03 2.053779602050781250e+01 -1.158431720733642578e+01 -1.297732710838317871e+00 2.958554327487945557e-01 -3.005631566047668457e-01 7.366966605186462402e-01
1.722000000000000000e+03 4.649082946777343750e+01 1.406520843505859375e+01 7.127168178558349609e-01 9.421417236328125000e+00 3.040240049362182617e+00 1.488979816436767578e+00
1.723000000000000000e+03 2.013213729858398438e+01 3.230104446411132812e+00 1.864626765251159668e+00 8.311961174011230469e+00 3.052976369857788086e+00 -4.471133708953857422e+00
1.724000000000000000e+03 1.905743789672851562e+01 3.158310651779174805e+00 1.620108604431152344e+00 6.415821552276611328e+00 2.410778999328613281e+00 -3.300046682357788086e+00
1.725000000000000000e+03 6.346051025390625000e+01 2.000710487365722656e+00 5.573380589485168457e-01 2.525408506393432617e+00 9.248239398002624512e-01 8.065513372421264648e-01
1.726000000000000000e+03 3.826370620727539062e+01 -8.001793861389160156e+00 1.708697080612182617e-01 4.588307857513427734e+00 1.427753210067749023e+00 8.941749334335327148e-01
1.727000000000000000e+03 3.696707916259765625e+01 -8.136606216430664062e+00 6.249557137489318848e-01 3.232111454010009766e+00 1.157120108604431152e+00 1.779970079660415649e-01
1.728000000000000000e+03 1.758258247375488281e+01 6.482682228088378906e+00 3.099699735641479492e+00 6.638908863067626953e+00 2.921582460403442383e+00 -3.023435831069946289e+00
1.729000000000000000e+03 4.621800994873046875e+01 1.018134307861328125e+01 8.455606102943420410e-01 1.122440052032470703e+01 3.620988130569458008e+00 1.922168612480163574e+00
1.730000000000000000e+03 6.238428115844726562e+01 1.060483932495117188e+00 7.734928131103515625e-01 1.901502966880798340e+00 8.024987578392028809e-01 6.029484868049621582e-01
1.731000000000000000e+03 6.130340957641601562e+01 9.061627089977264404e-02 1.001129984855651855e+00 1.341276168823242188e+00 7.027218341827392578e-01 4.028487503528594971e-01
1.732000000000000000e+03 6.582851409912109375e+01 5.699395179748535156e+00 2.704469561576843262e-01 4.536117076873779297e+00 1.441969156265258789e+00 1.489221692085266113e+00
1.733000000000000000e+03 6.960096740722656250e+01 7.038711071014404297e+00 -2.496879249811172485e-01 7.654641151428222656e+00 2.221486091613769531e+00 4.218846261501312256e-01
1.734000000000000000e+03 2.471901702880859375e+01 -1.236185550689697266e+01 -1.191733837127685547e+00 6.032180190086364746e-01 -1.765547394752502441e-01 -3.853211998939514160e-01
1.735000000000000000e+03 2.521675300598144531e+01 -4.818156242370605469e+00 3.441458463668823242e+00 3.069230079650878906e+00 1.953206539154052734e+00 -3.449556350708007812e+00
1.736000000000000000e+03 1.340921783447265625e+01 -1.031680107116699219e+01 4.523361846804618835e-02 2.086834669113159180e+00 6.396204829216003418e-01 1.565729498863220215e+00
1.737000000000000000e+03 3.565856552124023438e+01 -8.466317176818847656e+00 1.149393916130065918e+00 2.150915622711181641e+00 9.900928139686584473e-01 -6.253218650817871094e-01
1.738000000000000000e+03 3.429395675659179688e+01 -1.464699363708496094e+01 1.650658726692199707e+00 3.926614761352539062e+00 1.673182010650634766e+00 -2.185382366180419922e+00
1.739000000000000000e+03 2.615183448791503906e+01 -4.995460510253906250e+00 3.759910583496093750e+00 2.180428028106689453e+00 1.782101511955261230e+00 -3.062050342559814453e+00
1.740000000000000000e+03 2.669210243225097656e+01 -1.227390766143798828e+01 -5.416883826255798340e-01 7.340340614318847656e-01 5.770370364189147949e-02 -1.148711562156677246e+00
1.741000000000000000e+03 5.434805679321289062e+01 -3.380337715148925781e+00 1.534454345703125000e+00 1.241784989833831787e-01 4.975898563861846924e-01 7.824173569679260254e-02
1.742000000000000000e+03 5.230657196044921875e+01 -5.802088737487792969e+00 3.101153671741485596e-01 5.440766811370849609e-01 2.562576234340667725e-01 4.631782472133636475e-01
1.743000000000000000e+03 1.446177482604980469e+01 -1.035949897766113281e+01 5.015257745981216431e-02 1.632928013801574707e+00 5.049241781234741211e-01 2.021281003952026367e+00
1.744000000000000000e+03 1.255542087554931641e+01 -9.139620780944824219e+00 1.112193148583173752e-02 1.714491844177246094e+00 5.176841616630554199e-01 1.174664258956909180e+00
1.745000000000000000e+03 6.617655944824218750e+01 -3.045002555847167969e+01 -8.656148314476013184e-01 4.412027359008789062e+00 1.063923716545104980e+00 8.782081007957458496e-01
1.746000000000000000e+03 7.569024658203125000e+01 1.422604942321777344e+01 5.987440943717956543e-01 7.566327095031738281e+00 2.449521303176879883e+00 1.433948278427124023e-01
1.747000000000000000e+03 7.543627929687500000e+01 -8.913142681121826172e-01 -2.721284031867980957e-01 7.520050048828125000e+00 2.174376487731933594e+00 -6.133143603801727295e-02
1.748000000000000000e+03 7.601150512695312500e+01 -7.963473320007324219e+00 -2.567034959793090820e-01 7.543342113494873047e+00 2.185991525650024414e+00 6.674359440803527832e-01
1.749000000000000000e+03 7.556433868408203125e+01 -3.718994379043579102e+00 -3.038108348846435547e-01 7.550681114196777344e+00 2.174061059951782227e+00 2.060920149087905884e-01
1.750000000000000000e+03 7.561994171142578125e+01 -5.155451297760009766e+00 -3.212832808494567871e-01 7.585341930389404297e+00 2.179217576980590820e+00 3.561368882656097412e-01
1.751000000000000000e+03 7.674647521972656250e+01 1.809860944747924805e+00 -1.392052024602890015e-01 7.703414916992187500e+00 2.269263029098510742e+00 -2.536003887653350830e-01
1.752000000000000000e+03 7.542507171630859375e+01 1.904088616371154785e+00 -2.467241734266281128e-01 7.543138980865478516e+00 2.188924551010131836e+00 -2.890230715274810791e-01
1.753000000000000000e+03 7.538002777099609375e+01 6.359916687011718750e+00 -9.166057407855987549e-02 7.616606712341308594e+00 2.257483959197998047e+00 -5.510791540145874023e-01
1.754000000000000000e+03 7.485104370117187500e+01 -1.138467788696289062e+01 -9.978133440017700195e-02 7.672244548797607422e+00 2.271739006042480469e+00 9.610879421234130859e-01
1.755000000000000000e+03 7.693466949462890625e+01 8.809667587280273438e+00 3.222297877073287964e-02 7.307995796203613281e+00 2.202065467834472656e+00 -5.408340692520141602e-01
1.756000000000000000e+03 7.551478576660156250e+01 7.749038696289062500e+00 -3.498421236872673035e-02 7.624502658843994141e+00 2.276855468750000000e+00 -6.171895265579223633e-01
1.757000000000000000e+03 7.538460540771484375e+01 3.393650531768798828e+00 -2.242712378501892090e-01 7.559190273284912109e+00 2.200475692749023438e+00 -3.689704239368438721e-01
1.758000000000000000e+03 7.554988098144531250e+01 4.887955486774444580e-01 -2.408454418182373047e-01 7.549903869628906250e+00 2.192717552185058594e+00 -1.571884900331497192e-01
1.759000000000000000e+03 7.030606079101562500e+01 6.024857044219970703e+00 -2.495137751102447510e-01 7.358876705169677734e+00 2.132808923721313477e+00 2.197061032056808472e-01
1.760000000000000000e+03 7.539698791503906250e+01 -1.668001747131347656e+01 7.892173528671264648e-01 7.265309333801269531e+00 2.416357994079589844e+00 3.805728852748870850e-01
1.761000000000000000e+03 7.431917572021484375e+01 -1.449660682678222656e+01 6.103123426437377930e-01 7.784171104431152344e+00 2.518345117568969727e+00 8.504756093025207520e-01
1.762000000000000000e+03 7.591104125976562500e+01 -1.180713558197021484e+01 1.979021355509757996e-02 7.343924999237060547e+00 2.209114551544189453e+00 9.569660425186157227e-01
1.763000000000000000e+03 7.694808959960937500e+01 1.016664123535156250e+01 1.729694753885269165e-01 7.202895641326904297e+00 2.212759494781494141e+00 -4.415866434574127197e-01
1.764000000000000000e+03 7.556481170654296875e+01 1.157998180389404297e+01 4.135131835937500000e-01 7.589336395263671875e+00 2.400854825973510742e+00 -3.050182461738586426e-01
1.765000000000000000e+03 7.687120056152343750e+01 -1.939389801025390625e+01 3.891412317752838135e-01 6.554678440093994141e+00 2.083145856857299805e+00 -3.550142049789428711e-01
1.766000000000000000e+03 7.431425476074218750e+01 -1.815330123901367188e+01 1.185270905494689941e+00 7.814626216888427734e+00 2.699969053268432617e+00 -6.558332592248916626e-02
1.767000000000000000e+03 7.680281829833984375e+01 -1.799539375305175781e+01 4.887974560260772705e-01 6.522925376892089844e+00 2.103516817092895508e+00 -3.048149310052394867e-02
1.768000000000000000e+03 7.485703277587890625e+01 -1.550894546508789062e+01 6.697783470153808594e-01 7.513618946075439453e+00 2.455019235610961914e+00 5.944641232490539551e-01
1.769000000000000000e+03 7.420213317871093750e+01 3.066999626159667969e+01 -3.360989391803741455e-01 7.776709079742431641e+00 2.232182979583740234e+00 -1.229927167296409607e-01
1.770000000000000000e+03 7.667887878417968750e+01 1.701422119140625000e+01 3.160537481307983398e-01 7.485789775848388672e+00 2.340553045272827148e+00 6.439639925956726074e-01
1.771000000000000000e+03 7.372067260742187500e+01 1.772834014892578125e+01 7.957302331924438477e-01 8.453481674194335938e+00 2.774763584136962891e+00 9.077888727188110352e-01
1.772000000000000000e+03 7.541387939453125000e+01 2.000520324707031250e+01 1.556167006492614746e-01 8.154872894287109375e+00 2.493146896362304688e+00 1.100672721862792969e+00
1.773000000000000000e+03 7.540027618408203125e+01 1.877650451660156250e+01 3.785342276096343994e-01 7.989655971527099609e+00 2.510457038879394531e+00 1.110238790512084961e+00
1.774000000000000000e+03 7.129998779296875000e+01 1.751454162597656250e+01 1.210854053497314453e+00 9.780746459960937500e+00 3.297480106353759766e+00 1.017033219337463379e+00
1.775000000000000000e+03 7.475262451171875000e+01 -2.908805274963378906e+01 -4.410696923732757568e-01 7.762516498565673828e+00 2.196434020996093750e+00 -7.022981643676757812e-01
1.776000000000000000e+03 7.298811340332031250e+01 -2.456785392761230469e+01 -1.312887370586395264e-01 8.328808784484863281e+00 2.459256172180175781e+00 -1.094869256019592285e+00
1.777000000000000000e+03 7.688991546630859375e+01 2.217564964294433594e+01 -1.071242392063140869e-01 8.213202476501464844e+00 2.431823492050170898e+00 9.307881593704223633e-01
1.778000000000000000e+03 7.538352203369140625e+01 -2.601019668579101562e+01 -1.802414953708648682e-01 7.749310016632080078e+00 2.270720481872558594e+00 -1.082957029342651367e+00
1.779000000000000000e+03 7.665576934814453125e+01 -2.621452331542968750e+01 -1.384217292070388794e-01 7.558041095733642578e+00 2.225885868072509766e+00 -9.279065728187561035e-01
1.780000000000000000e+03 7.568584442138671875e+01 -2.333504104614257812e+01 1.554335504770278931e-01 7.482535839080810547e+00 2.291390895843505859e+00 -1.123411655426025391e+00
1.781000000000000000e+03 7.675996398925781250e+01 2.339402961730957031e+01 -1.930768042802810669e-01 8.370476722717285156e+00 2.453220129013061523e+00 7.909234166145324707e-01
1.782000000000000000e+03 7.620419311523437500e+01 2.607189559936523438e+01 -3.534578680992126465e-01 8.534907341003417969e+00 2.454434871673583984e+00 4.908412098884582520e-01
1.783000000000000000e+03 7.471929931640625000e+01 2.594434738159179688e+01 -5.310797095298767090e-01 8.264329910278320312e+00 2.319974899291992188e+00 5.187590718269348145e-01
1.784000000000000000e+03 7.603196716308593750e+01 2.916771316528320312e+01 -2.883091270923614502e-01 8.467200279235839844e+00 2.453667163848876953e+00 1.054366007447242737e-01
1.785000000000000000e+03 7.464649963378906250e+01 2.744498825073242188e+01 -5.567800998687744141e-01 8.217188835144042969e+00 2.298122644424438477e+00 2.314571589231491089e-01
1.786000000000000000e+03 7.309875488281250000e+01 -2.928986930847167969e+01 -6.707904338836669922e-01 7.623688697814941406e+00 2.085869550704956055e+00 -4.992023408412933350e-01
1.787000000000000000e+03 7.398239898681640625e+01 -3.669513702392578125e+01 -1.344952136278152466e-01 7.068952083587646484e+00 2.080337047576904297e+00 -6.683570891618728638e-02
1.788000000000000000e+03 7.617733001708984375e+01 -3.687525939941406250e+01 -1.327792704105377197e-01 8.069512367248535156e+00 2.381019830703735352e+00 -4.834952950477600098e-02
1.789000000000000000e+03 7.666652679443359375e+01 -3.502789688110351562e+01 -1.680281013250350952e-01 8.158425331115722656e+00 2.397119283676147461e+00 -1.003566384315490723e-01
1.790000000000000000e+03 7.471141052246093750e+01 -3.400717926025390625e+01 -2.657127678394317627e-01 7.429224491119384766e+00 2.149053573608398438e+00 -1.662159115076065063e-01
1.791000000000000000e+03 7.519171142578125000e+01 -3.557975006103515625e+01 -2.213715016841888428e-01 7.560294151306152344e+00 2.201676845550537109e+00 -1.493243873119354248e-01
1.792000000000000000e+03 7.443090820312500000e+01 2.898762893676757812e+01 -4.252118468284606934e-01 7.952675342559814453e+00 2.258239030838012695e+00 1.260493136942386627e-02
1.793000000000000000e+03 6.483540344238281250e+01 -3.159211921691894531e+01 -6.552079916000366211e-01 3.261887550354003906e+00 7.820038795471191406e-01 9.107446670532226562e-01
1.794000000000000000e+03 2.873374938964843750e+00 -1.650425910949707031e+01 2.256531119346618652e-01 -8.470554351806640625e-01 -1.864206939935684204e-01 7.563746720552444458e-02
1.795000000000000000e+03 4.175428867340087891e+00 -1.532590198516845703e+01 3.656061291694641113e-01 -1.835314482450485229e-01 5.462240800261497498e-02 -3.919646143913269043e-02
1.796000000000000000e+03 4.190023899078369141e+00 2.155262947082519531e+01 1.180902775377035141e-02 7.690361887216567993e-02 2.661379426717758179e-02 -7.754542231559753418e-01
1.797000000000000000e+03 6.443974494934082031e+00 -1.762259674072265625e+01 7.020866870880126953e-01 1.109211921691894531e+00 5.433896183967590332e-01 4.110309183597564697e-01
1.798000000000000000e+03 3.943613529205322266e+00 -1.664919662475585938e+01 3.611044585704803467e-01 -2.562701404094696045e-01 3.145029023289680481e-02 1.295900046825408936e-01
1.799000000000000000e+03 4.329474925994873047e+00 -2.071695518493652344e+01 2.508636415004730225e-01 2.153417468070983887e-01 1.398616135120391846e-01 6.855912804603576660e-01
1.800000000000000000e+03 4.146674156188964844e+00 2.288177490234375000e+01 -2.935457415878772736e-02 2.208553254604339600e-01 5.745022371411323547e-02 -7.659094333648681641e-01
1.801000000000000000e+03 7.313319683074951172e+00 -1.860809707641601562e+01 7.794607877731323242e-01 1.666542887687683105e+00 7.338011264801025391e-01 6.362046003341674805e-01
1.802000000000000000e+03 7.388588428497314453e+00 -1.652322196960449219e+01 9.050233364105224609e-01 1.604597449302673340e+00 7.528862357139587402e-01 2.956845462322235107e-01
1.803000000000000000e+03 4.231759548187255859e+00 1.603693771362304688e+01 2.709414362907409668e-01 -5.476213693618774414e-01 -8.300397545099258423e-02 -4.913693368434906006e-01
1.804000000000000000e+03 4.231988906860351562e+00 2.021114349365234375e+01 7.348264753818511963e-02 -7.112228125333786011e-02 7.081095827743411064e-04 -7.696635127067565918e-01
1.805000000000000000e+03 3.053002119064331055e+00 1.748093032836914062e+01 1.119424924254417419e-01 -8.777497410774230957e-01 -2.297421842813491821e-01 -4.790841042995452881e-01
1.806000000000000000e+03 4.288259983062744141e+00 1.743738174438476562e+01 1.954405903816223145e-01 -3.902915418148040771e-01 -5.845528841018676758e-02 -6.140893697738647461e-01
1.807000000000000000e+03 4.405019283294677734e+00 -2.749734306335449219e+01 -1.700852364301681519e-01 7.486107349395751953e-01 1.735576540231704712e-01 6.677767038345336914e-01
1.808000000000000000e+03 2.993564844131469727e+00 -2.357657814025878906e+01 -5.866885650902986526e-03 -6.039416417479515076e-02 -1.987831480801105499e-02 6.497691869735717773e-01
1.809000000000000000e+03 4.161193370819091797e+00 -2.224568176269531250e+01 9.246069937944412231e-02 2.883023023605346680e-01 1.142288967967033386e-01 7.609859108924865723e-01
1.810000000000000000e+03 4.158579826354980469e+00 2.561522102355957031e+01 -9.213477373123168945e-02 5.422616004943847656e-01 1.350380629301071167e-01 -6.897793412208557129e-01
1.811000000000000000e+03 4.056213855743408203e+00 2.937356185913085938e+01 -1.174188256263732910e-01 8.658017516136169434e-01 2.245148718357086182e-01 -5.114565491676330566e-01
1.812000000000000000e+03 2.961840152740478516e+00 1.469431209564208984e+01 1.854035556316375732e-01 -1.202852487564086914e+00 -3.052347004413604736e-01 -2.242635339498519897e-01
1.813000000000000000e+03 4.149983882904052734e+00 1.464291572570800781e+01 3.369467258453369141e-01 -7.200907468795776367e-01 -1.149432063102722168e-01 -3.178660869598388672e-01
1.814000000000000000e+03 4.285146713256835938e+00 -2.491225433349609375e+01 -8.484698086977005005e-02 5.075945854187011719e-01 1.268242746591567993e-01 7.550432085990905762e-01
1.815000000000000000e+03 6.538398265838623047e+00 2.285752677917480469e+01 -7.311263680458068848e-02 9.419115185737609863e-01 2.606396675109863281e-01 -1.004427671432495117e+00
1.816000000000000000e+03 6.387693881988525391e+00 2.641986274719238281e+01 -2.288979738950729370e-01 1.121491670608520508e+00 2.677780985832214355e-01 -8.234494924545288086e-01
1.817000000000000000e+03 4.117246150970458984e+00 2.422716522216796875e+01 -6.020751968026161194e-02 3.789216876029968262e-01 9.561425447463989258e-02 -7.362471818923950195e-01
1.818000000000000000e+03 3.886150121688842773e+00 -9.596701622009277344e+00 3.859388828277587891e-02 -2.497158348560333252e-01 -6.333658844232559204e-02 -5.165905952453613281e-01
1.819000000000000000e+03 4.304837703704833984e+00 -1.380992317199707031e+01 3.205250501632690430e-01 -1.363013088703155518e-01 5.526711791753768921e-02 -2.621037662029266357e-01
1.820000000000000000e+03 5.230680942535400391e+00 1.193673419952392578e+01 5.496785640716552734e-01 -5.375449657440185547e-01 3.640079870820045471e-03 5.225438624620437622e-02
1.821000000000000000e+03 5.986714363098144531e+00 3.198008537292480469e+01 -2.218245416879653931e-01 1.248565912246704102e+00 3.080224096775054932e-01 -4.473936259746551514e-01
1.822000000000000000e+03 6.293493747711181641e+00 3.634896469116210938e+01 -1.781297922134399414e-01 1.332136273384094238e+00 3.462019264698028564e-01 -2.285873442888259888e-01
1.823000000000000000e+03 3.651448488235473633e+00 -3.042935943603515625e+01 -1.303506642580032349e-01 7.822086811065673828e-01 1.955574005842208862e-01 4.238537847995758057e-01
1.824000000000000000e+03 4.652425289154052734e+00 -2.880996894836425781e+01 -1.981584727764129639e-01 8.481597900390625000e-01 1.950004100799560547e-01 5.773230195045471191e-01
1.825000000000000000e+03 3.983813047409057617e+00 1.191374778747558594e+01 3.609885871410369873e-01 -9.288043379783630371e-01 -1.703447252511978149e-01 1.057123988866806030e-01
1.826000000000000000e+03 4.052529811859130859e+00 -1.089466476440429688e+01 1.121074035763740540e-01 -2.294939905405044556e-01 -3.521597757935523987e-02 -4.847473502159118652e-01
1.827000000000000000e+03 4.789564132690429688e+00 -6.003471374511718750e+00 -1.255554854869842529e-01 1.485595246776938438e-03 -3.722096607089042664e-02 -4.756446480751037598e-01
1.828000000000000000e+03 4.934593200683593750e+00 2.845609664916992188e+01 -1.631561666727066040e-01 9.390180706977844238e-01 2.327585667371749878e-01 -6.105665564537048340e-01
1.829000000000000000e+03 5.675830364227294922e+00 3.421887207031250000e+01 -1.843848824501037598e-01 1.275654554367065430e+00 3.273808956146240234e-01 -3.243932127952575684e-01
1.830000000000000000e+03 4.490993499755859375e+00 3.422424697875976562e+01 -1.078891828656196594e-01 1.182700037956237793e+00 3.224432468414306641e-01 -2.674446403980255127e-01
1.831000000000000000e+03 4.871027946472167969e+00 3.066331863403320312e+01 -1.679844111204147339e-01 1.084748148918151855e+00 2.750291228294372559e-01 -4.954592883586883545e-01
1.832000000000000000e+03 5.513763427734375000e+00 -3.181427192687988281e+01 -2.271503210067749023e-01 9.780370593070983887e-01 2.252660244703292847e-01 3.971500694751739502e-01
1.833000000000000000e+03 3.683292865753173828e+00 9.315979957580566406e+00 3.079543411731719971e-01 -1.007685780525207520e+00 -2.099194228649139404e-01 4.889106154441833496e-01
1.834000000000000000e+03 3.174132823944091797e+00 -4.987067699432373047e+00 -8.894536644220352173e-02 -2.181902229785919189e-01 -9.214067459106445312e-02 -3.959750533103942871e-01
1.835000000000000000e+03 4.506975173950195312e+00 4.425349235534667969e+00 -1.776386052370071411e-01 -4.758428037166595459e-01 -1.960444301366806030e-01 9.211828112602233887e-01
1.836000000000000000e+03 4.566598892211914062e+01 1.365956497192382812e+01 5.990843176841735840e-01 9.268158912658691406e+00 2.960172891616821289e+00 1.055701732635498047e+00
1.837000000000000000e+03 5.808861732482910156e+00 -3.591360855102539062e+01 -1.579511314630508423e-01 9.915180802345275879e-01 2.500700950622558594e-01 1.870258003473281860e-01
1.838000000000000000e+03 2.725715446472167969e+01 2.396548843383789062e+01 -1.100970387458801270e+00 3.377166017889976501e-02 -3.201596438884735107e-01 1.043604910373687744e-01
1.839000000000000000e+03 2.690465164184570312e+01 2.819236946105957031e+01 -3.337512016296386719e-01 6.594718098640441895e-01 9.771618247032165527e-02 1.425523906946182251e-01
1.840000000000000000e+03 3.385302734375000000e+01 -7.595570564270019531e+00 1.427195787429809570e+00 8.027630448341369629e-01 6.689876317977905273e-01 -1.662161827087402344e+00
1.841000000000000000e+03 3.568610763549804688e+01 -1.407144355773925781e+01 1.305301785469055176e+00 5.362807273864746094e+00 2.000432729721069336e+00 -1.655802965164184570e+00
1.842000000000000000e+03 4.054184722900390625e+01 -1.812507247924804688e+01 2.089213132858276367e+00 8.821189880371093750e+00 3.273120880126953125e+00 1.633599847555160522e-01
1.843000000000000000e+03 4.169517898559570312e+01 -2.178479576110839844e+01 2.249764442443847656e+00 9.068763732910156250e+00 3.395558595657348633e+00 -2.634849399328231812e-03
1.844000000000000000e+03 6.954505920410156250e+01 -2.712034797668457031e+01 -9.700073003768920898e-01 7.277134895324707031e+00 1.892138242721557617e+00 2.369275242090225220e-01
1.845000000000000000e+03 3.942805862426757812e+01 1.835115432739257812e+01 -1.368958055973052979e-01 3.174145936965942383e+00 9.111750721931457520e-01 -1.075569629669189453e+00
1.846000000000000000e+03 3.231034088134765625e+01 -7.664340496063232422e+00 1.743712067604064941e+00 9.245419502258300781e-01 8.004761934280395508e-01 -2.568083763122558594e+00
1.847000000000000000e+03 2.390718460083007812e+01 -3.013056516647338867e+00 4.810288429260253906e+00 5.846363544464111328e+00 3.196995496749877930e+00 -5.038940906524658203e+00
1.848000000000000000e+03 4.490509796142578125e+01 1.706607437133789062e+01 1.554497480392456055e-01 7.146673202514648438e+00 2.190636873245239258e+00 1.309614628553390503e-01
1.849000000000000000e+03 4.759219360351562500e+01 1.524492931365966797e+01 9.119794368743896484e-01 9.351010322570800781e+00 3.078896999359130859e+00 1.858408331871032715e+00
1.850000000000000000e+03 4.517222595214843750e+01 1.083377456665039062e+01 6.703856587409973145e-01 1.072957801818847656e+01 3.419989109039306641e+00 1.317130804061889648e+00
1.851000000000000000e+03 4.678083419799804688e+01 1.151047325134277344e+01 8.816410899162292480e-01 1.102246189117431641e+01 3.571230888366699219e+00 1.983938336372375488e+00
1.852000000000000000e+03 3.009800338745117188e+01 2.344658088684082031e+01 -9.674359560012817383e-01 2.388622611761093140e-01 -2.185721099376678467e-01 -1.842427253723144531e-01
1.853000000000000000e+03 7.096880340576171875e+01 1.631416511535644531e+01 1.581735968589782715e+00 9.997912406921386719e+00 3.473894596099853516e+00 4.949365556240081787e-01
1.854000000000000000e+03 7.376551818847656250e+01 1.494052886962890625e+01 1.007913470268249512e+00 8.439306259155273438e+00 2.834166049957275391e+00 3.188602626323699951e-01
1.855000000000000000e+03 2.814669227600097656e+01 2.490524673461914062e+01 -7.136633396148681641e-01 1.773864179849624634e-01 -1.608830839395523071e-01 -5.400397256016731262e-02
1.856000000000000000e+03 7.427212524414062500e+01 -1.706098365783691406e+01 1.098684906959533691e+00 7.826523780822753906e+00 2.677562713623046875e+00 2.298331558704376221e-01
1.857000000000000000e+03 1.447889900207519531e+01 1.441406631469726562e+01 1.255492806434631348e+00 4.749400615692138672e+00 1.801468014717102051e+00 -1.149581670761108398e+00
1.858000000000000000e+03 1.565959548950195312e+01 1.733143806457519531e+01 8.608829975128173828e-01 5.109522342681884766e+00 1.791121602058410645e+00 -6.719140410423278809e-01
1.859000000000000000e+03 4.414340209960937500e+01 -1.638932228088378906e+01 1.358508825302124023e+00 1.073924064636230469e+01 3.629324674606323242e+00 9.563959240913391113e-01
1.860000000000000000e+03 4.668045043945312500e+01 9.414323568344116211e-01 1.201788425445556641e+00 9.404279708862304688e+00 3.181820392608642578e+00 -6.831349432468414307e-02
1.861000000000000000e+03 3.848580551147460938e+01 1.933514022827148438e+01 -2.631771862506866455e-01 2.621582746505737305e+00 7.075216770172119141e-01 -9.995887875556945801e-01
1.862000000000000000e+03 5.764898300170898438e+01 2.714398574829101562e+01 -4.831195771694183350e-01 1.360504627227783203e+00 2.632155418395996094e-01 1.465056896209716797e+00
1.863000000000000000e+03 5.600759124755859375e+01 2.735058975219726562e+01 -6.461213827133178711e-01 2.253318309783935547e+00 4.821590483188629150e-01 1.804385185241699219e+00
1.864000000000000000e+03 1.476907157897949219e+01 1.327603244781494141e+01 1.401426434516906738e+00 5.027968406677246094e+00 1.928818345069885254e+00 -1.233558654785156250e+00
1.865000000000000000e+03 1.365173149108886719e+01 1.304311656951904297e+01 1.568350672721862793e+00 3.899015665054321289e+00 1.640209913253784180e+00 -1.238606214523315430e+00
1.866000000000000000e+03 1.492364025115966797e+01 1.198438262939453125e+01 1.665216565132141113e+00 5.184827804565429688e+00 2.055013418197631836e+00 -1.442210674285888672e+00
1.867000000000000000e+03 6.453723907470703125e+01 2.916066408157348633e+00 3.376219272613525391e-01 3.350217819213867188e+00 1.106351971626281738e+00 9.862011075019836426e-01
1.868000000000000000e+03 5.667862319946289062e+01 -5.673624038696289062e+00 4.113377928733825684e-01 -7.876724004745483398e-03 1.210383251309394836e-01 -1.749863326549530029e-01
1.869000000000000000e+03 5.543846130371093750e+01 -6.060069561004638672e+00 5.033811181783676147e-02 -2.846689224243164062e-01 -7.029924541711807251e-02 -2.077302336692810059e-01
1.870000000000000000e+03 4.781489944458007812e+01 1.889186096191406250e+01 3.694294989109039307e-01 7.487473964691162109e+00 2.357070922851562500e+00 9.840066432952880859e-01
1.871000000000000000e+03 4.418119049072265625e+01 1.572416687011718750e+01 1.913392245769500732e-01 7.301176548004150391e+00 2.247754812240600586e+00 -5.142739042639732361e-02
1.872000000000000000e+03 1.447184658050537109e+01 6.396122455596923828e+00 2.222652196884155273e+00 2.370149374008178711e+00 1.377840399742126465e+00 -9.020563364028930664e-01
1.873000000000000000e+03 3.854950332641601562e+01 -2.050123405456542969e+01 2.021310329437255859e+00 9.105992317199707031e+00 3.338190555572509766e+00 -1.922663003206253052e-01
1.874000000000000000e+03 7.081218719482421875e+01 1.937435913085937500e+01 7.979461550712585449e-01 9.269509315490722656e+00 3.020236730575561523e+00 9.730585217475891113e-01
1.875000000000000000e+03 7.207241058349609375e+01 2.033737182617187500e+01 -6.824167817831039429e-02 9.140181541442871094e+00 2.721581935882568359e+00 1.244312644004821777e+00
1.876000000000000000e+03 4.423607635498046875e+01 1.161767864227294922e+01 5.572330951690673828e-01 9.679855346679687500e+00 3.071126699447631836e+00 4.393295645713806152e-01
1.877000000000000000e+03 1.494990062713623047e+01 1.059414672851562500e+01 2.001903057098388672e+00 4.869878768920898438e+00 2.061534404754638672e+00 -1.653018474578857422e+00
1.878000000000000000e+03 4.932979202270507812e+01 -2.370826482772827148e+00 1.186933994293212891e+00 3.984743356704711914e+00 1.551503181457519531e+00 -3.252564668655395508e-01
1.879000000000000000e+03 4.560930252075195312e+01 -3.040503120422363281e+01 -5.410505533218383789e-01 6.492682456970214844e+00 1.785489559173583984e+00 -1.317747354507446289e+00
1.880000000000000000e+03 5.011699676513671875e+01 -3.293651962280273438e+01 -4.573584198951721191e-01 3.473170280456542969e+00 9.047435522079467773e-01 -1.638365983963012695e+00
1.881000000000000000e+03 4.662789916992187500e+01 -9.884736537933349609e-01 9.521733522415161133e-01 8.527883529663085938e+00 2.844017028808593750e+00 -1.741686612367630005e-01
1.882000000000000000e+03 5.455556488037109375e+01 2.793984985351562500e+01 -7.911246418952941895e-01 2.891010999679565430e+00 6.299659013748168945e-01 1.822161436080932617e+00
1.883000000000000000e+03 3.947328567504882812e+01 2.041721916198730469e+01 -3.761371076107025146e-01 3.261116743087768555e+00 8.654938936233520508e-01 -1.070628881454467773e+00
1.884000000000000000e+03 3.438141632080078125e+01 2.106127357482910156e+01 -6.908053755760192871e-01 9.361987113952636719e-01 7.361799478530883789e-02 -5.048428177833557129e-01
1.885000000000000000e+03 4.467393112182617188e+01 3.175533533096313477e+00 1.659232139587402344e+00 1.347691059112548828e+01 4.540843009948730469e+00 1.456520557403564453e+00
1.886000000000000000e+03 2.433514785766601562e+01 -3.543765640258789062e+01 -1.821321099996566772e-01 2.368450611829757690e-01 1.641388796269893646e-02 7.513722777366638184e-02
1.887000000000000000e+03 1.866585159301757812e+01 2.447471046447753906e+01 -1.136761426925659180e+00 2.804426908493041992e+00 5.002996325492858887e-01 6.278702020645141602e-01
1.888000000000000000e+03 3.153912734985351562e+01 -3.772279357910156250e+01 -6.620170474052429199e-01 2.857145786285400391e+00 6.585385799407958984e-01 7.748517990112304688e-01
1.889000000000000000e+03 3.167494201660156250e+01 -3.375196075439453125e+01 -4.509827494621276855e-01 2.616422891616821289e+00 6.496320366859436035e-01 1.316038012504577637e+00
1.890000000000000000e+03 1.979333305358886719e+01 -9.881436347961425781e+00 -1.487427204847335815e-01 6.081930994987487793e-01 1.378351151943206787e-01 1.173751473426818848e+00
1.891000000000000000e+03 7.446446990966796875e+01 -2.318266677856445312e+01 2.368072569370269775e-01 7.873658180236816406e+00 2.433139801025390625e+00 -1.146573305130004883e+00
1.892000000000000000e+03 6.916876983642578125e+01 -2.444805717468261719e+01 -6.146998405456542969e-01 8.885771751403808594e+00 2.481321573257446289e+00 3.453533649444580078e-01
1.893000000000000000e+03 6.369143676757812500e+01 2.676238632202148438e+01 -6.525063514709472656e-01 1.864973902702331543e+00 3.637402653694152832e-01 -6.696900129318237305e-01
1.894000000000000000e+03 3.978505706787109375e+01 -2.007170677185058594e+01 2.221112966537475586e+00 9.004093170166015625e+00 3.367561817169189453e+00 7.003138214349746704e-02
1.895000000000000000e+03 5.875686264038085938e+01 -7.429067134857177734e+00 -1.472260057926177979e-01 2.997105717658996582e-01 4.574536904692649841e-02 -9.720251709222793579e-02
1.896000000000000000e+03 5.593565750122070312e+01 -2.139530181884765625e+00 1.680868387222290039e+00 5.102407932281494141e-02 5.195677280426025391e-01 7.002927362918853760e-02
1.897000000000000000e+03 2.064613342285156250e+01 -3.525224304199218750e+01 -2.530011236667633057e-01 2.122912555932998657e-01 -1.221296098083257675e-02 -1.803385764360427856e-01
1.898000000000000000e+03 4.134248352050781250e+01 -1.739268875122070312e+01 1.942292094230651855e+00 8.965997695922851562e+00 3.272486925125122070e+00 3.638009130954742432e-01
1.899000000000000000e+03 7.032721710205078125e+01 1.054381465911865234e+01 9.447816014289855957e-01 9.326285362243652344e+00 3.081320047378540039e+00 4.920328557491302490e-01
1.900000000000000000e+03 1.663765907287597656e+01 2.866621017456054688e+00 4.966597259044647217e-01 2.127643823623657227e+00 7.872910499572753906e-01 -9.433344006538391113e-01
1.901000000000000000e+03 1.800872230529785156e+01 -3.197159385681152344e+01 -5.930995345115661621e-01 3.419109582901000977e-01 -7.535658031702041626e-02 -2.093926519155502319e-01
1.902000000000000000e+03 3.941830825805664062e+01 -7.777882099151611328e+00 -3.775401711463928223e-01 5.973143100738525391e+00 1.678680896759033203e+00 1.323409914970397949e+00
1.903000000000000000e+03 6.228091430664062500e+01 2.532930183410644531e+01 -1.169321179389953613e+00 4.684545695781707764e-01 -2.102599889039993286e-01 -1.240424662828445435e-01
1.904000000000000000e+03 4.216636657714843750e+01 -1.449602794647216797e+01 1.298613786697387695e+00 8.754951477050781250e+00 3.016069650650024414e+00 6.289983987808227539e-01
1.905000000000000000e+03 4.897279357910156250e+01 -7.109632492065429688e+00 -8.355301022529602051e-01 4.855505943298339844e+00 1.205992698669433594e+00 1.287358999252319336e+00
1.906000000000000000e+03 4.662974548339843750e+01 -7.868731975555419922e+00 -1.307500004768371582e+00 7.889711856842041016e+00 1.974663615226745605e+00 1.073737859725952148e+00
1.907000000000000000e+03 1.070407104492187500e+01 -3.006866073608398438e+01 -5.578521490097045898e-01 1.359811425209045410e+00 2.405877858400344849e-01 1.602106988430023193e-01
1.908000000000000000e+03 5.119269180297851562e+01 2.412410354614257812e+01 -1.041107058525085449e+00 5.154706001281738281e+00 1.234079599380493164e+00 1.589786529541015625e+00
1.909000000000000000e+03 2.969919204711914062e+01 -7.365489959716796875e+00 2.148777484893798828e+00 1.867468357086181641e+00 1.204873681068420410e+00 -2.850749731063842773e+00
1.910000000000000000e+03 1.667119026184082031e+01 -3.095252990722656250e+01 -5.893596410751342773e-01 5.371323823928833008e-01 -1.566818356513977051e-02 -1.691888868808746338e-01
1.911000000000000000e+03 1.695077133178710938e+01 -3.355866241455078125e+01 -4.427853524684906006e-01 4.874249398708343506e-01 1.339187007397413254e-02 -2.176521718502044678e-01
1.912000000000000000e+03 7.382468700408935547e+00 -2.064075279235839844e+01 4.779230952262878418e-01 1.763792037963867188e+00 6.725145578384399414e-01 8.020675182342529297e-01
1.913000000000000000e+03 9.291335105895996094e+00 -2.072258377075195312e+01 5.304799079895019531e-01 2.989342212677001953e+00 1.055946707725524902e+00 6.033627390861511230e-01
1.914000000000000000e+03 4.404994583129882812e+01 -5.597066134214401245e-02 1.769012331962585449e+00 1.214397621154785156e+01 4.173896789550781250e+00 1.284403204917907715e+00
1.915000000000000000e+03 1.104618740081787109e+01 -2.737157821655273438e+01 -5.169128775596618652e-01 1.705982327461242676e+00 3.567208647727966309e-01 1.628080159425735474e-01
1.916000000000000000e+03 1.133165550231933594e+01 -2.503110122680664062e+01 -2.925443947315216064e-01 2.239412069320678711e+00 5.840602517127990723e-01 4.834171012043952942e-02
1.917000000000000000e+03 4.594765853881835938e+01 -1.063022994995117188e+01 -1.476246565580368042e-01 9.048785209655761719e+00 2.670348167419433594e+00 1.227904319763183594e+00
1.918000000000000000e+03 4.214910125732421875e+01 -1.059841823577880859e+01 -1.862902641296386719e-01 8.283827781677246094e+00 2.429261207580566406e+00 7.678886055946350098e-01
1.919000000000000000e+03 4.759770584106445312e+01 2.012738418579101562e+01 1.161692887544631958e-01 6.886741638183593750e+00 2.100873231887817383e+00 6.418051719665527344e-01
1.920000000000000000e+03 4.649445724487304688e+01 1.877643013000488281e+01 1.895319223403930664e-01 7.078730106353759766e+00 2.180478572845458984e+00 4.457585811614990234e-01
1.921000000000000000e+03 6.559545898437500000e+01 3.804544210433959961e+00 1.411974728107452393e-01 4.167176246643066406e+00 1.292512059211730957e+00 1.099444746971130371e+00
1.922000000000000000e+03 5.535531997680664062e+01 -3.390396499633789062e+01 6.303223967552185059e-02 9.134462475776672363e-01 2.929435372352600098e-01 -1.012491941452026367e+00
1.923000000000000000e+03 5.882501983642578125e+01 -3.520113372802734375e+01 3.711378872394561768e-01 1.100496411323547363e+00 4.414902627468109131e-01 -1.829840056598186493e-02
1.924000000000000000e+03 6.089233016967773438e+01 -3.243672943115234375e+01 -3.749552965164184570e-01 1.124039769172668457e+00 2.247253507375717163e-01 5.126503705978393555e-01
1.925000000000000000e+03 6.221266937255859375e+01 -3.380104446411132812e+01 -7.442232966423034668e-02 1.800680160522460938e+00 5.178773403167724609e-01 6.870866417884826660e-01
1.926000000000000000e+03 7.222077178955078125e+01 1.595178890228271484e+01 1.228390336036682129e+00 9.361063003540039062e+00 3.176836013793945312e+00 7.166811227798461914e-01
1.927000000000000000e+03 5.406828308105468750e+01 -3.606134033203125000e+01 1.689056158065795898e-01 1.806889057159423828e+00 5.927383899688720703e-01 -1.102023005485534668e+00
1.928000000000000000e+03 5.414123153686523438e+01 -3.452334213256835938e+01 7.801202684640884399e-02 1.438453674316406250e+00 4.549397230148315430e-01 -1.224368095397949219e+00
1.929000000000000000e+03 3.936655044555664062e+01 -2.267149543762207031e+01 1.924618601799011230e+00 9.063733100891113281e+00 3.296505451202392578e+00 4.897222816944122314e-01
1.930000000000000000e+03 3.646887969970703125e+01 2.121885681152343750e+01 -4.945847690105438232e-01 1.794352889060974121e+00 3.899304270744323730e-01 -8.361606597900390625e-01
1.931000000000000000e+03 3.653651428222656250e+01 2.609416007995605469e+01 -5.975323915481567383e-01 2.178718328475952148e+00 4.743557870388031006e-01 -8.601499795913696289e-01
1.932000000000000000e+03 4.094763565063476562e+01 -3.091521072387695312e+01 -6.535865068435668945e-01 7.052980422973632812e+00 1.919818162918090820e+00 -1.056790575385093689e-01
1.933000000000000000e+03 3.504253387451171875e+01 -3.056907844543457031e+01 -2.696697413921356201e-01 5.340627670288085938e+00 1.521287441253662109e+00 1.501137375831604004e+00
1.934000000000000000e+03 1.446388721466064453e+01 1.781465721130371094e+01 7.107797861099243164e-01 4.148383617401123047e+00 1.457749009132385254e+00 -1.018407225608825684e+00
1.935000000000000000e+03 1.329175281524658203e+01 1.785674285888671875e+01 6.643760800361633301e-01 3.514975547790527344e+00 1.253805398941040039e+00 -1.153753638267517090e+00
1.936000000000000000e+03 9.262652397155761719e+00 -1.696298789978027344e+01 1.234370589256286621e+00 3.149810314178466797e+00 1.315254330635070801e+00 5.650807023048400879e-01
1.937000000000000000e+03 3.911440610885620117e+00 -1.781174850463867188e+01 3.311483860015869141e-01 -2.323721200227737427e-01 2.963287569582462311e-02 3.001869022846221924e-01
1.938000000000000000e+03 4.611469268798828125e+01 -2.814699649810791016e+00 8.132705092430114746e-02 8.577808380126953125e+00 2.597740650177001953e+00 7.498437911272048950e-02
1.939000000000000000e+03 4.575601959228515625e+01 -1.059875786304473877e-01 1.293334245681762695e+00 9.931986808776855469e+00 3.367596149444580078e+00 2.485343515872955322e-01
1.940000000000000000e+03 7.124999237060546875e+01 -1.612995147705078125e+01 1.597028255462646484e+00 1.014426517486572266e+01 3.522387981414794922e+00 1.741621643304824829e-01
1.941000000000000000e+03 3.342982101440429688e+01 -3.408626556396484375e+01 -7.265999317169189453e-01 3.678995847702026367e+00 8.857187628746032715e-01 1.302526712417602539e+00
1.942000000000000000e+03 4.694240188598632812e+01 -9.535242080688476562e+00 -6.733307838439941406e-01 8.082390785217285156e+00 2.222718000411987305e+00 1.404023647308349609e+00
1.943000000000000000e+03 4.239612579345703125e+01 -9.425712585449218750e+00 -7.552830576896667480e-01 8.390282630920410156e+00 2.290499687194824219e+00 9.606879949569702148e-01
1.944000000000000000e+03 7.347570037841796875e+01 9.292815208435058594e+00 2.633458375930786133e-01 8.170047760009765625e+00 2.530018091201782227e+00 -4.763250648975372314e-01
1.945000000000000000e+03 3.914726257324218750e+01 -2.874003028869628906e+01 1.756905913352966309e-01 7.458913803100585938e+00 2.290381431579589844e+00 3.136009871959686279e-01
1.946000000000000000e+03 5.322598266601562500e+01 -3.198360919952392578e+00 1.662321329116821289e+00 5.167813301086425781e-01 6.537308096885681152e-01 1.094921827316284180e-01
1.947000000000000000e+03 4.723804473876953125e+01 2.146713447570800781e+01 -4.084132611751556396e-01 6.430670261383056641e+00 1.806677103042602539e+00 3.299285471439361572e-01
1.948000000000000000e+03 1.556939220428466797e+01 -3.226903152465820312e+01 -5.281639695167541504e-01 6.952610015869140625e-01 5.012911558151245117e-02 -1.992127448320388794e-01
1.949000000000000000e+03 6.522232818603515625e+01 -8.455397605895996094e+00 -2.368048727512359619e-01 3.614373207092285156e+00 1.013270497322082520e+00 -1.237713694572448730e+00
1.950000000000000000e+03 6.472092437744140625e+01 -7.101754665374755859e+00 -3.861301019787788391e-02 3.207523345947265625e+00 9.506731033325195312e-01 -1.008216619491577148e+00
1.951000000000000000e+03 4.314687347412109375e+01 -7.245646953582763672e+00 -1.475154995918273926e+00 9.043787002563476562e+00 2.270589590072631836e+00 1.108599305152893066e+00
1.952000000000000000e+03 1.687741661071777344e+01 2.300580024719238281e+01 -9.817423224449157715e-01 3.720238924026489258e+00 8.215489387512207031e-01 -1.307690441608428955e-01
1.953000000000000000e+03 5.670988082885742188e+01 -4.592052936553955078e+00 8.250884413719177246e-01 -4.451172798871994019e-02 2.341730147600173950e-01 -2.574586272239685059e-01
1.954000000000000000e+03 5.697682189941406250e+01 -2.258168935775756836e+00 1.514422059059143066e+00 1.132414191961288452e-01 4.882990419864654541e-01 1.088003534823656082e-02
1.955000000000000000e+03 7.094832611083984375e+01 9.375469207763671875e+00 3.475210666656494141e-01 8.463553428649902344e+00 2.643322229385375977e+00 -2.153670415282249451e-02
1.956000000000000000e+03 5.305401325225830078e+00 -2.353098869323730469e+01 -2.581612206995487213e-03 8.152160048484802246e-01 2.437903136014938354e-01 8.537020683288574219e-01
1.957000000000000000e+03 4.010903549194335938e+01 -2.768967819213867188e+01 6.267940402030944824e-01 7.698773384094238281e+00 2.497670173645019531e+00 2.291842252016067505e-01
1.958000000000000000e+03 5.924953842163085938e+01 2.706205177307128906e+01 -4.008834660053253174e-01 9.765412211418151855e-01 1.726973205804824829e-01 1.034885168075561523e+00
1.959000000000000000e+03 4.008416366577148438e+01 -2.366299438476562500e+01 1.925071358680725098e+00 8.609632492065429688e+00 3.160411119461059570e+00 4.551981687545776367e-01
1.960000000000000000e+03 4.982177352905273438e+01 -3.641838836669921875e+01 -5.181552171707153320e-01 3.571481227874755859e+00 9.159978032112121582e-01 -1.164157271385192871e+00
1.961000000000000000e+03 4.002716064453125000e+01 -2.560645103454589844e+01 1.505796432495117188e+00 8.141482353210449219e+00 2.894183635711669922e+00 3.592161536216735840e-01
1.962000000000000000e+03 3.906661987304687500e+01 -2.451861000061035156e+01 1.966995239257812500e+00 8.743154525756835938e+00 3.213044881820678711e+00 7.077513337135314941e-01
1.963000000000000000e+03 6.418567657470703125e+00 -7.897308349609375000e+00 -7.390217483043670654e-02 4.440258145332336426e-01 1.110370904207229614e-01 -4.453297555446624756e-01
1.964000000000000000e+03 1.078195476531982422e+01 -1.258438587188720703e+01 7.080512046813964844e-01 2.834903240203857422e+00 1.062886357307434082e+00 4.541031420230865479e-01
1.965000000000000000e+03 7.201434326171875000e+01 -7.048739910125732422e+00 -7.000589966773986816e-01 7.365244388580322266e+00 1.999555706977844238e+00 2.392562329769134521e-01
1.966000000000000000e+03 7.053469848632812500e+01 -1.509336280822753906e+01 1.430993676185607910e+00 1.006520557403564453e+01 3.448859691619873047e+00 7.943718135356903076e-02
1.967000000000000000e+03 7.082276916503906250e+01 -1.158182716369628906e+01 -3.269067108631134033e-01 8.705704689025878906e+00 2.513639450073242188e+00 2.808382511138916016e-01
1.968000000000000000e+03 6.409260559082031250e+01 -3.391876602172851562e+01 -1.922421455383300781e-01 2.873552322387695312e+00 8.043930530548095703e-01 7.572985291481018066e-01
1.969000000000000000e+03 5.907939910888671875e+01 -3.303550338745117188e+01 -1.437473893165588379e-01 6.468908786773681641e-01 1.509430408477783203e-01 3.723045438528060913e-02
1.970000000000000000e+03 6.758190155029296875e+01 2.492992019653320312e+01 -1.520474433898925781e+00 5.309278488159179688e+00 1.136641263961791992e+00 -1.471608877182006836e+00
1.971000000000000000e+03 4.544746780395507812e+01 -2.590045738220214844e+01 1.222128272056579590e+00 8.331847190856933594e+00 2.866192579269409180e+00 -1.385487437248229980e+00
1.972000000000000000e+03 4.197581100463867188e+01 -6.717658042907714844e+00 -1.413017392158508301e+00 8.559391021728515625e+00 2.143912076950073242e+00 1.629031181335449219e+00
1.973000000000000000e+03 4.267681503295898438e+01 -3.185762405395507812e+00 -8.223072439432144165e-02 1.067171192169189453e+01 3.176844358444213867e+00 1.432525634765625000e+00
1.974000000000000000e+03 7.170478057861328125e+01 -1.445111083984375000e+01 8.160960078239440918e-01 9.199091911315917969e+00 3.004556417465209961e+00 6.333386301994323730e-01
1.975000000000000000e+03 1.011259841918945312e+01 -2.583412551879882812e+01 -3.884945213794708252e-01 2.014818668365478516e+00 4.878972172737121582e-01 3.745346367359161377e-01
1.976000000000000000e+03 4.378511810302734375e+01 -4.834683895111083984e+00 -1.183549523353576660e+00 9.735582351684570312e+00 2.565609931945800781e+00 1.006636738777160645e+00
1.977000000000000000e+03 4.534574127197265625e+01 -3.233524322509765625e+01 -9.015395641326904297e-01 6.037925720214843750e+00 1.540915727615356445e+00 -1.118404865264892578e+00
1.978000000000000000e+03 4.823133850097656250e+01 -3.405686950683593750e+01 -8.263784646987915039e-01 4.642427921295166016e+00 1.144814848899841309e+00 -1.457438707351684570e+00
1.979000000000000000e+03 4.047459030151367188e+01 -7.671266555786132812e+00 -8.166731595993041992e-01 7.042998790740966797e+00 1.867897748947143555e+00 1.461111187934875488e+00
1.980000000000000000e+03 6.699082183837890625e+01 -2.909573173522949219e+01 -9.585837125778198242e-01 5.101066589355468750e+00 1.242744922637939453e+00 8.110079765319824219e-01
1.981000000000000000e+03 3.758831024169921875e+01 -1.483959674835205078e+01 1.407210350036621094e+00 6.920503616333007812e+00 2.498314142227172852e+00 -6.656995415687561035e-01
1.982000000000000000e+03 3.706692886352539062e+01 -1.664720535278320312e+01 2.022239446640014648e+00 7.610044002532958984e+00 2.889684915542602539e+00 -9.535799026489257812e-01
1.983000000000000000e+03 1.942376518249511719e+01 -3.642436504364013672e+00 2.571825265884399414e+00 8.436683416366577148e-01 1.024648070335388184e+00 1.591354608535766602e+00
1.984000000000000000e+03 1.991792869567871094e+01 -4.375720024108886719e+00 2.334133148193359375e+00 2.057904720306396484e+00 1.317611455917358398e+00 2.123147487640380859e+00
1.985000000000000000e+03 2.208497047424316406e+01 -1.035724925994873047e+01 -5.231267809867858887e-01 1.169505119323730469e+00 1.939135044813156128e-01 2.928504645824432373e-01
1.986000000000000000e+03 1.954446601867675781e+01 -3.976632356643676758e+00 2.531187534332275391e+00 1.269377470016479492e+00 1.140169501304626465e+00 1.863939166069030762e+00
1.987000000000000000e+03 2.289517021179199219e+01 -4.019989013671875000e+00 1.691612482070922852e+00 8.080449104309082031e+00 2.931618690490722656e+00 -2.363007783889770508e+00
1.988000000000000000e+03 2.487660980224609375e+01 -3.464952945709228516e+00 4.598332405090332031e+00 2.909038305282592773e+00 2.252211093902587891e+00 -4.330512046813964844e+00
1.989000000000000000e+03 2.298955154418945312e+01 -3.612903356552124023e+00 2.250586271286010742e+00 8.995139122009277344e+00 3.373717784881591797e+00 -3.191066026687622070e+00
1.990000000000000000e+03 2.305720901489257812e+01 -3.242443561553955078e+00 3.057696580886840820e+00 1.006684684753417969e+01 3.937363147735595703e+00 -4.050644397735595703e+00
1.991000000000000000e+03 1.992460060119628906e+01 -3.887027740478515625e+00 2.680222749710083008e+00 1.792106270790100098e+00 1.341698765754699707e+00 2.070056676864624023e+00
1.992000000000000000e+03 1.924327850341796875e+01 2.286441564559936523e+00 5.519898533821105957e-01 5.826786041259765625e+00 1.913632869720458984e+00 -3.475064754486083984e+00
1.993000000000000000e+03 1.975043678283691406e+01 -4.159121036529541016e+00 2.460880756378173828e+00 1.652667880058288574e+00 1.234064579010009766e+00 2.044696092605590820e+00
1.994000000000000000e+03 2.302661323547363281e+01 -1.564711704850196838e-02 -4.167019724845886230e-01 1.125848197937011719e+01 3.252533912658691406e+00 -9.013016819953918457e-01
1.995000000000000000e+03 1.702447128295898438e+01 -4.033015251159667969e+00 1.229841828346252441e+00 -4.004217218607664108e-03 3.677513003349304199e-01 9.861299395561218262e-01
1.996000000000000000e+03 1.045396327972412109e+01 -4.983461856842041016e+00 -1.986019164323806763e-01 5.170860290527343750e-01 9.554523229598999023e-02 1.904102414846420288e-01
1.997000000000000000e+03 9.752476692199707031e+00 -4.957996845245361328e+00 -2.434832751750946045e-01 4.901665449142456055e-01 7.400497794151306152e-02 5.641172826290130615e-02
1.998000000000000000e+03 1.584276103973388672e+01 -4.615184783935546875e+00 8.807526826858520508e-01 5.313734710216522217e-02 2.801670134067535400e-01 1.054732918739318848e+00
1.999000000000000000e+03 1.551839542388916016e+01 -9.215460777282714844e+00 3.522755205631256104e-01 8.329646587371826172e-01 3.555720448493957520e-01 2.119451522827148438e+00
2.000000000000000000e+03 1.644838905334472656e+01 -4.620822429656982422e+00 1.098645925521850586e+00 5.169801041483879089e-02 3.451031744480133057e-01 1.148530006408691406e+00
2.001000000000000000e+03 1.645687294006347656e+01 3.884196996688842773e+00 1.456042408943176270e+00 2.771285772323608398e+00 1.268198370933532715e+00 -1.268802881240844727e+00
2.002000000000000000e+03 1.117547607421875000e+01 -5.037646770477294922e+00 -1.331863254308700562e-01 5.035864710807800293e-01 1.111200377345085144e-01 3.453463017940521240e-01
2.003000000000000000e+03 1.417586994171142578e+01 4.076331615447998047e+00 8.598203063011169434e-01 9.987674355506896973e-01 5.575762987136840820e-01 6.004574708640575409e-03
2.004000000000000000e+03 1.522700881958007812e+01 3.404535293579101562e+00 5.507973432540893555e-01 1.352928400039672852e+00 5.711176991462707520e-01 -2.954947054386138916e-01
2.005000000000000000e+03 1.599307632446289062e+01 3.150850772857666016e+00 5.670135021209716797e-01 1.845216035842895508e+00 7.236688137054443359e-01 -6.467076539993286133e-01
2.006000000000000000e+03 1.563985157012939453e+01 4.280416011810302734e+00 1.472440958023071289e+00 2.258018016815185547e+00 1.119137644767761230e+00 -8.510724306106567383e-01
2.007000000000000000e+03 1.892673110961914062e+01 1.341228485107421875e+00 -4.285281598567962646e-01 3.954218626022338867e+00 1.057707071304321289e+00 -2.867034912109375000e+00
2.008000000000000000e+03 6.293335437774658203e+00 -4.974002361297607422e+00 -2.196813970804214478e-01 1.834000796079635620e-01 -1.088439207524061203e-02 -3.817743360996246338e-01
2.009000000000000000e+03 4.832489013671875000e+00 -4.084157466888427734e+00 -2.006439566612243652e-01 -1.003271248191595078e-02 -6.320299953222274780e-02 -3.943316042423248291e-01
2.010000000000000000e+03 3.683318376541137695e+00 -7.299508094787597656e+00 -5.116525292396545410e-02 -2.277248650789260864e-01 -8.366703242063522339e-02 -4.964769780635833740e-01
2.011000000000000000e+03 1.189589977264404297e+01 -5.104411602020263672e+00 -2.654952555894851685e-02 4.714828133583068848e-01 1.334799826145172119e-01 4.990276992321014404e-01
2.012000000000000000e+03 1.454215717315673828e+01 -4.551655292510986328e+00 4.580923616886138916e-01 1.335454732179641724e-01 1.774913519620895386e-01 8.575698733329772949e-01
2.013000000000000000e+03 1.459497833251953125e+01 -5.242348670959472656e+00 5.443260669708251953e-01 2.321230173110961914e-01 2.329347282648086548e-01 1.056743979454040527e+00
2.014000000000000000e+03 6.441261291503906250e+00 -5.779476165771484375e+00 -1.860323250293731689e-01 2.793654799461364746e-01 2.799994498491287231e-02 -4.010134935379028320e-01
2.015000000000000000e+03 1.713964462280273438e+01 4.641891479492187500e+00 2.286167144775390625e+00 4.438063144683837891e+00 2.017269134521484375e+00 -2.078208684921264648e+00
2.016000000000000000e+03 6.144323825836181641e+00 -4.154486656188964844e+00 -2.638051807880401611e-01 1.237320601940155029e-01 -4.202193766832351685e-02 -3.573220074176788330e-01
2.017000000000000000e+03 5.632198810577392578e+00 -5.123939990997314453e+00 -1.916573494672775269e-01 1.088619157671928406e-01 -2.483863197267055511e-02 -4.218749701976776123e-01
2.018000000000000000e+03 5.186622142791748047e+00 -4.593950271606445312e+00 -1.974584758281707764e-01 4.403531923890113831e-02 -4.602694511413574219e-02 -4.100483059883117676e-01
2.019000000000000000e+03 6.631854534149169922e+00 4.194095134735107422e+00 -3.068159222602844238e-01 -3.673315048217773438e-01 -2.022442221641540527e-01 1.150045514106750488e+00
2.020000000000000000e+03 4.850044727325439453e+00 5.142168045043945312e+00 -3.382722660899162292e-02 -5.408501029014587402e-01 -1.724032014608383179e-01 9.853621125221252441e-01
2.021000000000000000e+03 3.942010879516601562e+00 4.667222023010253906e+00 -1.260104179382324219e-01 -5.400722026824951172e-01 -1.998247951269149780e-01 8.721167445182800293e-01
2.022000000000000000e+03 1.208675289154052734e+01 4.013167858123779297e+00 2.469720095396041870e-01 9.113688766956329346e-02 1.014326661825180054e-01 7.210981249809265137e-01
2.023000000000000000e+03 8.972374916076660156e+00 -4.160144805908203125e+00 -3.320090174674987793e-01 3.404973447322845459e-01 2.546493895351886749e-03 -8.964133262634277344e-02
2.024000000000000000e+03 8.280161857604980469e+00 -4.142618656158447266e+00 -3.282993137836456299e-01 3.049879372119903564e-01 -6.993410643190145493e-03 -1.739160120487213135e-01
2.025000000000000000e+03 6.199841499328613281e+00 6.541247844696044922e+00 3.746902644634246826e-01 -4.883098602294921875e-01 -3.408588096499443054e-02 9.707475900650024414e-01
2.026000000000000000e+03 1.260188102722167969e+01 -5.157882690429687500e+00 7.635480165481567383e-02 4.242039322853088379e-01 1.501676142215728760e-01 6.424124240875244141e-01
2.027000000000000000e+03 8.305524826049804688e+00 4.714265823364257812e+00 8.269463665783405304e-03 -3.532695174217224121e-01 -1.035000160336494446e-01 1.159751296043395996e+00
2.028000000000000000e+03 9.615343093872070312e+00 4.015814304351806641e+00 -2.366649210453033447e-01 -3.128131926059722900e-01 -1.648434251546859741e-01 1.153371572494506836e+00
2.029000000000000000e+03 6.945070743560791016e+00 5.041206359863281250e+00 1.871838979423046112e-02 -4.055486619472503662e-01 -1.160490810871124268e-01 1.127573966979980469e+00
2.030000000000000000e+03 5.411311149597167969e+00 4.992057323455810547e+00 -5.453089252114295959e-02 -4.758234322071075439e-01 -1.591062992811203003e-01 1.039749026298522949e+00
2.031000000000000000e+03 6.148970127105712891e+00 5.029919147491455078e+00 -2.856274694204330444e-02 -4.353564381599426270e-01 -1.391757577657699585e-01 1.097853899002075195e+00
2.032000000000000000e+03 1.393930149078369141e+01 -5.207107543945312500e+00 3.726953268051147461e-01 3.067481815814971924e-01 2.038330435752868652e-01 9.358798265457153320e-01
2.033000000000000000e+03 1.349042129516601562e+01 4.568332672119140625e+00 1.099511623382568359e+00 8.304305672645568848e-01 5.789826512336730957e-01 1.258887052536010742e-01
2.034000000000000000e+03 1.296539115905761719e+01 5.260232925415039062e+00 1.290144443511962891e+00 7.990942001342773438e-01 6.267716288566589355e-01 8.865179121494293213e-02
2.035000000000000000e+03 2.550638961791992188e+01 -5.362615585327148438e+00 3.309182643890380859e+00 2.629110813140869141e+00 1.781488060951232910e+00 -3.088615417480468750e+00
2.036000000000000000e+03 2.648849296569824219e+01 -5.835170745849609375e+00 3.365355253219604492e+00 2.132251262664794922e+00 1.649281978607177734e+00 -2.737485408782958984e+00
2.037000000000000000e+03 1.524191665649414062e+01 -5.258429050445556641e+00 7.328842878341674805e-01 1.914566159248352051e-01 2.773022651672363281e-01 1.176992416381835938e+00
2.038000000000000000e+03 1.870818901062011719e+01 4.134421348571777344e+00 2.394237518310546875e+00 6.427672386169433594e+00 2.646573066711425781e+00 -3.219913482666015625e+00
2.039000000000000000e+03 1.837652778625488281e+01 2.177072048187255859e+00 3.675594329833984375e-01 4.023634910583496094e+00 1.317358374595642090e+00 -2.401451826095581055e+00
2.040000000000000000e+03 1.208063602447509766e+01 4.912946701049804688e+00 8.594188690185546875e-01 3.360433578491210938e-01 3.586386740207672119e-01 5.037178397178649902e-01
2.041000000000000000e+03 1.053515243530273438e+01 4.737979888916015625e+00 3.524731397628784180e-01 -7.671307027339935303e-02 8.272802084684371948e-02 9.253834486007690430e-01
2.042000000000000000e+03 1.811618995666503906e+01 5.232304573059082031e+00 3.050470113754272461e+00 6.443374633789062500e+00 2.848153352737426758e+00 -3.095537185668945312e+00
2.043000000000000000e+03 1.521340274810791016e+01 5.477416038513183594e+00 2.157335281372070312e+00 2.662850856781005859e+00 1.446055769920349121e+00 -1.032985925674438477e+00
2.044000000000000000e+03 2.361715316772460938e+01 -1.140034866333007812e+01 -8.786597847938537598e-01 8.886502981185913086e-01 2.997153671458363533e-03 -1.862061768770217896e-01
2.045000000000000000e+03 1.065532970428466797e+01 -6.321532726287841797e+00 -1.138152927160263062e-01 7.990674972534179688e-01 2.055756747722625732e-01 3.321101367473602295e-01
2.046000000000000000e+03 2.390081977844238281e+01 -3.444241762161254883e+00 3.785078525543212891e+00 5.959821224212646484e+00 2.923470020294189453e+00 -4.724146842956542969e+00
2.047000000000000000e+03 2.341373634338378906e+01 -3.774749994277954102e+00 2.644392728805541992e+00 7.387950420379638672e+00 3.009702920913696289e+00 -3.842746019363403320e+00
2.048000000000000000e+03 2.357603836059570312e+01 -1.052981567382812500e+01 -4.622349143028259277e-01 1.212121725082397461e+00 2.249660640954971313e-01 -3.669346272945404053e-01
2.049000000000000000e+03 6.075906372070312500e+01 -6.375668048858642578e+00 3.589908182621002197e-01 9.104636311531066895e-01 3.808363378047943115e-01 -4.258838295936584473e-01
2.050000000000000000e+03 2.135124015808105469e+01 -1.003669929504394531e+01 -3.529222905635833740e-01 1.120967626571655273e+00 2.304136157035827637e-01 5.531079173088073730e-01
2.051000000000000000e+03 2.460604667663574219e+01 -1.133054351806640625e+01 -6.472101807594299316e-01 9.709095954895019531e-01 9.710982441902160645e-02 -6.279860138893127441e-01
2.052000000000000000e+03 4.466041564941406250e+01 -9.500644207000732422e-01 1.211095571517944336e+00 1.092878627777099609e+01 3.641964673995971680e+00 6.687270402908325195e-01
2.053000000000000000e+03 4.672695541381835938e+01 -6.667804718017578125e+00 -1.251139283180236816e+00 7.645079135894775391e+00 1.918181896209716797e+00 8.965446352958679199e-01
2.054000000000000000e+03 4.504338073730468750e+01 4.305184364318847656e+00 1.505678415298461914e+00 1.302144336700439453e+01 4.358136653900146484e+00 1.333321928977966309e+00
2.055000000000000000e+03 4.134825897216796875e+01 1.640774154663085938e+01 6.022778898477554321e-02 4.803233146667480469e+00 1.459038257598876953e+00 -1.059525847434997559e+00
2.056000000000000000e+03 4.117004013061523438e+01 1.828232192993164062e+01 -1.793935596942901611e-01 4.392208576202392578e+00 1.263844609260559082e+00 -1.027790904045104980e+00
2.057000000000000000e+03 4.351046371459960938e+01 -9.697212219238281250e+00 -8.639101386070251465e-01 8.814411163330078125e+00 2.385150432586669922e+00 9.013222455978393555e-01
2.058000000000000000e+03 4.606900787353515625e+01 -8.986116409301757812e+00 -1.082756042480468750e+00 8.535081863403320312e+00 2.235697746276855469e+00 1.037051677703857422e+00
2.059000000000000000e+03 4.157831954956054688e+01 -1.901065635681152344e+01 2.159245967864990234e+00 9.203043937683105469e+00 3.408687114715576172e+00 2.018008083105087280e-01
2.060000000000000000e+03 3.817995452880859375e+01 -1.928865051269531250e+01 2.156360149383544922e+00 9.053047180175781250e+00 3.362822055816650391e+00 -3.674432933330535889e-01
2.061000000000000000e+03 2.895142936706542969e+01 -1.176677799224853516e+01 5.182521343231201172e-01 9.865278005599975586e-01 4.514339864253997803e-01 -2.011384725570678711e+00
2.062000000000000000e+03 2.943284797668457031e+01 -9.330872535705566406e+00 1.271178841590881348e+00 1.583393096923828125e+00 8.563715815544128418e-01 -2.727947950363159180e+00
2.063000000000000000e+03 4.260933685302734375e+01 -2.247596931457519531e+01 2.221661090850830078e+00 9.126067161560058594e+00 3.404318571090698242e+00 -2.381263524293899536e-01
2.064000000000000000e+03 5.794990921020507812e+01 -4.610360622406005859e+00 8.293073773384094238e-01 2.106791287660598755e-01 3.119959533214569092e-01 -2.218562364578247070e-01
2.065000000000000000e+03 7.060820770263671875e+01 7.672609329223632812e+00 -1.291639823466539383e-02 7.884956836700439453e+00 2.361612081527709961e+00 9.136828780174255371e-02
2.066000000000000000e+03 6.861118316650390625e+01 6.327476978302001953e+00 -1.349358558654785156e-01 6.922827243804931641e+00 2.036367416381835938e+00 8.316865563392639160e-01
2.067000000000000000e+03 2.609852218627929688e+01 -1.160480022430419922e+01 -4.032598137855529785e-01 9.395669698715209961e-01 1.608921438455581665e-01 -1.101384043693542480e+00
2.068000000000000000e+03 4.415372848510742188e+01 1.363791656494140625e+01 2.887395024299621582e-01 8.326141357421875000e+00 2.584464311599731445e+00 1.293010562658309937e-01
2.069000000000000000e+03 6.425943756103515625e+01 1.068659782409667969e+00 4.129298031330108643e-01 3.092434644699096680e+00 1.051609396934509277e+00 6.185948848724365234e-01
2.070000000000000000e+03 1.648432540893554688e+01 -5.263137817382812500e+00 1.159190773963928223e+00 1.525703519582748413e-01 3.935283422470092773e-01 1.383018016815185547e+00
2.071000000000000000e+03 1.774975013732910156e+01 -9.980016708374023438e+00 2.167155295610427856e-01 -3.196100145578384399e-02 5.542635545134544373e-02 1.914441585540771484e+00
2.072000000000000000e+03 2.746763610839843750e+01 -1.172165870666503906e+01 -7.726771384477615356e-02 8.870326280593872070e-01 2.429294735193252563e-01 -1.525918126106262207e+00
2.073000000000000000e+03 2.776669502258300781e+01 -7.508147716522216797e+00 2.012770891189575195e+00 2.160748720169067383e+00 1.252055883407592773e+00 -2.328588485717773438e+00
2.074000000000000000e+03 1.556447982788085938e+01 -1.032105731964111328e+01 6.162055581808090210e-02 9.196090102195739746e-01 2.943688631057739258e-01 2.258101940155029297e+00
2.075000000000000000e+03 1.447144508361816406e+01 -9.233761787414550781e+00 1.529579311609268188e-01 1.229831218719482422e+00 4.148367345333099365e-01 1.922999620437622070e+00
2.076000000000000000e+03 2.818724632263183594e+01 -1.100870132446289062e+01 4.946624934673309326e-01 1.077880859375000000e+00 4.717629849910736084e-01 -2.027748346328735352e+00
2.077000000000000000e+03 6.020758438110351562e+01 -9.712610840797424316e-01 1.205393314361572266e+00 8.622155189514160156e-01 6.202826499938964844e-01 1.476016789674758911e-01
2.078000000000000000e+03 6.589788055419921875e+01 -6.443387508392333984e+00 -2.509159147739410400e-01 4.083018302917480469e+00 1.149630665779113770e+00 -8.882377743721008301e-01
2.079000000000000000e+03 3.139831542968750000e+01 -9.867783546447753906e+00 1.376284480094909668e+00 1.578778147697448730e+00 8.865187764167785645e-01 -2.740871191024780273e+00
2.080000000000000000e+03 3.175591659545898438e+01 -1.234934806823730469e+01 1.110492825508117676e+00 1.799248695373535156e+00 8.729224205017089844e-01 -2.452202796936035156e+00
2.081000000000000000e+03 6.180513000488281250e+01 -7.185071945190429688e+00 2.652827203273773193e-01 1.219171404838562012e+00 4.453362226486206055e-01 -5.591278076171875000e-01
2.082000000000000000e+03 6.344685745239257812e+01 -2.739669561386108398e+00 5.048112273216247559e-01 2.546944141387939453e+00 9.155265688896179199e-01 -1.285739392042160034e-01
2.083000000000000000e+03 4.627094268798828125e+01 1.523310852050781250e+01 5.917885899543762207e-01 8.708029747009277344e+00 2.789945363998413086e+00 1.060367107391357422e+00
2.084000000000000000e+03 7.324746704101562500e+01 2.716795158386230469e+01 -7.425382733345031738e-01 7.863535404205322266e+00 2.136299133300781250e+00 1.310088485479354858e-01
2.085000000000000000e+03 7.334174346923828125e+01 -3.226741027832031250e+01 -4.879111647605895996e-01 7.244185447692871094e+00 2.026882410049438477e+00 -1.909033060073852539e-01
2.086000000000000000e+03 7.219114685058593750e+01 -3.168717956542968750e+01 -6.499360203742980957e-01 7.092292785644531250e+00 1.932707071304321289e+00 -1.220317780971527100e-01
2.087000000000000000e+03 2.025109291076660156e+01 -1.041438579559326172e+01 -5.317670106887817383e-01 5.711134076118469238e-01 1.180390920490026474e-02 9.387774467468261719e-01
2.088000000000000000e+03 7.500908660888671875e+01 -2.747872924804687500e+01 -3.933187127113342285e-01 7.805826187133789062e+00 2.223752260208129883e+00 -8.947688341140747070e-01
2.089000000000000000e+03 7.404621124267578125e+01 1.993994331359863281e+01 1.863732933998107910e-01 8.531659126281738281e+00 2.615409851074218750e+00 1.301420092582702637e+00
2.090000000000000000e+03 7.143974304199218750e+01 -2.253557968139648438e+01 5.710725188255310059e-01 9.138118743896484375e+00 2.912757396697998047e+00 -9.528436064720153809e-01
2.091000000000000000e+03 7.567066192626953125e+01 -2.074784088134765625e+01 5.814253687858581543e-01 7.229698181152343750e+00 2.343337059020996094e+00 -7.503306865692138672e-01
2.092000000000000000e+03 7.456745910644531250e+01 -2.206483840942382812e+01 5.547980070114135742e-01 7.818226814270019531e+00 2.511907339096069336e+00 -1.091278076171875000e+00
2.093000000000000000e+03 7.551676940917968750e+01 1.292271995544433594e+01 5.131866335868835449e-01 7.661000251770019531e+00 2.452255964279174805e+00 -1.357348114252090454e-01
2.094000000000000000e+03 7.534585571289062500e+01 1.681536483764648438e+01 6.109878420829772949e-01 7.802961826324462891e+00 2.524184942245483398e+00 7.047929763793945312e-01
2.095000000000000000e+03 7.336732482910156250e+01 1.588611984252929688e+01 1.167210817337036133e+00 8.432236671447753906e+00 2.879834175109863281e+00 6.133167743682861328e-01
2.096000000000000000e+03 7.561364746093750000e+01 -1.310936737060546875e+01 1.785151362419128418e-01 7.330034255981445312e+00 2.252564907073974609e+00 8.919111490249633789e-01
2.097000000000000000e+03 7.380953216552734375e+01 -1.603680992126464844e+01 1.065321326255798340e+00 8.008217811584472656e+00 2.722061634063720703e+00 5.286058187484741211e-01
2.098000000000000000e+03 7.432362365722656250e+01 8.372480392456054688e+00 8.032489567995071411e-02 7.774246692657470703e+00 2.356371402740478516e+00 -5.797315835952758789e-01
2.099000000000000000e+03 7.579716491699218750e+01 1.027159881591796875e+01 2.226907610893249512e-01 7.517024517059326172e+00 2.321914672851562500e+00 -5.005185008049011230e-01
2.100000000000000000e+03 7.426333618164062500e+01 -5.244953036308288574e-01 -3.496758341789245605e-01 7.333960533142089844e+00 2.095285415649414062e+00 -6.137708202004432678e-02
2.101000000000000000e+03 7.420784759521484375e+01 1.684033632278442383e+00 -3.451769649982452393e-01 7.420390605926513672e+00 2.122564077377319336e+00 -2.295893281698226929e-01
2.102000000000000000e+03 7.544230651855468750e+01 4.881810188293457031e+00 -2.123764902353286743e-01 7.591128349304199219e+00 2.213625431060791016e+00 -5.101084709167480469e-01
2.103000000000000000e+03 7.502571868896484375e+01 -8.049110412597656250e+00 -3.570845723152160645e-01 7.604744911193847656e+00 2.174298048019409180e+00 7.051905393600463867e-01
2.104000000000000000e+03 7.579420471191406250e+01 -6.592413902282714844e+00 -3.025831580162048340e-01 7.579608440399169922e+00 2.183107614517211914e+00 5.278080701828002930e-01
2.105000000000000000e+03 7.480808258056640625e+01 9.301863670349121094e+00 1.872940659523010254e-01 7.764300823211669922e+00 2.385478496551513672e+00 -5.856509804725646973e-01
2.106000000000000000e+03 7.435108184814453125e+01 -3.699945688247680664e+00 -4.193918406963348389e-01 7.411487579345703125e+00 2.097628593444824219e+00 1.835502237081527710e-01
2.107000000000000000e+03 7.431996917724609375e+01 -5.009758472442626953e+00 -4.468047618865966797e-01 7.442644596099853516e+00 2.098752021789550781e+00 3.089113533496856689e-01
2.108000000000000000e+03 7.414000701904296875e+01 -6.143971920013427734e+00 -4.978562593460083008e-01 7.519085407257080078e+00 2.106368780136108398e+00 4.205654263496398926e-01
2.109000000000000000e+03 7.272801971435546875e+01 2.040374040603637695e+00 -4.406112134456634521e-01 7.203195095062255859e+00 2.028775215148925781e+00 -1.760402172803878784e-01
2.110000000000000000e+03 7.608094787597656250e+01 -1.055545425415039062e+01 -1.452168822288513184e-01 7.398086547851562500e+00 2.175860881805419922e+00 8.653427362442016602e-01
2.111000000000000000e+03 7.323268890380859375e+01 -1.065120887756347656e+01 -2.765789926052093506e-01 8.008398056030273438e+00 2.319545745849609375e+00 8.673398494720458984e-01
2.112000000000000000e+03 7.436203002929687500e+01 -1.247742271423339844e+01 1.424201130867004395e-01 7.814024448394775391e+00 2.386933326721191406e+00 1.007002830505371094e+00
2.113000000000000000e+03 7.423042297363281250e+01 -1.944293022155761719e+01 1.112167000770568848e+00 7.855938434600830078e+00 2.690431594848632812e+00 -4.799459278583526611e-01
2.114000000000000000e+03 7.437744903564453125e+01 -2.082830619812011719e+01 8.603296875953674316e-01 7.813854694366455078e+00 2.602255344390869141e+00 -8.417030572891235352e-01
2.115000000000000000e+03 7.560113525390625000e+01 -1.942183303833007812e+01 7.004740238189697266e-01 7.148571014404296875e+00 2.354713439941406250e+00 -4.150348305702209473e-01
2.116000000000000000e+03 7.189178466796875000e+01 1.857884979248046875e+01 8.931087851524353027e-01 9.505224227905273438e+00 3.119499921798706055e+00 9.473671317100524902e-01
2.117000000000000000e+03 7.330358123779296875e+01 -3.290421724319458008e+00 -4.974644482135772705e-01 7.177761077880859375e+00 2.004088878631591797e+00 9.428789466619491577e-02
2.118000000000000000e+03 7.016984558105468750e+01 2.550711631774902344e+01 -1.456120371818542480e+00 7.268554687500000000e+00 1.743730306625366211e+00 -5.643781423568725586e-01
2.119000000000000000e+03 7.177288055419921875e+01 -2.123670005798339844e+01 1.256831526756286621e+00 9.152328491210937500e+00 3.122748136520385742e+00 -7.823510766029357910e-01
2.120000000000000000e+03 7.404656219482421875e+01 6.360773086547851562e+00 -1.822594851255416870e-01 7.681500911712646484e+00 2.249772548675537109e+00 -5.475054383277893066e-01
2.121000000000000000e+03 7.423688507080078125e+01 5.014358997344970703e+00 -2.322108149528503418e-01 7.591458797454833984e+00 2.207774400711059570e+00 -4.324836432933807373e-01
2.122000000000000000e+03 7.425249481201171875e+01 -1.050797557830810547e+01 -2.219840139150619507e-01 7.780914783477783203e+00 2.267679214477539062e+00 9.069609045982360840e-01
2.123000000000000000e+03 7.382052612304687500e+01 -2.690689659118652344e+01 -4.747009277343750000e-01 7.923952579498291016e+00 2.234775543212890625e+00 -9.149225950241088867e-01
2.124000000000000000e+03 7.205762481689453125e+01 -1.056985855102539062e+01 -4.416067898273468018e-01 8.224316596984863281e+00 2.334813117980957031e+00 5.935181975364685059e-01
2.125000000000000000e+03 7.279926300048828125e+01 1.116578006744384766e+01 7.697473168373107910e-01 8.461865425109863281e+00 2.769483804702758789e+00 -1.659021228551864624e-01
2.126000000000000000e+03 7.302481079101562500e+01 1.407055473327636719e+01 1.071452379226684570e+00 8.783156394958496094e+00 2.956382751464843750e+00 3.254745900630950928e-01
2.127000000000000000e+03 7.333061981201171875e+01 2.476814651489257812e+01 -7.117446064949035645e-01 8.219450950622558594e+00 2.252311706542968750e+00 5.831515789031982422e-01
2.128000000000000000e+03 6.875678253173828125e+01 2.969030952453613281e+01 -5.634977221488952637e-01 5.510645389556884766e+00 1.484144330024719238e+00 -8.385218977928161621e-01
2.129000000000000000e+03 6.995813751220703125e+01 -3.209114074707031250e+01 -7.237460613250732422e-01 6.218336105346679688e+00 1.648377060890197754e+00 2.812348902225494385e-01
2.130000000000000000e+03 7.290042877197265625e+01 -3.394145584106445312e+01 -3.736565709114074707e-01 6.992172718048095703e+00 1.985554814338684082e+00 -3.940399736166000366e-02
2.131000000000000000e+03 5.729529857635498047e+00 -2.850284957885742188e+01 -2.711857855319976807e-01 1.003439307212829590e+00 2.196760475635528564e-01 6.213790178298950195e-01
2.132000000000000000e+03 4.346010208129882812e+00 -2.621120643615722656e+01 -1.023736596107482910e-01 6.213871240615844727e-01 1.557040512561798096e-01 7.317599654197692871e-01
2.133000000000000000e+03 5.811473369598388672e+00 2.778838348388671875e+01 -2.077809423208236694e-01 1.042721033096313477e+00 2.504820227622985840e-01 -7.075665593147277832e-01
2.134000000000000000e+03 6.582598686218261719e+00 2.853331756591796875e+01 -2.658099830150604248e-01 1.216497778892517090e+00 2.852063477039337158e-01 -6.811742186546325684e-01
2.135000000000000000e+03 8.510040283203125000e+00 -1.131876659393310547e+01 3.090072572231292725e-01 1.622170448303222656e+00 5.793533325195312500e-01 -1.826759427785873413e-01
2.136000000000000000e+03 5.209137439727783203e+00 -1.081503486633300781e+01 1.416332572698593140e-01 2.324383854866027832e-01 1.122214943170547485e-01 -5.047972798347473145e-01
2.137000000000000000e+03 6.220862865447998047e+00 2.529323196411132812e+01 -1.908894330263137817e-01 1.027721762657165527e+00 2.510496973991394043e-01 -8.768041133880615234e-01
2.138000000000000000e+03 6.335721969604492188e+00 2.412193489074707031e+01 -1.376939266920089722e-01 9.856939315795898438e-01 2.543999850749969482e-01 -9.491791725158691406e-01
2.139000000000000000e+03 5.203792095184326172e+00 -2.238339614868164062e+01 1.155349314212799072e-01 6.790077686309814453e-01 2.383628040552139282e-01 8.312892913818359375e-01
2.140000000000000000e+03 3.089004135131835938e+01 -7.474171161651611328e+00 1.893500566482543945e+00 1.410214304924011230e+00 9.911144375801086426e-01 -2.847932815551757812e+00
2.141000000000000000e+03 3.034779357910156250e+01 -1.176206779479980469e+01 9.484887719154357910e-01 1.339486479759216309e+00 6.863926053047180176e-01 -2.435048818588256836e+00
2.142000000000000000e+03 6.385135650634765625e+00 -1.575392627716064453e+01 7.456619739532470703e-01 1.011158227920532227e+00 5.270460844039916992e-01 1.037919074296951294e-01
2.143000000000000000e+03 4.250022411346435547e+00 -1.915950202941894531e+01 3.275324404239654541e-01 4.511981084942817688e-02 1.117956712841987610e-01 5.044816136360168457e-01
2.144000000000000000e+03 5.544981479644775391e+00 1.886776733398437500e+01 2.047202289104461670e-01 2.555383741855621338e-01 1.380775719881057739e-01 -8.603491187095642090e-01
2.145000000000000000e+03 5.577053546905517578e+00 1.742780303955078125e+01 3.182346820831298828e-01 1.044506579637527466e-01 1.268056035041809082e-01 -7.646527290344238281e-01
2.146000000000000000e+03 9.430942535400390625e+00 -2.428206634521484375e+01 -1.886540949344635010e-01 2.229924917221069336e+00 6.123812198638916016e-01 5.541744828224182129e-01
2.147000000000000000e+03 5.341019630432128906e+00 1.461533737182617188e+01 4.969497025012969971e-01 -2.538732290267944336e-01 7.292294502258300781e-02 -4.279948770999908447e-01
2.148000000000000000e+03 4.255555152893066406e+00 -1.231011199951171875e+01 2.118010222911834717e-01 -1.496354043483734131e-01 1.864968612790107727e-02 -3.939939141273498535e-01
2.149000000000000000e+03 7.147212505340576172e+00 -1.084588336944580078e+01 2.079404890537261963e-01 1.019667506217956543e+00 3.682824075222015381e-01 -3.599104285240173340e-01
2.150000000000000000e+03 4.898289203643798828e+00 3.312622070312500000e+01 -1.556340306997299194e-01 1.191733121871948242e+00 3.108297288417816162e-01 -3.513866961002349854e-01
2.151000000000000000e+03 5.390484809875488281e+00 2.153363609313964844e+01 1.637742668390274048e-02 4.507098793983459473e-01 1.401261836290359497e-01 -9.119821786880493164e-01
2.152000000000000000e+03 8.076159477233886719e+00 -3.577994918823242188e+01 -2.638742625713348389e-01 9.821039438247680664e-01 2.154688984155654907e-01 1.437565088272094727e-01
2.153000000000000000e+03 5.092234134674072266e+00 -3.020614814758300781e+01 -2.358636409044265747e-01 9.307683110237121582e-01 2.084714025259017944e-01 4.877181053161621094e-01
2.154000000000000000e+03 3.830739974975585938e+01 -9.230174064636230469e+00 3.006719946861267090e-01 5.137833595275878906e+00 1.631551742553710938e+00 4.802892208099365234e-01
2.155000000000000000e+03 4.107413482666015625e+01 -2.015373611450195312e+01 2.189630508422851562e+00 9.046129226684570312e+00 3.370728015899658203e+00 5.743582546710968018e-02
2.156000000000000000e+03 4.224313354492187500e+01 -1.801501655578613281e+01 1.882735252380371094e+00 9.417103767395019531e+00 3.389951705932617188e+00 3.416874110698699951e-01
2.157000000000000000e+03 3.851005554199218750e+00 1.059773349761962891e+01 3.420665562152862549e-01 -9.932277798652648926e-01 -1.953483670949935913e-01 2.995861768722534180e-01
2.158000000000000000e+03 5.048112392425537109e+00 1.060446834564208984e+01 5.507833957672119141e-01 -6.329400539398193359e-01 -2.464700117707252502e-02 2.801441848278045654e-01
2.159000000000000000e+03 4.722769737243652344e+00 -8.393808364868164062e+00 -3.038583882153034210e-02 2.644697204232215881e-02 -1.181660220026969910e-03 -5.259227752685546875e-01
2.160000000000000000e+03 4.781722068786621094e+00 9.331291198730468750e+00 4.835618734359741211e-01 -7.261242270469665527e-01 -7.276871055364608765e-02 5.161951184272766113e-01
2.161000000000000000e+03 3.534333229064941406e+00 8.108486175537109375e+00 2.362082451581954956e-01 -9.661840796470642090e-01 -2.189927548170089722e-01 6.419154405593872070e-01
2.162000000000000000e+03 6.989530944824218750e+01 3.270874023437500000e+01 -9.750097244977951050e-02 5.837914466857910156e+00 1.722123980522155762e+00 -5.232475399971008301e-01
2.163000000000000000e+03 5.563117504119873047e+00 -1.411743831634521484e+01 5.085926055908203125e-01 4.406878650188446045e-01 2.847841382026672363e-01 -2.072760909795761108e-01
2.164000000000000000e+03 7.353405761718750000e+01 1.683897972106933594e+01 9.908306598663330078e-01 8.536470413208007812e+00 2.858190298080444336e+00 9.052679538726806641e-01
2.165000000000000000e+03 7.279089355468750000e+01 1.798434066772460938e+01 9.597132802009582520e-01 8.819577217102050781e+00 2.933787345886230469e+00 1.077451705932617188e+00
2.166000000000000000e+03 5.499393939971923828e+00 3.545695114135742188e+01 -1.620772033929824829e-01 1.291035652160644531e+00 3.386875391006469727e-01 -2.574302554130554199e-01
2.167000000000000000e+03 6.535103607177734375e+01 1.947067499160766602e+00 1.744466572999954224e-01 3.872488021850585938e+00 1.214080452919006348e+00 7.422630190849304199e-01
2.168000000000000000e+03 4.066652297973632812e+00 -5.515087604522705078e+00 -1.165796816349029541e-01 -1.089330613613128662e-01 -6.765381991863250732e-02 -4.456468820571899414e-01
2.169000000000000000e+03 3.750121307373046875e+01 2.026777839660644531e+01 -3.648371994495391846e-01 2.174537420272827148e+00 5.429100990295410156e-01 -9.102062582969665527e-01
2.170000000000000000e+03 3.753269958496093750e+01 2.224396705627441406e+01 -5.513889193534851074e-01 2.301335573196411133e+00 5.249840021133422852e-01 -9.450723528861999512e-01
2.171000000000000000e+03 7.067921447753906250e+01 2.256117057800292969e+01 -1.065917491912841797e+00 8.575345993041992188e+00 2.252828359603881836e+00 6.821602582931518555e-01
2.172000000000000000e+03 7.361027526855468750e+01 2.325431060791015625e+01 -5.831518173217773438e-01 8.365390777587890625e+00 2.334671735763549805e+00 9.118295311927795410e-01
2.173000000000000000e+03 8.256559371948242188e+00 -1.544535350799560547e+01 1.083524823188781738e+00 2.091299533843994141e+00 9.524472951889038086e-01 1.970189511775970459e-01
2.174000000000000000e+03 3.356142044067382812e+01 2.569208908081054688e+01 -5.336052179336547852e-01 1.245913982391357422e+00 2.136926203966140747e-01 -6.720566153526306152e-01
2.175000000000000000e+03 4.454764938354492188e+01 -2.399966001510620117e+00 2.399777472019195557e-01 1.013903427124023438e+01 3.113703727722167969e+00 5.042647123336791992e-01
2.176000000000000000e+03 6.827764129638671875e+01 -1.037317943572998047e+01 -5.361442565917968750e-01 7.099275588989257812e+00 1.968939423561096191e+00 -1.061410307884216309e+00
2.177000000000000000e+03 6.650907135009765625e+01 -7.668106079101562500e+00 -3.731187283992767334e-01 4.727249622344970703e+00 1.306239247322082520e+00 -1.102951288223266602e+00
2.178000000000000000e+03 3.406098175048828125e+01 2.325187110900878906e+01 -6.659811735153198242e-01 1.138987064361572266e+00 1.419017612934112549e-01 -6.549102067947387695e-01
2.179000000000000000e+03 3.181410026550292969e+01 2.652227973937988281e+01 -4.749338924884796143e-01 9.291494488716125488e-01 1.362646669149398804e-01 -4.959166049957275391e-01
2.180000000000000000e+03 5.114768981933593750e+01 -5.206189632415771484e+00 4.802313148975372314e-01 1.861442327499389648e+00 7.025020718574523926e-01 6.677726507186889648e-01
2.181000000000000000e+03 5.411028289794921875e+01 -4.687093734741210938e+00 1.084292769432067871e+00 9.258166700601577759e-02 3.530623316764831543e-01 5.571418628096580505e-02
2.182000000000000000e+03 4.029323577880859375e+01 1.926718521118164062e+01 -2.573339641094207764e-01 3.802322626113891602e+00 1.063496589660644531e+00 -1.077152609825134277e+00
2.183000000000000000e+03 2.445919609069824219e+01 2.538248252868652344e+01 -6.665139794349670410e-01 4.087083935737609863e-01 -7.734167575836181641e-02 6.122561097145080566e-01
2.184000000000000000e+03 4.286994552612304688e+01 -1.229452610015869141e+01 4.710049033164978027e-01 8.721087455749511719e+00 2.757627725601196289e+00 7.723621726036071777e-01
2.185000000000000000e+03 4.271912765502929688e+01 -1.702705001831054688e+01 1.666748404502868652e+00 9.749713897705078125e+00 3.424938678741455078e+00 6.076375246047973633e-01
2.186000000000000000e+03 5.276487350463867188e+01 -4.397921085357666016e+00 1.180502653121948242e+00 5.582540035247802734e-01 5.216270089149475098e-01 1.900257021188735962e-01
2.187000000000000000e+03 4.634448242187500000e+01 1.307723808288574219e+01 7.213757634162902832e-01 1.000434207916259766e+01 3.217715263366699219e+00 1.583019852638244629e+00
2.188000000000000000e+03 3.251012039184570312e+01 2.833638381958007812e+01 -3.706259131431579590e-01 1.246359944343566895e+00 2.627201974391937256e-01 -5.168072581291198730e-01
2.189000000000000000e+03 2.688770866394042969e+01 2.589663505554199219e+01 -5.601130127906799316e-01 2.991423308849334717e-01 -7.829120755195617676e-02 1.777033209800720215e-01
2.190000000000000000e+03 6.988284301757812500e+01 -2.857056808471679688e+01 -1.003773212432861328e+00 6.965929985046386719e+00 1.788647055625915527e+00 1.504566669464111328e-01
2.191000000000000000e+03 1.016426467895507812e+01 -1.158318614959716797e+01 3.825447559356689453e-01 2.323893070220947266e+00 8.119313120841979980e-01 2.311671674251556396e-01
2.192000000000000000e+03 9.131076812744140625e+00 -1.224772071838378906e+01 5.259736776351928711e-01 2.088680028915405273e+00 7.843961119651794434e-01 -7.363021839410066605e-03
2.193000000000000000e+03 6.643940734863281250e+01 2.787848949432373047e+00 -3.968450799584388733e-02 4.748963356018066406e+00 1.412783741950988770e+00 8.395426273345947266e-01
2.194000000000000000e+03 7.082161712646484375e+01 -1.257171821594238281e+01 7.303210347890853882e-02 9.076964378356933594e+00 2.744999170303344727e+00 4.894829690456390381e-01
2.195000000000000000e+03 6.957869720458984375e+01 -1.161167240142822266e+01 -3.685603439807891846e-01 8.628627777099609375e+00 2.478020429611206055e+00 -2.207121104001998901e-01
2.196000000000000000e+03 6.961511230468750000e+01 -1.046761131286621094e+01 -7.157357335090637207e-01 8.122297286987304688e+00 2.221968650817871094e+00 -3.627479970455169678e-01
2.197000000000000000e+03 6.860651397705078125e+01 -9.097052574157714844e+00 -8.604586720466613770e-01 6.816628932952880859e+00 1.786851048469543457e+00 -7.737505435943603516e-01
2.198000000000000000e+03 7.314787292480468750e+01 -1.191634941101074219e+01 -4.006657004356384277e-02 8.181925773620605469e+00 2.442557573318481445e+00 8.653199076652526855e-01
2.199000000000000000e+03 7.002268218994140625e+01 -1.386199665069580078e+01 7.520619630813598633e-01 9.991359710693359375e+00 3.223026514053344727e+00 9.565864503383636475e-02
2.200000000000000000e+03 9.291355133056640625e+00 -1.576173591613769531e+01 1.204117774963378906e+00 2.835682392120361328e+00 1.211940050125122070e+00 3.811791241168975830e-01
2.201000000000000000e+03 7.185714721679687500e+01 -1.705627250671386719e+01 1.807760357856750488e+00 9.412573814392089844e+00 3.366100311279296875e+00 2.964468002319335938e-01
2.202000000000000000e+03 7.225736999511718750e+01 -1.552177906036376953e+01 1.313828349113464355e+00 8.973405838012695312e+00 3.086170196533203125e+00 6.073257923126220703e-01
2.203000000000000000e+03 4.364041137695312500e+01 -2.752818584442138672e+00 3.757658973336219788e-02 1.095720386505126953e+01 3.298434019088745117e+00 1.132462143898010254e+00
2.204000000000000000e+03 6.892670440673828125e+01 -2.168349838256835938e+01 1.547133564949035645e+00 1.139109992980957031e+01 3.881469964981079102e+00 5.163836479187011719e-01
2.205000000000000000e+03 2.544468688964843750e+01 2.700668334960937500e+01 -4.678753316402435303e-01 5.407157540321350098e-01 2.185212634503841400e-02 3.491134345531463623e-01
2.206000000000000000e+03 1.235994720458984375e+01 1.391313362121582031e+01 1.409947514533996582e+00 3.000877857208251953e+00 1.323247551918029785e+00 -1.117675542831420898e+00
2.207000000000000000e+03 3.941708755493164062e+01 -1.877867507934570312e+01 2.209686756134033203e+00 8.640931129455566406e+00 3.255185365676879883e+00 -8.436419069766998291e-02
2.208000000000000000e+03 4.273724365234375000e+01 -5.633862018585205078e+00 -1.522618889808654785e+00 9.326642990112304688e+00 2.341207265853881836e+00 1.407367229461669922e+00
2.209000000000000000e+03 4.869841766357421875e+01 -4.183825969696044922e+00 2.183740735054016113e-01 5.174042224884033203e+00 1.617724776268005371e+00 2.587416768074035645e-01
2.210000000000000000e+03 7.425027465820312500e+01 -2.576111984252929688e+01 -2.732485830783843994e-01 7.950396537780761719e+00 2.303144454956054688e+00 -1.083649873733520508e+00
2.211000000000000000e+03 2.804435157775878906e+01 2.695295715332031250e+01 -4.283953905105590820e-01 4.731317162513732910e-01 1.342089287936687469e-02 -2.599532157182693481e-02
2.212000000000000000e+03 5.776737594604492188e+01 2.870683860778808594e+01 -1.734017282724380493e-01 1.718945384025573730e+00 4.636631011962890625e-01 1.305845856666564941e+00
2.213000000000000000e+03 1.461994075775146484e+01 9.318699836730957031e+00 2.353268623352050781e+00 4.088975906372070312e+00 1.932673335075378418e+00 -1.563178300857543945e+00
2.214000000000000000e+03 4.332768630981445312e+01 -1.484791851043701172e+01 1.373557567596435547e+00 9.601647377014160156e+00 3.292561292648315430e+00 8.945267796516418457e-01
2.215000000000000000e+03 5.055971145629882812e+01 2.577217864990234375e+01 -1.368789792060852051e+00 4.933465003967285156e+00 1.069402575492858887e+00 1.334308981895446777e+00
2.216000000000000000e+03 4.970592117309570312e+01 2.369579124450683594e+01 -1.114316225051879883e+00 5.803986072540283203e+00 1.406901001930236816e+00 1.105060100555419922e+00
2.217000000000000000e+03 4.655138778686523438e+01 1.776795196533203125e+01 3.320827782154083252e-01 7.615757465362548828e+00 2.384352207183837891e+00 6.812902688980102539e-01
2.218000000000000000e+03 2.364033889770507812e+01 2.813400840759277344e+01 -4.614376425743103027e-01 9.548815488815307617e-01 1.480331569910049438e-01 5.446397066116333008e-01
2.219000000000000000e+03 1.558726215362548828e+01 8.604096412658691406e+00 2.471462488174438477e+00 4.890440464019775391e+00 2.208570957183837891e+00 -1.944337129592895508e+00
2.220000000000000000e+03 1.479319286346435547e+01 4.672308444976806641e+00 1.525360107421875000e+00 1.782728433609008789e+00 9.924265742301940918e-01 -4.811050891876220703e-01
2.221000000000000000e+03 1.710385322570800781e+01 2.967689514160156250e+01 -8.202298283576965332e-01 2.070779800415039062e+00 3.751649856567382812e-01 2.054167389869689941e-01
2.222000000000000000e+03 1.486881160736083984e+01 7.875551223754882812e+00 2.571524143218994141e+00 3.466375112533569336e+00 1.811369776725769043e+00 -1.513061881065368652e+00
2.223000000000000000e+03 1.375833797454833984e+01 1.187539386749267578e+01 1.841141462326049805e+00 3.813008785247802734e+00 1.696245074272155762e+00 -1.311645627021789551e+00
2.224000000000000000e+03 7.196720886230468750e+01 2.663321113586425781e+01 -1.111828804016113281e+00 7.725069999694824219e+00 1.983972311019897461e+00 -1.436586678028106689e-01
2.225000000000000000e+03 4.548983001708984375e+01 -1.790886998176574707e+00 5.160563588142395020e-01 9.568081855773925781e+00 3.025241613388061523e+00 2.007399946451187134e-01
2.226000000000000000e+03 6.682199096679687500e+01 3.001649284362792969e+01 -2.679675519466400146e-01 4.419299125671386719e+00 1.245399475097656250e+00 -7.935835719108581543e-01
2.227000000000000000e+03 6.575817871093750000e+01 2.904661178588867188e+01 -2.584819495677947998e-01 3.722054719924926758e+00 1.039071798324584961e+00 -8.737431764602661133e-01
2.228000000000000000e+03 5.254819869995117188e+01 2.821769332885742188e+01 -9.641563892364501953e-01 3.705116987228393555e+00 8.222881555557250977e-01 1.626225948333740234e+00
2.229000000000000000e+03 5.346195220947265625e+01 2.683429527282714844e+01 -1.024924039840698242e+00 3.408217191696166992e+00 7.149879336357116699e-01 1.838842511177062988e+00
2.230000000000000000e+03 6.354583358764648438e+01 -7.582988262176513672e+00 1.094393953680992126e-01 2.227804422378540039e+00 7.011731863021850586e-01 -9.040496349334716797e-01
2.231000000000000000e+03 6.400723266601562500e+01 -7.941656708717346191e-01 4.613354206085205078e-01 2.873340368270874023e+00 1.000402808189392090e+00 2.411780655384063721e-01
2.232000000000000000e+03 4.472557449340820312e+01 1.941197967529296875e+01 -1.760560721158981323e-01 6.238758563995361328e+00 1.818810701370239258e+00 -2.053982466459274292e-01
2.233000000000000000e+03 6.714322090148925781e+00 1.916911506652832031e+01 2.459738254547119141e-01 6.652022600173950195e-01 2.733528316020965576e-01 -9.817480444908142090e-01
2.234000000000000000e+03 1.345482921600341797e+01 1.417138862609863281e+01 1.343608975410461426e+00 3.815651416778564453e+00 1.547778129577636719e+00 -1.164169430732727051e+00
2.235000000000000000e+03 4.209302520751953125e+01 1.736488342285156250e+01 -1.034969761967658997e-01 5.217019081115722656e+00 1.534056663513183594e+00 -8.883410096168518066e-01
2.236000000000000000e+03 4.380888748168945312e+01 -1.260724353790283203e+01 6.634038686752319336e-01 9.229579925537109375e+00 2.967895269393920898e+00 8.791490197181701660e-01
2.237000000000000000e+03 7.234937286376953125e+01 -1.824992370605468750e+01 1.692581653594970703e+00 9.017613410949707031e+00 3.213058471679687500e+00 -1.372594982385635376e-01
2.238000000000000000e+03 7.281865692138671875e+01 -1.962088012695312500e+01 1.601548194885253906e+00 8.719979286193847656e+00 3.096458196640014648e+00 -4.569840133190155029e-01
2.239000000000000000e+03 5.819837951660156250e+01 -2.057226896286010742e+00 1.425648570060729980e+00 2.727467417716979980e-01 5.095186233520507812e-01 -8.181618177331984043e-04
2.240000000000000000e+03 6.058963775634765625e+01 -4.478024959564208984e+00 7.539951205253601074e-01 9.778842926025390625e-01 5.195638537406921387e-01 -3.188367486000061035e-01
2.241000000000000000e+03 4.496993255615234375e+01 -3.242807388305664062e+00 -2.385611981153488159e-01 9.628687858581542969e+00 2.817038059234619141e+00 4.462112784385681152e-01
2.242000000000000000e+03 4.738457107543945312e+01 -2.020836353302001953e+00 5.275242328643798828e-01 7.249987125396728516e+00 2.333253383636474609e+00 -3.353502154350280762e-01
2.243000000000000000e+03 4.536096954345703125e+01 -7.788048744201660156e+00 -1.403059482574462891e+00 8.816149711608886719e+00 2.223927021026611328e+00 8.352566957473754883e-01
2.244000000000000000e+03 4.523771667480468750e+01 -6.141386032104492188e+00 -1.461887121200561523e+00 8.883136749267578125e+00 2.226374864578247070e+00 8.291248083114624023e-01
2.245000000000000000e+03 3.200461578369140625e+01 -8.899571418762207031e+00 1.602576613426208496e+00 1.359695792198181152e+00 8.886817097663879395e-01 -2.641275644302368164e+00
2.246000000000000000e+03 3.360879135131835938e+01 -1.321601867675781250e+01 1.387012958526611328e+00 3.065125465393066406e+00 1.335641503334045410e+00 -2.190589904785156250e+00
2.247000000000000000e+03 4.249575805664062500e+01 -1.337500858306884766e+01 8.790267705917358398e-01 8.763370513916015625e+00 2.892719268798828125e+00 6.646826267242431641e-01
2.248000000000000000e+03 5.683811187744140625e+01 -3.399818420410156250e+00 1.324913740158081055e+00 -1.065890025347471237e-02 3.942764401435852051e-01 -1.088979989290237427e-01
2.249000000000000000e+03 6.662084960937500000e+01 4.679380893707275391e+00 -3.406814113259315491e-02 5.194552898406982422e+00 1.548145413398742676e+00 1.166512727737426758e+00
2.250000000000000000e+03 7.066784667968750000e+01 -3.536099195480346680e-01 -4.762944281101226807e-01 6.486674308776855469e+00 1.803113937377929688e+00 4.062208905816078186e-02
2.251000000000000000e+03 4.226823806762695312e+01 -2.071144485473632812e+01 2.205358028411865234e+00 9.422232627868652344e+00 3.488277196884155273e+00 -6.036813184618949890e-02
2.252000000000000000e+03 1.208691024780273438e+01 -2.894845008850097656e+01 -5.607597827911376953e-01 1.407038092613220215e+00 2.538835108280181885e-01 2.140519954264163971e-02
2.253000000000000000e+03 7.234991073608398438e+00 -3.135350990295410156e+01 -3.574633300304412842e-01 1.128426790237426758e+00 2.312890440225601196e-01 3.954367041587829590e-01
2.254000000000000000e+03 8.941581726074218750e+00 -2.676014709472656250e+01 -4.236699342727661133e-01 1.704283595085144043e+00 3.841841220855712891e-01 5.344707369804382324e-01
2.255000000000000000e+03 3.696571731567382812e+01 -1.363614082336425781e+01 1.124238848686218262e+00 5.969525814056396484e+00 2.128129482269287109e+00 -8.786765336990356445e-01
2.256000000000000000e+03 4.525103759765625000e+01 -9.733145713806152344e+00 -7.694017291069030762e-01 8.871760368347167969e+00 2.430707693099975586e+00 9.666197896003723145e-01
2.257000000000000000e+03 6.059905242919921875e+01 2.885016059875488281e+01 2.233135513961315155e-02 1.619681119918823242e+00 4.926037490367889404e-01 4.715902209281921387e-01
2.258000000000000000e+03 6.076474380493164062e+01 2.706434631347656250e+01 -4.027894735336303711e-01 9.258149266242980957e-01 1.569076478481292725e-01 4.379704594612121582e-01
2.259000000000000000e+03 6.616863250732421875e+00 -2.172974205017089844e+01 2.757039666175842285e-01 1.390547394752502441e+00 4.998753964900970459e-01 8.442598581314086914e-01
2.260000000000000000e+03 7.306340026855468750e+01 -2.108976936340332031e+01 1.039147734642028809e+00 8.490384101867675781e+00 2.858859539031982422e+00 -9.771931171417236328e-01
2.261000000000000000e+03 1.742079353332519531e+01 -3.676418304443359375e+01 -1.865928173065185547e-01 3.927241861820220947e-01 6.183940917253494263e-02 -1.663945466279983521e-01
2.262000000000000000e+03 7.160690307617187500e+01 1.104573345184326172e+01 8.410036563873291016e-01 8.849219322204589844e+00 2.907066822052001953e+00 -5.938903987407684326e-02
2.263000000000000000e+03 7.163850402832031250e+01 8.240105628967285156e+00 5.591237172484397888e-02 8.188283920288085938e+00 2.473258733749389648e+00 -1.286760866641998291e-01
2.264000000000000000e+03 7.163339233398437500e+01 4.088638305664062500e+01 2.790404558181762695e-01 6.476264476776123047e+00 2.026591539382934570e+00 -6.940658390522003174e-02
2.265000000000000000e+03 6.627651214599609375e+01 2.781612205505371094e+01 -6.841821670532226562e-01 4.007380485534667969e+00 9.969594478607177734e-01 -1.025829911231994629e+00
2.266000000000000000e+03 6.628766632080078125e+01 2.637894630432128906e+01 -1.076296091079711914e+00 3.984853029251098633e+00 8.725671172142028809e-01 -1.355052947998046875e+00
2.267000000000000000e+03 3.605619812011718750e+01 -3.173436927795410156e+01 -7.856912612915039062e-01 5.792932987213134766e+00 1.502172589302062988e+00 1.128285050392150879e+00
2.268000000000000000e+03 4.019021987915039062e+01 -2.974622726440429688e+01 -1.623595803976058960e-01 7.269199848175048828e+00 2.132051944732666016e+00 1.223163306713104248e-01
2.269000000000000000e+03 6.745938873291015625e+01 3.660633325576782227e+00 -2.046837210655212402e-01 5.470086574554443359e+00 1.579620838165283203e+00 7.509690523147583008e-01
2.270000000000000000e+03 3.821573638916015625e+01 -2.993317222595214844e+01 -2.732799351215362549e-01 7.000289440155029297e+00 2.018102884292602539e+00 6.199524402618408203e-01
2.271000000000000000e+03 3.738710021972656250e+01 -3.243930816650390625e+01 -9.647880792617797852e-01 6.077412128448486328e+00 1.533787250518798828e+00 7.547709941864013672e-01
2.272000000000000000e+03 3.931984710693359375e+01 -3.279759979248046875e+01 -1.058909058570861816e+00 6.403032779693603516e+00 1.603237032890319824e+00 3.095868527889251709e-01
2.273000000000000000e+03 4.745862197875976562e+01 -4.938069343566894531e+00 -5.387808680534362793e-01 6.825235843658447266e+00 1.885936498641967773e+00 4.036478996276855469e-01
2.274000000000000000e+03 4.937361526489257812e+01 -5.217346191406250000e+00 3.301078826189041138e-02 4.142388820648193359e+00 1.252619862556457520e+00 7.106518149375915527e-01
2.275000000000000000e+03 7.963779449462890625e+00 -2.331828308105468750e+01 9.454531595110893250e-03 1.882742285728454590e+00 5.676590204238891602e-01 7.883592247962951660e-01
2.276000000000000000e+03 2.133578109741210938e+01 -4.149034023284912109e+00 1.675253033638000488e+00 6.075840950012207031e+00 2.325328111648559570e+00 1.898586630821228027e+00
2.277000000000000000e+03 2.014768028259277344e+01 -4.607836246490478516e+00 2.127473115921020508e+00 2.615631818771362305e+00 1.422931551933288574e+00 2.153169393539428711e+00
2.278000000000000000e+03 2.167597389221191406e+01 -4.335971832275390625e+00 1.367514133453369141e+00 6.625955104827880859e+00 2.398040771484375000e+00 1.117970347404479980e+00
2.279000000000000000e+03 2.201568031311035156e+01 -4.600361824035644531e+00 1.075676202774047852e+00 6.676608562469482422e+00 2.325685262680053711e+00 2.730580866336822510e-01
2.280000000000000000e+03 2.218401527404785156e+01 -4.342471122741699219e+00 1.183826088905334473e+00 7.502199649810791016e+00 2.605807542800903320e+00 -1.631266176700592041e-01
2.281000000000000000e+03 1.935855484008789062e+01 -4.352176666259765625e+00 2.308285236358642578e+00 1.221110105514526367e+00 1.058818578720092773e+00 1.855821371078491211e+00
2.282000000000000000e+03 2.173997116088867188e+01 -5.195806980133056641e+00 1.116772413253784180e+00 5.105407238006591797e+00 1.866653919219970703e+00 6.725520491600036621e-01
2.283000000000000000e+03 2.333531570434570312e+01 -4.232637882232666016e+00 2.178962945938110352e+00 6.821737766265869141e+00 2.700210332870483398e+00 -3.065039873123168945e+00
2.284000000000000000e+03 2.387467193603515625e+01 -3.895755290985107422e+00 3.303242683410644531e+00 5.772442340850830078e+00 2.722705364227294922e+00 -4.129221916198730469e+00
2.285000000000000000e+03 1.861892318725585938e+01 -4.528707027435302734e+00 2.006703615188598633e+00 6.065153479576110840e-01 7.839657068252563477e-01 1.613844037055969238e+00
2.286000000000000000e+03 1.888814544677734375e+01 -4.684077739715576172e+00 2.037543535232543945e+00 8.816435337066650391e-01 8.757561445236206055e-01 1.758039712905883789e+00
2.287000000000000000e+03 1.833604049682617188e+01 -4.471666336059570312e+00 1.882876515388488770e+00 3.928257524967193604e-01 6.827107071876525879e-01 1.477088093757629395e+00
2.288000000000000000e+03 1.797312164306640625e+01 -4.510601043701171875e+00 1.729323506355285645e+00 2.687660455703735352e-01 5.994268655776977539e-01 1.398515582084655762e+00
2.289000000000000000e+03 1.587899303436279297e+01 -5.269912242889404297e+00 9.446901679039001465e-01 1.502312719821929932e-01 3.284764289855957031e-01 1.297754526138305664e+00
2.290000000000000000e+03 1.001338958740234375e+01 -1.000905418395996094e+01 8.844970166683197021e-02 1.785303592681884766e+00 5.621259808540344238e-01 1.795864701271057129e-01
2.291000000000000000e+03 2.481606292724609375e+01 -4.555882453918457031e+00 3.338851213455200195e+00 3.478786230087280273e+00 2.045291185379028320e+00 -3.568902015686035156e+00
2.292000000000000000e+03 2.251767921447753906e+01 -4.671975612640380859e+00 1.198043465614318848e+00 6.645648956298828125e+00 2.353107690811157227e+00 -8.546656370162963867e-01
2.293000000000000000e+03 1.711785888671875000e+01 -6.808628559112548828e+00 1.078905463218688965e+00 4.540082812309265137e-01 4.598741233348846436e-01 1.880806684494018555e+00
2.294000000000000000e+03 1.705100631713867188e+01 3.377449274063110352e+00 1.286030888557434082e+00 3.262363433837890625e+00 1.364518284797668457e+00 -1.525912046432495117e+00
2.295000000000000000e+03 1.642200088500976562e+01 6.307707309722900391e+00 2.796671628952026367e+00 4.647619247436523438e+00 2.233287096023559570e+00 -2.107377290725708008e+00
2.296000000000000000e+03 4.583229541778564453e+00 -4.966330051422119141e+00 -1.509574353694915771e-01 -3.685397654771804810e-02 -5.634342506527900696e-02 -4.363578259944915771e-01
2.297000000000000000e+03 5.170438766479492188e+00 -5.523581504821777344e+00 -1.504470854997634888e-01 4.114774614572525024e-02 -3.278980031609535217e-02 -4.527894258499145508e-01
2.298000000000000000e+03 1.129986476898193359e+01 -6.427211284637451172e+00 -7.066800445318222046e-02 8.240708708763122559e-01 2.260208576917648315e-01 5.184127688407897949e-01
2.299000000000000000e+03 2.470238685607910156e+00 6.793968677520751953e+00 6.882035732269287109e-02 -1.013603806495666504e+00 -2.834350466728210449e-01 6.128939986228942871e-01
2.300000000000000000e+03 4.272749900817871094e+00 5.327951908111572266e+00 -1.669825986027717590e-02 -5.995069146156311035e-01 -1.848615556955337524e-01 9.131360054016113281e-01
2.301000000000000000e+03 1.441439533233642578e+01 5.680330753326416016e+00 1.918969988822937012e+00 1.940483212471008301e+00 1.157835960388183594e+00 -6.246814131736755371e-01
2.302000000000000000e+03 5.290334701538085938e+00 6.311090469360351562e+00 2.120612263679504395e-01 -5.904521346092224121e-01 -1.135172843933105469e-01 9.614326357841491699e-01
2.303000000000000000e+03 8.538362503051757812e+00 -5.743029117584228516e+00 -2.232143431901931763e-01 5.672476291656494141e-01 1.032099872827529907e-01 -1.525934487581253052e-01
2.304000000000000000e+03 7.016427993774414062e+00 -4.969651699066162109e+00 -2.482883930206298828e-01 2.762631773948669434e-01 8.392431773245334625e-03 -3.235156834125518799e-01
2.305000000000000000e+03 7.876286029815673828e+00 -5.850163936614990234e+00 -2.119100391864776611e-01 4.738956689834594727e-01 7.859569042921066284e-02 -2.488027513027191162e-01
2.306000000000000000e+03 1.198036956787109375e+01 -5.839309692382812500e+00 3.966464661061763763e-03 6.391484141349792480e-01 1.929344683885574341e-01 6.207449436187744141e-01
2.307000000000000000e+03 7.648931503295898438e+00 4.898269653320312500e+00 2.165719680488109589e-02 -3.673147857189178467e-01 -1.036972701549530029e-01 1.156466722488403320e+00
2.308000000000000000e+03 2.360315132141113281e+01 -8.941461563110351562e+00 3.164190053939819336e-01 2.055163383483886719e+00 7.114747166633605957e-01 -6.789741516113281250e-01
2.309000000000000000e+03 2.676058959960937500e+01 -1.094971370697021484e+01 1.356551498174667358e-01 1.218649983406066895e+00 4.062915444374084473e-01 -1.575304746627807617e+00
2.310000000000000000e+03 2.274249267578125000e+01 -4.414769649505615234e+00 1.393941044807434082e+00 7.278872966766357422e+00 2.601844310760498047e+00 -1.574087500572204590e+00
2.311000000000000000e+03 9.015247344970703125e+00 4.691743850708007812e+00 8.413074165582656860e-02 -2.877247333526611328e-01 -6.107820197939872742e-02 1.116374015808105469e+00
2.312000000000000000e+03 7.209653854370117188e+00 5.939283370971679688e+00 3.453761339187622070e-01 -3.819757997989654541e-01 -1.097990479320287704e-02 1.041948080062866211e+00
2.313000000000000000e+03 1.371892452239990234e+01 5.633587360382080078e+00 1.709432959556579590e+00 1.416905641555786133e+00 9.379015564918518066e-01 -2.988479435443878174e-01
2.314000000000000000e+03 1.327687358856201172e+01 -5.178923130035400391e+00 2.052271366119384766e-01 3.796857893466949463e-01 1.754738837480545044e-01 7.896934151649475098e-01
2.315000000000000000e+03 2.229007339477539062e+01 -9.216486930847167969e+00 3.072774782776832581e-02 1.761968374252319336e+00 5.378088355064392090e-01 7.556471228599548340e-02
2.316000000000000000e+03 2.277473258972167969e+01 -1.054866790771484375e+01 -5.237053036689758301e-01 1.152554035186767578e+00 1.886546313762664795e-01 -3.935723751783370972e-02
2.317000000000000000e+03 2.525176429748535156e+01 -1.021959495544433594e+01 9.551005065441131592e-02 1.427861452102661133e+00 4.570114612579345703e-01 -1.165410637855529785e+00
2.318000000000000000e+03 1.338595867156982422e+01 -5.902562618255615234e+00 2.565861642360687256e-01 5.273234248161315918e-01 2.351728826761245728e-01 9.553380608558654785e-01
2.319000000000000000e+03 1.399812602996826172e+01 -5.921370983123779297e+00 4.137552380561828613e-01 4.408664405345916748e-01 2.563864886760711670e-01 1.123109102249145508e+00
2.320000000000000000e+03 1.123551750183105469e+01 4.722216606140136719e+00 5.122201442718505859e-01 -1.475689373910427094e-02 1.492389738559722900e-01 7.746188044548034668e-01
2.321000000000000000e+03 3.074494361877441406e+01 -8.539299964904785156e+00 1.644463062286376953e+00 1.431091666221618652e+00 9.226664304733276367e-01 -2.933019638061523438e+00
2.322000000000000000e+03 8.452181816101074219e+00 8.500494003295898438e+00 1.163179993629455566e+00 8.462134003639221191e-02 3.743403851985931396e-01 3.975889384746551514e-01
2.323000000000000000e+03 1.179307079315185547e+01 5.737225055694580078e+00 1.226570606231689453e+00 4.888859689235687256e-01 5.146369934082031250e-01 3.400960266590118408e-01
2.324000000000000000e+03 1.098637771606445312e+01 5.332321166992187500e+00 8.325316309928894043e-01 8.520872890949249268e-02 2.753221094608306885e-01 6.881586909294128418e-01
2.325000000000000000e+03 1.348733139038085938e+01 -9.266345024108886719e+00 1.624219678342342377e-02 1.576167821884155273e+00 4.777230024337768555e-01 1.551731467247009277e+00
2.326000000000000000e+03 6.295021057128906250e+01 -1.709538102149963379e+00 6.342337727546691895e-01 2.267165660858154297e+00 8.704198002815246582e-01 6.589850783348083496e-02
2.327000000000000000e+03 2.548237037658691406e+01 -1.099540996551513672e+01 -2.589911222457885742e-01 1.115977168083190918e+00 2.570958137512207031e-01 -1.044319748878479004e+00
2.328000000000000000e+03 2.669125366210937500e+01 -6.777217864990234375e+00 2.572021007537841797e+00 2.163668870925903320e+00 1.420706987380981445e+00 -2.315172910690307617e+00
2.329000000000000000e+03 7.329846954345703125e+01 -1.501754665374755859e+01 8.573909401893615723e-01 8.397178649902343750e+00 2.776370763778686523e+00 7.551139593124389648e-01
2.330000000000000000e+03 7.281362152099609375e+01 -1.401559448242187500e+01 6.734273433685302734e-01 8.455604553222656250e+00 2.738709688186645508e+00 8.289805650711059570e-01
2.331000000000000000e+03 1.138196372985839844e+01 1.341442203521728516e+01 1.466487765312194824e+00 2.205082416534423828e+00 1.101471066474914551e+00 -9.606827497482299805e-01
2.332000000000000000e+03 4.405076980590820312e+01 -3.536764860153198242e+00 -4.573217630386352539e-01 1.020472908020019531e+01 2.924222230911254883e+00 7.529687881469726562e-01
2.333000000000000000e+03 4.555628204345703125e+01 -4.708629608154296875e+00 -8.819776177406311035e-01 8.767892837524414062e+00 2.365774631500244141e+00 4.976428449153900146e-01
2.334000000000000000e+03 1.670791816711425781e+01 -1.021260738372802734e+01 2.380478680133819580e-01 3.337782323360443115e-01 1.715478301048278809e-01 2.218553543090820312e+00
2.335000000000000000e+03 1.862625503540039062e+01 -9.653469085693359375e+00 1.604640483856201172e-01 1.681493222713470459e-01 9.858401119709014893e-02 1.587988972663879395e+00
2.336000000000000000e+03 2.726087951660156250e+01 -8.783015251159667969e+00 1.207371830940246582e+00 1.921774506568908691e+00 9.387438893318176270e-01 -2.132777452468872070e+00
2.337000000000000000e+03 6.833068084716796875e+01 -7.431329250335693359e+00 -6.887063980102539062e-01 6.080965042114257812e+00 1.617677569389343262e+00 -6.256144642829895020e-01
2.338000000000000000e+03 7.178531646728515625e+01 -1.272662258148193359e+01 1.636990457773208618e-01 8.725290298461914062e+00 2.666696786880493164e+00 6.730784773826599121e-01
2.339000000000000000e+03 7.278322601318359375e+01 -1.301948356628417969e+01 2.790386676788330078e-01 8.426526069641113281e+00 2.611669301986694336e+00 9.073786735534667969e-01
2.340000000000000000e+03 2.498474693298339844e+01 -6.209119796752929688e+00 2.316225290298461914e+00 3.039596080780029297e+00 1.606746435165405273e+00 -2.528876543045043945e+00
2.341000000000000000e+03 8.388031005859375000e+00 -4.941116333007812500e+00 -2.710231542587280273e-01 4.113852679729461670e-01 4.210863262414932251e-02 -1.760023981332778931e-01
2.342000000000000000e+03 1.094091701507568359e+01 -1.072926998138427734e+01 1.845211088657379150e-01 2.341659784317016602e+00 7.578542232513427734e-01 4.881933927536010742e-01
2.343000000000000000e+03 6.601627349853515625e+00 -1.009646129608154297e+01 9.228778630495071411e-02 7.137038111686706543e-01 2.417974919080734253e-01 -4.229584932327270508e-01
2.344000000000000000e+03 2.602679443359375000e+01 -1.033413982391357422e+01 2.253282368183135986e-01 1.452044010162353516e+00 5.032116770744323730e-01 -1.431664943695068359e+00
2.345000000000000000e+03 5.968373489379882812e+01 -5.510866641998291016e+00 5.578048229217529297e-01 5.872104167938232422e-01 3.435045778751373291e-01 -2.951457500457763672e-01
2.346000000000000000e+03 7.699291706085205078e+00 -1.448543834686279297e+01 8.678447008132934570e-01 1.629923701286315918e+00 7.493305206298828125e-01 -1.686738245189189911e-02
2.347000000000000000e+03 8.681532859802246094e+00 -1.383651256561279297e+01 9.403808712959289551e-01 2.239348888397216797e+00 9.539189338684082031e-01 1.202043425291776657e-02
2.348000000000000000e+03 4.123796463012695312e+01 -9.116849899291992188e+00 -6.216927170753479004e-01 7.642673492431640625e+00 2.106294155120849609e+00 1.002668142318725586e+00
2.349000000000000000e+03 4.279347610473632812e+01 1.823682785034179688e+01 -1.969582140445709229e-01 5.453642845153808594e+00 1.577005386352539062e+00 -7.096157073974609375e-01
2.350000000000000000e+03 1.537486934661865234e+01 6.337865352630615234e+00 2.447152853012084961e+00 3.244862318038940430e+00 1.707604527473449707e+00 -1.345454216003417969e+00
2.351000000000000000e+03 1.389520740509033203e+01 -7.461079120635986328e+00 2.980360090732574463e-01 8.348394036293029785e-01 3.398626148700714111e-01 1.420398473739624023e+00
2.352000000000000000e+03 4.551060104370117188e+01 -6.881124496459960938e+00 -1.503613591194152832e+00 8.785452842712402344e+00 2.184551954269409180e+00 8.428533077239990234e-01
2.353000000000000000e+03 4.196337127685546875e+01 -4.671958923339843750e+00 -9.935252070426940918e-01 9.392624855041503906e+00 2.519729852676391602e+00 2.017767906188964844e+00
2.354000000000000000e+03 4.365018367767333984e+00 6.147972106933593750e+00 1.062742248177528381e-01 -6.686855554580688477e-01 -1.687233895063400269e-01 9.043143987655639648e-01
2.355000000000000000e+03 3.220445632934570312e+01 -1.067254447937011719e+01 1.361223697662353516e+00 1.771354317665100098e+00 9.397734403610229492e-01 -2.593656063079833984e+00
2.356000000000000000e+03 1.942081832885742188e+01 -9.247183799743652344e+00 1.870165318250656128e-01 6.603264808654785156e-01 2.542029023170471191e-01 1.391321539878845215e+00
2.357000000000000000e+03 6.502691650390625000e+01 1.719567775726318359e-01 2.515031099319458008e-01 3.539293527603149414e+00 1.137238979339599609e+00 4.083068072795867920e-01
2.358000000000000000e+03 6.215059661865234375e+01 -8.032481670379638672e-01 8.383292555809020996e-01 1.812910318374633789e+00 7.953718900680541992e-01 2.359813600778579712e-01
2.359000000000000000e+03 4.328673171997070312e+01 1.457363319396972656e+01 1.858990341424942017e-01 7.164512157440185547e+00 2.205123424530029297e+00 -3.090853393077850342e-01
2.360000000000000000e+03 4.507004547119140625e+01 1.468142318725585938e+01 4.186013638973236084e-01 8.243767738342285156e+00 2.598710536956787109e+00 6.119678020477294922e-01
2.361000000000000000e+03 5.180596828460693359e+00 -6.576477527618408203e+00 -1.137448698282241821e-01 8.974390476942062378e-02 -7.200287654995918274e-03 -4.786120057106018066e-01
2.362000000000000000e+03 4.460240554809570312e+01 -6.764216423034667969e+00 -1.515522718429565430e+00 9.119683265686035156e+00 2.281248092651367188e+00 8.448461890220642090e-01
2.363000000000000000e+03 4.008493041992187500e+01 -8.679266929626464844e+00 -3.603532314300537109e-01 6.610677719116210938e+00 1.875097393989562988e+00 1.068718433380126953e+00
2.364000000000000000e+03 6.611937713623046875e+01 9.609741568565368652e-01 4.364786297082901001e-02 4.329883575439453125e+00 1.312059402465820312e+00 5.065331459045410156e-01
2.365000000000000000e+03 1.137903976440429688e+01 -9.759843826293945312e+00 1.904936693608760834e-02 2.045376062393188477e+00 6.193276047706604004e-01 7.081269025802612305e-01
2.366000000000000000e+03 7.891065120697021484e+00 -7.975097656250000000e+00 -8.636529743671417236e-02 8.051764369010925293e-01 2.156433463096618652e-01 -2.568970024585723877e-01
2.367000000000000000e+03 3.893331146240234375e+01 2.281765174865722656e+01 -6.098182797431945801e-01 3.031020879745483398e+00 7.263607382774353027e-01 -1.006237983703613281e+00
2.368000000000000000e+03 3.657534027099609375e+01 2.343201637268066406e+01 -5.952212810516357422e-01 2.015041589736938477e+00 4.259460568428039551e-01 -9.109464287757873535e-01
2.369000000000000000e+03 7.334215545654296875e+01 -3.086264991760253906e+01 -6.061492562294006348e-01 7.415476799011230469e+00 2.042798280715942383e+00 -3.301860690116882324e-01
2.370000000000000000e+03 7.030692291259765625e+01 -2.989824295043945312e+01 -9.412486553192138672e-01 6.816487789154052734e+00 1.762571811676025391e+00 1.382023096084594727e-01
2.371000000000000000e+03 7.090054321289062500e+01 -2.674927520751953125e+01 -8.547690510749816895e-01 7.971225738525390625e+00 2.134937047958374023e+00 -3.341815471649169922e-01
2.372000000000000000e+03 7.522823333740234375e+01 2.397875785827636719e+01 -4.476484358310699463e-01 8.362417221069335938e+00 2.374430656433105469e+00 8.027240633964538574e-01
2.373000000000000000e+03 2.802026367187500000e+01 -9.564791679382324219e+00 9.539193511009216309e-01 1.580271482467651367e+00 7.602572441101074219e-01 -2.302975177764892578e+00
2.374000000000000000e+03 7.260865020751953125e+01 2.220541954040527344e+01 -6.597026586532592773e-01 8.728689193725585938e+00 2.420696020126342773e+00 1.097873926162719727e+00
2.375000000000000000e+03 7.670241832733154297e+00 2.741463661193847656e+01 -3.454072475433349609e-01 1.430706501007080078e+00 3.255897760391235352e-01 -8.018810153007507324e-01
2.376000000000000000e+03 8.823686599731445312e+00 3.201253509521484375e+01 -3.901493251323699951e-01 1.538559079170227051e+00 3.445229232311248779e-01 -4.523404538631439209e-01
2.377000000000000000e+03 7.342780303955078125e+01 2.590520477294921875e+01 -8.585017323493957520e-01 8.222600936889648438e+00 2.209229707717895508e+00 3.676734268665313721e-01
2.378000000000000000e+03 7.215171051025390625e+01 -2.632278251647949219e+01 -6.229376792907714844e-01 8.161130905151367188e+00 2.261457920074462891e+00 -7.773358225822448730e-01
2.379000000000000000e+03 7.337801361083984375e+01 -1.762116813659667969e+01 1.384581327438354492e+00 8.380770683288574219e+00 2.929605484008789062e+00 1.018720269203186035e-01
2.380000000000000000e+03 7.413684082031250000e+01 9.871636390686035156e+00 3.724612891674041748e-01 7.885414600372314453e+00 2.477362871170043945e+00 -5.066367387771606445e-01
2.381000000000000000e+03 7.438748168945312500e+01 1.128413581848144531e+01 5.173591971397399902e-01 7.865458011627197266e+00 2.514845132827758789e+00 -3.797580003738403320e-01
2.382000000000000000e+03 7.344142913818359375e+01 7.635887145996093750e+00 -4.055831208825111389e-02 7.921572685241699219e+00 2.364304304122924805e+00 -4.709080457687377930e-01
2.383000000000000000e+03 7.411983489990234375e+01 3.716363668441772461e+00 -3.417114615440368652e-01 7.495944499969482422e+00 2.146270036697387695e+00 -3.802236914634704590e-01
2.384000000000000000e+03 7.318402099609375000e+01 -4.984814643859863281e+00 -5.823256969451904297e-01 7.298061370849609375e+00 2.014720678329467773e+00 2.152592986822128296e-01
2.385000000000000000e+03 7.417109680175781250e+01 1.330481910705566406e+01 8.209051489830017090e-01 8.044095039367675781e+00 2.659500122070312500e+00 -3.018110583070665598e-04
2.386000000000000000e+03 7.413100433349609375e+01 -9.305870056152343750e+00 -3.896473050117492676e-01 7.756253242492675781e+00 2.209981918334960938e+00 8.155454993247985840e-01
2.387000000000000000e+03 7.412072753906250000e+01 -2.499243259429931641e+00 -3.956742286682128906e-01 7.298998832702636719e+00 2.070997476577758789e+00 6.442204862833023071e-02
2.388000000000000000e+03 7.339388275146484375e+01 -1.358841657638549805e+00 -4.346750974655151367e-01 7.184762954711914062e+00 2.025026321411132812e+00 -1.479012053459882736e-02
2.389000000000000000e+03 7.257858276367187500e+01 -2.899609506130218506e-01 -4.445326924324035645e-01 6.982903957366943359e+00 1.961511373519897461e+00 -5.493766441941261292e-02
2.390000000000000000e+03 7.405899047851562500e+01 -8.140957832336425781e+00 -4.944284856319427490e-01 7.652094841003417969e+00 2.147300004959106445e+00 6.334861516952514648e-01
2.391000000000000000e+03 7.306611633300781250e+01 -8.185008049011230469e+00 -5.924747586250305176e-01 7.676719188690185547e+00 2.125273466110229492e+00 5.509520769119262695e-01
2.392000000000000000e+03 7.243907928466796875e+01 1.708205986022949219e+01 1.117320895195007324e+00 9.087088584899902344e+00 3.061322689056396484e+00 7.332602739334106445e-01
2.393000000000000000e+03 3.649556732177734375e+01 -1.248711776733398438e+01 1.041488885879516602e+00 5.189254283905029297e+00 1.869222998619079590e+00 -1.049641728401184082e+00
2.394000000000000000e+03 3.721558380126953125e+01 -9.191020011901855469e+00 7.100068330764770508e-01 3.902029275894165039e+00 1.383610844612121582e+00 5.609508603811264038e-02
2.395000000000000000e+03 6.114512443542480469e+00 -1.298228549957275391e+01 4.236230254173278809e-01 6.989703178405761719e-01 3.367780148983001709e-01 -3.332677483558654785e-01
2.396000000000000000e+03 6.539862823486328125e+01 -1.006849288940429688e+01 -2.307840883731842041e-01 3.805095434188842773e+00 1.072293400764465332e+00 -1.797644972801208496e+00
2.397000000000000000e+03 7.128960418701171875e+01 -2.813253211975097656e+01 -8.873516321182250977e-01 7.588716983795166016e+00 2.010409593582153320e+00 -2.905110418796539307e-01
2.398000000000000000e+03 7.270360565185546875e+01 -2.769570732116699219e+01 -6.996622085571289062e-01 7.838612556457519531e+00 2.141685009002685547e+00 -6.762062907218933105e-01
2.399000000000000000e+03 8.503964424133300781e+00 2.064175796508789062e+01 1.279427558183670044e-01 1.435900926589965820e+00 4.691531062126159668e-01 -1.154172182083129883e+00
2.400000000000000000e+03 7.140173339843750000e+01 2.788579368591308594e+01 -8.739656209945678711e-01 7.155530929565429688e+00 1.884469509124755859e+00 -3.256030678749084473e-01
2.401000000000000000e+03 6.657995223999023438e+00 2.749199104309082031e+01 -2.721596360206604004e-01 1.226870417594909668e+00 2.864132523536682129e-01 -7.561821341514587402e-01
2.402000000000000000e+03 5.229227542877197266e+00 2.541560554504394531e+01 -1.393311768770217896e-01 7.933257222175598145e-01 1.961983740329742432e-01 -8.002523779869079590e-01
2.403000000000000000e+03 5.986084461212158203e+00 -9.243813514709472656e+00 2.484695613384246826e-02 4.393532276153564453e-01 1.392600536346435547e-01 -4.839524328708648682e-01
2.404000000000000000e+03 4.995480060577392578e+00 -9.544709205627441406e+00 5.552973598241806030e-02 1.465960294008255005e-01 6.063773110508918762e-02 -5.279635787010192871e-01
2.405000000000000000e+03 4.097723388671875000e+01 -2.277207183837890625e+01 2.112514257431030273e+00 8.844906806945800781e+00 3.287226200103759766e+00 1.410635560750961304e-01
2.406000000000000000e+03 5.664756298065185547e+00 -2.484129142761230469e+01 -1.028793379664421082e-01 9.800619482994079590e-01 2.631547749042510986e-01 8.336895108222961426e-01
2.407000000000000000e+03 5.503376960754394531e+00 -2.744933319091796875e+01 -2.324108481407165527e-01 9.696594476699829102e-01 2.211745679378509521e-01 6.875522136688232422e-01
2.408000000000000000e+03 4.777500629425048828e+00 -1.733837318420410156e+01 4.605129361152648926e-01 1.837482601404190063e-01 1.932783573865890503e-01 2.661172151565551758e-01
2.409000000000000000e+03 6.835646152496337891e+00 1.727022361755371094e+01 4.300695955753326416e-01 5.522471070289611816e-01 2.946950197219848633e-01 -8.742243051528930664e-01
2.410000000000000000e+03 7.323492527008056641e+00 1.834197425842285156e+01 3.459283411502838135e-01 7.701975703239440918e-01 3.348377645015716553e-01 -9.788192510604858398e-01
2.411000000000000000e+03 5.434381961822509766e+00 -1.859677505493164062e+01 5.176624059677124023e-01 6.334656476974487305e-01 3.453384041786193848e-01 5.196972489356994629e-01
2.412000000000000000e+03 5.454717636108398438e+00 1.599963665008544922e+01 3.963024914264678955e-01 -9.400835633277893066e-02 9.068823605775833130e-02 -5.956901907920837402e-01
2.413000000000000000e+03 6.700236797332763672e+00 1.592220497131347656e+01 5.625855922698974609e-01 3.457712531089782715e-01 2.725070416927337646e-01 -6.988283991813659668e-01
2.414000000000000000e+03 7.500564098358154297e+00 1.412598705291748047e+01 8.541246652603149414e-01 4.909964501857757568e-01 4.035363495349884033e-01 -5.481856465339660645e-01
2.415000000000000000e+03 5.279568195343017578e+00 1.326763439178466797e+01 5.884009003639221191e-01 -4.178189337253570557e-01 5.117459967732429504e-02 -1.861119121313095093e-01
2.416000000000000000e+03 5.430986881256103516e+00 2.023274421691894531e+01 1.009537726640701294e-01 3.469420969486236572e-01 1.343687623739242554e-01 -8.935447335243225098e-01
2.417000000000000000e+03 6.519001960754394531e+00 1.458888530731201172e+01 6.454601883888244629e-01 1.840985417366027832e-01 2.488676160573959351e-01 -5.190669894218444824e-01
2.418000000000000000e+03 6.331906795501708984e+00 -1.973186111450195312e+01 5.446084141731262207e-01 1.148262143135070801e+00 5.078611373901367188e-01 6.852871179580688477e-01
2.419000000000000000e+03 5.689536094665527344e+00 -3.374999618530273438e+01 -2.122498154640197754e-01 9.914955496788024902e-01 2.337737232446670532e-01 2.867886424064636230e-01
2.420000000000000000e+03 7.722255706787109375e+00 -3.345711898803710938e+01 -3.219846785068511963e-01 1.075655817985534668e+00 2.261013537645339966e-01 2.544439136981964111e-01
2.421000000000000000e+03 6.704515457153320312e+00 -1.459542560577392578e+01 7.235625982284545898e-01 1.080035805702209473e+00 5.410795211791992188e-01 -6.237096339464187622e-02
2.422000000000000000e+03 5.331624507904052734e+00 -1.546212196350097656e+01 4.922631680965423584e-01 3.412870168685913086e-01 2.500650584697723389e-01 -2.749358303844928741e-02
2.423000000000000000e+03 7.317462444305419922e+00 2.623621177673339844e+01 -2.882694303989410400e-01 1.333383917808532715e+00 3.135343492031097412e-01 -8.834329843521118164e-01
2.424000000000000000e+03 1.638818740844726562e+01 2.021155929565429688e+01 -9.286220371723175049e-02 4.588820457458496094e+00 1.348787426948547363e+00 -5.281984806060791016e-01
2.425000000000000000e+03 5.336435317993164062e+00 7.187682628631591797e+00 3.763564825057983398e-01 -6.141049861907958984e-01 -7.132454216480255127e-02 8.507493734359741211e-01
2.426000000000000000e+03 5.521731853485107422e+00 8.170304298400878906e+00 5.069207549095153809e-01 -5.891827344894409180e-01 -2.467859163880348206e-02 6.954918503761291504e-01
2.427000000000000000e+03 6.952682495117187500e+01 -2.336125946044921875e+01 4.501708224415779114e-02 9.451170921325683594e+00 2.848856449127197266e+00 -1.055771410465240479e-01
2.428000000000000000e+03 7.026638793945312500e+01 -2.416923141479492188e+01 -2.057880908250808716e-01 8.910144805908203125e+00 2.611307144165039062e+00 -3.701901733875274658e-01
2.429000000000000000e+03 6.523922443389892578e+00 1.337834072113037109e+01 7.944228053092956543e-01 4.554514214396476746e-02 2.519903779029846191e-01 -3.224231600761413574e-01
2.430000000000000000e+03 7.287731933593750000e+01 2.861227035522460938e+01 -6.961206793785095215e-01 7.598736286163330078e+00 2.070784568786621094e+00 -1.421692371368408203e-01
2.431000000000000000e+03 5.392507553100585938e+00 -1.210010719299316406e+01 2.999263107776641846e-01 3.183224201202392578e-01 1.854746192693710327e-01 -4.293693006038665771e-01
2.432000000000000000e+03 7.121563434600830078e+00 -1.359132003784179688e+01 6.590144038200378418e-01 1.226726770401000977e+00 5.657223463058471680e-01 -2.107497900724411011e-01
2.433000000000000000e+03 5.833385467529296875e+00 9.265437126159667969e+00 6.401924490928649902e-01 -4.981634318828582764e-01 4.260870814323425293e-02 5.123635530471801758e-01
2.434000000000000000e+03 6.298313617706298828e+00 1.054480934143066406e+01 8.060693144798278809e-01 -2.820636928081512451e-01 1.572016924619674683e-01 2.188486903905868530e-01
2.435000000000000000e+03 7.345139312744140625e+01 2.113082313537597656e+01 -1.437218636274337769e-01 8.499610900878906250e+00 2.506766796112060547e+00 1.155424833297729492e+00
2.436000000000000000e+03 4.625421142578125000e+01 -5.609189987182617188e+00 -1.115826725959777832e+00 8.066350936889648438e+00 2.085157394409179688e+00 6.168645024299621582e-01
2.437000000000000000e+03 6.061826229095458984e+00 -7.117823600769042969e+00 -1.045873463153839111e-01 3.023520410060882568e-01 5.932940915226936340e-02 -4.518991112709045410e-01
2.438000000000000000e+03 3.312634658813476562e+01 -9.743577957153320312e+00 1.464025020599365234e+00 1.711212515830993652e+00 9.525712728500366211e-01 -2.361276149749755859e+00
2.439000000000000000e+03 6.272980499267578125e+01 -5.227560520172119141e+00 3.962174057960510254e-01 2.013121604919433594e+00 7.228016853332519531e-01 -5.423395633697509766e-01
2.440000000000000000e+03 7.467722320556640625e+01 2.176867103576660156e+01 -2.744562327861785889e-01 8.477546691894531250e+00 2.460927009582519531e+00 1.213004827499389648e+00
2.441000000000000000e+03 7.129376983642578125e+01 2.137144660949707031e+01 -4.546610713005065918e-01 8.852478027343750000e+00 2.519345283508300781e+00 7.947456836700439453e-01
2.442000000000000000e+03 4.571464538574218750e+00 -7.405547142028808594e+00 -5.758882313966751099e-02 -2.742895856499671936e-02 -2.550533413887023926e-02 -5.120050907135009766e-01
2.443000000000000000e+03 5.355650424957275391e+00 -7.339562892913818359e+00 -8.253835886716842651e-02 1.603667438030242920e-01 2.334851399064064026e-02 -5.011031627655029297e-01
2.444000000000000000e+03 1.263681125640869141e+01 -8.263924598693847656e+00 -1.603736563993152231e-05 1.349979758262634277e+00 4.049891233444213867e-01 1.151813507080078125e+00
2.445000000000000000e+03 1.123696804046630859e+01 -7.095617294311523438e+00 -5.384331196546554565e-02 1.034490108489990234e+00 2.941940128803253174e-01 5.561985969543457031e-01
2.446000000000000000e+03 6.117826080322265625e+01 -1.766042351722717285e+00 9.630482792854309082e-01 1.339020609855651855e+00 6.906206607818603516e-01 2.443277463316917419e-02
2.447000000000000000e+03 4.805376052856445312e+01 -3.105683565139770508e+00 4.035316109657287598e-01 6.050648212432861328e+00 1.936253905296325684e+00 -2.186870723962783813e-01
2.448000000000000000e+03 1.073585605621337891e+01 1.908157348632812500e+01 3.796737194061279297e-01 2.263011217117309570e+00 7.928054928779602051e-01 -1.233521819114685059e+00
2.449000000000000000e+03 3.521138763427734375e+01 2.463171195983886719e+01 -5.785000324249267578e-01 1.663504838943481445e+00 3.255014419555664062e-01 -8.138046264648437500e-01
2.450000000000000000e+03 5.904983139038085938e+01 -3.415770769119262695e+00 1.084669947624206543e+00 4.390957951545715332e-01 4.571297466754913330e-01 -1.742955893278121948e-01
2.451000000000000000e+03 6.299905395507812500e+01 -6.431314468383789062e+00 2.236110121011734009e-01 2.066635370254516602e+00 6.870738863945007324e-01 -7.437577247619628906e-01
2.452000000000000000e+03 3.882017517089843750e+01 -1.428125381469726562e+01 1.231590509414672852e+00 7.200461387634277344e+00 2.529615640640258789e+00 -1.464700251817703247e-01
2.453000000000000000e+03 3.820992279052734375e+01 -1.612066650390625000e+01 1.701922655105590820e+00 7.579948425292968750e+00 2.784561157226562500e+00 -3.874636888504028320e-01
2.454000000000000000e+03 5.942570114135742188e+01 -2.209279060363769531e+00 1.220210671424865723e+00 5.992408394813537598e-01 5.458354949951171875e-01 -3.344053775072097778e-02
2.455000000000000000e+03 5.984315490722656250e+01 -3.793166637420654297e+00 9.026169180870056152e-01 7.068858146667480469e-01 4.828508198261260986e-01 -2.302502840757369995e-01
2.456000000000000000e+03 2.875412559509277344e+01 -8.216083526611328125e+00 1.700605750083923340e+00 1.901555299758911133e+00 1.080648303031921387e+00 -2.626690149307250977e+00
2.457000000000000000e+03 3.515992355346679688e+01 -1.272662639617919922e+01 1.209254860877990723e+00 4.226026058197021484e+00 1.630584239959716797e+00 -1.725380778312683105e+00
2.458000000000000000e+03 4.108114624023437500e+01 -2.666032600402832031e+01 1.048525810241699219e+00 7.992129802703857422e+00 2.712196588516235352e+00 7.385124266147613525e-02
2.459000000000000000e+03 7.057508850097656250e+01 -2.541162872314453125e+01 -6.537584066390991211e-01 8.472036361694335938e+00 2.345483303070068359e+00 -4.419273138046264648e-01
2.460000000000000000e+03 8.209886550903320312e+00 -1.751772308349609375e+01 1.032509326934814453e+00 2.167759418487548828e+00 9.600806236267089844e-01 5.169607996940612793e-01
2.461000000000000000e+03 4.429279708862304688e+01 -1.030948543548583984e+01 -5.582653880119323730e-01 9.020688056945800781e+00 2.538727045059204102e+00 8.668383955955505371e-01
2.462000000000000000e+03 4.507102966308593750e+01 -8.794937133789062500e+00 -1.241565346717834473e+00 8.817579269409179688e+00 2.272804260253906250e+00 9.006022214889526367e-01
2.463000000000000000e+03 8.947868347167968750e+00 -2.283573532104492188e+01 9.761575609445571899e-02 2.390576601028442383e+00 7.464577555656433105e-01 7.018081545829772949e-01
2.464000000000000000e+03 8.278777122497558594e+00 -2.163208961486816406e+01 3.239665627479553223e-01 2.156196355819702148e+00 7.440488934516906738e-01 7.710807323455810547e-01
2.465000000000000000e+03 7.233425903320312500e+01 7.145252704620361328e+00 -1.296099424362182617e-01 7.819550991058349609e+00 2.306982278823852539e+00 -3.287919461727142334e-01
2.466000000000000000e+03 6.935690307617187500e+01 5.338490009307861328e+00 -3.936967551708221436e-01 6.968719959259033203e+00 1.972506880760192871e+00 4.109172224998474121e-01
2.467000000000000000e+03 7.200299072265625000e+01 9.864098548889160156e+00 5.283523201942443848e-01 8.519222259521484375e+00 2.714272499084472656e+00 -1.863571107387542725e-01
2.468000000000000000e+03 7.128866577148437500e+01 6.623790264129638672e+00 -2.759511470794677734e-01 7.785627365112304688e+00 2.252902984619140625e+00 -5.162126570940017700e-02
2.469000000000000000e+03 7.289132690429687500e+01 6.065078258514404297e+00 -2.562188506126403809e-01 7.744196891784667969e+00 2.246393442153930664e+00 -3.407756984233856201e-01
2.470000000000000000e+03 7.316200256347656250e+01 1.188245773315429688e+00 -3.954043686389923096e-01 7.177074909210205078e+00 2.034501314163208008e+00 -1.517070680856704712e-01
2.471000000000000000e+03 6.891801452636718750e+01 -3.071130943298339844e+01 -9.037522673606872559e-01 5.998813629150390625e+00 1.528518438339233398e+00 4.102583527565002441e-01
2.472000000000000000e+03 6.739428710937500000e+01 -3.183990097045898438e+01 -7.299708127975463867e-01 4.918352127075195312e+00 1.256514430046081543e+00 6.666310429573059082e-01
2.473000000000000000e+03 4.192523193359375000e+01 -1.560046672821044922e+01 1.531386852264404297e+00 9.006103515625000000e+00 3.161247014999389648e+00 5.548934936523437500e-01
2.474000000000000000e+03 3.879654693603515625e+01 -1.745450210571289062e+01 2.092147827148437500e+00 8.268435478210449219e+00 3.108175039291381836e+00 -1.600938737392425537e-01
2.475000000000000000e+03 3.027725219726562500e+01 2.711846160888671875e+01 -4.084424972534179688e-01 7.569868564605712891e-01 1.045633032917976379e-01 -3.183467090129852295e-01
2.476000000000000000e+03 5.772622680664062500e+01 -5.696045398712158203e+00 4.732517600059509277e-01 1.497653126716613770e-01 1.869051158428192139e-01 -2.309200167655944824e-01
2.477000000000000000e+03 3.400506210327148438e+01 -1.087966823577880859e+01 1.347893834114074707e+00 2.632761478424072266e+00 1.194196581840515137e+00 -2.055879354476928711e+00
2.478000000000000000e+03 9.807915687561035156e+00 1.573260402679443359e+01 9.484905004501342773e-01 1.682646632194519043e+00 7.893411517143249512e-01 -1.020873904228210449e+00
2.479000000000000000e+03 3.757435226440429688e+01 -1.214560794830322266e+01 8.682602047920227051e-01 5.726134777069091797e+00 1.978318452835083008e+00 -4.638086557388305664e-01
2.480000000000000000e+03 6.940101623535156250e+01 7.520519495010375977e-01 -4.231057763099670410e-01 6.061927795410156250e+00 1.691646695137023926e+00 1.707388311624526978e-01
2.481000000000000000e+03 1.370849037170410156e+01 1.069496154785156250e+01 2.021939992904663086e+00 3.466714859008789062e+00 1.646596431732177734e+00 -1.247422814369201660e+00
2.482000000000000000e+03 6.841307830810546875e+01 4.541251182556152344e+00 -2.788440287113189697e-01 6.283992290496826172e+00 1.801544427871704102e+00 6.857495307922363281e-01
2.483000000000000000e+03 7.253232574462890625e+01 3.392514944076538086e+00 -4.501738250255584717e-01 7.295269012451171875e+00 2.053528547286987305e+00 -2.195214480161666870e-01
2.484000000000000000e+03 1.311366271972656250e+01 8.552034378051757812e+00 2.278066158294677734e+00 2.294091939926147461e+00 1.371647477149963379e+00 -8.338071107864379883e-01
2.485000000000000000e+03 1.346011734008789062e+01 9.577654838562011719e+00 2.152171134948730469e+00 2.941796541213989258e+00 1.528190255165100098e+00 -1.099754571914672852e+00
2.486000000000000000e+03 4.605322647094726562e+01 1.994862937927246094e+01 -1.624533534049987793e-01 6.560017585754394531e+00 1.919269323348999023e+00 1.082423925399780273e-01
2.487000000000000000e+03 4.552307510375976562e+01 1.825332069396972656e+01 9.215328842401504517e-02 6.911182403564453125e+00 2.101000785827636719e+00 1.358637958765029907e-01
2.488000000000000000e+03 1.550157737731933594e+01 2.450733375549316406e+01 -9.620164036750793457e-01 3.172552347183227539e+00 6.631608009338378906e-01 -3.043228089809417725e-01
2.489000000000000000e+03 3.511314773559570312e+01 -1.136184024810791016e+01 1.158459901809692383e+00 3.577517509460449219e+00 1.420793175697326660e+00 -1.587850809097290039e+00
2.490000000000000000e+03 2.023730850219726562e+01 2.849608421325683594e+01 -7.521893978118896484e-01 1.699633836746215820e+00 2.842333316802978516e-01 5.704537630081176758e-01
2.491000000000000000e+03 5.359421539306640625e+01 2.906910133361816406e+01 -7.876069545745849609e-01 3.361385822296142578e+00 7.721336483955383301e-01 1.574084520339965820e+00
2.492000000000000000e+03 5.264550781250000000e+01 3.049957847595214844e+01 -7.949308753013610840e-01 3.494734287261962891e+00 8.099410533905029297e-01 1.330725908279418945e+00
2.493000000000000000e+03 2.474126625061035156e+01 2.999470901489257812e+01 -3.385636508464813232e-01 9.811981320381164551e-01 1.927903443574905396e-01 3.180800080299377441e-01
2.494000000000000000e+03 3.942345428466796875e+01 -1.559152889251708984e+01 1.584228038787841797e+00 7.882023811340332031e+00 2.839875698089599609e+00 1.356590259820222855e-02
2.495000000000000000e+03 6.734937286376953125e+01 2.781984519958496094e+01 -7.763292789459228516e-01 4.749893665313720703e+00 1.192069292068481445e+00 -1.129721522331237793e+00
2.496000000000000000e+03 6.998959350585937500e+01 2.712112808227539062e+01 -1.139703869819641113e+00 6.683769226074218750e+00 1.663219690322875977e+00 -6.569476127624511719e-01
2.497000000000000000e+03 3.910933303833007812e+01 -1.092547225952148438e+01 4.224957227706909180e-01 6.325479030609130859e+00 2.024392366409301758e+00 2.400103807449340820e-01
2.498000000000000000e+03 4.320365142822265625e+01 -2.641526985168457031e+01 9.903538227081298828e-01 8.012794494628906250e+00 2.700944662094116211e+00 -4.752443730831146240e-01
2.499000000000000000e+03 4.221754837036132812e+01 -2.775555229187011719e+01 4.576357305049896240e-01 7.619915485382080078e+00 2.423265218734741211e+00 -2.464470863342285156e-01
2.500000000000000000e+03 5.143338012695312500e+01 2.772443389892578125e+01 -1.205394029617309570e+00 4.179554462432861328e+00 8.922480940818786621e-01 1.411155700683593750e+00
2.501000000000000000e+03 4.093799591064453125e+01 -1.412626457214355469e+01 1.166512250900268555e+00 8.181227684020996094e+00 2.804322004318237305e+00 3.517715334892272949e-01
2.502000000000000000e+03 3.630781555175781250e+01 -1.136937046051025391e+01 9.978467226028442383e-01 4.451385498046875000e+00 1.634769678115844727e+00 -1.013509750366210938e+00
2.503000000000000000e+03 3.984140014648437500e+01 -1.173402118682861328e+01 5.064955949783325195e-01 7.034852027893066406e+00 2.262404441833496094e+00 3.163614571094512939e-01
2.504000000000000000e+03 7.464743804931640625e+01 1.534231662750244141e+01 7.823926210403442383e-01 7.961369514465332031e+00 2.623128652572631836e+00 4.656475782394409180e-01
2.505000000000000000e+03 7.429904937744140625e+01 1.629356002807617188e+01 7.924674153327941895e-01 8.267590522766113281e+00 2.718017339706420898e+00 6.078442335128784180e-01
2.506000000000000000e+03 1.416769886016845703e+01 -3.348221206665039062e+01 -4.586681127548217773e-01 8.281171321868896484e-01 1.108347028493881226e-01 -1.282375305891036987e-01
2.507000000000000000e+03 1.363674449920654297e+01 -3.685419464111328125e+01 -2.714108526706695557e-01 7.180411219596862793e-01 1.339890658855438232e-01 -8.931935578584671021e-02
2.508000000000000000e+03 4.144543075561523438e+01 -1.295599555969238281e+01 7.820729613304138184e-01 8.091106414794921875e+00 2.661953687667846680e+00 5.221423506736755371e-01
2.509000000000000000e+03 6.477896690368652344e+00 -2.968991661071777344e+01 -3.215549588203430176e-01 1.110429763793945312e+00 2.366624623537063599e-01 5.295126438140869141e-01
2.510000000000000000e+03 7.364129066467285156e+00 -2.869096183776855469e+01 -3.849765062332153320e-01 1.262903928756713867e+00 2.633782029151916504e-01 5.646018981933593750e-01
2.511000000000000000e+03 7.309310150146484375e+01 4.164043426513671875e+00 -3.340378105640411377e-01 7.406540393829345703e+00 2.121750831604003906e+00 -2.778083384037017822e-01
2.512000000000000000e+03 2.045571327209472656e+01 -4.787189483642578125e+00 1.894273281097412109e+00 3.235191345214843750e+00 1.538839459419250488e+00 2.044093132019042969e+00
2.513000000000000000e+03 2.156352424621582031e+01 -4.670796394348144531e+00 1.279842257499694824e+00 5.682651519775390625e+00 2.088748216629028320e+00 1.141649127006530762e+00
2.514000000000000000e+03 2.381350135803222656e+01 -4.382617950439453125e+00 2.545196294784545898e+00 5.601087093353271484e+00 2.443885087966918945e+00 -3.436920881271362305e+00
2.515000000000000000e+03 1.958016395568847656e+01 -4.970269680023193359e+00 1.994284391403198242e+00 1.729263424873352051e+00 1.117064356803894043e+00 1.991912364959716797e+00
2.516000000000000000e+03 1.752477455139160156e+01 -4.560122966766357422e+00 1.523508191108703613e+00 1.610422581434249878e-01 5.053651332855224609e-01 1.308554530143737793e+00
2.517000000000000000e+03 1.840129089355468750e+01 -4.803918361663818359e+00 1.852224111557006836e+00 5.541202425956726074e-01 7.219032645225524902e-01 1.646343111991882324e+00
2.518000000000000000e+03 1.655191421508789062e+01 -5.964151382446289062e+00 1.105919718742370605e+00 2.863161563873291016e-01 4.176707565784454346e-01 1.619029164314270020e+00
2.519000000000000000e+03 1.529637622833251953e+01 -5.939519882202148438e+00 7.620611786842346191e-01 2.953496873378753662e-01 3.172232508659362793e-01 1.408968687057495117e+00
2.520000000000000000e+03 1.715715789794921875e+01 -5.853721618652343750e+00 1.296705842018127441e+00 3.362652659416198730e-01 4.898913204669952393e-01 1.691227555274963379e+00
2.521000000000000000e+03 9.066603660583496094e+00 -4.939085960388183594e+00 -2.644136548042297363e-01 4.774219095706939697e-01 6.390247493982315063e-02 -5.736523494124412537e-02
2.522000000000000000e+03 7.187757968902587891e+00 -6.766269207000732422e+00 -1.489706337451934814e-01 4.845521748065948486e-01 1.006744652986526489e-01 -3.473530411720275879e-01
2.523000000000000000e+03 2.264616584777832031e+01 -9.847749710083007812e+00 -1.982836574316024780e-01 1.479827642440795898e+00 3.844631910324096680e-01 -5.060370638966560364e-02
2.524000000000000000e+03 2.349250030517578125e+01 -9.713296890258789062e+00 1.125634647905826569e-02 1.689834713935852051e+00 5.103273391723632812e-01 -4.796167314052581787e-01
2.525000000000000000e+03 1.059063816070556641e+01 -6.851118087768554688e+00 -1.163741052150726318e-01 9.592491984367370605e-01 2.528625130653381348e-01 3.502064347267150879e-01
2.526000000000000000e+03 1.126039505004882812e+01 -5.746880054473876953e+00 -7.195949554443359375e-02 6.479754447937011719e-01 1.728047728538513184e-01 4.338055849075317383e-01
2.527000000000000000e+03 5.793359279632568359e+00 -6.447210311889648438e+00 -1.372960358858108521e-01 1.789270937442779541e-01 1.248931698501110077e-02 -4.613282382488250732e-01
2.528000000000000000e+03 6.174592971801757812e+00 7.230977058410644531e+00 4.973395168781280518e-01 -4.890234768390655518e-01 2.494814340025186539e-03 8.458096385002136230e-01
2.529000000000000000e+03 2.584208679199218750e+01 -6.930608749389648438e+00 2.242197275161743164e+00 2.462329149246215820e+00 1.411357879638671875e+00 -2.338872194290161133e+00
2.530000000000000000e+03 2.487946128845214844e+01 -5.556659221649169922e+00 2.542645931243896484e+00 3.386019945144653320e+00 1.778599739074707031e+00 -2.835680246353149414e+00
2.531000000000000000e+03 6.439640045166015625e+00 -6.576539516448974609e+00 -1.403675526380538940e-01 3.453038334846496582e-01 6.148088723421096802e-02 -4.181399047374725342e-01
2.532000000000000000e+03 6.291081428527832031e+00 5.840372085571289062e+00 2.171720266342163086e-01 -4.738117754459381104e-01 -7.699193060398101807e-02 1.037066102027893066e+00
2.533000000000000000e+03 8.955675125122070312e+00 -8.065750122070312500e+00 -9.100979566574096680e-02 1.058528542518615723e+00 2.902556359767913818e-01 -6.454150378704071045e-02
2.534000000000000000e+03 8.900276184082031250e+00 5.627068042755126953e+00 5.118829011917114258e-01 -2.459591329097747803e-01 7.977713644504547119e-02 9.921587109565734863e-01
2.535000000000000000e+03 1.465128707885742188e+01 -5.977225780487060547e+00 5.604631304740905762e-01 3.923664391040802002e-01 2.858488857746124268e-01 1.268519520759582520e+00
2.536000000000000000e+03 1.274014377593994141e+01 -6.709578990936279297e+00 1.394228339195251465e-01 7.785801291465759277e-01 2.754008769989013672e-01 9.592306613922119141e-01
2.537000000000000000e+03 1.272300529479980469e+01 -5.934053897857666016e+00 1.487593948841094971e-01 5.850377082824707031e-01 2.201391458511352539e-01 8.206350207328796387e-01
2.538000000000000000e+03 9.073550224304199219e+00 5.244661331176757812e+00 3.305881619453430176e-01 -2.593452930450439453e-01 2.137286216020584106e-02 1.046489357948303223e+00
2.539000000000000000e+03 1.057067966461181641e+01 5.942337036132812500e+00 1.000922441482543945e+00 1.562273949384689331e-01 3.471449315547943115e-01 6.510466933250427246e-01
2.540000000000000000e+03 1.342591667175292969e+01 -6.958616733551025391e+00 2.722826004028320312e-01 7.768262624740600586e-01 3.147326707839965820e-01 1.193821668624877930e+00
2.541000000000000000e+03 1.453252601623535156e+01 7.167702198028564453e+00 2.365118503570556641e+00 2.693011999130249023e+00 1.517439126968383789e+00 -1.109615325927734375e+00
2.542000000000000000e+03 1.358192443847656250e+01 6.408153533935546875e+00 1.886588573455810547e+00 1.595828890800476074e+00 1.044725179672241211e+00 -4.571822285652160645e-01
2.543000000000000000e+03 1.407808303833007812e+01 8.292223930358886719e+00 2.412240505218505859e+00 2.961890697479248047e+00 1.612239360809326172e+00 -1.199977278709411621e+00
2.544000000000000000e+03 2.076155662536621094e+01 -9.098842620849609375e+00 1.012569740414619446e-01 1.294166564941406250e+00 4.186270534992218018e-01 8.992941379547119141e-01
2.545000000000000000e+03 2.155236434936523438e+01 -9.343440055847167969e+00 -7.579208910465240479e-02 1.408498883247375488e+00 3.998120129108428955e-01 5.041377544403076172e-01
2.546000000000000000e+03 2.684130477905273438e+01 -7.806795120239257812e+00 1.791477322578430176e+00 2.211833477020263672e+00 1.200993180274963379e+00 -2.168838977813720703e+00
2.547000000000000000e+03 2.442120170593261719e+01 -1.044700622558593750e+01 -1.823321729898452759e-01 1.432304978370666504e+00 3.749918341636657715e-01 -7.616369724273681641e-01
2.548000000000000000e+03 9.764816284179687500e+00 5.488132953643798828e+00 6.235778331756591797e-01 -1.399856358766555786e-01 1.450776606798171997e-01 8.944658041000366211e-01
2.549000000000000000e+03 1.095839405059814453e+01 7.259264469146728516e+00 1.555287241935729980e+00 6.179677248001098633e-01 6.519764661788940430e-01 1.981478482484817505e-01
2.550000000000000000e+03 1.014077472686767578e+01 6.582492828369140625e+00 1.113478302955627441e+00 1.452979147434234619e-01 3.776328563690185547e-01 5.916018486022949219e-01
2.551000000000000000e+03 4.373639297485351562e+01 -6.290485382080078125e+00 -1.547546982765197754e+00 9.227816581726074219e+00 2.304080963134765625e+00 1.087426543235778809e+00
2.552000000000000000e+03 4.423783493041992188e+01 -7.626948356628417969e+00 -1.494750618934631348e+00 9.011168479919433594e+00 2.254925251007080078e+00 9.819776415824890137e-01
2.553000000000000000e+03 2.560239219665527344e+01 -8.858032226562500000e+00 8.806326985359191895e-01 1.981481671333312988e+00 8.586342930793762207e-01 -1.600958704948425293e+00
2.554000000000000000e+03 2.652113342285156250e+01 -9.491576194763183594e+00 7.536122202873229980e-01 1.687196373939514160e+00 7.322425842285156250e-01 -1.811697006225585938e+00
2.555000000000000000e+03 7.986631870269775391e+00 -9.148451805114746094e+00 1.273395866155624390e-02 1.005582809448242188e+00 3.054950237274169922e-01 -2.529208064079284668e-01
2.556000000000000000e+03 9.360569953918457031e+00 -1.070943737030029297e+01 1.925085484981536865e-01 1.785792589187622070e+00 5.934903621673583984e-01 3.437532484531402588e-02
2.557000000000000000e+03 7.989405632019042969e+00 1.708757400512695312e+01 5.629771947860717773e-01 9.853901267051696777e-01 4.645102024078369141e-01 -9.691068530082702637e-01
2.558000000000000000e+03 3.955204010009765625e+01 -9.782028198242187500e+00 4.468653351068496704e-02 6.397282123565673828e+00 1.932590603828430176e+00 6.132465600967407227e-01
2.559000000000000000e+03 9.451671600341796875e+00 6.029203414916992188e+00 8.168748021125793457e-01 -9.334812313318252563e-02 2.170580029487609863e-01 8.189555406570434570e-01
2.560000000000000000e+03 4.470859146118164062e+01 -4.092803955078125000e+00 -7.629122734069824219e-01 9.579020500183105469e+00 2.644832611083984375e+00 5.532319545745849609e-01
2.561000000000000000e+03 4.456853485107421875e+01 -5.492963314056396484e+00 -1.438315749168395996e+00 9.304419517517089844e+00 2.359831333160400391e+00 8.110554814338684082e-01
2.562000000000000000e+03 1.349269485473632812e+01 2.041056632995605469e+01 1.544340793043375015e-02 3.385945558547973633e+00 1.020416617393493652e+00 -1.119474291801452637e+00
2.563000000000000000e+03 1.344540214538574219e+01 -8.345688819885253906e+00 1.309213638305664062e-01 1.227142930030822754e+00 4.074192941188812256e-01 1.468031883239746094e+00
2.564000000000000000e+03 4.079781723022460938e+01 -2.124827957153320312e+01 2.249933481216430664e+00 9.008181571960449219e+00 3.377434730529785156e+00 4.398114606738090515e-02
2.565000000000000000e+03 7.188582611083984375e+01 5.638605117797851562e+00 -2.854920923709869385e-01 7.493196487426757812e+00 2.162311315536499023e+00 -1.759939044713973999e-01
2.566000000000000000e+03 6.732899475097656250e+01 1.697047591209411621e+00 -1.967881023883819580e-01 5.132425308227539062e+00 1.480691194534301758e+00 4.928716421127319336e-01
2.567000000000000000e+03 2.500502586364746094e+01 -9.510746955871582031e+00 3.780572712421417236e-01 1.730402588844299316e+00 6.325379610061645508e-01 -1.227951645851135254e+00
2.568000000000000000e+03 2.391985893249511719e+01 -8.234964370727539062e+00 7.542798519134521484e-01 2.484820127487182617e+00 9.717299342155456543e-01 -1.054740786552429199e+00
2.569000000000000000e+03 2.428428649902343750e+01 -6.227258205413818359e+00 1.753426194190979004e+00 3.578792810440063477e+00 1.599665760993957520e+00 -2.125950574874877930e+00
2.570000000000000000e+03 2.353741645812988281e+01 -7.375074863433837891e+00 9.462503194808959961e-01 3.092034339904785156e+00 1.211485385894775391e+00 -1.065371751785278320e+00
2.571000000000000000e+03 7.138378143310546875e+01 -2.375897789001464844e+01 -1.153438538312911987e-02 8.994782447814941406e+00 2.694974422454833984e+00 -8.536489605903625488e-01
2.572000000000000000e+03 1.695380401611328125e+01 2.454101943969726562e+01 -1.102861523628234863e+00 3.239760875701904297e+00 6.410698294639587402e-01 8.360710740089416504e-02
2.573000000000000000e+03 3.124571037292480469e+01 -1.130755901336669922e+01 1.095328688621520996e+00 1.610542774200439453e+00 8.117614388465881348e-01 -2.546983957290649414e+00
2.574000000000000000e+03 4.674431610107421875e+01 -3.886924505233764648e+00 -3.076062202453613281e-01 7.780618190765380859e+00 2.241903543472290039e+00 1.637232005596160889e-01
2.575000000000000000e+03 8.293928146362304688e+00 -7.468356132507324219e+00 -1.093189567327499390e-01 8.023610115051269531e-01 2.079126089811325073e-01 -1.934012025594711304e-01
2.576000000000000000e+03 1.055477428436279297e+01 -5.691825389862060547e+00 -1.510218083858489990e-01 6.621848344802856445e-01 1.533489078283309937e-01 2.745613157749176025e-01
2.577000000000000000e+03 1.752625465393066406e+01 -9.060974121093750000e+00 5.370295643806457520e-01 3.638921380043029785e-01 2.702765166759490967e-01 2.080716133117675781e+00
2.578000000000000000e+03 1.165712833404541016e+01 -8.874297142028808594e+00 -6.419505178928375244e-02 1.646246910095214844e+00 4.746155738830566406e-01 8.170264363288879395e-01
2.579000000000000000e+03 1.733703613281250000e+01 -8.211263656616210938e+00 7.401482462882995605e-01 4.711802899837493896e-01 3.633985519409179688e-01 2.039706468582153320e+00
2.580000000000000000e+03 6.573159027099609375e+01 -6.315135359764099121e-01 1.123734265565872192e-01 3.916677236557006836e+00 1.208715200424194336e+00 2.422970086336135864e-01
2.581000000000000000e+03 6.123130798339843750e+01 -3.451394319534301758e+00 7.927685379981994629e-01 1.347354412078857422e+00 6.420369148254394531e-01 -2.380630373954772949e-01
2.582000000000000000e+03 2.738394165039062500e+01 -1.025068187713623047e+01 6.017881631851196289e-01 1.390591621398925781e+00 5.977139472961425781e-01 -1.916587352752685547e+00
2.583000000000000000e+03 2.890541267395019531e+01 -1.022928428649902344e+01 9.455593824386596680e-01 1.408348679542541504e+00 7.061724066734313965e-01 -2.426063776016235352e+00
2.584000000000000000e+03 7.158792114257812500e+01 -2.953357696533203125e+01 -8.310470581054687500e-01 7.308706760406494141e+00 1.943297863006591797e+00 -2.318679690361022949e-01
2.585000000000000000e+03 7.312870025634765625e+01 -9.372346878051757812e+00 -5.211208462715148926e-01 7.849390029907226562e+00 2.198480844497680664e+00 6.694671511650085449e-01
2.586000000000000000e+03 1.259867572784423828e+01 1.073984718322753906e+01 1.926601886749267578e+00 2.568999290466308594e+00 1.348680377006530762e+00 -9.573469758033752441e-01
2.587000000000000000e+03 3.905342483520507812e+01 -1.250679206848144531e+01 8.109663128852844238e-01 6.675263881683349609e+00 2.245869159698486328e+00 -2.957624755799770355e-02
2.588000000000000000e+03 4.233547592163085938e+01 1.547405815124511719e+01 1.005013510584831238e-01 6.032904624938964844e+00 1.840021848678588867e+00 -7.871575951576232910e-01
2.589000000000000000e+03 1.081453895568847656e+01 -8.486881256103515625e+00 -7.149951905012130737e-02 1.513704895973205566e+00 4.326615929603576660e-01 4.879553020000457764e-01
2.590000000000000000e+03 7.200370025634765625e+01 2.591858863830566406e+00 -4.189332127571105957e-01 7.081902980804443359e+00 1.998890995979309082e+00 -8.057797700166702271e-02
2.591000000000000000e+03 7.128353118896484375e+01 -4.693416118621826172e+00 -6.460614204406738281e-01 6.832717418670654297e+00 1.855996847152709961e+00 2.498503401875495911e-02
2.592000000000000000e+03 7.234297943115234375e+01 -2.787901163101196289e+00 -5.368334650993347168e-01 6.953736305236816406e+00 1.925070762634277344e+00 4.817863926291465759e-02
2.593000000000000000e+03 4.159854888916015625e+01 -7.953747272491455078e+00 -1.023636460304260254e+00 7.904306888580322266e+00 2.064201116561889648e+00 1.349401116371154785e+00
2.594000000000000000e+03 1.257047462463378906e+01 1.283249664306640625e+01 1.651067614555358887e+00 3.014444589614868164e+00 1.399653673171997070e+00 -1.125957369804382324e+00
2.595000000000000000e+03 7.435616302490234375e+01 1.888625526428222656e+01 5.309357643127441406e-01 8.342117309570312500e+00 2.661915779113769531e+00 1.122078418731689453e+00
2.596000000000000000e+03 6.196290969848632812e+01 -2.528261423110961914e+00 7.809855341911315918e-01 1.731521725654602051e+00 7.537521719932556152e-01 -1.022235229611396790e-01
2.597000000000000000e+03 6.154512405395507812e+01 -5.101394653320312500e+00 5.585226416587829590e-01 1.382979512214660645e+00 5.824506282806396484e-01 -4.331924319267272949e-01
2.598000000000000000e+03 7.349843597412109375e+01 -2.246269226074218750e+01 4.551959633827209473e-01 8.310612678527832031e+00 2.629742622375488281e+00 -1.088551282882690430e+00
2.599000000000000000e+03 6.743568420410156250e+01 -8.614957809448242188e+00 -6.515749096870422363e-01 5.670655727386474609e+00 1.505724310874938965e+00 -1.160846352577209473e+00
2.600000000000000000e+03 6.269690990447998047e+00 -1.088635063171386719e+01 1.992038935422897339e-01 6.880838274955749512e-01 2.661863267421722412e-01 -4.497620165348052979e-01
2.601000000000000000e+03 7.232625579833984375e+01 2.566816139221191406e+01 -9.552184939384460449e-01 8.012044906616210938e+00 2.117047786712646484e+00 2.757990658283233643e-01
2.602000000000000000e+03 7.029261779785156250e+01 2.394392967224121094e+01 -1.681761264801025391e+00 8.350894927978515625e+00 2.000740289688110352e+00 -7.005167752504348755e-02
2.603000000000000000e+03 7.178240203857421875e+01 -2.500744819641113281e+01 -3.692210316658020020e-01 8.451313018798828125e+00 2.424627542495727539e+00 -8.252814412117004395e-01
2.604000000000000000e+03 7.193953037261962891e+00 2.439841842651367188e+01 -1.855852156877517700e-01 1.224460363388061523e+00 3.116625249385833740e-01 -9.954262375831604004e-01
2.605000000000000000e+03 7.718348026275634766e+00 2.503327560424804688e+01 -2.604750692844390869e-01 1.428938388824462891e+00 3.505389988422393799e-01 -9.771223664283752441e-01
2.606000000000000000e+03 1.274449634552001953e+01 1.588325786590576172e+01 1.086915850639343262e+00 3.344153881072998047e+00 1.329320907592773438e+00 -1.146981596946716309e+00
2.607000000000000000e+03 7.375054931640625000e+01 -1.350923824310302734e+01 3.815082609653472900e-01 8.063311576843261719e+00 2.533446073532104492e+00 9.109452962875366211e-01
2.608000000000000000e+03 7.225535583496093750e+01 -4.974115371704101562e+00 -6.266018152236938477e-01 7.087311744689941406e+00 1.938212990760803223e+00 1.071187704801559448e-01
2.609000000000000000e+03 7.198009490966796875e+01 -1.168402481079101562e+01 -1.377854496240615845e-01 8.438212394714355469e+00 2.490128040313720703e+00 7.649472355842590332e-01
2.610000000000000000e+03 4.084694671630859375e+01 -1.654987525939941406e+01 1.799327611923217773e+00 8.639094352722167969e+00 3.131526708602905273e+00 2.895838320255279541e-01
2.611000000000000000e+03 7.207944488525390625e+01 -5.956422805786132812e+00 -6.913968324661254883e-01 7.211680412292480469e+00 1.956085085868835449e+00 1.553162783384323120e-01
2.612000000000000000e+03 7.340418243408203125e+01 1.218786716461181641e+01 8.076164722442626953e-01 8.432535171508789062e+00 2.772045612335205078e+00 -1.313056051731109619e-01
2.613000000000000000e+03 7.086430358886718750e+01 -1.051100349426269531e+01 -5.408878326416015625e-01 8.238863945007324219e+00 2.309392929077148438e+00 2.802065610885620117e-01
2.614000000000000000e+03 1.195625400543212891e+01 1.779216766357421875e+01 6.731215119361877441e-01 2.813561677932739258e+00 1.046005010604858398e+00 -1.213757872581481934e+00
2.615000000000000000e+03 6.042032623291015625e+01 -2.798177242279052734e+00 1.003397345542907715e+00 9.722983837127685547e-01 5.927087068557739258e-01 -1.352882683277130127e-01
2.616000000000000000e+03 8.208366394042968750e+00 1.895178413391113281e+01 3.064698278903961182e-01 1.252723217010498047e+00 4.677579402923583984e-01 -1.098982334136962891e+00
2.617000000000000000e+03 6.639769554138183594e+00 2.028747749328613281e+01 1.247783526778221130e-01 7.652701139450073242e-01 2.670145332813262939e-01 -1.026562094688415527e+00
2.618000000000000000e+03 1.154966735839843750e+01 -3.221978759765625000e+01 -5.068858265876770020e-01 1.130353212356567383e+00 1.870402246713638306e-01 5.000090971589088440e-02
2.619000000000000000e+03 5.609122753143310547e+00 -8.222801208496093750e+00 -3.861298784613609314e-02 2.531561255455017090e-01 6.436294317245483398e-02 -5.001398921012878418e-01
2.620000000000000000e+03 6.632192134857177734e+00 1.202381992340087891e+01 8.277066349983215332e-01 -4.939946159720420837e-02 2.334921509027481079e-01 -9.349422901868820190e-02
2.621000000000000000e+03 7.458181762695312500e+01 2.291093635559082031e+01 -4.616121947765350342e-01 8.504068374633789062e+00 2.412736892700195312e+00 9.700520634651184082e-01
2.622000000000000000e+03 7.869550228118896484e+00 2.894863891601562500e+01 -3.684842586517333984e-01 1.463832259178161621e+00 3.286044001579284668e-01 -6.729799509048461914e-01
2.623000000000000000e+03 1.200528335571289062e+01 2.877393531799316406e+01 -6.896678805351257324e-01 2.109759330749511719e+00 4.260274171829223633e-01 -5.011363625526428223e-01
2.624000000000000000e+03 3.061926651000976562e+01 -1.043876743316650391e+01 1.191082715988159180e+00 1.529251337051391602e+00 8.161002397537231445e-01 -2.674720525741577148e+00
2.625000000000000000e+03 6.390533447265625000e+01 -4.877600193023681641e+00 2.416481375694274902e-01 2.768007278442382812e+00 9.028965830802917480e-01 -5.983551740646362305e-01
2.626000000000000000e+03 1.265534019470214844e+01 1.178299903869628906e+01 1.809465050697326660e+00 2.862091302871704102e+00 1.401466965675354004e+00 -1.060702323913574219e+00
2.627000000000000000e+03 7.140142822265625000e+01 1.372924804687500000e+01 1.242543935775756836e+00 9.905678749084472656e+00 3.344466924667358398e+00 4.298003613948822021e-01
2.628000000000000000e+03 3.724458694458007812e+01 -1.124474334716796875e+01 8.211663365364074707e-01 5.206562042236328125e+00 1.808318495750427246e+00 -5.053921937942504883e-01
2.629000000000000000e+03 7.262967681884765625e+01 8.757039070129394531e+00 1.514938324689865112e-01 8.121906280517578125e+00 2.482019901275634766e+00 -3.908627033233642578e-01
2.630000000000000000e+03 7.113552093505859375e+01 -3.085030555725097656e+01 -8.026801347732543945e-01 6.878961563110351562e+00 1.822884440422058105e+00 -1.013530418276786804e-02
2.631000000000000000e+03 7.207891082763671875e+01 7.642846107482910156e-01 -4.746138751506805420e-01 6.950832843780517578e+00 1.942865729331970215e+00 -5.515293404459953308e-02
2.632000000000000000e+03 7.323896026611328125e+01 -2.586307144165039062e+01 -4.287953674793243408e-01 8.048999786376953125e+00 2.286061525344848633e+00 -9.955589175224304199e-01
2.633000000000000000e+03 6.643685150146484375e+01 -4.604682445526123047e+00 -2.189812660217285156e-01 4.424596786499023438e+00 1.261684656143188477e+00 -5.292229652404785156e-01
2.634000000000000000e+03 7.283232879638671875e+01 1.939915084838867188e+01 5.326666235923767090e-01 8.683570861816406250e+00 2.764871120452880859e+00 1.230056405067443848e+00
2.635000000000000000e+03 7.133586883544921875e+01 2.559800529479980469e+01 -1.299493551254272461e+00 7.848097801208496094e+00 1.964581251144409180e+00 -1.329811010509729385e-02
2.636000000000000000e+03 7.355914306640625000e+01 2.469494491815567017e-01 -4.158690869808197021e-01 7.234885215759277344e+00 2.045704841613769531e+00 -1.148841008543968201e-01
2.637000000000000000e+03 7.188922882080078125e+01 1.732272982597351074e+00 -4.477197527885437012e-01 6.932130336761474609e+00 1.945323109626770020e+00 -6.677923351526260376e-02
2.638000000000000000e+03 7.161193847656250000e+01 -9.621468186378479004e-01 -4.951249659061431885e-01 6.760440349578857422e+00 1.879594564437866211e+00 -1.280956901609897614e-02
2.639000000000000000e+03 4.330815505981445312e+01 -1.069060707092285156e+01 -1.874228715896606445e-01 8.782979011535644531e+00 2.578666925430297852e+00 7.967792749404907227e-01
2.640000000000000000e+03 3.674892807006835938e+01 -1.052006244659423828e+01 8.568235039710998535e-01 4.345296859741210938e+00 1.560636162757873535e+00 -6.932896375656127930e-01
2.641000000000000000e+03 2.965744400024414062e+01 -8.351325035095214844e+00 1.596395254135131836e+00 1.817759394645690918e+00 1.024246335029602051e+00 -2.832765102386474609e+00
2.642000000000000000e+03 4.375326919555664062e+01 -2.499649620056152344e+01 1.529843211174011230e+00 8.572143554687500000e+00 3.030596017837524414e+00 -5.682696700096130371e-01
2.643000000000000000e+03 4.274191665649414062e+01 -2.435050201416015625e+01 1.868383288383483887e+00 8.493188858032226562e+00 3.108471632003784180e+00 -2.032325267791748047e-01
2.644000000000000000e+03 7.304460906982421875e+01 -7.057538032531738281e+00 -6.379769444465637207e-01 7.527512550354003906e+00 2.066860675811767578e+00 4.075536429882049561e-01
2.645000000000000000e+03 6.985250854492187500e+01 -7.306502342224121094e+00 -7.701981663703918457e-01 6.768323421478271484e+00 1.799437522888183594e+00 -2.665949463844299316e-01
2.646000000000000000e+03 7.320970153808593750e+01 5.044284343719482422e+00 -3.133958578109741211e-01 7.538116931915283203e+00 2.167416334152221680e+00 -3.918444514274597168e-01
2.647000000000000000e+03 4.455835723876953125e+01 -2.714802932739257812e+01 5.870912075042724609e-01 7.746255874633789062e+00 2.500004053115844727e+00 -8.895123004913330078e-01
2.648000000000000000e+03 4.070021438598632812e+01 -1.538449287414550781e+01 1.519929409027099609e+00 8.204507827758789062e+00 2.917331218719482422e+00 3.129403889179229736e-01
2.649000000000000000e+03 4.665178298950195312e+01 2.291403770446777344e+01 -7.609500885009765625e-01 5.841192245483398438e+00 1.524072647094726562e+00 8.219357579946517944e-02
2.650000000000000000e+03 4.447623825073242188e+01 2.167855834960937500e+01 -5.609929561614990234e-01 5.595660209655761719e+00 1.510400176048278809e+00 -4.219315648078918457e-01
2.651000000000000000e+03 4.309521865844726562e+01 1.654054832458496094e+01 6.736780703067779541e-02 6.170462608337402344e+00 1.871349215507507324e+00 -5.073961615562438965e-01
2.652000000000000000e+03 1.333767700195312500e+01 -3.005003738403320312e+01 -5.542855262756347656e-01 1.114023923873901367e+00 1.679215431213378906e-01 -7.734638452529907227e-02
2.653000000000000000e+03 9.833436965942382812e+00 -2.827904701232910156e+01 -5.155024528503417969e-01 1.600533723831176758e+00 3.255093991756439209e-01 3.355967104434967041e-01
2.654000000000000000e+03 8.315569877624511719e+00 1.093161678314208984e+01 1.167021632194519043e+00 3.499914705753326416e-01 4.551039338111877441e-01 -7.522234320640563965e-02
2.655000000000000000e+03 8.764676094055175781e+00 2.708162689208984375e+01 -4.110514521598815918e-01 1.635148286819458008e+00 3.672290444374084473e-01 -8.321667313575744629e-01
2.656000000000000000e+03 5.268416595458984375e+01 2.460186386108398438e+01 -1.206437230110168457e+00 4.288513183593750000e+00 9.246227145195007324e-01 1.880619168281555176e+00
2.657000000000000000e+03 7.098030090332031250e+01 5.078900814056396484e+00 -4.392180740833282471e-01 7.363296031951904297e+00 2.077223300933837891e+00 2.504312992095947266e-02
2.658000000000000000e+03 4.115425872802734375e+01 -2.880679130554199219e+01 6.892102211713790894e-02 7.489880561828613281e+00 2.267640352249145508e+00 -8.572198450565338135e-02
2.659000000000000000e+03 6.910272979736328125e+01 -8.029613494873046875e+00 -8.074009418487548828e-01 6.625215530395507812e+00 1.745344281196594238e+00 -5.981571078300476074e-01
2.660000000000000000e+03 5.001601028442382812e+01 2.752057456970214844e+01 -1.247170567512512207e+00 4.519864559173583984e+00 9.818081259727478027e-01 1.165235519409179688e+00
2.661000000000000000e+03 4.743811035156250000e+01 2.496603965759277344e+01 -1.178747773170471191e+00 5.370022296905517578e+00 1.257382392883300781e+00 3.967008888721466064e-01
2.662000000000000000e+03 7.126291656494140625e+01 -3.318983840942382812e+01 -5.465440750122070312e-01 6.485003948211669922e+00 1.781537890434265137e+00 1.337873190641403198e-01
2.663000000000000000e+03 7.212400054931640625e+01 -3.592578887939453125e+01 -2.543733119964599609e-01 6.475285053253173828e+00 1.866273522377014160e+00 1.291425377130508423e-01
2.664000000000000000e+03 1.504700756072998047e+01 2.184453392028808594e+01 -5.082414150238037109e-01 3.718229293823242188e+00 9.629963636398315430e-01 -7.711389064788818359e-01
2.665000000000000000e+03 1.677618408203125000e+01 2.622990989685058594e+01 -1.063983321189880371e+00 2.756705522537231445e+00 5.078166127204895020e-01 1.315677016973495483e-01
2.666000000000000000e+03 1.858657264709472656e+01 2.631697273254394531e+01 -1.062689542770385742e+00 2.382410764694213867e+00 3.959163725376129150e-01 5.605624318122863770e-01
2.667000000000000000e+03 4.237432861328125000e+01 2.177514839172363281e+01 -5.953370928764343262e-01 4.696969032287597656e+00 1.230489611625671387e+00 -7.856273651123046875e-01
2.668000000000000000e+03 4.065314102172851562e+01 2.103683280944824219e+01 -4.970286190509796143e-01 3.809383869171142578e+00 9.937065839767456055e-01 -1.014617562294006348e+00
2.669000000000000000e+03 1.026828670501708984e+01 3.393272781372070312e+01 -4.173672795295715332e-01 1.605939388275146484e+00 3.565716147422790527e-01 -3.062704503536224365e-01
2.670000000000000000e+03 8.139369010925292969e+00 3.544465637207031250e+01 -2.826790511608123779e-01 1.438025593757629395e+00 3.466039597988128662e-01 -2.785923480987548828e-01
2.671000000000000000e+03 4.165248489379882812e+01 -3.272407913208007812e+01 -1.024357080459594727e+00 6.462621688842773438e+00 1.631479382514953613e+00 -2.866094708442687988e-01
2.672000000000000000e+03 4.336329650878906250e+01 -3.156181907653808594e+01 -8.383846879005432129e-01 6.602121829986572266e+00 1.729121088981628418e+00 -7.189013361930847168e-01
2.673000000000000000e+03 4.274429702758789062e+01 -8.312735557556152344e+00 -1.255379796028137207e+00 8.670800209045410156e+00 2.224626064300537109e+00 1.170075654983520508e+00
2.674000000000000000e+03 8.048895835876464844e+00 -1.286845207214355469e+01 5.242370367050170898e-01 1.618817806243896484e+00 6.429164409637451172e-01 -1.919037252664566040e-01
2.675000000000000000e+03 4.187611007690429688e+01 -1.179989814758300781e+01 3.206477761268615723e-01 8.246818542480468750e+00 2.570240020751953125e+00 6.291565895080566406e-01
2.676000000000000000e+03 3.810062026977539062e+01 -1.315120506286621094e+01 9.862830638885498047e-01 6.503480434417724609e+00 2.246928930282592773e+00 -4.048076868057250977e-01
2.677000000000000000e+03 3.983362197875976562e+01 -1.345580005645751953e+01 1.022699356079101562e+00 7.466958522796630859e+00 2.546897411346435547e+00 1.544128358364105225e-01
2.678000000000000000e+03 3.463371658325195312e+01 2.736568641662597656e+01 -5.004104375839233398e-01 1.690680503845214844e+00 3.570810258388519287e-01 -7.073664069175720215e-01
2.679000000000000000e+03 6.866999816894531250e+01 2.664502525329589844e+01 -1.188320517539978027e+00 5.861564159393310547e+00 1.401973128318786621e+00 -1.063808917999267578e+00
2.680000000000000000e+03 6.884653472900390625e+01 2.515885162353515625e+01 -1.669785022735595703e+00 6.455825328826904297e+00 1.435811996459960938e+00 -9.730995893478393555e-01
2.681000000000000000e+03 8.194789886474609375e+00 2.592498397827148438e+01 -3.357126414775848389e-01 1.527187585830688477e+00 3.574424684047698975e-01 -9.166113138198852539e-01
2.682000000000000000e+03 9.401759147644042969e+00 2.863360023498535156e+01 -4.768553674221038818e-01 1.713029146194458008e+00 3.708521127700805664e-01 -6.769842505455017090e-01
2.683000000000000000e+03 4.372589492797851562e+01 1.765883636474609375e+01 -3.307661786675453186e-02 6.181632995605468750e+00 1.844566822052001953e+00 -4.264360666275024414e-01
2.684000000000000000e+03 5.755451965332031250e+01 3.021968460083007812e+01 -7.027474045753479004e-02 2.151361227035522461e+00 6.243259310722351074e-01 1.147225260734558105e+00
2.685000000000000000e+03 5.949727630615234375e+01 3.008210372924804688e+01 1.358686983585357666e-01 1.910031080245971680e+00 6.137699484825134277e-01 7.300024032592773438e-01
2.686000000000000000e+03 2.178828048706054688e+01 -8.780164718627929688e+00 2.250487059354782104e-01 1.916037201881408691e+00 6.423257589340209961e-01 3.248384892940521240e-01
2.687000000000000000e+03 1.996844100952148438e+01 -5.080302715301513672e+00 1.878864169120788574e+00 2.300575971603393555e+00 1.253832101821899414e+00 2.003516435623168945e+00
2.688000000000000000e+03 2.362254905700683594e+01 -5.529445648193359375e+00 1.616339445114135742e+00 4.656006813049316406e+00 1.881703853607177734e+00 -2.052276134490966797e+00
2.689000000000000000e+03 2.320147132873535156e+01 -4.727537155151367188e+00 1.635751008987426758e+00 6.164573192596435547e+00 2.340097188949584961e+00 -2.214397192001342773e+00
2.690000000000000000e+03 2.115817260742187500e+01 -4.812640666961669922e+00 1.433250904083251953e+00 4.728077411651611328e+00 1.848398447036743164e+00 1.564110040664672852e+00
2.691000000000000000e+03 2.102124786376953125e+01 -4.371205806732177734e+00 1.765369772911071777e+00 4.905776977539062500e+00 2.001343965530395508e+00 2.023381471633911133e+00
2.692000000000000000e+03 1.804419517517089844e+01 -4.978346347808837891e+00 1.699119210243225098e+00 4.197761118412017822e-01 6.356685757637023926e-01 1.599673271179199219e+00
2.693000000000000000e+03 1.896540260314941406e+01 -7.840838909149169922e+00 8.574094772338867188e-01 9.178179502487182617e-01 5.325682163238525391e-01 1.781996726989746094e+00
2.694000000000000000e+03 1.758397483825683594e+01 -5.112132072448730469e+00 1.540336132049560547e+00 3.019969761371612549e-01 5.526999235153198242e-01 1.546522617340087891e+00
2.695000000000000000e+03 2.218327140808105469e+01 -8.232153892517089844e+00 3.638451695442199707e-01 2.329761266708374023e+00 8.080819845199584961e-01 1.220769882202148438e-01
2.696000000000000000e+03 1.010345745086669922e+01 -6.422918796539306641e+00 -1.505452990531921387e-01 8.186491727828979492e-01 2.004311680793762207e-01 1.876495331525802612e-01
2.697000000000000000e+03 1.047684574127197266e+01 -9.245698928833007812e+00 -2.977736294269561768e-02 1.711423635482788086e+00 5.044938921928405762e-01 3.362847268581390381e-01
2.698000000000000000e+03 1.592681312561035156e+01 -5.952369213104248047e+00 9.461576938629150391e-01 2.617291212081909180e-01 3.623660504817962646e-01 1.499962568283081055e+00
2.699000000000000000e+03 1.535971450805664062e+01 -6.589206218719482422e+00 7.354477047920227051e-01 4.014264047145843506e-01 3.410622179508209229e-01 1.568827033042907715e+00
2.700000000000000000e+03 2.425435256958007812e+01 -5.591825485229492188e+00 2.201694250106811523e+00 3.891765594482421875e+00 1.828037977218627930e+00 -2.603379964828491211e+00
2.701000000000000000e+03 1.200298595428466797e+01 -6.565367698669433594e+00 3.732765838503837585e-02 8.193270564079284668e-01 2.569964230060577393e-01 7.249111533164978027e-01
2.702000000000000000e+03 7.986309528350830078e+00 5.977524757385253906e+00 4.775391817092895508e-01 -3.170090317726135254e-01 4.815905168652534485e-02 1.005551099777221680e+00
2.703000000000000000e+03 1.183535003662109375e+01 -8.064638137817382812e+00 -1.416038442403078079e-02 1.351655244827270508e+00 4.012484550476074219e-01 8.402436971664428711e-01
2.704000000000000000e+03 2.439524459838867188e+01 -9.114860534667968750e+00 5.290775895118713379e-01 1.960754394531250000e+00 7.469496130943298340e-01 -1.054704189300537109e+00
2.705000000000000000e+03 2.429915809631347656e+01 -9.724851608276367188e+00 5.006263032555580139e-02 1.654515027999877930e+00 5.113732814788818359e-01 -8.509079217910766602e-01
2.706000000000000000e+03 1.267205905914306641e+01 6.152194499969482422e+00 1.614463448524475098e+00 1.010763764381408691e+00 7.875681519508361816e-01 -4.561008512973785400e-02
2.707000000000000000e+03 1.483055686950683594e+01 -6.683166503906250000e+00 5.546963214874267578e-01 5.148585438728332520e-01 3.208664655685424805e-01 1.500653862953186035e+00
2.708000000000000000e+03 1.435439491271972656e+01 -7.057011127471923828e+00 4.331051111221313477e-01 6.984472870826721191e-01 3.394657075405120850e-01 1.460957527160644531e+00
2.709000000000000000e+03 1.140506553649902344e+01 6.482416152954101562e+00 1.445803165435791016e+00 5.736164450645446777e-01 6.058259010314941406e-01 2.657112777233123779e-01
2.710000000000000000e+03 1.235489463806152344e+01 9.720025062561035156e+00 2.002933740615844727e+00 2.085866212844848633e+00 1.226639986038208008e+00 -7.527999877929687500e-01
2.711000000000000000e+03 9.169339179992675781e+00 -5.713733673095703125e+00 -2.101308256387710571e-01 6.071221828460693359e-01 1.190974116325378418e-01 -1.789045706391334534e-02
2.712000000000000000e+03 8.529943466186523438e+00 5.901626586914062500e+00 5.854969620704650879e-01 -2.464085370302200317e-01 1.017265319824218750e-01 9.769378900527954102e-01
2.713000000000000000e+03 1.378343296051025391e+01 -6.482778072357177734e+00 3.305327594280242920e-01 6.025948524475097656e-01 2.799382805824279785e-01 1.180677771568298340e+00
2.714000000000000000e+03 1.334739494323730469e+01 -7.577761173248291016e+00 1.782997846603393555e-01 9.775208830833435059e-01 3.467462062835693359e-01 1.282435059547424316e+00
2.715000000000000000e+03 7.332650184631347656e+00 1.015014648437500000e+01 9.826483726501464844e-01 -4.604896903038024902e-02 2.809798121452331543e-01 2.130603790283203125e-01
2.716000000000000000e+03 1.282184219360351562e+01 7.597272396087646484e+00 2.032071590423583984e+00 1.673179626464843750e+00 1.111575365066528320e+00 -4.820120930671691895e-01
2.717000000000000000e+03 2.005122375488281250e+01 -8.702249526977539062e+00 3.375397026538848877e-01 1.093537211418151855e+00 4.293230772018432617e-01 1.243218302726745605e+00
2.718000000000000000e+03 8.043177604675292969e+00 9.576992988586425781e+00 1.135735511779785156e+00 1.009905859827995300e-01 3.710178434848785400e-01 2.293354868888854980e-01
2.719000000000000000e+03 8.968343734741210938e+00 6.424566745758056641e+00 8.084337711334228516e-01 -1.176070719957351685e-01 2.072480171918869019e-01 8.122463822364807129e-01
2.720000000000000000e+03 2.471558761596679688e+01 -8.476186752319335938e+00 8.126273155212402344e-01 2.229019403457641602e+00 9.124940037727355957e-01 -1.371009230613708496e+00
2.721000000000000000e+03 1.226365184783935547e+01 6.932020664215087891e+00 1.739154219627380371e+00 1.080857396125793457e+00 8.460034728050231934e-01 -8.662341535091400146e-02
2.722000000000000000e+03 1.190962982177734375e+01 7.701621055603027344e+00 1.826438188552856445e+00 1.195166826248168945e+00 9.064815044403076172e-01 -1.640772968530654907e-01
2.723000000000000000e+03 2.587211608886718750e+01 -7.898671150207519531e+00 1.498951196670532227e+00 2.147997617721557617e+00 1.094084620475769043e+00 -1.949273109436035156e+00
2.724000000000000000e+03 6.839506530761718750e+01 2.645532846450805664e+00 -3.140476942062377930e-01 5.851778984069824219e+00 1.661319375038146973e+00 4.839928448200225830e-01
2.725000000000000000e+03 6.797124481201171875e+01 3.923275768756866455e-01 -2.455383688211441040e-01 5.339201927185058594e+00 1.528099060058593750e+00 2.664056718349456787e-01
2.726000000000000000e+03 6.816390991210937500e+01 -4.687850475311279297e+00 -5.217798948287963867e-01 5.568106174468994141e+00 1.513897895812988281e+00 -3.811406493186950684e-01
2.727000000000000000e+03 6.762890625000000000e+01 -6.598679542541503906e+00 -5.872203111648559570e-01 5.522439956665039062e+00 1.480565905570983887e+00 -7.025595307350158691e-01
2.728000000000000000e+03 6.977469635009765625e+01 -9.324667930603027344e+00 -7.794412374496459961e-01 7.524460315704345703e+00 2.023505687713623047e+00 -2.950798571109771729e-01
2.729000000000000000e+03 1.267356967926025391e+01 -7.466029644012451172e+00 1.095463261008262634e-01 1.048610925674438477e+00 3.474471867084503174e-01 1.084506750106811523e+00
2.730000000000000000e+03 1.585136413574218750e+01 -7.397613525390625000e+00 7.410053014755249023e-01 5.007410645484924316e-01 3.725239038467407227e-01 1.838608145713806152e+00
2.731000000000000000e+03 1.655939102172851562e+01 -9.212788581848144531e+00 4.073132574558258057e-01 4.932857453823089600e-01 2.701796889305114746e-01 2.163030862808227539e+00
2.732000000000000000e+03 1.835581398010253906e+01 -8.931110382080078125e+00 5.339445471763610840e-01 3.693958222866058350e-01 2.710021138191223145e-01 1.845050573348999023e+00
2.733000000000000000e+03 1.034073925018310547e+01 -7.385304450988769531e+00 -1.080669909715652466e-01 1.110836148262023926e+00 3.008307516574859619e-01 3.069010972976684570e-01
2.734000000000000000e+03 9.740409851074218750e+00 9.228811264038085938e+00 1.482897043228149414e+00 5.912255048751831055e-01 6.222367882728576660e-01 3.639053553342819214e-02
2.735000000000000000e+03 7.092873382568359375e+01 -9.384890556335449219e+00 -7.678945064544677734e-01 7.906188964843750000e+00 2.141488313674926758e+00 1.374866962432861328e-01
2.736000000000000000e+03 7.205559539794921875e+01 -9.393701553344726562e+00 -5.996224284172058105e-01 7.901863098144531250e+00 2.190672159194946289e+00 5.023730397224426270e-01
2.737000000000000000e+03 2.429371643066406250e+01 -6.901257038116455078e+00 1.448812246322631836e+00 3.206081151962280273e+00 1.396468043327331543e+00 -1.771862626075744629e+00
2.738000000000000000e+03 1.178739929199218750e+01 1.480773735046386719e+01 1.233220577239990234e+00 2.686203956604003906e+00 1.175827383995056152e+00 -1.093938708305358887e+00
2.739000000000000000e+03 8.736110687255859375e+00 1.007428455352783203e+01 1.279599189758300781e+00 3.473545014858245850e-01 4.880861341953277588e-01 5.692822486162185669e-02
2.740000000000000000e+03 4.556128025054931641e+00 8.171647071838378906e+00 3.633311688899993896e-01 -7.637882232666015625e-01 -1.201371103525161743e-01 6.885013580322265625e-01
2.741000000000000000e+03 6.922849273681640625e+01 -1.861376285552978516e+00 -4.262947738170623779e-01 5.873897552490234375e+00 1.634280920028686523e+00 -4.861291870474815369e-02
2.742000000000000000e+03 1.368933773040771484e+01 7.334136486053466797e+00 2.219517946243286133e+00 2.115747690200805664e+00 1.300579667091369629e+00 -7.668019533157348633e-01
2.743000000000000000e+03 3.813597488403320312e+01 -1.082806396484375000e+01 5.922983288764953613e-01 5.592222690582275391e+00 1.855356335639953613e+00 -8.644558489322662354e-02
2.744000000000000000e+03 6.768525600433349609e+00 9.063207626342773438e+00 7.968604564666748047e-01 -3.100492358207702637e-01 1.460433602333068848e-01 4.866754412651062012e-01
2.745000000000000000e+03 7.609647274017333984e+00 8.763542175292968750e+00 9.633345007896423340e-01 -9.786666184663772583e-02 2.596403658390045166e-01 4.639208912849426270e-01
2.746000000000000000e+03 6.670729064941406250e+01 -9.341677278280258179e-02 -8.235601335763931274e-02 4.591744899749755859e+00 1.352816700935363770e+00 2.574175894260406494e-01
2.747000000000000000e+03 6.657825469970703125e+01 -1.171777844429016113e+00 -6.767647713422775269e-02 4.482031345367431641e+00 1.324306488037109375e+00 8.723299950361251831e-02
2.748000000000000000e+03 2.495380401611328125e+01 -7.736554622650146484e+00 1.275381326675415039e+00 2.523451328277587891e+00 1.139649868011474609e+00 -1.700226306915283203e+00
2.749000000000000000e+03 8.637314796447753906e+00 -9.903075218200683594e+00 7.460200786590576172e-02 1.363824486732482910e+00 4.315279722213745117e-01 -1.526908576488494873e-01
2.750000000000000000e+03 6.418618679046630859e+00 -1.197441196441650391e+01 3.565715849399566650e-01 8.252009153366088867e-01 3.545317649841308594e-01 -3.760808706283569336e-01
2.751000000000000000e+03 7.497767925262451172e+00 -1.183326435089111328e+01 3.927169740200042725e-01 1.229901432991027832e+00 4.867855310440063477e-01 -2.964874207973480225e-01
2.752000000000000000e+03 6.923784637451171875e+01 3.654542684555053711e+00 -4.118683338165283203e-01 6.468064785003662109e+00 1.816859006881713867e+00 3.477418422698974609e-01
2.753000000000000000e+03 6.444420623779296875e+01 -2.567566394805908203e+00 3.143527805805206299e-01 3.097673416137695312e+00 1.023607850074768066e+00 -1.142038255929946899e-01
2.754000000000000000e+03 7.179221343994140625e+01 -3.714835643768310547e+00 -5.698374509811401367e-01 6.857521057128906250e+00 1.886305093765258789e+00 2.131717838346958160e-02
2.755000000000000000e+03 7.150800323486328125e+01 -2.396886825561523438e+00 -5.489475131034851074e-01 6.693840980529785156e+00 1.843467950820922852e+00 -8.006927091628313065e-04
2.756000000000000000e+03 7.166750335693359375e+01 4.157337188720703125e+00 -3.752590119838714600e-01 7.203550338745117188e+00 2.048487424850463867e+00 -7.953407615423202515e-02
2.757000000000000000e+03 7.144461822509765625e+01 2.430598449707031250e+01 -1.171996235847473145e+00 8.062162399291992188e+00 2.067049741744995117e+00 3.201289772987365723e-01
2.758000000000000000e+03 6.788781166076660156e+00 -8.799521446228027344e+00 -9.079409646801650524e-04 6.625187397003173828e-01 1.984832286834716797e-01 -3.957313001155853271e-01
2.759000000000000000e+03 4.312688827514648438e+01 -4.072543621063232422e+00 -8.840022087097167969e-01 1.044039630889892578e+01 2.866918325424194336e+00 1.229085326194763184e+00
2.760000000000000000e+03 6.492187500000000000e+01 -1.549534201622009277e+00 2.651242911815643311e-01 3.399163722991943359e+00 1.099286437034606934e+00 6.131088733673095703e-02
2.761000000000000000e+03 8.995170593261718750e+00 2.535994529724121094e+01 -3.592318296432495117e-01 1.709711313247680664e+00 4.051438570022583008e-01 -9.619002938270568848e-01
2.762000000000000000e+03 7.203128814697265625e+01 -8.208793640136718750e+00 -7.407113909721374512e-01 7.638327121734619141e+00 2.069284677505493164e+00 3.407581746578216553e-01
2.763000000000000000e+03 8.834418296813964844e+00 1.601513862609863281e+01 8.254943490028381348e-01 1.298512816429138184e+00 6.372021436691284180e-01 -9.682220816612243652e-01
2.764000000000000000e+03 8.106046676635742188e+00 1.215420055389404297e+01 1.103133916854858398e+00 4.582834243774414062e-01 4.684251844882965088e-01 -2.762400209903717041e-01
2.765000000000000000e+03 7.197725772857666016e+00 -7.680689811706542969e+00 -7.934157550334930420e-02 6.058480739593505859e-01 1.579519510269165039e-01 -3.413389027118682861e-01
2.766000000000000000e+03 7.330375671386718750e+00 -9.614562034606933594e+00 3.851582854986190796e-02 8.835052251815795898e-01 2.766063213348388672e-01 -3.573110103607177734e-01
2.767000000000000000e+03 1.664007568359375000e+01 2.160113525390625000e+01 -5.925030708312988281e-01 4.155376911163330078e+00 1.068862199783325195e+00 -3.194899559020996094e-01
2.768000000000000000e+03 7.779461383819580078e+00 2.290915870666503906e+01 -1.116252467036247253e-01 1.303394913673400879e+00 3.575308918952941895e-01 -1.077664256095886230e+00
2.769000000000000000e+03 6.682057857513427734e+00 2.152747344970703125e+01 2.255603484809398651e-02 8.792731165885925293e-01 2.705487608909606934e-01 -1.028796792030334473e+00
2.770000000000000000e+03 8.235543251037597656e+00 1.806175613403320312e+01 4.438057541847229004e-01 1.181326866149902344e+00 4.875397682189941406e-01 -1.051146149635314941e+00
2.771000000000000000e+03 5.907091522216796875e+01 -4.464719772338867188e+00 8.011214137077331543e-01 4.419794678688049316e-01 3.729302585124969482e-01 -2.661330699920654297e-01
2.772000000000000000e+03 6.253872680664062500e+01 -3.262980222702026367e+00 6.165278553962707520e-01 2.010419845581054688e+00 7.880843281745910645e-01 -1.883867532014846802e-01
2.773000000000000000e+03 7.081504058837890625e+01 6.699684858322143555e-01 -4.649282991886138916e-01 6.614623069763183594e+00 1.844908475875854492e+00 1.833987049758434296e-02
2.774000000000000000e+03 9.687040328979492188e+00 -3.294072341918945312e+01 -4.317477345466613770e-01 1.121337532997131348e+00 2.068769186735153198e-01 1.642462015151977539e-01
2.775000000000000000e+03 7.090554046630859375e+01 -7.044287204742431641e+00 -8.096328973770141602e-01 7.099296569824218750e+00 1.886899113655090332e+00 -2.728148177266120911e-02
2.776000000000000000e+03 1.058207511901855469e+01 1.145929050445556641e+01 1.588268637657165527e+00 1.409327149391174316e+00 8.992787599563598633e-01 -5.876640677452087402e-01
2.777000000000000000e+03 6.196362686157226562e+01 -3.995609521865844727e+00 6.609344482421875000e-01 1.707094192504882812e+00 7.104085683822631836e-01 -3.223313391208648682e-01
2.778000000000000000e+03 6.493061065673828125e+01 -4.385180950164794922e+00 8.422820270061492920e-02 3.409578084945678711e+00 1.048141837120056152e+00 -4.882745146751403809e-01
2.779000000000000000e+03 7.984261512756347656e+00 2.171620559692382812e+01 1.269436674192547798e-03 1.297540545463562012e+00 3.896429836750030518e-01 -1.125765919685363770e+00
2.780000000000000000e+03 7.187498474121093750e+01 2.318189811706542969e+01 -9.973292350769042969e-01 8.551108360290527344e+00 2.266133546829223633e+00 5.764846205711364746e-01
2.781000000000000000e+03 8.774501800537109375e+00 9.310089111328125000e+00 1.270306468009948730e+00 2.738159596920013428e-01 4.632367193698883057e-01 1.904785633087158203e-01
2.782000000000000000e+03 7.009904479980468750e+01 4.441203594207763672e+00 -3.664163351058959961e-01 6.928604602813720703e+00 1.968656539916992188e+00 2.513798177242279053e-01
2.783000000000000000e+03 1.340428924560546875e+01 1.910149192810058594e+01 3.657184839248657227e-01 3.391527891159057617e+00 1.127173900604248047e+00 -1.145339250564575195e+00
2.784000000000000000e+03 6.957706451416015625e+01 1.968914747238159180e+00 -4.032761454582214355e-01 6.234987258911132812e+00 1.749513387680053711e+00 1.956877410411834717e-01
2.785000000000000000e+03 1.049850082397460938e+01 3.037191581726074219e+01 -5.426490306854248047e-01 1.790890574455261230e+00 3.744724690914154053e-01 -4.944193661212921143e-01
2.786000000000000000e+03 1.013695621490478516e+01 1.436766433715820312e+01 1.171880483627319336e+00 1.697966694831848145e+00 8.609541654586791992e-01 -8.982203006744384766e-01
2.787000000000000000e+03 4.567341613769531250e+01 -2.888228034973144531e+01 -4.559674113988876343e-02 6.967619895935058594e+00 2.076606988906860352e+00 -1.356553435325622559e+00
2.788000000000000000e+03 6.978071212768554688e+00 -2.337767601013183594e+01 6.043836008757352829e-03 1.428729414939880371e+00 4.304319620132446289e-01 8.604976534843444824e-01
2.789000000000000000e+03 9.517957687377929688e+00 2.111667633056640625e+01 2.383626811206340790e-02 1.838175773620605469e+00 5.586035847663879395e-01 -1.182493567466735840e+00
2.790000000000000000e+03 6.692391204833984375e+01 -3.483580398559570312e+01 -2.373668253421783447e-01 4.310557842254638672e+00 1.221957325935363770e+00 5.837164521217346191e-01
2.791000000000000000e+03 4.364947509765625000e+01 1.881685638427734375e+01 -2.177276164293289185e-01 5.908071994781494141e+00 1.707103371620178223e+00 -5.114285945892333984e-01
2.792000000000000000e+03 6.276115036010742188e+01 -4.111517429351806641e+00 5.080582499504089355e-01 2.121285200119018555e+00 7.888030409812927246e-01 -3.475060462951660156e-01
2.793000000000000000e+03 1.054808139801025391e+01 1.323029327392578125e+01 1.399257183074951172e+00 1.728595137596130371e+00 9.383556842803955078e-01 -8.097205162048339844e-01
2.794000000000000000e+03 4.075407028198242188e+01 -1.147000217437744141e+01 2.922132015228271484e-01 7.505427360534667969e+00 2.339292049407958984e+00 5.601464509963989258e-01
2.795000000000000000e+03 6.538598632812500000e+01 -5.351018428802490234e+00 -3.597710654139518738e-02 3.719414710998535156e+00 1.105031251907348633e+00 -6.871708631515502930e-01
2.796000000000000000e+03 7.077580261230468750e+01 2.957306671142578125e+01 -6.312606930732727051e-01 6.521102905273437500e+00 1.766952633857727051e+00 -5.504533052444458008e-01
2.797000000000000000e+03 1.035380268096923828e+01 -3.533499145507812500e+01 -3.379651904106140137e-01 9.692302346229553223e-01 1.893795132637023926e-01 5.842002481222152710e-02
2.798000000000000000e+03 4.199193572998046875e+01 1.910415077209472656e+01 -2.730464339256286621e-01 4.834797859191894531e+00 1.368525385856628418e+00 -8.817967176437377930e-01
2.799000000000000000e+03 3.986694717407226562e+01 2.590932846069335938e+01 -7.759661674499511719e-01 3.282624483108520508e+00 7.519974708557128906e-01 -8.532279729843139648e-01
2.800000000000000000e+03 3.849219131469726562e+01 2.136511421203613281e+01 -4.554592072963714600e-01 2.839931249618530273e+00 7.153415679931640625e-01 -1.016727924346923828e+00
2.801000000000000000e+03 6.838909149169921875e+01 2.795013046264648438e+01 -9.289013147354125977e-01 5.549776077270507812e+00 1.386262416839599609e+00 -9.917446374893188477e-01
2.802000000000000000e+03 3.899373531341552734e+00 -3.356108856201171875e+01 -1.174902319908142090e-01 9.348107576370239258e-01 2.451961636543273926e-01 2.677293121814727783e-01
2.803000000000000000e+03 1.312528991699218750e+01 2.334744834899902344e+01 -5.504657030105590820e-01 2.918524026870727539e+00 7.104175090789794922e-01 -8.833207488059997559e-01
2.804000000000000000e+03 6.366683578491210938e+01 -3.829354763031005859e+00 3.499545454978942871e-01 2.645792484283447266e+00 8.987241387367248535e-01 -3.915027379989624023e-01
2.805000000000000000e+03 4.182894897460937500e+01 2.073713874816894531e+01 -4.974291324615478516e-01 4.521832942962646484e+00 1.207321166992187500e+00 -8.848517537117004395e-01
2.806000000000000000e+03 4.088722610473632812e+01 -1.029520702362060547e+01 -9.829637408256530762e-02 7.546779155731201172e+00 2.234544754028320312e+00 7.039570212364196777e-01
2.807000000000000000e+03 1.466460037231445312e+01 2.790029335021972656e+01 -8.966498374938964844e-01 2.447270154953002930e+00 4.651861190795898438e-01 -1.957101374864578247e-01
2.808000000000000000e+03 9.790769577026367188e+00 2.634753990173339844e+01 -4.687666296958923340e-01 1.864225745201110840e+00 4.186377525329589844e-01 -8.541655540466308594e-01
2.809000000000000000e+03 4.553517913818359375e+01 -3.484445953369140625e+01 -1.114910840988159180e+00 5.425683975219726562e+00 1.293231844902038574e+00 -1.047581076622009277e+00
2.810000000000000000e+03 9.654080390930175781e+00 2.455551719665527344e+01 -3.613674044609069824e-01 1.891265749931335449e+00 4.589695036411285400e-01 -1.017359614372253418e+00
2.811000000000000000e+03 1.064408874511718750e+01 2.532614707946777344e+01 -5.009162425994873047e-01 2.124718189239501953e+00 4.871405661106109619e-01 -9.006357192993164062e-01
2.812000000000000000e+03 7.483555603027343750e+01 1.023188781738281250e+01 3.206147253513336182e-01 7.763917446136474609e+00 2.425359725952148438e+00 -4.628170132637023926e-01
2.813000000000000000e+03 2.223570060729980469e+01 -6.099776268005371094e+00 9.028273224830627441e-01 4.333593845367431641e+00 1.570926308631896973e+00 -9.603065252304077148e-02
2.814000000000000000e+03 2.103865814208984375e+01 -5.112282276153564453e+00 1.412158012390136719e+00 4.230773925781250000e+00 1.692879676818847656e+00 1.527458786964416504e+00
2.815000000000000000e+03 2.121563529968261719e+01 -5.515186786651611328e+00 1.214201688766479492e+00 4.121049880981445312e+00 1.600575566291809082e+00 1.174945116043090820e+00
2.816000000000000000e+03 1.825347518920898438e+01 -5.441651344299316406e+00 1.654403328895568848e+00 6.279993653297424316e-01 6.847208142280578613e-01 1.773740172386169434e+00
2.817000000000000000e+03 1.862543106079101562e+01 -5.859903812408447266e+00 1.568993330001831055e+00 9.244996905326843262e-01 7.480478882789611816e-01 1.883071541786193848e+00
2.818000000000000000e+03 1.651552581787109375e+01 -7.490756034851074219e+00 8.069625496864318848e-01 4.994778931140899658e-01 3.919321298599243164e-01 1.946596264839172363e+00
2.819000000000000000e+03 9.678072929382324219e+00 -6.862719058990478516e+00 -1.490003615617752075e-01 8.884968757629394531e-01 2.218489646911621094e-01 9.483867883682250977e-02
2.820000000000000000e+03 1.773940849304199219e+01 -5.669597625732421875e+00 1.483457446098327637e+00 4.606255590915679932e-01 5.832248926162719727e-01 1.738170027732849121e+00
2.821000000000000000e+03 2.320911407470703125e+01 -7.954993724822998047e+00 6.327570676803588867e-01 2.632773876190185547e+00 9.796593189239501953e-01 -6.861968636512756348e-01
2.822000000000000000e+03 2.284371757507324219e+01 -8.637776374816894531e+00 3.292822539806365967e-01 2.162017583847045898e+00 7.473899722099304199e-01 -3.214731812477111816e-01
2.823000000000000000e+03 1.593885803222656250e+01 -6.659061431884765625e+00 8.654661774635314941e-01 3.807229101657867432e-01 3.738567233085632324e-01 1.695280790328979492e+00
2.824000000000000000e+03 1.425647640228271484e+01 -8.230032920837402344e+00 3.078755736351013184e-01 9.857649803161621094e-01 3.880921602249145508e-01 1.687918186187744141e+00
2.825000000000000000e+03 6.414756298065185547e+00 8.086294174194335938e+00 6.534214019775390625e-01 -4.376763999462127686e-01 6.472350656986236572e-02 7.041019797325134277e-01
2.826000000000000000e+03 2.114224815368652344e+01 -8.476817131042480469e+00 3.204180598258972168e-01 1.801043748855590820e+00 6.364385485649108887e-01 7.392124533653259277e-01
2.827000000000000000e+03 1.948025512695312500e+01 -8.235605239868164062e+00 6.296418905258178711e-01 1.011293292045593262e+00 4.922805428504943848e-01 1.541387081146240234e+00
2.828000000000000000e+03 2.417613792419433594e+01 -7.572466850280761719e+00 1.032918572425842285e+00 2.772162437438964844e+00 1.141524314880371094e+00 -1.382055282592773438e+00
2.829000000000000000e+03 2.368363952636718750e+01 -6.837662220001220703e+00 1.146134257316589355e+00 3.434054374694824219e+00 1.374056577682495117e+00 -1.357303261756896973e+00
2.830000000000000000e+03 8.827836036682128906e+00 7.426402091979980469e+00 1.067701935768127441e+00 9.657296352088451385e-03 3.232077658176422119e-01 5.953900218009948730e-01
2.831000000000000000e+03 1.525437450408935547e+01 -7.164689540863037109e+00 6.419599652290344238e-01 5.462903976440429688e-01 3.564751148223876953e-01 1.726872086524963379e+00
2.832000000000000000e+03 1.194906234741210938e+01 -7.299804687500000000e+00 -4.567137919366359711e-03 1.054610610008239746e+00 3.150130510330200195e-01 8.134923577308654785e-01
2.833000000000000000e+03 2.257077980041503906e+01 -7.673529624938964844e+00 6.180334091186523438e-01 2.860086679458618164e+00 1.043436050415039062e+00 -2.595482468605041504e-01
2.834000000000000000e+03 2.361781692504882812e+01 -6.202282905578613281e+00 1.409191250801086426e+00 4.005236625671386719e+00 1.624328374862670898e+00 -1.652792096138000488e+00
2.835000000000000000e+03 8.997072219848632812e+00 -6.353721141815185547e+00 -1.670424938201904297e-01 7.079294323921203613e-01 1.622660756111145020e-01 -4.793943464756011963e-02
2.836000000000000000e+03 1.160856533050537109e+01 1.165360546112060547e+01 1.724538683891296387e+00 2.116511344909667969e+00 1.152315020561218262e+00 -8.318321108818054199e-01
2.837000000000000000e+03 7.102838134765625000e+01 2.740077018737792969e+00 -4.484431147575378418e-01 6.851412773132324219e+00 1.920890927314758301e+00 -2.009386941790580750e-02
2.838000000000000000e+03 7.081310272216796875e+01 3.615512132644653320e+00 -4.704298973083496094e-01 7.003045082092285156e+00 1.959784507751464844e+00 5.449664965271949768e-02
2.839000000000000000e+03 1.003790283203125000e+01 -8.006426811218261719e+00 -9.839146584272384644e-02 1.236624360084533691e+00 3.414698541164398193e-01 2.097283005714416504e-01
2.840000000000000000e+03 7.019329833984375000e+01 -4.319622993469238281e+00 -6.007000803947448730e-01 6.406127929687500000e+00 1.741628289222717285e+00 -1.393687278032302856e-01
2.841000000000000000e+03 6.742408752441406250e+01 -3.725420236587524414e+00 -3.110050261020660400e-01 5.025551795959472656e+00 1.414363980293273926e+00 -3.147528469562530518e-01
2.842000000000000000e+03 7.447100639343261719e+00 -8.443626403808593750e+00 -4.766555130481719971e-02 7.639169692993164062e-01 2.148754298686981201e-01 -3.358117938041687012e-01
2.843000000000000000e+03 1.106464195251464844e+01 -7.773908615112304688e+00 -8.349980413913726807e-02 1.247407555580139160e+00 3.491723239421844482e-01 5.526839494705200195e-01
2.844000000000000000e+03 8.660143852233886719e+00 -6.939025402069091797e+00 -1.504357606172561646e-01 7.718958854675292969e-01 1.864380389451980591e-01 -1.173062175512313843e-01
2.845000000000000000e+03 7.924683570861816406e+00 -1.042878627777099609e+01 1.611830294132232666e-01 1.204978108406066895e+00 4.098483324050903320e-01 -2.585837543010711670e-01
2.846000000000000000e+03 9.217585563659667969e+00 -9.306946754455566406e+00 3.893185639753937721e-03 1.403145551681518555e+00 4.221116304397583008e-01 -4.334996920078992844e-03
2.847000000000000000e+03 1.200545406341552734e+01 8.683010101318359375e+00 1.965087532997131348e+00 1.501676082611083984e+00 1.040029048919677734e+00 -4.167229533195495605e-01
2.848000000000000000e+03 9.560173034667968750e+00 7.082535743713378906e+00 1.149484515190124512e+00 9.975620359182357788e-02 3.747722208499908447e-01 5.726640820503234863e-01
2.849000000000000000e+03 1.563702011108398438e+01 -8.217750549316406250e+00 5.065221190452575684e-01 6.939162015914916992e-01 3.601315021514892578e-01 1.991789340972900391e+00
2.850000000000000000e+03 1.773909568786621094e+01 -7.306073665618896484e+00 1.036548972129821777e+00 5.562191009521484375e-01 4.778304100036621094e-01 1.960428237915039062e+00
2.851000000000000000e+03 1.923676872253417969e+01 -6.733116626739501953e+00 1.215953588485717773e+00 1.313568115234375000e+00 7.588565349578857422e-01 1.840889811515808105e+00
2.852000000000000000e+03 1.828279304504394531e+01 -6.275547027587890625e+00 1.377384066581726074e+00 7.306957244873046875e-01 6.324239373207092285e-01 1.879359364509582520e+00
2.853000000000000000e+03 1.211944484710693359e+01 2.031504631042480469e+01 9.920424968004226685e-02 2.795418024063110352e+00 8.683866858482360840e-01 -1.176175355911254883e+00
2.854000000000000000e+03 6.848570346832275391e+00 7.060731410980224609e+00 5.760956406593322754e-01 -3.968118727207183838e-01 5.378513410687446594e-02 8.748398423194885254e-01
2.855000000000000000e+03 9.671584129333496094e+00 -8.665061950683593750e+00 -4.140429571270942688e-02 1.341092705726623535e+00 3.899065256118774414e-01 1.113307401537895203e-01
2.856000000000000000e+03 4.372465896606445312e+01 2.071198081970214844e+01 -4.853207767009735107e-01 5.468930721282958984e+00 1.495082974433898926e+00 -5.794027447700500488e-01
2.857000000000000000e+03 1.094193172454833984e+01 1.400483608245849609e+01 1.318304657936096191e+00 2.054385185241699219e+00 1.011806964874267578e+00 -9.597666263580322266e-01
2.858000000000000000e+03 1.083747577667236328e+01 1.536311626434326172e+01 1.106429100036621094e+00 2.177879333496093750e+00 9.852924942970275879e-01 -1.063284873962402344e+00
2.859000000000000000e+03 1.242014026641845703e+01 -3.452857971191406250e+01 -4.073361456394195557e-01 9.056848883628845215e-01 1.495046317577362061e-01 -4.583695158362388611e-02
2.860000000000000000e+03 1.153382396697998047e+01 1.256734848022460938e+01 1.600229144096374512e+00 2.226643085479736328e+00 1.148061633110046387e+00 -9.074309468269348145e-01
2.861000000000000000e+03 6.668178558349609375e+01 -2.860509634017944336e+00 -1.535510271787643433e-01 4.513775825500488281e+00 1.308067321777343750e+00 -2.219420969486236572e-01
2.862000000000000000e+03 7.969485282897949219e+00 -6.741888046264648438e+00 -1.509896516799926758e-01 6.425247788429260254e-01 1.474605351686477661e-01 -2.308335602283477783e-01
2.863000000000000000e+03 7.272280120849609375e+01 -4.184337139129638672e+00 -5.624849200248718262e-01 7.124358177185058594e+00 1.968562006950378418e+00 1.389045715332031250e-01
2.864000000000000000e+03 7.007588958740234375e+01 -1.132537722587585449e+00 -4.733134508132934570e-01 6.207147121429443359e+00 1.720149993896484375e+00 1.021958421915769577e-02
2.865000000000000000e+03 6.454418945312500000e+01 -3.504475593566894531e+00 2.460903674364089966e-01 3.135068416595458984e+00 1.014347672462463379e+00 -3.472750186920166016e-01
2.866000000000000000e+03 6.584458160400390625e+01 -3.717464447021484375e+00 -3.393511846661567688e-02 4.039972782135009766e+00 1.201811313629150391e+00 -3.678228557109832764e-01
2.867000000000000000e+03 7.649870872497558594e+00 1.985227584838867188e+01 1.995006501674652100e-01 1.119880080223083496e+00 3.958142101764678955e-01 -1.091073989868164062e+00
2.868000000000000000e+03 9.341956138610839844e+00 1.803808212280273438e+01 5.059722661972045898e-01 1.609732747077941895e+00 6.347115039825439453e-01 -1.137983560562133789e+00
2.869000000000000000e+03 7.094921875000000000e+01 -5.835160732269287109e+00 -6.907320022583007812e-01 6.859393596649169922e+00 1.850598573684692383e+00 -3.939865529537200928e-02
2.870000000000000000e+03 7.853520393371582031e+00 1.600405883789062500e+01 7.004297375679016113e-01 8.298283815383911133e-01 4.590774476528167725e-01 -8.507679104804992676e-01
2.871000000000000000e+03 9.616771697998046875e+00 1.334066390991210938e+01 1.269534111022949219e+00 1.258414745330810547e+00 7.583846449851989746e-01 -6.943901181221008301e-01
2.872000000000000000e+03 5.317814350128173828e+00 2.283057594299316406e+01 -4.213944450020790100e-02 5.662952661514282227e-01 1.572467386722564697e-01 -8.968916535377502441e-01
2.873000000000000000e+03 1.051124191284179688e+01 1.236264896392822266e+01 1.508867621421813965e+00 1.538822650909423828e+00 9.143071174621582031e-01 -7.077125310897827148e-01
2.874000000000000000e+03 6.702499389648437500e+01 -5.595013618469238281e+00 -3.721384406089782715e-01 4.915099620819091797e+00 1.362888336181640625e+00 -6.835747957229614258e-01
2.875000000000000000e+03 6.926191711425781250e+01 -6.542484760284423828e+00 -7.354680299758911133e-01 6.424896240234375000e+00 1.706828474998474121e+00 -3.983930349349975586e-01
2.876000000000000000e+03 1.059632587432861328e+01 1.794413566589355469e+01 5.836989283561706543e-01 2.157607078552246094e+00 8.223918080329895020e-01 -1.191765189170837402e+00
2.877000000000000000e+03 9.121292114257812500e+00 1.700195884704589844e+01 6.789826154708862305e-01 1.479303002357482910e+00 6.474856734275817871e-01 -1.060291290283203125e+00
2.878000000000000000e+03 9.345351219177246094e+00 8.266186714172363281e+00 1.343358635902404785e+00 2.950493693351745605e-01 4.915223717689514160e-01 3.175312280654907227e-01
2.879000000000000000e+03 1.048826694488525391e+01 2.246823883056640625e+01 -1.878854930400848389e-01 2.166892528533935547e+00 5.937021374702453613e-01 -1.132201671600341797e+00
2.880000000000000000e+03 9.236252784729003906e+00 2.209412384033203125e+01 -8.043915033340454102e-02 1.797739028930664062e+00 5.151899456977844238e-01 -1.152265191078186035e+00
2.881000000000000000e+03 8.749069213867187500e+00 2.399147987365722656e+01 -2.511618137359619141e-01 1.636745691299438477e+00 4.156751930713653564e-01 -1.061081171035766602e+00
2.882000000000000000e+03 1.155225276947021484e+01 1.650477981567382812e+01 9.170578122138977051e-01 2.610891580581665039e+00 1.058384776115417480e+00 -1.159426569938659668e+00
2.883000000000000000e+03 1.206739807128906250e+01 1.907510948181152344e+01 3.602136373519897461e-01 2.862384319305419922e+00 9.667794108390808105e-01 -1.215484142303466797e+00
2.884000000000000000e+03 8.498914718627929688e+00 1.354966068267822266e+01 1.063951849937438965e+00 8.119833469390869141e-01 5.627805590629577637e-01 -5.666924715042114258e-01
2.885000000000000000e+03 9.507168769836425781e+00 1.124208164215087891e+01 1.391972303390502930e+00 9.223721623420715332e-01 6.943033337593078613e-01 -3.533136844635009766e-01
2.886000000000000000e+03 1.026598548889160156e+01 7.903863430023193359e+00 1.483394384384155273e+00 5.120628476142883301e-01 5.986371636390686035e-01 2.087595313787460327e-01
2.887000000000000000e+03 1.074514770507812500e+01 1.054422092437744141e+01 1.675119519233703613e+00 1.319095849990844727e+00 8.982645869255065918e-01 -4.516888260841369629e-01
2.888000000000000000e+03 6.959462738037109375e+01 -3.506228923797607422e-01 -4.142288863658905029e-01 6.028870105743408203e+00 1.684392333030700684e+00 7.797140628099441528e-02
2.889000000000000000e+03 7.083683013916015625e+01 1.752309322357177734e+00 -4.651288390159606934e-01 6.739974498748779297e+00 1.882453799247741699e+00 3.747571259737014771e-02
2.890000000000000000e+03 1.075061702728271484e+01 2.752733039855957031e+01 -5.868681073188781738e-01 2.013797760009765625e+00 4.280788600444793701e-01 -6.970464587211608887e-01
2.891000000000000000e+03 1.249304294586181641e+01 2.480538940429687500e+01 -6.421638727188110352e-01 2.594015836715698242e+00 5.855555534362792969e-01 -7.985437512397766113e-01
2.892000000000000000e+03 1.175509929656982422e+01 2.621041107177734375e+01 -6.445927023887634277e-01 2.296289682388305664e+00 4.955090880393981934e-01 -7.385432124137878418e-01
2.893000000000000000e+03 4.432266235351562500e+01 -2.864846420288085938e+01 3.701182454824447632e-02 7.268566131591796875e+00 2.191673517227172852e+00 -9.284703731536865234e-01
2.894000000000000000e+03 1.347974777221679688e+01 2.184465408325195312e+01 -3.305415511131286621e-01 3.216547012329101562e+00 8.658016920089721680e-01 -9.779057502746582031e-01
2.895000000000000000e+03 7.238034820556640625e+01 3.039336204528808594e+01 -4.183552265167236328e-01 7.081587314605712891e+00 1.998969674110412598e+00 -3.386632800102233887e-01
2.896000000000000000e+03 6.950052642822265625e+01 2.857452392578125000e+01 -7.758933901786804199e-01 5.946509361267089844e+00 1.551184773445129395e+00 -8.123332262039184570e-01
2.897000000000000000e+03 4.159058761596679688e+01 2.422706413269042969e+01 -8.029242753982543945e-01 4.009587287902832031e+00 9.619989991188049316e-01 -8.003943562507629395e-01
2.898000000000000000e+03 4.071556854248046875e+01 2.258379173278808594e+01 -6.178981065750122070e-01 3.770516395568847656e+00 9.457854628562927246e-01 -9.781313538551330566e-01
2.899000000000000000e+03 1.305455493927001953e+01 2.710608863830566406e+01 -7.806687355041503906e-01 2.420923471450805664e+00 4.920764267444610596e-01 -5.212115645408630371e-01
2.900000000000000000e+03 1.536376380920410156e+01 2.321438407897949219e+01 -7.865356206893920898e-01 3.466694831848144531e+00 8.040477633476257324e-01 -4.983761310577392578e-01
2.901000000000000000e+03 1.516044425964355469e+01 2.602578544616699219e+01 -9.892883300781250000e-01 2.887168169021606445e+00 5.693639516830444336e-01 -2.444500625133514404e-01
2.902000000000000000e+03 5.569682121276855469e+00 -2.104366302490234375e+01 2.897105515003204346e-01 8.024151921272277832e-01 3.276377320289611816e-01 7.822550535202026367e-01
2.903000000000000000e+03 6.079032421112060547e+00 -2.287034034729003906e+01 6.883960217237472534e-02 1.084566593170166016e+00 3.460218608379364014e-01 8.790436983108520508e-01
2.904000000000000000e+03 1.381165504455566406e+01 3.354560089111328125e+01 -5.634946823120117188e-01 1.786661386489868164e+00 3.669500350952148438e-01 -1.249574273824691772e-01
2.905000000000000000e+03 4.311967468261718750e+01 2.548392105102539062e+01 -1.006833076477050781e+00 4.418190002441406250e+00 1.023407101631164551e+00 -5.589219331741333008e-01
2.906000000000000000e+03 4.903836059570312500e+01 2.537418365478515625e+01 -1.258965492248535156e+00 5.231566429138183594e+00 1.191780328750610352e+00 8.622332811355590820e-01
2.907000000000000000e+03 6.931777954101562500e+01 2.196708106994628906e+01 -1.483192324638366699e+00 9.399060249328613281e+00 2.374760389328002930e+00 -2.246804237365722656e-01
2.908000000000000000e+03 6.849916839599609375e+01 -8.829055428504943848e-01 -3.459466993808746338e-01 5.516479492187500000e+00 1.551159858703613281e+00 4.390105977654457092e-02
2.909000000000000000e+03 7.097254180908203125e+01 -8.228737831115722656e+00 -7.896383404731750488e-01 7.462740898132324219e+00 2.001930713653564453e+00 6.304422020912170410e-02
2.910000000000000000e+03 2.137649917602539062e+01 -6.626182556152343750e+00 8.274020552635192871e-01 3.239082574844360352e+00 1.219945430755615234e+00 7.586866617202758789e-01
2.911000000000000000e+03 1.988443374633789062e+01 -5.605192661285400391e+00 1.577914118766784668e+00 2.146416425704956055e+00 1.117299199104309082e+00 1.888697624206542969e+00
2.912000000000000000e+03 1.990134811401367188e+01 -6.109878540039062500e+00 1.380215406417846680e+00 2.068805217742919922e+00 1.034706115722656250e+00 1.776378393173217773e+00
2.913000000000000000e+03 2.032062149047851562e+01 -5.212720394134521484e+00 1.669292688369750977e+00 2.877288103103637695e+00 1.363974213600158691e+00 1.923052906990051270e+00
2.914000000000000000e+03 1.861247253417968750e+01 -6.651861667633056641e+00 1.281129002571105957e+00 9.147807955741882324e-01 6.587729454040527344e-01 1.919850468635559082e+00
2.915000000000000000e+03 1.863533210754394531e+01 -5.096536636352539062e+00 1.826323866844177246e+00 7.839334607124328613e-01 7.830771803855895996e-01 1.771706342697143555e+00
2.916000000000000000e+03 1.943819999694824219e+01 -5.547946929931640625e+00 1.689679026603698730e+00 1.603429555892944336e+00 9.879325628280639648e-01 1.925496697425842285e+00
2.917000000000000000e+03 2.303416824340820312e+01 -5.293612480163574219e+00 1.356272578239440918e+00 5.409351825714111328e+00 2.029687404632568359e+00 -1.535231590270996094e+00
2.918000000000000000e+03 1.899099349975585938e+01 -8.695622444152832031e+00 5.176852345466613770e-01 6.492352485656738281e-01 3.500761389732360840e-01 1.627286911010742188e+00
2.919000000000000000e+03 1.822374916076660156e+01 -7.006623268127441406e+00 1.150440096855163574e+00 7.141092419624328613e-01 5.593647956848144531e-01 1.935589432716369629e+00
2.920000000000000000e+03 1.655900001525878906e+01 -6.715826988220214844e+00 1.018276810646057129e+00 3.939866125583648682e-01 4.236790239810943604e-01 1.790315628051757812e+00
2.921000000000000000e+03 1.850767326354980469e+01 -8.317481040954589844e+00 7.543373107910156250e-01 6.039977669715881348e-01 4.075005352497100830e-01 1.878775715827941895e+00
2.922000000000000000e+03 1.785342407226562500e+01 -6.175360202789306641e+00 1.377249598503112793e+00 5.759980678558349609e-01 5.859742760658264160e-01 1.855820059776306152e+00
2.923000000000000000e+03 1.650770187377929688e+01 -8.306136131286621094e+00 6.647130846977233887e-01 5.288481712341308594e-01 3.580683767795562744e-01 2.093106031417846680e+00
2.924000000000000000e+03 2.268711090087890625e+01 -7.130763053894042969e+00 7.528125643730163574e-01 3.343325853347778320e+00 1.228841543197631836e+00 -4.737189412117004395e-01
2.925000000000000000e+03 2.269898605346679688e+01 -5.771963596343994141e+00 1.072348833084106445e+00 4.761725902557373047e+00 1.750222325325012207e+00 -7.901859283447265625e-01
2.926000000000000000e+03 2.049402236938476562e+01 -8.091354370117187500e+00 5.471495985984802246e-01 1.683595657348632812e+00 6.692235469818115234e-01 1.118494987487792969e+00
2.927000000000000000e+03 1.987178421020507812e+01 -7.715428829193115234e+00 7.588648200035095215e-01 1.426839590072631836e+00 6.557113528251647949e-01 1.463242292404174805e+00
2.928000000000000000e+03 2.152127647399902344e+01 -7.926833152770996094e+00 4.918222725391387939e-01 2.375448226928710938e+00 8.601811528205871582e-01 5.180281400680541992e-01
2.929000000000000000e+03 2.091553306579589844e+01 -7.593912601470947266e+00 6.423538327217102051e-01 2.166778087615966797e+00 8.427395820617675781e-01 9.962548017501831055e-01
2.930000000000000000e+03 1.489001941680908203e+01 -7.769387245178222656e+00 4.509819746017456055e-01 7.394018769264221191e-01 3.571151494979858398e-01 1.771242976188659668e+00
2.931000000000000000e+03 2.301384353637695312e+01 -6.331699848175048828e+00 1.040971279144287109e+00 4.144955158233642578e+00 1.555778026580810547e+00 -9.782943129539489746e-01
2.932000000000000000e+03 1.133495330810546875e+01 9.931296348571777344e+00 1.802254557609558105e+00 1.503181695938110352e+00 9.916308522224426270e-01 -4.800783395767211914e-01
2.933000000000000000e+03 1.084841537475585938e+01 8.943579673767089844e+00 1.715510129928588867e+00 1.002351999282836914e+00 8.153586387634277344e-01 -1.491504311561584473e-01
2.934000000000000000e+03 1.716301155090332031e+01 -7.472657203674316406e+00 9.479892849922180176e-01 5.130043029785156250e-01 4.382980763912200928e-01 1.996740937232971191e+00
2.935000000000000000e+03 6.918704223632812500e+01 -3.665174245834350586e+00 -5.092167854309082031e-01 5.947441101074218750e+00 1.631467342376708984e+00 -1.833373755216598511e-01
2.936000000000000000e+03 8.520500183105468750e+00 -8.627122879028320312e+00 -3.983411565423011780e-02 1.067271590232849121e+00 3.082312345504760742e-01 -1.581317782402038574e-01
2.937000000000000000e+03 9.331116676330566406e+00 -7.472208499908447266e+00 -1.163742393255233765e-01 9.858785867691040039e-01 2.608512938022613525e-01 2.811738289892673492e-02
2.938000000000000000e+03 9.411036491394042969e+00 1.225709533691406250e+01 1.357262372970581055e+00 1.044108033180236816e+00 7.204111218452453613e-01 -5.119028687477111816e-01
2.939000000000000000e+03 4.198270034790039062e+01 -2.553419494628906250e+01 1.406872868537902832e+00 8.210696220397949219e+00 2.885270833969116211e+00 -4.376490041613578796e-02
2.940000000000000000e+03 6.834602355957031250e+01 -2.762434244155883789e+00 -4.071551263332366943e-01 5.488494873046875000e+00 1.524401903152465820e+00 -1.694706082344055176e-01
2.941000000000000000e+03 7.086356353759765625e+01 -3.250091314315795898e+00 -5.510070919990539551e-01 6.519903182983398438e+00 1.790668845176696777e+00 -1.349319797009229660e-02
2.942000000000000000e+03 6.586808013916015625e+01 -2.149301528930664062e+00 3.362832218408584595e-02 4.080569744110107422e+00 1.234259366989135742e+00 -9.132605046033859253e-02
2.943000000000000000e+03 1.162566089630126953e+01 1.076551151275634766e+01 1.838747382164001465e+00 1.940961480140686035e+00 1.133912682533264160e+00 -7.369234561920166016e-01
2.944000000000000000e+03 9.751781463623046875e+00 1.025264644622802734e+01 1.468860149383544922e+00 8.017646670341491699e-01 6.811874508857727051e-01 -1.703058779239654541e-01
2.945000000000000000e+03 1.204139328002929688e+01 2.158383369445800781e+01 -1.532071679830551147e-01 2.712133884429931641e+00 7.676779627799987793e-01 -1.148181796073913574e+00
2.946000000000000000e+03 6.870288848876953125e+01 -5.710983753204345703e+00 -5.829333066940307617e-01 5.928878784179687500e+00 1.603783726692199707e+00 -4.058668911457061768e-01
2.947000000000000000e+03 6.751464080810546875e+01 -1.818983793258666992e+00 -2.342047244310379028e-01 5.026979446411132812e+00 1.437832355499267578e+00 -3.152113407850265503e-02
2.948000000000000000e+03 9.184784889221191406e+00 1.470537948608398438e+01 1.030336260795593262e+00 1.273979902267456055e+00 6.912948489189147949e-01 -8.353260159492492676e-01
2.949000000000000000e+03 9.395776748657226562e+00 1.911816024780273438e+01 3.397035598754882812e-01 1.698072910308837891e+00 6.113329529762268066e-01 -1.192087650299072266e+00
2.950000000000000000e+03 1.029492378234863281e+01 1.681744575500488281e+01 7.884197235107421875e-01 1.965397119522094727e+00 8.261450529098510742e-01 -1.127202630043029785e+00
2.951000000000000000e+03 1.129099559783935547e+01 2.414321899414062500e+01 -4.638994038105010986e-01 2.359863042831420898e+00 5.687891244888305664e-01 -9.723417758941650391e-01
2.952000000000000000e+03 8.983592033386230469e+00 2.310968208312988281e+01 -1.814386546611785889e-01 1.706249713897705078e+00 4.574433267116546631e-01 -1.115743756294250488e+00
2.953000000000000000e+03 6.812672424316406250e+01 3.083240509033203125e+01 -1.669826805591583252e-01 5.058122158050537109e+00 1.467341780662536621e+00 -7.142505049705505371e-01
2.954000000000000000e+03 6.776119995117187500e+01 2.891743087768554688e+01 -5.636755228042602539e-01 4.930439472198486328e+00 1.310029268264770508e+00 -9.345203042030334473e-01
2.955000000000000000e+03 1.375692081451416016e+01 2.549859237670898438e+01 -8.087576627731323242e-01 2.745822191238403320e+00 5.811193585395812988e-01 -5.685487985610961914e-01
2.956000000000000000e+03 1.434538078308105469e+01 2.403239059448242188e+01 -7.805871367454528809e-01 3.167897701263427734e+00 7.161931991577148438e-01 -6.457965373992919922e-01
2.957000000000000000e+03 1.365206813812255859e+01 2.997603416442871094e+01 -7.537485957145690918e-01 2.110304117202758789e+00 4.069666266441345215e-01 -2.303840816020965576e-01
2.958000000000000000e+03 4.403427124023437500e+01 2.855988502502441406e+01 -1.117194652557373047e+00 4.111414909362792969e+00 8.982660770416259766e-01 -2.202649563550949097e-01
2.959000000000000000e+03 1.013525676727294922e+01 2.356128883361816406e+01 -2.997494041919708252e-01 2.065529346466064453e+00 5.297340154647827148e-01 -1.070751547813415527e+00
2.960000000000000000e+03 1.701308631896972656e+01 3.255372619628906250e+01 -6.252435445785522461e-01 1.813890814781188965e+00 3.565941751003265381e-01 1.288678944110870361e-01
2.961000000000000000e+03 1.886870384216308594e+01 3.525110626220703125e+01 -4.364931285381317139e-01 1.566856980323791504e+00 3.391091525554656982e-01 1.518345326185226440e-01
2.962000000000000000e+03 2.158839416503906250e+01 -5.992013931274414062e+00 9.480262398719787598e-01 4.016221046447753906e+00 1.489274263381958008e+00 6.532211303710937500e-01
2.963000000000000000e+03 2.190974998474121094e+01 -5.734963893890380859e+00 9.605429768562316895e-01 4.592577934265136719e+00 1.665936231613159180e+00 2.949123382568359375e-01
2.964000000000000000e+03 2.091940307617187500e+01 -5.736302375793457031e+00 1.247549533843994141e+00 3.449175596237182617e+00 1.409017562866210938e+00 1.370676875114440918e+00
2.965000000000000000e+03 2.238854789733886719e+01 -5.375537395477294922e+00 1.047180891036987305e+00 5.499334812164306641e+00 1.963954687118530273e+00 -4.489568769931793213e-01
2.966000000000000000e+03 2.064518928527832031e+01 -5.322412014007568359e+00 1.518252134323120117e+00 3.373123645782470703e+00 1.467412710189819336e+00 1.729916214942932129e+00
2.967000000000000000e+03 1.898984718322753906e+01 -6.296472549438476562e+00 1.409459829330444336e+00 1.174216866493225098e+00 7.751030325889587402e-01 1.885613799095153809e+00
2.968000000000000000e+03 1.944263839721679688e+01 -6.113823413848876953e+00 1.437053084373474121e+00 1.573228716850280762e+00 9.030845165252685547e-01 1.855782032012939453e+00
2.969000000000000000e+03 1.898829460144042969e+01 -5.382561206817626953e+00 1.780107498168945312e+00 1.140093803405761719e+00 8.760604262351989746e-01 1.893036484718322754e+00
2.970000000000000000e+03 2.220053291320800781e+01 -7.303215026855468750e+00 6.460961103439331055e-01 2.989053487777709961e+00 1.090544819831848145e+00 6.275890767574310303e-02
2.971000000000000000e+03 1.797810363769531250e+01 -6.594952583312988281e+00 1.226412773132324219e+00 6.297727227210998535e-01 5.568556785583496094e-01 1.901457548141479492e+00
2.972000000000000000e+03 2.055396842956542969e+01 -7.103287220001220703e+00 8.290452361106872559e-01 2.188046932220458984e+00 9.051277041435241699e-01 1.262593388557434082e+00
2.973000000000000000e+03 2.318164634704589844e+01 -6.958662509918212891e+00 9.468889832496643066e-01 3.419891595840454102e+00 1.310034155845642090e+00 -9.367974996566772461e-01
2.974000000000000000e+03 2.249740409851074219e+01 -6.586672782897949219e+00 8.676991462707519531e-01 3.807833909988403320e+00 1.402659893035888672e+00 -3.514092862606048584e-01
2.975000000000000000e+03 1.079375934600830078e+01 2.020670318603515625e+01 1.437928974628448486e-01 2.306758880615234375e+00 7.351655364036560059e-01 -1.231455683708190918e+00
2.976000000000000000e+03 1.072446060180664062e+01 2.133782196044921875e+01 -4.771880805492401123e-02 2.258760690689086914e+00 6.633126139640808105e-01 -1.183712601661682129e+00
2.977000000000000000e+03 6.980335235595703125e+01 -5.542455196380615234e+00 -6.925431489944458008e-01 6.431209087371826172e+00 1.721599817276000977e+00 -1.857592612504959106e-01
2.978000000000000000e+03 6.758484649658203125e+01 3.257174301147460938e+01 2.379976399242877960e-02 4.752924919128417969e+00 1.433017492294311523e+00 -5.924254059791564941e-01
2.979000000000000000e+03 1.176301288604736328e+01 2.287705993652343750e+01 -3.444979190826416016e-01 2.582640171051025391e+00 6.714426875114440918e-01 -1.063683152198791504e+00
2.980000000000000000e+03 7.001406860351562500e+01 -2.638211488723754883e+00 -5.291502475738525391e-01 6.224938392639160156e+00 1.708736419677734375e+00 -7.838624715805053711e-02
2.981000000000000000e+03 7.241734313964843750e+01 3.491309738159179688e+01 4.428685456514358521e-02 6.825251579284667969e+00 2.060861587524414062e+00 -3.529600501060485840e-01
2.982000000000000000e+03 1.321482849121093750e+01 -3.165800857543945312e+01 -5.524737238883972168e-01 1.049533367156982422e+00 1.491178721189498901e-01 -7.960364222526550293e-02
2.983000000000000000e+03 4.489767456054687500e+01 2.629968833923339844e+01 -1.129528284072875977e+00 4.695099830627441406e+00 1.069671392440795898e+00 -1.846814006567001343e-01
2.984000000000000000e+03 4.623468017578125000e+01 2.867699813842773438e+01 -1.158164501190185547e+00 4.329863071441650391e+00 9.515095353126525879e-01 2.284203916788101196e-01
2.985000000000000000e+03 4.672890472412109375e+01 2.675337791442871094e+01 -1.233673095703125000e+00 4.785179615020751953e+00 1.065451979637145996e+00 2.541562616825103760e-01
2.986000000000000000e+03 2.119651985168457031e+01 -5.759698867797851562e+00 1.123489618301391602e+00 3.836621761322021484e+00 1.488033413887023926e+00 1.090641140937805176e+00
2.987000000000000000e+03 1.957169342041015625e+01 -6.595795154571533203e+00 1.232890248298645020e+00 1.583717107772827148e+00 8.449822068214416504e-01 1.743640780448913574e+00
2.988000000000000000e+03 2.179817962646484375e+01 -6.376994132995605469e+00 8.629259467124938965e-01 3.733826160430908203e+00 1.379025697708129883e+00 4.291984438896179199e-01
2.989000000000000000e+03 2.030077362060546875e+01 -6.117558002471923828e+00 1.255065321922302246e+00 2.498713016510009766e+00 1.126133441925048828e+00 1.637316942214965820e+00
2.990000000000000000e+03 2.125225257873535156e+01 -6.056284427642822266e+00 1.033772826194763184e+00 3.578042745590209961e+00 1.383544683456420898e+00 9.565547704696655273e-01
2.991000000000000000e+03 2.060971832275390625e+01 -5.705692291259765625e+00 1.326586484909057617e+00 3.087190628051757812e+00 1.324133157730102539e+00 1.613441348075866699e+00
2.992000000000000000e+03 1.932839202880859375e+01 -7.407389163970947266e+00 9.727815985679626465e-01 1.217238783836364746e+00 6.570060849189758301e-01 1.738640069961547852e+00
2.993000000000000000e+03 2.170790290832519531e+01 -7.424697399139404297e+00 5.815819501876831055e-01 2.801260709762573242e+00 1.014852762222290039e+00 4.474050998687744141e-01
2.994000000000000000e+03 2.160695838928222656e+01 -6.999095916748046875e+00 7.315492033958435059e-01 3.107431888580322266e+00 1.151694297790527344e+00 5.464746356010437012e-01
2.995000000000000000e+03 2.127145576477050781e+01 -7.234842777252197266e+00 6.927796006202697754e-01 2.674332141876220703e+00 1.010133504867553711e+00 7.851340174674987793e-01
2.996000000000000000e+03 1.892718887329101562e+01 -7.053547859191894531e+00 1.128333568572998047e+00 1.063921451568603516e+00 6.576765179634094238e-01 1.863087415695190430e+00
2.997000000000000000e+03 1.802916145324707031e+01 -7.885552883148193359e+00 8.721590042114257812e-01 6.039010882377624512e-01 4.428180456161499023e-01 1.977736830711364746e+00
2.998000000000000000e+03 1.757129096984863281e+01 -6.791557788848876953e+00 1.166175842285156250e+00 5.675366520881652832e-01 5.201137661933898926e-01 1.949820041656494141e+00
2.999000000000000000e+03 6.988199615478515625e+01 3.518728637695312500e+01 1.202096268534660339e-01 5.836948871612548828e+00 1.787147521972656250e+00 -3.614946007728576660e-01
3.000000000000000000e+03 6.670131683349609375e+01 3.493356323242187500e+01 3.348760306835174561e-01 4.495585441589355469e+00 1.449138522148132324e+00 -3.752244114875793457e-01
3.001000000000000000e+03 4.172316741943359375e+01 2.756862640380859375e+01 -9.470033645629882812e-01 3.752216577529907227e+00 8.415639400482177734e-01 -5.499078035354614258e-01
3.002000000000000000e+03 2.078444862365722656e+01 -6.485965251922607422e+00 9.979091882705688477e-01 2.753766536712646484e+00 1.125502705574035645e+00 1.238927245140075684e+00
3.003000000000000000e+03 2.112296676635742188e+01 -6.321755409240722656e+00 9.665465950965881348e-01 3.253602981567382812e+00 1.266044855117797852e+00 1.031017541885375977e+00
3.004000000000000000e+03 2.098671722412109375e+01 -6.873632907867431641e+00 8.476006388664245605e-01 2.654633522033691406e+00 1.050670266151428223e+00 1.022700786590576172e+00
3.005000000000000000e+03 2.003406524658203125e+01 -7.149106502532958984e+00 9.385415315628051758e-01 1.784289002418518066e+00 8.168491721153259277e-01 1.486065149307250977e+00
3.006000000000000000e+03 1.998195457458496094e+01 -6.606545925140380859e+00 1.127783775329589844e+00 1.997658371925354004e+00 9.376326799392700195e-01 1.642086267471313477e+00
3.007000000000000000e+03 1.955388069152832031e+01 -7.001425743103027344e+00 1.064512133598327637e+00 1.427922725677490234e+00 7.477304339408874512e-01 1.703444123268127441e+00
3.008000000000000000e+03 2.040087127685546875e+01 -6.584595680236816406e+00 1.080709099769592285e+00 2.347569942474365234e+00 1.028483748435974121e+00 1.481802582740783691e+00
3.009000000000000000e+03 6.262017440795898438e+01 3.115759468078613281e+01 3.064144849777221680e-01 2.551890850067138672e+00 8.574916124343872070e-01 -3.938201814889907837e-02
3.010000000000000000e+03 6.516894531250000000e+01 2.793772697448730469e+01 -5.218622088432312012e-01 3.203485250473022461e+00 8.044869303703308105e-01 -9.231192469596862793e-01
3.011000000000000000e+03 6.459606170654296875e+01 -3.582423019409179688e+01 6.376151740550994873e-02 3.288667917251586914e+00 1.005728840827941895e+00 6.213633418083190918e-01
3.012000000000000000e+03 6.099025726318359375e+01 3.479875564575195312e+01 4.938209950923919678e-01 2.963489294052124023e+00 1.037193059921264648e+00 2.046953886747360229e-01
3.013000000000000000e+03 1.537644863128662109e+01 3.129891777038574219e+01 -7.046219110488891602e-01 1.972822666168212891e+00 3.804602324962615967e-01 -5.238476675003767014e-03
3.014000000000000000e+03 6.584074401855468750e+01 -3.306874847412109375e+01 -4.874978065490722656e-01 3.918740987777709961e+00 1.029372930526733398e+00 8.032845854759216309e-01
3.015000000000000000e+03 1.199334716796875000e+01 -4.092863082885742188e+01 -1.347656100988388062e-01 6.873295903205871582e-01 1.657691895961761475e-01 -2.164381742477416992e-02
3.016000000000000000e+03 5.688483047485351562e+01 -3.456348419189453125e+01 2.142876386642456055e-01 7.713275551795959473e-01 2.956845462322235107e-01 -6.527177691459655762e-01
3.017000000000000000e+03 6.148059082031250000e+01 -3.593614196777343750e+01 4.002453684806823730e-01 1.816677570343017578e+00 6.650769114494323730e-01 3.783966600894927979e-01
3.018000000000000000e+03 1.847620201110839844e+01 -4.082185745239257812e+01 1.343150157481431961e-02 3.626635074615478516e-01 1.128285080194473267e-01 -3.395364806056022644e-02
3.019000000000000000e+03 1.447966194152832031e+01 -3.097364807128906250e+01 -5.573387145996093750e-01 8.898752927780151367e-01 9.976097941398620605e-02 -1.476572602987289429e-01
3.020000000000000000e+03 6.218261718750000000e+01 2.896241569519042969e+01 2.669878862798213959e-02 1.896113276481628418e+00 5.768436193466186523e-01 -3.457072004675865173e-02
3.021000000000000000e+03 6.385206222534179688e+01 2.846879959106445312e+01 -1.553371697664260864e-01 2.460443496704101562e+00 6.915318369865417480e-01 -5.475250482559204102e-01
3.022000000000000000e+03 1.449645519256591797e+01 3.758807373046875000e+01 -4.013770818710327148e-01 1.579706192016601562e+00 3.534987270832061768e-01 -3.924828022718429565e-02
3.023000000000000000e+03 1.536394786834716797e+01 -3.933794021606445312e+01 -1.403199434280395508e-01 5.376619100570678711e-01 1.192025989294052124e-01 -8.815627545118331909e-02
3.024000000000000000e+03 5.145454788208007812e+01 2.931038856506347656e+01 -9.759336113929748535e-01 3.833835840225219727e+00 8.573706746101379395e-01 1.255928754806518555e+00
3.025000000000000000e+03 3.131848144531250000e+01 3.403545379638671875e+01 -2.513502836227416992e-01 1.494735717773437500e+00 3.730156421661376953e-01 -2.539719939231872559e-01
3.026000000000000000e+03 4.902853393554687500e+01 3.197422409057617188e+01 -8.801780939102172852e-01 3.740818738937377930e+00 8.581921458244323730e-01 6.830120682716369629e-01
3.027000000000000000e+03 6.008288955688476562e+01 3.206697463989257812e+01 3.037602007389068604e-01 2.402576923370361328e+00 8.119011521339416504e-01 4.247638881206512451e-01
3.028000000000000000e+03 3.813964462280273438e+01 2.455165290832519531e+01 -6.332285404205322266e-01 2.729718923568725586e+00 6.289470791816711426e-01 -9.576303958892822266e-01
3.029000000000000000e+03 8.908395767211914062e+00 3.779829788208007812e+01 -2.666445672512054443e-01 1.449589610099792480e+00 3.548835217952728271e-01 -1.672692447900772095e-01
3.030000000000000000e+03 5.713397026062011719e+00 -3.815254592895507812e+01 -1.300550997257232666e-01 9.810475707054138184e-01 2.552977502346038818e-01 1.176465377211570740e-01
3.031000000000000000e+03 1.180987834930419922e+01 3.606066131591796875e+01 -4.015032947063446045e-01 1.591632127761840820e+00 3.570386469364166260e-01 -1.532715111970901489e-01
3.032000000000000000e+03 1.208856105804443359e+01 3.200774765014648438e+01 -5.629836916923522949e-01 1.805016994476318359e+00 3.726100027561187744e-01 -2.803439199924468994e-01
3.033000000000000000e+03 5.271813583374023438e+01 -3.497943878173828125e+01 -1.066045984625816345e-01 2.251689672470092773e+00 6.435255408287048340e-01 -1.309874892234802246e+00
3.034000000000000000e+03 5.129262924194335938e+01 -3.461915206909179688e+01 -2.948146760463714600e-01 2.775013208389282227e+00 7.440595626831054688e-01 -1.515262603759765625e+00
3.035000000000000000e+03 2.601180076599121094e+01 3.137721443176269531e+01 -2.405260950326919556e-01 1.061665773391723633e+00 2.463418841361999512e-01 1.504721343517303467e-01
3.036000000000000000e+03 2.193261337280273438e+01 2.940546798706054688e+01 -5.616220235824584961e-01 1.344424128532409668e+00 2.348406165838241577e-01 5.653226971626281738e-01
3.037000000000000000e+03 7.126537322998046875e+01 -3.821304321289062500e+01 -4.107902571558952332e-02 6.019020080566406250e+00 1.793382287025451660e+00 1.588658839464187622e-01
3.038000000000000000e+03 2.223120307922363281e+01 3.483667373657226562e+01 -3.090090751647949219e-01 1.351639509201049805e+00 3.127891421318054199e-01 2.102952450513839722e-01
3.039000000000000000e+03 2.028299522399902344e+01 3.039904403686523438e+01 -6.169394850730895996e-01 1.647527933120727539e+00 3.091765344142913818e-01 4.171570539474487305e-01
3.040000000000000000e+03 1.844101905822753906e+01 3.802893829345703125e+01 -3.638485074043273926e-01 1.504876732826232910e+00 3.423084616661071777e-01 9.271661192178726196e-02
3.041000000000000000e+03 5.675498962402343750e+01 3.512105941772460938e+01 1.613514423370361328e-01 2.834705352783203125e+00 8.988170623779296875e-01 6.955226063728332520e-01
3.042000000000000000e+03 5.921506118774414062e+01 2.861484336853027344e+01 -1.045862957835197449e-01 1.395601749420166016e+00 3.873046338558197021e-01 9.867317080497741699e-01
3.043000000000000000e+03 6.858762359619140625e+01 -3.345270919799804688e+01 -5.454940795898437500e-01 5.440327644348144531e+00 1.468450069427490234e+00 4.080956280231475830e-01
3.044000000000000000e+03 3.712278747558593750e+01 3.116731834411621094e+01 -5.682505369186401367e-01 2.342394351959228516e+00 5.322431325912475586e-01 -5.344603657722473145e-01
3.045000000000000000e+03 4.076446151733398438e+01 3.426251983642578125e+01 -7.202057242393493652e-01 2.975925683975219727e+00 6.767159700393676758e-01 -2.577348351478576660e-01
3.046000000000000000e+03 2.744133758544921875e+01 -3.834184265136718750e+01 -1.271858364343643188e-01 1.153277158737182617e+00 3.078274130821228027e-01 3.297440111637115479e-01
3.047000000000000000e+03 5.244035720825195312e+01 3.512871932983398438e+01 -3.061307370662689209e-01 3.143950700759887695e+00 8.513460159301757812e-01 7.530198693275451660e-01
3.048000000000000000e+03 3.900615310668945312e+01 -3.517200469970703125e+01 -1.350095391273498535e+00 5.777500629425048828e+00 1.328221559524536133e+00 3.828284740447998047e-01
3.049000000000000000e+03 3.810068893432617188e+01 -3.781831741333007812e+01 -1.453501701354980469e+00 5.196953296661376953e+00 1.123035550117492676e+00 3.510534167289733887e-01
3.050000000000000000e+03 8.347343444824218750e+00 4.080164718627929688e+01 -2.012663632631301880e-01 1.408950328826904297e+00 3.623051941394805908e-01 -6.199476122856140137e-02
3.051000000000000000e+03 6.709822082519531250e+01 4.097853469848632812e+01 5.023609399795532227e-01 4.838102340698242188e+00 1.602138876914978027e+00 -6.540162116289138794e-02
3.052000000000000000e+03 3.749534225463867188e+01 -4.086323928833007812e+01 -1.444775223731994629e+00 4.805519104003906250e+00 1.008223056793212891e+00 1.625661551952362061e-01
3.053000000000000000e+03 4.661025619506835938e+01 -3.778067398071289062e+01 -1.042170166969299316e+00 4.679586887359619141e+00 1.091225028038024902e+00 -7.687187790870666504e-01
3.054000000000000000e+03 5.738545227050781250e+01 -4.122791671752929688e+01 7.485892176628112793e-01 1.704269289970397949e+00 7.358575463294982910e-01 -5.525790899991989136e-02
3.055000000000000000e+03 7.171875000000000000e+01 -4.098149871826171875e+01 5.367205664515495300e-02 6.165923118591308594e+00 1.865878582000732422e+00 5.738341063261032104e-02
3.056000000000000000e+03 6.573801422119140625e+01 -3.826640319824218750e+01 2.327212095260620117e-01 3.795439481735229492e+00 1.208448171615600586e+00 3.913696110248565674e-01
3.057000000000000000e+03 5.711076354980468750e+01 3.809947967529296875e+01 3.066288232803344727e-01 2.944011688232421875e+00 9.751921296119689941e-01 3.802815973758697510e-01
3.058000000000000000e+03 6.185003662109375000e+01 3.787579345703125000e+01 5.397521257400512695e-01 3.431825399398803711e+00 1.191473245620727539e+00 6.821189075708389282e-02
3.059000000000000000e+03 4.348272323608398438e+01 3.774380874633789062e+01 -6.418424248695373535e-01 3.032615900039672852e+00 7.172320485115051270e-01 3.491149097681045532e-02
3.060000000000000000e+03 3.853902053833007812e+01 3.310113525390625000e+01 -6.267764568328857422e-01 2.644345760345458984e+00 6.052708029747009277e-01 -4.324304759502410889e-01
3.061000000000000000e+03 2.280171394348144531e+01 3.778641510009765625e+01 -2.522794902324676514e-01 1.372774124145507812e+00 3.361484110355377197e-01 1.037952750921249390e-01
3.062000000000000000e+03 1.598392295837402344e+01 3.475436782836914062e+01 -5.217505693435668945e-01 1.702741861343383789e+00 3.542973697185516357e-01 3.296907618641853333e-02
3.063000000000000000e+03 3.479679489135742188e+01 -3.621552276611328125e+01 -1.065752863883972168e+00 4.302327156066894531e+00 9.709722995758056641e-01 8.582966327667236328e-01
3.064000000000000000e+03 7.011326599121093750e+01 -3.490517807006835938e+01 -3.792444765567779541e-01 5.967356204986572266e+00 1.676433563232421875e+00 2.963750660419464111e-01
3.065000000000000000e+03 4.969663238525390625e+01 2.955613517761230469e+01 -1.119958996772766113e+00 4.147373199462890625e+00 9.082242846488952637e-01 1.004675269126892090e+00
3.066000000000000000e+03 2.813318634033203125e+01 3.193504714965820312e+01 -2.177813649177551270e-01 1.076575279235839844e+00 2.576381564140319824e-01 -2.350383065640926361e-02
3.067000000000000000e+03 3.580201721191406250e+01 2.920049667358398438e+01 -5.085218548774719238e-01 2.055047512054443359e+00 4.639576971530914307e-01 -6.610816717147827148e-01
3.068000000000000000e+03 4.095476150512695312e+01 3.174917030334472656e+01 -8.184741139411926270e-01 3.160880565643310547e+00 7.027219533920288086e-01 -3.779239356517791748e-01
3.069000000000000000e+03 3.445902252197265625e+01 3.278549194335937500e+01 -3.820968270301818848e-01 1.854664206504821777e+00 4.417702257633209229e-01 -4.277586638927459717e-01
3.070000000000000000e+03 4.826540756225585938e+01 3.486489105224609375e+01 -7.116932272911071777e-01 3.446713924407958984e+00 8.205062150955200195e-01 4.377485513687133789e-01
3.071000000000000000e+03 5.246224212646484375e+01 3.812947082519531250e+01 -1.619499623775482178e-01 3.083952188491821289e+00 8.766006827354431152e-01 4.269691109657287598e-01
3.072000000000000000e+03 2.770379257202148438e+01 3.440425872802734375e+01 -1.904864758253097534e-01 1.266757369041442871e+00 3.228812515735626221e-01 -1.423726440407335758e-03
3.073000000000000000e+03 3.222505187988281250e+01 3.703998565673828125e+01 -2.705283463001251221e-01 1.732382655143737793e+00 4.385562837123870850e-01 -1.865606606006622314e-01
3.074000000000000000e+03 6.402064514160156250e+01 3.344060897827148438e+01 3.601191043853759766e-01 3.518121242523193359e+00 1.163472056388854980e+00 -1.731464117765426636e-01
3.075000000000000000e+03 3.968268966674804688e+01 2.953641891479492188e+01 -7.814376950263977051e-01 3.074412584304809570e+00 6.878924369812011719e-01 -5.818817019462585449e-01
3.076000000000000000e+03 6.643412017822265625e+01 3.785419464111328125e+01 4.877171218395233154e-01 4.560279369354248047e+00 1.514398932456970215e+00 -1.720140725374221802e-01
3.077000000000000000e+03 3.605960464477539062e+01 3.534095382690429688e+01 -4.406194686889648438e-01 2.165621757507324219e+00 5.175006985664367676e-01 -3.093399703502655029e-01
3.078000000000000000e+03 4.221329879760742188e+01 -3.525567626953125000e+01 -1.332330703735351562e+00 5.896944046020507812e+00 1.369383931159973145e+00 -3.480462133884429932e-01
3.079000000000000000e+03 4.408958816528320312e+01 3.138230895996093750e+01 -9.672551751136779785e-01 3.686929225921630859e+00 8.159022331237792969e-01 -3.336377814412117004e-02
3.080000000000000000e+03 6.858251190185546875e+01 -3.686994934082031250e+01 -6.127014756202697754e-02 5.076671123504638672e+00 1.504620313644409180e+00 2.943996191024780273e-01
3.081000000000000000e+03 1.894462585449218750e+01 3.294434356689453125e+01 -5.248398184776306152e-01 1.625146150588989258e+00 3.300918936729431152e-01 2.355863451957702637e-01
3.082000000000000000e+03 2.478743743896484375e+01 3.328080368041992188e+01 -2.578262090682983398e-01 1.207655191421508789e+00 2.849487066268920898e-01 1.861158013343811035e-01
3.083000000000000000e+03 2.003721237182617188e+01 -3.567643880844116211e+00 2.937651872634887695e+00 1.776142716407775879e+00 1.414138317108154297e+00 2.100256443023681641e+00
3.084000000000000000e+03 2.025851440429687500e+01 -3.600559234619140625e+00 2.964023351669311523e+00 2.310114145278930664e+00 1.582241296768188477e+00 2.332244396209716797e+00
3.085000000000000000e+03 2.049243545532226562e+01 -3.606928586959838867e+00 2.980008840560913086e+00 2.997602701187133789e+00 1.793283462524414062e+00 2.559036731719970703e+00
3.086000000000000000e+03 2.073511123657226562e+01 -3.655493736267089844e+00 2.803637742996215820e+00 3.956792354583740234e+00 2.028128862380981445e+00 2.716197729110717773e+00
3.087000000000000000e+03 2.100586128234863281e+01 -3.696607828140258789e+00 2.485565423965454102e+00 5.197179317474365234e+00 2.304823398590087891e+00 2.727669954299926758e+00
3.088000000000000000e+03 2.153220558166503906e+01 -3.223912477493286133e+00 2.342345237731933594e+00 8.612236022949218750e+00 3.286374330520629883e+00 2.882758617401123047e+00
3.089000000000000000e+03 2.153281402587890625e+01 -3.486402750015258789e+00 1.996259808540344238e+00 8.003579139709472656e+00 2.999951839447021484e+00 2.413996934890747070e+00
3.090000000000000000e+03 2.238174247741699219e+01 -3.196185350418090820e+00 1.727656841278076172e+00 1.213477611541748047e+01 4.158730030059814453e+00 -1.214152216911315918e+00
3.091000000000000000e+03 2.358642959594726562e+01 -2.008655309677124023e+00 8.091674804687500000e+00 6.293408870697021484e+00 4.315525054931640625e+00 -4.643024921417236328e+00
3.092000000000000000e+03 2.348765563964843750e+01 -2.204922914505004883e+00 7.561500549316406250e+00 7.560311317443847656e+00 4.536543369293212891e+00 -5.231680393218994141e+00
3.093000000000000000e+03 2.364918136596679688e+01 -1.293091535568237305e+00 6.991724491119384766e+00 5.237110614776611328e+00 3.668650627136230469e+00 -2.296447515487670898e+00
3.094000000000000000e+03 2.314460945129394531e+01 -4.670422077178955078e-01 2.393939733505249023e+00 1.058346557617187500e+01 3.893221616744995117e+00 -3.497865423560142517e-02
3.095000000000000000e+03 2.204609870910644531e+01 7.539434731006622314e-02 -1.699779629707336426e+00 1.455410861968994141e+01 3.856298685073852539e+00 -4.885969638824462891e+00
3.096000000000000000e+03 2.183511161804199219e+01 7.912857085466384888e-02 -1.439265966415405273e+00 1.357581138610839844e+01 3.640963554382324219e+00 -5.849967479705810547e+00
3.097000000000000000e+03 2.124245834350585938e+01 6.566002219915390015e-02 -2.399837076663970947e-01 1.016294956207275391e+01 2.976889848709106445e+00 -7.268568515777587891e+00
3.098000000000000000e+03 2.009642601013183594e+01 6.502535939216613770e-01 -3.503605723381042480e-01 5.238831043243408203e+00 1.466541051864624023e+00 -4.831000328063964844e+00
3.099000000000000000e+03 1.958814811706542969e+01 6.022887229919433594e-01 -4.184218645095825195e-01 3.758411169052124023e+00 1.001996755599975586e+00 -3.902838945388793945e+00
3.100000000000000000e+03 1.960290527343750000e+01 1.537449806928634644e-01 -8.776587843894958496e-01 2.753911256790161133e+00 5.628757476806640625e-01 -3.315564870834350586e+00
3.101000000000000000e+03 1.925314521789550781e+01 1.062163487076759338e-01 -1.517342329025268555e+00 2.142428636550903320e+00 1.875258833169937134e-01 -2.387762308120727539e+00
3.102000000000000000e+03 1.889470100402832031e+01 4.108520746231079102e-01 -1.441162467002868652e+00 2.210055112838745117e+00 2.306678295135498047e-01 -2.118903636932373047e+00
3.103000000000000000e+03 7.795955657958984375e+01 4.157338333129882812e+01 1.624351590871810913e-01 8.757729530334472656e+00 2.676049232482910156e+00 -4.568344727158546448e-02
3.104000000000000000e+03 7.527795410156250000e+01 3.646909713745117188e+01 -2.441840432584285736e-02 8.002466201782226562e+00 2.393414258956909180e+00 -1.492893844842910767e-01
3.105000000000000000e+03 2.390091514587402344e+01 -2.274723291397094727e+00 6.960824012756347656e+00 5.268855571746826172e+00 3.668903827667236328e+00 -4.701182365417480469e+00
3.106000000000000000e+03 2.393373870849609375e+01 -2.629460334777832031e+00 5.770144939422607422e+00 5.833055973052978516e+00 3.480960130691528320e+00 -5.055242538452148438e+00
3.107000000000000000e+03 2.058160209655761719e+01 6.860329508781433105e-01 -4.328027367591857910e-01 6.852316379547119141e+00 1.925854086875915527e+00 -5.701735019683837891e+00
3.108000000000000000e+03 1.925743484497070312e+01 7.740274667739868164e-01 -6.092849969863891602e-01 3.517389059066772461e+00 8.724312186241149902e-01 -3.309683561325073242e+00
3.109000000000000000e+03 2.141726875305175781e+01 3.957832157611846924e-01 -1.251524448394775391e+00 1.087704563140869141e+01 2.887656450271606445e+00 -6.401211738586425781e+00
3.110000000000000000e+03 2.201145744323730469e+01 -3.786496400833129883e+00 1.350299835205078125e+00 9.069383621215820312e+00 3.125905036926269531e+00 5.292584896087646484e-01
3.111000000000000000e+03 1.974402046203613281e+01 -3.744503498077392578e+00 2.737041950225830078e+00 1.329472899436950684e+00 1.219954490661621094e+00 1.920320630073547363e+00
3.112000000000000000e+03 2.027227401733398438e+01 -3.929734945297241211e+00 2.674025774002075195e+00 2.677805185317993164e+00 1.605549216270446777e+00 2.360390424728393555e+00
3.113000000000000000e+03 2.174132919311523438e+01 -3.568548440933227539e+00 1.607360839843750000e+00 9.012692451477050781e+00 3.186016082763671875e+00 1.611310005187988281e+00
3.114000000000000000e+03 2.158997344970703125e+01 -3.754745006561279297e+00 1.712258696556091309e+00 7.782062053680419922e+00 2.848296165466308594e+00 1.808064579963684082e+00
3.115000000000000000e+03 1.814503288269042969e+01 -3.586826562881469727e+00 1.676606178283691406e+00 9.232339262962341309e-02 5.306788682937622070e-01 9.525449872016906738e-01
3.116000000000000000e+03 1.841440200805664062e+01 -4.073569297790527344e+00 1.927818417549133301e+00 3.156270384788513184e-01 6.730336546897888184e-01 1.315732359886169434e+00
3.117000000000000000e+03 1.905822944641113281e+01 -4.212779998779296875e+00 2.261808395385742188e+00 8.466801047325134277e-01 9.325465559959411621e-01 1.676800608634948730e+00
3.118000000000000000e+03 6.506894683837890625e+01 2.496527099609375000e+01 -1.509678006172180176e+00 2.587989330291748047e+00 3.234933912754058838e-01 -1.271752238273620605e+00
3.119000000000000000e+03 4.428106689453125000e+01 -2.391029548645019531e+01 2.107823371887207031e+00 9.214926719665527344e+00 3.396825075149536133e+00 -8.174571990966796875e-01
3.120000000000000000e+03 2.292394828796386719e+01 1.201698303222656250e+00 -1.766613245010375977e+00 8.639061927795410156e+00 2.061734676361083984e+00 -2.252051830291748047e+00
3.121000000000000000e+03 2.337229919433593750e+01 4.590017199516296387e-01 -1.018607974052429199e+00 8.545634269714355469e+00 2.258107900619506836e+00 -7.781018018722534180e-01
3.122000000000000000e+03 2.025753021240234375e+01 1.698649644851684570e+00 -2.743667364120483398e-01 7.056328296661376953e+00 2.034588575363159180e+00 -4.709849357604980469e+00
3.123000000000000000e+03 2.121828079223632812e+01 1.232705473899841309e+00 -1.195810198783874512e+00 9.584378242492675781e+00 2.516570329666137695e+00 -5.520871162414550781e+00
3.124000000000000000e+03 2.009735488891601562e+01 -4.081030845642089844e+00 2.554652452468872070e+00 2.321850061416625977e+00 1.462950706481933594e+00 2.219018220901489258e+00
3.125000000000000000e+03 1.965817642211914062e+01 -4.489293575286865234e+00 2.295666694641113281e+00 1.735001087188720703e+00 1.209200382232666016e+00 2.030843973159790039e+00
3.126000000000000000e+03 4.444792938232421875e+01 -1.519416046142578125e+01 1.332564592361450195e+00 1.044862651824951172e+01 3.534357309341430664e+00 1.366815567016601562e+00
3.127000000000000000e+03 2.453733825683593750e+01 -2.750643253326416016e+00 5.222987174987792969e+00 2.975304841995239258e+00 2.459487676620483398e+00 -4.627544879913330078e+00
3.128000000000000000e+03 1.880323982238769531e+01 8.309009075164794922e-01 -1.023766398429870605e+00 2.880026817321777344e+00 5.568781495094299316e-01 -2.421218395233154297e+00
3.129000000000000000e+03 2.067073249816894531e+01 -3.986911773681640625e+00 2.421438217163085938e+00 3.905782938003540039e+00 1.898166418075561523e+00 2.488807439804077148e+00
3.130000000000000000e+03 2.050184822082519531e+01 -4.195143699645996094e+00 2.307636260986328125e+00 3.370427131652832031e+00 1.703418970108032227e+00 2.331291675567626953e+00
3.131000000000000000e+03 2.204537200927734375e+01 9.366040229797363281e-01 -1.952008962631225586e+00 1.148262310028076172e+01 2.859184265136718750e+00 -4.591192722320556641e+00
3.132000000000000000e+03 5.330724716186523438e+01 -1.708725929260253906e+00 2.091152429580688477e+00 3.811570703983306885e-01 7.416928410530090332e-01 1.622642427682876587e-01
3.133000000000000000e+03 5.282578659057617188e+01 -9.325566887855529785e-01 2.338458299636840820e+00 3.328391909599304199e-01 8.013892769813537598e-01 2.620373070240020752e-01
3.134000000000000000e+03 3.332076787948608398e+00 3.717533874511718750e+01 -5.151906237006187439e-02 1.262531280517578125e+00 3.633036613464355469e-01 -1.295931935310363770e-01
3.135000000000000000e+03 5.578356170654296875e+01 -3.266847991943359375e+01 -2.061206400394439697e-01 4.136383533477783203e-01 6.225531175732612610e-02 -9.588771462440490723e-01
3.136000000000000000e+03 2.065100860595703125e+01 -4.449246406555175781e+00 2.027135848999023438e+00 3.706732034683227539e+00 1.720160365104675293e+00 2.205317258834838867e+00
3.137000000000000000e+03 2.126938247680664062e+01 -4.495955467224121094e+00 1.546404838562011719e+00 5.339290142059326172e+00 2.065708398818969727e+00 1.637209296226501465e+00
3.138000000000000000e+03 1.920425224304199219e+01 -4.851068973541259766e+00 2.031316518783569336e+00 1.236981868743896484e+00 9.804894924163818359e-01 1.885501742362976074e+00
3.139000000000000000e+03 4.404578018188476562e+01 9.757528305053710938e-01 2.145958662033081055e+00 1.320816707611083984e+01 4.606237888336181641e+00 1.864205837249755859e+00
3.140000000000000000e+03 4.164135360717773438e+01 -3.582191467285156250e+00 -4.052510261535644531e-01 1.028544330596923828e+01 2.964057683944702148e+00 2.659821987152099609e+00
3.141000000000000000e+03 6.223603057861328125e+01 2.700477027893066406e+01 -4.127095341682434082e-01 1.166896820068359375e+00 2.262561768293380737e-01 -1.535419970750808716e-01
3.142000000000000000e+03 2.801593589782714844e+01 -8.342556953430175781e+00 1.581308603286743164e+00 2.017740011215209961e+00 1.079714536666870117e+00 -2.473723411560058594e+00
3.143000000000000000e+03 2.528305816650390625e+01 -2.995583057403564453e+00 4.508206367492675781e+00 1.500511527061462402e+00 1.802615404129028320e+00 -3.691300630569458008e+00
3.144000000000000000e+03 4.578192138671875000e+01 2.122936820983886719e+01 -4.191049933433532715e-01 6.117945194244384766e+00 1.709652066230773926e+00 -7.044634968042373657e-02
3.145000000000000000e+03 6.996440887451171875e+01 -8.263898849487304688e+00 -8.915404081344604492e-01 7.224634170532226562e+00 1.899928092956542969e+00 -2.645984292030334473e-01
3.146000000000000000e+03 2.028213691711425781e+01 -4.237258434295654297e+00 2.375813007354736328e+00 2.902471303939819336e+00 1.583485364913940430e+00 2.298666715621948242e+00
3.147000000000000000e+03 2.498424339294433594e+01 -4.017400741577148438e+00 4.265060901641845703e+00 2.947979688644409180e+00 2.163912057876586914e+00 -3.995489120483398438e+00
3.148000000000000000e+03 2.438709259033203125e+01 -3.981100797653198242e+00 3.628514766693115234e+00 4.463272571563720703e+00 2.427536249160766602e+00 -4.212148666381835938e+00
3.149000000000000000e+03 2.231190109252929688e+01 -4.862781524658203125e+00 1.045592784881591797e+00 6.347037792205810547e+00 2.217789173126220703e+00 -2.686726152896881104e-01
3.150000000000000000e+03 3.329642295837402344e+00 3.537298965454101562e+01 -6.345367431640625000e-02 1.198913097381591797e+00 3.406378328800201416e-01 -1.801577806472778320e-01
3.151000000000000000e+03 5.861990737915039062e+01 -6.339384078979492188e+00 3.097210526466369629e-01 2.591472566127777100e-01 1.706604957580566406e-01 -2.277748584747314453e-01
3.152000000000000000e+03 4.534157562255859375e+01 2.245175170898437500e+01 -7.068539857864379883e-01 5.633820056915283203e+00 1.478089928627014160e+00 -2.281380146741867065e-01
3.153000000000000000e+03 4.582315063476562500e+01 2.449312782287597656e+01 -1.073945999145507812e+00 5.261044502258300781e+00 1.256129622459411621e+00 -9.245877712965011597e-02
3.154000000000000000e+03 2.026802062988281250e+01 -5.661862850189208984e+00 1.485606670379638672e+00 2.649628162384033203e+00 1.240570425987243652e+00 1.784748315811157227e+00
3.155000000000000000e+03 2.089062690734863281e+01 -4.647620677947998047e+00 1.706094861030578613e+00 4.330090999603271484e+00 1.810855746269226074e+00 1.942131638526916504e+00
3.156000000000000000e+03 2.144453430175781250e+01 -4.988857269287109375e+00 1.268708944320678711e+00 5.027249336242675781e+00 1.888787508010864258e+00 1.132589936256408691e+00
3.157000000000000000e+03 2.186841583251953125e+01 -4.891187667846679688e+00 1.124517798423767090e+00 5.884665012359619141e+00 2.102754831314086914e+00 4.900105297565460205e-01
3.158000000000000000e+03 2.372558784484863281e+01 -4.919665336608886719e+00 2.143352985382080078e+00 5.166403293609619141e+00 2.192926883697509766e+00 -2.776525020599365234e+00
3.159000000000000000e+03 3.916473388671875000e+00 3.616283416748046875e+01 -8.133645355701446533e-02 1.245412230491638184e+00 3.492227196693420410e-01 -1.748177707195281982e-01
3.160000000000000000e+03 4.359168529510498047e+00 3.525243377685546875e+01 -1.076285019516944885e-01 1.218133687973022461e+00 3.331515491008758545e-01 -2.387838512659072876e-01
3.161000000000000000e+03 2.572039413452148438e+01 -6.083094596862792969e+00 2.716974496841430664e+00 2.559532165527343750e+00 1.582952022552490234e+00 -2.632594108581542969e+00
3.162000000000000000e+03 2.502909660339355469e+01 -6.953166484832763672e+00 1.775972008705139160e+00 2.717042446136474609e+00 1.347904324531555176e+00 -2.063372850418090820e+00
3.163000000000000000e+03 7.281980895996093750e+01 2.387251281738281250e+01 -8.734070062637329102e-01 8.451889038085937500e+00 2.273544549942016602e+00 8.002483844757080078e-01
3.164000000000000000e+03 7.242819213867187500e+01 2.466457557678222656e+01 -1.053435087203979492e+00 8.321733474731445312e+00 2.180489540100097656e+00 4.110594987869262695e-01
3.165000000000000000e+03 3.045837974548339844e+01 -9.542901039123535156e+00 1.335612893104553223e+00 1.530953168869018555e+00 8.599697947502136230e-01 -2.757138967514038086e+00
3.166000000000000000e+03 4.175541305541992188e+01 -1.660777664184570312e+01 1.763041257858276367e+00 8.907526969909667969e+00 3.201170444488525391e+00 4.980184435844421387e-01
3.167000000000000000e+03 7.342653656005859375e+01 1.857099151611328125e+01 7.052065134048461914e-01 8.654777526855468750e+00 2.807995319366455078e+00 1.138976097106933594e+00
3.168000000000000000e+03 1.838835144042968750e+01 3.112595367431640625e+01 -6.621518731117248535e-01 1.790829777717590332e+00 3.386033773422241211e-01 2.787012457847595215e-01
3.169000000000000000e+03 4.552211761474609375e+00 -6.587563037872314453e+00 -9.860239177942276001e-02 -3.449336066842079163e-02 -3.992872312664985657e-02 -4.954771995544433594e-01
3.170000000000000000e+03 2.074892807006835938e+01 -4.963364124298095703e+00 1.611812114715576172e+00 3.784966230392456055e+00 1.619033455848693848e+00 1.840040326118469238e+00
3.171000000000000000e+03 5.043075942993164062e+01 -4.488755702972412109e+00 6.872197389602661133e-01 2.878762960433959961e+00 1.069794774055480957e+00 4.654924571514129639e-01
3.172000000000000000e+03 5.674521255493164062e+01 -1.315313220024108887e+00 1.725409746170043945e+00 1.308227032423019409e-01 5.568697452545166016e-01 1.455581188201904297e-01
3.173000000000000000e+03 2.431789779663085938e+01 -4.477898120880126953e+00 3.193543195724487305e+00 4.356081008911132812e+00 2.264887332916259766e+00 -3.665789842605590820e+00
3.174000000000000000e+03 2.314608383178710938e+01 3.127156829833984375e+01 -3.665835261344909668e-01 1.190111637115478516e+00 2.470584362745285034e-01 3.825159966945648193e-01
3.175000000000000000e+03 2.640043067932128906e+01 2.973371696472167969e+01 -2.946703135967254639e-01 8.522788882255554199e-01 1.672825664281845093e-01 1.689089685678482056e-01
3.176000000000000000e+03 2.260791969299316406e+01 -5.050117969512939453e+00 1.115011692047119141e+00 6.040601730346679688e+00 2.146683931350708008e+00 -8.978760838508605957e-01
3.177000000000000000e+03 2.215655517578125000e+01 -5.110000610351562500e+00 1.008690953254699707e+00 5.945709228515625000e+00 2.086319923400878906e+00 -5.963894352316856384e-02
3.178000000000000000e+03 4.026039123535156250e+01 -2.202907371520996094e+01 2.120811939239501953e+00 8.927873611450195312e+00 3.314605474472045898e+00 1.995640546083450317e-01
3.179000000000000000e+03 7.226123809814453125e+01 1.297935485839843750e+01 1.218214035034179688e+00 8.822256088256835938e+00 3.012140989303588867e+00 7.091160863637924194e-02
3.180000000000000000e+03 5.686950683593750000e+01 -3.635723495483398438e+01 4.694377183914184570e-01 1.337670087814331055e+00 5.421323180198669434e-01 -4.731947779655456543e-01
3.181000000000000000e+03 5.774935245513916016e+00 -5.764549732208251953e+00 -1.591135561466217041e-01 1.558772623538970947e-01 -9.708889410831034184e-04 -4.414062500000000000e-01
3.182000000000000000e+03 2.206280136108398438e+01 -5.404671192169189453e+00 1.052210807800292969e+00 5.193646430969238281e+00 1.873757123947143555e+00 7.247032225131988525e-02
3.183000000000000000e+03 2.160149574279785156e+01 -5.476373195648193359e+00 1.088070154190063477e+00 4.655597209930419922e+00 1.723100304603576660e+00 7.959817051887512207e-01
3.184000000000000000e+03 5.639351272583007812e+01 2.916046524047851562e+01 -3.231521248817443848e-01 2.307010173797607422e+00 5.951573848724365234e-01 1.437433719635009766e+00
3.185000000000000000e+03 6.962062835693359375e+01 3.077866744995117188e+01 -3.499356806278228760e-01 5.826861381530761719e+00 1.643077731132507324e+00 -6.277325749397277832e-01
3.186000000000000000e+03 4.843011093139648438e+01 2.715350532531738281e+01 -1.304764747619628906e+00 4.774717330932617188e+00 1.040985822677612305e+00 7.651420831680297852e-01
3.187000000000000000e+03 4.789340209960937500e+01 2.899894332885742188e+01 -1.132527828216552734e+00 4.296704292297363281e+00 9.492528438568115234e-01 6.375045776367187500e-01
3.188000000000000000e+03 2.855325508117675781e+01 -8.922976493835449219e+00 1.274007081985473633e+00 1.809389114379882812e+00 9.250188469886779785e-01 -2.547019958496093750e+00
3.189000000000000000e+03 7.558528900146484375e+01 2.111303520202636719e+01 -5.922699719667434692e-02 8.190038681030273438e+00 2.439243555068969727e+00 1.177105188369750977e+00
3.190000000000000000e+03 7.361264801025390625e+01 1.065507793426513672e+01 5.102807879447937012e-01 8.274439811706542969e+00 2.635416030883789062e+00 -3.948881328105926514e-01
3.191000000000000000e+03 2.477378654479980469e+01 -5.019351959228515625e+00 3.080431461334228516e+00 3.454614639282226562e+00 1.960513830184936523e+00 -3.245903491973876953e+00
3.192000000000000000e+03 3.953197097778320312e+01 -3.092820167541503906e+01 -6.123575568199157715e-01 6.835770606994628906e+00 1.867023944854736328e+00 2.175219357013702393e-01
3.193000000000000000e+03 1.853865814208984375e+01 -7.443259239196777344e+00 1.033547759056091309e+00 8.052719235420227051e-01 5.516459345817565918e-01 1.910452246665954590e+00
3.194000000000000000e+03 2.931730461120605469e+01 2.587663269042968750e+01 -5.746417641639709473e-01 4.574247896671295166e-01 -3.516508638858795166e-02 -1.717799901962280273e-01
3.195000000000000000e+03 2.847660827636718750e+01 2.891854095458984375e+01 -3.007094264030456543e-01 7.417039275169372559e-01 1.322983354330062866e-01 -9.971314668655395508e-02
3.196000000000000000e+03 2.923426437377929688e+01 2.788365936279296875e+01 -3.419650793075561523e-01 6.708148121833801270e-01 9.865492582321166992e-02 -1.466960161924362183e-01
3.197000000000000000e+03 6.840390777587890625e+01 -2.907987976074218750e+01 -1.002846717834472656e+00 5.984245777130126953e+00 1.494419693946838379e+00 5.576385259628295898e-01
3.198000000000000000e+03 2.426119804382324219e+01 -5.010483741760253906e+00 2.461871862411499023e+00 4.295996189117431641e+00 2.027360439300537109e+00 -3.031732082366943359e+00
3.199000000000000000e+03 2.094663429260253906e+01 -5.418750762939453125e+00 1.321152329444885254e+00 3.801214933395385742e+00 1.536710143089294434e+00 1.458431959152221680e+00
3.200000000000000000e+03 2.132425498962402344e+01 -5.270809173583984375e+00 1.208830118179321289e+00 4.495374202728271484e+00 1.711261272430419922e+00 1.162325382232666016e+00
3.201000000000000000e+03 4.414165115356445312e+01 -3.003202056884765625e+01 -4.387331008911132812e-01 6.818315029144287109e+00 1.913874506950378418e+00 -9.065339565277099609e-01
3.202000000000000000e+03 4.283392333984375000e+01 1.988333892822265625e+01 -3.473668396472930908e-01 5.219456672668457031e+00 1.461627006530761719e+00 -7.067844271659851074e-01
3.203000000000000000e+03 3.429170608520507812e+01 -8.940539360046386719e+00 1.433286666870117188e+00 1.809543728828430176e+00 9.728490710258483887e-01 -1.720172524452209473e+00
3.204000000000000000e+03 7.140629291534423828e+00 -5.829977035522460938e+00 -1.941360235214233398e-01 3.750963807106018066e-01 5.428810790181159973e-02 -3.283894956111907959e-01
3.205000000000000000e+03 2.977116584777832031e+01 2.980220794677734375e+01 -2.660423517227172852e-01 9.799805283546447754e-01 2.141814529895782471e-01 -2.360134273767471313e-01
3.206000000000000000e+03 5.222955322265625000e+01 3.242741012573242188e+01 -5.670149922370910645e-01 3.319869995117187500e+00 8.258565068244934082e-01 1.059415578842163086e+00
3.207000000000000000e+03 3.770044326782226562e+01 -1.000833415985107422e+01 5.805325508117675781e-01 4.927693367004394531e+00 1.652467846870422363e+00 -5.440586060285568237e-02
3.208000000000000000e+03 7.434125518798828125e+01 2.452982330322265625e+01 -6.088194847106933594e-01 8.430174827575683594e+00 2.346406698226928711e+00 7.189756035804748535e-01
3.209000000000000000e+03 2.065515518188476562e+01 -6.098080158233642578e+00 1.191035747528076172e+00 2.908773899078369141e+00 1.229942917823791504e+00 1.457789897918701172e+00
3.210000000000000000e+03 2.095952796936035156e+01 -6.049576759338378906e+00 1.098502516746520996e+00 3.241296052932739258e+00 1.301939606666564941e+00 1.264570951461791992e+00
3.211000000000000000e+03 3.451195716857910156e+00 6.987419605255126953e+00 1.422831863164901733e-01 -8.765593767166137695e-01 -2.202828675508499146e-01 7.412503957748413086e-01
3.212000000000000000e+03 6.960291385650634766e+00 -2.674620819091796875e+01 -2.993519604206085205e-01 1.311817407608032227e+00 3.037396371364593506e-01 7.064304947853088379e-01
3.213000000000000000e+03 6.432663440704345703e+00 -2.782841682434082031e+01 -2.986085712909698486e-01 1.132595777511596680e+00 2.501961886882781982e-01 6.561109423637390137e-01
3.214000000000000000e+03 4.391524505615234375e+01 -8.666770935058593750e+00 -1.210904836654663086e+00 8.957072257995605469e+00 2.323850393295288086e+00 9.206437468528747559e-01
3.215000000000000000e+03 6.523473358154296875e+01 -2.979784011840820312e+00 9.940233081579208374e-02 3.657176733016967773e+00 1.126973628997802734e+00 -2.025466412305831909e-01
3.216000000000000000e+03 4.050024032592773438e+01 -1.248257255554199219e+01 6.884431242942810059e-01 7.670666217803955078e+00 2.507732868194580078e+00 3.536745607852935791e-01
3.217000000000000000e+03 7.460570526123046875e+01 1.438795375823974609e+01 7.899233102798461914e-01 8.038539886474609375e+00 2.648539066314697266e+00 2.074997723102569580e-01
3.218000000000000000e+03 2.142371749877929688e+01 -5.687719345092773438e+00 1.068411469459533691e+00 4.247496128082275391e+00 1.594772219657897949e+00 9.046230316162109375e-01
3.219000000000000000e+03 4.117198562622070312e+01 1.997972679138183594e+01 -3.287031650543212891e-01 4.196222782135009766e+00 1.160255789756774902e+00 -9.956486225128173828e-01
3.220000000000000000e+03 2.203063392639160156e+01 -6.811561107635498047e+00 7.483990192413330078e-01 3.448709011077880859e+00 1.259132385253906250e+00 2.154554724693298340e-01
3.221000000000000000e+03 1.529654788970947266e+01 7.195243358612060547e+00 2.623183727264404297e+00 3.637265205383300781e+00 1.878134727478027344e+00 -1.532232642173767090e+00
3.222000000000000000e+03 3.846785354614257812e+01 -1.166756725311279297e+01 6.946055889129638672e-01 6.279123306274414062e+00 2.092118740081787109e+00 -1.749103516340255737e-01
3.223000000000000000e+03 5.680514812469482422e+00 -2.625890731811523438e+01 -1.911603510379791260e-01 1.025101780891418457e+00 2.501824200153350830e-01 7.784815430641174316e-01
3.224000000000000000e+03 6.987665176391601562e+00 -2.463031959533691406e+01 -1.284064501523971558e-01 1.376782536506652832e+00 3.745128214359283447e-01 8.365285396575927734e-01
3.225000000000000000e+03 7.240575408935546875e+01 4.758977413177490234e+00 -4.077281057834625244e-01 7.509831905364990234e+00 2.130631208419799805e+00 -2.311180531978607178e-01
3.226000000000000000e+03 5.894730091094970703e+00 4.234563350677490234e+00 -2.702639102935791016e-01 -3.850559294223785400e-01 -1.965959519147872925e-01 1.082482457160949707e+00
3.227000000000000000e+03 4.358122348785400391e+00 2.708687591552734375e+01 -1.211174204945564270e-01 7.323522567749023438e-01 1.833704411983489990e-01 -6.398977041244506836e-01
3.228000000000000000e+03 5.414300441741943359e+00 2.667862701416015625e+01 -1.789935231208801270e-01 9.285521507263183594e-01 2.248675972223281860e-01 -7.418280243873596191e-01
3.229000000000000000e+03 7.009089660644531250e+01 2.979641437530517578e+00 -4.295832216739654541e-01 6.622328281402587891e+00 1.857823491096496582e+00 2.322422713041305542e-01
3.230000000000000000e+03 7.996635437011718750e+00 -2.766298484802246094e+01 -4.074348211288452148e-01 1.478114008903503418e+00 3.212037682533264160e-01 5.973349213600158691e-01
3.231000000000000000e+03 7.426609802246093750e+01 -2.444014358520507812e+01 -1.828666590154170990e-02 7.928484916687011719e+00 2.373059511184692383e+00 -1.188652396202087402e+00
3.232000000000000000e+03 9.857881546020507812e+00 -5.734910488128662109e+00 -1.875747144222259521e-01 6.582956314086914062e-01 1.412162780761718750e-01 1.039280295372009277e-01
3.233000000000000000e+03 7.513218688964843750e+01 -1.039974117279052734e+01 -1.884791851043701172e-01 7.561893939971923828e+00 2.212024450302124023e+00 9.095690846443176270e-01
3.234000000000000000e+03 7.481247711181640625e+01 -6.857418060302734375e+00 -4.190747141838073730e-01 7.563803672790527344e+00 2.143418550491333008e+00 5.269695520401000977e-01
3.235000000000000000e+03 7.397676849365234375e+01 -7.074495792388916016e+00 -5.203461647033691406e-01 7.567185401916503906e+00 2.114051818847656250e+00 5.253036022186279297e-01
3.236000000000000000e+03 1.410779190063476562e+01 5.100743293762207031e+00 1.577144980430603027e+00 1.459476590156555176e+00 9.109864234924316406e-01 -3.329862058162689209e-01
3.237000000000000000e+03 8.323254585266113281e+00 2.459654235839843750e+01 -2.739862203598022461e-01 1.533400535583496094e+00 3.778243064880371094e-01 -1.002013802528381348e+00
3.238000000000000000e+03 7.080796813964843750e+01 -1.772691130638122559e+00 -5.022239685058593750e-01 6.436030387878417969e+00 1.780141830444335938e+00 1.243720855563879013e-02
3.239000000000000000e+03 7.777373790740966797e+00 -2.568648529052734375e+01 -2.837120890617370605e-01 1.614429950714111328e+00 3.992153704166412354e-01 7.443405389785766602e-01
3.240000000000000000e+03 8.192502975463867188e+00 -2.453989410400390625e+01 -1.652863472700119019e-01 1.872232675552368164e+00 5.120838880538940430e-01 7.464391589164733887e-01
3.241000000000000000e+03 7.510783386230468750e+01 -9.255962371826171875e+00 -2.839299738407135010e-01 7.595826148986816406e+00 2.193568706512451172e+00 8.215162754058837891e-01
3.242000000000000000e+03 1.736776924133300781e+01 -6.369123458862304688e+00 1.224141836166381836e+00 4.516127109527587891e-01 5.027263760566711426e-01 1.811526894569396973e+00
3.243000000000000000e+03 7.446534729003906250e+01 5.212758779525756836e-01 -3.057333827018737793e-01 7.403958320617675781e+00 2.129467487335205078e+00 -1.711132228374481201e-01
3.244000000000000000e+03 8.266168594360351562e+00 1.516125965118408203e+01 8.649348616600036621e-01 9.249541759490966797e-01 5.369667410850524902e-01 -7.865216732025146484e-01
3.245000000000000000e+03 5.232746124267578125e+00 2.412545776367187500e+01 -9.389796108007431030e-02 6.682514548301696777e-01 1.723060458898544312e-01 -8.585470914840698242e-01
3.246000000000000000e+03 7.232703208923339844e+00 7.898848533630371094e+00 8.098770380020141602e-01 -2.874669432640075684e-01 1.567230224609375000e-01 6.836552023887634277e-01
3.247000000000000000e+03 8.330304145812988281e+00 6.674852371215820312e+00 7.596260905265808105e-01 -1.953595727682113647e-01 1.692799478769302368e-01 8.445420861244201660e-01
3.248000000000000000e+03 8.090251922607421875e+00 5.484247684478759766e+00 2.899046540260314941e-01 -3.294251263141632080e-01 -1.185614522546529770e-02 1.069448113441467285e+00
3.249000000000000000e+03 1.105858802795410156e+01 -5.865809917449951172e-01 -9.613419771194458008e-01 -1.163368579000234604e-02 -2.918927073478698730e-01 1.456542313098907471e-01
3.250000000000000000e+03 1.167972469329833984e+01 -1.452614903450012207e+00 -7.505546212196350098e-01 2.028380520641803741e-02 -2.190812528133392334e-01 1.343876123428344727e-01
3.251000000000000000e+03 1.025387477874755859e+01 -1.193646550178527832e+00 -7.945191264152526855e-01 7.440382242202758789e-02 -2.160345911979675293e-01 4.277103021740913391e-02
3.252000000000000000e+03 1.239226341247558594e+01 -1.585148334503173828e+00 -7.015084624290466309e-01 8.929108269512653351e-03 -2.077738046646118164e-01 1.824548840522766113e-01
3.253000000000000000e+03 1.251665687561035156e+01 -8.556226491928100586e-01 -9.790598750114440918e-01 -2.983530238270759583e-02 -3.026685416698455811e-01 1.887148171663284302e-01
3.254000000000000000e+03 1.178777027130126953e+01 -7.200965881347656250e-01 -9.899119734764099121e-01 -1.784266903996467590e-02 -3.023263812065124512e-01 1.730387359857559204e-01
3.255000000000000000e+03 1.096688938140869141e+01 -1.322091937065124512e+00 -7.671819329261779785e-01 5.254793167114257812e-02 -2.143902033567428589e-01 8.427526801824569702e-02
3.256000000000000000e+03 1.032922649383544922e+01 -4.551429152488708496e-01 -8.778052926063537598e-01 2.012822777032852173e-02 -2.573031187057495117e-01 9.668479114770889282e-02
3.257000000000000000e+03 8.732760429382324219e+00 -1.120617032051086426e+00 -7.199335694313049316e-01 4.957854375243186951e-02 -2.011065036058425903e-01 -3.524811938405036926e-02
3.258000000000000000e+03 8.744119644165039062e+00 -3.806170821189880371e-01 -8.838403820991516113e-01 8.398939855396747589e-03 -2.626324295997619629e-01 -1.346164476126432419e-02
3.259000000000000000e+03 9.557686805725097656e+00 -3.860147297382354736e-01 -8.585414290428161621e-01 2.780078910291194916e-02 -2.492222040891647339e-01 2.880580909550189972e-02
3.260000000000000000e+03 7.929113388061523438e+00 -3.783791959285736084e-01 -8.374661207199096680e-01 7.282539270818233490e-03 -2.490550875663757324e-01 -3.178922459483146667e-02
3.261000000000000000e+03 6.294783592224121094e+00 -3.763209879398345947e-01 -6.433606147766113281e-01 2.440161304548382759e-03 -1.922761350870132446e-01 -5.247440189123153687e-02
3.262000000000000000e+03 5.471644878387451172e+00 -3.752553761005401611e-01 -5.154042840003967285e-01 2.878501778468489647e-03 -1.537577360868453979e-01 -5.915937572717666626e-02
3.263000000000000000e+03 4.613348007202148438e+00 -3.803671598434448242e-01 -3.781477510929107666e-01 -1.604973571375012398e-03 -1.139258146286010742e-01 -6.033264473080635071e-02
3.264000000000000000e+03 3.732568025588989258e+00 -3.332802653312683105e-01 -2.548223137855529785e-01 -7.905174978077411652e-03 -7.881824672222137451e-02 -4.978311061859130859e-02
3.265000000000000000e+03 3.565870285034179688e+00 -8.610453605651855469e-01 -2.385048121213912964e-01 -1.304251793771982193e-02 -7.546419650316238403e-02 -1.185525730252265930e-01
3.266000000000000000e+03 2.136041402816772461e+00 -7.255376577377319336e-01 -8.603838086128234863e-02 -1.937215775251388550e-02 -3.162316232919692993e-02 -5.724328011274337769e-02
3.267000000000000000e+03 1.105533838272094727e+00 -3.810451924800872803e-01 -8.198743686079978943e-03 -7.396448869258165359e-03 -4.678558092564344406e-03 -7.034432142972946167e-03
3.268000000000000000e+03 3.938522040843963623e-01 -5.564679503440856934e-01 6.255562766455113888e-04 1.901322742924094200e-03 7.580636884085834026e-04 1.064744079485535622e-03
3.269000000000000000e+03 6.703363060951232910e-01 -1.121045231819152832e+00 -1.000361610203981400e-02 -1.516702957451343536e-02 -7.551193702965974808e-03 -1.387709192931652069e-02
3.270000000000000000e+03 9.509115219116210938e+00 -1.126014709472656250e+00 -7.725785374641418457e-01 7.431632280349731445e-02 -2.094786763191223145e-01 1.766029000282287598e-02
3.271000000000000000e+03 7.954967498779296875e+00 -1.118379235267639160e+00 -6.837794184684753418e-01 3.152298554778099060e-02 -1.956769227981567383e-01 -8.599644154310226440e-02
3.272000000000000000e+03 7.175180912017822266e+00 -1.117205142974853516e+00 -6.261510848999023438e-01 2.356345765292644501e-02 -1.807762831449508667e-01 -1.190389320254325867e-01
3.273000000000000000e+03 6.395063877105712891e+00 -1.116320967674255371e+00 -5.500330924987792969e-01 1.475162338465452194e-02 -1.605844348669052124e-01 -1.443492025136947632e-01
3.274000000000000000e+03 5.609138011932373047e+00 -1.115255355834960938e+00 -4.665864109992980957e-01 8.113134652376174927e-03 -1.375419795513153076e-01 -1.555950194597244263e-01
3.275000000000000000e+03 4.788054466247558594e+00 -1.120367169380187988e+00 -3.665569126605987549e-01 -2.141582081094384193e-03 -1.106095463037490845e-01 -1.594280451536178589e-01
3.276000000000000000e+03 4.061712265014648438e+00 -1.217836499214172363e+00 -2.790849506855010986e-01 -1.509275566786527634e-02 -8.825331181287765503e-02 -1.590394079685211182e-01
3.277000000000000000e+03 3.415162801742553711e+00 -1.287765026092529297e+00 -2.028972804546356201e-01 -2.513435482978820801e-02 -6.840948760509490967e-02 -1.640043109655380249e-01
3.278000000000000000e+03 2.701009988784790039e+00 -1.257357716560363770e+00 -1.489195525646209717e-01 -3.989905491471290588e-02 -5.664558336138725281e-02 -1.355152428150177002e-01
3.279000000000000000e+03 1.974916696548461914e+00 -1.234486579895019531e+00 -8.054633438587188721e-02 -4.332767426967620850e-02 -3.716220334172248840e-02 -8.857414126396179199e-02
3.280000000000000000e+03 7.112113475799560547e+00 -3.772051930427551270e-01 -7.527487874031066895e-01 3.909989260137081146e-03 -2.246516346931457520e-01 -4.488180950284004211e-02
3.281000000000000000e+03 2.813032150268554688e+00 -7.646003365516662598e-01 -1.487402319908142090e-01 -1.399105507880449295e-02 -4.881938546895980835e-02 -8.361832797527313232e-02
3.282000000000000000e+03 2.897913694381713867e+00 -2.672426402568817139e-01 -1.291092932224273682e-01 -5.475968588143587112e-03 -4.037557914853096008e-02 -2.839137613773345947e-02
3.283000000000000000e+03 1.625427722930908203e+00 -5.587234497070312500e-01 -3.248139843344688416e-02 -7.056753151118755341e-03 -1.186144538223743439e-02 -2.097871899604797363e-02
3.284000000000000000e+03 1.293549656867980957e+00 -1.184639215469360352e+00 -3.537574410438537598e-02 -3.710551559925079346e-02 -2.174437791109085083e-02 -4.500347748398780823e-02
3.285000000000000000e+03 2.151047229766845703e+00 -2.510510981082916260e-01 -5.033156648278236389e-02 -1.503521110862493515e-03 -1.555052679032087326e-02 -1.622452400624752045e-02
3.286000000000000000e+03 2.177219772338867188e+01 -1.596559643745422363e+00 1.867920875549316406e+01 4.216325283050537109e+00 6.868660449981689453e+00 8.144007682800292969e+00
3.287000000000000000e+03 2.177554130554199219e+01 -1.615739226341247559e+00 1.749829292297363281e+01 1.304086685180664062e+01 9.161747932434082031e+00 1.649535369873046875e+01
3.288000000000000000e+03 2.178255271911621094e+01 -1.633901000022888184e+00 1.680005645751953125e+01 2.214675521850585938e+01 1.168404293060302734e+01 1.911922073364257812e+01
3.289000000000000000e+03 2.179296684265136719e+01 -1.650350332260131836e+00 1.487668991088867188e+01 3.173894119262695312e+01 1.398468971252441406e+01 1.994435310363769531e+01
3.290000000000000000e+03 2.180638313293457031e+01 -1.664457440376281738e+00 1.324213600158691406e+01 4.079015350341796875e+01 1.620968627929687500e+01 1.856892776489257812e+01
3.291000000000000000e+03 2.182229042053222656e+01 -1.675682544708251953e+00 1.147941684722900391e+01 4.897064590454101562e+01 1.813501930236816406e+01 1.527539443969726562e+01
3.292000000000000000e+03 2.184007644653320312e+01 -1.683596253395080566e+00 1.066347122192382812e+01 5.514913177490234375e+01 1.974378204345703125e+01 1.050238418579101562e+01
3.293000000000000000e+03 2.185906410217285156e+01 -1.687895536422729492e+00 1.110471725463867188e+01 5.905068588256835938e+01 2.104662132263183594e+01 4.599631309509277344e+00
3.294000000000000000e+03 2.187852668762207031e+01 -1.688415884971618652e+00 1.303723526000976562e+01 6.020697021484375000e+01 2.197326087951660156e+01 -1.292105078697204590e+00
3.295000000000000000e+03 2.189771652221679688e+01 -1.685137510299682617e+00 1.654713821411132812e+01 5.888273239135742188e+01 2.262896156311035156e+01 -6.657983303070068359e+00
3.296000000000000000e+03 2.191590118408203125e+01 -1.678185701370239258e+00 2.098817253112792969e+01 5.568926620483398438e+01 2.300323104858398438e+01 -1.049174404144287109e+01
3.297000000000000000e+03 2.193238449096679688e+01 -1.667826652526855469e+00 2.594075393676757812e+01 5.119631958007812500e+01 2.314112281799316406e+01 -1.264212322235107422e+01
3.298000000000000000e+03 2.194653701782226562e+01 -1.654456615447998047e+00 3.074188232421875000e+01 4.672421646118164062e+01 2.323982810974121094e+01 -1.283477878570556641e+01
3.299000000000000000e+03 2.195781517028808594e+01 -1.638587355613708496e+00 3.468351364135742188e+01 4.231414031982421875e+01 2.309929656982421875e+01 -1.148397254943847656e+01
3.300000000000000000e+03 2.196578788757324219e+01 -1.620826244354248047e+00 3.774725723266601562e+01 3.953967666625976562e+01 2.318608093261718750e+01 -8.821927070617675781e+00
3.301000000000000000e+03 2.197014999389648438e+01 -1.601852774620056152e+00 3.919707107543945312e+01 3.736740112304687500e+01 2.296934318542480469e+01 -5.448723316192626953e+00
3.302000000000000000e+03 2.197073364257812500e+01 -1.582393050193786621e+00 3.965817642211914062e+01 3.769103622436523438e+01 2.320476341247558594e+01 -1.893912434577941895e+00
3.303000000000000000e+03 2.196751976013183594e+01 -1.563192009925842285e+00 3.835094451904296875e+01 3.876071166992187500e+01 2.313349533081054688e+01 1.742945194244384766e+00
3.304000000000000000e+03 2.196062850952148438e+01 -1.544984102249145508e+00 3.620706939697265625e+01 4.158290863037109375e+01 2.333699417114257812e+01 4.368196964263916016e+00
3.305000000000000000e+03 2.195032310485839844e+01 -1.528466343879699707e+00 3.274358367919921875e+01 4.574655151367187500e+01 2.354703903198242188e+01 6.097755432128906250e+00
3.306000000000000000e+03 2.193700027465820312e+01 -1.514270663261413574e+00 2.861950874328613281e+01 5.006891632080078125e+01 2.360652732849121094e+01 6.345897674560546875e+00
3.307000000000000000e+03 2.192116737365722656e+01 -1.502940416336059570e+00 2.450297355651855469e+01 5.491616439819335938e+01 2.382574081420898438e+01 4.694075107574462891e+00
3.308000000000000000e+03 2.190343475341796875e+01 -1.494909167289733887e+00 2.049879646301269531e+01 5.861564254760742188e+01 2.373433113098144531e+01 1.447702407836914062e+00
3.309000000000000000e+03 2.188447380065917969e+01 -1.490484237670898438e+00 1.780436515808105469e+01 6.102001571655273438e+01 2.364731407165527344e+01 -3.452700614929199219e+00
3.310000000000000000e+03 2.186501693725585938e+01 -1.489834904670715332e+00 1.649064636230468750e+01 6.112121582031250000e+01 2.328355789184570312e+01 -9.192440986633300781e+00
3.311000000000000000e+03 2.184580612182617188e+01 -1.492986083030700684e+00 1.704953002929687500e+01 5.863749694824218750e+01 2.270610809326171875e+01 -1.525993442535400391e+01
3.312000000000000000e+03 2.182757377624511719e+01 -1.499817252159118652e+00 1.926002120971679688e+01 5.360656738281250000e+01 2.185997581481933594e+01 -2.048508453369140625e+01
3.313000000000000000e+03 2.181102371215820312e+01 -1.510066866874694824e+00 2.305691719055175781e+01 4.606778335571289062e+01 2.073740959167480469e+01 -2.434563255310058594e+01
3.314000000000000000e+03 2.179678344726562500e+01 -1.523342728614807129e+00 2.722077178955078125e+01 3.702059555053710938e+01 1.927240943908691406e+01 -2.599818229675292969e+01
3.315000000000000000e+03 2.178540039062500000e+01 -1.539136767387390137e+00 3.192197418212890625e+01 2.665393447875976562e+01 1.757277297973632812e+01 -2.496061897277832031e+01
3.316000000000000000e+03 2.177731132507324219e+01 -1.556844711303710938e+00 3.521463394165039062e+01 1.657169914245605469e+01 1.553590011596679688e+01 -2.135320854187011719e+01
3.317000000000000000e+03 2.177282333374023438e+01 -1.575788736343383789e+00 3.848190689086914062e+01 5.685945034027099609e+00 1.325035572052001953e+01 -1.177575492858886719e+01
