# el_label, x, y, sXX, sYY, sZZ, sXY
1.000000000000000000e+00 4.652466583251953125e+01 1.781184434890747070e+00 -9.170988082885742188e+00 -2.320281744003295898e+00 -3.447381019592285156e+00 -2.841701745986938477e+00
2.000000000000000000e+00 4.632564163208007812e+01 1.783832430839538574e+00 -1.865109682083129883e+00 9.852036237716674805e-01 -2.639718353748321533e-01 9.081963300704956055e-01
3.000000000000000000e+00 4.612662124633789062e+01 1.786480426788330078e+00 -2.625818490982055664e+00 -5.097906589508056641e-01 -9.406827092170715332e-01 -2.532415464520454407e-02
4.000000000000000000e+00 4.592759704589843750e+01 1.789128422737121582e+00 -2.281770944595336914e+00 2.856496274471282959e-01 -5.988364219665527344e-01 2.294919788837432861e-01
5.000000000000000000e+00 4.652960586547851562e+01 1.722989082336425781e+00 9.203272819519042969e+00 -2.804171800613403320e+00 1.919730424880981445e+00 -1.482685059309005737e-01
6.000000000000000000e+00 4.633387374877929688e+01 1.686840176582336426e+00 2.395745038986206055e+00 -1.798381656408309937e-01 6.647720336914062500e-01 3.824585676193237305e-01
7.000000000000000000e+00 4.613814163208007812e+01 1.650691270828247070e+00 3.131208181381225586e+00 6.048531532287597656e-01 1.120818376541137695e+00 1.414208531379699707e+00
8.000000000000000000e+00 4.594241333007812500e+01 1.614542484283447266e+00 1.930918097496032715e+00 -9.078415483236312866e-02 5.520401597023010254e-01 5.719679594039916992e-01
9.000000000000000000e+00 4.654578018188476562e+01 1.666868686676025391e+00 1.676860809326171875e+01 4.742414057254791260e-01 5.172854900360107422e+00 7.022086143493652344e+00
1.000000000000000000e+01 4.636083221435546875e+01 1.593306303024291992e+00 9.834202766418457031e+00 6.184746026992797852e-01 3.135803222656250000e+00 3.689985990524291992e+00
1.100000000000000000e+01 4.617588424682617188e+01 1.519743800163269043e+00 6.531879901885986328e+00 9.322498440742492676e-01 2.239238977432250977e+00 2.917543888092041016e+00
1.200000000000000000e+01 4.599093627929687500e+01 1.446181297302246094e+00 5.893152236938476562e+00 1.400619864463806152e+00 2.188131570816040039e+00 2.886653661727905273e+00
1.300000000000000000e+01 4.657257080078125000e+01 1.614970803260803223e+00 2.025284767150878906e+01 7.197574138641357422e+00 8.235126495361328125e+00 1.327458095550537109e+01
1.400000000000000000e+01 4.640547943115234375e+01 1.506809830665588379e+00 1.257027149200439453e+01 3.779689073562622070e+00 4.904988288879394531e+00 8.255767822265625000e+00
1.500000000000000000e+01 4.623839187622070312e+01 1.398648858070373535e+00 9.913205146789550781e+00 3.583044290542602539e+00 4.048874855041503906e+00 6.103254795074462891e+00
1.600000000000000000e+01 4.607130432128906250e+01 1.290487766265869141e+00 7.717527866363525391e+00 2.677147150039672852e+00 3.118402481079101562e+00 5.113382339477539062e+00
1.700000000000000000e+01 4.660895156860351562e+01 1.569281578063964844e+00 1.898870468139648438e+01 1.527156352996826172e+01 1.027807998657226562e+01 1.818369293212890625e+01
1.800000000000000000e+01 4.646611404418945312e+01 1.430660963058471680e+00 1.348403453826904297e+01 9.942945480346679688e+00 7.028093814849853516e+00 1.185589027404785156e+01
1.900000000000000000e+01 4.632328033447265625e+01 1.292040348052978516e+00 1.025336265563964844e+01 7.221349239349365234e+00 5.242413520812988281e+00 9.224105834960937500e+00
2.000000000000000000e+01 4.618044662475585938e+01 1.153419852256774902e+00 8.599711418151855469e+00 6.577004909515380859e+00 4.553014755249023438e+00 7.660733699798583984e+00
2.100000000000000000e+01 4.665353012084960938e+01 1.531549096107482910e+00 1.636122894287109375e+01 2.536910438537597656e+01 1.251910018920898438e+01 2.010542106628417969e+01
2.200000000000000000e+01 4.654041671752929688e+01 1.367773652076721191e+00 1.157269954681396484e+01 1.651817703247070312e+01 8.427262306213378906e+00 1.413151931762695312e+01
2.300000000000000000e+01 4.642729949951171875e+01 1.203998088836669922e+00 9.577295303344726562e+00 1.316602611541748047e+01 6.822996616363525391e+00 1.099138927459716797e+01
2.400000000000000000e+01 4.631418609619140625e+01 1.040222525596618652e+00 7.740924358367919922e+00 1.056262588500976562e+01 5.491065025329589844e+00 9.533314704895019531e+00
2.500000000000000000e+01 4.670460128784179688e+01 1.503217458724975586e+00 1.204493618011474609e+01 3.460448837280273438e+01 1.399482727050781250e+01 1.938713836669921875e+01
2.600000000000000000e+01 4.662553787231445312e+01 1.320554256439208984e+00 9.572805404663085938e+00 2.410306167602539062e+01 1.010276031494140625e+01 1.405505084991455078e+01
2.700000000000000000e+01 4.654647064208984375e+01 1.137890934944152832e+00 7.219118118286132812e+00 1.895363616943359375e+01 7.851826667785644531e+00 1.151113605499267578e+01
2.800000000000000000e+01 4.646740341186523438e+01 9.552277326583862305e-01 6.430282592773437500e+00 1.606828498840332031e+01 6.749570369720458984e+00 9.454646110534667969e+00
2.900000000000000000e+01 4.676021194458007812e+01 1.485370874404907227e+00 9.292007446289062500e+00 4.297835159301757812e+01 1.568110847473144531e+01 1.576765346527099609e+01
3.000000000000000000e+01 4.671822357177734375e+01 1.290809869766235352e+00 6.749813556671142578e+00 3.053937339782714844e+01 1.118675613403320312e+01 1.231101322174072266e+01
3.100000000000000000e+01 4.667623138427734375e+01 1.096248865127563477e+00 5.521745681762695312e+00 2.490321922302246094e+01 9.127489089965820312e+00 9.979136466979980469e+00
3.200000000000000000e+01 4.663423919677734375e+01 9.016878604888916016e-01 4.087199211120605469e+00 2.119686126708984375e+01 7.585218429565429688e+00 8.435776710510253906e+00
3.300000000000000000e+01 4.681823348999023438e+01 1.478692173957824707e+00 7.379992008209228516e+00 4.859692764282226562e+01 1.679307556152343750e+01 1.052075672149658203e+01
3.400000000000000000e+01 4.681492233276367188e+01 1.279678702354431152e+00 5.584151744842529297e+00 3.591096115112304688e+01 1.244853401184082031e+01 8.817699432373046875e+00
3.500000000000000000e+01 4.681161117553710938e+01 1.080665230751037598e+00 3.673600435256958008e+00 2.950374603271484375e+01 9.953204154968261719e+00 7.312570095062255859e+00
3.600000000000000000e+01 4.680830001831054688e+01 8.816517591476440430e-01 2.968382120132446289e+00 2.565401077270507812e+01 8.586717605590820312e+00 6.007030010223388672e+00
3.700000000000000000e+01 4.687644577026367188e+01 1.483436942100524902e+00 8.311260223388671875e+00 5.173300552368164062e+01 1.801327896118164062e+01 4.605054855346679688e+00
3.800000000000000000e+01 4.691194152832031250e+01 1.287586688995361328e+00 5.101683139801025391e+00 3.915674972534179688e+01 1.327753067016601562e+01 4.492934703826904297e+00
3.900000000000000000e+01 4.694744110107421875e+01 1.091736435890197754e+00 3.673127889633178711e+00 3.259141159057617188e+01 1.087936210632324219e+01 3.688655138015747070e+00
4.000000000000000000e+01 4.698293685913085938e+01 8.958861231803894043e-01 2.272453069686889648e+00 2.851963996887207031e+01 9.237627983093261719e+00 3.097250223159790039e+00
4.100000000000000000e+01 4.693262100219726562e+01 1.499423742294311523e+00 1.067159843444824219e+01 5.202691268920898438e+01 1.880955314636230469e+01 -8.107289075851440430e-01
4.200000000000000000e+01 4.700556564331054688e+01 1.314231276512145996e+00 6.729230403900146484e+00 4.054974746704101562e+01 1.418369388580322266e+01 6.800714135169982910e-02
4.300000000000000000e+01 4.707851409912109375e+01 1.129038810729980469e+00 4.500997066497802734e+00 3.378276443481445312e+01 1.148512840270996094e+01 -1.668318808078765869e-01
4.400000000000000000e+01 4.715145874023437500e+01 9.438462853431701660e-01 3.549752235412597656e+00 2.925987434387207031e+01 9.842887878417968750e+00 -1.304349154233932495e-01
4.500000000000000000e+01 4.698460769653320312e+01 1.526040554046630859e+00 1.505200767517089844e+01 5.056025695800781250e+01 1.968367958068847656e+01 -4.825491905212402344e+00
4.600000000000000000e+01 4.709221267700195312e+01 1.358592748641967773e+00 9.184666633605957031e+00 3.986643218994140625e+01 1.471533012390136719e+01 -3.725354433059692383e+00
4.700000000000000000e+01 4.719981384277343750e+01 1.191144824028015137e+00 7.021897315979003906e+00 3.349412536621093750e+01 1.215480709075927734e+01 -3.481924533843994141e+00
4.800000000000000000e+01 4.730741882324218750e+01 1.023696899414062500e+00 5.508914947509765625e+00 2.861105155944824219e+01 1.023598957061767578e+01 -3.540198087692260742e+00
4.900000000000000000e+01 4.703041839599609375e+01 1.562269091606140137e+00 1.932579803466796875e+01 4.764125061035156250e+01 2.009011459350585938e+01 -7.140999794006347656e+00
5.000000000000000000e+01 4.716856002807617188e+01 1.418973565101623535e+00 1.319797801971435547e+01 3.813841247558593750e+01 1.540091705322265625e+01 -6.144191265106201172e+00
5.100000000000000000e+01 4.730670547485351562e+01 1.275677919387817383e+00 9.775796890258789062e+00 3.170787048339843750e+01 1.244509983062744141e+01 -5.884548664093017578e+00
5.200000000000000000e+01 4.744484710693359375e+01 1.132382392883300781e+00 8.304923057556152344e+00 2.756673812866210938e+01 1.076149845123291016e+01 -5.861629486083984375e+00
5.300000000000000000e+01 4.706829833984375000e+01 1.606722831726074219e+00 2.438335990905761719e+01 4.489080429077148438e+01 2.078224945068359375e+01 -7.316389083862304688e+00
5.400000000000000000e+01 4.723169708251953125e+01 1.493063092231750488e+00 1.652412796020507812e+01 3.531028747558593750e+01 1.555032444000244141e+01 -7.209297180175781250e+00
5.500000000000000000e+01 4.739509582519531250e+01 1.379403352737426758e+00 1.348918914794921875e+01 2.973740959167480469e+01 1.296797943115234375e+01 -6.701526165008544922e+00
5.600000000000000000e+01 4.755849075317382812e+01 1.265743613243103027e+00 1.063719177246093750e+01 2.565275192260742188e+01 1.088698291778564453e+01 -6.770480632781982422e+00
5.700000000000000000e+01 4.709679794311523438e+01 1.657700657844543457e+00 2.755236434936523438e+01 4.160852813720703125e+01 2.074826812744140625e+01 -6.356112480163574219e+00
5.800000000000000000e+01 4.727919769287109375e+01 1.578026294708251953e+00 2.031244659423828125e+01 3.343847656250000000e+01 1.612527656555175781e+01 -6.121510982513427734e+00
5.900000000000000000e+01 4.746159744262695312e+01 1.498351693153381348e+00 1.573548507690429688e+01 2.719099235534667969e+01 1.287794303894042969e+01 -6.614815711975097656e+00
6.000000000000000000e+01 4.764399719238281250e+01 1.418677330017089844e+00 1.372189712524414062e+01 2.377889442443847656e+01 1.125023746490478516e+01 -5.851890087127685547e+00
6.100000000000000000e+01 4.711483383178710938e+01 1.713251948356628418e+00 3.048834800720214844e+01 4.065486907958984375e+01 2.134296417236328125e+01 -3.656682729721069336e+00
6.200000000000000000e+01 4.730925369262695312e+01 1.670611739158630371e+00 2.210235595703125000e+01 3.086604118347167969e+01 1.589051914215087891e+01 -4.267306804656982422e+00
6.300000000000000000e+01 4.750367355346679688e+01 1.627971291542053223e+00 1.755632591247558594e+01 2.677538490295410156e+01 1.329951286315917969e+01 -4.453589439392089844e+00
6.400000000000000000e+01 4.769809341430664062e+01 1.585331082344055176e+00 1.494689178466796875e+01 2.132334709167480469e+01 1.088107204437255859e+01 -5.288520336151123047e+00
6.500000000000000000e+01 4.712170410156250000e+01 1.771250724792480469e+00 3.083186721801757812e+01 3.876334381103515625e+01 2.087856292724609375e+01 -7.133486866950988770e-01
6.600000000000000000e+01 4.732070541381835938e+01 1.767276287078857422e+00 2.314790725708007812e+01 3.155148315429687500e+01 1.640981674194335938e+01 -1.159032344818115234e+00
6.700000000000000000e+01 4.751970672607421875e+01 1.763301849365234375e+00 1.768338775634765625e+01 2.532190704345703125e+01 1.290158843994140625e+01 -1.864902853965759277e+00
6.800000000000000000e+01 4.771870803833007812e+01 1.759327411651611328e+00 1.400676441192626953e+01 2.278623962402343750e+01 1.103790092468261719e+01 -3.017509222030639648e+00
6.900000000000000000e+01 4.711715316772460938e+01 1.829477667808532715e+00 3.050766563415527344e+01 4.082190704345703125e+01 2.139887237548828125e+01 2.503544569015502930e+00
7.000000000000000000e+01 4.731312179565429688e+01 1.864321231842041016e+00 2.172164344787597656e+01 3.094602584838867188e+01 1.580030155181884766e+01 1.958629488945007324e+00
7.100000000000000000e+01 4.750908660888671875e+01 1.899164676666259766e+00 1.695444297790527344e+01 2.763236999511718750e+01 1.337604331970214844e+01 9.493151903152465820e-01
7.200000000000000000e+01 4.770505523681640625e+01 1.934008240699768066e+00 1.236489772796630859e+01 2.280455589294433594e+01 1.055083560943603516e+01 4.952718317508697510e-01
7.300000000000000000e+01 4.710135269165039062e+01 1.885704636573791504e+00 2.736344718933105469e+01 4.138357543945312500e+01 2.062410545349121094e+01 5.560185909271240234e+00
7.400000000000000000e+01 4.728678894042968750e+01 1.958032727241516113e+00 1.963823509216308594e+01 3.430044174194335938e+01 1.618160247802734375e+01 4.155371189117431641e+00
7.500000000000000000e+01 4.747222137451171875e+01 2.030360937118530273e+00 1.423035621643066406e+01 2.820727348327636719e+01 1.273128890991210938e+01 3.602050065994262695e+00
7.600000000000000000e+01 4.765765762329101562e+01 2.102689027786254883e+00 1.179289054870605469e+01 2.592977333068847656e+01 1.131679916381835938e+01 2.772070169448852539e+00
7.700000000000000000e+01 4.707490921020507812e+01 1.937779784202575684e+00 2.399312210083007812e+01 4.525506210327148438e+01 2.077445602416992188e+01 6.987978458404541016e+00
7.800000000000000000e+01 4.724271392822265625e+01 2.044824838638305664e+00 1.532598495483398438e+01 3.617725753784179688e+01 1.545097255706787109e+01 5.755659103393554688e+00
7.900000000000000000e+01 4.741052246093750000e+01 2.151869773864746094e+00 1.160103988647460938e+01 3.163504409790039062e+01 1.297082519531250000e+01 4.481964111328125000e+00
8.000000000000000000e+01 4.757832717895507812e+01 2.258914709091186523e+00 8.845949172973632812e+00 2.735311889648437500e+01 1.085972023010253906e+01 3.737065553665161133e+00
8.100000000000000000e+01 4.703883361816406250e+01 1.983710646629333496e+00 1.849967956542968750e+01 4.820745849609375000e+01 2.001214218139648438e+01 7.314077377319335938e+00
8.200000000000000000e+01 4.718259048461914062e+01 2.121376037597656250e+00 1.144941806793212891e+01 3.962858200073242188e+01 1.532339954376220703e+01 5.319664955139160156e+00
8.300000000000000000e+01 4.732634735107421875e+01 2.259041547775268555e+00 7.606355667114257812e+00 3.378116989135742188e+01 1.241625785827636719e+01 4.256584167480468750e+00
8.400000000000000000e+01 4.747010040283203125e+01 2.396707057952880859e+00 5.352330684661865234e+00 3.048089981079101562e+01 1.074996948242187500e+01 3.187946081161499023e+00
8.500000000000000000e+01 4.699450683593750000e+01 2.021739244461059570e+00 1.338451290130615234e+01 5.180188751220703125e+01 1.955591964721679688e+01 5.429688453674316406e+00
8.600000000000000000e+01 4.710871124267578125e+01 2.184757232666015625e+00 7.156464576721191406e+00 4.156580352783203125e+01 1.461668109893798828e+01 3.379623413085937500e+00
8.700000000000000000e+01 4.722291564941406250e+01 2.347775220870971680e+00 4.087633609771728516e+00 3.618782424926757812e+01 1.208263683319091797e+01 2.540667057037353516e+00
8.800000000000000000e+01 4.733712005615234375e+01 2.510793209075927734e+00 2.034550189971923828e+00 3.234882354736328125e+01 1.031501197814941406e+01 1.889693617820739746e+00
8.900000000000000000e+01 4.694362258911132812e+01 2.050410747528076172e+00 8.645272254943847656e+00 5.375498199462890625e+01 1.872007560729980469e+01 1.768426179885864258e+00
9.000000000000000000e+01 4.702390670776367188e+01 2.232542991638183594e+00 3.726056337356567383e+00 4.282156372070312500e+01 1.396428585052490234e+01 -1.261215656995773315e-01
9.100000000000000000e+01 4.710419082641601562e+01 2.414675235748291016e+00 1.562937617301940918e+00 3.642929840087890625e+01 1.139767074584960938e+01 -2.616621851921081543e-01
9.200000000000000000e+01 4.718447113037109375e+01 2.596807241439819336e+00 -3.580980896949768066e-01 3.337832641601562500e+01 9.906068801879882812e+00 -1.337415874004364014e-01
9.300000000000000000e+01 4.688813400268554688e+01 2.068627595901489258e+00 5.058631896972656250e+00 5.389755630493164062e+01 1.768685722351074219e+01 -3.617743015289306641e+00
9.400000000000000000e+01 4.693142318725585938e+01 2.262904405593872070e+00 2.005703926086425781e+00 4.178978347778320312e+01 1.313864612579345703e+01 -4.246494770050048828e+00
9.500000000000000000e+01 4.697471237182617188e+01 2.457181215286254883e+00 -1.942700743675231934e-01 3.557498931884765625e+01 1.061421585083007812e+01 -4.027723789215087891e+00
9.600000000000000000e+01 4.701799774169921875e+01 2.651458024978637695e+00 -6.260840296745300293e-01 3.110873222351074219e+01 9.144794464111328125e+00 -2.972193479537963867e+00
9.700000000000000000e+01 4.683015823364257812e+01 2.075692892074584961e+00 4.326774597167968750e+00 5.145866775512695312e+01 1.673563194274902344e+01 -9.472014427185058594e+00
9.800000000000000000e+01 4.683479690551757812e+01 2.274679899215698242e+00 1.038870096206665039e+00 3.854748153686523438e+01 1.187590599060058594e+01 -8.768397331237792969e+00
9.900000000000000000e+01 4.683943557739257812e+01 2.473666906356811523e+00 3.893249332904815674e-01 3.250284194946289062e+01 9.867650985717773438e+00 -7.321282386779785156e+00
1.000000000000000000e+02 4.684407043457031250e+01 2.672653913497924805e+00 -1.081768274307250977e+00 2.840120697021484375e+01 8.195831298828125000e+00 -6.815551280975341797e+00
1.010000000000000000e+02 4.677191925048828125e+01 2.071336269378662109e+00 4.416594982147216797e+00 4.555328750610351562e+01 1.499096393585205078e+01 -1.526098537445068359e+01
1.020000000000000000e+02 4.673772811889648438e+01 2.267418622970581055e+00 3.010380983352661133e+00 3.351376724243164062e+01 1.095724487304687500e+01 -1.204071903228759766e+01
1.030000000000000000e+02 4.670353698730468750e+01 2.463501214981079102e+00 7.047450542449951172e-01 2.737503623962402344e+01 8.423933982849121094e+00 -1.053342914581298828e+01
1.040000000000000000e+02 4.666934585571289062e+01 2.659583806991577148e+00 8.278222680091857910e-01 2.474190711975097656e+01 7.670918941497802734e+00 -8.459747314453125000e+00
1.050000000000000000e+02 4.671563720703125000e+01 2.055724382400512695e+00 7.943968296051025391e+00 3.783115005493164062e+01 1.373253536224365234e+01 -1.877262496948242188e+01
1.060000000000000000e+02 4.664392852783203125e+01 2.241398811340332031e+00 4.430552959442138672e+00 2.600810241699218750e+01 9.131596565246582031e+00 -1.450203132629394531e+01
1.070000000000000000e+02 4.657221984863281250e+01 2.427073478698730469e+00 3.239242792129516602e+00 2.182823371887207031e+01 7.520242691040039062e+00 -1.140869426727294922e+01
1.080000000000000000e+02 4.650051116943359375e+01 2.612748146057128906e+00 1.990448951721191406e+00 1.815085220336914062e+01 6.042390346527099609e+00 -9.908454895019531250e+00
1.090000000000000000e+02 4.666347503662109375e+01 2.029454469680786133e+00 1.113660240173339844e+01 2.713682937622070312e+01 1.148202896118164062e+01 -2.034108924865722656e+01
1.100000000000000000e+02 4.655699157714843750e+01 2.197616100311279297e+00 7.168573856353759766e+00 1.871040153503417969e+01 7.763692855834960938e+00 -1.413830375671386719e+01
1.110000000000000000e+02 4.645050430297851562e+01 2.365777492523193359e+00 4.768084526062011719e+00 1.447827053070068359e+01 5.773906707763671875e+00 -1.122422313690185547e+01
1.120000000000000000e+02 4.634402084350585938e+01 2.533938884735107422e+00 3.585200548171997070e+00 1.298717498779296875e+01 4.971712589263916016e+00 -9.371164321899414062e+00
1.130000000000000000e+02 4.661742401123046875e+01 1.993532299995422363e+00 1.442072486877441406e+01 1.686942291259765625e+01 9.387043952941894531e+00 -1.826797294616699219e+01
1.140000000000000000e+02 4.648023986816406250e+01 2.137745618820190430e+00 8.391757965087890625e+00 1.047850608825683594e+01 5.661079406738281250e+00 -1.182559871673583984e+01
1.150000000000000000e+02 4.634305191040039062e+01 2.281958818435668945e+00 5.706053733825683594e+00 8.899344444274902344e+00 4.381619453430175781e+00 -9.095944404602050781e+00
1.160000000000000000e+02 4.620586776733398438e+01 2.426172018051147461e+00 4.018014907836914062e+00 7.263888359069824219e+00 3.384571075439453125e+00 -7.430673122406005859e+00
1.170000000000000000e+02 4.657924652099609375e+01 1.949331998825073242e+00 1.495652770996093750e+01 6.765397071838378906e+00 6.516577720642089844e+00 -1.310194778442382812e+01
1.180000000000000000e+02 4.641661071777343750e+01 2.064078569412231445e+00 7.837635993957519531e+00 4.364548683166503906e+00 3.660655260086059570e+00 -7.691277980804443359e+00
1.190000000000000000e+02 4.625397491455078125e+01 2.178824901580810547e+00 4.474315643310546875e+00 4.154419422149658203e+00 2.588620424270629883e+00 -5.463650226593017578e+00
1.200000000000000000e+02 4.609133911132812500e+01 2.293571233749389648e+00 3.009047508239746094e+00 3.778989076614379883e+00 2.036411046981811523e+00 -5.152319431304931641e+00
1.210000000000000000e+02 4.655040740966796875e+01 1.898545384407043457e+00 1.168577671051025391e+01 -1.399157881736755371e+00 3.085985660552978516e+00 -5.271661281585693359e+00
1.220000000000000000e+02 4.636854553222656250e+01 1.979433894157409668e+00 2.948306083679199219e+00 1.350947260856628418e+00 1.289775967597961426e+00 -2.409825563430786133e+00
1.230000000000000000e+02 4.618667984008789062e+01 2.060322523117065430e+00 1.890150666236877441e+00 1.825221419334411621e+00 1.114611625671386719e+00 -3.076026678085327148e+00
1.240000000000000000e+02 4.600481796264648438e+01 2.141211271286010742e+00 6.115000844001770020e-01 8.763077855110168457e-01 4.463423490524291992e-01 -1.807079672813415527e+00
1.250000000000000000e+02 4.653200531005859375e+01 1.843115448951721191e+00 -3.197044849395751953e+00 -3.667356014251708984e+00 -2.059320211410522461e+00 2.668132066726684570e+00
1.260000000000000000e+02 4.633787536621093750e+01 1.887050986289978027e+00 -1.117147803306579590e+00 1.506327986717224121e+00 1.167540326714515686e-01 -8.480443954467773438e-01
1.270000000000000000e+02 4.614374160766601562e+01 1.930986404418945312e+00 -2.959033250808715820e+00 -5.006262660026550293e-01 -1.037897825241088867e+00 2.256704866886138916e-01
1.280000000000000000e+02 4.594961166381835938e+01 1.974921822547912598e+00 -3.731635808944702148e+00 2.477077841758728027e-01 -1.045178413391113281e+00 1.580321639776229858e-01
1.290000000000000000e+02 4.343783187866210938e+01 1.411676049232482910e+00 -7.624220848083496094e-02 7.500255852937698364e-02 -3.718954685609787703e-04 -1.726555079221725464e-01
1.300000000000000000e+02 4.351117324829101562e+01 1.024032354354858398e+00 6.258611679077148438e-01 2.059755325317382812e-01 2.495510131120681763e-01 -6.974684447050094604e-02
1.310000000000000000e+02 4.364037322998046875e+01 1.387317895889282227e+00 5.427613109350204468e-02 1.847644895315170288e-01 7.171218097209930420e-02 -2.300714552402496338e-01
1.320000000000000000e+02 4.215766143798828125e+01 1.128460288047790527e+00 -5.357839539647102356e-02 -1.798531264066696167e-01 -7.002945989370346069e-02 -3.460367023944854736e-01
1.330000000000000000e+02 4.266177749633789062e+01 9.949718713760375977e-01 2.550265789031982422e-01 1.160212457180023193e-01 1.113143488764762878e-01 -2.095298022031784058e-01
1.340000000000000000e+02 4.360868835449218750e+01 1.565831184387207031e+00 -3.583336770534515381e-01 1.563651859760284424e-01 -6.059055402874946594e-02 -1.617331951856613159e-01
1.350000000000000000e+02 4.309099197387695312e+01 1.442241907119750977e+00 -8.910579234361648560e-02 1.607465744018554688e-01 2.149223536252975464e-02 -2.784247994422912598e-01
1.360000000000000000e+02 4.242868423461914062e+01 1.973497152328491211e+00 -2.563028037548065186e-01 4.270214587450027466e-02 -6.408020108938217163e-02 -1.540350466966629028e-01
1.370000000000000000e+02 4.181941604614257812e+01 1.449129462242126465e+00 -6.215996667742729187e-02 -3.911184668540954590e-01 -1.359835267066955566e-01 -1.746943444013595581e-01
1.380000000000000000e+02 4.308506774902343750e+01 1.863472223281860352e+00 -6.636303663253784180e-01 -3.029681742191314697e-03 -1.999980062246322632e-01 -1.289958059787750244e-01
1.390000000000000000e+02 4.313077163696289062e+01 1.035625696182250977e+00 3.011074960231781006e-01 2.190374583005905151e-01 1.560434848070144653e-01 -1.506010442972183228e-01
1.400000000000000000e+02 4.357756423950195312e+01 1.222060084342956543e+00 3.156420290470123291e-01 1.140333935618400574e-01 1.289026290178298950e-01 -9.292826801538467407e-02
1.410000000000000000e+02 4.341091156005859375e+01 7.953562736511230469e-01 7.313451170921325684e-01 3.105186223983764648e-01 3.125591278076171875e-01 1.422057449817657471e-01
1.420000000000000000e+02 4.258023834228515625e+01 1.424885749816894531e+00 -2.231703251600265503e-01 -2.893638424575328827e-02 -7.563201338052749634e-02 -3.354663848876953125e-01
1.430000000000000000e+02 4.357227706909179688e+01 1.777608036994934082e+00 -7.202933430671691895e-01 2.323837429285049438e-01 -1.463728845119476318e-01 -1.998235136270523071e-01
1.440000000000000000e+02 4.346234893798828125e+01 2.037714958190917969e+00 -1.115151882171630859e+00 8.362067490816116333e-02 -3.094593584537506104e-01 9.948268532752990723e-03
1.450000000000000000e+02 4.611291122436523438e+01 2.608692646026611328e+00 3.294955492019653320e+00 8.450678825378417969e+00 3.523690223693847656e+00 -7.175313472747802734e+00
1.460000000000000000e+02 4.663868331909179688e+01 2.857709884643554688e+00 5.112677067518234253e-02 2.042700576782226562e+01 6.143439769744873047e+00 -8.027585029602050781e+00
1.470000000000000000e+02 4.736234664916992188e+01 2.994307279586791992e+00 -1.770337581634521484e+00 2.854907798767089844e+01 8.033621788024902344e+00 2.978387475013732910e-01
1.480000000000000000e+02 4.781350708007812500e+01 1.385465502738952637e+00 1.241169643402099609e+01 2.003281593322753906e+01 9.733353614807128906e+00 -6.097971916198730469e+00
1.490000000000000000e+02 4.752915954589843750e+01 9.160664081573486328e-01 6.548589706420898438e+00 2.520411491394042969e+01 9.525811195373535156e+00 -5.263607025146484375e+00
1.500000000000000000e+02 4.750683212280273438e+01 7.985991239547729492e-01 4.783770084381103516e+00 2.426759338378906250e+01 8.715409278869628906e+00 -4.446961879730224609e+00
1.510000000000000000e+02 4.551594161987304688e+01 1.798137903213500977e+00 -2.082743167877197266e+00 6.308478862047195435e-02 -6.058975458145141602e-01 2.148107290267944336e-01
1.520000000000000000e+02 4.510159301757812500e+01 1.834626913070678711e+00 -2.045608758926391602e+00 4.847046360373497009e-02 -5.991414785385131836e-01 2.111715823411941528e-01
1.530000000000000000e+02 4.395673370361328125e+01 2.242295742034912109e+00 -3.654643297195434570e+00 -5.569112896919250488e-01 -1.263466358184814453e+00 3.665033876895904541e-01
1.540000000000000000e+02 4.404230117797851562e+01 2.856576204299926758e+00 -5.645059943199157715e-01 -3.571160370483994484e-03 -1.704231500625610352e-01 9.350809454917907715e-01
1.550000000000000000e+02 4.415816116333007812e+01 2.423561811447143555e+00 -2.744852542877197266e+00 -3.496605157852172852e-01 -9.283539056777954102e-01 6.943800449371337891e-01
1.560000000000000000e+02 4.535582351684570312e+01 2.111141204833984375e+00 -4.408284664154052734e+00 4.218947142362594604e-02 -1.309828639030456543e+00 5.713424682617187500e-01
1.570000000000000000e+02 4.515417861938476562e+01 2.140903949737548828e+00 -4.446605682373046875e+00 -1.373868137598037720e-01 -1.375197768211364746e+00 5.917236208915710449e-01
1.580000000000000000e+02 4.561416625976562500e+01 2.369711875915527344e+00 -3.625711798667907715e-02 1.341112971305847168e+00 3.914567530155181885e-01 -1.488469600677490234e+00
1.590000000000000000e+02 4.575281143188476562e+01 2.027603626251220703e+00 -4.156101703643798828e+00 2.617853134870529175e-02 -1.238976955413818359e+00 4.797284305095672607e-01
1.600000000000000000e+02 4.785741806030273438e+01 1.785687923431396484e+00 1.102980327606201172e+01 1.717749023437500000e+01 8.462187767028808594e+00 -3.991958379745483398e+00
1.610000000000000000e+02 4.644386672973632812e+01 2.773819923400878906e+00 1.343222022056579590e+00 1.810380935668945312e+01 5.834109783172607422e+00 -9.039423942565917969e+00
1.620000000000000000e+02 4.581786346435546875e+01 2.264708995819091797e+00 3.141737580299377441e-01 1.329135417938232422e+00 4.929927289485931396e-01 -2.037331342697143555e+00
1.630000000000000000e+02 4.572423553466796875e+01 1.791417837142944336e+00 -2.176331043243408203e+00 -1.992586702108383179e-01 -7.126768827438354492e-01 1.091035678982734680e-01
1.640000000000000000e+02 4.530737686157226562e+01 1.813222527503967285e+00 -2.070201396942138672e+00 -8.866223692893981934e-02 -6.476590633392333984e-01 1.819028407335281372e-01
1.650000000000000000e+02 4.572879028320312500e+01 1.576213836669921875e+00 1.602871894836425781e+00 1.728456765413284302e-01 5.327152609825134277e-01 7.103732228279113770e-01
1.660000000000000000e+02 4.640690994262695312e+01 4.194748997688293457e-01 3.309841394424438477e+00 1.442806720733642578e+01 5.321372509002685547e+00 7.094305038452148438e+00
1.670000000000000000e+02 4.619390487670898438e+01 8.822468519210815430e-01 6.837859153747558594e+00 9.688720703125000000e+00 4.957973957061767578e+00 8.094371795654296875e+00
1.680000000000000000e+02 4.678733444213867188e+01 7.136253118515014648e-01 2.110404014587402344e+00 2.309331321716308594e+01 7.561115264892578125e+00 5.366788864135742188e+00
1.690000000000000000e+02 4.741454696655273438e+01 8.328912258148193359e-01 4.832150459289550781e+00 2.430788230895996094e+01 8.742010116577148438e+00 -4.011028766632080078e+00
1.700000000000000000e+02 4.778681182861328125e+01 1.166520237922668457e+00 8.712842941284179688e+00 2.208238792419433594e+01 9.238569259643554688e+00 -5.927753925323486328e+00
1.710000000000000000e+02 4.490240859985351562e+01 1.862907052040100098e+00 -2.032272815704345703e+00 -8.754990249872207642e-02 -6.359468102455139160e-01 1.764143556356430054e-01
1.720000000000000000e+02 4.451998138427734375e+01 1.929055690765380859e+00 -1.929485797882080078e+00 -4.464033618569374084e-02 -5.922378301620483398e-01 1.223042532801628113e-01
1.730000000000000000e+02 4.412803649902343750e+01 1.971344470977783203e+00 -1.727699875831604004e+00 3.712842613458633423e-02 -5.071714520454406738e-01 1.101733371615409851e-01
1.740000000000000000e+02 4.392840194702148438e+01 1.993814706802368164e+00 -1.684826612472534180e+00 -1.993259638547897339e-01 -5.652457475662231445e-01 2.076837718486785889e-01
1.750000000000000000e+02 4.376906967163085938e+01 7.364887595176696777e-01 1.363173961639404297e+00 6.188294887542724609e-01 5.946010351181030273e-01 5.024930238723754883e-01
1.760000000000000000e+02 4.396922683715820312e+01 7.163258790969848633e-01 1.525791406631469727e+00 5.324678421020507812e-01 6.174777746200561523e-01 6.394040584564208984e-01
1.770000000000000000e+02 4.408642578125000000e+01 1.547574996948242188e+00 -2.456454485654830933e-01 8.927314542233943939e-03 -7.101543992757797241e-02 -1.187446936964988708e-01
1.780000000000000000e+02 4.650609970092773438e+01 5.923073887825012207e-01 3.808053493499755859e+00 1.521429252624511719e+01 5.706703662872314453e+00 7.637520790100097656e+00
1.790000000000000000e+02 4.538620758056640625e+01 5.097264647483825684e-01 4.362365722656250000e+00 3.518255710601806641e+00 2.364186525344848633e+00 4.077945709228515625e+00
1.800000000000000000e+02 4.521980667114257812e+01 5.713388323783874512e-01 4.140410423278808594e+00 2.641382217407226562e+00 2.034537792205810547e+00 3.304208517074584961e+00
1.810000000000000000e+02 4.490378570556640625e+01 8.783075213432312012e-01 3.144986629486083984e+00 9.446052312850952148e-01 1.226877570152282715e+00 1.617603182792663574e+00
1.820000000000000000e+02 4.399655151367187500e+01 9.301643371582031250e-01 1.312622785568237305e+00 4.332938492298126221e-01 5.237749814987182617e-01 3.991567492485046387e-01
1.830000000000000000e+02 4.411983489990234375e+01 3.498643398284912109e+00 8.166144490242004395e-01 1.410773992538452148e+00 6.682165265083312988e-01 3.219435811042785645e-01
1.840000000000000000e+02 4.526856613159179688e+01 3.035936355590820312e+00 1.594598174095153809e+00 2.973304986953735352e+00 1.370370984077453613e+00 -2.150046825408935547e+00
1.850000000000000000e+02 4.510481643676757812e+01 3.349416971206665039e+00 1.696907281875610352e+00 3.461944580078125000e+00 1.547655582427978516e+00 -1.932982683181762695e+00
1.860000000000000000e+02 4.668340301513671875e+01 3.187607049942016602e+00 -1.327142715454101562e+00 2.253971481323242188e+01 6.363771915435791016e+00 -6.090603828430175781e+00
1.870000000000000000e+02 4.786918640136718750e+01 1.601377844810485840e+00 1.409169483184814453e+01 2.037702369689941406e+01 1.034061622619628906e+01 -4.419006824493408203e+00
1.880000000000000000e+02 4.791945266723632812e+01 1.909978866577148438e+00 9.636000633239746094e+00 1.874389266967773438e+01 8.513968467712402344e+00 -2.739265441894531250e+00
1.890000000000000000e+02 4.726380920410156250e+01 2.724479198455810547e+00 -7.966744303703308105e-01 3.181449317932128906e+01 9.305345535278320312e+00 4.866825416684150696e-02
1.900000000000000000e+02 4.628126144409179688e+01 2.703494548797607422e+00 2.708831787109375000e+00 1.173194026947021484e+01 4.332231521606445312e+00 -8.018546104431152344e+00
1.910000000000000000e+02 4.628723907470703125e+01 3.220918178558349609e+00 5.176096558570861816e-01 1.526692581176757812e+01 4.735360622406005859e+00 -6.221991062164306641e+00
1.920000000000000000e+02 4.785786819458007812e+01 2.633264541625976562e+00 1.873170137405395508e+00 2.453820228576660156e+01 7.923411369323730469e+00 1.791472792625427246e+00
1.930000000000000000e+02 4.743080902099609375e+01 2.619327545166015625e+00 1.074326515197753906e+00 3.066907501220703125e+01 9.523019790649414062e+00 1.059316158294677734e+00
1.940000000000000000e+02 4.779589080810546875e+01 2.151256799697875977e+00 1.051254177093505859e+01 2.242361450195312500e+01 9.880846977233886719e+00 2.093356847763061523e+00
1.950000000000000000e+02 4.789983749389648438e+01 2.176991462707519531e+00 8.975181579589843750e+00 2.287282943725585938e+01 9.554403305053710938e+00 9.419432282447814941e-01
1.960000000000000000e+02 4.769979095458984375e+01 2.335275411605834961e+00 7.157477855682373047e+00 2.716546821594238281e+01 1.029688358306884766e+01 2.712867021560668945e+00
1.970000000000000000e+02 4.608701705932617188e+01 3.250822544097900391e+00 1.693323135375976562e+00 1.090939140319824219e+01 3.780814409255981445e+00 -5.623206615447998047e+00
1.980000000000000000e+02 4.710304260253906250e+01 2.816905736923217773e+00 -1.567562222480773926e+00 2.998770523071289062e+01 8.526042938232421875e+00 -1.729220271110534668e+00
1.990000000000000000e+02 4.549976348876953125e+01 3.301972389221191406e+00 1.966166257858276367e+00 5.782067775726318359e+00 2.324470281600952148e+00 -3.632990121841430664e+00
2.000000000000000000e+02 4.702541732788085938e+01 4.318635463714599609e-01 1.149516463279724121e+00 2.187512779235839844e+01 6.907392978668212891e+00 2.364159584045410156e+00
2.010000000000000000e+02 4.726258468627929688e+01 7.004385590553283691e-01 2.828934907913208008e+00 2.423915672302246094e+01 8.120427131652832031e+00 3.097823634743690491e-02
2.020000000000000000e+02 4.549488449096679688e+01 1.553674817085266113e+00 1.102989792823791504e+00 -6.156193837523460388e-02 3.124283552169799805e-01 4.644229114055633545e-01
2.030000000000000000e+02 4.555375289916992188e+01 4.886576235294342041e-01 4.530725479125976562e+00 4.311345577239990234e+00 2.652621269226074219e+00 4.616393089294433594e+00
2.040000000000000000e+02 4.701327514648437500e+01 5.941169261932373047e-01 9.852488040924072266e-01 2.505847930908203125e+01 7.813118457794189453e+00 2.779702663421630859e+00
2.050000000000000000e+02 4.739436721801757812e+01 6.040397882461547852e-01 2.991511106491088867e+00 2.198184013366699219e+01 7.492005348205566406e+00 -2.282384872436523438e+00
2.060000000000000000e+02 4.770536041259765625e+01 7.292369604110717773e-01 4.038774967193603516e+00 2.217262840270996094e+01 7.863420486450195312e+00 -4.683246135711669922e+00
2.070000000000000000e+02 4.801661300659179688e+01 1.146658897399902344e+00 1.021774578094482422e+01 1.731532287597656250e+01 8.259921073913574219e+00 -5.181784152984619141e+00
2.080000000000000000e+02 4.606575393676757812e+01 7.108513116836547852e-01 5.718364238739013672e+00 7.954851627349853516e+00 4.101964950561523438e+00 7.175093173980712891e+00
2.090000000000000000e+02 4.619420623779296875e+01 4.501161575317382812e-01 4.211882591247558594e+00 1.076572704315185547e+01 4.493282794952392578e+00 7.263392925262451172e+00
2.100000000000000000e+02 4.409518051147460938e+01 3.283105850219726562e+00 4.317876994609832764e-01 6.405631303787231445e-01 3.217052519321441650e-01 5.866581201553344727e-01
2.110000000000000000e+02 4.495117187500000000e+01 2.168860197067260742e+00 -4.416262626647949219e+00 5.075311288237571716e-02 -1.309652805328369141e+00 6.659788489341735840e-01
2.120000000000000000e+02 4.569594955444335938e+01 3.283684015274047852e+00 1.966677904129028320e+00 6.948040962219238281e+00 2.674415826797485352e+00 -4.241556644439697266e+00
2.130000000000000000e+02 4.689297866821289062e+01 2.879215955734252930e+00 -7.817558050155639648e-01 2.636723709106445312e+01 7.675644397735595703e+00 -4.424154281616210938e+00
2.140000000000000000e+02 4.451657867431640625e+01 3.440713167190551758e+00 1.368253946304321289e+00 1.656577467918395996e+00 9.074494242668151855e-01 -4.246652424335479736e-01
2.150000000000000000e+02 4.648976898193359375e+01 3.212320327758789062e+00 7.663883268833160400e-02 1.719717216491699219e+01 5.182143688201904297e+00 -6.211059093475341797e+00
2.160000000000000000e+02 4.474740219116210938e+01 2.193784475326538086e+00 -4.315978050231933594e+00 -1.827818304300308228e-01 -1.349627971649169922e+00 6.844273805618286133e-01
2.170000000000000000e+02 4.454422378540039062e+01 2.207889795303344727e+00 -4.160342216491699219e+00 3.364137560129165649e-02 -1.238010287284851074e+00 7.175235152244567871e-01
2.180000000000000000e+02 4.555470657348632812e+01 2.076999187469482422e+00 -4.316308975219726562e+00 -1.142676100134849548e-01 -1.329172968864440918e+00 4.948328137397766113e-01
2.190000000000000000e+02 4.471089935302734375e+01 1.898333311080932617e+00 -1.996133565902709961e+00 6.917306035757064819e-02 -5.780881643295288086e-01 1.985988765954971313e-01
2.200000000000000000e+02 4.448381042480468750e+01 1.731612324714660645e+00 -1.071731209754943848e+00 -7.021365454420447350e-04 -3.217299878597259521e-01 4.146792739629745483e-02
2.210000000000000000e+02 4.459721374511718750e+01 6.888407468795776367e-01 2.635280847549438477e+00 9.101412296295166016e-01 1.063626646995544434e+00 1.457091212272644043e+00
2.220000000000000000e+02 4.473505783081054688e+01 9.566417932510375977e-01 2.379482269287109375e+00 6.973366737365722656e-01 9.230456948280334473e-01 1.054199218750000000e+00
2.230000000000000000e+02 4.503480529785156250e+01 1.572787880897521973e+00 6.622631847858428955e-02 -1.579327136278152466e-02 1.512991357594728470e-02 1.577012389898300171e-01
2.240000000000000000e+02 4.410575866699218750e+01 1.758902072906494141e+00 -1.010991573333740234e+00 6.734290160238742828e-03 -3.012771904468536377e-01 9.793203324079513550e-03
2.250000000000000000e+02 4.586235427856445312e+01 8.402161598205566406e-01 6.191683292388916016e+00 5.260363578796386719e+00 3.435614109039306641e+00 5.932950496673583984e+00
2.260000000000000000e+02 4.554325485229492188e+01 8.295519351959228516e-01 5.207581996917724609e+00 2.861738443374633789e+00 2.420796155929565430e+00 4.003444671630859375e+00
2.270000000000000000e+02 4.628728485107421875e+01 6.373635530471801758e-01 4.759675502777099609e+00 1.271568965911865234e+01 5.242609500885009766e+00 7.855739593505859375e+00
2.280000000000000000e+02 4.512222290039062500e+01 8.599645495414733887e-01 3.801762819290161133e+00 1.320033431053161621e+00 1.536538839340209961e+00 2.277995824813842773e+00
2.290000000000000000e+02 4.480343246459960938e+01 6.431133747100830078e-01 3.159719705581665039e+00 1.323606014251708984e+00 1.344997763633728027e+00 1.948322176933288574e+00
2.300000000000000000e+02 4.382466506958007812e+01 1.156464576721191406e+00 6.368300914764404297e-01 2.884074449539184570e-01 2.775712609291076660e-01 -2.539786882698535919e-02
2.310000000000000000e+02 4.430159759521484375e+01 1.741202235221862793e+00 -1.071261048316955566e+00 3.692391887307167053e-02 -3.103011250495910645e-01 -4.704542458057403564e-02
2.320000000000000000e+02 4.437571334838867188e+01 9.666720628738403320e-01 1.717856526374816895e+00 5.180239081382751465e-01 6.707640886306762695e-01 6.142736077308654785e-01
2.330000000000000000e+02 4.379645919799804688e+01 9.478010535240173340e-01 8.391123414039611816e-01 3.750080466270446777e-01 3.642361164093017578e-01 1.791079789400100708e-01
2.340000000000000000e+02 4.397924041748046875e+01 2.450560569763183594e+00 -2.185031414031982422e+00 -3.300108909606933594e-01 -7.545127272605895996e-01 7.552357316017150879e-01
2.350000000000000000e+02 4.434593200683593750e+01 2.210812568664550781e+00 -3.961557388305664062e+00 -3.015947341918945312e-01 -1.278945684432983398e+00 6.565186381340026855e-01
2.360000000000000000e+02 4.406930160522460938e+01 3.068042516708374023e+00 3.930987324565649033e-03 1.634367257356643677e-01 5.021031200885772705e-02 8.764061331748962402e-01
2.370000000000000000e+02 4.432527160644531250e+01 1.950550436973571777e+00 -1.820426464080810547e+00 -1.255087740719318390e-02 -5.498932003974914551e-01 1.550779193639755249e-01
2.380000000000000000e+02 4.385297012329101562e+01 1.363904595375061035e+00 1.142297983169555664e-01 1.189088597893714905e-01 6.994159519672393799e-02 -1.345181763172149658e-01
2.390000000000000000e+02 4.387879562377929688e+01 1.572354555130004883e+00 -3.626674711704254150e-01 1.188665851950645447e-01 -7.314026355743408203e-02 -2.270948737859725952e-01
2.400000000000000000e+02 4.462108230590820312e+01 2.913964271545410156e+00 8.056728402152657509e-04 6.917201280593872070e-01 2.077577412128448486e-01 7.522546499967575073e-02
2.410000000000000000e+02 4.585962677001953125e+01 2.722725629806518555e+00 2.509394168853759766e+00 5.498371601104736328e+00 2.402329683303833008e+00 -4.962233066558837891e+00
2.420000000000000000e+02 4.620788574218750000e+01 2.976351976394653320e+00 1.589183449745178223e+00 1.258303737640380859e+01 4.251666545867919922e+00 -7.190874099731445312e+00
2.430000000000000000e+02 4.490863037109375000e+01 3.378474473953247070e+00 1.661655426025390625e+00 2.557683706283569336e+00 1.265801787376403809e+00 -1.244316577911376953e+00
2.440000000000000000e+02 4.502213287353515625e+01 2.776426792144775391e+00 2.017051130533218384e-01 1.157063722610473633e+00 4.076306521892547607e-01 -6.460992693901062012e-01
2.450000000000000000e+02 4.548857879638671875e+01 1.311075448989868164e+00 3.444381237030029297e+00 6.506962180137634277e-01 1.228523254394531250e+00 1.618257045745849609e+00
2.460000000000000000e+02 4.438432312011718750e+01 7.080397605895996094e-01 2.193084478378295898e+00 7.254134416580200195e-01 8.755493760108947754e-01 1.059921503067016602e+00
2.470000000000000000e+02 4.567276763916015625e+01 9.963000416755676270e-01 5.553413391113281250e+00 2.178342342376708984e+00 2.319526672363281250e+00 3.939783334732055664e+00
2.480000000000000000e+02 4.602382659912109375e+01 1.008113265037536621e+00 7.274569511413574219e+00 5.355682849884033203e+00 3.789075851440429688e+00 6.590306758880615234e+00
2.490000000000000000e+02 4.429559707641601562e+01 3.244562625885009766e+00 5.839301347732543945e-01 9.873192310333251953e-01 4.713748097419738770e-01 2.606352269649505615e-01
2.500000000000000000e+02 4.427088928222656250e+01 3.020486116409301758e+00 9.123004972934722900e-02 4.868797659873962402e-01 1.734329462051391602e-01 5.218486785888671875e-01
2.510000000000000000e+02 4.594221115112304688e+01 2.462183475494384766e+00 2.581174612045288086e+00 3.754796981811523438e+00 1.900791406631469727e+00 -4.289518833160400391e+00
2.520000000000000000e+02 4.576346588134765625e+01 1.359803199768066406e+00 4.537301540374755859e+00 6.019024252891540527e-01 1.541761159896850586e+00 2.097463369369506836e+00
2.530000000000000000e+02 4.476113128662109375e+01 2.512614488601684570e+00 -1.713587284088134766e+00 2.784921824932098389e-01 -4.305285215377807617e-01 4.163504242897033691e-01
2.540000000000000000e+02 4.459080886840820312e+01 1.115430116653442383e+00 1.694791078567504883e+00 2.869804203510284424e-01 5.945314764976501465e-01 6.149904727935791016e-01
2.550000000000000000e+02 4.543857955932617188e+01 1.075904726982116699e+00 4.284690856933593750e+00 1.304740071296691895e+00 1.676829338073730469e+00 2.440191507339477539e+00
2.560000000000000000e+02 4.518102645874023438e+01 1.084058165550231934e+00 3.205278635025024414e+00 7.094713449478149414e-01 1.174425005912780762e+00 1.624117493629455566e+00
2.570000000000000000e+02 4.473966598510742188e+01 1.342652916908264160e+00 1.043894886970520020e+00 2.099444419145584106e-01 3.761518001556396484e-01 3.180016577243804932e-01
2.580000000000000000e+02 4.428713226318359375e+01 1.308811545372009277e+00 5.490072965621948242e-01 1.138531342148780823e-01 1.988581269979476929e-01 9.362822771072387695e-02
2.590000000000000000e+02 4.635369873046875000e+01 2.886377573013305664e+00 1.588996529579162598e+00 1.531174087524414062e+01 5.070221424102783203e+00 -7.787992477416992188e+00
2.600000000000000000e+02 4.496691513061523438e+01 1.307787895202636719e+00 1.611024379730224609e+00 2.608168125152587891e-01 5.615523457527160645e-01 6.235971450805664062e-01
2.610000000000000000e+02 4.565354537963867188e+01 2.690657138824462891e+00 1.931221842765808105e+00 3.195968866348266602e+00 1.538157224655151367e+00 -3.309135913848876953e+00
2.620000000000000000e+02 4.445634460449218750e+01 2.988350629806518555e+00 1.345964819192886353e-01 6.891270279884338379e-01 2.471170574426651001e-01 2.309504002332687378e-01
2.630000000000000000e+02 4.530220794677734375e+01 3.323898315429687500e+00 1.907242894172668457e+00 4.334279537200927734e+00 1.872456789016723633e+00 -2.729807376861572266e+00
2.640000000000000000e+02 4.544105529785156250e+01 2.713153123855590820e+00 1.104399085044860840e+00 2.265566825866699219e+00 1.010989785194396973e+00 -2.095033168792724609e+00
2.650000000000000000e+02 4.540161895751953125e+01 2.409094095230102539e+00 -7.764713168144226074e-01 6.997616291046142578e-01 -2.301290445029735565e-02 -8.090935945510864258e-01
2.660000000000000000e+02 4.429182434082031250e+01 1.532813906669616699e+00 -1.639896035194396973e-01 9.367857873439788818e-02 -2.109330520033836365e-02 -8.940961211919784546e-03
2.670000000000000000e+02 4.494331359863281250e+01 1.077879428863525391e+00 2.421251058578491211e+00 5.284189581871032715e-01 8.849009871482849121e-01 1.119989037513732910e+00
2.680000000000000000e+02 4.403001022338867188e+01 1.134521842002868652e+00 7.655705809593200684e-01 2.290023267269134521e-01 2.983718812465667725e-01 7.668590545654296875e-02
2.690000000000000000e+02 4.417142868041992188e+01 7.021500468254089355e-01 1.748356223106384277e+00 6.636301875114440918e-01 7.235959172248840332e-01 8.164978623390197754e-01
2.700000000000000000e+02 4.418791198730468750e+01 9.161878228187561035e-01 1.597047448158264160e+00 4.219859242439270020e-01 6.057100296020507812e-01 5.780423879623413086e-01
2.710000000000000000e+02 4.406430816650390625e+01 1.338865518569946289e+00 3.356605768203735352e-01 2.044703215360641479e-01 1.620392650365829468e-01 -1.747176796197891235e-02
2.720000000000000000e+02 4.390353012084960938e+01 1.782661795616149902e+00 -8.161634206771850586e-01 -1.408814042806625366e-01 -2.871134579181671143e-01 -1.115393191576004028e-01
2.730000000000000000e+02 4.464245986938476562e+01 1.679394721984863281e+00 -7.644380927085876465e-01 9.962890297174453735e-02 -1.994427591562271118e-01 1.338993944227695465e-02
2.740000000000000000e+02 4.481934356689453125e+01 1.607227563858032227e+00 -3.394733965396881104e-01 1.061261966824531555e-01 -7.000415772199630737e-02 1.192299425601959229e-01
2.750000000000000000e+02 4.526103591918945312e+01 1.556135892868041992e+00 5.710396766662597656e-01 1.741953343152999878e-01 2.235704958438873291e-01 3.703763186931610107e-01
2.760000000000000000e+02 4.501910018920898438e+01 6.170759201049804688e-01 3.717735528945922852e+00 1.866880536079406738e+00 1.675384879112243652e+00 2.643948793411254883e+00
2.770000000000000000e+02 4.550464630126953125e+01 6.129940748214721680e-01 4.577461242675781250e+00 3.724653482437133789e+00 2.490634441375732422e+00 4.326475143432617188e+00
2.780000000000000000e+02 4.575278854370117188e+01 5.057389140129089355e-01 4.860119819641113281e+00 5.637691497802734375e+00 3.149343252182006836e+00 5.745808601379394531e+00
2.790000000000000000e+02 4.597502517700195312e+01 4.929387569427490234e-01 4.638260364532470703e+00 8.390411376953125000e+00 3.908601760864257812e+00 6.584688663482666016e+00
2.800000000000000000e+02 4.662695312500000000e+01 3.957458436489105225e-01 2.645131587982177734e+00 1.565580463409423828e+01 5.490281105041503906e+00 5.492407798767089844e+00
2.810000000000000000e+02 4.431906509399414062e+01 3.469661235809326172e+00 1.055685877799987793e+00 1.261239409446716309e+00 6.950775980949401855e-01 -1.735466569662094116e-01
2.820000000000000000e+02 4.400957489013671875e+01 2.653373956680297852e+00 -1.231208801269531250e+00 -1.864698827266693115e-01 -4.253036081790924072e-01 1.066458582878112793e+00
2.830000000000000000e+02 4.425523757934570312e+01 2.793171644210815430e+00 -7.917819023132324219e-01 2.880440559238195419e-03 -2.366704344749450684e-01 7.949154973030090332e-01
2.840000000000000000e+02 4.415126419067382812e+01 2.220286369323730469e+00 -3.688195705413818359e+00 1.333822011947631836e-01 -1.066444039344787598e+00 6.888030171394348145e-01
2.850000000000000000e+02 4.449035644531250000e+01 3.206981658935546875e+00 7.217213511466979980e-01 1.053435444831848145e+00 5.325470566749572754e-01 -5.689321458339691162e-02
2.860000000000000000e+02 4.468103408813476562e+01 3.158806800842285156e+00 9.508596062660217285e-01 1.304616451263427734e+00 6.766428351402282715e-01 -4.345947802066802979e-01
2.870000000000000000e+02 4.471308517456054688e+01 3.409923553466796875e+00 1.506037473678588867e+00 2.000796794891357422e+00 1.052050232887268066e+00 -9.012263417243957520e-01
2.880000000000000000e+02 4.506800842285156250e+01 3.066383361816406250e+00 1.334478378295898438e+00 2.115106582641601562e+00 1.034875512123107910e+00 -1.438428878784179688e+00
2.890000000000000000e+02 4.546948242187500000e+01 3.014077186584472656e+00 2.020861625671386719e+00 3.863219976425170898e+00 1.765224456787109375e+00 -3.119100093841552734e+00
2.900000000000000000e+02 4.566637420654296875e+01 3.002677917480468750e+00 2.186399459838867188e+00 5.731377124786376953e+00 2.375333070755004883e+00 -4.261898517608642578e+00
2.910000000000000000e+02 4.589067077636718750e+01 3.268090486526489258e+00 1.653904318809509277e+00 9.138686180114746094e+00 3.237777233123779297e+00 -4.982972145080566406e+00
2.920000000000000000e+02 4.420461654663085938e+01 2.598829746246337891e+00 -1.519868135452270508e+00 -2.124968469142913818e-01 -5.197094678878784180e-01 7.835248708724975586e-01
2.930000000000000000e+02 4.432617568969726562e+01 2.449532270431518555e+00 -2.438647508621215820e+00 8.087512105703353882e-02 -7.073317170143127441e-01 7.679882645606994629e-01
2.940000000000000000e+02 4.585718536376953125e+01 3.006259441375732422e+00 2.204415798187255859e+00 7.363166809082031250e+00 2.870274782180786133e+00 -5.127693653106689453e+00
2.950000000000000000e+02 4.654972076416015625e+01 3.028526306152343750e+00 -5.741312503814697266e-01 1.945036125183105469e+01 5.662868976593017578e+00 -7.200226306915283203e+00
2.960000000000000000e+02 4.692018127441406250e+01 3.132397651672363281e+00 -1.515618324279785156e+00 2.184032249450683594e+01 6.097411155700683594e+00 -4.329886436462402344e+00
2.970000000000000000e+02 4.452810668945312500e+01 2.509771347045898438e+00 -1.982570052146911621e+00 -8.377461135387420654e-02 -6.199033856391906738e-01 5.993999242782592773e-01
2.980000000000000000e+02 4.498080444335937500e+01 2.476934432983398438e+00 -1.568037986755371094e+00 2.240542024374008179e-01 -4.031951427459716797e-01 1.048833131790161133e-01
2.990000000000000000e+02 4.519212722778320312e+01 2.443161249160766602e+00 -1.308772087097167969e+00 5.562211275100708008e-01 -2.257653027772903442e-01 -2.401764839887619019e-01
3.000000000000000000e+02 4.605345916748046875e+01 2.812101125717163086e+00 2.715012788772583008e+00 8.944656372070312500e+00 3.497900724411010742e+00 -6.512190341949462891e+00
3.010000000000000000e+02 4.586591339111328125e+01 1.165523529052734375e+00 6.521457672119140625e+00 2.723931789398193359e+00 2.773616790771484375e+00 4.289768695831298828e+00
3.020000000000000000e+02 4.757146453857421875e+01 2.486404657363891602e+00 4.411679267883300781e+00 2.748908233642578125e+01 9.570228576660156250e+00 3.407200336456298828e+00
3.030000000000000000e+02 4.765546798706054688e+01 9.762564897537231445e-01 7.060567855834960938e+00 2.458072662353515625e+01 9.492388725280761719e+00 -6.281482696533203125e+00
3.040000000000000000e+02 4.769940948486328125e+01 1.205689668655395508e+00 9.411602973937988281e+00 2.329912185668945312e+01 9.813218116760253906e+00 -5.901871681213378906e+00
3.050000000000000000e+02 4.733371353149414062e+01 2.813406467437744141e+00 -1.678974509239196777e+00 3.011452865600585938e+01 8.530666351318359375e+00 1.827408075332641602e-01
3.060000000000000000e+02 4.763364028930664062e+01 2.530254125595092773e+00 4.556890487670898438e+00 2.862169837951660156e+01 9.953577041625976562e+00 4.096223831176757812e+00
3.070000000000000000e+02 4.777754592895507812e+01 2.403337717056274414e+00 5.104940891265869141e+00 2.563758277893066406e+01 9.222757339477539062e+00 2.029973983764648438e+00
3.080000000000000000e+02 4.783856201171875000e+01 1.954040408134460449e+00 1.055110836029052734e+01 2.339797210693359375e+01 1.018472385406494141e+01 2.304355353116989136e-01
3.090000000000000000e+02 4.805131149291992188e+01 1.711407780647277832e+00 1.122948360443115234e+01 1.523816108703613281e+01 7.940293312072753906e+00 -3.459516763687133789e+00
3.100000000000000000e+02 4.751841354370117188e+01 1.012531280517578125e+00 6.837334632873535156e+00 2.594283866882324219e+01 9.834052085876464844e+00 -6.276878833770751953e+00
3.110000000000000000e+02 4.764750671386718750e+01 1.085274338722229004e+00 8.542027473449707031e+00 2.437796401977539062e+01 9.875997543334960938e+00 -6.498012065887451172e+00
3.120000000000000000e+02 4.737473297119140625e+01 9.044778943061828613e-01 5.542340755462646484e+00 2.559140205383300781e+01 9.340122222900390625e+00 -3.222734212875366211e+00
3.130000000000000000e+02 4.720597839355468750e+01 8.025289177894592285e-01 2.473769903182983398e+00 2.691164779663085938e+01 8.815625190734863281e+00 -4.323437437415122986e-02
3.140000000000000000e+02 4.700366210937500000e+01 7.328796386718750000e-01 1.845134615898132324e+00 2.604383468627929688e+01 8.366690635681152344e+00 2.767502307891845703e+00
3.150000000000000000e+02 4.657959747314453125e+01 7.365739345550537109e-01 4.218356609344482422e+00 1.836467552185058594e+01 6.774909496307373047e+00 7.203505516052246094e+00
3.160000000000000000e+02 4.638108444213867188e+01 7.925478219985961914e-01 5.371278285980224609e+00 1.338788032531738281e+01 5.627747535705566406e+00 8.833892822265625000e+00
3.170000000000000000e+02 4.673746490478515625e+01 5.685753822326660156e-01 2.594947338104248047e+00 2.013884353637695312e+01 6.820137500762939453e+00 4.423093318939208984e+00
3.180000000000000000e+02 4.449627685546875000e+01 1.550875902175903320e+00 -1.916155517101287842e-01 1.872741058468818665e-02 -5.186644196510314941e-02 -2.460332214832305908e-02
3.190000000000000000e+02 4.522198104858398438e+01 1.311733484268188477e+00 2.252258777618408203e+00 2.879690825939178467e-01 7.620683908462524414e-01 8.671783804893493652e-01
3.200000000000000000e+02 4.423429870605468750e+01 1.099602460861206055e+00 1.205316305160522461e+00 2.858829796314239502e-01 4.473598003387451172e-01 2.800526618957519531e-01
3.210000000000000000e+02 4.480788803100585938e+01 2.822882413864135742e+00 -2.063482254743576050e-02 7.261853814125061035e-01 2.116651535034179688e-01 -2.178897261619567871e-01
3.220000000000000000e+02 4.487159729003906250e+01 3.106995344161987305e+00 1.095942258834838867e+00 1.761464834213256836e+00 8.572221398353576660e-01 -9.006803035736083984e-01
3.230000000000000000e+02 4.523173522949218750e+01 2.741536378860473633e+00 6.189485788345336914e-01 1.462737202644348145e+00 6.245057582855224609e-01 -1.298312544822692871e+00
3.240000000000000000e+02 4.800095367431640625e+01 1.393972635269165039e+00 1.187513065338134766e+01 1.678723716735839844e+01 8.598710060119628906e+00 -5.243425846099853516e+00
3.250000000000000000e+02 4.810769653320312500e+01 2.087629556655883789e+00 8.670594215393066406e+00 1.610921096801757812e+01 7.433941364288330078e+00 -1.784445762634277344e+00
3.260000000000000000e+02 4.604138946533203125e+01 3.017242908477783203e+00 1.679278969764709473e+00 1.008400058746337891e+01 3.528983831405639648e+00 -5.858380317687988281e+00
3.270000000000000000e+02 4.753528594970703125e+01 2.671745777130126953e+00 1.219860792160034180e+00 2.669683456420898438e+01 8.375008583068847656e+00 7.678333520889282227e-01
3.280000000000000000e+02 4.568669891357421875e+01 6.980358362197875977e-01 5.251986980438232422e+00 4.225227355957031250e+00 2.843164205551147461e+00 5.070730209350585938e+00
3.290000000000000000e+02 4.535555267333984375e+01 8.675041198730468750e-01 4.501718997955322266e+00 1.941601514816284180e+00 1.932996153831481934e+00 3.096068620681762695e+00
3.300000000000000000e+02 4.771045684814453125e+01 2.572849988937377930e+00 3.546504259109497070e+00 2.671389579772949219e+01 9.078120231628417969e+00 3.190753936767578125e+00
3.310000000000000000e+02 4.767349243164062500e+01 8.675045967102050781e-01 6.217836856842041016e+00 2.396284484863281250e+01 9.054204940795898438e+00 -5.374670505523681641e+00
3.320000000000000000e+02 4.779457855224609375e+01 1.032592773437500000e+00 8.368160247802734375e+00 2.211464691162109375e+01 9.144842147827148438e+00 -5.873805999755859375e+00
3.330000000000000000e+02 4.538682556152343750e+01 7.194854617118835449e-01 4.492847442626953125e+00 2.659224510192871094e+00 2.145621538162231445e+00 3.704616069793701172e+00
3.340000000000000000e+02 4.452197265625000000e+01 1.336369156837463379e+00 6.583533883094787598e-01 2.107256948947906494e-01 2.607237100601196289e-01 2.333766072988510132e-01
3.350000000000000000e+02 4.447337341308593750e+01 2.775617122650146484e+00 -6.235463619232177734e-01 3.131300210952758789e-01 -9.312490373849868774e-02 5.143641829490661621e-01
3.360000000000000000e+02 5.513198089599609375e+01 -8.448188781738281250e+00 -3.851276159286499023e+00 -5.803444385528564453e-01 -1.329486131668090820e+00 8.118867278099060059e-01
3.370000000000000000e+02 5.637614440917968750e+01 -9.196935653686523438e+00 -2.137953042984008789e+00 -4.156175851821899414e-01 -7.660712003707885742e-01 9.261391758918762207e-01
3.380000000000000000e+02 5.707578277587890625e+01 -8.138821601867675781e+00 -2.018431425094604492e+00 2.440640926361083984e-01 -5.323101878166198730e-01 -3.598169982433319092e-02
3.390000000000000000e+02 5.538508224487304688e+01 -3.616964578628540039e+00 2.077566862106323242e+00 1.349906921386718750e-01 6.637672781944274902e-01 -1.174519777297973633e+00
3.400000000000000000e+02 6.015469360351562500e+01 1.904378056526184082e+00 1.680647134780883789e+00 7.326686978340148926e-01 7.239947319030761719e-01 6.586222648620605469e-01
3.410000000000000000e+02 6.409900665283203125e+01 4.106677532196044922e+00 6.758828759193420410e-01 2.956337213516235352e+00 1.089666008949279785e+00 1.238712072372436523e+00
3.420000000000000000e+02 6.592287445068359375e+01 4.198356151580810547e+00 2.535899877548217773e-01 4.507041454315185547e+00 1.428189516067504883e+00 1.150419831275939941e+00
3.430000000000000000e+02 7.524336242675781250e+01 3.833694934844970703e+00 -2.183541953563690186e-01 7.263405799865722656e+00 2.113515377044677734e+00 -4.303550124168395996e-01
3.440000000000000000e+02 7.794824981689453125e+01 3.300709486007690430e+00 -6.371445953845977783e-02 7.267489433288574219e+00 2.161132574081420898e+00 -2.870990931987762451e-01
3.450000000000000000e+02 7.938627624511718750e+01 5.753108978271484375e+00 -1.170971314422786236e-03 6.868740081787109375e+00 2.060270786285400391e+00 -1.430135220289230347e-01
3.460000000000000000e+02 7.943784332275390625e+01 7.109857559204101562e+00 1.261309022083878517e-03 6.531111717224121094e+00 1.959711909294128418e+00 -1.432685405015945435e-01
3.470000000000000000e+02 7.947864532470703125e+01 8.459520339965820312e+00 5.505743436515331268e-03 6.168201923370361328e+00 1.852112293243408203e+00 -1.357529610395431519e-01
3.480000000000000000e+02 7.845536041259765625e+01 9.909289360046386719e+00 4.466894641518592834e-02 6.228647232055664062e+00 1.881994843482971191e+00 -3.181236088275909424e-01
3.490000000000000000e+02 7.571540069580078125e+01 1.179306602478027344e+01 4.433196783065795898e-01 7.136607170104980469e+00 2.273977994918823242e+00 -2.894809544086456299e-01
3.500000000000000000e+02 6.976531982421875000e+01 1.567786312103271484e+01 1.080566883087158203e+00 1.183895015716552734e+01 3.875855207443237305e+00 1.003544569015502930e+00
3.510000000000000000e+02 6.842522430419921875e+01 1.830311775207519531e+01 1.341353654861450195e+00 1.452897930145263672e+01 4.761099815368652344e+00 -1.033129215240478516e+00
3.520000000000000000e+02 6.842452239990234375e+01 1.691072845458984375e+01 -9.115116298198699951e-02 1.396148300170898438e+01 4.161099433898925781e+00 1.243678480386734009e-01
3.530000000000000000e+02 6.828623962402343750e+01 1.412036800384521484e+01 8.573839068412780762e-01 1.458962345123291016e+01 4.634102344512939453e+00 2.196181297302246094e+00
3.540000000000000000e+02 7.101647186279296875e+01 9.053219795227050781e+00 2.671131193637847900e-01 8.259015083312988281e+00 2.557838439941406250e+00 5.055752117186784744e-04
3.550000000000000000e+02 7.513114929199218750e+01 8.078745841979980469e+00 1.390193868428468704e-02 7.316479682922363281e+00 2.199114561080932617e+00 -6.094261407852172852e-01
3.560000000000000000e+02 7.669647979736328125e+01 9.577673912048339844e+00 1.213586181402206421e-01 6.863810062408447266e+00 2.095550537109375000e+00 -5.064809918403625488e-01
3.570000000000000000e+02 7.706976318359375000e+01 7.942564964294433594e+00 -4.204207507427781820e-04 6.883256912231445312e+00 2.064851045608520508e+00 -5.429829359054565430e-01
3.580000000000000000e+02 5.752589035034179688e+01 -9.898403167724609375e+00 -1.536595225334167480e+00 -2.167264819145202637e-01 -5.259965062141418457e-01 6.618077754974365234e-01
3.590000000000000000e+02 6.014760589599609375e+01 -9.871850967407226562e+00 -8.369793295860290527e-01 1.860132962465286255e-01 -1.952898204326629639e-01 4.397867247462272644e-02
3.600000000000000000e+02 6.177658843994140625e+01 -7.423738002777099609e+00 1.248543784022331238e-01 1.459284067153930664e+00 4.752415120601654053e-01 -1.064439296722412109e+00
3.610000000000000000e+02 5.956073760986328125e+01 -2.773447513580322266e+00 1.877020597457885742e+00 6.075029373168945312e-01 7.453570365905761719e-01 -8.503752946853637695e-01
3.620000000000000000e+02 6.378153610229492188e+01 -4.679215252399444580e-01 8.974645733833312988e-01 2.719106674194335938e+00 1.084971427917480469e+00 3.962860256433486938e-02
3.630000000000000000e+02 6.236841583251953125e+01 -1.140506458282470703e+01 -9.369949698448181152e-01 1.487260907888412476e-01 -2.364806681871414185e-01 -4.680474288761615753e-03
3.640000000000000000e+02 6.474831390380859375e+01 -1.106359291076660156e+01 6.419424414634704590e-01 2.385627031326293945e+00 9.082708358764648438e-01 -1.799696922302246094e+00
3.650000000000000000e+02 6.550931549072265625e+01 -1.216774368286132812e+01 1.742760062217712402e+00 3.153710842132568359e+00 1.468941211700439453e+00 -2.382661104202270508e+00
3.660000000000000000e+02 6.647860717773437500e+01 -1.301905441284179688e+01 2.878367424011230469e+00 5.850961208343505859e+00 2.618798732757568359e+00 -3.850842237472534180e+00
3.670000000000000000e+02 6.733078765869140625e+01 -1.196498107910156250e+01 2.469118535518646240e-01 8.177298545837402344e+00 2.527263164520263672e+00 -2.282950639724731445e+00
3.680000000000000000e+02 6.824545288085937500e+01 -1.267005729675292969e+01 3.617157042026519775e-01 9.407291412353515625e+00 2.930702209472656250e+00 -1.297104001045227051e+00
3.690000000000000000e+02 6.957338714599609375e+01 -1.732572174072265625e+01 1.881494164466857910e+00 1.306283092498779297e+01 4.483297824859619141e+00 -1.413457989692687988e+00
3.700000000000000000e+02 7.471382141113281250e+01 -2.082654571533203125e+01 7.172560691833496094e-01 7.986412048339843750e+00 2.611100435256958008e+00 -1.207116484642028809e+00
3.710000000000000000e+02 7.935164642333984375e+01 -2.067147827148437500e+01 5.066843703389167786e-02 5.741670608520507812e+00 1.737701654434204102e+00 -2.380548566579818726e-01
3.720000000000000000e+02 7.807102203369140625e+01 -2.023636627197265625e+01 1.625671535730361938e-01 6.380061626434326172e+00 1.962788581848144531e+00 -5.656489133834838867e-01
3.730000000000000000e+02 7.935452270507812500e+01 -1.928132438659667969e+01 2.570336684584617615e-02 5.316266059875488281e+00 1.602590799331665039e+00 -1.481512039899826050e-01
3.740000000000000000e+02 7.818133544921875000e+01 -1.606578826904296875e+01 1.608376055955886841e-01 5.875018119812011719e+00 1.810756802558898926e+00 8.483693748712539673e-02
3.750000000000000000e+02 7.620853424072265625e+01 -1.359249782562255859e+01 3.024673163890838623e-01 7.050939083099365234e+00 2.206022024154663086e+00 5.895405411720275879e-01
3.760000000000000000e+02 7.062335968017578125e+01 -1.081678962707519531e+01 -2.946320772171020508e-01 8.403437614440917969e+00 2.432641744613647461e+00 -4.544287174940109253e-02
3.770000000000000000e+02 6.862164306640625000e+01 -6.844673156738281250e+00 -6.597058773040771484e-01 6.421067237854003906e+00 1.728408455848693848e+00 -7.493363022804260254e-01
3.780000000000000000e+02 6.269497299194335938e+01 -5.405429840087890625e+00 5.274125933647155762e-01 2.136622905731201172e+00 7.992106080055236816e-01 -1.169093847274780273e+00
3.790000000000000000e+02 6.472879028320312500e+01 -6.261209964752197266e+00 8.997751772403717041e-02 3.515234470367431641e+00 1.081563591957092285e+00 -1.321001410484313965e+00
3.800000000000000000e+02 6.308177185058593750e+01 -7.730501651763916016e+00 1.435466706752777100e-01 2.149548768997192383e+00 6.879286170005798340e-01 -1.325163841247558594e+00
3.810000000000000000e+02 6.809967041015625000e+01 -1.097910976409912109e+01 -3.783870041370391846e-01 7.921999931335449219e+00 2.263083934783935547e+00 -1.301806449890136719e+00
3.820000000000000000e+02 6.690310668945312500e+01 -9.183304786682128906e+00 -4.334213137626647949e-01 5.884006500244140625e+00 1.635175585746765137e+00 -1.697229504585266113e+00
3.830000000000000000e+02 6.824020385742187500e+01 -1.590268707275390625e+01 2.111839056015014648e+00 1.579300785064697266e+01 5.371453762054443359e+00 -3.307383775711059570e+00
3.840000000000000000e+02 6.968813323974609375e+01 -1.611344528198242188e+01 2.308176279067993164e+00 1.160871124267578125e+01 4.175065994262695312e+00 -8.486695289611816406e-01
3.850000000000000000e+02 7.060102081298828125e+01 -1.967221069335937500e+01 1.693240761756896973e+00 1.107269763946533203e+01 3.829781532287597656e+00 -9.423295855522155762e-01
3.860000000000000000e+02 7.455344390869140625e+01 -2.351901626586914062e+01 1.188929080963134766e-01 8.234715461730957031e+00 2.506082534790039062e+00 -1.513429522514343262e+00
3.870000000000000000e+02 7.929478454589843750e+01 -2.490056037902832031e+01 -1.570422761142253876e-02 7.650719165802001953e+00 2.290504455566406250e+00 -3.500813841819763184e-01
3.880000000000000000e+02 7.793287658691406250e+01 -2.454656219482421875e+01 -8.819774724543094635e-03 7.676445484161376953e+00 2.300287723541259766e+00 -8.854963779449462891e-01
3.890000000000000000e+02 6.831831359863281250e+01 -1.851537513732910156e+01 2.459170073270797729e-01 1.609078216552734375e+01 4.901010036468505859e+00 -2.656553089618682861e-01
3.900000000000000000e+02 6.713822174072265625e+01 -2.301676368713378906e+01 1.247192859649658203e+00 6.577647209167480469e+00 2.347452163696289062e+00 2.556598186492919922e+00
3.910000000000000000e+02 6.838726806640625000e+01 -2.240856170654296875e+01 9.120001792907714844e-01 9.877980232238769531e+00 3.236994266510009766e+00 1.743456482887268066e+00
3.920000000000000000e+02 7.188683319091796875e+01 -2.529145622253417969e+01 -7.107359170913696289e-01 8.619223594665527344e+00 2.372546434402465820e+00 -9.821246862411499023e-01
3.930000000000000000e+02 7.322013092041015625e+01 -2.970035552978515625e+01 -7.345882058143615723e-01 7.866594314575195312e+00 2.139601945877075195e+00 -5.919418931007385254e-01
3.940000000000000000e+02 7.616484832763671875e+01 -3.365502929687500000e+01 -2.235513031482696533e-01 8.745172500610351562e+00 2.556486368179321289e+00 -2.559012174606323242e-01
3.950000000000000000e+02 7.939123535156250000e+01 -3.336461257934570312e+01 -5.496206576935946941e-04 1.010216045379638672e+01 3.030483245849609375e+00 -8.677271753549575806e-02
3.960000000000000000e+02 7.702914428710937500e+01 -3.427315521240234375e+01 -2.050824463367462158e-01 9.005894660949707031e+00 2.640243530273437500e+00 -1.814158409833908081e-01
3.970000000000000000e+02 7.936264801025390625e+01 -3.199568367004394531e+01 -3.374033793807029724e-02 9.906779289245605469e+00 2.961911678314208984e+00 -1.217351853847503662e-01
3.980000000000000000e+02 7.809171295166015625e+01 -3.195117568969726562e+01 -6.297917664051055908e-02 9.326565742492675781e+00 2.779075860977172852e+00 -3.041888475418090820e-01
3.990000000000000000e+02 6.726441955566406250e+01 -2.534055137634277344e+01 -7.193458676338195801e-01 6.094204425811767578e+00 1.612457513809204102e+00 1.290883898735046387e+00
4.000000000000000000e+02 6.626000213623046875e+01 -2.843077659606933594e+01 -1.132667541503906250e+00 4.308685779571533203e+00 9.528055191040039062e-01 7.113074064254760742e-01
4.010000000000000000e+02 6.421185302734375000e+01 -3.071004676818847656e+01 -1.072340369224548340e+00 2.530484199523925781e+00 4.374431669712066650e-01 6.036584377288818359e-01
4.020000000000000000e+02 6.549896240234375000e+01 -3.692478179931640625e+01 4.281961545348167419e-02 3.434199810028076172e+00 1.043105840682983398e+00 3.809541165828704834e-01
4.030000000000000000e+02 6.430447387695312500e+01 -3.961470031738281250e+01 3.453637063503265381e-01 2.739575386047363281e+00 9.254817366600036621e-01 1.662570238113403320e-01
4.040000000000000000e+02 6.175722122192382812e+01 -4.108293151855468750e+01 5.836081504821777344e-01 1.856825113296508789e+00 7.321299314498901367e-01 6.510732322931289673e-02
4.050000000000000000e+02 6.783217620849609375e+01 -4.091062927246093750e+01 2.012108266353607178e-01 4.431622028350830078e+00 1.389849781990051270e+00 1.039235815405845642e-01
4.060000000000000000e+02 6.839997863769531250e+01 -3.788949966430664062e+01 -3.998713940382003784e-02 4.894310951232910156e+00 1.456297159194946289e+00 2.511458396911621094e-01
4.070000000000000000e+02 6.655886077880859375e+01 -3.462333679199218750e+01 -3.939397931098937988e-01 4.133398532867431641e+00 1.121837615966796875e+00 5.379815101623535156e-01
4.080000000000000000e+02 6.883378601074218750e+01 -3.083162689208984375e+01 -1.044729948043823242e+00 5.924100399017333984e+00 1.463811159133911133e+00 3.213379085063934326e-01
4.090000000000000000e+02 7.072402954101562500e+01 -2.922258186340332031e+01 -1.121002674102783203e+00 7.191303253173828125e+00 1.821090102195739746e+00 -2.399656474590301514e-01
4.100000000000000000e+02 6.829328918457031250e+01 -2.673102188110351562e+01 -1.302091360092163086e+00 6.615269660949707031e+00 1.593953490257263184e+00 3.360617160797119141e-01
4.110000000000000000e+02 4.699994277954101562e+01 -3.426799178123474121e-02 7.623059153556823730e-01 1.695720863342285156e+01 5.315854549407958984e+00 2.045999288558959961e+00
4.120000000000000000e+02 4.983708190917968750e+01 -9.896759390830993652e-01 4.908601760864257812e+00 6.073013782501220703e+00 3.294484615325927734e+00 -2.271511077880859375e+00
4.130000000000000000e+02 4.857195281982421875e+01 1.131130576133728027e+00 7.733856201171875000e+00 1.238828849792480469e+01 6.036643505096435547e+00 -6.535510540008544922e+00
4.140000000000000000e+02 4.822274780273437500e+01 3.545767068862915039e+00 -5.028415918350219727e-01 2.339931297302246094e+01 6.868941783905029297e+00 6.498879790306091309e-01
4.150000000000000000e+02 4.778153228759765625e+01 4.417685508728027344e+00 -2.938861027359962463e-02 2.259339141845703125e+01 6.769200801849365234e+00 -4.353236258029937744e-01
4.160000000000000000e+02 4.839718627929687500e+01 7.963736534118652344e+00 4.916163682937622070e-01 1.905411911010742188e+01 5.863720893859863281e+00 1.516489982604980469e+00
4.170000000000000000e+02 4.695628738403320312e+01 4.840396881103515625e+00 4.870790243148803711e-01 1.729082870483398438e+01 5.333372116088867188e+00 -1.373273849487304688e+00
4.180000000000000000e+02 4.196431350708007812e+01 9.051359176635742188e+00 4.520404636859893799e-01 7.670329809188842773e-01 3.657220304012298584e-01 -7.821833491325378418e-01
4.190000000000000000e+02 3.964273834228515625e+01 1.528692340850830078e+01 8.493188023567199707e-01 1.686721444129943848e+00 7.608120441436767578e-01 -1.115457773208618164e+00
4.200000000000000000e+02 4.138863372802734375e+01 1.041064453125000000e+01 7.020772099494934082e-01 1.443132638931274414e+00 6.435629129409790039e-01 -9.856948256492614746e-01
4.210000000000000000e+02 4.605497741699218750e+01 -3.100463151931762695e+00 -1.034730792045593262e+00 7.850244998931884766e+00 2.044654130935668945e+00 2.824408292770385742e+00
4.220000000000000000e+02 4.970564270019531250e+01 -7.109673500061035156e+00 -2.357268095016479492e+00 4.674459934234619141e+00 6.951575279235839844e-01 2.068716764450073242e+00
4.230000000000000000e+02 5.497634506225585938e+01 -6.267890930175781250e+00 -1.223168492317199707e+00 -2.259223908185958862e-01 -4.347272515296936035e-01 -1.013844728469848633e+00
4.240000000000000000e+02 4.641035461425781250e+01 -7.702633380889892578e+00 -2.219320535659790039e+00 7.234916687011718750e+00 1.504678845405578613e+00 1.900704383850097656e+00
4.250000000000000000e+02 5.372785949707031250e+01 -6.631065368652343750e+00 -1.677376866340637207e+00 -4.580813944339752197e-01 -6.406374573707580566e-01 -7.044679522514343262e-01
4.260000000000000000e+02 5.098892974853515625e+01 -7.696125030517578125e+00 -3.612962722778320312e+00 1.528219342231750488e+00 -6.254230141639709473e-01 6.508561968803405762e-01
4.270000000000000000e+02 4.659016418457031250e+01 -1.128680896759033203e+01 7.293286323547363281e-01 8.184246063232421875e+00 2.674072504043579102e+00 1.914003849029541016e+00
4.280000000000000000e+02 4.855571746826171875e+01 -1.072556304931640625e+01 1.897305250167846680e+00 6.354470252990722656e+00 2.475532770156860352e+00 3.401311397552490234e+00
4.290000000000000000e+02 4.948376464843750000e+01 -9.724613189697265625e+00 5.858033895492553711e-01 3.313029050827026367e+00 1.169649720191955566e+00 1.790365338325500488e+00
4.300000000000000000e+02 5.040435028076171875e+01 -8.817359924316406250e+00 -2.456364393234252930e+00 1.465065598487854004e+00 -2.973895967006683350e-01 3.982008397579193115e-01
4.310000000000000000e+02 4.773760223388671875e+01 -1.187736415863037109e+01 2.313624858856201172e+00 9.438648223876953125e+00 3.525681734085083008e+00 3.982866048812866211e+00
4.320000000000000000e+02 4.289446640014648438e+01 -9.076658248901367188e+00 -8.061541318893432617e-01 5.154423236846923828e+00 1.304480791091918945e+00 1.159725904464721680e+00
4.330000000000000000e+02 4.092671203613281250e+01 -8.920377731323242188e+00 -4.758605659008026123e-01 3.555907964706420898e+00 9.240142107009887695e-01 8.978626132011413574e-01
4.340000000000000000e+02 3.716641616821289062e+01 -1.214347553253173828e+01 8.647909760475158691e-01 1.214319229125976562e+00 6.237331032752990723e-01 1.645186096429824829e-01
4.350000000000000000e+02 3.494470977783203125e+01 -1.040754222869873047e+01 3.849260210990905762e-01 1.497608274221420288e-01 1.604060530662536621e-01 1.147460378706455231e-02
4.360000000000000000e+02 2.237186241149902344e+01 -1.173883724212646484e+01 3.268556892871856689e-01 9.375908970832824707e-02 1.261844336986541748e-01 -3.944433629512786865e-01
4.370000000000000000e+02 1.809075736999511719e+01 -1.051469230651855469e+01 -1.650856249034404755e-02 1.161990761756896973e-01 2.990715391933917999e-02 -3.558152914047241211e-01
4.380000000000000000e+02 1.507711315155029297e+01 -9.201301574707031250e+00 -1.197623088955879211e-01 -1.232634857296943665e-01 -7.290773838758468628e-02 -3.617776036262512207e-01
4.390000000000000000e+02 1.244701290130615234e+01 -1.122107982635498047e+01 -1.363444626331329346e-01 -2.744714915752410889e-01 -1.232447922229766846e-01 -2.158233225345611572e-01
4.400000000000000000e+02 8.896803855895996094e+00 -1.146602249145507812e+01 -1.470254957675933838e-01 -1.631882786750793457e-01 -9.306412935256958008e-02 -1.590729653835296631e-01
4.410000000000000000e+02 5.555539608001708984e+00 -1.109360885620117188e+01 -8.209341764450073242e-02 -1.197251453995704651e-01 -6.054557114839553833e-02 -1.283829361200332642e-01
4.420000000000000000e+02 1.776222586631774902e+00 -1.061585807800292969e+01 -9.940317831933498383e-03 -7.129080593585968018e-02 -2.436933666467666626e-02 -4.431675001978874207e-02
4.430000000000000000e+02 6.383923292160034180e-01 -1.349932003021240234e+01 -6.646608933806419373e-03 -1.463478803634643555e-01 -4.589834436774253845e-02 -3.152825310826301575e-02
4.440000000000000000e+02 1.914135694503784180e+00 -1.344886016845703125e+01 -1.338966656476259232e-02 -1.654808819293975830e-01 -5.366116762161254883e-02 -8.628008514642715454e-02
4.450000000000000000e+02 6.481181383132934570e-01 -1.634463882446289062e+01 -4.411180503666400909e-03 -3.146162033081054688e-01 -9.570821374654769897e-02 -4.414347931742668152e-02
4.460000000000000000e+02 4.172067165374755859e+00 -1.638244628906250000e+01 -2.852649800479412079e-02 -2.572831511497497559e-01 -8.574289083480834961e-02 -2.150298357009887695e-01
4.470000000000000000e+02 4.577586650848388672e+00 -1.952277183532714844e+01 2.656745724380016327e-02 -3.464899957180023193e-01 -9.597676247358322144e-02 -2.451375126838684082e-01
4.480000000000000000e+02 1.091652870178222656e+01 -2.355886268615722656e+01 2.646212279796600342e-01 1.184232309460639954e-01 1.149133369326591492e-01 -2.249667942523956299e-01
4.490000000000000000e+02 1.342964363098144531e+01 -2.364639663696289062e+01 3.856018483638763428e-01 4.840563237667083740e-01 2.608974575996398926e-01 -4.164510667324066162e-01
4.500000000000000000e+02 1.513980770111083984e+01 -2.730472564697265625e+01 2.966046333312988281e-01 3.134359419345855713e-01 1.830121725797653198e-01 -3.010609745979309082e-01
4.510000000000000000e+02 1.540052604675292969e+01 -3.031097793579101562e+01 1.607665866613388062e-01 2.507508993148803711e-01 1.234552413225173950e-01 -1.966315507888793945e-01
4.520000000000000000e+02 1.573751354217529297e+01 -3.263569259643554688e+01 8.113808929920196533e-02 1.960757374763488770e-01 8.316414803266525269e-02 -1.701981872320175171e-01
4.530000000000000000e+02 2.021649360656738281e+01 -3.782623291015625000e+01 2.078841477632522583e-01 3.028137385845184326e-01 1.532093733549118042e-01 -9.419497847557067871e-02
4.540000000000000000e+02 2.261292457580566406e+01 -4.111452102661132812e+01 2.153938710689544678e-01 4.557156264781951904e-01 2.013328522443771362e-01 -2.009784802794456482e-02
4.550000000000000000e+02 2.664285087585449219e+01 -4.094019317626953125e+01 1.350946128368377686e-01 9.493818283081054688e-01 3.253429234027862549e-01 5.251182243227958679e-02
4.560000000000000000e+02 2.949452400207519531e+01 -3.921003341674804688e+01 1.450920756906270981e-02 1.359295845031738281e+00 4.121415317058563232e-01 2.245496213436126709e-01
4.570000000000000000e+02 3.093576622009277344e+01 -3.636718368530273438e+01 1.307105179876089096e-02 1.591563105583190918e+00 4.813902676105499268e-01 5.432944893836975098e-01
4.580000000000000000e+02 3.097745704650878906e+01 -3.011456298828125000e+01 9.331987500190734863e-01 7.184972167015075684e-01 4.955087900161743164e-01 8.114611506462097168e-01
4.590000000000000000e+02 2.962951087951660156e+01 -3.057913208007812500e+01 5.148612260818481445e-01 3.817291557788848877e-01 2.689771056175231934e-01 4.215847253799438477e-01
4.600000000000000000e+02 2.820184898376464844e+01 -3.083844947814941406e+01 2.239041626453399658e-01 1.315193921327590942e-01 1.066270694136619568e-01 2.190313488245010376e-01
4.610000000000000000e+02 2.672433471679687500e+01 -3.095739746093750000e+01 7.437642663717269897e-02 1.179604455828666687e-01 5.770106241106987000e-02 6.886535137891769409e-02
4.620000000000000000e+02 2.692573165893554688e+01 -3.679720687866210938e+01 2.825005054473876953e-01 6.851469278335571289e-01 2.902942299842834473e-01 2.408590316772460938e-01
4.630000000000000000e+02 2.513587379455566406e+01 -3.835603713989257812e+01 2.232859581708908081e-01 6.426001787185668945e-01 2.597658336162567139e-01 1.126679927110671997e-01
4.640000000000000000e+02 4.628980255126953125e+01 -1.732751274108886719e+01 3.877254724502563477e-01 1.142015933990478516e+01 3.542365550994873047e+00 1.067488551139831543e+00
4.650000000000000000e+02 4.451948165893554688e+01 -1.249227714538574219e+01 9.897214770317077637e-01 7.152791500091552734e+00 2.442753791809082031e+00 1.237867712974548340e+00
4.660000000000000000e+02 3.863138961791992188e+01 -1.378735923767089844e+01 1.103370666503906250e+00 2.315825939178466797e+00 1.025758981704711914e+00 2.595717608928680420e-01
4.670000000000000000e+02 3.646088027954101562e+01 -1.428826904296875000e+01 1.269840717315673828e+00 1.020606040954589844e+00 6.871340274810791016e-01 9.113997220993041992e-03
4.680000000000000000e+02 3.499916839599609375e+01 -1.347861766815185547e+01 1.299194216728210449e+00 3.150834739208221436e-01 4.842832982540130615e-01 -1.841846480965614319e-02
4.690000000000000000e+02 3.001688194274902344e+01 -1.495448684692382812e+01 1.895420074462890625e+00 -1.851248927414417267e-02 5.630722641944885254e-01 -2.554926276206970215e-01
4.700000000000000000e+02 2.604038810729980469e+01 -1.338091945648193359e+01 1.017258644104003906e+00 4.750287160277366638e-02 3.194284737110137939e-01 -3.865081369876861572e-01
4.710000000000000000e+02 2.203758049011230469e+01 -1.412974452972412109e+01 7.304802536964416504e-01 2.324130572378635406e-02 2.261164635419845581e-01 -2.185332328081130981e-01
4.720000000000000000e+02 2.076750373840332031e+01 -1.381422328948974609e+01 5.873655676841735840e-01 6.741315126419067383e-02 1.964336037635803223e-01 -2.441376000642776489e-01
4.730000000000000000e+02 4.619121170043945312e+01 -2.010579872131347656e+01 4.707792401313781738e-01 1.083053970336914062e+01 3.390395641326904297e+00 -7.061398029327392578e-02
4.740000000000000000e+02 4.500056076049804688e+01 -1.724986457824707031e+01 8.404204845428466797e-01 9.360620498657226562e+00 3.060312271118164062e+00 1.359223008155822754e+00
4.750000000000000000e+02 3.883219909667968750e+01 -1.664103698730468750e+01 9.388990402221679688e-01 3.061118364334106445e+00 1.200005292892456055e+00 3.761022984981536865e-01
4.760000000000000000e+02 3.750497436523437500e+01 -1.782252311706542969e+01 4.992389678955078125e-01 2.434569597244262695e+00 8.801425695419311523e-01 2.398239225149154663e-01
4.770000000000000000e+02 3.744268417358398438e+01 -1.904406547546386719e+01 3.455604612827301025e-01 2.726253747940063477e+00 9.215442538261413574e-01 5.279466509819030762e-01
4.780000000000000000e+02 3.615796279907226562e+01 -2.321031570434570312e+01 4.167329967021942139e-01 4.107955455780029297e+00 1.357406497001647949e+00 1.006034851074218750e+00
4.790000000000000000e+02 3.724689102172851562e+01 -2.579282760620117188e+01 1.204640984535217285e+00 3.698499679565429688e+00 1.470942139625549316e+00 1.354537010192871094e+00
4.800000000000000000e+02 3.572801589965820312e+01 -2.725002479553222656e+01 1.340268611907958984e+00 3.793847560882568359e+00 1.540234804153442383e+00 1.662325501441955566e+00
4.810000000000000000e+02 3.636974334716796875e+01 -2.879618263244628906e+01 7.476423978805541992e-01 3.295449495315551758e+00 1.212927579879760742e+00 1.094163179397583008e+00
4.820000000000000000e+02 4.196606063842773438e+01 -3.232442474365234375e+01 -5.817481875419616699e-01 3.581830024719238281e+00 9.000245332717895508e-01 1.647992283105850220e-01
4.830000000000000000e+02 4.413907241821289062e+01 -3.710285949707031250e+01 -7.625740766525268555e-01 2.824879169464111328e+00 6.186915636062622070e-01 -2.918048799037933350e-01
4.840000000000000000e+02 4.625980377197265625e+01 -4.051851654052734375e+01 -5.177921652793884277e-01 2.267745256423950195e+00 5.249859094619750977e-01 -1.365268975496292114e-01
4.850000000000000000e+02 4.917860794067382812e+01 -3.850450515747070312e+01 -3.297290205955505371e-01 1.774144649505615234e+00 4.333246946334838867e-01 -4.434324502944946289e-01
4.860000000000000000e+02 5.303881835937500000e+01 -4.057566833496093750e+01 2.095530778169631958e-01 1.040266990661621094e+00 3.749460279941558838e-01 -2.122568637132644653e-01
4.870000000000000000e+02 5.401863098144531250e+01 -3.705055236816406250e+01 9.426052868366241455e-02 7.280395627021789551e-01 2.466900348663330078e-01 -5.880835652351379395e-01
4.880000000000000000e+02 5.431843566894531250e+01 -3.413942337036132812e+01 -3.537655770778656006e-01 4.176951646804809570e-01 1.917887292802333832e-02 -8.184196352958679199e-01
4.890000000000000000e+02 5.411505889892578125e+01 -2.974324417114257812e+01 -2.016582250595092773e+00 -2.579439990222454071e-02 -6.127129793167114258e-01 -5.980968102812767029e-02
4.900000000000000000e+02 5.027107620239257812e+01 -2.782322502136230469e+01 2.041863203048706055e-01 1.242619037628173828e+00 4.340416193008422852e-01 -7.181686758995056152e-01
4.910000000000000000e+02 5.247451400756835938e+01 -3.126275062561035156e+01 -1.013481855392456055e+00 6.768733859062194824e-01 -1.009825468063354492e-01 -8.294582962989807129e-01
4.920000000000000000e+02 4.550191497802734375e+01 -2.620899009704589844e+01 6.124113127589225769e-02 4.787646293640136719e+00 1.454666137695312500e+00 -1.287107467651367188e-01
4.930000000000000000e+02 4.235069656372070312e+01 -2.742507362365722656e+01 1.452959775924682617e-01 4.480399608612060547e+00 1.387708783149719238e+00 7.367026209831237793e-01
4.940000000000000000e+02 3.896372604370117188e+01 -2.864017677307128906e+01 3.757151067256927490e-01 3.794195413589477539e+00 1.250973224639892578e+00 9.242908954620361328e-01
4.950000000000000000e+02 3.554631042480468750e+01 -2.579888534545898438e+01 1.322787880897521973e+00 4.465618610382080078e+00 1.736521840095520020e+00 1.986885905265808105e+00
4.960000000000000000e+02 1.716326713562011719e+01 -1.226435756683349609e+01 2.300457507371902466e-01 8.933096379041671753e-02 9.581301361322402954e-02 -2.461466342210769653e-01
4.970000000000000000e+02 1.835533332824707031e+01 -1.278762626647949219e+01 4.904989302158355713e-01 1.672531366348266602e-01 1.973256170749664307e-01 -2.673379480838775635e-01
4.980000000000000000e+02 1.907429695129394531e+01 -1.090561866760253906e+01 6.670092046260833740e-02 1.531832814216613770e-01 6.596525758504867554e-02 -3.328293561935424805e-01
4.990000000000000000e+02 1.764067649841308594e+01 -1.135917663574218750e+01 4.563866928219795227e-02 1.378233730792999268e-01 5.503861233592033386e-02 -3.365542590618133545e-01
5.000000000000000000e+02 3.129393005371093750e+01 -1.501119518280029297e+01 1.935536384582519531e+00 7.546670734882354736e-02 6.033009290695190430e-01 -2.620401382446289062e-01
5.010000000000000000e+02 3.327030181884765625e+01 -1.570813846588134766e+01 1.604632258415222168e+00 1.768002957105636597e-01 5.344297289848327637e-01 -3.372556269168853760e-01
5.020000000000000000e+02 3.419873428344726562e+01 -1.649744987487792969e+01 6.451808214187622070e-01 9.024803340435028076e-02 2.206286638975143433e-01 -2.651871144771575928e-01
5.030000000000000000e+02 3.509188461303710938e+01 -1.733169746398925781e+01 2.001451849937438965e-01 3.344812393188476562e-01 1.603879332542419434e-01 -1.096232607960700989e-01
5.040000000000000000e+02 3.558457946777343750e+01 -1.630849456787109375e+01 9.841695427894592285e-01 7.329974174499511719e-01 5.151500701904296875e-01 -3.577476143836975098e-01
5.050000000000000000e+02 3.662763977050781250e+01 -1.535922718048095703e+01 1.186873078346252441e+00 1.198186039924621582e+00 7.155176997184753418e-01 -7.927139848470687866e-02
5.060000000000000000e+02 3.434963226318359375e+01 -2.777713584899902344e+01 1.620028018951416016e+00 3.278001308441162109e+00 1.469408750534057617e+00 1.971753835678100586e+00
5.070000000000000000e+02 3.417547225952148438e+01 -3.022847366333007812e+01 5.875722765922546387e-01 2.847024202346801758e+00 1.030378937721252441e+00 1.278958797454833984e+00
5.080000000000000000e+02 3.798318099975585938e+01 -3.240963745117187500e+01 -3.134488463401794434e-01 3.287704467773437500e+00 8.922766447067260742e-01 5.868005156517028809e-01
5.090000000000000000e+02 4.105513000488281250e+01 -3.786276245117187500e+01 -7.457662820816040039e-01 2.966107130050659180e+00 6.661022305488586426e-01 1.374630630016326904e-02
5.100000000000000000e+02 2.516591072082519531e+01 -3.313523483276367188e+01 2.862507700920104980e-01 1.975795030593872070e-01 1.451490819454193115e-01 4.540936648845672607e-02
5.110000000000000000e+02 2.241982269287109375e+01 -3.417080688476562500e+01 2.366117238998413086e-01 2.187558859586715698e-01 1.366102844476699829e-01 -1.279141157865524292e-01
5.120000000000000000e+02 2.277468490600585938e+01 -3.867070770263671875e+01 2.203216403722763062e-01 4.854943454265594482e-01 2.117448002099990845e-01 -1.889319531619548798e-02
5.130000000000000000e+02 2.022062873840332031e+01 -3.157908630371093750e+01 1.650361269712448120e-01 2.194865494966506958e-01 1.153568029403686523e-01 -2.327356487512588501e-01
5.140000000000000000e+02 1.811838912963867188e+01 -2.855776214599609375e+01 3.871971070766448975e-01 2.979664802551269531e-01 2.055490761995315552e-01 -3.103384375572204590e-01
5.150000000000000000e+02 1.619941329956054688e+01 -2.650407218933105469e+01 3.827702403068542480e-01 3.849353194236755371e-01 2.303116619586944580e-01 -3.737719655036926270e-01
5.160000000000000000e+02 1.435800743103027344e+01 -2.457752609252929688e+01 4.005738496780395508e-01 4.270841479301452637e-01 2.482974082231521606e-01 -4.002638459205627441e-01
5.170000000000000000e+02 1.187203502655029297e+01 -2.386251449584960938e+01 2.794379591941833496e-01 2.649574279785156250e-01 1.633186042308807373e-01 -2.211495339870452881e-01
5.180000000000000000e+02 1.129788589477539062e+01 -2.219864845275878906e+01 2.654876410961151123e-01 3.051762878894805908e-01 1.711991727352142334e-01 -2.699974179267883301e-01
5.190000000000000000e+02 9.849982261657714844e+00 -2.071754646301269531e+01 1.794276982545852661e-01 -5.562736466526985168e-02 3.714010119438171387e-02 -3.029968440532684326e-01
5.200000000000000000e+02 1.148338890075683594e+01 -1.816099548339843750e+01 1.309671998023986816e-02 -7.456578314304351807e-02 -1.844071783125400543e-02 -1.076874062418937683e-01
5.210000000000000000e+02 1.152791690826416016e+01 -1.688015747070312500e+01 -1.069496646523475647e-01 -3.324679136276245117e-01 -1.318252682685852051e-01 -1.843839287757873535e-01
5.220000000000000000e+02 1.113762664794921875e+01 -1.558985900878906250e+01 -2.136237472295761108e-01 -3.391827344894409180e-01 -1.658419519662857056e-01 -2.465582489967346191e-01
5.230000000000000000e+02 9.617872238159179688e+00 -1.108096027374267578e+01 -1.468668282032012939e-01 -1.742603629827499390e-01 -9.633816033601760864e-02 -1.614412218332290649e-01
5.240000000000000000e+02 1.070530891418457031e+01 -1.274249839782714844e+01 -2.256218791007995605e-01 -2.193596959114074707e-01 -1.334944814443588257e-01 -1.843956559896469116e-01
5.250000000000000000e+02 1.038270378112792969e+01 -1.436502647399902344e+01 -2.569237351417541504e-01 -2.063780128955841064e-01 -1.389905214309692383e-01 -2.309607118368148804e-01
5.260000000000000000e+02 5.049156665802001953e+00 -1.204115009307861328e+01 -7.578091323375701904e-02 -1.337739378213882446e-01 -6.286645680665969849e-02 -1.427841186523437500e-01
5.270000000000000000e+02 1.222856616973876953e+01 -1.490821075439453125e+01 -2.639860510826110840e-01 -4.762476086616516113e-01 -2.220700979232788086e-01 -3.107321858406066895e-01
5.280000000000000000e+02 1.329843997955322266e+01 -1.218304157257080078e+01 -2.008607238531112671e-01 -3.283724784851074219e-01 -1.587699651718139648e-01 -2.344928830862045288e-01
5.290000000000000000e+02 1.233894157409667969e+01 -1.300513648986816406e+01 -2.712589800357818604e-01 -3.280586600303649902e-01 -1.797952800989151001e-01 -2.134897410869598389e-01
5.300000000000000000e+02 1.602620315551757812e+01 -1.159349155426025391e+01 -4.005891457200050354e-02 -7.414694130420684814e-02 -3.426175564527511597e-02 -3.103564679622650146e-01
5.310000000000000000e+02 6.757906341552734375e+01 2.036440467834472656e+01 1.140038967132568359e+00 8.470357894897460938e+00 2.883119106292724609e+00 -2.927359104156494141e+00
5.320000000000000000e+02 7.101934814453125000e+01 1.990291023254394531e+01 4.273983240127563477e-01 9.293267250061035156e+00 2.916199684143066406e+00 8.456977009773254395e-01
5.330000000000000000e+02 7.218232727050781250e+01 2.024835205078125000e+01 2.735913395881652832e-01 8.940209388732910156e+00 2.764140129089355469e+00 1.352805018424987793e+00
5.340000000000000000e+02 7.396291351318359375e+01 2.274938201904296875e+01 -4.590157866477966309e-01 8.214174270629882812e+00 2.326547384262084961e+00 1.083977460861206055e+00
5.350000000000000000e+02 7.821391296386718750e+01 1.944091987609863281e+01 1.118382215499877930e-01 6.946991443634033203e+00 2.117648839950561523e+00 6.473428606986999512e-01
5.360000000000000000e+02 7.936205291748046875e+01 2.228373718261718750e+01 -4.322792217135429382e-02 7.718596458435058594e+00 2.302610635757446289e+00 2.815953791141510010e-01
5.370000000000000000e+02 7.934170532226562500e+01 2.368478393554687500e+01 4.015223123133182526e-03 8.235530853271484375e+00 2.471863746643066406e+00 2.375024706125259399e-01
5.380000000000000000e+02 7.816990661621093750e+01 2.082407760620117188e+01 -3.205835074186325073e-02 7.379499435424804688e+00 2.204232215881347656e+00 7.259340882301330566e-01
5.390000000000000000e+02 7.933028411865234375e+01 2.786270904541015625e+01 -2.745364420115947723e-02 9.256208419799804688e+00 2.768626451492309570e+00 9.785393625497817993e-02
5.400000000000000000e+02 7.384120178222656250e+01 3.170362091064453125e+01 -2.664700150489807129e-01 7.303202629089355469e+00 2.111019849777221680e+00 -1.888160854578018188e-01
5.410000000000000000e+02 6.830949401855468750e+01 3.296590042114257812e+01 -5.066689476370811462e-02 4.947526931762695312e+00 1.469058036804199219e+00 -5.832042694091796875e-01
5.420000000000000000e+02 6.754035186767578125e+01 3.865858078002929688e+01 4.507727921009063721e-01 4.608241081237792969e+00 1.517704248428344727e+00 -2.008212059736251831e-01
5.430000000000000000e+02 6.748501586914062500e+01 4.127111434936523438e+01 5.074869394302368164e-01 4.584887981414794922e+00 1.527712464332580566e+00 -6.157080456614494324e-02
5.440000000000000000e+02 6.284248352050781250e+01 4.121867752075195312e+01 6.717876195907592773e-01 3.156167984008789062e+00 1.148386597633361816e+00 -2.171332947909832001e-02
5.450000000000000000e+02 5.824773025512695312e+01 4.100127029418945312e+01 6.058452725410461426e-01 2.334667444229125977e+00 8.821538686752319336e-01 4.408732056617736816e-02
5.460000000000000000e+02 5.650883102416992188e+01 3.716791915893554688e+01 4.223382174968719482e-01 2.089639186859130859e+00 7.535932064056396484e-01 3.469176888465881348e-01
5.470000000000000000e+02 5.598614883422851562e+01 3.328141021728515625e+01 1.774439513683319092e-01 1.854105591773986816e+00 6.094648838043212891e-01 6.457024812698364258e-01
5.480000000000000000e+02 5.561336135864257812e+01 3.002294540405273438e+01 -2.174592167139053345e-01 1.626623630523681641e+00 4.227493107318878174e-01 1.028028845787048340e+00
5.490000000000000000e+02 5.603595352172851562e+01 2.687446784973144531e+01 -7.851092219352722168e-01 1.262123346328735352e+00 1.431042551994323730e-01 1.219967246055603027e+00
5.500000000000000000e+02 5.375363540649414062e+01 2.380659675598144531e+01 -1.378453612327575684e+00 2.183199405670166016e+00 2.414237111806869507e-01 1.415090322494506836e+00
5.510000000000000000e+02 5.527303314208984375e+01 2.394152832031250000e+01 -1.258814573287963867e+00 1.253425478935241699e+00 -1.616702880710363388e-03 1.280029177665710449e+00
5.520000000000000000e+02 5.821628570556640625e+01 2.236578750610351562e+01 -3.409205675125122070e+00 -8.529569208621978760e-02 -1.048350453376770020e+00 -2.367244064807891846e-01
5.530000000000000000e+02 6.244454193115234375e+01 2.239199447631835938e+01 -4.545757293701171875e+00 2.504769153892993927e-02 -1.356212854385375977e+00 5.606104135513305664e-01
5.540000000000000000e+02 5.966519546508789062e+01 2.394114494323730469e+01 -2.590827703475952148e+00 -3.077352046966552734e-01 -8.695688843727111816e-01 4.438949227333068848e-01
5.550000000000000000e+02 5.793502044677734375e+01 2.789522171020507812e+01 -4.652741551399230957e-01 9.902880787849426270e-01 1.575041711330413818e-01 9.105960726737976074e-01
5.560000000000000000e+02 5.976047134399414062e+01 3.195214462280273438e+01 3.154172003269195557e-01 1.782041192054748535e+00 6.292374730110168457e-01 2.780545949935913086e-01
5.570000000000000000e+02 6.126397323608398438e+01 3.515637969970703125e+01 5.317974686622619629e-01 2.501928567886352539e+00 9.101178646087646484e-01 3.177385777235031128e-02
5.580000000000000000e+02 6.362250518798828125e+01 3.851392745971679688e+01 6.120786666870117188e-01 3.310209274291992188e+00 1.176686406135559082e+00 -9.947138279676437378e-02
5.590000000000000000e+02 5.979670333862304688e+01 3.802947998046875000e+01 5.764471888542175293e-01 2.452047586441040039e+00 9.085484147071838379e-01 1.077054217457771301e-01
5.600000000000000000e+02 6.525054931640625000e+01 2.178639411926269531e+01 -2.590822696685791016e+00 6.958434581756591797e-01 -5.684937834739685059e-01 -3.799441084265708923e-02
5.610000000000000000e+02 6.653337097167968750e+01 2.120147323608398438e+01 -4.974017739295959473e-01 2.332164764404296875e+00 5.504289269447326660e-01 -1.438055753707885742e+00
5.620000000000000000e+02 6.548882293701171875e+01 2.325843811035156250e+01 -1.768497347831726074e+00 1.964637279510498047e+00 5.884198844432830811e-02 -1.346593976020812988e+00
5.630000000000000000e+02 6.401173400878906250e+01 2.353525543212890625e+01 -2.187055110931396484e+00 7.571088075637817383e-01 -4.289838671684265137e-01 -5.579202175140380859e-01
5.640000000000000000e+02 6.254036712646484375e+01 2.369283866882324219e+01 -2.650171279907226562e+00 -4.924027249217033386e-02 -8.098235130310058594e-01 -1.092405840754508972e-01
5.650000000000000000e+02 6.809884643554687500e+01 1.279242610931396484e+01 1.494810700416564941e+00 1.279888343811035156e+01 4.288108348846435547e+00 3.042137861251831055e+00
5.660000000000000000e+02 6.840914154052734375e+01 1.142374515533447266e+01 1.819923162460327148e+00 1.074747753143310547e+01 3.770220279693603516e+00 2.380420446395874023e+00
5.670000000000000000e+02 7.124440765380859375e+01 6.051003932952880859e+00 -2.784301638603210449e-01 7.420612812042236328e+00 2.142654657363891602e+00 -8.478001505136489868e-02
5.680000000000000000e+02 7.576908111572265625e+01 6.866681575775146484e+00 -6.059011071920394897e-02 7.226229190826416016e+00 2.149691820144653320e+00 -5.771086812019348145e-01
5.690000000000000000e+02 6.702849578857421875e+01 8.715833663940429688e+00 8.610118031501770020e-01 7.276697158813476562e+00 2.441312789916992188e+00 2.359109878540039062e+00
5.700000000000000000e+02 6.592266082763671875e+01 6.006775856018066406e+00 4.109189510345458984e-01 4.739271640777587891e+00 1.545057177543640137e+00 1.594719171524047852e+00
5.710000000000000000e+02 6.766722869873046875e+01 4.271744728088378906e+00 -1.191119253635406494e-01 5.765410423278808594e+00 1.693889617919921875e+00 7.618542313575744629e-01
5.720000000000000000e+02 6.016941833496093750e+01 4.004787445068359375e+00 7.454077005386352539e-01 5.827867984771728516e-01 3.984583616256713867e-01 5.727969408035278320e-01
5.730000000000000000e+02 5.803263473510742188e+01 2.105051994323730469e+00 1.716332674026489258e+00 6.302516460418701172e-01 7.039752602577209473e-01 8.846117258071899414e-01
5.740000000000000000e+02 5.555861282348632812e+01 6.809871196746826172e-01 4.541048526763916016e+00 6.456686258316040039e-01 1.556015133857727051e+00 1.295434236526489258e+00
5.750000000000000000e+02 5.749440765380859375e+01 3.579622805118560791e-01 3.179021358489990234e+00 1.946369409561157227e-01 1.012097477912902832e+00 4.016802608966827393e-01
5.760000000000000000e+02 5.428326416015625000e+01 1.810574829578399658e-01 5.890777111053466797e+00 3.887770473957061768e-01 1.883866190910339355e+00 1.182102560997009277e+00
5.770000000000000000e+02 5.499672317504882812e+01 -2.239269971847534180e+00 3.448584556579589844e+00 4.221165180206298828e-01 1.161210298538208008e+00 -7.160288095474243164e-01
5.780000000000000000e+02 5.437761688232421875e+01 -3.030828475952148438e+00 2.981656789779663086e+00 5.488183498382568359e-01 1.059142589569091797e+00 -9.351513981819152832e-01
5.790000000000000000e+02 5.506296920776367188e+01 -7.704916000366210938e-01 4.895456790924072266e+00 2.798715531826019287e-01 1.552598476409912109e+00 -2.478189021348953247e-02
5.800000000000000000e+02 5.225165557861328125e+01 -9.007464051246643066e-01 7.007999897003173828e+00 1.634726762771606445e+00 2.592818021774291992e+00 -1.117006182670593262e+00
5.810000000000000000e+02 5.103844451904296875e+01 -7.307569682598114014e-02 8.884116172790527344e+00 2.860754251480102539e+00 3.523461103439331055e+00 -2.807067871093750000e+00
5.820000000000000000e+02 5.174400329589843750e+01 -1.886287450790405273e+00 4.334761142730712891e+00 3.184468984603881836e+00 2.255769014358520508e+00 -1.428490757942199707e+00
5.830000000000000000e+02 5.124775695800781250e+01 -2.748855352401733398e+00 2.637868642807006836e+00 3.857527494430541992e+00 1.948618769645690918e+00 -8.288404345512390137e-01
5.840000000000000000e+02 4.198935699462890625e+01 1.389414596557617188e+01 9.716459512710571289e-01 2.935990095138549805e+00 1.172290802001953125e+00 -1.506730079650878906e+00
5.850000000000000000e+02 3.978227996826171875e+01 1.301934146881103516e+01 8.570775389671325684e-01 1.434023141860961914e+00 6.873301863670349121e-01 -1.035646080970764160e+00
5.860000000000000000e+02 3.754975128173828125e+01 1.736303710937500000e+01 6.292845606803894043e-01 1.232298731803894043e+00 5.584749579429626465e-01 -8.926578760147094727e-01
5.870000000000000000e+02 3.524008178710937500e+01 1.930578804016113281e+01 3.780891895294189453e-01 8.622916340827941895e-01 3.721142411231994629e-01 -6.384621858596801758e-01
5.880000000000000000e+02 3.267661285400390625e+01 2.098015594482421875e+01 1.426737606525421143e-01 5.336971879005432129e-01 2.029112875461578369e-01 -4.206465780735015869e-01
5.890000000000000000e+02 2.991288948059082031e+01 2.238338088989257812e+01 -3.569335490465164185e-02 2.639551162719726562e-01 6.847853213548660278e-02 -2.620096206665039062e-01
5.900000000000000000e+02 2.628009223937988281e+01 2.161120414733886719e+01 -3.673496544361114502e-01 1.504835113883018494e-02 -1.056903973221778870e-01 1.280549354851245880e-02
5.910000000000000000e+02 2.335820770263671875e+01 2.182604980468750000e+01 -5.294648408889770508e-01 -3.137848153710365295e-02 -1.682530045509338379e-01 1.393236219882965088e-02
5.920000000000000000e+02 2.056231498718261719e+01 2.130843353271484375e+01 -3.294203281402587891e-01 -6.634746491909027100e-02 -1.187303364276885986e-01 -9.451371431350708008e-02
5.930000000000000000e+02 2.190646934509277344e+01 2.176371383666992188e+01 -5.185745358467102051e-01 -6.752882897853851318e-02 -1.758310049772262573e-01 -6.131787970662117004e-02
5.940000000000000000e+02 4.857938385009765625e+01 9.331000328063964844e+00 4.345946609973907471e-01 1.607844924926757812e+01 4.953913211822509766e+00 1.966899752616882324e+00
5.950000000000000000e+02 4.762123107910156250e+01 1.354595756530761719e+01 5.218427777290344238e-01 8.837619781494140625e+00 2.807838916778564453e+00 3.477748334407806396e-01
5.960000000000000000e+02 4.231178665161132812e+01 1.520291614532470703e+01 7.890647053718566895e-01 3.386960029602050781e+00 1.252807378768920898e+00 -1.473112940788269043e+00
5.970000000000000000e+02 3.981110382080078125e+01 2.019099426269531250e+01 2.143692523241043091e-01 2.287002325057983398e+00 7.504114508628845215e-01 -1.046635150909423828e+00
5.980000000000000000e+02 3.567526245117187500e+01 2.335628318786621094e+01 5.269448459148406982e-02 1.323209404945373535e+00 4.127711653709411621e-01 -6.977830529212951660e-01
5.990000000000000000e+02 3.147200775146484375e+01 2.766551780700683594e+01 7.953025400638580322e-03 8.025937080383300781e-01 2.431640177965164185e-01 -4.133465290069580078e-01
6.000000000000000000e+02 2.930242538452148438e+01 3.067848205566406250e+01 3.311943262815475464e-02 6.505048871040344238e-01 2.050872892141342163e-01 -2.778322994709014893e-01
6.010000000000000000e+02 2.673084640502929688e+01 3.447300720214843750e+01 7.059964537620544434e-02 5.610809922218322754e-01 1.895041912794113159e-01 -1.374121010303497314e-01
6.020000000000000000e+02 2.362199020385742188e+01 3.810488510131835938e+01 1.017775908112525940e-01 3.980919420719146729e-01 1.499608606100082397e-01 -3.808705508708953857e-02
6.030000000000000000e+02 2.051135635375976562e+01 3.940002441406250000e+01 1.231267377734184265e-01 2.443343847990036011e-01 1.102383360266685486e-01 -3.338672977406531572e-04
6.040000000000000000e+02 1.693859863281250000e+01 4.072494125366210938e+01 1.077335700392723083e-01 1.289515495300292969e-01 7.100553810596466064e-02 7.246606983244419098e-03
6.050000000000000000e+02 1.246987247467041016e+01 4.101251983642578125e+01 7.569856941699981689e-02 1.530940365046262741e-02 2.730239182710647583e-02 1.323160715401172638e-02
6.060000000000000000e+02 1.235189533233642578e+01 3.802741241455078125e+01 6.847512722015380859e-02 1.693801209330558777e-02 2.562394179403781891e-02 3.681693598628044128e-02
6.070000000000000000e+02 1.206526660919189453e+01 3.514145660400390625e+01 5.484661459922790527e-02 7.512213662266731262e-03 1.870764791965484619e-02 5.992383137345314026e-02
6.080000000000000000e+02 1.310078239440917969e+01 2.795941543579101562e+01 -1.730037666857242584e-02 2.057390846312046051e-02 9.820597479119896889e-04 9.074770659208297729e-02
6.090000000000000000e+02 1.158127498626708984e+01 2.621765518188476562e+01 -3.755901753902435303e-02 1.732875593006610870e-02 -6.069078575819730759e-03 7.917131483554840088e-02
6.100000000000000000e+02 1.207365703582763672e+01 2.316988945007324219e+01 -6.361740082502365112e-02 2.567544020712375641e-02 -1.138258725404739380e-02 5.180280655622482300e-02
6.110000000000000000e+02 1.112843990325927734e+01 2.016452980041503906e+01 -5.304183438420295715e-02 1.588019728660583496e-02 -1.114849094301462173e-02 2.342822216451168060e-02
6.120000000000000000e+02 1.298866271972656250e+01 1.616903114318847656e+01 -2.967868000268936157e-02 6.484892801381647587e-04 -8.709057234227657318e-03 -5.736981984227895737e-03
6.130000000000000000e+02 1.239920616149902344e+01 1.192531871795654297e+01 -5.280642304569482803e-03 -5.203888751566410065e-03 -3.145359223708510399e-03 -2.032514195889234543e-03
6.140000000000000000e+02 1.475241756439208984e+01 1.042136287689208984e+01 2.215194253949448466e-04 -8.821775554679334164e-04 -1.981974492082372308e-04 2.661334816366434097e-03
6.150000000000000000e+02 1.140029621124267578e+01 5.830936431884765625e+00 1.669173361733555794e-03 -2.183821052312850952e-03 -1.543943508295342326e-04 6.499500595964491367e-04
6.160000000000000000e+02 1.211978340148925781e+01 1.482852220535278320e+00 2.090702066197991371e-03 -2.220554451923817396e-04 5.605940241366624832e-04 5.300258635543286800e-04
6.170000000000000000e+02 1.297625732421875000e+01 1.996121764183044434e+00 1.822056830860674381e-03 -3.091464750468730927e-04 4.538731009233742952e-04 9.653691668063402176e-04
6.180000000000000000e+02 1.363074207305908203e+01 1.207079291343688965e+00 1.726448186673223972e-03 -2.208028745371848345e-04 4.516935732681304216e-04 6.526338402181863785e-04
6.190000000000000000e+02 1.580699157714843750e+01 8.072652220726013184e-01 5.278568714857101440e-04 -9.547451190883293748e-05 1.297147100558504462e-04 4.370784736238420010e-04
6.200000000000000000e+02 1.604134941101074219e+01 2.222364664077758789e+00 2.857349172700196505e-04 6.056451456970535219e-05 1.038898262777365744e-04 9.204694651998579502e-04
6.210000000000000000e+02 1.547758102416992188e+01 8.156798362731933594e+00 1.838759053498506546e-03 5.940039991401135921e-04 7.298288983292877674e-04 3.219619859009981155e-03
6.220000000000000000e+02 1.518768310546875000e+01 9.246901512145996094e+00 -1.550630782730877399e-03 -1.248589367605745792e-03 -8.397660567425191402e-04 8.023917325772345066e-04
6.230000000000000000e+02 1.713848876953125000e+01 1.371021175384521484e+01 2.590092597529292107e-03 2.945250831544399261e-03 1.660602982155978680e-03 8.342698565684258938e-04
6.240000000000000000e+02 1.713158226013183594e+01 1.659408569335937500e+01 -7.604694459587335587e-03 -7.569875102490186691e-03 -4.552370868623256683e-03 -1.230166107416152954e-02
6.250000000000000000e+02 1.405006790161132812e+01 2.055796432495117188e+01 -8.606579154729843140e-02 2.990826964378356934e-02 -1.684725657105445862e-02 1.561826188117265701e-02
6.260000000000000000e+02 1.511766147613525391e+01 2.367396736145019531e+01 -1.021295413374900818e-01 4.283506050705909729e-02 -1.778834313154220581e-02 5.974430963397026062e-02
6.270000000000000000e+02 1.441514968872070312e+01 2.639498519897460938e+01 -4.933666437864303589e-02 2.994451299309730530e-02 -5.817644763737916946e-03 8.867184072732925415e-02
6.280000000000000000e+02 1.506874465942382812e+01 3.449374008178710938e+01 6.698810309171676636e-02 5.700783804059028625e-02 3.719878196716308594e-02 5.579022318124771118e-02
6.290000000000000000e+02 1.596400547027587891e+01 3.739984512329101562e+01 9.416998922824859619e-02 8.572582155466079712e-02 5.396874621510505676e-02 3.389883786439895630e-02
6.300000000000000000e+02 4.902347183227539062e+01 1.210134696960449219e+01 4.552765786647796631e-01 1.181182193756103516e+01 3.680129766464233398e+00 1.992256402969360352e+00
6.310000000000000000e+02 4.587581634521484375e+01 1.454999637603759766e+01 5.545803904533386230e-01 6.716653347015380859e+00 2.181370019912719727e+00 -7.946938872337341309e-01
6.320000000000000000e+02 4.333671569824218750e+01 1.855194664001464844e+01 2.070335447788238525e-01 3.742800712585449219e+00 1.184950232505798340e+00 -1.135299324989318848e+00
6.330000000000000000e+02 3.903982543945312500e+01 2.636488723754882812e+01 -2.664781212806701660e-01 2.105478525161743164e+00 5.517001748085021973e-01 -6.265310049057006836e-01
6.340000000000000000e+02 3.596934127807617188e+01 2.701110076904296875e+01 -1.176252067089080811e-01 1.524214386940002441e+00 4.219767749309539795e-01 -5.961616039276123047e-01
6.350000000000000000e+02 3.205917739868164062e+01 2.982578468322753906e+01 -1.888513751327991486e-02 9.540836215019226074e-01 2.805595397949218750e-01 -3.877713382244110107e-01
6.360000000000000000e+02 3.014652442932128906e+01 3.355255889892578125e+01 9.514402598142623901e-03 8.206121921539306641e-01 2.490379810333251953e-01 -2.309819161891937256e-01
6.370000000000000000e+02 2.736107063293457031e+01 3.762312316894531250e+01 5.524139478802680969e-02 6.406980156898498535e-01 2.087818235158920288e-01 -7.976280152797698975e-02
6.380000000000000000e+02 2.320271492004394531e+01 4.100776672363281250e+01 1.030495613813400269e-01 3.770576119422912598e-01 1.440321505069732666e-01 -7.239104248583316803e-03
6.390000000000000000e+02 5.251923751831054688e+01 2.166757011413574219e+01 -3.026719987392425537e-01 2.929709672927856445e+00 7.881113290786743164e-01 1.258738875389099121e+00
6.400000000000000000e+02 5.403207015991210938e+01 2.164465713500976562e+01 -4.967361092567443848e-01 1.417058110237121582e+00 2.760966122150421143e-01 9.511990547180175781e-01
6.410000000000000000e+02 5.538767242431640625e+01 2.196410179138183594e+01 -1.619586944580078125e+00 3.227617740631103516e-01 -3.890475630760192871e-01 2.921915352344512939e-01
6.420000000000000000e+02 5.374752426147460938e+01 3.182664299011230469e+01 -2.172465920448303223e-01 2.007664203643798828e+00 5.371252894401550293e-01 8.808571696281433105e-01
6.430000000000000000e+02 5.396617507934570312e+01 4.058053970336914062e+01 3.039803802967071533e-01 2.076095104217529297e+00 7.140226364135742188e-01 1.240438595414161682e-01
6.440000000000000000e+02 5.116508865356445312e+01 3.888313293457031250e+01 6.565704941749572754e-02 2.082236766815185547e+00 6.443681716918945312e-01 2.367641925811767578e-01
6.450000000000000000e+02 4.979722595214843750e+01 3.623168182373046875e+01 -1.622311174869537354e-01 2.164773702621459961e+00 6.007627844810485840e-01 3.771698474884033203e-01
6.460000000000000000e+02 4.936050033569335938e+01 3.357189559936523438e+01 -3.816655874252319336e-01 2.305684089660644531e+00 5.772055983543395996e-01 5.735165476799011230e-01
6.470000000000000000e+02 4.914257812500000000e+01 3.056953430175781250e+01 -7.007226347923278809e-01 2.664688587188720703e+00 5.891898274421691895e-01 6.291638612747192383e-01
6.480000000000000000e+02 5.120313644409179688e+01 2.357167816162109375e+01 -1.083437085151672363e+00 3.585308551788330078e+00 7.505614161491394043e-01 9.607542157173156738e-01
6.490000000000000000e+02 4.943172073364257812e+01 1.827526092529296875e+01 5.065929293632507324e-01 5.924025535583496094e+00 1.929185509681701660e+00 1.015281558036804199e+00
6.500000000000000000e+02 5.028905105590820312e+01 1.635093879699707031e+01 8.835045695304870605e-01 7.413453102111816406e+00 2.489087343215942383e+00 2.249128103256225586e+00
6.510000000000000000e+02 4.926180648803710938e+01 1.354469966888427734e+01 7.230688333511352539e-01 1.013160705566406250e+01 3.256402730941772461e+00 2.036464691162109375e+00
6.520000000000000000e+02 4.284927368164062500e+01 4.967514514923095703e+00 6.117503046989440918e-01 -4.389106035232543945e-01 5.185191333293914795e-02 1.207314338535070419e-02
6.530000000000000000e+02 4.272737884521484375e+01 4.225980281829833984e+00 3.404935300350189209e-01 -1.042400836944580078e+00 -2.105721980333328247e-01 4.269940257072448730e-01
6.540000000000000000e+02 4.338344192504882812e+01 7.998873710632324219e+00 5.650164484977722168e-01 2.940169572830200195e+00 1.051555752754211426e+00 -1.686820030212402344e+00
6.550000000000000000e+02 4.239044570922851562e+01 6.340966224670410156e+00 3.513948246836662292e-02 -1.761020779609680176e+00 -5.177643895149230957e-01 -2.598131299018859863e-01
6.560000000000000000e+02 4.699366378784179688e+01 3.507539033889770508e+00 -2.052930116653442383e+00 2.282482528686523438e+01 6.231568336486816406e+00 -3.498085498809814453e+00
6.570000000000000000e+02 4.741527175903320312e+01 3.432634592056274414e+00 -1.586140632629394531e+00 2.324016380310058594e+01 6.496206760406494141e+00 1.665552705526351929e-01
6.580000000000000000e+02 4.895003890991210938e+01 2.184257030487060547e+00 3.408191204071044922e+00 8.072991371154785156e+00 3.444354772567749023e+00 -2.264243841171264648e+00
6.590000000000000000e+02 4.850714111328125000e+01 1.982842683792114258e+00 7.461237907409667969e+00 1.220570468902587891e+01 5.900082588195800781e+00 -1.872641682624816895e+00
6.600000000000000000e+02 4.817712020874023438e+01 4.113243222236633301e-01 4.235013961791992188e+00 1.518838405609130859e+01 5.827019214630126953e+00 -5.701262474060058594e+00
6.610000000000000000e+02 4.630667877197265625e+01 9.750518202781677246e-02 2.312545776367187500e+00 1.169195175170898438e+01 4.201349258422851562e+00 5.978862762451171875e+00
6.620000000000000000e+02 4.389297485351562500e+01 4.077207148075103760e-01 1.813135027885437012e+00 9.248936772346496582e-01 8.214086294174194336e-01 9.939991831779479980e-01
6.630000000000000000e+02 4.322531127929687500e+01 4.100831449031829834e-01 1.032256364822387695e+00 5.257803797721862793e-01 4.674110412597656250e-01 4.043735861778259277e-01
6.640000000000000000e+02 4.172834014892578125e+01 -5.707506537437438965e-01 1.074318289756774902e-01 -1.126147359609603882e-01 -1.554872025735676289e-03 2.444814741611480713e-01
6.650000000000000000e+02 4.041753387451171875e+01 -2.328152656555175781e+00 -9.845008254051208496e-01 -2.278725244104862213e-02 -3.021864295005798340e-01 -2.707197368144989014e-01
6.660000000000000000e+02 4.340913772583007812e+01 -5.591295242309570312e+00 -1.485720038414001465e+00 4.941111564636230469e+00 1.036617398262023926e+00 2.072545528411865234e+00
6.670000000000000000e+02 4.712819290161132812e+01 -6.890755176544189453e+00 -2.521111249923706055e+00 7.293400764465332031e+00 1.431686878204345703e+00 2.193522214889526367e+00
6.680000000000000000e+02 4.005530929565429688e+01 -4.803094387054443359e+00 -1.636224031448364258e+00 1.452045798301696777e+00 -5.525346845388412476e-02 7.052167057991027832e-01
6.690000000000000000e+02 4.014845657348632812e+01 -5.977259159088134766e+00 -1.229325532913208008e+00 1.969304919242858887e+00 2.219938188791275024e-01 8.536679148674011230e-01
6.700000000000000000e+02 3.906821060180664062e+01 -6.018956184387207031e+00 -1.398691654205322266e+00 1.216966629028320312e+00 -5.451748892664909363e-02 4.702791571617126465e-01
6.710000000000000000e+02 4.263723754882812500e+01 -6.957711696624755859e+00 -1.334521174430847168e+00 4.605559825897216797e+00 9.813115596771240234e-01 1.636006474494934082e+00
6.720000000000000000e+02 2.897318267822265625e+01 -5.006265640258789062e+00 -2.518637895584106445e+00 -5.245309472084045410e-01 -9.129506349563598633e-01 6.689253449440002441e-01
6.730000000000000000e+02 2.801294326782226562e+01 -4.242359161376953125e+00 -1.152525186538696289e+00 -3.428320586681365967e-01 -4.486071765422821045e-01 6.593506336212158203e-01
6.740000000000000000e+02 2.587356185913085938e+01 -2.924732685089111328e+00 -6.701526641845703125e-01 4.748025909066200256e-02 -1.868017315864562988e-01 2.611671984195709229e-01
6.750000000000000000e+02 2.496515464782714844e+01 -3.025543451309204102e+00 -6.998333334922790527e-01 1.089394092559814453e-01 -1.772681772708892822e-01 1.799610406160354614e-01
6.760000000000000000e+02 2.152732467651367188e+01 -4.143104553222656250e+00 -6.686040759086608887e-01 7.572244107723236084e-02 -1.778644919395446777e-01 -4.706969857215881348e-02
6.770000000000000000e+02 2.151040458679199219e+01 -4.879276275634765625e+00 -6.350405216217041016e-01 1.195443049073219299e-01 -1.546488702297210693e-01 -9.554617106914520264e-02
6.780000000000000000e+02 2.238288497924804688e+01 -4.824944019317626953e+00 -7.149783372879028320e-01 1.512406915426254272e-01 -1.691212803125381470e-01 -4.330163821578025818e-02
6.790000000000000000e+02 2.782914352416992188e+01 -7.635329246520996094e+00 -1.130721092224121094e+00 -1.253723050467669964e-03 -3.395924568176269531e-01 -4.491952657699584961e-01
6.800000000000000000e+02 2.418545341491699219e+01 -6.247224807739257812e+00 -8.499408960342407227e-01 2.653709352016448975e-01 -1.753709912300109863e-01 -1.786249279975891113e-01
6.810000000000000000e+02 2.877481460571289062e+01 -6.877772331237792969e+00 -1.433741927146911621e+00 -2.419971376657485962e-01 -5.027217268943786621e-01 -3.647370636463165283e-01
6.820000000000000000e+02 3.456599044799804688e+01 -6.260879516601562500e+00 -2.272569894790649414e+00 -2.469560503959655762e-01 -7.558577656745910645e-01 -4.432392418384552002e-01
6.830000000000000000e+02 3.559619903564453125e+01 -7.118743419647216797e+00 -1.337385654449462891e+00 -2.834784984588623047e-02 -4.097200334072113037e-01 -2.093243002891540527e-01
6.840000000000000000e+02 3.669509124755859375e+01 -5.213229179382324219e+00 -2.450550556182861328e+00 -3.097117319703102112e-02 -7.444565296173095703e-01 -6.460011601448059082e-01
6.850000000000000000e+02 3.633580780029296875e+01 -4.234311580657958984e+00 -3.301529645919799805e+00 -2.676384747028350830e-01 -1.070750474929809570e+00 -9.185563921928405762e-01
6.860000000000000000e+02 3.885603332519531250e+01 -3.548681259155273438e+00 -2.604408979415893555e+00 -2.126059830188751221e-01 -8.451045155525207520e-01 -7.041491270065307617e-01
6.870000000000000000e+02 3.097272491455078125e+01 -5.556620597839355469e+00 -3.573734998703002930e+00 -3.041237294673919678e-01 -1.163357615470886230e+00 1.038587279617786407e-02
6.880000000000000000e+02 2.072768592834472656e+01 -3.424510002136230469e+00 -6.716215014457702637e-01 2.066015638411045074e-02 -1.952884048223495483e-01 -5.815044790506362915e-02
6.890000000000000000e+02 1.822252464294433594e+01 -3.999237775802612305e+00 -4.855115413665771484e-01 2.370165660977363586e-02 -1.385429650545120239e-01 -1.678518503904342651e-01
6.900000000000000000e+02 1.886291313171386719e+01 -4.785490036010742188e+00 -4.838928580284118652e-01 4.541988298296928406e-02 -1.315418928861618042e-01 -1.965872943401336670e-01
6.910000000000000000e+02 1.753024482727050781e+01 -3.199801683425903320e+00 -4.869173169136047363e-01 1.493578217923641205e-02 -1.415944546461105347e-01 -1.231884658336639404e-01
6.920000000000000000e+02 1.597754096984863281e+01 -2.967429637908935547e+00 -3.770388662815093994e-01 1.723366230726242065e-02 -1.079415678977966309e-01 -1.100051179528236389e-01
6.930000000000000000e+02 1.658770370483398438e+01 -5.918164730072021484e+00 -3.091422617435455322e-01 2.297746017575263977e-02 -8.584944158792495728e-02 -2.823624908924102783e-01
6.940000000000000000e+02 1.572325611114501953e+01 -6.329114437103271484e+00 -2.524101734161376953e-01 -1.557537913322448730e-02 -8.039566874504089355e-02 -2.981761991977691650e-01
6.950000000000000000e+02 1.521183681488037109e+01 -2.836904048919677734e+00 -3.244527578353881836e-01 1.333583146333694458e-02 -9.333507716655731201e-02 -1.057420596480369568e-01
6.960000000000000000e+02 1.135907459259033203e+01 -2.909037351608276367e+00 -1.284909546375274658e-01 -6.027464289218187332e-03 -4.035552591085433960e-02 -7.644810527563095093e-02
6.970000000000000000e+02 1.111809635162353516e+01 -5.963207721710205078e+00 -1.322498321533203125e-01 -6.924600154161453247e-02 -6.044875085353851318e-02 -1.596417576074600220e-01
6.980000000000000000e+02 1.141002941131591797e+01 -5.293625354766845703e+00 -1.419561207294464111e-01 -4.804522544145584106e-02 -5.700040236115455627e-02 -1.472562551498413086e-01
6.990000000000000000e+02 7.795032024383544922e+00 -2.537806272506713867e+00 -3.765073791146278381e-02 -1.218354608863592148e-02 -1.495028473436832428e-02 -2.711900882422924042e-02
7.000000000000000000e+02 8.662887573242187500e+00 -1.857137680053710938e+00 -3.600927814841270447e-02 -5.670266225934028625e-03 -1.250386331230401993e-02 -2.420814521610736847e-02
7.010000000000000000e+02 4.137061595916748047e+00 -2.566478729248046875e+00 -6.401381455361843109e-03 -6.891574244946241379e-03 -3.987886942923069000e-03 2.098780823871493340e-03
7.020000000000000000e+02 6.124376654624938965e-01 -5.018993377685546875e+00 -1.602430362254381180e-03 2.168657816946506500e-02 6.025244481861591339e-03 1.183480373583734035e-03
7.030000000000000000e+02 1.739443421363830566e+00 -7.871795177459716797e+00 -6.965987384319305420e-03 -2.121775224804878235e-02 -8.455121889710426331e-03 -1.758401282131671906e-02
7.040000000000000000e+02 5.663559436798095703e+00 -5.155557155609130859e+00 -3.876497596502304077e-02 -4.031312465667724609e-02 -2.372343093156814575e-02 -3.629059344530105591e-02
7.050000000000000000e+02 4.352145671844482422e+00 -5.696574687957763672e+00 -2.773344516754150391e-02 -3.665979951620101929e-02 -1.931797340512275696e-02 -2.533645927906036377e-02
7.060000000000000000e+02 8.402177810668945312e+00 -5.323351860046386719e+00 -8.044411987066268921e-02 -5.246635526418685913e-02 -3.987314179539680481e-02 -8.174809813499450684e-02
7.070000000000000000e+02 1.056248569488525391e+01 -5.782113075256347656e+00 -1.202417016029357910e-01 -6.425774842500686646e-02 -5.534983426332473755e-02 -1.388362646102905273e-01
7.080000000000000000e+02 1.153841781616210938e+01 -2.181737184524536133e+00 -1.172838658094406128e-01 2.438108203932642937e-03 -3.445372730493545532e-02 -5.187444388866424561e-02
7.090000000000000000e+02 3.421130657196044922e+00 -1.870969176292419434e+00 2.185339340940117836e-03 -3.393350634723901749e-03 -3.624033415690064430e-04 6.016374099999666214e-03
7.100000000000000000e+02 4.901009559631347656e+00 -1.839820623397827148e+00 -1.105217030271887779e-03 -5.694023799151182175e-03 -2.039772225543856621e-03 3.586361126508563757e-04
7.110000000000000000e+02 5.830516815185546875e-01 -9.263179779052734375e+00 -5.405712872743606567e-04 -6.766256876289844513e-03 -2.192048355937004089e-03 -9.953385218977928162e-03
7.120000000000000000e+02 6.344816684722900391e-01 -1.918076705932617188e+01 -1.022055512294173241e-03 -5.166172385215759277e-01 -1.552917808294296265e-01 -4.532794654369354248e-02
7.130000000000000000e+02 1.849646449089050293e+00 -2.059864044189453125e+01 6.503194104880094528e-03 -5.339801311492919922e-01 -1.582430899143218994e-01 -1.154572069644927979e-01
7.140000000000000000e+02 3.961748600006103516e+00 -2.315386390686035156e+01 5.243723094463348389e-02 -5.007695555686950684e-01 -1.344996988773345947e-01 -1.578536182641983032e-01
7.150000000000000000e+02 1.112477970123291016e+01 -2.675319671630859375e+01 1.926541030406951904e-01 7.651221752166748047e-02 8.074989914894104004e-02 -1.536077708005905151e-01
7.160000000000000000e+02 1.215821170806884766e+01 -3.278337860107421875e+01 5.947688221931457520e-02 4.865155741572380066e-02 3.243853151798248291e-02 -9.982159733772277832e-02
7.170000000000000000e+02 1.646814537048339844e+01 -3.878841781616210938e+01 1.017780154943466187e-01 1.545844376087188721e-01 7.690873742103576660e-02 -7.631868124008178711e-02
7.180000000000000000e+02 1.930492210388183594e+01 -4.009817886352539062e+01 1.695210933685302734e-01 2.796229422092437744e-01 1.347432136535644531e-01 -4.130110517144203186e-02
7.190000000000000000e+02 6.062688231468200684e-01 -2.199478340148925781e+01 3.206270339433103800e-04 -7.072969079017639160e-01 -2.120928764343261719e-01 -3.617977723479270935e-02
7.200000000000000000e+02 1.820854187011718750e+00 -2.336886978149414062e+01 1.288358867168426514e-02 -6.648342609405517578e-01 -1.955851912498474121e-01 -8.412767946720123291e-02
7.210000000000000000e+02 5.868068218231201172e+00 -2.819770050048828125e+01 6.762126088142395020e-02 -4.032920300960540771e-01 -1.007012277841567993e-01 -7.164607197046279907e-02
7.220000000000000000e+02 1.026340484619140625e+01 -2.832187652587890625e+01 1.277768313884735107e-01 -2.364912815392017365e-02 3.123831190168857574e-02 -1.130405515432357788e-01
7.230000000000000000e+02 1.292195892333984375e+01 -3.841957473754882812e+01 4.565416648983955383e-02 5.578690208494663239e-03 1.536985673010349274e-02 -5.968801304697990417e-02
7.240000000000000000e+02 1.684838104248046875e+01 -4.126854324340820312e+01 1.148568168282508850e-01 1.926096677780151367e-01 9.223994612693786621e-02 -1.747301965951919556e-02
7.250000000000000000e+02 6.308123469352722168e-01 -2.763913726806640625e+01 4.971633199602365494e-03 -9.110472202301025391e-01 -2.718226611614227295e-01 -7.143649272620677948e-03
7.260000000000000000e+02 1.843470335006713867e+00 -2.887509346008300781e+01 4.255702951923012733e-04 -8.025120496749877930e-01 -2.406259477138519287e-01 -1.440687291324138641e-02
7.270000000000000000e+02 5.283753871917724609e+00 -3.240237045288085938e+01 2.474568784236907959e-02 -4.905351102352142334e-01 -1.397368311882019043e-01 -2.033453434705734253e-02
7.280000000000000000e+02 6.758615016937255859e+00 -3.363155746459960938e+01 2.932097204029560089e-02 -3.732513189315795898e-01 -1.031791046261787415e-01 -2.908075973391532898e-02
7.290000000000000000e+02 9.329566001892089844e+00 -3.823380279541015625e+01 1.160166785120964050e-02 -2.378806173801422119e-01 -6.788368523120880127e-02 -2.647219784557819366e-02
7.300000000000000000e+02 1.258727931976318359e+01 -4.121167373657226562e+01 4.692061990499496460e-02 -3.644527867436408997e-02 3.142602043226361275e-03 -1.668258011341094971e-02
7.310000000000000000e+02 6.339382529258728027e-01 -2.901896667480468750e+01 -1.607215148396790028e-03 -9.245184063911437988e-01 -2.778376936912536621e-01 -3.733629593625664711e-03
7.320000000000000000e+02 2.170439481735229492e+00 -3.016953468322753906e+01 8.858417160809040070e-03 -7.775755524635314941e-01 -2.306151390075683594e-01 -1.107720937579870224e-02
7.330000000000000000e+02 8.839231729507446289e-01 -3.470465469360351562e+01 2.758847782388329506e-03 -9.116936326026916504e-01 -2.726804316043853760e-01 9.724313393235206604e-03
7.340000000000000000e+02 8.635281324386596680e-01 -3.613621902465820312e+01 -8.604031056165695190e-03 -9.003636240959167480e-01 -2.726902961730957031e-01 5.117760505527257919e-03
7.350000000000000000e+02 1.278189778327941895e+00 -3.998962783813476562e+01 1.426640339195728302e-02 -8.287774920463562012e-01 -2.443533241748809814e-01 2.637614868581295013e-02
7.360000000000000000e+02 5.062348842620849609e+00 -4.012764358520507812e+01 -1.039885263890028000e-02 -5.750818252563476562e-01 -1.756442040205001831e-01 -2.343995310366153717e-02
7.370000000000000000e+02 8.210264205932617188e+00 -4.105743408203125000e+01 4.311314318329095840e-03 -3.239505589008331299e-01 -9.589177370071411133e-02 -7.054538466036319733e-03
7.380000000000000000e+02 6.595790386199951172e+00 -3.768053817749023438e+01 9.522083215415477753e-03 -3.973597884178161621e-01 -1.163513138890266418e-01 -1.560652535408735275e-02
7.390000000000000000e+02 5.472729682922363281e+00 -3.496910095214843750e+01 4.095273034181445837e-04 -5.026903152465820312e-01 -1.506842374801635742e-01 -8.632900193333625793e-03
7.400000000000000000e+02 2.676075220108032227e+00 -3.464786911010742188e+01 4.856903105974197388e-03 -7.568997144699096680e-01 -2.256128489971160889e-01 6.872193887829780579e-03
7.410000000000000000e+02 2.027939558029174805e+00 -4.159486007690429688e+01 -2.959647588431835175e-02 -8.171044588088989258e-01 -2.540102899074554443e-01 8.425808511674404144e-03
7.420000000000000000e+02 3.306311035156250000e+01 -4.076601791381835938e+01 -2.961920499801635742e-01 2.009989261627197266e+00 5.141391754150390625e-01 1.544660180807113647e-01
7.430000000000000000e+02 3.399126815795898438e+01 -3.750031280517578125e+01 -3.241156637668609619e-01 2.264617443084716797e+00 5.821505188941955566e-01 4.574472308158874512e-01
7.440000000000000000e+02 3.749053192138671875e+01 -4.100413513183593750e+01 -6.620308756828308105e-01 2.719396829605102539e+00 6.172097921371459961e-01 6.269692629575729370e-02
7.450000000000000000e+02 3.747462844848632812e+01 -3.796815872192382812e+01 -6.143301725387573242e-01 2.770668983459472656e+00 6.469016671180725098e-01 2.672241926193237305e-01
7.460000000000000000e+02 4.200584793090820312e+01 -4.092924880981445312e+01 -7.727960348129272461e-01 2.827230691909790039e+00 6.163303852081298828e-01 7.212939672172069550e-03
7.470000000000000000e+02 5.747456741333007812e+01 -4.095266342163085938e+01 6.266081333160400391e-01 8.143996596336364746e-01 4.323023259639739990e-01 -5.361970886588096619e-02
7.480000000000000000e+02 5.767218399047851562e+01 -3.784790420532226562e+01 3.972661197185516357e-01 6.845716238021850586e-01 3.245513439178466797e-01 -1.670601218938827515e-01
7.490000000000000000e+02 5.971434783935546875e+01 -2.930231666564941406e+01 -2.934558391571044922e+00 -4.787905812263488770e-01 -1.024004697799682617e+00 -9.222372174263000488e-01
7.500000000000000000e+02 5.870467758178710938e+01 -3.156089210510253906e+01 -1.255436062812805176e+00 -3.458683192729949951e-01 -4.803913235664367676e-01 -2.203923463821411133e-01
7.510000000000000000e+02 5.693817901611328125e+01 -2.990970230102539062e+01 -3.151393651962280273e+00 -1.881499737501144409e-01 -1.001863121986389160e+00 -3.698049485683441162e-01
7.520000000000000000e+02 6.123200225830078125e+01 -3.837516021728515625e+01 4.414606988430023193e-01 1.424639344215393066e+00 5.598300099372863770e-01 2.575559318065643311e-01
7.530000000000000000e+02 6.308207702636718750e+01 -2.929997062683105469e+01 -1.276887178421020508e+00 1.364575028419494629e+00 2.630637213587760925e-02 2.244505286216735840e-01
7.540000000000000000e+02 6.321418380737304688e+01 -2.679938316345214844e+01 -8.992643952369689941e-01 3.660922944545745850e-01 -1.599516272544860840e-01 -2.156754732131958008e-01
7.550000000000000000e+02 7.203142547607421875e+01 -4.101814651489257812e+01 3.771422430872917175e-02 6.713400363922119141e+00 2.025334358215332031e+00 -7.861443795263767242e-03
7.560000000000000000e+02 7.141135406494140625e+01 -3.802045059204101562e+01 -1.057742163538932800e-01 6.409644603729248047e+00 1.891161084175109863e+00 7.602194696664810181e-02
7.570000000000000000e+02 7.288144683837890625e+01 -3.438100433349609375e+01 -3.862854540348052979e-01 7.249245166778564453e+00 2.058887958526611328e+00 -1.047116965055465698e-01
7.580000000000000000e+02 7.170557403564453125e+01 -3.043417358398437500e+01 -8.657020926475524902e-01 7.301303386688232422e+00 1.930680394172668457e+00 -3.040935993194580078e-01
7.590000000000000000e+02 7.507633209228515625e+01 -4.026097106933593750e+01 2.281565777957439423e-02 8.308934211730957031e+00 2.499525070190429688e+00 -1.247831061482429504e-01
7.600000000000000000e+02 7.385347747802734375e+01 -3.785747528076171875e+01 -1.641708165407180786e-01 7.472970962524414062e+00 2.192640066146850586e+00 -7.875668257474899292e-02
7.610000000000000000e+02 7.530510711669921875e+01 -3.467431640625000000e+01 -2.824704349040985107e-01 8.239588737487792969e+00 2.387135267257690430e+00 -2.107596993446350098e-01
7.620000000000000000e+02 7.797890472412109375e+01 -4.162997817993164062e+01 1.958054751157760620e-01 9.649792671203613281e+00 2.953679323196411133e+00 5.504466220736503601e-02
7.630000000000000000e+02 7.925919342041015625e+01 -3.742197036743164062e+01 -7.806560397148132324e-02 1.006425857543945312e+01 2.995857715606689453e+00 6.514072418212890625e-02
7.640000000000000000e+02 7.750183105468750000e+01 -3.800163650512695312e+01 -1.195614933967590332e-01 9.353123664855957031e+00 2.770068645477294922e+00 1.160032749176025391e-01
7.650000000000000000e+02 7.928423309326171875e+01 -2.921252059936523438e+01 -2.749683894217014313e-02 9.265345573425292969e+00 2.771354675292968750e+00 -2.245477288961410522e-01
7.660000000000000000e+02 7.781858825683593750e+01 -2.766591072082519531e+01 -1.109200865030288696e-01 8.525671958923339844e+00 2.524425506591796875e+00 -7.021660804748535156e-01
7.670000000000000000e+02 7.497449493408203125e+01 -2.455040550231933594e+01 -1.318450868129730225e-01 8.199682235717773438e+00 2.420351028442382812e+00 -1.412599205970764160e+00
7.680000000000000000e+02 6.947290802001953125e+01 -1.977463912963867188e+01 2.012466669082641602e+00 1.218493175506591797e+01 4.259219646453857422e+00 4.329150021076202393e-01
7.690000000000000000e+02 6.830622100830078125e+01 -1.985159683227539062e+01 1.164728522300720215e+00 1.708581352233886719e+01 5.475162506103515625e+00 1.446872115135192871e+00
7.700000000000000000e+02 7.941466522216796875e+01 -1.513254642486572266e+01 3.637612983584403992e-02 5.062782287597656250e+00 1.529747605323791504e+00 8.415400236845016479e-02
7.710000000000000000e+02 7.825131988525390625e+01 -1.474534702301025391e+01 1.235808953642845154e-01 5.919367790222167969e+00 1.812884569168090820e+00 2.681147754192352295e-01
7.720000000000000000e+02 7.311381530761718750e+01 -9.276677131652832031e+00 -4.320264160633087158e-01 7.885172367095947266e+00 2.235943794250488281e+00 4.716628789901733398e-01
7.730000000000000000e+02 7.016495513916015625e+01 -9.042002677917480469e+00 -6.096149086952209473e-01 7.725012302398681641e+00 2.134619235992431641e+00 -3.299527168273925781e-01
7.740000000000000000e+02 6.777199554443359375e+01 -4.449966430664062500e+00 -3.441962599754333496e-01 5.504350662231445312e+00 1.548046350479125977e+00 -7.131423950195312500e-01
7.750000000000000000e+02 6.447010803222656250e+01 4.955670237541198730e-01 7.358494997024536133e-01 3.193692922592163086e+00 1.178862690925598145e+00 3.265363276004791260e-01
7.760000000000000000e+02 6.423075866699218750e+01 -3.591197729110717773e+00 5.111538767814636230e-01 3.074932336807250977e+00 1.075825810432434082e+00 -8.139315247535705566e-01
7.770000000000000000e+02 7.940534973144531250e+01 -1.240033817291259766e+01 8.106371387839317322e-03 5.717089176177978516e+00 1.717558622360229492e+00 1.820258498191833496e-01
7.780000000000000000e+02 7.817296600341796875e+01 -1.081324005126953125e+01 2.070343820378184319e-03 6.589698314666748047e+00 1.977530479431152344e+00 4.975674748420715332e-01
7.790000000000000000e+02 7.573799896240234375e+01 -9.116459846496582031e+00 -2.164360433816909790e-01 7.382354736328125000e+00 2.149775505065917969e+00 6.847838759422302246e-01
7.800000000000000000e+02 7.172635650634765625e+01 -4.050505161285400391e+00 -5.321030020713806152e-01 6.855063438415527344e+00 1.896888136863708496e+00 -8.754023164510726929e-02
7.810000000000000000e+02 6.621099090576171875e+01 6.141825318336486816e-01 2.588168382644653320e-01 4.349672794342041016e+00 1.382546901702880859e+00 2.749369442462921143e-01
7.820000000000000000e+02 7.939459228515625000e+01 -9.653109550476074219e+00 -6.406933069229125977e-03 6.571578979492187500e+00 1.969551563262939453e+00 1.822824627161026001e-01
7.830000000000000000e+02 7.815010833740234375e+01 -6.720865726470947266e+00 -7.482686638832092285e-02 7.276480674743652344e+00 2.160495996475219727e+00 3.225814104080200195e-01
7.840000000000000000e+02 7.429071807861328125e+01 -1.964691519737243652e+00 -3.503772914409637451e-01 7.128986358642578125e+00 2.033582687377929688e+00 -2.487554401159286499e-02
7.850000000000000000e+02 7.191695404052734375e+01 -2.816517353057861328e+00 -4.983940124511718750e-01 6.839612007141113281e+00 1.902365446090698242e+00 -9.613512456417083740e-02
7.860000000000000000e+02 7.226264953613281250e+01 -9.642972350120544434e-01 -4.300180673599243164e-01 6.818761348724365234e+00 1.916622996330261230e+00 -1.268821060657501221e-01
7.870000000000000000e+02 7.936803436279296875e+01 -5.484630107879638672e+00 -8.731040172278881073e-03 7.529323101043701172e+00 2.256177663803100586e+00 9.051181375980377197e-02
7.880000000000000000e+02 7.804721832275390625e+01 -3.921336650848388672e+00 -6.902191787958145142e-02 7.498397350311279297e+00 2.228812456130981445e+00 1.378947943449020386e-01
7.890000000000000000e+02 7.428535461425781250e+01 -6.000048518180847168e-01 -3.518063127994537354e-01 7.125107765197753906e+00 2.031990289688110352e+00 -1.289852410554885864e-01
7.900000000000000000e+02 7.933556365966796875e+01 -2.680532693862915039e+00 -5.558938253670930862e-03 7.766084194183349609e+00 2.328157663345336914e+00 1.929368451237678528e-02
7.910000000000000000e+02 7.795717620849609375e+01 4.002342522144317627e-01 -8.077090978622436523e-02 7.481683254241943359e+00 2.220273733139038086e+00 -1.371573209762573242e-01
7.920000000000000000e+02 7.945179748535156250e+01 1.117098236083984375e+01 1.329724863171577454e-02 5.533093929290771484e+00 1.663917303085327148e+00 -9.133861958980560303e-02
7.930000000000000000e+02 7.820223236083984375e+01 1.248675632476806641e+01 1.075400114059448242e-01 6.073030948638916016e+00 1.854171276092529297e+00 -1.621402651071548462e-01
7.940000000000000000e+02 6.980344390869140625e+01 1.706086158752441406e+01 1.241514563560485840e+00 1.235841846466064453e+01 4.079979896545410156e+00 1.737993061542510986e-01
7.950000000000000000e+02 7.937223815917968750e+01 1.531495094299316406e+01 8.272972702980041504e-02 5.422964572906494141e+00 1.651708245277404785e+00 8.704084157943725586e-02
7.960000000000000000e+02 7.938245391845703125e+01 1.670933532714843750e+01 -3.138310462236404419e-02 5.663994312286376953e+00 1.689783453941345215e+00 1.423147320747375488e-01
7.970000000000000000e+02 7.329719543457031250e+01 1.552839756011962891e+01 1.085062623023986816e+00 8.520033836364746094e+00 2.881529092788696289e+00 5.870261788368225098e-01
7.980000000000000000e+02 7.811408233642578125e+01 1.387207412719726562e+01 1.547507941722869873e-01 6.104453563690185547e+00 1.877761363983154297e+00 5.383664369583129883e-02
7.990000000000000000e+02 7.803263092041015625e+01 2.646637535095214844e+01 -1.246972903609275818e-01 8.623795509338378906e+00 2.549729585647583008e+00 3.894591033458709717e-01
8.000000000000000000e+02 7.916996765136718750e+01 3.208861541748046875e+01 -1.478724740445613861e-02 9.385702133178710938e+00 2.811274290084838867e+00 -1.066141203045845032e-02
8.010000000000000000e+02 7.341184997558593750e+01 3.358487319946289062e+01 -1.112238541245460510e-01 7.062200069427490234e+00 2.085292816162109375e+00 -2.454642951488494873e-01
8.020000000000000000e+02 7.922843933105468750e+01 3.065803909301757812e+01 -1.326629426330327988e-02 9.402348518371582031e+00 2.816724538803100586e+00 1.464181393384933472e-02
8.030000000000000000e+02 7.575350189208984375e+01 3.723914337158203125e+01 -4.624553769826889038e-02 8.007322311401367188e+00 2.388322830200195312e+00 -6.423837691545486450e-02
8.040000000000000000e+02 7.192777252197265625e+01 4.113956832885742188e+01 2.574919462203979492e-01 6.329645633697509766e+00 1.976141214370727539e+00 -6.238074228167533875e-02
8.050000000000000000e+02 7.735938262939453125e+01 3.370526123046875000e+01 -4.450253769755363464e-02 8.595090866088867188e+00 2.565176725387573242e+00 -9.787978976964950562e-02
8.060000000000000000e+02 7.937833404541015625e+01 3.742414093017578125e+01 -5.667669698596000671e-02 9.102981567382812500e+00 2.713891506195068359e+00 -8.252098411321640015e-02
8.070000000000000000e+02 7.714200592041015625e+01 3.682091522216796875e+01 -5.821042880415916443e-02 8.497118949890136719e+00 2.531672477722167969e+00 -2.104588150978088379e-01
8.080000000000000000e+02 7.875302886962890625e+01 4.004203033447265625e+01 -7.348310202360153198e-02 8.692298889160156250e+00 2.585644721984863281e+00 -1.670149564743041992e-01
8.090000000000000000e+02 7.510398864746093750e+01 4.024031066894531250e+01 1.361521482467651367e-01 7.652017116546630859e+00 2.336450815200805664e+00 2.351886406540870667e-02
8.100000000000000000e+02 4.727332687377929688e+01 4.074023437500000000e+01 -8.186602592468261719e-02 2.047409057617187500e+00 5.896629095077514648e-01 7.279453426599502563e-02
8.110000000000000000e+02 4.676235198974609375e+01 3.738109207153320312e+01 -2.131367623805999756e-01 2.123510837554931641e+00 5.731121897697448730e-01 2.463473528623580933e-01
8.120000000000000000e+02 4.633282470703125000e+01 3.426593780517578125e+01 -4.645045399665832520e-01 2.371671915054321289e+00 5.721502304077148438e-01 2.861716449260711670e-01
8.130000000000000000e+02 4.598914718627929688e+01 3.121362304687500000e+01 -6.444573402404785156e-01 2.641263246536254883e+00 5.990417599678039551e-01 2.513148486614227295e-01
8.140000000000000000e+02 4.677550125122070312e+01 2.697608184814453125e+01 -9.265415668487548828e-01 3.278195858001708984e+00 7.054962515830993652e-01 2.113445997238159180e-01
8.150000000000000000e+02 4.753177642822265625e+01 2.487038421630859375e+01 -9.997344017028808594e-01 3.743082761764526367e+00 8.230044841766357422e-01 2.529469728469848633e-01
8.160000000000000000e+02 4.803387832641601562e+01 2.126968955993652344e+01 -5.439181327819824219e-01 4.653358936309814453e+00 1.232832193374633789e+00 5.644069984555244446e-02
8.170000000000000000e+02 4.728664398193359375e+01 1.759093475341796875e+01 2.217035591602325439e-01 5.904495239257812500e+00 1.837859630584716797e+00 -1.729542016983032227e-01
8.180000000000000000e+02 4.318897628784179688e+01 4.096713256835937500e+01 -2.341354638338088989e-01 1.938953399658203125e+00 5.114453434944152832e-01 2.514836564660072327e-02
8.190000000000000000e+02 4.363903427124023438e+01 3.800352859497070312e+01 -2.687617540359497070e-01 2.054257631301879883e+00 5.356487631797790527e-01 6.656760722398757935e-02
8.200000000000000000e+02 4.317608261108398438e+01 3.500061798095703125e+01 -3.922216892242431641e-01 2.174872636795043945e+00 5.347952842712402344e-01 6.616535782814025879e-02
8.210000000000000000e+02 4.303801727294921875e+01 3.191293334960937500e+01 -5.290032029151916504e-01 2.366936206817626953e+00 5.513799190521240234e-01 -4.760631918907165527e-02
8.220000000000000000e+02 4.416732025146484375e+01 2.661503219604492188e+01 -7.404747605323791504e-01 3.111764669418334961e+00 7.113869786262512207e-01 -2.706890702247619629e-01
8.230000000000000000e+02 4.436113357543945312e+01 2.339703750610351562e+01 -5.667893886566162109e-01 3.534392833709716797e+00 8.902810215950012207e-01 -5.543481111526489258e-01
8.240000000000000000e+02 4.074863815307617188e+01 3.930632019042968750e+01 -2.646657526493072510e-01 1.873654723167419434e+00 4.826967120170593262e-01 -8.376107551157474518e-03
8.250000000000000000e+02 4.015047073364257812e+01 3.610404586791992188e+01 -3.222474455833435059e-01 1.889534592628479004e+00 4.701861143112182617e-01 -6.770212203264236450e-02
8.260000000000000000e+02 3.891204833984375000e+01 3.391862487792968750e+01 -3.052360713481903076e-01 1.845211625099182129e+00 4.619926512241363525e-01 -2.007452994585037231e-01
8.270000000000000000e+02 4.050371932983398438e+01 3.167080307006835938e+01 -4.202345907688140869e-01 2.116859197616577148e+00 5.089873671531677246e-01 -1.933329403400421143e-01
8.280000000000000000e+02 4.065254211425781250e+01 2.714780235290527344e+01 -4.425233304500579834e-01 2.425624370574951172e+00 5.949302911758422852e-01 -4.861992299556732178e-01
8.290000000000000000e+02 4.056336593627929688e+01 2.506664657592773438e+01 -3.385634422302246094e-01 2.530030488967895508e+00 6.574401259422302246e-01 -7.020326256752014160e-01
8.300000000000000000e+02 3.706177139282226562e+01 4.029716110229492188e+01 -1.964352428913116455e-01 1.545932531356811523e+00 4.048491716384887695e-01 -6.145593896508216858e-02
8.310000000000000000e+02 3.720710754394531250e+01 3.651292419433593750e+01 -2.156497091054916382e-01 1.563405394554138184e+00 4.043267071247100830e-01 -1.565491855144500732e-01
8.320000000000000000e+02 3.697119140625000000e+01 3.229504013061523438e+01 -2.546297907829284668e-01 1.669149518013000488e+00 4.243559241294860840e-01 -3.397309780120849609e-01
8.330000000000000000e+02 3.547336959838867188e+01 3.038843727111816406e+01 -1.635412275791168213e-01 1.454402804374694824e+00 3.872584700584411621e-01 -4.030943810939788818e-01
8.340000000000000000e+02 3.746450042724609375e+01 2.836363410949707031e+01 -2.425622195005416870e-01 1.786445736885070801e+00 4.631650745868682861e-01 -5.193822979927062988e-01
8.350000000000000000e+02 3.232778549194335938e+01 4.048712921142578125e+01 -7.143524289131164551e-02 1.109459877014160156e+00 3.114073872566223145e-01 -5.213437601923942566e-02
8.360000000000000000e+02 3.467976379394531250e+01 3.479261779785156250e+01 -1.372386813163757324e-01 1.344694256782531738e+00 3.622366487979888916e-01 -2.234772592782974243e-01
8.370000000000000000e+02 3.308311080932617188e+01 3.217980575561523438e+01 -8.324867486953735352e-02 1.119621276855468750e+00 3.109117746353149414e-01 -3.205559253692626953e-01
8.380000000000000000e+02 3.140788841247558594e+01 3.675503540039062500e+01 -4.658990725874900818e-02 1.014744400978088379e+00 2.904463410377502441e-01 -1.580528169870376587e-01
8.390000000000000000e+02 2.757698059082031250e+01 4.087572097778320312e+01 4.673164337873458862e-02 6.787977218627929688e-01 2.176588028669357300e-01 -2.908578142523765564e-02
8.400000000000000000e+02 7.974411487579345703e+00 4.098191070556640625e+01 3.475343436002731323e-02 -6.450269371271133423e-02 -8.924776688218116760e-03 1.029671728610992432e-02
8.410000000000000000e+02 8.822014808654785156e+00 3.803840637207031250e+01 4.208614677190780640e-02 -5.080068111419677734e-02 -2.614360069856047630e-03 3.674416989088058472e-02
8.420000000000000000e+02 9.245325088500976562e+00 3.532036590576171875e+01 3.878584876656532288e-02 -3.214025497436523438e-02 1.993678510189056396e-03 5.450893566012382507e-02
8.430000000000000000e+02 8.570137023925781250e+00 3.081994247436523438e+01 7.765714079141616821e-03 -2.684230729937553406e-02 -5.722978152334690094e-03 7.322479784488677979e-02
8.440000000000000000e+02 9.889113426208496094e+00 2.779851150512695312e+01 -1.485022529959678650e-02 -3.773550270125269890e-04 -4.568274132907390594e-03 8.043476194143295288e-02
8.450000000000000000e+02 9.196120262145996094e+00 2.283965301513671875e+01 -3.878164291381835938e-02 8.342884480953216553e-03 -9.131627157330513000e-03 4.694306477904319763e-02
8.460000000000000000e+02 7.240439414978027344e+00 2.045071220397949219e+01 -2.468762919306755066e-02 -2.285291207954287529e-03 -8.091876283288002014e-03 2.868841774761676788e-02
8.470000000000000000e+02 8.996601104736328125e+00 1.590320682525634766e+01 -1.840062998235225677e-02 2.170967636629939079e-03 -4.868899006396532059e-03 6.116635166108608246e-03
8.480000000000000000e+02 8.935914993286132812e+00 1.390478515625000000e+01 -1.186961028724908829e-02 -2.481581643223762512e-03 -4.305357579141855240e-03 1.370807876810431480e-03
8.490000000000000000e+02 8.058948516845703125e+00 1.002516174316406250e+01 -2.947935601696372032e-03 -3.226695582270622253e-03 -1.852389308623969555e-03 -1.164212590083479881e-03
8.500000000000000000e+02 8.427655220031738281e+00 5.648454189300537109e+00 5.766715039499104023e-04 -7.628091261722147465e-04 -5.584129394264891744e-05 -3.066874051000922918e-04
8.510000000000000000e+02 7.624135971069335938e+00 1.856180548667907715e+00 2.086543478071689606e-03 -4.514145985012874007e-05 6.124206120148301125e-04 -3.358187968842685223e-04
8.520000000000000000e+02 6.894299030303955078e+00 1.859550952911376953e+00 1.522638136520981789e-03 -2.701706835068762302e-04 3.757402300834655762e-04 -8.321157074533402920e-04
8.530000000000000000e+02 8.418387413024902344e+00 2.557393074035644531e+00 2.021021675318479538e-03 -1.889747654786333442e-04 5.496140802279114723e-04 -1.724218891467899084e-04
8.540000000000000000e+02 1.135754203796386719e+01 1.629361271858215332e+00 1.668294426053762436e-03 -2.075482188956812024e-04 4.382238839752972126e-04 1.494068856118246913e-04
8.550000000000000000e+02 4.799192428588867188e+00 4.070367813110351562e+01 1.194587349891662598e-02 -1.390931159257888794e-01 -3.814417496323585510e-02 2.339036203920841217e-02
8.560000000000000000e+02 6.887120723724365234e+00 3.513690185546875000e+01 2.457638829946517944e-02 -7.014090567827224731e-02 -1.366935484111309052e-02 5.096026510000228882e-02
8.570000000000000000e+02 6.706418514251708984e+00 2.925416755676269531e+01 -4.087710753083229065e-03 -3.889961913228034973e-02 -1.289619877934455872e-02 6.500703841447830200e-02
8.580000000000000000e+02 5.140976905822753906e+00 2.916585731506347656e+01 1.250408095074817538e-04 -5.656772851943969727e-02 -1.693280600011348724e-02 5.688090249896049500e-02
8.590000000000000000e+02 5.971845626831054688e+00 2.274304199218750000e+01 -2.031280659139156342e-02 -1.411202084273099899e-02 -1.032744813710451126e-02 3.881613165140151978e-02
8.600000000000000000e+02 6.358308792114257812e+00 2.026537513732910156e+01 -1.811912469565868378e-02 -5.942944902926683426e-03 -7.218621205538511276e-03 2.506584115326404572e-02
8.610000000000000000e+02 5.549495220184326172e+00 1.543362712860107422e+01 -9.033151902258396149e-03 -2.733592176809906960e-03 -3.530023153871297836e-03 5.890979431569576263e-03
8.620000000000000000e+02 5.495710372924804688e+00 1.143705844879150391e+01 -1.742265420034527779e-03 -9.403424919582903385e-04 -8.047823794186115265e-04 1.089025827241130173e-04
8.630000000000000000e+02 6.436454296112060547e+00 1.025481986999511719e+01 -1.014233683235943317e-03 -1.913057407364249229e-03 -8.781873621046543121e-04 -7.911229622550308704e-04
8.640000000000000000e+02 5.194663047790527344e+00 7.902493000030517578e+00 4.415383154992014170e-04 -8.375382749363780022e-04 -1.187999878311529756e-04 -1.796229509636759758e-03
8.650000000000000000e+02 3.975809812545776367e+00 1.888109087944030762e+00 6.961842882446944714e-04 -7.562040991615504026e-05 1.861691707745194435e-04 -8.124929736368358135e-04
8.660000000000000000e+02 4.712052345275878906e+00 2.638221740722656250e+00 7.285067695192992687e-04 -1.185586152132600546e-04 1.829844404710456729e-04 -1.068211393430829048e-03
8.670000000000000000e+02 6.165274620056152344e+00 1.864640474319458008e+00 1.677544554695487022e-03 6.083335028961300850e-05 5.215133423916995525e-04 -6.035163532942533493e-04
8.680000000000000000e+02 2.254654645919799805e+00 3.729258728027343750e+01 5.929751321673393250e-03 -1.623018831014633179e-01 -4.691164195537567139e-02 1.438876055181026459e-02
8.690000000000000000e+02 2.107511758804321289e+00 3.305807113647460938e+01 4.411533009260892868e-04 -1.328656375408172607e-01 -3.972734883427619934e-02 2.294149622321128845e-02
8.700000000000000000e+02 2.033046722412109375e+00 3.039120101928710938e+01 -7.284446619451045990e-04 -1.057740747928619385e-01 -3.195075690746307373e-02 2.623750083148479462e-02
8.710000000000000000e+02 2.116132736206054688e+00 2.617657279968261719e+01 -9.290435700677335262e-04 -5.938120558857917786e-02 -1.809307374060153961e-02 2.489258907735347748e-02
8.720000000000000000e+02 1.976522207260131836e+00 2.336532592773437500e+01 -1.855086768046021461e-03 -3.402927145361900330e-02 -1.076530758291482925e-02 1.835039071738719940e-02
8.730000000000000000e+02 1.784028410911560059e+00 1.918941116333007812e+01 -2.698894822970032692e-03 -8.386928588151931763e-03 -3.325747093185782433e-03 7.759490516036748886e-03
8.740000000000000000e+02 1.762637495994567871e+00 1.642820739746093750e+01 -1.868166960775852203e-03 -1.699503773124888539e-04 -6.114352145232260227e-04 3.213569521903991699e-03
8.750000000000000000e+02 1.787380218505859375e+00 1.369345188140869141e+01 -1.161335268989205360e-03 2.899277489632368088e-03 5.213826661929488182e-04 4.563340335153043270e-04
8.760000000000000000e+02 1.816495060920715332e+00 1.097287654876708984e+01 -7.143527618609368801e-04 3.261232748627662659e-03 7.640639669261872768e-04 -9.692329913377761841e-04
8.770000000000000000e+02 1.966512680053710938e+00 6.636385917663574219e+00 5.592376692220568657e-04 1.709248987026512623e-03 6.805459852330386639e-04 -1.067317207343876362e-03
8.780000000000000000e+02 3.232167482376098633e+00 2.680895566940307617e+00 3.732258046511560678e-04 1.459677005186676979e-04 1.557580544613301754e-04 -1.046353951096534729e-03
8.790000000000000000e+02 8.836563229560852051e-01 4.009519577026367188e+01 -2.364533022046089172e-03 -2.027530074119567871e-01 -6.153526157140731812e-02 -7.424399373121559620e-04
8.800000000000000000e+02 1.720788192749023438e+01 5.790715813636779785e-01 2.046591980615630746e-04 -8.687764056958258152e-05 3.533446943038143218e-05 3.177519829478114843e-04
8.810000000000000000e+02 1.910375976562500000e+01 1.196778535842895508e+00 -5.092450737720355392e-05 -1.660509296925738454e-04 -6.509263039333745837e-05 2.049635513685643673e-04
8.820000000000000000e+02 1.948590850830078125e+01 6.894455909729003906e+00 2.406026003882288933e-03 2.096242969855666161e-03 1.350680715404450893e-03 -1.889916893560439348e-05
8.830000000000000000e+02 2.057883644104003906e+01 5.014932155609130859e+00 -3.385085728950798512e-04 -2.562683948781341314e-04 -1.784330961527302861e-04 -7.083157543092966080e-04
8.840000000000000000e+02 1.917292022705078125e+01 8.184775352478027344e+00 -2.792206127196550369e-03 3.507091430947184563e-03 2.144655882148072124e-04 -4.226134624332189560e-04
8.850000000000000000e+02 1.761655044555664062e+01 9.503468513488769531e+00 -2.793699968606233597e-03 3.556814510375261307e-03 2.289343683514744043e-04 1.084189512766897678e-03
8.860000000000000000e+02 1.861094474792480469e+01 1.092904567718505859e+01 -3.236736403778195381e-03 8.097695186734199524e-03 1.458287704735994339e-03 -4.197348025627434254e-04
8.870000000000000000e+02 1.836355972290039062e+01 1.519552707672119141e+01 4.551068414002656937e-03 1.089951861649751663e-02 4.635176155716180801e-03 -1.971369783859699965e-04
8.880000000000000000e+02 1.858011245727539062e+01 1.805950164794921875e+01 -8.781275711953639984e-03 -2.164733596146106720e-02 -9.128583595156669617e-03 -2.119874022901058197e-02
8.890000000000000000e+02 1.902421188354492188e+01 2.099002075195312500e+01 -2.011172771453857422e-01 -2.030738070607185364e-02 -6.642740219831466675e-02 -4.451746866106987000e-02
8.900000000000000000e+02 1.868761444091796875e+01 2.286119842529296875e+01 -2.170576900243759155e-01 3.531353175640106201e-02 -5.452324450016021729e-02 3.770921006798744202e-02
8.910000000000000000e+02 1.999625015258789062e+01 2.515465354919433594e+01 -1.044727787375450134e-01 1.499110180884599686e-02 -2.684450335800647736e-02 6.430963426828384399e-02
8.920000000000000000e+02 1.848556900024414062e+01 2.938477134704589844e+01 3.080002218484878540e-02 6.752517074346542358e-02 2.949755825102329254e-02 6.719519197940826416e-02
8.930000000000000000e+02 1.807406044006347656e+01 3.326698303222656250e+01 8.452250808477401733e-02 1.084669306874275208e-01 5.789683014154434204e-02 4.337141290307044983e-02
8.940000000000000000e+02 1.941085243225097656e+01 3.615560913085937500e+01 1.023618727922439575e-01 1.657925546169281006e-01 8.044632524251937866e-02 1.792491041123867035e-02
8.950000000000000000e+02 1.994697189331054688e+01 4.060337245464324951e-01 -1.350780221400782466e-04 -1.928543060785159469e-04 -9.837969992076978087e-05 3.699478111229836941e-05
8.960000000000000000e+02 2.216232872009277344e+01 2.257381439208984375e+00 -5.834301919094286859e-05 8.707014058018103242e-05 8.618136234872508794e-06 -4.218717003823257983e-05
8.970000000000000000e+02 2.146388244628906250e+01 3.988138675689697266e+00 3.136356826871633530e-04 9.699073852971196175e-04 3.850629145745187998e-04 4.959026700817048550e-04
8.980000000000000000e+02 2.231038475036621094e+01 1.429870009422302246e+00 1.522879902040585876e-04 1.865604717750102282e-04 1.016545356833375990e-04 -9.309392771683633327e-05
8.990000000000000000e+02 2.778907775878906250e+01 2.130622863769531250e+01 -2.772694528102874756e-01 2.979408763349056244e-02 -7.424261420965194702e-02 -1.154568139463663101e-02
9.000000000000000000e+02 3.061745643615722656e+01 2.019784545898437500e+01 8.262937888503074646e-03 1.294533163309097290e-01 4.131487756967544556e-02 -1.317844241857528687e-01
9.010000000000000000e+02 3.317274856567382812e+01 1.874641990661621094e+01 3.391250669956207275e-01 3.528507053852081299e-01 2.075927257537841797e-01 -3.530039787292480469e-01
9.020000000000000000e+02 3.435903549194335938e+01 1.790226554870605469e+01 4.702708423137664795e-01 4.782233834266662598e-01 2.845482528209686279e-01 -4.743696451187133789e-01
9.030000000000000000e+02 3.642863082885742188e+01 1.836809158325195312e+01 5.006421804428100586e-01 1.023027896881103516e+00 4.571010172367095947e-01 -7.668933868408203125e-01
9.040000000000000000e+02 3.549934387207031250e+01 1.700512886047363281e+01 5.855655670166015625e-01 6.124427318572998047e-01 3.594025075435638428e-01 -5.916720628738403320e-01
9.050000000000000000e+02 7.554235076904296875e+01 -5.236106395721435547e+00 -3.046969175338745117e-01 7.337825298309326172e+00 2.109938383102416992e+00 2.801478207111358643e-01
9.060000000000000000e+02 7.173260498046875000e+01 -6.596473217010498047e+00 -6.855096220970153809e-01 7.312358379364013672e+00 1.988054633140563965e+00 -5.153409391641616821e-02
9.070000000000000000e+02 6.953593444824218750e+01 -7.355850696563720703e+00 -6.594840884208679199e-01 6.943142890930175781e+00 1.885097622871398926e+00 -5.825195312500000000e-01
9.080000000000000000e+02 5.867056655883789062e+01 -4.163868904113769531e+00 1.308752298355102539e+00 5.236745476722717285e-01 5.497280955314636230e-01 -1.114503979682922363e+00
9.090000000000000000e+02 4.788750076293945312e+01 -1.754028439521789551e+00 1.257480680942535400e-01 1.056798648834228516e+01 3.208120346069335938e+00 1.765589416027069092e-01
9.100000000000000000e+02 4.256240081787109375e+01 -2.338667869567871094e+00 -2.110071033239364624e-01 2.298452854156494141e+00 6.262336969375610352e-01 1.599627137184143066e+00
9.110000000000000000e+02 4.333516311645507812e+01 -2.537841081619262695e+00 -9.985021501779556274e-02 3.392167329788208008e+00 9.876950979232788086e-01 2.264066934585571289e+00
9.120000000000000000e+02 3.505459213256835938e+01 -4.653389930725097656e+00 -3.329875469207763672e+00 -2.465698122978210449e-01 -1.072933554649353027e+00 -1.038778305053710938e+00
9.130000000000000000e+02 6.008250808715820312e+01 -8.879211425781250000e+00 -6.322641968727111816e-01 4.862566888332366943e-01 -4.380226135253906250e-02 -3.112303018569946289e-01
9.140000000000000000e+02 7.553639984130859375e+01 -1.039263629913330078e+01 -8.495056629180908203e-02 7.421594619750976562e+00 2.200993061065673828e+00 7.445294857025146484e-01
9.150000000000000000e+02 3.236435699462890625e+01 -5.461655616760253906e+00 -3.675443649291992188e+00 -2.599327862262725830e-01 -1.180612921714782715e+00 -5.372601747512817383e-01
9.160000000000000000e+02 6.994470214843750000e+01 -1.491046714782714844e+01 1.734513640403747559e+00 1.116948509216308594e+01 3.871199607849121094e+00 -4.706682860851287842e-01
9.170000000000000000e+02 7.208405303955078125e+01 -1.307990550994873047e+01 6.758249402046203613e-01 8.875715255737304688e+00 2.865462064743041992e+00 4.611965417861938477e-01
9.180000000000000000e+02 7.707938385009765625e+01 -1.322307872772216797e+01 1.466382145881652832e-01 6.703072071075439453e+00 2.054913043975830078e+00 5.788081288337707520e-01
9.190000000000000000e+02 7.564384460449218750e+01 -1.967737007141113281e+01 6.319521665573120117e-01 7.431507110595703125e+00 2.419037818908691406e+00 -8.416111469268798828e-01
9.200000000000000000e+02 7.466188049316406250e+01 -2.181319808959960938e+01 4.287974536418914795e-01 8.077888488769531250e+00 2.552005767822265625e+00 -1.387540578842163086e+00
9.210000000000000000e+02 7.104861450195312500e+01 -2.432872200012207031e+01 -6.000753641128540039e-01 8.772670745849609375e+00 2.451778650283813477e+00 -9.830006361007690430e-01
9.220000000000000000e+02 7.134160614013671875e+01 -2.280450057983398438e+01 3.121584057807922363e-01 9.508135795593261719e+00 2.946088314056396484e+00 -1.316149473190307617e+00
9.230000000000000000e+02 7.375437164306640625e+01 -2.707423210144042969e+01 -6.585801839828491211e-01 8.269720077514648438e+00 2.283341884613037109e+00 -1.070695519447326660e+00
9.240000000000000000e+02 6.420297241210937500e+01 -2.819703102111816406e+01 -1.057485938072204590e+00 2.060193777084350586e+00 3.008123636245727539e-01 4.130727946758270264e-01
9.250000000000000000e+02 6.025312042236328125e+01 -3.108363342285156250e+01 -1.353326797485351562e+00 1.104550063610076904e-01 -3.728615343570709229e-01 1.025321558117866516e-01
9.260000000000000000e+02 6.177849197387695312e+01 -3.044983482360839844e+01 -1.361353039741516113e+00 6.885168552398681641e-01 -2.018508315086364746e-01 2.364052534103393555e-01
9.270000000000000000e+02 6.716854858398437500e+01 -3.261627197265625000e+01 -7.473111748695373535e-01 4.713430404663085938e+00 1.189835667610168457e+00 5.565795898437500000e-01
9.280000000000000000e+02 1.082461071014404297e+01 -3.115636825561523438e+01 7.056294381618499756e-02 -2.277516573667526245e-02 1.433633361011743546e-02 -9.192322194576263428e-02
9.290000000000000000e+02 1.402628040313720703e+01 -3.158749389648437500e+01 9.447237104177474976e-02 1.528663635253906250e-01 7.420162111520767212e-02 -1.420740038156509399e-01
9.300000000000000000e+02 2.072811508178710938e+01 -3.308464813232421875e+01 1.590341031551361084e-01 2.412338107824325562e-01 1.200803741812705994e-01 -2.077174782752990723e-01
9.310000000000000000e+02 2.323497009277343750e+01 -3.248720169067382812e+01 1.866636872291564941e-01 1.414737403392791748e-01 9.844122827053070068e-02 -1.362238377332687378e-01
9.320000000000000000e+02 2.837043571472167969e+01 -3.492927932739257812e+01 3.077426552772521973e-01 7.794544696807861328e-01 3.261591494083404541e-01 4.142892360687255859e-01
9.330000000000000000e+02 3.727142715454101562e+01 -2.986050987243652344e+01 1.931859552860260010e-01 3.485729217529296875e+00 1.103674530982971191e+00 8.857786059379577637e-01
9.340000000000000000e+02 4.009378433227539062e+01 -3.265909194946289062e+01 -4.542725086212158203e-01 3.473233699798583984e+00 9.056883454322814941e-01 3.661339581012725830e-01
9.350000000000000000e+02 3.862692642211914062e+01 -3.041267967224121094e+01 6.943325698375701904e-02 3.613133668899536133e+00 1.104770064353942871e+00 7.457441091537475586e-01
9.360000000000000000e+02 4.273515701293945312e+01 -3.448267745971679688e+01 -7.691543698310852051e-01 3.319231510162353516e+00 7.650231719017028809e-01 -7.962405681610107422e-02
9.370000000000000000e+02 4.450907897949218750e+01 -3.341689300537109375e+01 -8.008757829666137695e-01 3.284079551696777344e+00 7.449611425399780273e-01 -2.772426009178161621e-01
9.380000000000000000e+02 4.161920547485351562e+01 -3.056187629699707031e+01 -3.040696978569030762e-01 3.808514595031738281e+00 1.051333546638488770e+00 3.896904587745666504e-01
9.390000000000000000e+02 4.413697052001953125e+01 -2.905429458618164062e+01 -3.764179646968841553e-01 4.163574695587158203e+00 1.136146903038024902e+00 8.282577991485595703e-02
9.400000000000000000e+02 4.633421325683593750e+01 -3.554211807250976562e+01 -7.858548164367675781e-01 2.739850044250488281e+00 5.861986279487609863e-01 -5.369809865951538086e-01
9.410000000000000000e+02 4.737821197509765625e+01 -3.320470809936523438e+01 -8.157375454902648926e-01 2.691805839538574219e+00 5.628204941749572754e-01 -6.346315741539001465e-01
9.420000000000000000e+02 4.574295043945312500e+01 -3.200395202636718750e+01 -8.053634762763977051e-01 3.288509845733642578e+00 7.449439167976379395e-01 -4.598147571086883545e-01
9.430000000000000000e+02 4.743872833251953125e+01 -2.749805641174316406e+01 -2.735207080841064453e-01 4.001741886138916016e+00 1.118466258049011230e+00 -1.007224082946777344e+00
9.440000000000000000e+02 5.552321243286132812e+01 -2.989946174621582031e+01 -2.663359880447387695e+00 -8.729239553213119507e-02 -8.251957297325134277e-01 -1.594462543725967407e-01
9.450000000000000000e+02 5.199406814575195312e+01 -3.338225936889648438e+01 -5.864601731300354004e-01 9.948638081550598145e-01 1.225211024284362793e-01 -1.017860293388366699e+00
9.460000000000000000e+02 6.874082183837890625e+01 -3.521160888671875000e+01 -3.710943460464477539e-01 5.274798870086669922e+00 1.471111297607421875e+00 3.256554007530212402e-01
9.470000000000000000e+02 2.225774192810058594e+01 -3.024159431457519531e+01 1.227982938289642334e-01 6.091812252998352051e-02 5.511492490768432617e-02 -1.066882461309432983e-01
9.480000000000000000e+02 4.964908218383789062e+01 -2.953001213073730469e+01 -5.739366412162780762e-01 2.037406206130981445e+00 4.390408396720886230e-01 -8.524654507637023926e-01
9.490000000000000000e+02 4.459920883178710938e+01 -2.434193229675292969e+01 6.216855049133300781e-01 6.054125308990478516e+00 2.002743244171142578e+00 3.057218492031097412e-01
9.500000000000000000e+02 3.909953689575195312e+01 -2.110239219665527344e+01 7.515416145324707031e-01 3.925133466720581055e+00 1.403002500534057617e+00 1.360804438591003418e+00
9.510000000000000000e+02 3.614864349365234375e+01 -2.040815734863281250e+01 1.335921585559844971e-01 2.082041501998901367e+00 6.646901369094848633e-01 3.229539394378662109e-01
9.520000000000000000e+02 3.820966720581054688e+01 -2.436574172973632812e+01 1.098916292190551758e+00 3.781422615051269531e+00 1.464101672172546387e+00 1.573702216148376465e+00
9.530000000000000000e+02 4.213208770751953125e+01 -2.141345787048339844e+01 1.016502499580383301e+00 5.685118198394775391e+00 2.010486125946044922e+00 1.172269940376281738e+00
9.540000000000000000e+02 4.494100189208984375e+01 -1.870343208312988281e+01 7.421879172325134277e-01 9.266347885131835938e+00 3.002560853958129883e+00 7.320312857627868652e-01
9.550000000000000000e+02 3.881838607788085938e+01 -2.005146980285644531e+01 6.383742690086364746e-01 3.828696727752685547e+00 1.340121269226074219e+00 1.080067634582519531e+00
9.560000000000000000e+02 3.766445541381835938e+01 -1.657480049133300781e+01 8.545153141021728516e-01 2.165127515792846680e+00 9.058928489685058594e-01 9.891110658645629883e-02
9.570000000000000000e+02 4.735975265502929688e+01 -2.492009162902832031e+01 1.278067111968994141e+00 5.262829780578613281e+00 1.962269067764282227e+00 -1.977056503295898438e+00
9.580000000000000000e+02 4.640547561645507812e+01 -2.282442283630371094e+01 9.481118917465209961e-01 8.399811744689941406e+00 2.804377079010009766e+00 -1.573871493339538574e+00
9.590000000000000000e+02 4.625192260742187500e+01 -2.148029136657714844e+01 4.620423614978790283e-01 9.992615699768066406e+00 3.136397361755371094e+00 -9.012748003005981445e-01
9.600000000000000000e+02 3.943087387084960938e+01 -1.433129405975341797e+01 1.154123306274414062e+00 3.013337373733520508e+00 1.250238180160522461e+00 3.828268647193908691e-01
9.610000000000000000e+02 2.602569580078125000e+01 -1.459189319610595703e+01 1.476270318031311035e+00 3.902156278491020203e-02 4.545875489711761475e-01 -2.562144398689270020e-01
9.620000000000000000e+02 3.099694442749023438e+01 -1.350884342193603516e+01 1.264527440071105957e+00 -3.627353534102439880e-02 3.684761524200439453e-01 -2.203273922204971313e-01
9.630000000000000000e+02 4.239701843261718750e+01 -1.203718662261962891e+01 6.666970849037170410e-01 5.056438446044921875e+00 1.716940641403198242e+00 8.072177171707153320e-01
9.640000000000000000e+02 3.817279815673828125e+01 -1.133265018463134766e+01 6.200359463691711426e-01 1.750903844833374023e+00 7.112819552421569824e-01 3.029298782348632812e-01
9.650000000000000000e+02 3.611716461181640625e+01 -1.099970531463623047e+01 5.926998853683471680e-01 6.222786903381347656e-01 3.644935786724090576e-01 1.160606592893600464e-01
9.660000000000000000e+02 3.162755393981933594e+01 -1.111760616302490234e+01 5.208106040954589844e-01 -2.358776330947875977e-01 8.547990024089813232e-02 -2.343858033418655396e-01
9.670000000000000000e+02 2.945508384704589844e+01 -1.095551586151123047e+01 3.545393645763397217e-01 -1.891923695802688599e-01 4.960409924387931824e-02 -4.380334317684173584e-01
9.680000000000000000e+02 2.607290267944335938e+01 -1.215939807891845703e+01 6.001580953598022461e-01 9.242945909500122070e-02 2.077762633562088013e-01 -4.947823286056518555e-01
9.690000000000000000e+02 3.212601423263549805e+00 -1.335292816162109375e+01 -4.108641669154167175e-02 -1.638295650482177734e-01 -6.147479638457298279e-02 -1.327772587537765503e-01
9.700000000000000000e+02 6.315139770507812500e+00 -1.651946067810058594e+01 -7.583568245172500610e-02 -1.799300163984298706e-01 -7.672970741987228394e-02 -2.773514986038208008e-01
9.710000000000000000e+02 9.951277732849121094e+00 -1.935052680969238281e+01 7.081224024295806885e-02 -2.139607258141040802e-02 1.482485048472881317e-02 -3.120031654834747314e-01
9.720000000000000000e+02 1.156431102752685547e+01 -2.080598449707031250e+01 1.485101580619812012e-01 3.487921655178070068e-01 1.491906940937042236e-01 -2.233664840459823608e-01
9.730000000000000000e+02 8.240808486938476562e+00 -1.804400253295898438e+01 -2.664581313729286194e-02 -1.444112807512283325e-01 -5.131712928414344788e-02 -3.424482047557830811e-01
9.740000000000000000e+02 8.725501060485839844e+00 -1.644929313659667969e+01 -1.216523498296737671e-01 -1.485990881919860840e-01 -8.107542991638183594e-02 -3.110262751579284668e-01
9.750000000000000000e+02 1.437658596038818359e+01 -2.630508804321289062e+01 3.029630780220031738e-01 3.348040878772735596e-01 1.913301497697830200e-01 -3.065946400165557861e-01
9.760000000000000000e+02 9.177698135375976562e+00 -3.008469009399414062e+01 8.052929490804672241e-02 -1.356234550476074219e-01 -1.652824878692626953e-02 -7.747352868318557739e-02
9.770000000000000000e+02 3.960032701492309570e+00 -2.757714271545410156e+01 4.041346535086631775e-02 -5.809466242790222168e-01 -1.621599346399307251e-01 -6.268267333507537842e-02
9.780000000000000000e+02 1.117424583435058594e+01 -2.468701934814453125e+01 2.543228566646575928e-01 1.436720490455627441e-01 1.193984746932983398e-01 -2.048462331295013428e-01
9.790000000000000000e+02 4.717385292053222656e+00 -2.580334281921386719e+01 6.458860635757446289e-02 -4.814362227916717529e-01 -1.250542849302291870e-01 -1.036408469080924988e-01
9.800000000000000000e+02 8.384071350097656250e+00 -2.057703971862792969e+01 1.287399232387542725e-01 -1.515527367591857910e-01 -6.843845359981060028e-03 -2.900002896785736084e-01
9.810000000000000000e+02 4.080483436584472656e+00 -2.203954696655273438e+01 5.133379250764846802e-02 -4.538020491600036621e-01 -1.207404807209968567e-01 -1.897238194942474365e-01
9.820000000000000000e+02 4.328025341033935547e+00 -1.749224853515625000e+01 -1.305028889328241348e-02 -2.864973247051239014e-01 -8.986429125070571899e-02 -2.365791201591491699e-01
9.830000000000000000e+02 7.525395965576171875e+01 2.334116554260253906e+01 -3.818712532520294189e-01 8.172263145446777344e+00 2.337117433547973633e+00 1.082193493843078613e+00
9.840000000000000000e+02 6.949464416503906250e+01 2.644026565551757812e+01 -1.349444270133972168e+00 6.324687004089355469e+00 1.492572784423828125e+00 -6.890504360198974609e-01
9.850000000000000000e+02 6.446181488037109375e+01 2.916434097290039062e+01 -2.016784697771072388e-01 2.747300148010253906e+00 7.636864781379699707e-01 -7.102430462837219238e-01
9.860000000000000000e+02 6.304273986816406250e+01 2.842504882812500000e+01 -2.768518328666687012e-01 1.797591447830200195e+00 4.562219083309173584e-01 -5.739839673042297363e-01
9.870000000000000000e+02 6.863301849365234375e+01 2.434826660156250000e+01 -1.837343931198120117e+00 6.446161746978759766e+00 1.382645368576049805e+00 -9.627869725227355957e-01
9.880000000000000000e+02 7.242676544189453125e+01 1.899102783203125000e+01 7.603323459625244141e-01 8.669093132019042969e+00 2.828827619552612305e+00 1.136668443679809570e+00
9.890000000000000000e+02 7.023190307617187500e+01 2.318140411376953125e+01 -1.632889628410339355e+00 8.043060302734375000e+00 1.923051357269287109e+00 1.374507099390029907e-01
9.900000000000000000e+02 6.723521423339843750e+01 2.454003524780273438e+01 -1.818988680839538574e+00 5.110703945159912109e+00 9.875146746635437012e-01 -1.307168245315551758e+00
9.910000000000000000e+02 5.680448532104492188e+01 2.217906951904296875e+01 -2.582517385482788086e+00 2.251828312873840332e-01 -7.072003483772277832e-01 -6.263437122106552124e-02
9.920000000000000000e+02 5.084456634521484375e+01 1.766257286071777344e+01 1.133374452590942383e+00 6.507820606231689453e+00 2.292358636856079102e+00 2.322275638580322266e+00
9.930000000000000000e+02 4.567374420166015625e+01 2.053234672546386719e+01 -3.061863183975219727e-01 4.364210605621337891e+00 1.217407345771789551e+00 -6.084018945693969727e-01
9.940000000000000000e+02 4.114504623413085938e+01 2.167278861999511719e+01 -7.878428697586059570e-02 2.749474287033081055e+00 8.012070059776306152e-01 -9.644275903701782227e-01
9.950000000000000000e+02 3.616558456420898438e+01 2.083286094665527344e+01 2.474949657917022705e-01 1.240369796752929688e+00 4.463594257831573486e-01 -7.627716660499572754e-01
9.960000000000000000e+02 3.421266174316406250e+01 2.416007041931152344e+01 3.291255608201026917e-02 1.063480377197265625e+00 3.289178907871246338e-01 -5.948485732078552246e-01
9.970000000000000000e+02 2.927348899841308594e+01 2.457002258300781250e+01 9.607373736798763275e-03 3.568080663681030273e-01 1.099246293306350708e-01 -3.026205003261566162e-01
9.980000000000000000e+02 2.603753852844238281e+01 2.338505554199218750e+01 -1.809948831796646118e-01 5.513740330934524536e-02 -3.775724396109580994e-02 -6.539990752935409546e-02
9.990000000000000000e+02 2.179603004455566406e+01 2.344350814819335938e+01 -2.155720889568328857e-01 -6.048122793436050415e-02 -8.281599730253219604e-02 3.049952350556850433e-02
1.000000000000000000e+03 2.847285079956054688e+01 2.312845802307128906e+01 -8.561028540134429932e-02 1.848929822444915771e-01 2.978480607271194458e-02 -2.074321359395980835e-01
1.001000000000000000e+03 1.561729335784912109e+01 2.075706100463867188e+01 -1.100371628999710083e-01 3.495930507779121399e-02 -2.252335660159587860e-02 5.147155374288558960e-03
1.002000000000000000e+03 1.232994174957275391e+01 2.174835205078125000e+01 -7.077568769454956055e-02 2.691648155450820923e-02 -1.315776258707046509e-02 3.541234135627746582e-02
1.003000000000000000e+03 1.180138397216796875e+01 2.463899612426757812e+01 -5.780339986085891724e-02 2.432705648243427277e-02 -1.004290301352739334e-02 6.489523500204086304e-02
1.004000000000000000e+03 7.528266906738281250e+00 1.939449119567871094e+01 -2.428701519966125488e-02 8.635618723928928375e-05 -7.260197773575782776e-03 2.266187965869903564e-02
1.005000000000000000e+03 4.389879226684570312e+00 2.177324485778808594e+01 -1.254956424236297607e-02 -1.735352352261543274e-02 -8.970926515758037567e-03 2.752622216939926147e-02
1.006000000000000000e+03 4.144279479980468750e+00 1.917600822448730469e+01 -9.540652856230735779e-03 -9.048878215253353119e-03 -5.576859693974256516e-03 1.592201553285121918e-02
1.007000000000000000e+03 7.830161571502685547e+00 1.706166267395019531e+01 -1.913028210401535034e-02 1.173666212707757950e-03 -5.386984907090663910e-03 1.125139649957418442e-02
1.008000000000000000e+03 1.711367416381835938e+01 1.514791107177734375e+01 -8.490149863064289093e-03 -1.781044178642332554e-03 -3.081358270719647408e-03 -6.180284544825553894e-03
1.009000000000000000e+03 1.134762668609619141e+01 1.877598953247070312e+01 -4.507779330015182495e-02 1.402573194354772568e-02 -9.315618313848972321e-03 1.208471041172742844e-02
1.010000000000000000e+03 3.861282730102539062e+01 1.631731605529785156e+01 7.332998514175415039e-01 1.421361327171325684e+00 6.463983654975891113e-01 -1.005076169967651367e+00
1.011000000000000000e+03 3.968417358398437500e+01 1.760095024108886719e+01 6.131968498229980469e-01 2.041775465011596680e+00 7.964917421340942383e-01 -1.154818892478942871e+00
1.012000000000000000e+03 6.098044514656066895e-01 2.058810043334960938e+01 -1.118077547289431095e-03 -1.218193024396896362e-02 -3.990002442151308060e-03 3.804776351898908615e-03
1.013000000000000000e+03 4.874398040771484375e+01 2.017389106750488281e+01 -3.237091302871704102e-01 5.096216201782226562e+00 1.431752085685729980e+00 3.088244795799255371e-01
1.014000000000000000e+03 7.124683380126953125e+01 1.725656890869140625e+01 1.438156723976135254e+00 9.511045455932617188e+00 3.284760713577270508e+00 7.922838330268859863e-01
1.015000000000000000e+03 7.106588745117187500e+01 1.326751422882080078e+01 1.458222746849060059e+00 9.723180770874023438e+00 3.354421138763427734e+00 4.073894321918487549e-01
1.016000000000000000e+03 7.437097167968750000e+01 1.545666313171386719e+01 9.112660884857177734e-01 7.797171115875244141e+00 2.612531185150146484e+00 4.972583949565887451e-01
1.017000000000000000e+03 7.364931488037109375e+01 6.566057205200195312e+00 -1.293331682682037354e-01 7.487113475799560547e+00 2.207334041595458984e+00 -4.729568064212799072e-01
1.018000000000000000e+03 7.125253295898437500e+01 4.695843219757080078e+00 -3.699057400226593018e-01 7.211166381835937500e+00 2.052378177642822266e+00 -1.045410521328449249e-02
1.019000000000000000e+03 6.431869506835937500e+01 7.768553256988525391e+00 1.528869271278381348e+00 2.361742258071899414e+00 1.167183399200439453e+00 1.892293691635131836e+00
1.020000000000000000e+03 6.330221939086914062e+01 6.812995910644531250e+00 1.102303862571716309e+00 1.614679217338562012e+00 8.150949478149414062e-01 1.309318661689758301e+00
1.021000000000000000e+03 6.119095230102539062e+01 2.996852159500122070e+00 1.101845979690551758e+00 1.135032773017883301e+00 6.710636019706726074e-01 8.418756127357482910e-01
1.022000000000000000e+03 6.121408081054687500e+01 4.951256275177001953e+00 6.818634867668151855e-01 7.247210741043090820e-01 4.219753742218017578e-01 6.876043081283569336e-01
1.023000000000000000e+03 6.626457214355468750e+01 9.744738578796386719e+00 2.298796892166137695e+00 5.981758594512939453e+00 2.484166622161865234e+00 3.504228115081787109e+00
1.024000000000000000e+03 6.831237792968750000e+01 6.794343948364257812e+00 9.500710293650627136e-03 6.962920188903808594e+00 2.091726303100585938e+00 1.069167852401733398e+00
1.025000000000000000e+03 4.827905273437500000e+01 6.620194911956787109e+00 2.221110910177230835e-01 2.115464019775390625e+01 6.413025379180908203e+00 9.329355955123901367e-01
1.026000000000000000e+03 4.496030807495117188e+01 9.439929008483886719e+00 7.401695251464843750e-01 7.100295543670654297e+00 2.352139472961425781e+00 -1.953401923179626465e+00
1.027000000000000000e+03 4.741330718994140625e+01 9.384773254394531250e+00 4.761670529842376709e-01 1.348711872100830078e+01 4.188985824584960938e+00 -1.951784193515777588e-01
1.028000000000000000e+03 3.871150970458984375e+01 1.407104015350341797e+01 8.438453674316406250e-01 1.161882877349853516e+00 6.017184853553771973e-01 -9.519988894462585449e-01
1.029000000000000000e+03 6.706988525390625000e+01 -3.676108360290527344e+00 -1.352344900369644165e-01 4.921876907348632812e+00 1.435992717742919922e+00 -6.464145779609680176e-01
1.030000000000000000e+03 7.031458282470703125e+01 -2.758856773376464844e+00 -4.963371753692626953e-01 6.382017135620117188e+00 1.765703916549682617e+00 -2.461533397436141968e-01
1.031000000000000000e+03 7.547183990478515625e+01 -2.157253265380859375e+00 -2.822835445404052734e-01 7.267093658447265625e+00 2.095443010330200195e+00 3.296283772215247154e-03
1.032000000000000000e+03 1.289612865447998047e+01 -3.541425704956054688e+01 4.725323244929313660e-02 3.914967924356460571e-02 2.592087350785732269e-02 -8.920148760080337524e-02
1.033000000000000000e+03 1.762101745605468750e+01 -3.653810119628906250e+01 1.142882630228996277e-01 1.998125314712524414e-01 9.423024207353591919e-02 -1.289806216955184937e-01
1.034000000000000000e+03 3.457019424438476562e+01 -3.449029159545898438e+01 -2.113905698060989380e-01 2.508214950561523438e+00 6.890473365783691406e-01 7.148615717887878418e-01
1.035000000000000000e+03 4.035562896728515625e+01 -3.505609512329101562e+01 -6.763469576835632324e-01 3.210227489471435547e+00 7.601642012596130371e-01 1.567749828100204468e-01
1.036000000000000000e+03 5.087554168701171875e+01 -3.564020538330078125e+01 -3.852828145027160645e-01 1.423961639404296875e+00 3.116036355495452881e-01 -8.695897459983825684e-01
1.037000000000000000e+03 5.855769729614257812e+01 -3.506463623046875000e+01 4.622523114085197449e-02 3.824242353439331055e-01 1.285948455333709717e-01 -9.570638835430145264e-02
1.038000000000000000e+03 6.137065887451171875e+01 -3.593163681030273438e+01 1.709681600332260132e-01 1.296083092689514160e+00 4.401153624057769775e-01 3.142276704311370850e-01
1.039000000000000000e+03 4.560200214385986328e+00 -3.682756423950195312e+01 1.074514724314212799e-02 -6.122872829437255859e-01 -1.804626286029815674e-01 -2.115282788872718811e-02
1.040000000000000000e+03 7.683281707763671875e+01 2.208681488037109375e+01 -1.241052746772766113e-01 7.877262115478515625e+00 2.325947046279907227e+00 1.016300082206726074e+00
1.041000000000000000e+03 7.372277832031250000e+01 2.532063484191894531e+01 -7.722831368446350098e-01 8.039035797119140625e+00 2.180025815963745117e+00 6.354570984840393066e-01
1.042000000000000000e+03 6.869662475585937500e+01 3.026638603210449219e+01 -4.769064784049987793e-01 5.213075637817382812e+00 1.420850753784179688e+00 -7.411596775054931641e-01
1.043000000000000000e+03 6.449852752685546875e+01 3.563259506225585938e+01 4.561637938022613525e-01 3.431185960769653320e+00 1.166204929351806641e+00 -2.413381785154342651e-01
1.044000000000000000e+03 6.623568725585937500e+01 3.000552940368652344e+01 -2.742947041988372803e-01 3.769727706909179688e+00 1.048629879951477051e+00 -8.322741985321044922e-01
1.045000000000000000e+03 6.886959075927734375e+01 2.808311462402343750e+01 -9.072654247283935547e-01 5.553625106811523438e+00 1.393907904624938965e+00 -8.443951010704040527e-01
1.046000000000000000e+03 5.623140335083007812e+01 2.838283538818359375e+01 -4.918510913848876953e-01 1.329660296440124512e+00 2.513427436351776123e-01 1.137916564941406250e+00
1.047000000000000000e+03 5.745819854736328125e+01 2.643449592590332031e+01 -8.411028385162353516e-01 7.773171663284301758e-01 -1.913569308817386627e-02 1.116891145706176758e+00
1.048000000000000000e+03 4.887611007690429688e+01 2.773411369323730469e+01 -9.695735573768615723e-01 3.103768587112426758e+00 6.402584910392761230e-01 6.504788994789123535e-01
1.049000000000000000e+03 5.122362899780273438e+01 2.727260208129882812e+01 -1.039858937263488770e+00 2.790121316909790039e+00 5.250787138938903809e-01 1.058452725410461426e+00
1.050000000000000000e+03 4.788078689575195312e+01 2.294481277465820312e+01 -9.202098846435546875e-01 4.266883850097656250e+00 1.004002094268798828e+00 1.448151022195816040e-01
1.051000000000000000e+03 4.393667602539062500e+01 2.497981643676757812e+01 -6.557622551918029785e-01 3.309660911560058594e+00 7.961695790290832520e-01 -4.554300904273986816e-01
1.052000000000000000e+03 3.638521957397460938e+01 2.518514823913574219e+01 -7.846214622259140015e-02 1.555887818336486816e+00 4.432277083396911621e-01 -6.599279046058654785e-01
1.053000000000000000e+03 2.953261566162109375e+01 2.606135559082031250e+01 2.964332327246665955e-02 4.580934643745422363e-01 1.463210433721542358e-01 -3.394306302070617676e-01
1.054000000000000000e+03 2.824526977539062500e+01 2.559111785888671875e+01 3.188859671354293823e-03 3.229392468929290771e-01 9.783843159675598145e-02 -2.647690176963806152e-01
1.055000000000000000e+03 2.178585052490234375e+01 2.535340118408203125e+01 -8.999774605035781860e-02 4.613711964339017868e-03 -2.561520971357822418e-02 3.292329981923103333e-02
1.056000000000000000e+03 2.588806724548339844e+01 2.585477447509765625e+01 -2.954089641571044922e-02 1.415820270776748657e-01 3.361233696341514587e-02 -1.244786381721496582e-01
1.057000000000000000e+03 1.775461578369140625e+01 2.638609313964843750e+01 -5.650727078318595886e-02 3.768751025199890137e-02 -5.645927973091602325e-03 9.005933254957199097e-02
1.058000000000000000e+03 1.306020832061767578e+01 2.631309509277343750e+01 -5.139487609267234802e-02 2.832272648811340332e-02 -6.921645253896713257e-03 8.219988644123077393e-02
1.059000000000000000e+03 1.557284832000732422e+01 2.688190269470214844e+01 -4.500861838459968567e-02 3.766026720404624939e-02 -2.204504795372486115e-03 9.017457813024520874e-02
1.060000000000000000e+03 8.438607215881347656e+00 2.580448341369628906e+01 -2.359053678810596466e-02 -6.503712385892868042e-03 -9.028274565935134888e-03 6.546972692012786865e-02
1.061000000000000000e+03 4.929941177368164062e+00 2.446545791625976562e+01 -1.245494745671749115e-02 -2.921891957521438599e-02 -1.250215992331504822e-02 4.231671243906021118e-02
1.062000000000000000e+03 6.569320559501647949e-01 2.340451812744140625e+01 -1.268637250177562237e-03 -3.527668118476867676e-02 -1.096359547227621078e-02 6.516252644360065460e-03
1.063000000000000000e+03 7.458802032470703125e+01 2.638083648681640625e+01 -6.647469997406005859e-01 8.106725692749023438e+00 2.232593536376953125e+00 4.667339026927947998e-01
1.064000000000000000e+03 7.058216857910156250e+01 2.763842582702636719e+01 -1.029969692230224609e+00 6.607391357421875000e+00 1.673226594924926758e+00 -4.790855050086975098e-01
1.065000000000000000e+03 5.755053710937500000e+01 3.104108428955078125e+01 5.071034654974937439e-02 1.566618442535400391e+00 4.851986467838287354e-01 6.944155693054199219e-01
1.066000000000000000e+03 5.214262390136718750e+01 2.964540672302246094e+01 -6.115877628326416016e-01 2.318094968795776367e+00 5.119521617889404297e-01 1.041829586029052734e+00
1.067000000000000000e+03 4.516342926025390625e+01 2.857430458068847656e+01 -7.851118445396423340e-01 2.922022819519042969e+00 6.410732865333557129e-01 6.264128535985946655e-02
1.068000000000000000e+03 4.289548873901367188e+01 2.922156143188476562e+01 -5.941132307052612305e-01 2.600084066390991211e+00 6.017912626266479492e-01 -1.757430285215377808e-01
1.069000000000000000e+03 2.612941360473632812e+01 3.150131988525390625e+01 7.638463377952575684e-02 4.183321893215179443e-01 1.484150439500808716e-01 -1.499816030263900757e-01
1.070000000000000000e+03 2.287211036682128906e+01 3.222134017944335938e+01 8.931756764650344849e-02 2.447454482316970825e-01 1.002189069986343384e-01 -3.808274865150451660e-02
1.071000000000000000e+03 1.651254844665527344e+01 3.097525596618652344e+01 3.879480808973312378e-02 5.664478614926338196e-02 2.863187715411186218e-02 7.301735132932662964e-02
1.072000000000000000e+03 1.162170696258544922e+01 3.247362136840820312e+01 3.219266980886459351e-02 2.717166207730770111e-03 1.047295052558183670e-02 7.306221872568130493e-02
1.073000000000000000e+03 1.416160869598388672e+01 3.198072242736816406e+01 4.615810513496398926e-02 3.374221175909042358e-02 2.397009357810020447e-02 7.735832035541534424e-02
1.074000000000000000e+03 1.148821830749511719e+01 2.799369812011718750e+01 -2.031772211194038391e-02 1.200496498495340347e-02 -2.493827370926737785e-03 8.334273099899291992e-02
1.075000000000000000e+03 6.974601745605468750e-01 2.622389221191406250e+01 -1.224627485498785973e-03 -6.750717759132385254e-02 -2.061954140663146973e-02 8.910681121051311493e-03
1.076000000000000000e+03 7.105992889404296875e+01 3.326293563842773438e+01 -1.225747317075729370e-01 6.110698223114013672e+00 1.796437144279479980e+00 -4.131526350975036621e-01
1.077000000000000000e+03 6.533123016357421875e+01 3.271049499511718750e+01 1.742701828479766846e-01 3.493797302246093750e+00 1.100420236587524414e+00 -5.134237408638000488e-01
1.078000000000000000e+03 5.840085220336914062e+01 3.438216781616210938e+01 3.946459889411926270e-01 1.980669975280761719e+00 7.125948071479797363e-01 3.619178831577301025e-01
1.079000000000000000e+03 5.402840042114257812e+01 3.583520507812500000e+01 1.839127242565155029e-01 2.008481264114379883e+00 6.577181816101074219e-01 5.246008038520812988e-01
1.080000000000000000e+03 2.301486206054687500e+01 3.511741638183593750e+01 1.082625314593315125e-01 3.184804618358612061e-01 1.280228942632675171e-01 -3.612802550196647644e-02
1.081000000000000000e+03 1.142723369598388672e+01 3.006631469726562500e+01 9.874106384813785553e-03 4.193156026303768158e-03 4.220178816467523575e-03 8.552622050046920776e-02
1.082000000000000000e+03 4.997847557067871094e+00 3.080073356628417969e+01 4.570473916828632355e-03 -7.128810882568359375e-02 -2.001529186964035034e-02 5.402491241693496704e-02
1.083000000000000000e+03 6.711828112602233887e-01 3.044220542907714844e+01 1.985649811103940010e-03 -1.241702362895011902e-01 -3.665537387132644653e-02 9.126592427492141724e-03
1.084000000000000000e+03 7.335723876953125000e+01 3.565800094604492188e+01 6.954648997634649277e-03 6.983176708221435547e+00 2.097039461135864258e+00 -2.454147189855575562e-01
1.085000000000000000e+03 7.082831573486328125e+01 3.583390426635742188e+01 8.592461049556732178e-02 5.883028984069824219e+00 1.790686011314392090e+00 -3.604743778705596924e-01
1.086000000000000000e+03 6.780153656005859375e+01 3.584711074829101562e+01 2.818683087825775146e-01 4.679904460906982422e+00 1.488531827926635742e+00 -3.882001042366027832e-01
1.087000000000000000e+03 5.166152000427246094e+00 3.325852584838867188e+01 1.282402966171503067e-02 -8.338392525911331177e-02 -2.116796746850013733e-02 4.971668496727943420e-02
1.088000000000000000e+03 7.111051678657531738e-01 3.324053573608398438e+01 1.086646807380020618e-03 -1.609402596950531006e-01 -4.795608296990394592e-02 8.585091680288314819e-03
1.089000000000000000e+03 7.382637786865234375e+01 3.789528274536132812e+01 7.977910339832305908e-02 6.989102840423583984e+00 2.120664596557617188e+00 -1.463325619697570801e-01
1.090000000000000000e+03 7.109421539306640625e+01 3.845362854003906250e+01 2.461137026548385620e-01 6.010871410369873047e+00 1.877095460891723633e+00 -2.268924117088317871e-01
1.091000000000000000e+03 3.534842491149902344e+00 3.768050384521484375e+01 1.325892657041549683e-02 -1.425033062696456909e-01 -3.877331689000129700e-02 2.283830940723419189e-02
1.092000000000000000e+03 7.634096741676330566e-01 3.743854904174804688e+01 -6.581174966413527727e-05 -1.993477046489715576e-01 -5.982405319809913635e-02 5.664894822984933853e-03
1.093000000000000000e+03 4.324061393737792969e+00 1.265136623382568359e+01 -2.070419723168015480e-03 -2.318769547855481505e-04 -6.906890193931758404e-04 9.787657763808965683e-04
1.094000000000000000e+03 7.643543243408203125e+00 1.338247871398925781e+01 -7.539571262896060944e-03 -1.818678574636578560e-03 -2.807474927976727486e-03 2.342506544664502144e-03
1.095000000000000000e+03 1.199321460723876953e+01 1.319493770599365234e+01 -9.589506313204765320e-03 -1.308583887293934822e-03 -3.269426990300416946e-03 -7.919219206087291241e-04
1.096000000000000000e+03 5.829263329505920410e-01 1.637096023559570312e+01 1.900752104120329022e-04 4.210136830806732178e-03 1.320063602179288864e-03 1.025280333124101162e-03
1.097000000000000000e+03 4.248408317565917969e+00 1.016654968261718750e+01 -3.446394402999430895e-04 2.924881409853696823e-04 -1.564538797538261861e-05 -7.624716963618993759e-04
1.098000000000000000e+03 7.097820281982421875e+00 9.654307365417480469e+00 -1.484528766013681889e-03 -1.303655444644391537e-03 -8.364552631974220276e-04 -6.199750932864844799e-04
1.099000000000000000e+03 1.636422538757324219e+01 9.438523292541503906e+00 2.282786881551146507e-03 1.526276580989360809e-03 1.142719062045216560e-03 3.025545040145516396e-03
1.100000000000000000e+03 1.413937950134277344e+01 8.919795989990234375e+00 5.864231497980654240e-04 -8.060673717409372330e-04 -6.589325494132936001e-05 2.571385586634278297e-03
1.101000000000000000e+03 5.891075730323791504e-01 1.357353878021240234e+01 1.800898753572255373e-04 6.619816180318593979e-03 2.039971994236111641e-03 1.135017955675721169e-04
1.102000000000000000e+03 3.207701444625854492e+00 6.513368129730224609e+00 -2.121651486959308386e-04 1.037036650814116001e-03 2.474614593666046858e-04 -1.584706827998161316e-03
1.103000000000000000e+03 1.671556091308593750e+01 7.081496238708496094e+00 2.199946204200387001e-03 1.341828843578696251e-03 1.062532537616789341e-03 2.462758915498852730e-03
1.104000000000000000e+03 1.326317596435546875e+01 8.496292114257812500e+00 -3.462013846728950739e-04 -3.136936575174331665e-03 -1.044941367581486702e-03 7.431553094647824764e-04
1.105000000000000000e+03 6.259438395500183105e-01 9.371746063232421875e+00 -2.988643827848136425e-04 4.705649800598621368e-03 1.322035677731037140e-03 -5.343644297681748867e-04
1.106000000000000000e+03 9.082761764526367188e+00 1.846522450447082520e+00 2.276553772389888763e-03 -5.881660035811364651e-05 6.653211312368512154e-04 -6.914957339176908135e-05
1.107000000000000000e+03 1.518760967254638672e+01 1.650057911872863770e+00 4.473771259654313326e-04 -4.859580803895369172e-05 1.196343946503475308e-04 6.753051420673727989e-04
1.108000000000000000e+03 1.058279800415039062e+01 1.761410117149353027e+00 2.271221019327640533e-03 -1.237505639437586069e-04 6.442411104217171669e-04 2.476107038091868162e-04
1.109000000000000000e+03 6.501054763793945312e-01 6.515257358551025391e+00 -2.732237044256180525e-04 2.606877591460943222e-03 7.000961340963840485e-04 -5.584345199167728424e-04
1.110000000000000000e+03 2.001664924621582031e+01 3.976384401321411133e+00 3.713836849783547223e-05 1.080469810403883457e-03 3.352824423927813768e-04 5.212111282162368298e-04
1.111000000000000000e+03 4.490346527099609375e+01 -2.011475753784179688e+01 8.361338376998901367e-01 8.596441268920898438e+00 2.829772472381591797e+00 3.354665338993072510e-01
1.112000000000000000e+03 6.358601760864257812e+01 -1.150622081756591797e+01 8.713438361883163452e-02 6.573573946952819824e-01 2.233475297689437866e-01 -7.619510889053344727e-01
1.113000000000000000e+03 8.528515815734863281e+00 -2.569492578506469727e+00 -5.058838054537773132e-02 -1.227061171084642410e-02 -1.885769702494144440e-02 -3.560638427734375000e-02
1.114000000000000000e+03 5.867367172241210938e+01 -1.048214817047119141e+01 -1.379981279373168945e+00 -9.777832031250000000e-02 -4.433278739452362061e-01 4.741596877574920654e-01
1.115000000000000000e+03 6.236515808105468750e+01 -1.018765449523925781e+01 4.152813926339149475e-02 6.446307897567749023e-01 2.058476805686950684e-01 -7.499148845672607422e-01
1.116000000000000000e+03 6.736911773681640625e+01 -1.393515205383300781e+01 3.019943952560424805e+00 1.064074993133544922e+01 4.098207950592041016e+00 -4.292369842529296875e+00
1.117000000000000000e+03 6.832671356201171875e+01 -1.718739891052246094e+01 7.869130969047546387e-01 1.706475067138671875e+01 5.355498790740966797e+00 -1.422418594360351562e+00
1.118000000000000000e+03 6.526168823242187500e+01 -2.490072822570800781e+01 1.633239090442657471e-01 2.122659683227539062e+00 6.857950687408447266e-01 9.448573589324951172e-01
1.119000000000000000e+03 6.426647186279296875e+01 -2.586114501953125000e+01 -3.939671218395233154e-01 1.095220923423767090e+00 2.103761434555053711e-01 2.930855751037597656e-01
1.120000000000000000e+03 6.212938308715820312e+01 -2.773715782165527344e+01 -1.410714745521545410e+00 -8.189399540424346924e-02 -4.477826058864593506e-01 -6.106371283531188965e-01
1.121000000000000000e+03 6.098379898071289062e+01 -2.862518310546875000e+01 -2.150249958038330078e+00 -4.206755161285400391e-01 -7.712776660919189453e-01 -8.451399803161621094e-01
1.122000000000000000e+03 5.834591674804687500e+01 -2.973591232299804688e+01 -3.361217975616455078e+00 -4.099467098712921143e-01 -1.131349444389343262e+00 -6.850870847702026367e-01
1.123000000000000000e+03 5.569707489013671875e+01 -3.172045707702636719e+01 -1.367873430252075195e+00 -8.032507449388504028e-02 -4.344595670700073242e-01 -6.213017702102661133e-01
1.124000000000000000e+03 4.924172592163085938e+01 -2.688006401062011719e+01 6.089143157005310059e-01 1.967306137084960938e+00 7.728661298751831055e-01 -1.151602625846862793e+00
1.125000000000000000e+03 4.827062606811523438e+01 -2.587935256958007812e+01 9.942032694816589355e-01 2.667909145355224609e+00 1.098633646965026855e+00 -1.715242385864257812e+00
1.126000000000000000e+03 4.622095870971679688e+01 -1.872043418884277344e+01 1.582274734973907471e-01 1.084369182586669922e+01 3.300575971603393555e+00 5.809774398803710938e-01
1.127000000000000000e+03 4.643554306030273438e+01 -1.592840671539306641e+01 7.141633033752441406e-01 1.203724861145019531e+01 3.825423717498779297e+00 1.878103733062744141e+00
1.128000000000000000e+03 4.670985031127929688e+01 -1.453481864929199219e+01 1.157355070114135742e+00 1.198792171478271484e+01 3.943583011627197266e+00 2.813063383102416992e+00
1.129000000000000000e+03 2.101615905761718750e+01 -1.263403797149658203e+01 4.607107043266296387e-01 6.506997346878051758e-02 1.577342003583908081e-01 -3.117773234844207764e-01
1.130000000000000000e+03 2.474316406250000000e+01 -1.325052738189697266e+01 8.510535955429077148e-01 7.769660651683807373e-02 2.786250710487365723e-01 -3.861112296581268311e-01
1.131000000000000000e+03 2.870191001892089844e+01 -1.483767318725585938e+01 1.892396688461303711e+00 6.853462010622024536e-02 5.882794260978698730e-01 -2.893467545509338379e-01
1.132000000000000000e+03 3.255430984497070312e+01 -1.463613033294677734e+01 1.679277420043945312e+00 9.196121990680694580e-02 5.313715934753417969e-01 -1.699186861515045166e-01
1.133000000000000000e+03 3.605858230590820312e+01 -1.908858108520507812e+01 1.743490248918533325e-02 1.370215535163879395e+00 4.162951409816741943e-01 1.410596668720245361e-01
1.134000000000000000e+03 3.623823165893554688e+01 -2.179761505126953125e+01 1.467825472354888916e-01 2.949600696563720703e+00 9.289149641990661621e-01 5.869785547256469727e-01
1.135000000000000000e+03 3.585866165161132812e+01 -2.455635261535644531e+01 7.943430542945861816e-01 4.866313934326171875e+00 1.698197126388549805e+00 1.617017865180969238e+00
1.136000000000000000e+03 3.332357788085937500e+01 -2.863211059570312500e+01 1.555078148841857910e+00 2.131958007812500000e+00 1.106110811233520508e+00 1.681017637252807617e+00
1.137000000000000000e+03 3.221369552612304688e+01 -2.945236396789550781e+01 1.346368312835693359e+00 1.388193964958190918e+00 8.203687071800231934e-01 1.230921626091003418e+00
1.138000000000000000e+03 2.521059226989746094e+01 -3.092928123474121094e+01 4.078954085707664490e-02 1.568595319986343384e-02 1.694264821708202362e-02 -4.439199808984994888e-03
1.139000000000000000e+03 2.370041847229003906e+01 -3.064639282226562500e+01 5.820838361978530884e-02 5.883994325995445251e-02 3.511449694633483887e-02 -4.331947118043899536e-02
1.140000000000000000e+03 2.083840751647949219e+01 -2.984197235107421875e+01 2.284178584814071655e-01 1.292807906866073608e-01 1.073095947504043579e-01 -1.640267372131347656e-01
1.141000000000000000e+03 1.712557601928710938e+01 -2.750771713256835938e+01 3.929969072341918945e-01 3.588295280933380127e-01 2.255479246377944946e-01 -3.670693635940551758e-01
1.142000000000000000e+03 1.256474399566650391e+01 -2.272009277343750000e+01 3.103883564472198486e-01 5.163253545761108398e-01 2.480141073465347290e-01 -3.580080270767211914e-01
1.143000000000000000e+03 1.148390960693359375e+01 -1.948205757141113281e+01 3.152612969279289246e-02 1.416537612676620483e-01 5.195396393537521362e-02 -1.326947957277297974e-01
1.144000000000000000e+03 1.409792041778564453e+01 -1.307654380798339844e+01 -4.429884552955627441e-01 -3.289442360401153564e-01 -2.315797954797744751e-01 -3.359317183494567871e-01
1.145000000000000000e+03 6.385880279541015625e+01 2.214078903198242188e+01 -3.809851884841918945e+00 -1.546542346477508545e-01 -1.189351916313171387e+00 4.516371786594390869e-01
1.146000000000000000e+03 6.809769439697265625e+01 2.195176887512207031e+01 -2.163624286651611328e+00 7.422370433807373047e+00 1.577623844146728516e+00 -6.092528700828552246e-01
1.147000000000000000e+03 6.840306854248046875e+01 1.550944328308105469e+01 8.143884539604187012e-01 1.496552753448486328e+01 4.733974933624267578e+00 9.710193872451782227e-01
1.148000000000000000e+03 6.714360046386718750e+01 1.074375724792480469e+01 2.312859296798706055e+00 9.407233238220214844e+00 3.516027927398681641e+00 3.731091737747192383e+00
1.149000000000000000e+03 6.532028961181640625e+01 8.736609458923339844e+00 2.079375505447387695e+00 4.016766071319580078e+00 1.828842520713806152e+00 2.680034160614013672e+00
1.150000000000000000e+03 6.226930618286132812e+01 5.871755123138427734e+00 8.704263567924499512e-01 1.096876263618469238e+00 5.901908278465270996e-01 9.289812445640563965e-01
1.151000000000000000e+03 5.913183593750000000e+01 3.029426097869873047e+00 9.966371059417724609e-01 5.299726724624633789e-01 4.579829275608062744e-01 6.886268258094787598e-01
1.152000000000000000e+03 5.621856689453125000e+01 -2.144356369972229004e-01 3.894477367401123047e+00 2.074912190437316895e-01 1.230590581893920898e+00 3.307845294475555420e-01
1.153000000000000000e+03 4.721594238281250000e+01 6.832391738891601562e+00 6.506678462028503418e-01 1.656476783752441406e+01 5.164630889892578125e+00 -9.039172530174255371e-01
1.154000000000000000e+03 4.879896163940429688e+01 1.070715427398681641e+01 4.265331029891967773e-01 1.355816936492919922e+01 4.195410728454589844e+00 2.008448362350463867e+00
1.155000000000000000e+03 4.971006393432617188e+01 1.498523902893066406e+01 8.248242735862731934e-01 8.563258171081542969e+00 2.816424608230590820e+00 2.117133617401123047e+00
1.156000000000000000e+03 5.961338043212890625e+01 2.252861213684082031e+01 -4.394701480865478516e+00 -6.556078791618347168e-02 -1.338078737258911133e+00 -1.559788733720779419e-01
1.157000000000000000e+03 4.433335113525390625e+01 3.766267061233520508e+00 1.661072731018066406e+00 1.871921062469482422e+00 1.059898138046264648e+00 -4.310772120952606201e-01
1.158000000000000000e+03 4.557556915283203125e+01 3.591073513031005859e+00 1.890654206275939941e+00 6.766919612884521484e+00 2.597272157669067383e+00 -3.810030698776245117e+00
1.159000000000000000e+03 4.610688781738281250e+01 3.489249467849731445e+00 1.066352605819702148e+00 1.182381916046142578e+01 3.867051601409912109e+00 -5.343680381774902344e+00
1.160000000000000000e+03 4.613823699951171875e+01 3.724086999893188477e+00 7.378705739974975586e-01 1.204834270477294922e+01 3.835864067077636719e+00 -4.232388496398925781e+00
1.161000000000000000e+03 4.674445343017578125e+01 3.566857814788818359e+00 -1.445696711540222168e+00 1.966825294494628906e+01 5.466766834259033203e+00 -4.017969131469726562e+00
1.162000000000000000e+03 4.609267807006835938e+01 1.540182828903198242e-01 3.019381046295166016e+00 1.025638008117675781e+01 3.982728242874145508e+00 6.228308200836181641e+00
1.163000000000000000e+03 4.578376007080078125e+01 7.765708863735198975e-02 3.503396749496459961e+00 7.578679561614990234e+00 3.324622869491577148e+00 5.547962188720703125e+00
1.164000000000000000e+03 4.437667083740234375e+01 7.021438330411911011e-02 2.567173719406127930e+00 1.743991851806640625e+00 1.293349623680114746e+00 2.100241899490356445e+00
1.165000000000000000e+03 4.259441757202148438e+01 4.920260608196258545e-01 4.038051068782806396e-01 1.987410187721252441e-01 1.807638257741928101e-01 7.269056886434555054e-02
1.166000000000000000e+03 4.109996032714843750e+01 -1.324987530708312988e+00 -1.147662568837404251e-02 -1.086880490183830261e-01 -3.604940325021743774e-02 5.319694802165031433e-02
1.167000000000000000e+03 3.762470626831054688e+01 -3.898873567581176758e+00 -3.295906543731689453e+00 -2.221846431493759155e-01 -1.055427312850952148e+00 -9.079961776733398438e-01
1.168000000000000000e+03 3.376204681396484375e+01 -5.152691841125488281e+00 -3.592832565307617188e+00 -4.029890894889831543e-01 -1.198746562004089355e+00 -8.446283340454101562e-01
1.169000000000000000e+03 2.685293960571289062e+01 -2.763944149017333984e+00 -5.070179700851440430e-01 -2.166024744510650635e-01 -2.170861214399337769e-01 3.255222141742706299e-01
1.170000000000000000e+03 2.324857330322265625e+01 -3.254075765609741211e+00 -7.286099791526794434e-01 9.560103714466094971e-02 -1.899026930332183838e-01 9.468469768762588501e-02
1.171000000000000000e+03 2.239463043212890625e+01 -3.369753122329711914e+00 -7.202396392822265625e-01 6.348195672035217285e-02 -1.970273107290267944e-01 3.753355517983436584e-02
1.172000000000000000e+03 2.155124664306640625e+01 -3.428792476654052734e+00 -6.971068382263183594e-01 3.163171932101249695e-02 -1.996425390243530273e-01 -1.694552600383758545e-02
1.173000000000000000e+03 1.831225967407226562e+01 -3.293532609939575195e+00 -5.440146327018737793e-01 1.063224487006664276e-02 -1.600147038698196411e-01 -1.237582415342330933e-01
1.174000000000000000e+03 1.910676193237304688e+01 -3.360502958297729492e+00 -5.920215249061584473e-01 1.579621061682701111e-02 -1.728675961494445801e-01 -1.037352457642555237e-01
1.175000000000000000e+03 1.675337028503417969e+01 -3.089890480041503906e+00 -4.386191070079803467e-01 1.491315383464097977e-02 -1.271117925643920898e-01 -1.227708384394645691e-01
1.176000000000000000e+03 1.224830913543701172e+01 -2.310561895370483398e+00 -1.491983532905578613e-01 3.941107075661420822e-03 -4.357717186212539673e-02 -6.226688250899314880e-02
1.177000000000000000e+03 1.297315883636474609e+01 -2.441653013229370117e+00 -1.837425529956817627e-01 7.776045240461826324e-03 -5.278995260596275330e-02 -7.074560970067977905e-02
1.178000000000000000e+03 1.371408462524414062e+01 -2.572700977325439453e+00 -2.277472913265228271e-01 9.367553517222404480e-03 -6.551392376422882080e-02 -8.292449265718460083e-02
1.179000000000000000e+03 1.012814903259277344e+01 -1.943060040473937988e+00 -6.799579411745071411e-02 -2.222360577434301376e-03 -2.106544561684131622e-02 -3.545673564076423645e-02
1.180000000000000000e+03 7.159963607788085938e+00 -1.838834524154663086e+00 -1.628145202994346619e-02 -6.313367281109094620e-03 -6.778445560485124588e-03 -1.368674170225858688e-02
1.181000000000000000e+03 6.406311511993408203e+00 -1.834611296653747559e+00 -9.730685502290725708e-03 -6.805159617215394974e-03 -4.960753954946994781e-03 -9.334001690149307251e-03
1.182000000000000000e+03 7.912188053131103516e+00 -1.846157073974609375e+00 -2.556757628917694092e-02 -6.899313535541296005e-03 -9.740066714584827423e-03 -1.960371062159538269e-02
1.183000000000000000e+03 4.158368110656738281e+00 -1.850867748260498047e+00 1.804239000193774700e-03 -3.046459052711725235e-03 -3.726659633684903383e-04 4.141675774008035660e-03
1.184000000000000000e+03 2.691156148910522461e+00 -1.927311539649963379e+00 2.181752584874629974e-03 -1.200641156174242496e-03 2.943334402516484261e-04 7.334640249609947205e-03
1.185000000000000000e+03 1.952375411987304688e+00 -2.005203723907470703e+00 1.804197207093238831e-03 7.506707333959639072e-04 7.664603763259947300e-04 8.191728964447975159e-03
1.186000000000000000e+03 1.856072306632995605e+00 -5.150021553039550781e+00 -5.171486176550388336e-03 -1.630243496038019657e-03 -2.040518913418054581e-03 -1.548975524201523513e-05
1.187000000000000000e+03 1.190872311592102051e+00 -2.097618579864501953e+00 1.034589251503348351e-03 6.168861873447895050e-03 2.161035314202308655e-03 7.272068411111831665e-03
1.188000000000000000e+03 4.032475948333740234e-01 -2.180683612823486328e+00 6.290284363785758615e-05 8.887581527233123779e-03 2.685145242139697075e-03 2.277521882206201553e-03
1.189000000000000000e+03 8.146426081657409668e-01 -3.871768188476562500e+01 -7.408321369439363480e-03 -8.615014553070068359e-01 -2.606729269027709961e-01 1.339934207499027252e-02
1.190000000000000000e+03 8.668562769889831543e-01 -3.326885986328125000e+01 3.645879216492176056e-03 -9.231953024864196777e-01 -2.758648395538330078e-01 4.532504826784133911e-03
1.191000000000000000e+03 8.327640891075134277e-01 -3.183477210998535156e+01 -8.775301394052803516e-04 -9.282432794570922852e-01 -2.787362337112426758e-01 1.951008103787899017e-03
1.192000000000000000e+03 6.624917387962341309e-01 -2.624507141113281250e+01 2.996277064085006714e-03 -8.856600522994995117e-01 -2.647991478443145752e-01 -1.574545912444591522e-02
1.193000000000000000e+03 1.802656292915344238e+00 -2.198031997680664062e+01 1.309166196733713150e-02 -6.066886782646179199e-01 -1.780791133642196655e-01 -1.014520451426506042e-01
1.194000000000000000e+03 1.914402604103088379e+00 -1.920432853698730469e+01 6.402135360985994339e-03 -4.564986228942871094e-01 -1.350289434194564819e-01 -1.267271786928176880e-01
1.195000000000000000e+03 6.159374713897705078e-01 -1.208255577087402344e+01 -9.289119043387472630e-04 -8.479677140712738037e-02 -2.571770548820495605e-02 -2.283487096428871155e-02
1.196000000000000000e+03 1.771318793296813965e+00 -6.517660617828369141e+00 -7.351100910454988480e-03 -8.023354224860668182e-03 -4.612336400896310806e-03 -9.002805687487125397e-03
1.197000000000000000e+03 2.163515090942382812e+00 -2.998096942901611328e+00 -3.317540977150201797e-03 -9.241817751899361610e-04 -1.272516790777444839e-03 6.528447382152080536e-03
1.198000000000000000e+03 7.916826629638671875e+01 3.871536254882812500e+01 1.856117136776447296e-02 8.906723022460937500e+00 2.677585124969482422e+00 -9.378273785114288330e-02
1.199000000000000000e+03 7.778948974609375000e+01 3.795409393310546875e+01 -5.635264143347740173e-02 8.547039031982421875e+00 2.547205686569213867e+00 -1.974848657846450806e-01
1.200000000000000000e+03 7.934663391113281250e+01 3.495508575439453125e+01 -4.837948363274335861e-03 9.302835464477539062e+00 2.789399147033691406e+00 -1.647668518126010895e-02
1.201000000000000000e+03 7.928834533691406250e+01 2.925617027282714844e+01 -2.145996876060962677e-02 9.371022224426269531e+00 2.804868698120117188e+00 4.660343378782272339e-02
1.202000000000000000e+03 7.800759887695312500e+01 2.782189941406250000e+01 -1.259240061044692993e-01 8.766332626342773438e+00 2.592122554779052734e+00 2.324899584054946899e-01
1.203000000000000000e+03 7.798729705810546875e+01 2.507753372192382812e+01 -9.368979185819625854e-02 8.419023513793945312e+00 2.497600078582763672e+00 5.044342279434204102e-01
1.204000000000000000e+03 7.809056854248046875e+01 2.222721290588378906e+01 -1.616597548127174377e-02 7.758686065673828125e+00 2.322756052017211914e+00 6.758938431739807129e-01
1.205000000000000000e+03 7.939754486083984375e+01 1.949060821533203125e+01 -4.164925217628479004e-02 6.559618473052978516e+00 1.955390691757202148e+00 2.584008872509002686e-01
1.206000000000000000e+03 7.820011138916015625e+01 1.806888961791992188e+01 7.055302709341049194e-02 6.621910095214843750e+00 2.007738828659057617e+00 5.403470396995544434e-01
1.207000000000000000e+03 7.811045074462890625e+01 1.529065608978271484e+01 1.222105845808982849e-01 6.213582992553710938e+00 1.900738120079040527e+00 1.917037814855575562e-01
1.208000000000000000e+03 7.948262786865234375e+01 9.814963340759277344e+00 7.357543800026178360e-03 5.814428806304931641e+00 1.746535897254943848e+00 -1.179683879017829895e-01
1.209000000000000000e+03 7.843355560302734375e+01 8.674903869628906250e+00 1.684935949742794037e-02 6.445469856262207031e+00 1.938695669174194336e+00 -3.648803830146789551e-01
1.210000000000000000e+03 7.814408111572265625e+01 6.166351795196533203e+00 -2.618373371660709381e-02 6.894536972045898438e+00 2.060505867004394531e+00 -3.804182112216949463e-01
1.211000000000000000e+03 7.931337738037109375e+01 2.957007408142089844e+00 -1.928062643855810165e-03 7.398207664489746094e+00 2.218883991241455078e+00 -1.151146292686462402e-01
1.212000000000000000e+03 7.931368255615234375e+01 1.394450366497039795e-01 -3.619803814217448235e-03 7.712406635284423828e+00 2.312636137008666992e+00 -5.319459736347198486e-02
1.213000000000000000e+03 7.798762512207031250e+01 -1.040981769561767578e+00 -6.831493228673934937e-02 7.531478404998779297e+00 2.238949060440063477e+00 -4.941795021295547485e-02
1.214000000000000000e+03 7.809801483154296875e+01 -5.332189559936523438e+00 -8.214754611253738403e-02 7.415874481201171875e+00 2.200118064880371094e+00 2.232828289270401001e-01
1.215000000000000000e+03 7.938402557373046875e+01 -6.876313686370849609e+00 -2.090586349368095398e-02 7.289345741271972656e+00 2.180531978607177734e+00 1.259805858135223389e-01
1.216000000000000000e+03 7.817570495605468750e+01 -8.097497940063476562e+00 -6.583938747644424438e-02 7.088211536407470703e+00 2.106711626052856445e+00 4.030465185642242432e-01
1.217000000000000000e+03 7.818860626220703125e+01 -1.213253402709960938e+01 1.152579579502344131e-02 6.334506511688232422e+00 1.903809666633605957e+00 4.874141216278076172e-01
1.218000000000000000e+03 7.939370727539062500e+01 -1.650809288024902344e+01 2.739994414150714874e-02 4.967871665954589844e+00 1.498581528663635254e+00 1.202888693660497665e-02
1.219000000000000000e+03 7.810477447509765625e+01 -1.743447875976562500e+01 1.755727678537368774e-01 5.942163944244384766e+00 1.835320949554443359e+00 -1.298774629831314087e-01
1.220000000000000000e+03 7.807363128662109375e+01 -2.162664413452148438e+01 1.294631659984588623e-01 6.740623474121093750e+00 2.061025857925415039e+00 -7.419095039367675781e-01
1.221000000000000000e+03 7.932645416259765625e+01 -2.347264099121093750e+01 3.249237686395645142e-02 6.976352691650390625e+00 2.102653503417968750e+00 -3.482761085033416748e-01
1.222000000000000000e+03 7.926864624023437500e+01 -2.634519958496093750e+01 -2.105279359966516495e-03 8.271677970886230469e+00 2.480871915817260742e+00 -3.337503075599670410e-01
1.223000000000000000e+03 7.785479736328125000e+01 -2.915971183776855469e+01 -1.284063756465911865e-01 8.855756759643554688e+00 2.618205070495605469e+00 -5.732752680778503418e-01
1.224000000000000000e+03 7.795602416992187500e+01 -3.059109878540039062e+01 -1.068791747093200684e-01 9.118225097656250000e+00 2.703403711318969727e+00 -3.979899287223815918e-01
1.225000000000000000e+03 7.819665527343750000e+01 -3.324856185913085938e+01 -1.045267730951309204e-01 9.487844467163085938e+00 2.814995288848876953e+00 -1.775850057601928711e-01
1.226000000000000000e+03 7.933673095703125000e+01 -3.608291625976562500e+01 3.803782537579536438e-02 1.015864086151123047e+01 3.059003591537475586e+00 -4.654514137655496597e-03
1.227000000000000000e+03 7.869503021240234375e+01 -4.006978607177734375e+01 -1.019370481371879578e-01 9.731645584106445312e+00 2.888912439346313477e+00 1.642430573701858521e-01
1.228000000000000000e+03 5.469660162925720215e-01 3.616870164871215820e+00 -2.633199910633265972e-04 8.228280930779874325e-04 1.678524276940152049e-04 -3.075084823649376631e-04
1.229000000000000000e+03 1.810514569282531738e+00 5.119863986968994141e+00 -2.879342937376350164e-04 1.240541343577206135e-03 2.857821236830204725e-04 -1.071433653123676777e-03
1.230000000000000000e+03 1.981628298759460449e+00 8.151679992675781250e+00 -4.761141026392579079e-04 2.159387106075882912e-03 5.049819010309875011e-04 -1.454319106414914131e-03
1.231000000000000000e+03 6.053970456123352051e-01 1.077940845489501953e+01 2.199513837695121765e-04 5.745049566030502319e-03 1.789500354789197445e-03 -2.967671607621014118e-04
1.232000000000000000e+03 1.799052357673645020e+00 1.233492088317871094e+01 -6.697671778965741396e-05 3.590791253373026848e-03 1.057144370861351490e-03 -1.345278869848698378e-04
1.233000000000000000e+03 1.774006962776184082e+00 1.505734443664550781e+01 -4.864892398472875357e-04 2.047436544671654701e-03 4.682841827161610126e-04 1.686863834038376808e-03
1.234000000000000000e+03 1.763167500495910645e+00 1.780511474609375000e+01 -1.000395976006984711e-03 -3.399835433810949326e-03 -1.320069422945380211e-03 5.253969691693782806e-03
1.235000000000000000e+03 6.811455488204956055e-01 2.481322288513183594e+01 9.932585817296057940e-05 -5.038599297404289246e-02 -1.508600078523159027e-02 7.799739949405193329e-03
1.236000000000000000e+03 7.008334994316101074e-01 2.763560295104980469e+01 1.025529112666845322e-03 -8.565972745418548584e-02 -2.539025805890560150e-02 9.127983823418617249e-03
1.237000000000000000e+03 2.103904962539672852e+00 2.901725578308105469e+01 8.536130771972239017e-04 -9.039407223463058472e-02 -2.686213701963424683e-02 2.670053578913211823e-02
1.238000000000000000e+03 6.685187220573425293e-01 3.183673667907714844e+01 -1.272910740226507187e-03 -1.430239230394363403e-01 -4.328904673457145691e-02 8.526055142283439636e-03
1.239000000000000000e+03 7.824476957321166992e-01 3.465021514892578125e+01 -1.081533991964533925e-05 -1.761810630559921265e-01 -5.285756289958953857e-02 7.581023033708333969e-03
1.240000000000000000e+03 2.507709264755249023e+00 3.594367980957031250e+01 3.376326058059930801e-03 -1.503417044878005981e-01 -4.408961161971092224e-02 2.084100246429443359e-02
1.241000000000000000e+03 7.927434444427490234e-01 3.879348754882812500e+01 5.269652698189020157e-03 -2.036064118146896362e-01 -5.950102582573890686e-02 -1.040921415551565588e-04
1.242000000000000000e+03 9.820384025573730469e+00 1.832840561866760254e+00 1.721034059301018715e-03 -1.770617091096937656e-04 4.631917108781635761e-04 -2.424508711555972695e-04
1.243000000000000000e+03 9.156960487365722656e+00 2.543301820755004883e+00 1.292662229388952255e-03 -4.224996373523026705e-04 2.610487572383135557e-04 -5.203926702961325645e-04
1.244000000000000000e+03 5.434652805328369141e+00 1.871870636940002441e+00 1.150219468399882317e-03 -2.037368540186434984e-04 2.839447697624564171e-04 -8.655587444081902504e-04
1.245000000000000000e+03 3.246974229812622070e+00 1.896638631820678711e+00 7.687476463615894318e-04 3.503984189592301846e-04 3.357438254170119762e-04 -6.966298096813261509e-04
1.246000000000000000e+03 2.525502443313598633e+00 1.905064582824707031e+00 1.708910131128504872e-04 8.817219350021332502e-05 7.771896343911066651e-05 -4.828037926927208900e-04
1.247000000000000000e+03 1.193822622299194336e+00 2.022666454315185547e+00 2.935797965619713068e-04 4.568017029669135809e-04 2.251144469482824206e-04 -4.839438770432025194e-04
1.248000000000000000e+03 1.244626331329345703e+01 2.839147090911865234e+00 1.643529627472162247e-03 -6.381227285601198673e-04 3.016220871359109879e-04 9.338171221315860748e-04
1.249000000000000000e+03 1.288078308105468750e+01 1.338500499725341797e+00 1.380762434564530849e-03 -2.227961667813360691e-04 3.473898977972567081e-04 2.773311862256377935e-04
1.250000000000000000e+03 1.436349678039550781e+01 1.079405903816223145e+00 8.602586458437144756e-04 -9.345810394734144211e-05 2.300401538377627730e-04 3.998997563030570745e-04
1.251000000000000000e+03 1.719421958923339844e+01 1.238171219825744629e+00 8.070578332990407944e-04 1.048618432832881808e-04 2.735759189818054438e-04 5.186650087125599384e-04
1.252000000000000000e+03 1.651060485839843750e+01 6.808698177337646484e-01 8.179246797226369381e-04 6.376999954227358103e-05 2.645083877723664045e-04 3.939239250030368567e-04
1.253000000000000000e+03 1.790297126770019531e+01 4.954409897327423096e-01 4.960217629559338093e-04 1.962376118171960115e-04 2.076778182527050376e-04 2.432416367810219526e-04
1.254000000000000000e+03 1.927459716796875000e+01 3.986901044845581055e-01 2.778899797704070807e-04 3.375379601493477821e-04 1.846283848863095045e-04 1.659114786889404058e-04
1.255000000000000000e+03 2.129672813415527344e+01 4.105202257633209229e-01 -1.852656278060749173e-04 -1.832863345043733716e-04 -1.105655901483260095e-04 4.222342613502405584e-05
1.256000000000000000e+03 2.332774162292480469e+01 6.938466429710388184e-01 -6.535460124723613262e-05 4.692853253800421953e-04 1.211792114190757275e-04 5.262932245386764407e-05
1.257000000000000000e+03 2.394966125488281250e+01 8.759712576866149902e-01 -2.962267899420112371e-04 -4.129881854169070721e-04 -2.127644984284415841e-04 -2.452197368256747723e-04
1.258000000000000000e+03 1.884643745422363281e+01 9.536042213439941406e+00 3.153508994728326797e-03 5.913360510021448135e-03 2.720060758292675018e-03 -2.343492997169960290e-05
1.259000000000000000e+03 1.845413780212402344e+01 1.234133529663085938e+01 3.781323553994297981e-03 1.047889050096273422e-02 4.278064239770174026e-03 4.631463380064815283e-04
1.260000000000000000e+03 1.837164878845214844e+01 1.376435279846191406e+01 -4.416514653712511063e-03 1.184162031859159470e-02 2.227531513199210167e-03 -5.355011089704930782e-04
1.261000000000000000e+03 1.840827560424804688e+01 1.663255882263183594e+01 -1.008546352386474609e-02 2.944390056654810905e-03 -2.142322016879916191e-03 -6.340781226754188538e-03
1.262000000000000000e+03 2.479975128173828125e+01 2.168206977844238281e+01 -4.447099566459655762e-01 2.781036775559186935e-03 -1.325786709785461426e-01 3.314403444528579712e-02
1.263000000000000000e+03 2.924069786071777344e+01 2.074984741210937500e+01 -1.528936624526977539e-01 6.012016907334327698e-02 -2.783204987645149231e-02 -5.596238374710083008e-02
1.264000000000000000e+03 3.192967224121093750e+01 1.952498435974121094e+01 1.875286847352981567e-01 2.355972826480865479e-01 1.269377917051315308e-01 -2.364037334918975830e-01
1.265000000000000000e+03 3.766786575317382812e+01 1.508263874053955078e+01 7.936592698097229004e-01 9.439108371734619141e-01 5.212710499763488770e-01 -8.332251906394958496e-01
1.266000000000000000e+03 4.070082855224609375e+01 1.178182411193847656e+01 7.968564033508300781e-01 1.536377429962158203e+00 6.999701261520385742e-01 -1.089413285255432129e+00
1.267000000000000000e+03 4.229625320434570312e+01 7.654590129852294922e+00 2.081314176321029663e-01 -5.692942738533020020e-01 -1.083488538861274719e-01 -4.622437655925750732e-01
1.268000000000000000e+03 5.147717285156250000e+01 1.892928504943847656e+01 1.222329616546630859e+00 5.163799762725830078e+00 1.915838837623596191e+00 2.235907316207885742e+00
1.269000000000000000e+03 4.194023895263671875e+01 3.165183961391448975e-01 1.636100709438323975e-01 -5.755450576543807983e-02 3.181666880846023560e-02 -9.211335331201553345e-02
1.270000000000000000e+03 4.203215026855468750e+01 6.578301787376403809e-01 -1.126483604311943054e-01 -1.819704473018646240e-01 -8.838564157485961914e-02 -1.557855755090713501e-01
1.271000000000000000e+03 4.453813171386718750e+01 3.749422550201416016e+00 1.684576869010925293e+00 2.107476234436035156e+00 1.137615919113159180e+00 -7.602998614311218262e-01
1.272000000000000000e+03 4.501415252685546875e+01 4.053754329681396484e+00 2.068950414657592773e+00 5.156836032867431641e+00 2.167736053466796875e+00 -1.978909969329833984e+00
1.273000000000000000e+03 4.427566909790039062e+01 4.122852325439453125e+00 1.511205434799194336e+00 1.999876856803894043e+00 1.053324699401855469e+00 -6.848026514053344727e-01
1.274000000000000000e+03 4.456516647338867188e+01 4.119277000427246094e+00 1.687677741050720215e+00 3.039325714111328125e+00 1.418101072311401367e+00 -9.082745909690856934e-01
1.275000000000000000e+03 4.536972808837890625e+01 3.615112781524658203e+00 1.879033684730529785e+00 6.308415412902832031e+00 2.456234693527221680e+00 -3.175644159317016602e+00
1.276000000000000000e+03 4.590815353393554688e+01 3.727777004241943359e+00 1.165155887603759766e+00 1.036787891387939453e+01 3.459910631179809570e+00 -4.336896419525146484e+00
1.277000000000000000e+03 4.628231811523437500e+01 3.494500875473022461e+00 3.409059941768646240e-01 1.450399398803710938e+01 4.453469753265380859e+00 -4.384249687194824219e+00
1.278000000000000000e+03 4.513134765625000000e+01 2.964010238647460938e-01 3.645718574523925781e+00 3.002690792083740234e+00 1.994522809982299805e+00 3.403313636779785156e+00
1.279000000000000000e+03 4.433160018920898438e+01 3.855574429035186768e-01 2.412589788436889648e+00 1.178010463714599609e+00 1.077180027961730957e+00 1.537005662918090820e+00
1.280000000000000000e+03 4.367398834228515625e+01 4.399498403072357178e-01 1.451419472694396973e+00 6.422700285911560059e-01 6.281068325042724609e-01 7.041131258010864258e-01
1.281000000000000000e+03 4.452847290039062500e+01 3.535524606704711914e-01 2.776354074478149414e+00 1.574867725372314453e+00 1.305366516113281250e+00 1.996773481369018555e+00
1.282000000000000000e+03 4.696575164794921875e+01 -1.338406682014465332e+00 -1.739572733640670776e-01 1.130965709686279297e+01 3.340709924697875977e+00 2.136891841888427734e+00
1.283000000000000000e+03 4.654132080078125000e+01 2.526168897747993469e-02 1.375249981880187988e+00 1.435200023651123047e+01 4.718174934387207031e+00 5.424667358398437500e+00
1.284000000000000000e+03 4.472890853881835938e+01 3.304388523101806641e-01 3.092222452163696289e+00 1.890410661697387695e+00 1.494789958000183105e+00 2.443544864654541016e+00
1.285000000000000000e+03 4.349554824829101562e+01 -5.070174932479858398e-01 1.273822784423828125e+00 1.492329359054565430e+00 8.298456072807312012e-01 1.501794219017028809e+00
1.286000000000000000e+03 4.229025650024414062e+01 -6.733271479606628418e-02 5.337066054344177246e-01 2.242582738399505615e-01 2.273894548416137695e-01 2.921046316623687744e-01
1.287000000000000000e+03 2.197909736633300781e+01 4.496552944183349609e-01 1.837849413277581334e-04 2.175207628170028329e-04 1.203917126986198127e-04 -7.506355905206874013e-05
1.288000000000000000e+03 2.103009223937988281e+01 1.381611704826354980e+00 2.937015960924327374e-04 4.122305836062878370e-04 2.117796539096161723e-04 2.317834696441423148e-05
1.289000000000000000e+03 2.062038421630859375e+01 4.115942716598510742e-01 2.875283826142549515e-04 3.009907668456435204e-04 1.765557535691186786e-04 4.318160063121467829e-05
1.290000000000000000e+03 2.078373718261718750e+01 2.389394521713256836e+00 -1.849135333031881601e-05 -2.202139585278928280e-04 -7.161159010138362646e-05 9.584702638676390052e-05
1.291000000000000000e+03 2.146740722656250000e+01 2.381875514984130859e+00 4.350801173131912947e-04 5.062905256636440754e-04 2.824112016241997480e-04 3.120628534816205502e-04
1.292000000000000000e+03 9.407865524291992188e+00 -1.875695466995239258e+00 -5.080985277891159058e-02 -4.975140094757080078e-03 -1.673549786210060120e-02 -3.021228872239589691e-02
1.293000000000000000e+03 1.065031719207763672e+01 -2.790512084960937500e+00 -1.024475097656250000e-01 -7.982609793543815613e-03 -3.312903642654418945e-02 -6.320843845605850220e-02
1.294000000000000000e+03 1.083118629455566406e+01 -2.058100223541259766e+00 -9.161710739135742188e-02 -9.209833806380629539e-04 -2.776142768561840057e-02 -4.409348964691162109e-02
1.295000000000000000e+03 1.116242694854736328e+01 -3.653962373733520508e+00 -1.299013495445251465e-01 -1.845761016011238098e-02 -4.450768977403640747e-02 -9.672697633504867554e-02
1.296000000000000000e+03 9.952892303466796875e+00 -2.690600395202636719e+00 -8.294223248958587646e-02 -9.988983161747455597e-03 -2.787936478853225708e-02 -5.354180559515953064e-02
1.297000000000000000e+03 1.207689380645751953e+01 -3.041740417480468750e+00 -1.559768766164779663e-01 -3.171308664605021477e-03 -4.774445667862892151e-02 -8.928830921649932861e-02
1.298000000000000000e+03 1.783880805969238281e+01 1.190625309944152832e+00 -3.552173075149767101e-05 3.886796184815466404e-05 1.003869101623422466e-06 4.136404895689338446e-04
1.299000000000000000e+03 1.859378242492675781e+01 4.263953566551208496e-01 5.288047395879402757e-05 -1.507466076873242855e-04 -2.935984230134636164e-05 1.981282694032415748e-04
1.300000000000000000e+03 1.545187854766845703e+01 3.224875450134277344e+00 -5.040067480877041817e-04 3.818440891336649656e-04 -3.664879841380752623e-05 7.903393125161528587e-04
1.301000000000000000e+03 1.972861671447753906e+01 1.280794143676757812e+00 3.799389814957976341e-04 4.837010055780410767e-04 2.590919903013855219e-04 2.244816714664921165e-04
1.302000000000000000e+03 2.266459274291992188e+01 5.476467609405517578e-01 -1.400598102918593213e-05 -2.580007712822407484e-04 -8.160202560247853398e-05 9.241742372978478670e-05
1.303000000000000000e+03 2.324232101440429688e+01 1.966447591781616211e+00 3.729461168404668570e-04 6.951415562070906162e-04 3.204263048246502876e-04 3.954195126425474882e-04
1.304000000000000000e+03 8.592536926269531250e+00 4.027445316314697266e+00 1.804368454031646252e-03 -6.025072070769965649e-04 3.605583915486931801e-04 -3.379693953320384026e-05
1.305000000000000000e+03 6.939933300018310547e+00 2.574766635894775391e+00 1.706396345980465412e-03 -8.479206007905304432e-05 4.864812945015728474e-04 -5.322591750882565975e-04
1.306000000000000000e+03 4.747642993927001953e+00 3.399665117263793945e+00 1.034876448102295399e-03 2.111556095769628882e-04 3.738096274901181459e-04 -1.123800408095121384e-03
1.307000000000000000e+03 2.488614320755004883e+00 2.713946819305419922e+00 5.098948022350668907e-04 7.179664680734276772e-04 3.683583927340805531e-04 -8.239581948146224022e-04
1.308000000000000000e+03 7.006872653961181641e+00 3.281499624252319336e+00 9.519393788650631905e-04 -5.705879302695393562e-04 1.144054185715503991e-04 -1.232200185768306255e-03
1.309000000000000000e+03 8.353147506713867188e+00 1.852363944053649902e+00 1.724381349049508572e-03 -2.339304628549143672e-04 4.471352731343358755e-04 -6.496800342574715614e-04
1.310000000000000000e+03 7.680490493774414062e+00 2.566384553909301758e+00 1.275344518944621086e-03 -4.240548878442496061e-04 2.553868689574301243e-04 -9.428304620087146759e-04
1.311000000000000000e+03 4.704456806182861328e+00 1.880120754241943359e+00 1.244072453118860722e-03 1.676426763879135251e-04 4.235145170241594315e-04 -7.509269635193049908e-04
1.312000000000000000e+03 3.973991155624389648e+00 2.661758422851562500e+00 1.043898402713239193e-03 2.217714791186153889e-04 3.797009703703224659e-04 -9.111766703426837921e-04
1.313000000000000000e+03 3.991710901260375977e+00 3.449387788772583008e+00 2.931527560576796532e-04 1.283961610170081258e-04 1.264646707568317652e-04 -1.147638424299657345e-03
1.314000000000000000e+03 1.710309505462646484e+00 2.641517400741577148e+00 -3.932873369194567204e-04 1.330702507402747869e-04 -7.806513167452067137e-05 -4.570766759570688009e-04
1.315000000000000000e+03 1.837764382362365723e+00 1.889153718948364258e+00 6.286514108069241047e-04 1.847530802479013801e-04 2.440213429508730769e-04 -3.752531192731112242e-04
1.316000000000000000e+03 1.508994197845458984e+01 9.459861516952514648e-01 1.283432007767260075e-03 -1.177885060315020382e-04 3.496930585242807865e-04 5.080120172351598740e-04
1.317000000000000000e+03 1.588709068298339844e+01 1.493491888046264648e+00 1.043271739035844803e-03 1.037957645166898146e-05 3.160953929182142019e-04 6.077640573494136333e-04
1.318000000000000000e+03 1.445995616912841797e+01 -2.702927112579345703e+00 -2.702150046825408936e-01 1.202581450343132019e-02 -7.745675742626190186e-02 -9.179184585809707642e-02
1.319000000000000000e+03 1.662125396728515625e+01 -3.833936452865600586e+00 -4.002473056316375732e-01 1.773574016988277435e-02 -1.147534698247909546e-01 -1.713129878044128418e-01
1.320000000000000000e+03 1.429337120056152344e+01 -3.412106513977050781e+00 -2.662219107151031494e-01 6.862289272248744965e-03 -7.780788838863372803e-02 -1.342343688011169434e-01
1.321000000000000000e+03 1.280371189117431641e+01 -3.175600051879882812e+00 -1.900078505277633667e-01 -2.597404818516224623e-04 -5.708027631044387817e-02 -1.049920767545700073e-01
1.322000000000000000e+03 5.651843547821044922e+00 -1.834190845489501953e+00 -4.079434555023908615e-03 -5.905505269765853882e-03 -2.995481947436928749e-03 -3.725741989910602570e-03
1.323000000000000000e+03 8.377529144287109375e+00 -3.275079011917114258e+00 -5.904593318700790405e-02 -2.077141031622886658e-02 -2.394520305097103119e-02 -4.547391086816787720e-02
1.324000000000000000e+03 4.830474376678466797e+00 -3.196018934249877930e+00 -1.617605425417423248e-02 -1.627649925649166107e-02 -9.735765866935253143e-03 -8.207068778574466705e-03
1.325000000000000000e+03 4.849190711975097656e+00 -2.523061275482177734e+00 -8.043106645345687866e-03 -9.491486474871635437e-03 -5.260377656668424606e-03 -2.110927831381559372e-03
1.326000000000000000e+03 9.771321296691894531e+00 -3.428810358047485352e+00 -8.971298485994338989e-02 -2.033636346459388733e-02 -3.301480412483215332e-02 -6.827639788389205933e-02
1.327000000000000000e+03 6.320158004760742188e+00 -2.499168634414672852e+00 -2.028808929026126862e-02 -1.093593984842300415e-02 -9.367208927869796753e-03 -1.386347599327564240e-02
1.328000000000000000e+03 7.058506011962890625e+00 -2.515151262283325195e+00 -2.867291681468486786e-02 -1.195567846298217773e-02 -1.218857802450656891e-02 -2.074837684631347656e-02
1.329000000000000000e+03 3.228719472885131836e+00 -4.205256462097167969e+00 -1.102402061223983765e-02 -1.308470591902732849e-02 -7.232618052512407303e-03 -2.245016396045684814e-03
1.330000000000000000e+03 5.295059680938720703e-01 -3.572964429855346680e+00 2.550252829678356647e-04 1.730289123952388763e-02 5.267375148832798004e-03 2.789440331980586052e-03
1.331000000000000000e+03 4.882263565063476562e+01 -2.077270299196243286e-01 4.671468257904052734e+00 9.127364158630371094e+00 4.139649868011474609e+00 -4.988736629486083984e+00
1.332000000000000000e+03 4.768450927734375000e+01 -2.061334699392318726e-01 1.200680375099182129e+00 1.627157020568847656e+01 5.241675376892089844e+00 -1.605138421058654785e+00
1.333000000000000000e+03 4.949153137207031250e+01 1.161162972450256348e+00 5.942416667938232422e+00 4.035339355468750000e+00 2.993326663970947266e+00 -5.661594867706298828e+00
1.334000000000000000e+03 4.817195892333984375e+01 5.349536418914794922e+00 2.972621023654937744e-01 2.359167480468750000e+01 7.166680812835693359e+00 2.822692394256591797e-01
1.335000000000000000e+03 1.741901397705078125e+01 -3.946576833724975586e+00 -4.473588764667510986e-01 1.971710659563541412e-02 -1.282925307750701904e-01 -1.772125512361526489e-01
1.336000000000000000e+03 1.505597591400146484e+01 -3.535892963409423828e+00 -3.034605383872985840e-01 8.008372038602828979e-03 -8.863564580678939819e-02 -1.468102931976318359e-01
1.337000000000000000e+03 1.967682838439941406e+01 -4.945803642272949219e+00 -5.177915096282958984e-01 6.804212927818298340e-02 -1.349248141050338745e-01 -1.837238073348999023e-01
1.338000000000000000e+03 1.453958892822265625e+01 2.514629364013671875e+00 2.141468721674755216e-04 -6.803643191233277321e-05 4.383313353173434734e-05 6.606210372410714626e-04
1.339000000000000000e+03 1.150327110290527344e+01 2.330571889877319336e+00 1.996268518269062042e-03 -2.834997721947729588e-04 5.138306296430528164e-04 5.770864081569015980e-04
1.340000000000000000e+03 1.224761390686035156e+01 2.157911539077758789e+00 1.287871273234486580e-03 -4.235846281517297029e-04 2.592859964352101088e-04 3.336936060804873705e-04
1.341000000000000000e+03 1.071055793762207031e+01 2.449385643005371094e+00 1.307174912653863430e-03 -4.095576878171414137e-04 2.692851703613996506e-04 4.102171806152909994e-05
1.342000000000000000e+03 1.991348075866699219e+01 -3.400451183319091797e+00 -6.405147910118103027e-01 1.146249473094940186e-02 -1.887156814336776733e-01 -9.267073869705200195e-02
1.343000000000000000e+03 2.066709518432617188e+01 -4.171472072601318359e+00 -6.184505224227905273e-01 5.476314201951026917e-02 -1.691062152385711670e-01 -9.848718345165252686e-02
1.344000000000000000e+03 1.901315689086914062e+01 -4.071737766265869141e+00 -5.402415394783020020e-01 3.415680676698684692e-02 -1.518254280090332031e-01 -1.587482541799545288e-01
1.345000000000000000e+03 1.982128334045410156e+01 -4.150919914245605469e+00 -5.765189528465270996e-01 3.706090152263641357e-02 -1.618374139070510864e-01 -1.293102055788040161e-01
1.346000000000000000e+03 2.324222946166992188e+01 -3.991366624832153320e+00 -7.613965272903442383e-01 1.375075727701187134e-01 -1.871666908264160156e-01 6.608800590038299561e-02
1.347000000000000000e+03 2.494638633728027344e+01 -3.821478366851806641e+00 -8.362327218055725098e-01 1.468373984098434448e-01 -2.068185955286026001e-01 1.792544424533843994e-01
1.348000000000000000e+03 2.588184165954589844e+01 -3.799136400222778320e+00 -8.674196600914001465e-01 1.261239051818847656e-01 -2.223887145519256592e-01 2.407579272985458374e-01
1.349000000000000000e+03 2.410037803649902344e+01 -3.136592388153076172e+00 -7.335395812988281250e-01 1.288484483957290649e-01 -1.814073324203491211e-01 1.446617841720581055e-01
1.350000000000000000e+03 2.570011520385742188e+01 -4.634415626525878906e+00 -1.046123623847961426e+00 1.557706594467163086e-01 -2.671059072017669678e-01 1.695901304483413696e-01
1.351000000000000000e+03 2.408353614807128906e+01 -3.897522449493408203e+00 -8.018137812614440918e-01 1.721777617931365967e-01 -1.888907998800277710e-01 1.208427250385284424e-01
1.352000000000000000e+03 4.358623123168945312e+01 4.059206962585449219e+00 9.160522222518920898e-01 6.334138512611389160e-01 4.648398160934448242e-01 4.207943677902221680e-01
1.353000000000000000e+03 4.383829116821289062e+01 4.735359668731689453e+00 1.104393005371093750e+00 1.847221851348876953e+00 8.854844570159912109e-01 -3.028861582279205322e-01
1.354000000000000000e+03 4.329787445068359375e+01 6.739162921905517578e+00 5.350853204727172852e-01 2.145266532897949219e+00 8.041055202484130859e-01 -1.195628881454467773e+00
1.355000000000000000e+03 1.954593658447265625e+01 -1.334847736358642578e+01 5.128182172775268555e-01 1.147577166557312012e-01 1.882727891206741333e-01 -2.801924943923950195e-01
1.356000000000000000e+03 6.693393707275390625e+01 2.274824333190917969e+01 -1.896657466888427734e+00 5.168567180633544922e+00 9.815728664398193359e-01 -2.011979579925537109e+00
1.357000000000000000e+03 1.504993629455566406e+01 -1.071443462371826172e+01 -1.099489554762840271e-01 -1.895385980606079102e-01 -8.984626829624176025e-02 -3.617976009845733643e-01
1.358000000000000000e+03 6.982270812988281250e+01 -2.207398033142089844e+01 6.454552412033081055e-01 1.100607299804687500e+01 3.495458364486694336e+00 -5.929589867591857910e-01
1.359000000000000000e+03 6.814160919189453125e+01 -2.108821678161621094e+01 2.004292488098144531e+00 1.336357879638671875e+01 4.610361576080322266e+00 2.990648031234741211e+00
1.360000000000000000e+03 3.621094512939453125e+01 -1.776950836181640625e+01 2.921717464923858643e-01 1.229388117790222168e+00 4.564679563045501709e-01 -2.074466273188591003e-02
1.361000000000000000e+03 5.137903594970703125e+01 -5.195463657379150391e+00 -3.021925985813140869e-01 2.575622081756591797e+00 6.820288896560668945e-01 5.454413294792175293e-01
1.362000000000000000e+03 5.233610534667968750e+01 -7.947012424468994141e+00 -5.741018295288085938e+00 -2.717715203762054443e-01 -1.803836941719055176e+00 -3.247010111808776855e-01
1.363000000000000000e+03 2.024541664123535156e+01 2.321301460266113281e+01 -2.299110442399978638e-01 -5.631389562040567398e-03 -7.066272944211959839e-02 6.670549511909484863e-02
1.364000000000000000e+03 1.726131248474121094e+01 2.092480850219726562e+01 -1.479459404945373535e-01 3.468503430485725403e-02 -3.397827222943305969e-02 -2.952031092718243599e-03
1.365000000000000000e+03 3.430702209472656250e+01 -1.495167160034179688e+01 1.436862111091613770e+00 1.926765590906143188e-02 4.368389546871185303e-01 -4.838687181472778320e-02
1.366000000000000000e+03 5.140552520751953125e+01 -2.870665359497070312e+01 -4.953291416168212891e-01 6.302977800369262695e-01 4.049059003591537476e-02 -3.733233511447906494e-01
1.367000000000000000e+03 5.096284866333007812e+01 -3.041489219665527344e+01 -8.216195106506347656e-01 1.305362105369567871e+00 1.451227664947509766e-01 -8.349730372428894043e-01
1.368000000000000000e+03 5.372885513305664062e+01 -7.981595516204833984e+00 -5.755943775177001953e+00 -4.695496857166290283e-01 -1.867648124694824219e+00 3.033815026283264160e-01
1.369000000000000000e+03 6.422338104248046875e+01 -9.767107009887695312e+00 2.551915124058723450e-02 2.457239866256713867e+00 7.448276877403259277e-01 -1.644072175025939941e+00
1.370000000000000000e+03 4.613397598266601562e+01 -2.443180084228515625e+01 9.903615713119506836e-01 6.506094455718994141e+00 2.248936891555786133e+00 -1.030754923820495605e+00
1.371000000000000000e+03 4.630292129516601562e+01 -2.824184417724609375e+01 -3.098550736904144287e-01 3.829129934310913086e+00 1.055782437324523926e+00 -4.579108953475952148e-01
1.372000000000000000e+03 6.853440856933593750e+01 -1.456712913513183594e+01 2.265490770339965820e+00 1.232908916473388672e+01 4.378374099731445312e+00 -2.617569923400878906e+00
1.373000000000000000e+03 4.482244873046875000e+01 -2.285987663269042969e+01 9.902805685997009277e-01 6.850209712982177734e+00 2.352147102355957031e+00 2.197746485471725464e-01
1.374000000000000000e+03 4.754753112792968750e+01 -1.009936523437500000e+01 -2.440432012081146240e-01 7.394619464874267578e+00 2.145172834396362305e+00 1.958814144134521484e+00
1.375000000000000000e+03 4.552809524536132812e+01 -1.039815330505371094e+01 -2.210313230752944946e-01 7.332792282104492188e+00 2.133528232574462891e+00 1.324869394302368164e+00
1.376000000000000000e+03 5.775660705566406250e+01 -7.124420166015625000e+00 -8.818820714950561523e-01 3.588380515575408936e-01 -1.569132059812545776e-01 -7.805224061012268066e-01
1.377000000000000000e+03 9.835489273071289062e+00 -1.599117660522460938e+01 -1.844434589147567749e-01 -1.382805854082107544e-01 -9.681721776723861694e-02 -2.632335722446441650e-01
1.378000000000000000e+03 1.023217964172363281e+01 -1.706488800048828125e+01 -1.239434629678726196e-01 -1.368397921323776245e-01 -7.823497802019119263e-02 -2.963344454765319824e-01
1.379000000000000000e+03 7.065922546386718750e+01 -1.869225692749023438e+01 2.110337972640991211e+00 1.075212669372558594e+01 3.858739376068115234e+00 -7.681441307067871094e-01
1.380000000000000000e+03 5.588713073730468750e+01 -7.356844902038574219e+00 -2.107243299484252930e+00 1.217600610107183456e-02 -6.285201907157897949e-01 -5.989731550216674805e-01
1.381000000000000000e+03 3.741659164428710938e+01 -2.355370330810546875e+01 8.611015677452087402e-01 3.752215862274169922e+00 1.383995294570922852e+00 1.537411570549011230e+00
1.382000000000000000e+03 4.546117019653320312e+01 -1.425716209411621094e+01 1.452954292297363281e+00 9.234069824218750000e+00 3.206107139587402344e+00 1.958702087402343750e+00
1.383000000000000000e+03 4.712429428100585938e+01 -1.316654682159423828e+01 1.707754135131835938e+00 1.125234317779541016e+01 3.888029098510742188e+00 3.631437301635742188e+00
1.384000000000000000e+03 4.916654968261718750e+01 -8.098788261413574219e+00 -2.627321243286132812e+00 5.590012073516845703e+00 8.888072371482849121e-01 2.178578138351440430e+00
1.385000000000000000e+03 7.107231903076171875e+01 -2.177507209777832031e+01 9.967809915542602539e-01 9.556706428527832031e+00 3.166046380996704102e+00 -1.113966107368469238e+00
1.386000000000000000e+03 4.587372207641601562e+01 -1.271881866455078125e+01 1.449629068374633789e+00 8.674660682678222656e+00 3.037286996841430664e+00 1.988147258758544922e+00
1.387000000000000000e+03 5.271044540405273438e+01 -2.936669349670410156e+01 -1.316152691841125488e+00 1.668006181716918945e-01 -3.448056280612945557e-01 -1.178035065531730652e-01
1.388000000000000000e+03 5.717939376831054688e+01 -3.177823829650878906e+01 -1.316477656364440918e+00 -2.472727447748184204e-01 -4.691250920295715332e-01 -4.110463857650756836e-01
1.389000000000000000e+03 5.987195968627929688e+01 -3.293996047973632812e+01 -6.109982132911682129e-01 2.448311448097229004e-01 -1.098501235246658325e-01 1.398768424987792969e-01
1.390000000000000000e+03 5.414645385742187500e+01 -3.175254249572753906e+01 -1.182394504547119141e+00 1.106003001332283020e-01 -3.215382397174835205e-01 -7.593214511871337891e-01
1.391000000000000000e+03 1.309250164031982422e+01 -1.395155715942382812e+01 -3.794113397598266602e-01 -4.527056217193603516e-01 -2.496350854635238647e-01 -3.774429857730865479e-01
1.392000000000000000e+03 1.139150047302246094e+01 -1.375954818725585938e+01 -2.729317247867584229e-01 -2.672942876815795898e-01 -1.620678156614303589e-01 -2.071041315793991089e-01
1.393000000000000000e+03 6.111959457397460938e+01 -1.120572090148925781e+01 -1.154669284820556641e+00 -1.231769751757383347e-02 -3.500961065292358398e-01 1.733084321022033691e-01
1.394000000000000000e+03 5.922076416015625000e+01 -9.426691055297851562e+00 -1.043121457099914551e+00 2.135025411844253540e-01 -2.488856762647628784e-01 1.140847727656364441e-01
1.395000000000000000e+03 6.526454925537109375e+01 -2.717227172851562500e+01 -8.616642355918884277e-01 2.979318380355834961e+00 6.352962255477905273e-01 7.225088477134704590e-01
1.396000000000000000e+03 1.516777992248535156e+01 -1.235567092895507812e+01 -2.615090906620025635e-01 -1.812894940376281738e-01 -1.328395754098892212e-01 -2.667341232299804688e-01
1.397000000000000000e+03 6.621118164062500000e+01 -2.394076919555664062e+01 7.089582085609436035e-01 3.565190553665161133e+00 1.282244563102722168e+00 1.690345525741577148e+00
1.398000000000000000e+03 6.923148345947265625e+01 -2.382200431823730469e+01 -4.948106110095977783e-01 8.552021980285644531e+00 2.417163372039794922e+00 -1.116525381803512573e-01
1.399000000000000000e+03 5.824029922485351562e+01 -8.770929336547851562e+00 -1.303092360496520996e+00 2.425866872072219849e-01 -3.181517124176025391e-01 1.300327628850936890e-01
1.400000000000000000e+03 3.559325790405273438e+01 -5.635993957519531250e+00 -2.604846954345703125e+00 -1.296338587999343872e-01 -8.203442096710205078e-01 -5.906278491020202637e-01
1.401000000000000000e+03 3.757899093627929688e+01 -2.851930809020996094e+01 7.139236330986022949e-01 3.671453952789306641e+00 1.315613269805908203e+00 1.054218769073486328e+00
1.402000000000000000e+03 6.126654434204101562e+01 -9.984065055847167969e+00 -5.293661952018737793e-01 4.317167997360229492e-01 -2.929482050240039825e-02 -2.944817543029785156e-01
1.403000000000000000e+03 6.821403503417968750e+01 -2.452140808105468750e+01 -9.524202942848205566e-01 7.873841762542724609e+00 2.076426506042480469e+00 6.095733642578125000e-01
1.404000000000000000e+03 5.987396240234375000e+01 -1.091673564910888672e+01 -1.299046277999877930e+00 -3.001978155225515366e-03 -3.906144797801971436e-01 3.065494596958160400e-01
1.405000000000000000e+03 4.515451812744140625e+01 -1.575778579711914062e+01 1.309234738349914551e+00 9.362708091735839844e+00 3.201582908630371094e+00 1.680197954177856445e+00
1.406000000000000000e+03 4.487602996826171875e+01 -2.149558830261230469e+01 1.065532922744750977e+00 7.909867763519287109e+00 2.692620277404785156e+00 9.737983345985412598e-02
1.407000000000000000e+03 4.842142105102539062e+01 -2.865040779113769531e+01 -3.261335790157318115e-01 2.728254556655883789e+00 7.206363081932067871e-01 -9.006199240684509277e-01
1.408000000000000000e+03 2.335016632080078125e+01 -1.431807041168212891e+01 9.669071435928344727e-01 2.394798770546913147e-02 2.972565293312072754e-01 -2.094081938266754150e-01
1.409000000000000000e+03 2.345622253417968750e+01 -1.310072517395019531e+01 6.935850381851196289e-01 5.098345503211021423e-02 2.233705520629882812e-01 -3.717305362224578857e-01
1.410000000000000000e+03 3.313968658447265625e+01 -3.114529609680175781e+01 4.224875867366790771e-01 2.122409343719482422e+00 7.634690999984741211e-01 1.158368945121765137e+00
1.411000000000000000e+03 1.938381767272949219e+01 -2.937366867065429688e+01 3.195792436599731445e-01 2.058776915073394775e-01 1.576370894908905029e-01 -2.447199076414108276e-01
1.412000000000000000e+03 2.170568656921386719e+01 -3.182568359375000000e+01 1.783328801393508911e-01 1.589733511209487915e-01 1.011918634176254272e-01 -1.786840260028839111e-01
1.413000000000000000e+03 3.036299896240234375e+01 -3.257003784179687500e+01 3.925959765911102295e-01 9.742757081985473633e-01 4.100615084171295166e-01 7.577841281890869141e-01
1.414000000000000000e+03 3.186030006408691406e+01 -3.192477989196777344e+01 3.674907684326171875e-01 1.684649705886840820e+00 6.156421303749084473e-01 1.019366383552551270e+00
1.415000000000000000e+03 3.654254531860351562e+01 -1.649865150451660156e+01 8.552220463752746582e-01 1.346582055091857910e+00 6.605412364006042480e-01 -1.234909594058990479e-01
1.416000000000000000e+03 1.985848617553710938e+01 -1.228230285644531250e+01 3.773762881755828857e-01 1.124443635344505310e-01 1.469461917877197266e-01 -2.735836207866668701e-01
1.417000000000000000e+03 2.703609466552734375e+01 -3.314574050903320312e+01 3.419421315193176270e-01 2.729663848876953125e-01 1.844725608825683594e-01 1.778919994831085205e-01
1.418000000000000000e+03 3.074126434326171875e+01 -1.221678924560546875e+01 9.105849266052246094e-01 -1.275389492511749268e-01 2.349137961864471436e-01 -2.553853988647460938e-01
1.419000000000000000e+03 2.221090126037597656e+01 -1.290339469909667969e+01 5.729832053184509277e-01 5.955646932125091553e-02 1.897619068622589111e-01 -3.403933644294738770e-01
1.420000000000000000e+03 1.848808097839355469e+01 -3.131317520141601562e+01 1.497538387775421143e-01 2.742804586887359619e-01 1.272102892398834229e-01 -2.339151054620742798e-01
1.421000000000000000e+03 2.736563682556152344e+01 -1.471843528747558594e+01 1.715033173561096191e+00 1.493229810148477554e-02 5.189896225929260254e-01 -2.609634101390838623e-01
1.422000000000000000e+03 2.468573760986328125e+01 -1.445630931854248047e+01 1.235299229621887207e+00 3.364041820168495178e-02 3.806819021701812744e-01 -2.292898446321487427e-01
1.423000000000000000e+03 3.379355621337890625e+01 -1.396596431732177734e+01 1.361424803733825684e+00 4.085019975900650024e-02 4.206824898719787598e-01 -1.505388785153627396e-02
1.424000000000000000e+03 2.732838821411132812e+01 -1.349575614929199219e+01 1.175700902938842773e+00 5.500227212905883789e-02 3.692109584808349609e-01 -4.067058265209197998e-01
1.425000000000000000e+03 2.876430702209472656e+01 -3.295940399169921875e+01 3.795657753944396973e-01 6.773674488067626953e-01 3.170799612998962402e-01 5.031600594520568848e-01
1.426000000000000000e+03 2.860408210754394531e+01 -1.356816196441650391e+01 1.273567199707031250e+00 -6.638790946453809738e-03 3.800785243511199951e-01 -3.257818222045898438e-01
1.427000000000000000e+03 3.752392578125000000e+01 -2.027337074279785156e+01 2.616583704948425293e-01 3.009485721588134766e+00 9.813432097434997559e-01 8.271896243095397949e-01
1.428000000000000000e+03 1.528628063201904297e+01 -2.552693748474121094e+01 3.802863061428070068e-01 3.918141722679138184e-01 2.316301465034484863e-01 -3.931233584880828857e-01
1.429000000000000000e+03 3.774636840820312500e+01 -2.154443168640136719e+01 4.848301410675048828e-01 3.576800107955932617e+00 1.218489050865173340e+00 1.241533994674682617e+00
1.430000000000000000e+03 1.355897998809814453e+01 -2.540803146362304688e+01 2.924487590789794922e-01 3.521359860897064209e-01 1.933754235506057739e-01 -3.082809746265411377e-01
1.431000000000000000e+03 2.809126663208007812e+01 -5.989184379577636719e+00 -1.718892335891723633e+00 3.859189897775650024e-02 -5.040901303291320801e-01 -2.582718729972839355e-01
1.432000000000000000e+03 2.938139533996582031e+01 -7.929677009582519531e+00 -1.188446640968322754e+00 -4.034539461135864258e-01 -4.775701761245727539e-01 -4.798180758953094482e-01
1.433000000000000000e+03 6.863603210449218750e+01 1.985780143737792969e+01 1.298996925354003906e+00 1.166702556610107422e+01 3.889806747436523438e+00 -9.701690673828125000e-01
1.434000000000000000e+03 6.906481170654296875e+01 2.142104911804199219e+01 -1.445414781570434570e+00 8.579390525817871094e+00 2.140192747116088867e+00 1.726784259080886841e-01
1.435000000000000000e+03 5.075606536865234375e+01 -1.255318522453308105e+00 4.641739845275878906e+00 4.553749561309814453e+00 2.758646726608276367e+00 -1.803686380386352539e+00
1.436000000000000000e+03 2.978743553161621094e+01 -6.041464805603027344e+00 -2.633752107620239258e+00 -5.325006246566772461e-01 -9.498758316040039062e-01 4.588055983185768127e-02
1.437000000000000000e+03 3.136535835266113281e+01 -6.846179485321044922e+00 -1.975989103317260742e+00 -5.856703519821166992e-01 -7.684978246688842773e-01 -3.427963256835937500e-01
1.438000000000000000e+03 4.002936935424804688e+01 -3.500484228134155273e+00 -1.690042853355407715e+00 4.940715134143829346e-01 -3.587913811206817627e-01 4.033499956130981445e-02
1.439000000000000000e+03 4.136141204833984375e+01 -2.761046886444091797e+00 -8.558580279350280762e-01 1.386242747306823730e+00 1.591154187917709351e-01 7.838311195373535156e-01
1.440000000000000000e+03 3.897313308715820312e+01 -4.834879875183105469e+00 -1.706410646438598633e+00 6.406193375587463379e-01 -3.197374045848846436e-01 2.565281391143798828e-01
1.441000000000000000e+03 7.934683227539062500e+01 -2.206445884704589844e+01 1.425896305590867996e-02 6.309266090393066406e+00 1.897057414054870605e+00 -2.942827045917510986e-01
1.442000000000000000e+03 7.784807586669921875e+01 -2.610226440429687500e+01 -9.228663146495819092e-02 8.141283988952636719e+00 2.414699316024780273e+00 -8.322437405586242676e-01
1.443000000000000000e+03 7.801490783691406250e+01 -3.576551055908203125e+01 -7.792308181524276733e-02 9.578864097595214844e+00 2.850282192230224609e+00 1.787916570901870728e-02
1.444000000000000000e+03 7.938219451904296875e+01 -3.473064422607421875e+01 -5.855210125446319580e-02 1.017159652709960938e+01 3.033913373947143555e+00 -8.306475356221199036e-03
1.445000000000000000e+03 7.932089233398437500e+01 -3.061400413513183594e+01 -1.821619644761085510e-02 9.627093315124511719e+00 2.882663249969482422e+00 -1.793100982904434204e-01
1.446000000000000000e+03 7.816458129882812500e+01 -3.452113342285156250e+01 -8.492676168680191040e-02 9.594013214111328125e+00 2.852725744247436523e+00 -1.032776981592178345e-01
1.447000000000000000e+03 7.659700775146484375e+01 -3.899118423461914062e+01 -6.753043830394744873e-02 9.336042404174804688e+00 2.780553579330444336e+00 -1.649903133511543274e-03
1.448000000000000000e+03 7.907089996337890625e+01 -3.873477172851562500e+01 2.997445315122604370e-02 9.921538352966308594e+00 2.985453844070434570e+00 7.599582523107528687e-02
1.449000000000000000e+03 7.926439666748046875e+01 -2.779045486450195312e+01 -3.907543793320655823e-02 8.816532135009765625e+00 2.633237123489379883e+00 -2.891543209552764893e-01
1.450000000000000000e+03 7.541753387451171875e+01 3.543332290649414062e+01 -2.691547572612762451e-02 7.756306648254394531e+00 2.318817377090454102e+00 -1.489912569522857666e-01
1.451000000000000000e+03 7.949354553222656250e+01 3.616204833984375000e+01 1.068550441414117813e-02 9.245121002197265625e+00 2.776741981506347656e+00 -6.099963095039129257e-03
1.452000000000000000e+03 7.802658843994140625e+01 -2.305631446838378906e+01 4.955118149518966675e-02 7.192933082580566406e+00 2.172745227813720703e+00 -8.450835347175598145e-01
1.453000000000000000e+03 7.640769958496093750e+01 -2.919385910034179688e+01 -2.739328742027282715e-01 8.542758941650390625e+00 2.480648040771484375e+00 -7.303377985954284668e-01
1.454000000000000000e+03 7.789385986328125000e+01 -3.697529602050781250e+01 -2.636889182031154633e-02 9.557690620422363281e+00 2.859396457672119141e+00 1.668134704232215881e-02
1.455000000000000000e+03 7.938439178466796875e+01 2.088520812988281250e+01 5.378217622637748718e-02 7.135371685028076172e+00 2.156746149063110352e+00 2.726741433143615723e-01
1.456000000000000000e+03 7.933734130859375000e+01 2.508209228515625000e+01 -2.652243897318840027e-02 8.670812606811523438e+00 2.593286991119384766e+00 2.138445228338241577e-01
1.457000000000000000e+03 7.801136779785156250e+01 2.365340995788574219e+01 -1.021168380975723267e-01 8.121726989746093750e+00 2.405883073806762695e+00 6.548641324043273926e-01
1.458000000000000000e+03 7.934317016601562500e+01 2.647302627563476562e+01 -2.682554349303245544e-02 9.022998809814453125e+00 2.698851823806762695e+00 1.553144156932830811e-01
1.459000000000000000e+03 7.940861511230468750e+01 1.253771018981933594e+01 3.707695379853248596e-02 5.375855445861816406e+00 1.623879790306091309e+00 -2.946760505437850952e-02
1.460000000000000000e+03 7.749357604980468750e+01 9.918779373168945312e+00 7.921361923217773438e-02 6.622742176055908203e+00 2.010586738586425781e+00 -4.223055839538574219e-01
1.461000000000000000e+03 7.937832641601562500e+01 1.392072391510009766e+01 -8.206143975257873535e-03 5.337607860565185547e+00 1.598820567131042480e+00 2.365132793784141541e-03
1.462000000000000000e+03 7.939567565917968750e+01 1.809867286682128906e+01 8.807300776243209839e-02 6.041155815124511719e+00 1.838768601417541504e+00 2.086561471223831177e-01
1.463000000000000000e+03 7.766461181640625000e+01 3.059971809387207031e+01 -8.619119226932525635e-02 8.764605522155761719e+00 2.603524208068847656e+00 3.521009534597396851e-02
1.464000000000000000e+03 7.785690307617187500e+01 2.918787193298339844e+01 -8.977857232093811035e-02 8.801655769348144531e+00 2.613563299179077148e+00 1.299929171800613403e-01
1.465000000000000000e+03 7.914255523681640625e+01 3.358541870117187500e+01 5.503474269062280655e-03 9.344949722290039062e+00 2.805135965347290039e+00 -1.905049569904804230e-02
1.466000000000000000e+03 7.815009307861328125e+01 1.669513320922851562e+01 1.751050651073455811e-01 6.348950386047363281e+00 1.957216620445251465e+00 4.006795287132263184e-01
1.467000000000000000e+03 7.658308410644531250e+01 2.101182460784912109e+00 -1.554090082645416260e-01 7.299352645874023438e+00 2.143182992935180664e+00 -3.027593493461608887e-01
1.468000000000000000e+03 7.934146118164062500e+01 4.365234851837158203e+00 -1.130417454987764359e-02 7.154635429382324219e+00 2.142999410629272461e+00 -1.259029656648635864e-01
1.469000000000000000e+03 7.803024291992187500e+01 4.762991905212402344e+00 -4.234006628394126892e-02 7.112059116363525391e+00 2.120915651321411133e+00 -3.611564040184020996e-01
1.470000000000000000e+03 7.936970520019531250e+01 -1.789196968078613281e+01 4.613160341978073120e-02 5.061662673950195312e+00 1.532338380813598633e+00 -7.727234810590744019e-02
1.471000000000000000e+03 7.687742614746093750e+01 -2.125743103027343750e+01 2.787560820579528809e-01 7.153892517089843750e+00 2.229794502258300781e+00 -9.717184305191040039e-01
1.472000000000000000e+03 7.941609191894531250e+01 -1.376383686065673828e+01 1.491075102239847183e-02 5.330316543579101562e+00 1.603568196296691895e+00 1.528911739587783813e-01
1.473000000000000000e+03 7.939822387695312500e+01 -1.103208637237548828e+01 -1.849835971370339394e-03 6.145839214324951172e+00 1.843196749687194824e+00 1.910206377506256104e-01
1.474000000000000000e+03 7.824328613281250000e+01 -1.344288635253906250e+01 8.618828654289245605e-02 6.099073410034179688e+00 1.855578422546386719e+00 4.066116511821746826e-01
1.475000000000000000e+03 7.939196777343750000e+01 -8.266641616821289062e+00 -1.164281461387872696e-02 6.963140010833740234e+00 2.085449218750000000e+00 1.618343740701675415e-01
1.476000000000000000e+03 7.688742065429687500e+01 -1.192792415618896484e+01 7.612540572881698608e-02 6.876333236694335938e+00 2.085737705230712891e+00 6.669529676437377930e-01
1.477000000000000000e+03 7.935006713867187500e+01 -4.086925983428955078e+00 -2.555510401725769043e-02 7.686376571655273438e+00 2.298246383666992188e+00 5.568993464112281799e-02
1.478000000000000000e+03 7.932363128662109375e+01 -1.270292639732360840e+00 -2.998720295727252960e-02 7.774495601654052734e+00 2.323352575302124023e+00 -1.326185464859008789e-02
1.479000000000000000e+03 7.682085418701171875e+01 -5.235639572143554688e+00 -1.764837056398391724e-01 7.355923175811767578e+00 2.153831720352172852e+00 2.957289218902587891e-01
1.480000000000000000e+03 7.930722808837890625e+01 1.547558069229125977e+00 -2.746227756142616272e-02 7.583898544311523438e+00 2.266930818557739258e+00 -7.919470965862274170e-02
1.481000000000000000e+03 7.748014831542968750e+01 3.209463119506835938e+01 -4.625541344285011292e-02 8.686712265014648438e+00 2.592137098312377930e+00 -2.746934443712234497e-02
1.482000000000000000e+03 7.677908325195312500e+01 3.891458511352539062e+01 -2.194043621420860291e-02 8.453501701354980469e+00 2.529468536376953125e+00 -1.393349766731262207e-01
1.483000000000000000e+03 7.823710632324218750e+01 3.696128463745117188e+01 -1.738607510924339294e-02 8.790626525878906250e+00 2.631972074508666992e+00 -1.102965399622917175e-01
1.484000000000000000e+03 7.718141937255859375e+01 3.534571838378906250e+01 -6.261958181858062744e-02 8.561200141906738281e+00 2.549574136734008789e+00 -1.177668720483779907e-01
1.485000000000000000e+03 7.828672790527343750e+01 7.450858592987060547e+00 -9.090605191886425018e-03 6.691811084747314453e+00 2.004816055297851562e+00 -3.860925137996673584e-01
1.486000000000000000e+03 7.658765411376953125e+01 3.651471853256225586e+00 -1.277815550565719604e-01 7.227777957916259766e+00 2.129998922348022461e+00 -4.188379645347595215e-01
1.487000000000000000e+03 7.801477050781250000e+01 -2.485617637634277344e+00 -8.412893861532211304e-02 7.541744709014892578e+00 2.237284898757934570e+00 4.355227202177047729e-02
1.488000000000000000e+03 7.817658233642578125e+01 -9.466274261474609375e+00 -4.292783141136169434e-02 6.850490570068359375e+00 2.042268753051757812e+00 4.798867702484130859e-01
1.489000000000000000e+03 7.806345367431640625e+01 -1.883676528930664062e+01 1.813122779130935669e-01 6.121069431304931641e+00 1.890714526176452637e+00 -3.627997338771820068e-01
1.490000000000000000e+03 3.258400726318359375e+01 -6.733345031738281250e+00 -2.183707952499389648e+00 -5.384356379508972168e-01 -8.166430592536926270e-01 -3.480997383594512939e-01
1.491000000000000000e+03 2.696756744384765625e+01 -3.822742223739624023e+00 -8.798491358757019043e-01 -1.492363512516021729e-01 -3.087256550788879395e-01 3.721690773963928223e-01
1.492000000000000000e+03 5.216847991943359375e+01 2.011664962768554688e+01 7.195996642112731934e-01 3.611156702041625977e+00 1.299226880073547363e+00 1.753892660140991211e+00
1.493000000000000000e+03 5.090560913085937500e+01 2.218167304992675781e+01 -7.951296567916870117e-01 4.190459251403808594e+00 1.018598914146423340e+00 1.029141306877136230e+00
1.494000000000000000e+03 6.914603424072265625e+01 1.003690814971923828e+01 8.637500405311584473e-01 8.709858894348144531e+00 2.872082710266113281e+00 9.304624795913696289e-01
1.495000000000000000e+03 5.308065795898437500e+01 -2.056958228349685669e-01 7.446417331695556641e+00 5.452591180801391602e-01 2.397502899169921875e+00 2.396883070468902588e-01
1.496000000000000000e+03 5.411116409301757812e+01 -1.358010411262512207e+00 4.651838779449462891e+00 6.830342411994934082e-01 1.600461959838867188e+00 -6.704700589179992676e-01
1.497000000000000000e+03 6.124390029907226562e+01 2.532651901245117188e+01 -1.356817483901977539e+00 1.012067571282386780e-01 -3.766832351684570312e-01 8.835943788290023804e-02
1.498000000000000000e+03 6.102172470092773438e+01 2.255039978027343750e+01 -4.976761817932128906e+00 -3.664110600948333740e-01 -1.602951884269714355e+00 2.747947871685028076e-01
1.499000000000000000e+03 6.972109985351562500e+01 1.302301692962646484e+01 1.503697037696838379e+00 1.081541252136230469e+01 3.695732831954956055e+00 9.852570295333862305e-01
1.500000000000000000e+03 4.693458938598632812e+01 1.618843269348144531e+01 4.114248752593994141e-01 6.288336753845214844e+00 2.009928464889526367e+00 -2.412689328193664551e-01
1.501000000000000000e+03 5.682544708251953125e+01 1.321871399879455566e+00 2.784817218780517578e+00 6.236934065818786621e-01 1.022553205490112305e+00 1.223188400268554688e+00
1.502000000000000000e+03 5.337873077392578125e+01 -2.034474372863769531e+00 3.954663038253784180e+00 1.213488459587097168e+00 1.550445437431335449e+00 -7.086458206176757812e-01
1.503000000000000000e+03 4.482798004150390625e+01 6.847289562225341797e+00 7.480615973472595215e-01 6.806838989257812500e+00 2.266470193862915039e+00 -1.954249024391174316e+00
1.504000000000000000e+03 5.682908630371093750e+01 2.380461883544921875e+01 -1.752165794372558594e+00 3.792267143726348877e-01 -4.118817448616027832e-01 7.517808675765991211e-01
1.505000000000000000e+03 6.109243392944335938e+01 2.385520362854003906e+01 -2.685364723205566406e+00 -1.669894456863403320e-01 -8.557062745094299316e-01 1.608337908983230591e-01
1.506000000000000000e+03 5.449857330322265625e+01 2.672324752807617188e+01 -9.616726040840148926e-01 1.824305772781372070e+00 2.587899565696716309e-01 1.352791547775268555e+00
1.507000000000000000e+03 6.218150711059570312e+01 4.008008956909179688e+00 9.010475277900695801e-01 1.556329846382141113e+00 7.372131943702697754e-01 1.002930045127868652e+00
1.508000000000000000e+03 6.995914459228515625e+01 1.178125953674316406e+01 1.180459260940551758e+00 9.976160049438476562e+00 3.346985816955566406e+00 7.512712478637695312e-01
1.509000000000000000e+03 5.826216506958007812e+01 2.385731887817382812e+01 -2.357538700103759766e+00 2.456332296133041382e-01 -6.335716247558593750e-01 5.473063588142395020e-01
1.510000000000000000e+03 5.056761932373046875e+01 2.079335403442382812e+01 -4.661795496940612793e-01 4.614078521728515625e+00 1.244369745254516602e+00 8.121754527091979980e-01
1.511000000000000000e+03 6.413809204101562500e+01 5.940149307250976562e+00 8.487222194671630859e-01 2.761286973953247070e+00 1.083002686500549316e+00 1.553908348083496094e+00
1.512000000000000000e+03 6.510308074951171875e+01 6.894519329071044922e+00 8.636666536331176758e-01 3.921909570693969727e+00 1.435672879219055176e+00 1.936553359031677246e+00
1.513000000000000000e+03 4.618816757202148438e+01 9.385233879089355469e+00 5.616203546524047852e-01 1.026187419891357422e+01 3.247048377990722656e+00 -1.440239906311035156e+00
1.514000000000000000e+03 2.134291172027587891e+00 2.760075759887695312e+01 -1.785133499652147293e-03 -7.469218224287033081e-02 -2.294319495558738708e-02 2.707421779632568359e-02
1.515000000000000000e+03 1.990814805030822754e+00 3.172204017639160156e+01 3.150337142869830132e-03 -1.218752264976501465e-01 -3.561746701598167419e-02 2.520245499908924103e-02
1.516000000000000000e+03 2.427738904953002930e+00 3.446598815917968750e+01 3.647862235084176064e-03 -1.404422372579574585e-01 -4.103831574320793152e-02 2.375110425055027008e-02
1.517000000000000000e+03 2.326535463333129883e+00 3.841989898681640625e+01 9.867532178759574890e-03 -1.708975732326507568e-01 -4.830900952219963074e-02 9.209748357534408569e-03
1.518000000000000000e+03 2.039335489273071289e+00 -3.778917694091796875e+01 9.398284368216991425e-03 -7.914264798164367676e-01 -2.346084564924240112e-01 1.991479285061359406e-02
1.519000000000000000e+03 7.228842377662658691e-01 -3.749882888793945312e+01 1.407842151820659637e-02 -8.881356120109558105e-01 -2.622171640396118164e-01 9.574106894433498383e-03
1.520000000000000000e+03 6.315305233001708984e-01 2.199666976928710938e+01 -1.127714040194405243e-05 -2.239693887531757355e-02 -6.722464691847562790e-03 5.169986747205257416e-03
1.521000000000000000e+03 2.057748317718505859e+00 2.476449012756347656e+01 -3.366693621501326561e-03 -4.620720073580741882e-02 -1.487216819077730179e-02 2.210447750985622406e-02
1.522000000000000000e+03 6.901345252990722656e-01 2.904385757446289062e+01 -1.543133752420544624e-03 -1.046927124261856079e-01 -3.187075629830360413e-02 9.651555679738521576e-03
1.523000000000000000e+03 7.989072799682617188e-01 3.605332946777343750e+01 1.138375024311244488e-03 -1.883376538753509521e-01 -5.615978315472602844e-02 6.583027075976133347e-03
1.524000000000000000e+03 4.654296398162841797e+00 3.883175277709960938e+01 1.829608529806137085e-02 -1.186266466975212097e-01 -3.009916841983795166e-02 2.120100520551204681e-02
1.525000000000000000e+03 7.288321256637573242e-01 -3.041669845581054688e+01 4.117527510970830917e-03 -9.293006062507629395e-01 -2.775549292564392090e-01 -4.307860799599438906e-04
1.526000000000000000e+03 1.901420831680297852e+00 -2.766953277587890625e+01 1.791355572640895844e-02 -7.727734446525573730e-01 -2.264579534530639648e-01 -3.110392577946186066e-02
1.527000000000000000e+03 6.443381309509277344e-01 -1.776856994628906250e+01 2.248107222840189934e-03 -4.146556556224822998e-01 -1.237222701311111450e-01 -4.675510525703430176e-02
1.528000000000000000e+03 1.924420237541198730e+00 -1.634267616271972656e+01 -7.245820481330156326e-03 -2.964576482772827148e-01 -9.111103415489196777e-02 -1.232993230223655701e-01
1.529000000000000000e+03 5.860332846641540527e-01 -6.458034038543701172e+00 -6.278312648646533489e-04 2.131452225148677826e-02 6.206007208675146103e-03 -1.532510621473193169e-03
1.530000000000000000e+03 3.364173412322998047e+00 -3.283978462219238281e+00 -7.559507153928279877e-03 -6.388889625668525696e-03 -4.184518940746784210e-03 3.030912950634956360e-03
1.531000000000000000e+03 5.959218144416809082e-01 -1.066941738128662109e+01 -4.673564340919256210e-03 -3.852326795458793640e-02 -1.295904908329248428e-02 -1.632592640817165375e-02
1.532000000000000000e+03 1.744238734245300293e+00 -9.233516693115234375e+00 -1.070479396730661392e-02 -4.194997996091842651e-02 -1.579643227159976959e-02 -3.083055652678012848e-02
1.533000000000000000e+03 6.170495152473449707e-01 -2.058746528625488281e+01 4.411622881889343262e-03 -6.157893538475036621e-01 -1.834133267402648926e-01 -4.172049835324287415e-02
1.534000000000000000e+03 1.929844617843627930e+00 -1.778858947753906250e+01 -3.278273157775402069e-03 -3.786653876304626465e-01 -1.145830973982810974e-01 -1.292736977338790894e-01
1.535000000000000000e+03 6.152693033218383789e-01 -2.340701675415039062e+01 4.981650970876216888e-03 -7.857661843299865723e-01 -2.342353612184524536e-01 -3.009916469454765320e-02
1.536000000000000000e+03 2.048713684082031250e+00 -2.628389549255371094e+01 1.249925512820482254e-02 -7.344583272933959961e-01 -2.165877372026443481e-01 -4.455892369151115417e-02
1.537000000000000000e+03 4.074617385864257812e+00 -3.381384658813476562e+01 1.200628466904163361e-02 -6.141672134399414062e-01 -1.806482821702957153e-01 -1.114542596042156219e-02
1.538000000000000000e+03 1.654789924621582031e+00 3.691254615783691406e+00 5.935744848102331161e-04 8.363003726117312908e-04 4.289624630473554134e-04 -6.259726942516863346e-04
1.539000000000000000e+03 1.828142046928405762e+00 2.058004570007324219e+01 -1.579862087965011597e-03 -1.507287379354238510e-02 -4.995820578187704086e-03 1.098601613193750381e-02
1.540000000000000000e+03 5.942434668540954590e-01 1.917995071411132812e+01 1.281091972487047315e-04 -4.465463571250438690e-03 -1.301206299103796482e-03 2.721675904467701912e-03
1.541000000000000000e+03 5.852481722831726074e-01 1.777388954162597656e+01 -8.672895492054522038e-04 8.370439754799008369e-04 -9.073673027160111815e-06 1.738529652357101440e-03
1.542000000000000000e+03 5.851199626922607422e-01 1.497100448608398438e+01 -5.687212687917053699e-04 5.922593176364898682e-03 1.606161589734256268e-03 4.516852204687893391e-04
1.543000000000000000e+03 1.862720489501953125e+00 9.591305732727050781e+00 2.992193039972335100e-04 3.054882632568478584e-03 1.006230595521628857e-03 -8.910953765735030174e-04
1.544000000000000000e+03 6.545924544334411621e-01 7.950409889221191406e+00 2.642737235873937607e-04 3.696900093927979469e-03 1.188352121971547604e-03 -4.269804630894213915e-04
1.545000000000000000e+03 3.337091684341430664e+00 -3.872620391845703125e+01 9.955383837223052979e-03 -7.531858682632446289e-01 -2.229691445827484131e-01 9.690436534583568573e-03
1.546000000000000000e+03 2.567445993423461914e+00 -3.165648651123046875e+01 7.012109737843275070e-03 -7.493674755096435547e-01 -2.227066159248352051e-01 -5.037985742092132568e-03
1.547000000000000000e+03 1.924492478370666504e+00 -2.478652381896972656e+01 2.114252559840679169e-02 -7.056193351745605469e-01 -2.053430378437042236e-01 -6.602589786052703857e-02
1.548000000000000000e+03 6.444339156150817871e-01 -2.482574462890625000e+01 2.551587764173746109e-03 -8.449642658233642578e-01 -2.527238130569458008e-01 -2.151653915643692017e-02
1.549000000000000000e+03 1.945098280906677246e+00 -1.488750076293945312e+01 -1.721717789769172668e-02 -2.225620150566101074e-01 -7.193375378847122192e-02 -1.063246056437492371e-01
1.550000000000000000e+03 6.493319272994995117e-01 -1.491830730438232422e+01 -2.579455904196947813e-04 -2.237841188907623291e-01 -6.721261888742446899e-02 -3.901498019695281982e-02
1.551000000000000000e+03 1.833975315093994141e+00 -1.202284812927246094e+01 -1.660798862576484680e-02 -1.122811064124107361e-01 -3.866672888398170471e-02 -6.556338816881179810e-02
1.552000000000000000e+03 2.976512908935546875e+00 -6.637374877929687500e+00 -1.618483848869800568e-02 -3.117744997143745422e-02 -1.420868653804063797e-02 -2.016751095652580261e-02
1.553000000000000000e+03 5.784847736358642578e-01 -7.862209320068359375e+00 -2.874900586903095245e-03 1.254978030920028687e-02 2.902464009821414948e-03 -5.748731084167957306e-03
1.554000000000000000e+03 2.117288589477539062e+00 -3.972942352294921875e+00 -4.620796535164117813e-03 -4.170021275058388710e-04 -1.511339563876390457e-03 4.159238189458847046e-03
1.555000000000000000e+03 6.027784943580627441e-01 5.072587966918945312e+00 3.658330824691802263e-04 1.651534461416304111e-03 6.052102544344961643e-04 -3.397682157810777426e-04
1.556000000000000000e+03 5.948618650436401367e-01 1.217774486541748047e+01 -3.809164336416870356e-04 6.361921783536672592e-03 1.794301671907305717e-03 -2.569439529906958342e-04
1.557000000000000000e+03 1.894987463951110840e+00 2.197252655029296875e+01 -3.388354787603020668e-03 -2.383427694439888000e-02 -8.166790008544921875e-03 1.445520296692848206e-02
1.558000000000000000e+03 1.776676559448242188e+01 1.918171048164367676e+00 9.386138408444821835e-04 2.426777609798591584e-05 2.888644812628626823e-04 3.183920052833855152e-04
1.559000000000000000e+03 2.718629455566406250e+01 2.435808372497558594e+01 -6.818198412656784058e-02 1.774601787328720093e-01 3.278345987200737000e-02 -1.574966609477996826e-01
1.560000000000000000e+03 1.799208831787109375e+01 6.994261741638183594e+00 -2.682894002646207809e-03 2.075146650895476341e-03 -1.823242200771346688e-04 7.199195097200572491e-04
1.561000000000000000e+03 1.737313652038574219e+01 1.087047195434570312e+01 2.817404689267277718e-03 4.419261589646339417e-03 2.170999767258763313e-03 2.126479521393775940e-03
1.562000000000000000e+03 2.282690620422363281e+01 1.615468740463256836e+00 1.360509340884163976e-04 -4.807182995136827230e-04 -1.034002052620053291e-04 1.332332176389172673e-04
1.563000000000000000e+03 2.238724327087402344e+01 2.971250057220458984e+00 -3.596953174564987421e-04 -8.349114796146750450e-04 -3.583820362109690905e-04 -4.438094038050621748e-04
1.564000000000000000e+03 1.796009063720703125e+01 5.875764369964599609e+00 1.950383186340332031e-03 9.266834240406751633e-04 8.631199598312377930e-04 1.137846847996115685e-03
1.565000000000000000e+03 1.938601493835449219e+01 5.654498577117919922e+00 -1.607233425602316856e-03 1.985018607228994370e-03 1.133355399360880256e-04 7.439873297698795795e-04
1.566000000000000000e+03 4.370186996459960938e+01 1.138098716735839844e+01 9.640932679176330566e-01 4.468447208404541016e+00 1.629762053489685059e+00 -1.850929856300354004e+00
1.567000000000000000e+03 4.251950073242187500e+01 1.094411945343017578e+01 9.431692361831665039e-01 2.726288318634033203e+00 1.100837230682373047e+00 -1.582961916923522949e+00
1.568000000000000000e+03 1.785426712036132812e+01 8.198669433593750000e+00 2.275991952046751976e-03 3.002322977408766747e-03 1.583494478836655617e-03 1.674326718784868717e-03
1.569000000000000000e+03 1.845653343200683594e+01 2.481877088546752930e+00 -6.419912097044289112e-05 2.277951571159064770e-04 4.907881157123483717e-05 5.402906026574783027e-05
1.570000000000000000e+03 2.093877410888671875e+01 3.241150379180908203e+00 -4.822688060812652111e-04 -2.249558456242084503e-04 -2.121673896908760071e-04 -2.963873266708105803e-04
1.571000000000000000e+03 3.399105834960937500e+01 2.017216682434082031e+01 2.598402500152587891e-01 6.918915510177612305e-01 2.855195403099060059e-01 -5.241581797599792480e-01
1.572000000000000000e+03 3.345567703247070312e+01 2.252788543701171875e+01 1.022724211215972900e-01 8.057880401611328125e-01 2.724181413650512695e-01 -5.469095706939697266e-01
1.573000000000000000e+03 4.229865646362304688e+01 4.953028678894042969e+00 -6.875464227050542831e-03 -2.660390377044677734e+00 -8.001797795295715332e-01 2.218280732631683350e-01
1.574000000000000000e+03 4.350065231323242188e+01 5.286591529846191406e+00 7.192850708961486816e-01 9.008867740631103516e-01 4.860515594482421875e-01 -3.294813930988311768e-01
1.575000000000000000e+03 4.072198486328125000e+01 1.434319686889648438e+01 9.612494111061096191e-01 2.075902938842773438e+00 9.111456871032714844e-01 -1.300592184066772461e+00
1.576000000000000000e+03 3.659587860107421875e+01 1.605765724182128906e+01 6.840344071388244629e-01 7.383636832237243652e-01 4.267194271087646484e-01 -7.063853740692138672e-01
1.577000000000000000e+03 3.131059265136718750e+01 2.171336936950683594e+01 4.482583701610565186e-02 3.819611668586730957e-01 1.280360966920852661e-01 -3.390885591506958008e-01
1.578000000000000000e+03 4.226026153564453125e+01 -1.147995591163635254e+00 3.973348438739776611e-01 8.635180592536926270e-01 3.782558739185333252e-01 8.603227734565734863e-01
1.579000000000000000e+03 4.273365783691406250e+01 -5.267722010612487793e-01 6.892767548561096191e-01 8.173104524612426758e-01 4.519761502742767334e-01 8.337565064430236816e-01
1.580000000000000000e+03 6.606430816650390625e+01 7.830196857452392578e+00 9.405289292335510254e-01 5.148634433746337891e+00 1.826748967170715332e+00 2.209463596343994141e+00
1.581000000000000000e+03 6.651596069335937500e+01 -1.112204647064208984e+01 1.975078284740447998e-01 5.884987354278564453e+00 1.824748516082763672e+00 -2.530334472656250000e+00
1.582000000000000000e+03 6.582955169677734375e+01 -1.013809394836425781e+01 1.348658055067062378e-01 4.762727737426757812e+00 1.469278097152709961e+00 -2.265354871749877930e+00
1.583000000000000000e+03 2.335084152221679688e+01 2.342062187194824219e+01 -2.446163445711135864e-01 -4.527670890092849731e-02 -8.696791529655456543e-02 -1.799877546727657318e-02
1.584000000000000000e+03 4.648777389526367188e+01 3.548689603805541992e+00 -7.837716937065124512e-01 1.777426719665527344e+01 5.097148895263671875e+00 -4.984039306640625000e+00
1.585000000000000000e+03 4.491657257080078125e+01 4.306958198547363281e+00 1.997825503349304199e+00 5.025566101074218750e+00 2.107017517089843750e+00 -1.979446411132812500e+00
1.586000000000000000e+03 4.497568130493164062e+01 3.709687709808349609e+00 1.834913253784179688e+00 3.976842403411865234e+00 1.743526697158813477e+00 -1.825199604034423828e+00
1.587000000000000000e+03 4.540637969970703125e+01 3.908902406692504883e+00 1.960661053657531738e+00 7.175621509552001953e+00 2.740884780883789062e+00 -2.933108568191528320e+00
1.588000000000000000e+03 4.592531585693359375e+01 3.503980636596679688e+00 1.527016997337341309e+00 1.015172100067138672e+01 3.503621578216552734e+00 -4.823746681213378906e+00
1.589000000000000000e+03 4.517978668212890625e+01 3.663755416870117188e+00 2.001283884048461914e+00 4.846374511718750000e+00 2.054297447204589844e+00 -2.244861125946044922e+00
1.590000000000000000e+03 4.520150375366210938e+01 2.371388301253318787e-02 3.418954372406005859e+00 4.132764339447021484e+00 2.265515565872192383e+00 4.003316402435302734e+00
1.591000000000000000e+03 4.592051315307617188e+01 -1.237484589219093323e-01 2.722841739654541016e+00 9.181626319885253906e+00 3.571340560913085938e+00 5.373587131500244141e+00
1.592000000000000000e+03 4.635985946655273438e+01 -3.239881992340087891e-01 1.376043200492858887e+00 1.256544971466064453e+01 4.182447910308837891e+00 4.935015678405761719e+00
1.593000000000000000e+03 4.493102645874023438e+01 3.145060241222381592e-01 3.447730779647827148e+00 2.480507135391235352e+00 1.778471350669860840e+00 2.960371732711791992e+00
1.594000000000000000e+03 4.323700332641601562e+01 -1.040836647152900696e-01 1.135996103286743164e+00 8.661165237426757812e-01 6.006338000297546387e-01 8.521731495857238770e-01
1.595000000000000000e+03 1.045700836181640625e+01 -3.531486272811889648e+00 -1.098705381155014038e-01 -1.882519200444221497e-02 -3.860871866345405579e-02 -8.215916156768798828e-02
1.596000000000000000e+03 9.250767707824707031e+00 -2.616152048110961914e+00 -6.462733447551727295e-02 -1.118555665016174316e-02 -2.274386771023273468e-02 -4.339496418833732605e-02
1.597000000000000000e+03 4.727212524414062500e+01 3.915642976760864258e+00 -1.351900100708007812e+00 2.054775047302246094e+01 5.758755207061767578e+00 -3.486666977405548096e-01
1.598000000000000000e+03 2.006243705749511719e+01 2.360766887664794922e+00 5.280742770992219448e-04 6.790186744183301926e-04 3.621279029175639153e-04 1.103798858821392059e-04
1.599000000000000000e+03 1.847806549072265625e+01 1.164253830909729004e+00 4.452328430488705635e-04 3.332201449666172266e-04 2.335359022254124284e-04 2.314070734428241849e-04
1.600000000000000000e+03 4.179532623291015625e+01 -1.890241265296936035e+00 -2.065645605325698853e-01 9.529816508293151855e-01 2.239251285791397095e-01 6.544042825698852539e-01
1.601000000000000000e+03 4.410784530639648438e+01 -3.210312873125076294e-02 2.204904079437255859e+00 1.611132740974426270e+00 1.144811034202575684e+00 1.807639002799987793e+00
1.602000000000000000e+03 2.036754989624023438e+01 1.355517864227294922e+00 -2.879591193050146103e-04 -1.714989339234307408e-04 -1.378374145133420825e-04 7.789363735355436802e-05
1.603000000000000000e+03 1.445817756652832031e+01 1.779286503791809082e+00 1.618302310816943645e-03 -2.639575686771422625e-04 4.063034430146217346e-04 8.496926166117191315e-04
1.604000000000000000e+03 1.654910850524902344e+01 1.338037610054016113e+00 2.808743156492710114e-04 -2.606772068247664720e-05 7.644198194611817598e-05 4.852226993534713984e-04
1.605000000000000000e+03 1.698448944091796875e+01 2.534342765808105469e+00 8.478898671455681324e-04 6.730082677677273750e-04 4.562694521155208349e-04 1.375121530145406723e-03
1.606000000000000000e+03 1.094472122192382812e+01 -4.403164386749267578e+00 -1.292750686407089233e-01 -3.289115428924560547e-02 -4.864986613392829895e-02 -1.150430217385292053e-01
1.607000000000000000e+03 1.188701820373535156e+01 -3.799606323242187500e+00 -1.568828672170639038e-01 -1.650844514369964600e-02 -5.201739445328712463e-02 -1.160947978496551514e-01
1.608000000000000000e+03 6.258636951446533203e+00 3.296051263809204102e+00 1.372035592794418335e-03 -9.891561057884246111e-05 3.819359990302473307e-04 -7.552740862593054771e-04
1.609000000000000000e+03 5.456137180328369141e+00 2.611149072647094727e+00 1.315258676186203957e-03 9.221726213581860065e-05 4.222427669446915388e-04 -8.616746636107563972e-04
1.610000000000000000e+03 4.010752677917480469e+00 4.271028518676757812e+00 8.976090466603636742e-04 4.809008387383073568e-04 4.135529452469199896e-04 -1.365882577374577522e-03
1.611000000000000000e+03 3.255763292312622070e+00 3.446781873703002930e+00 9.715508786030113697e-04 2.448875166010111570e-04 3.649315040092915297e-04 -9.330732282251119614e-04
1.612000000000000000e+03 9.243178367614746094e+00 3.256783723831176758e+00 1.965287839993834496e-03 -4.142549005337059498e-04 4.653098585549741983e-04 4.521844675764441490e-05
1.613000000000000000e+03 6.200578212738037109e+00 2.588741064071655273e+00 1.115356571972370148e-03 -3.556810843292623758e-04 2.279026230098679662e-04 -1.110985642299056053e-03
1.614000000000000000e+03 4.122087001800537109e+00 5.197870254516601562e+00 1.463203807361423969e-04 1.718553685350343585e-04 9.545272769173607230e-05 -1.580901560373604298e-03
1.615000000000000000e+03 9.917446136474609375e+00 2.514846086502075195e+00 2.086047548800706863e-03 -2.489096077624708414e-04 5.511413910426199436e-04 2.049521281151100993e-04
1.616000000000000000e+03 1.001317405700683594e+01 3.224244356155395508e+00 1.000505639240145683e-03 -7.456557359546422958e-04 7.645496225450187922e-05 -2.297546743648126721e-04
1.617000000000000000e+03 1.354223728179931641e+01 -3.297973871231079102e+00 -2.227984517812728882e-01 2.539436798542737961e-03 -6.607770174741744995e-02 -1.187001913785934448e-01
1.618000000000000000e+03 1.415045833587646484e+01 -4.143094062805175781e+00 -2.472189217805862427e-01 -6.581067573279142380e-03 -7.613999396562576294e-02 -1.700642257928848267e-01
1.619000000000000000e+03 1.647227287292480469e+01 -4.607997894287109375e+00 -3.623042106628417969e-01 2.132807113230228424e-02 -1.022928431630134583e-01 -2.242119759321212769e-01
1.620000000000000000e+03 1.262350559234619141e+01 -3.951952457427978516e+00 -1.842283308506011963e-01 -1.415141392499208450e-02 -5.951392278075218201e-02 -1.349604725837707520e-01
1.621000000000000000e+03 1.337927055358886719e+01 -4.066578388214111328e+00 -2.172427773475646973e-01 -8.846810087561607361e-03 -6.782687455415725708e-02 -1.526318788528442383e-01
1.622000000000000000e+03 5.580596923828125000e+00 -2.497002601623535156e+00 -1.408723276108503342e-02 -1.138354185968637466e-02 -7.641232572495937347e-03 -8.563239127397537231e-03
1.623000000000000000e+03 6.943068504333496094e+00 -3.188608169555664062e+00 -3.665230795741081238e-02 -1.817614771425724030e-02 -1.644853688776493073e-02 -2.696788497269153595e-02
1.624000000000000000e+03 3.464491844177246094e+00 -2.590122461318969727e+00 -4.168118350207805634e-03 -4.215502180159091949e-03 -2.515086205676198006e-03 4.668899811804294586e-03
1.625000000000000000e+03 5.481332302093505859e+00 -3.724743604660034180e+00 -2.793469093739986420e-02 -2.105738408863544464e-02 -1.469762250781059265e-02 -1.813341677188873291e-02
1.626000000000000000e+03 2.851101160049438477e+00 -2.781275033950805664e+00 -3.846348263323307037e-03 -3.789850277826189995e-03 -2.290859585627913475e-03 5.968127865344285965e-03
1.627000000000000000e+03 4.119141578674316406e+00 -3.306219816207885742e+00 -9.605212137103080750e-03 -1.235967501997947693e-02 -6.589466240257024765e-03 -1.106967101804912090e-03
1.628000000000000000e+03 9.567429542541503906e+00 -4.177062511444091797e+00 -9.480132162570953369e-02 -3.235054761171340942e-02 -3.814556077122688293e-02 -8.261270076036453247e-02
1.629000000000000000e+03 7.661113262176513672e+00 -3.226894617080688477e+00 -4.772677272558212280e-02 -1.953198015689849854e-02 -2.017762698233127594e-02 -3.613975644111633301e-02
1.630000000000000000e+03 4.748966598510742188e+01 -8.798726201057434082e-01 3.800669312477111816e-01 1.285525989532470703e+01 3.970598220825195312e+00 6.683580875396728516e-01
1.631000000000000000e+03 4.822666168212890625e+01 -6.031412482261657715e-01 2.053783416748046875e+00 1.302066421508789062e+01 4.522334098815917969e+00 -3.399453878402709961e+00
1.632000000000000000e+03 1.733156394958496094e+01 -4.741654396057128906e+00 -3.985680639743804932e-01 2.623495087027549744e-02 -1.116999387741088867e-01 -2.219983637332916260e-01
1.633000000000000000e+03 1.583304786682128906e+01 -3.677827358245849609e+00 -3.564499616622924805e-01 1.619699411094188690e-02 -1.020758897066116333e-01 -1.664013564586639404e-01
1.634000000000000000e+03 1.482359981536865234e+01 -5.616057395935058594e+00 -2.502732574939727783e-01 -1.944907940924167633e-02 -8.091670274734497070e-02 -2.519025504589080811e-01
1.635000000000000000e+03 1.171276569366455078e+01 3.091962337493896484e+00 8.702704217284917831e-04 -6.008842610754072666e-04 8.081584383035078645e-05 3.506911743897944689e-04
1.636000000000000000e+03 1.491582298278808594e+01 -4.230772018432617188e+00 -2.924740016460418701e-01 4.124992061406373978e-03 -8.650470525026321411e-02 -1.864619553089141846e-01
1.637000000000000000e+03 2.061483573913574219e+01 -4.932727813720703125e+00 -5.740898847579956055e-01 8.787705004215240479e-02 -1.458638608455657959e-01 -1.423874199390411377e-01
1.638000000000000000e+03 1.834741592407226562e+01 -5.285171031951904297e+00 -4.253835380077362061e-01 5.807572975754737854e-02 -1.101923435926437378e-01 -2.358454018831253052e-01
1.639000000000000000e+03 2.239110755920410156e+01 -4.079786300659179688e+00 -7.136600017547607422e-01 1.086582541465759277e-01 -1.815005242824554443e-01 1.353100594133138657e-02
1.640000000000000000e+03 2.663622283935546875e+01 -6.167693614959716797e+00 -1.232199192047119141e+00 1.777306795120239258e-01 -3.163405656814575195e-01 -2.450845539569854736e-01
1.641000000000000000e+03 1.371814537048339844e+01 1.884920477867126465e+00 7.905932143330574036e-04 -1.612016058061271906e-04 1.888174883788451552e-04 4.318095452617853880e-04
1.642000000000000000e+03 1.306795406341552734e+01 2.619564294815063477e+00 8.151479996740818024e-04 -3.902591124642640352e-04 1.274666719837114215e-04 3.577804891392588615e-04
1.643000000000000000e+03 2.404858779907226562e+01 -4.661737918853759766e+00 -8.467963337898254395e-01 1.931455284357070923e-01 -1.960952430963516235e-01 5.710277333855628967e-02
1.644000000000000000e+03 2.486588287353515625e+01 -4.586688995361328125e+00 -9.273330569267272949e-01 2.274276018142700195e-01 -2.099716365337371826e-01 1.250748336315155029e-01
1.645000000000000000e+03 2.237157440185546875e+01 -5.602697849273681641e+00 -6.758114099502563477e-01 1.876511871814727783e-01 -1.464480757713317871e-01 -1.113107278943061829e-01
1.646000000000000000e+03 2.322720146179199219e+01 -4.754806041717529297e+00 -7.796993255615234375e-01 1.884080618619918823e-01 -1.773873716592788696e-01 1.986941881477832794e-02
1.647000000000000000e+03 1.815857315063476562e+01 -4.678713798522949219e+00 -4.548688828945159912e-01 3.720494359731674194e-02 -1.252991855144500732e-01 -2.125260829925537109e-01
1.648000000000000000e+03 1.374844264984130859e+01 3.252845764160156250e+00 6.322937551885843277e-04 -9.696968481875956059e-04 -1.012209322652779520e-04 7.418193854391574860e-04
1.649000000000000000e+03 7.097801971435546875e+01 -1.639286613464355469e+01 1.806840896606445312e+00 1.059906482696533203e+01 3.721771955490112305e+00 -5.001314282417297363e-01
1.650000000000000000e+03 6.926353454589843750e+01 -1.323137950897216797e+01 1.032332658767700195e+00 9.619537353515625000e+00 3.195560932159423828e+00 -7.313283681869506836e-01
1.651000000000000000e+03 6.454393768310546875e+01 -8.012752532958984375e+00 3.494280949234962463e-02 3.226825714111328125e+00 9.785305857658386230e-01 -1.581626653671264648e+00
1.652000000000000000e+03 6.330955886840820312e+01 -1.021211147308349609e+01 2.456918358802795410e-01 1.477746963500976562e+00 5.170316100120544434e-01 -1.354182958602905273e+00
1.653000000000000000e+03 4.259967041015625000e+01 5.515968799591064453e+00 1.803560368716716766e-02 -1.453766584396362305e+00 -4.307193160057067871e-01 -3.203116357326507568e-01
1.654000000000000000e+03 4.982782363891601562e+01 6.844708323478698730e-02 7.506059169769287109e+00 5.173215866088867188e+00 3.803782463073730469e+00 -4.370607852935791016e+00
1.655000000000000000e+03 1.771606826782226562e+01 3.721721649169921875e+00 1.403466914780437946e-03 1.279357820749282837e-04 4.594208148773759604e-04 6.061487947590649128e-04
1.656000000000000000e+03 1.836372375488281250e+01 1.858977675437927246e+00 3.715616549015976489e-05 -4.626267582352738827e-06 9.758969099493697286e-06 6.487891077995300293e-04
1.657000000000000000e+03 8.498228073120117188e+00 -1.927112770080566406e+01 5.845876783132553101e-02 -1.738019883632659912e-01 -3.460296243429183960e-02 -3.295216560363769531e-01
1.658000000000000000e+03 2.365655136108398438e+01 -1.077817916870117188e+01 1.122892424464225769e-01 1.285229772329330444e-01 7.224366813898086548e-02 -4.513543844223022461e-01
1.659000000000000000e+03 5.888871383666992188e+01 9.936337471008300781e-01 2.237111568450927734e+00 3.909435272216796875e-01 7.884165644645690918e-01 5.310240983963012695e-01
1.660000000000000000e+03 6.227225875854492188e+01 2.093473672866821289e+00 1.216902256011962891e+00 1.744441747665405273e+00 8.884032368659973145e-01 7.922196388244628906e-01
1.661000000000000000e+03 1.343125629425048828e+01 -2.698865509033203125e+01 2.329101860523223877e-01 2.587030529975891113e-01 1.474839746952056885e-01 -2.316817492246627808e-01
1.662000000000000000e+03 1.396647930145263672e+01 -2.800942230224609375e+01 2.271983176469802856e-01 2.384344488382339478e-01 1.396898329257965088e-01 -2.160554975271224976e-01
1.663000000000000000e+03 1.665090179443359375e+01 -1.075035667419433594e+01 -2.575079724192619324e-02 2.343889139592647552e-02 -6.935716373845934868e-04 -3.911696076393127441e-01
1.664000000000000000e+03 1.592045402526855469e+01 -2.836886405944824219e+01 2.953038513660430908e-01 3.014365434646606445e-01 1.790221184492111206e-01 -2.640179097652435303e-01
1.665000000000000000e+03 2.733956527709960938e+01 -5.318097114562988281e+00 -1.814831495285034180e+00 1.542367637157440186e-01 -4.981784224510192871e-01 1.495307534933090210e-01
1.666000000000000000e+03 6.220418167114257812e+01 -8.392823219299316406e+00 7.580254971981048584e-02 1.445815920829772949e+00 4.564855396747589111e-01 -1.113851070404052734e+00
1.667000000000000000e+03 6.119223022460937500e+01 -8.781702041625976562e+00 -1.779193729162216187e-01 8.159764409065246582e-01 1.914171129465103149e-01 -6.838894486427307129e-01
1.668000000000000000e+03 6.748743438720703125e+01 -1.019657325744628906e+01 -4.624537229537963867e-01 7.117362976074218750e+00 1.996472835540771484e+00 -1.640909790992736816e+00
1.669000000000000000e+03 3.631172180175781250e+01 -3.124281692504882812e+01 9.634257853031158447e-02 3.114720106124877930e+00 9.633188247680664062e-01 8.655402064323425293e-01
1.670000000000000000e+03 3.742620468139648438e+01 -2.709669494628906250e+01 9.240006208419799805e-01 3.760199546813964844e+00 1.405259966850280762e+00 1.241604447364807129e+00
1.671000000000000000e+03 1.271190834045410156e+01 -9.397941589355468750e+00 -1.048167943954467773e-01 -2.000205963850021362e-01 -9.145122021436691284e-02 -2.450485676527023315e-01
1.672000000000000000e+03 1.422097778320312500e+01 -1.142139911651611328e+01 -1.137653291225433350e-01 -2.874719798564910889e-01 -1.203711926937103271e-01 -3.022291064262390137e-01
1.673000000000000000e+03 2.356083869934082031e+01 -1.191502571105957031e+01 4.098260998725891113e-01 1.097814440727233887e-01 1.558822691440582275e-01 -4.396624863147735596e-01
1.674000000000000000e+03 1.011663818359375000e+01 -1.185424327850341797e+01 -1.711389124393463135e-01 -1.976566016674041748e-01 -1.106386557221412659e-01 -1.628957539796829224e-01
1.675000000000000000e+03 6.565644073486328125e+01 2.504130744934082031e+01 -1.397654652595520020e+00 3.131359815597534180e+00 5.201115608215332031e-01 -1.534664034843444824e+00
1.676000000000000000e+03 2.964117622375488281e+01 -1.227728366851806641e+01 8.092774748802185059e-01 -9.192664921283721924e-02 2.152052521705627441e-01 -3.459949791431427002e-01
1.677000000000000000e+03 5.885175323486328125e+01 -7.593426704406738281e+00 -7.463955879211425781e-01 5.757845640182495117e-01 -5.118329823017120361e-02 -5.594774484634399414e-01
1.678000000000000000e+03 5.682949447631835938e+01 -5.045962810516357422e+00 7.159331440925598145e-01 1.791038513183593750e-01 2.685110867023468018e-01 -1.196613907814025879e+00
1.679000000000000000e+03 4.291286468505859375e+01 -1.355751991271972656e+01 1.162013292312622070e+00 5.853199481964111328e+00 2.104563713073730469e+00 9.801298379898071289e-01
1.680000000000000000e+03 1.872755622863769531e+01 -1.185308074951171875e+01 2.076464891433715820e-01 1.559842526912689209e-01 1.090892255306243896e-01 -2.661435604095458984e-01
1.681000000000000000e+03 1.723722457885742188e+01 -9.991564750671386719e+00 -9.381100535392761230e-02 7.192806154489517212e-02 -6.564883049577474594e-03 -3.755405247211456299e-01
1.682000000000000000e+03 6.301729202270507812e+01 -3.214080810546875000e+01 -7.830948829650878906e-01 1.641860008239746094e+00 2.576295435428619385e-01 5.402843952178955078e-01
1.683000000000000000e+03 2.036475372314453125e+01 -1.018810081481933594e+01 -8.274208754301071167e-03 1.568381339311599731e-01 4.456917941570281982e-02 -3.607923984527587891e-01
1.684000000000000000e+03 6.280523681640625000e+01 -9.294719696044921875e+00 -8.777707070112228394e-02 1.526944994926452637e+00 4.317503869533538818e-01 -1.148234367370605469e+00
1.685000000000000000e+03 6.770011901855468750e+01 7.700258731842041016e+00 1.793639361858367920e-01 7.017879486083984375e+00 2.159173011779785156e+00 1.262099504470825195e+00
1.686000000000000000e+03 2.012985801696777344e+01 -1.122624015808105469e+01 1.536102294921875000e-01 1.350113451480865479e-01 8.658647537231445312e-02 -3.231174349784851074e-01
1.687000000000000000e+03 7.013237762451171875e+01 -2.505226707458496094e+01 -9.202983379364013672e-01 8.529913902282714844e+00 2.282884836196899414e+00 -3.763062953948974609e-01
1.688000000000000000e+03 2.729399490356445312e+01 -1.227704811096191406e+01 6.850777268409729004e-01 3.676520194858312607e-03 2.066262811422348022e-01 -4.573725759983062744e-01
1.689000000000000000e+03 4.343951416015625000e+01 1.268398761749267578e+01 9.837042689323425293e-01 4.269796848297119141e+00 1.576050400733947754e+00 -1.754936933517456055e+00
1.690000000000000000e+03 4.205319976806640625e+01 1.240402698516845703e+01 1.018031477928161621e+00 2.677311897277832031e+00 1.108603000640869141e+00 -1.497933745384216309e+00
1.691000000000000000e+03 1.831447029113769531e+01 2.465488052368164062e+01 -1.205804347991943359e-01 3.785177692770957947e-02 -2.481859922409057617e-02 8.953735977411270142e-02
1.692000000000000000e+03 6.318245315551757812e+01 3.124393463134765625e+00 8.454498052597045898e-01 2.323384761810302734e+00 9.506503939628601074e-01 1.009362697601318359e+00
1.693000000000000000e+03 6.316395568847656250e+01 4.978875637054443359e+00 7.769689559936523438e-01 2.094030380249023438e+00 8.612998127937316895e-01 1.220930099487304688e+00
1.694000000000000000e+03 4.315612792968750000e+01 -2.422290229797363281e+01 7.625508308410644531e-01 5.429952144622802734e+00 1.857750892639160156e+00 9.076334238052368164e-01
1.695000000000000000e+03 4.340862655639648438e+01 -2.279428482055664062e+01 9.312564730644226074e-01 6.107121944427490234e+00 2.111513614654541016e+00 8.740298151969909668e-01
1.696000000000000000e+03 1.721205139160156250e+01 1.227893352508544922e+01 -3.537723561748862267e-03 3.780865110456943512e-03 7.294241368072107434e-05 4.488974227569997311e-04
1.697000000000000000e+03 3.528962326049804688e+01 -2.953593254089355469e+01 5.426112413406372070e-01 3.121716260910034180e+00 1.099298238754272461e+00 1.142465233802795410e+00
1.698000000000000000e+03 4.063295364379882812e+01 1.650096702575683594e+01 7.379220128059387207e-01 2.326122045516967773e+00 9.192132353782653809e-01 -1.301516771316528320e+00
1.699000000000000000e+03 4.486638259887695312e+01 5.351472377777099609e+00 1.005419969558715820e+00 6.113625049591064453e+00 2.135713577270507812e+00 -1.931406974792480469e+00
1.700000000000000000e+03 4.657947921752929688e+01 -2.660268402099609375e+01 -3.138649165630340576e-01 4.783916473388671875e+00 1.341015458106994629e+00 -5.578907728195190430e-01
1.701000000000000000e+03 2.480932617187500000e+01 -1.204649543762207031e+01 4.863224923610687256e-01 7.720746099948883057e-02 1.690589934587478638e-01 -4.686177670955657959e-01
1.702000000000000000e+03 3.621593475341796875e+01 -6.465847969055175781e+00 -1.680851340293884277e+00 4.802056029438972473e-02 -4.898492395877838135e-01 -2.746045887470245361e-01
1.703000000000000000e+03 7.682361602783203125e+01 -3.208174514770507812e+01 -2.124164551496505737e-01 8.904663085937500000e+00 2.607674121856689453e+00 -3.448356091976165771e-01
1.704000000000000000e+03 7.708998107910156250e+01 -3.324160385131835938e+01 -1.165113002061843872e-01 9.003812789916992188e+00 2.666190385818481445e+00 -2.653164565563201904e-01
1.705000000000000000e+03 7.585349273681640625e+01 2.045546913146972656e+01 5.884495005011558533e-02 7.818606853485107422e+00 2.363235473632812500e+00 1.191014289855957031e+00
1.706000000000000000e+03 7.656513977050781250e+01 -3.070798110961914062e+01 -2.472504228353500366e-01 8.712354660034179688e+00 2.539531230926513672e+00 -5.808035135269165039e-01
1.707000000000000000e+03 7.691741943359375000e+01 1.672042846679687500e+01 2.850902378559112549e-01 6.947145462036132812e+00 2.169670820236206055e+00 5.573231577873229980e-01
1.708000000000000000e+03 7.663852691650390625e+01 -3.681683349609375000e+01 -1.515868157148361206e-01 9.040179252624511719e+00 2.666577816009521484e+00 1.849928987212479115e-03
1.709000000000000000e+03 7.665587615966796875e+01 -2.418771362304687500e+01 -1.481899619102478027e-02 7.832725524902343750e+00 2.345371961593627930e+00 -1.218391299247741699e+00
1.710000000000000000e+03 7.650414276123046875e+01 -2.587479972839355469e+01 -1.802661567926406860e-01 8.135709762573242188e+00 2.386632919311523438e+00 -1.147914528846740723e+00
1.711000000000000000e+03 7.641701507568359375e+01 -2.759302902221679688e+01 -2.946786284446716309e-01 8.412301063537597656e+00 2.435286521911621094e+00 -9.587356448173522949e-01
1.712000000000000000e+03 7.665658569335937500e+01 2.355896568298339844e+01 -1.863747835159301758e-01 8.097755432128906250e+00 2.373414278030395508e+00 8.570871949195861816e-01
1.713000000000000000e+03 7.684459686279296875e+01 1.528835296630859375e+01 3.851087093353271484e-01 6.783217906951904297e+00 2.150497913360595703e+00 3.524218797683715820e-01
1.714000000000000000e+03 7.680059814453125000e+01 1.378462791442871094e+01 3.424829244613647461e-01 6.786626815795898438e+00 2.138732910156250000e+00 -1.208609715104103088e-02
1.715000000000000000e+03 7.682872772216796875e+01 -2.266753005981445312e+01 1.578982770442962646e-01 7.450249195098876953e+00 2.282444238662719727e+00 -1.144144892692565918e+00
1.716000000000000000e+03 7.834628295898437500e+01 1.116891670227050781e+01 7.680916786193847656e-02 6.135197162628173828e+00 1.863601922988891602e+00 -2.369185388088226318e-01
1.717000000000000000e+03 7.694270324707031250e+01 1.231811714172363281e+01 2.604426741600036621e-01 6.739299297332763672e+00 2.099922657012939453e+00 -1.674810349941253662e-01
1.718000000000000000e+03 7.566796875000000000e+01 2.716656112670898438e+01 -4.329058825969696045e-01 8.133726119995117188e+00 2.310245990753173828e+00 3.751550614833831787e-01
1.719000000000000000e+03 7.655011749267578125e+01 2.510643577575683594e+01 -2.772926092147827148e-01 8.246985435485839844e+00 2.390908002853393555e+00 7.371357679367065430e-01
1.720000000000000000e+03 7.724093627929687500e+01 1.102374935150146484e+01 1.721905022859573364e-01 6.582396507263183594e+00 2.026376247406005859e+00 -3.708044290542602539e-01
1.721000000000000000e+03 7.604310607910156250e+01 3.039693069458007812e+01 -2.037324160337448120e-01 8.188053131103515625e+00 2.395296335220336914e+00 4.883770272135734558e-02
1.722000000000000000e+03 7.744319915771484375e+01 8.953762054443359375e+00 6.361559033393859863e-02 6.717651844024658203e+00 2.034380197525024414e+00 -4.904958903789520264e-01
1.723000000000000000e+03 7.663597106933593750e+01 6.188111305236816406e-01 -1.518614143133163452e-01 7.332086086273193359e+00 2.154067516326904297e+00 -1.997903734445571899e-01
1.724000000000000000e+03 7.793340301513671875e+01 1.843023180961608887e+00 -5.811423063278198242e-02 7.388394832611083984e+00 2.199084281921386719e+00 -2.259896099567413330e-01
1.725000000000000000e+03 7.683405303955078125e+01 -1.696535873413085938e+01 4.416723251342773438e-01 6.679515838623046875e+00 2.136356592178344727e+00 -1.098562106490135193e-01
1.726000000000000000e+03 7.699462890625000000e+01 2.069731140136718750e+01 5.659934878349304199e-02 7.549107074737548828e+00 2.281711816787719727e+00 9.634811282157897949e-01
1.727000000000000000e+03 7.703390502929687500e+01 1.806114196777343750e+01 3.034099638462066650e-01 7.034072399139404297e+00 2.201244592666625977e+00 7.748050689697265625e-01
1.728000000000000000e+03 7.712728881835937500e+01 -1.436637878417968750e+01 2.799584865570068359e-01 6.560489654541015625e+00 2.052134513854980469e+00 4.057069718837738037e-01
1.729000000000000000e+03 7.697195434570312500e+01 -1.557732200622558594e+01 3.370745778083801270e-01 6.578643321990966797e+00 2.074715375900268555e+00 2.185701280832290649e-01
1.730000000000000000e+03 7.697344970703125000e+01 -7.972165107727050781e+00 -1.580706238746643066e-01 7.229988574981689453e+00 2.121575355529785156e+00 5.393238067626953125e-01
1.731000000000000000e+03 7.692835235595703125e+01 -6.626962661743164062e+00 -1.758201420307159424e-01 7.309803485870361328e+00 2.140195131301879883e+00 4.059242010116577148e-01
1.732000000000000000e+03 7.669141387939453125e+01 -8.444620370864868164e-01 -1.720842868089675903e-01 7.372512340545654297e+00 2.160128355026245117e+00 -8.675630390644073486e-02
1.733000000000000000e+03 7.687203979492187500e+01 6.662177085876464844e+00 -4.532792046666145325e-02 7.045660018920898438e+00 2.100099563598632812e+00 -5.528606176376342773e-01
1.734000000000000000e+03 7.674735260009765625e+01 5.194294452667236328e+00 -1.027736812829971313e-01 7.144757270812988281e+00 2.112595081329345703e+00 -4.778136014938354492e-01
1.735000000000000000e+03 7.671860504150390625e+01 -2.317818164825439453e+00 -1.696846336126327515e-01 7.385101318359375000e+00 2.164624929428100586e+00 3.913086280226707458e-02
1.736000000000000000e+03 7.541384124755859375e+01 -3.704382181167602539e+00 -2.949545979499816895e-01 7.284635543823242188e+00 2.096904277801513672e+00 1.537587642669677734e-01
1.737000000000000000e+03 7.694540405273437500e+01 -9.294699668884277344e+00 -1.017722561955451965e-01 7.133263111114501953e+00 2.109447240829467773e+00 6.253347396850585938e-01
1.738000000000000000e+03 7.689189910888671875e+01 -1.060540580749511719e+01 -4.071946069598197937e-02 7.014947891235351562e+00 2.092268466949462891e+00 7.020102739334106445e-01
1.739000000000000000e+03 7.676139831542968750e+01 -1.842725944519042969e+01 4.386314451694488525e-01 6.800046920776367188e+00 2.171603679656982422e+00 -4.287015199661254883e-01
1.740000000000000000e+03 7.683491516113281250e+01 -1.988153076171875000e+01 3.943192064762115479e-01 6.941436767578125000e+00 2.200726747512817383e+00 -7.532557845115661621e-01
1.741000000000000000e+03 7.571086883544921875e+01 3.196965789794921875e+01 -1.552113145589828491e-01 8.016251564025878906e+00 2.358312129974365234e+00 -8.878865092992782593e-02
1.742000000000000000e+03 7.673974609375000000e+01 -3.795672416687011719e+00 -1.799434721469879150e-01 7.388382434844970703e+00 2.162531614303588867e+00 1.631406098604202271e-01
1.743000000000000000e+03 3.784765243530273438e+01 -4.972832679748535156e+00 -2.105425596237182617e+00 4.694129526615142822e-02 -6.175452470779418945e-01 -3.227040767669677734e-01
1.744000000000000000e+03 4.635595703125000000e+01 4.010765552520751953e+00 3.391191363334655762e-01 1.533608341217041016e+01 4.702560901641845703e+00 -3.319804430007934570e+00
1.745000000000000000e+03 4.713579940795898438e+01 5.741648197174072266e+00 3.823911249637603760e-01 1.654094886779785156e+01 5.077002048492431641e+00 -1.260744810104370117e+00
1.746000000000000000e+03 2.983756446838378906e+01 -1.357824897766113281e+01 1.376980185508728027e+00 4.615463316440582275e-03 4.144786894321441650e-01 -2.982656657695770264e-01
1.747000000000000000e+03 4.143518447875976562e+01 1.560979652404785156e+01 8.185701370239257812e-01 2.793476819992065430e+00 1.083614110946655273e+00 -1.359506130218505859e+00
1.748000000000000000e+03 4.761178207397460938e+01 1.211465072631835938e+01 4.541524052619934082e-01 1.033818721771240234e+01 3.237701892852783203e+00 3.872036933898925781e-01
1.749000000000000000e+03 4.753382873535156250e+01 1.073249721527099609e+01 2.686423361301422119e-01 1.193991661071777344e+01 3.662567615509033203e+00 1.530176550149917603e-01
1.750000000000000000e+03 3.457783699035644531e+00 3.045594024658203125e+01 2.202233765274286270e-03 -9.039160609245300293e-02 -2.645681239664554596e-02 4.066141322255134583e-02
1.751000000000000000e+03 3.259472608566284180e+00 3.167593002319335938e+01 2.741663483902812004e-03 -1.016559079289436340e-01 -2.967427298426628113e-02 3.747064247727394104e-02
1.752000000000000000e+03 3.308338642120361328e+00 2.327174377441406250e+01 -7.463400252163410187e-03 -2.987652830779552460e-02 -1.120197866111993790e-02 2.778898738324642181e-02
1.753000000000000000e+03 3.468263864517211914e+00 2.466090393066406250e+01 -5.153976380825042725e-03 -3.831829503178596497e-02 -1.304168161004781723e-02 3.320061042904853821e-02
1.754000000000000000e+03 4.318383693695068359e+00 3.631868743896484375e+01 1.018526684492826462e-02 -1.194470524787902832e-01 -3.277853503823280334e-02 3.172662481665611267e-02
1.755000000000000000e+03 3.587623357772827148e+00 2.609501075744628906e+01 -6.054886151105165482e-03 -4.887744411826133728e-02 -1.647969894111156464e-02 3.837083652615547180e-02
1.756000000000000000e+03 3.632635116577148438e+00 2.757329750061035156e+01 -1.965326257050037384e-03 -6.055714935064315796e-02 -1.875674165785312653e-02 4.176321253180503845e-02
1.757000000000000000e+03 3.591520547866821289e+00 2.905383872985839844e+01 -8.217109716497361660e-04 -7.503114640712738037e-02 -2.275585755705833435e-02 4.285072907805442810e-02
1.758000000000000000e+03 2.866760253906250000e+00 -2.833222007751464844e+01 2.076723240315914154e-02 -6.880078911781311035e-01 -2.001722007989883423e-01 -3.353506326675415039e-02
1.759000000000000000e+03 3.469048261642456055e+00 -2.609744834899902344e+01 4.093616455793380737e-02 -5.991120338439941406e-01 -1.674527674913406372e-01 -8.109323680400848389e-02
1.760000000000000000e+03 4.170432567596435547e+00 -3.107046508789062500e+01 1.963293179869651794e-02 -5.875005722045898438e-01 -1.703602820634841919e-01 -2.612777426838874817e-02
1.761000000000000000e+03 3.007023334503173828e+00 -1.191597938537597656e+01 -3.122221305966377258e-02 -1.206614151597023010e-01 -4.556508734822273254e-02 -9.286740422248840332e-02
1.762000000000000000e+03 3.127180814743041992e+00 -5.395585060119628906e+00 -1.617848873138427734e-02 -2.105002850294113159e-02 -1.116855535656213760e-02 -1.093141268938779831e-02
1.763000000000000000e+03 3.074074506759643555e+00 -2.065364837646484375e+01 2.452044561505317688e-02 -4.665082097053527832e-01 -1.325963288545608521e-01 -1.755681782960891724e-01
1.764000000000000000e+03 3.247381210327148438e+00 -1.924709892272949219e+01 7.796468678861856461e-03 -3.934197723865509033e-01 -1.156869903206825256e-01 -1.930422633886337280e-01
1.765000000000000000e+03 2.954453468322753906e+00 -2.327640533447265625e+01 3.461734950542449951e-02 -5.691300630569458008e-01 -1.603538095951080322e-01 -1.255480349063873291e-01
1.766000000000000000e+03 2.958962917327880859e+00 -2.197588920593261719e+01 2.492440119385719299e-02 -5.266460180282592773e-01 -1.505164951086044312e-01 -1.480634957551956177e-01
1.767000000000000000e+03 2.612452507019042969e+00 -3.318834686279296875e+01 1.128843799233436584e-02 -7.468728423118591309e-01 -2.206753343343734741e-01 3.505632048472762108e-03
1.768000000000000000e+03 4.191850185394287109e+00 1.658910560607910156e+01 -7.010647095739841461e-03 -3.866604994982481003e-03 -3.263175487518310547e-03 7.811166811734437943e-03
1.769000000000000000e+03 2.952192783355712891e+00 1.783967018127441406e+01 -4.820407833904027939e-03 -5.620620213449001312e-03 -3.132308367639780045e-03 8.587383665144443512e-03
1.770000000000000000e+03 3.028966665267944336e+00 1.382506275177001953e+01 -1.395206665620207787e-03 6.772213964723050594e-04 -2.153955720132216811e-04 1.493483432568609715e-03
1.771000000000000000e+03 3.000281333923339844e+00 1.515778923034667969e+01 -3.172723809257149696e-03 -9.263691608794033527e-04 -1.229727873578667641e-03 3.159311832860112190e-03
1.772000000000000000e+03 3.250585794448852539e+00 8.591613769531250000e+00 2.065377630060538650e-04 1.477936282753944397e-03 5.053422064520418644e-04 -1.149972784332931042e-03
1.773000000000000000e+03 3.130705595016479492e+00 -1.634204864501953125e+01 -2.363001182675361633e-02 -2.706905305385589600e-01 -8.829616010189056396e-02 -1.793880015611648560e-01
1.774000000000000000e+03 3.264705419540405273e+00 -1.485952472686767578e+01 -3.381872922182083130e-02 -2.131271958351135254e-01 -7.408377528190612793e-02 -1.599899679422378540e-01
1.775000000000000000e+03 2.909991979598999023e+00 -7.899845123291015625e+00 -1.962359622120857239e-02 -4.538775235414505005e-02 -1.950340531766414642e-02 -3.411118313670158386e-02
1.776000000000000000e+03 3.036129236221313477e+00 1.118429851531982422e+01 -3.515706339385360479e-04 1.621128991246223450e-03 3.808675101026892662e-04 -4.597051010932773352e-04
1.777000000000000000e+03 3.038038015365600586e+00 1.250168609619140625e+01 -1.804468687623739243e-03 8.096157107502222061e-04 -2.984559105243533850e-04 -5.527382381842471659e-05
1.778000000000000000e+03 2.967835426330566406e+00 1.649853515625000000e+01 -2.687626983970403671e-03 -2.532795071601867676e-03 -1.566126593388617039e-03 5.566716194152832031e-03
1.779000000000000000e+03 2.930983781814575195e+00 -1.053864288330078125e+01 -2.738700434565544128e-02 -9.143275767564773560e-02 -3.564592823386192322e-02 -7.101488858461380005e-02
1.780000000000000000e+03 2.896849632263183594e+00 -9.196331024169921875e+00 -2.182788401842117310e-02 -6.455332040786743164e-02 -2.591436170041561127e-02 -4.848863929510116577e-02
1.781000000000000000e+03 3.223779201507568359e+00 -1.778728103637695312e+01 -1.894070650450885296e-03 -3.351244926452636719e-01 -1.011055707931518555e-01 -1.943735182285308838e-01
1.782000000000000000e+03 2.997297763824462891e+00 5.186320304870605469e+00 7.116108317859470844e-04 8.854772313497960567e-04 4.791264072991907597e-04 -1.201822655275464058e-03
1.783000000000000000e+03 3.037109375000000000e+00 2.054406738281250000e+01 -6.591389421373605728e-03 -1.502835657447576523e-02 -6.485923659056425095e-03 1.671895012259483337e-02
1.784000000000000000e+03 3.153728723526000977e+00 2.190537834167480469e+01 -5.267077591270208359e-03 -2.154354751110076904e-02 -8.043187670409679413e-03 2.217307314276695251e-02
1.785000000000000000e+03 2.971269130706787109e+00 1.918697166442871094e+01 -3.951895050704479218e-03 -9.616338647902011871e-03 -4.070470109581947327e-03 1.226456277072429657e-02
1.786000000000000000e+03 3.073062419891357422e+00 9.879088401794433594e+00 -8.911523036658763885e-04 1.149120624177157879e-03 7.739050488453358412e-05 -1.581945340149104595e-03
1.787000000000000000e+03 2.848605918884277344e+01 -1.232669353485107422e+01 7.926288247108459473e-01 -3.888285532593727112e-02 2.261237949132919312e-01 -4.410008788108825684e-01
1.788000000000000000e+03 1.895500755310058594e+01 1.939566993713378906e+01 -1.136520802974700928e-01 -5.714378133416175842e-02 -5.123875662684440613e-02 -6.961040198802947998e-02
1.789000000000000000e+03 4.111609268188476562e+01 -3.747577190399169922e+00 -1.125826597213745117e+00 1.875563025474548340e+00 2.249209135770797729e-01 1.015566706657409668e+00
1.790000000000000000e+03 4.214691543579101562e+01 -4.806878089904785156e+00 -1.227696299552917480e+00 3.377675533294677734e+00 6.449937820434570312e-01 1.678446412086486816e+00
1.791000000000000000e+03 7.083827972412109375e+01 -2.070996093750000000e+01 1.365536928176879883e+00 1.051911354064941406e+01 3.565395116806030273e+00 -7.086148262023925781e-01
1.792000000000000000e+03 6.948033142089843750e+01 -1.855133819580078125e+01 1.329349279403686523e+00 1.418502140045166016e+01 4.654311180114746094e+00 -1.245861351490020752e-01
1.793000000000000000e+03 9.263240814208984375e+00 -1.486476325988769531e+01 -2.079662531614303589e-01 -1.734527647495269775e-01 -1.144257038831710815e-01 -2.476502954959869385e-01
1.794000000000000000e+03 5.296320724487304688e+01 2.581978607177734375e+01 -1.026489377021789551e+00 2.405307054519653320e+00 4.136453270912170410e-01 1.288643121719360352e+00
1.795000000000000000e+03 6.801348876953125000e+01 9.469025611877441406e+00 5.924763679504394531e-01 8.523903846740722656e+00 2.734914064407348633e+00 1.467131495475769043e+00
1.796000000000000000e+03 4.358452224731445312e+01 -2.010934066772460938e+01 1.079992294311523438e+00 7.205204010009765625e+00 2.485558986663818359e+00 8.034443259239196777e-01
1.797000000000000000e+03 6.518433380126953125e+01 -9.062369346618652344e+00 5.091455765068531036e-03 3.699803113937377930e+00 1.111468315124511719e+00 -1.890323042869567871e+00
1.798000000000000000e+03 4.607067489624023438e+01 8.121594429016113281e+00 8.425822257995605469e-01 1.099112796783447266e+01 3.550113201141357422e+00 -1.711914777755737305e+00
1.799000000000000000e+03 4.729473495483398438e+01 8.073397636413574219e+00 6.038979291915893555e-01 1.479121589660644531e+01 4.618534088134765625e+00 -4.760715663433074951e-01
1.800000000000000000e+03 6.256909942626953125e+01 2.504592514038085938e+01 -1.424320220947265625e+00 3.920086920261383057e-01 -3.096934556961059570e-01 -4.038706719875335693e-01
1.801000000000000000e+03 5.699020385742187500e+01 2.523372268676757812e+01 -1.235624313354492188e+00 6.858537793159484863e-01 -1.649311631917953491e-01 1.145151853561401367e+00
1.802000000000000000e+03 5.561203002929687500e+01 2.556948089599609375e+01 -1.148201584815979004e+00 1.382552504539489746e+00 7.030529528856277466e-02 1.332732319831848145e+00
1.803000000000000000e+03 4.366545867919921875e+01 -1.721632766723632812e+01 1.217820286750793457e+00 7.536231994628906250e+00 2.626215696334838867e+00 1.161432504653930664e+00
1.804000000000000000e+03 4.365526962280273438e+01 -1.871171379089355469e+01 1.050584316253662109e+00 7.447806358337402344e+00 2.549517154693603516e+00 9.868221282958984375e-01
1.805000000000000000e+03 1.577809429168701172e+01 1.649820327758789062e+01 -2.756930887699127197e-02 -7.651217747479677200e-03 -1.056615822017192841e-02 -2.055325545370578766e-02
1.806000000000000000e+03 1.581433582305908203e+01 1.507676124572753906e+01 -6.618499290198087692e-03 -3.561961930245161057e-03 -3.054138273000717163e-03 -5.708161275833845139e-03
1.807000000000000000e+03 1.898225593566894531e+01 4.542370796203613281e+00 9.580102632753551006e-04 3.657635534182190895e-04 3.971321566496044397e-04 -5.033568595536053181e-05
1.808000000000000000e+03 1.942207336425781250e+01 2.126984596252441406e+00 -3.542621561791747808e-04 -4.090472884854534641e-06 -1.075057880370877683e-04 2.277676539961248636e-04
1.809000000000000000e+03 3.714251708984375000e+01 -2.464212226867675781e+01 1.171807050704956055e+00 3.787407159805297852e+00 1.487764239311218262e+00 1.541237473487854004e+00
1.810000000000000000e+03 4.604486465454101562e+01 6.910207748413085938e+00 8.229283690452575684e-01 1.111129951477050781e+01 3.580268383026123047e+00 -1.826394677162170410e+00
1.811000000000000000e+03 2.504504394531250000e+01 2.453645706176757812e+01 -8.262278884649276733e-02 5.213538929820060730e-02 -9.146219119429588318e-03 -9.090372174978256226e-02
1.812000000000000000e+03 5.970981979370117188e+01 2.563611602783203125e+01 -1.170250892639160156e+00 2.358648329973220825e-01 -2.803158164024353027e-01 4.852271378040313721e-01
1.813000000000000000e+03 7.032590484619140625e+01 -2.324641036987304688e+01 -1.224376540631055832e-02 9.528712272644042969e+00 2.854940652847290039e+00 -6.158522963523864746e-01
1.814000000000000000e+03 1.586198234558105469e+01 1.366243648529052734e+01 -6.816194858402013779e-03 -3.286304185166954994e-03 -3.030749736353754997e-03 -3.327456768602132797e-03
1.815000000000000000e+03 5.676496505737304688e+01 -6.478508472442626953e+00 -6.773160696029663086e-01 2.144832015037536621e-01 -1.388498544692993164e-01 -9.816820621490478516e-01
1.816000000000000000e+03 3.033856964111328125e+01 -7.277477264404296875e+00 -1.566913843154907227e+00 -4.582639336585998535e-01 -6.075533628463745117e-01 -4.235290884971618652e-01
1.817000000000000000e+03 3.249890518188476562e+01 -7.743286609649658203e+00 -1.153222441673278809e+00 -5.094109177589416504e-01 -4.987899959087371826e-01 -3.352581858634948730e-01
1.818000000000000000e+03 4.504537582397460938e+01 -2.786889076232910156e+01 -4.101262092590332031e-01 4.433072090148925781e+00 1.206883668899536133e+00 -6.216856837272644043e-02
1.819000000000000000e+03 5.180789947509765625e+01 2.470057487487792969e+01 -1.279341578483581543e+00 3.070275545120239258e+00 5.372802019119262695e-01 1.228233098983764648e+00
1.820000000000000000e+03 5.242807388305664062e+01 2.342021369934082031e+01 -1.266215562820434570e+00 2.946193695068359375e+00 5.039934515953063965e-01 1.132531523704528809e+00
1.821000000000000000e+03 3.997645950317382812e+01 -1.982535362243652344e+01 8.872947692871093750e-01 4.263193607330322266e+00 1.545146465301513672e+00 1.154419183731079102e+00
1.822000000000000000e+03 4.921351242065429688e+01 2.128883171081542969e+01 -5.659504532814025879e-01 4.718743801116943359e+00 1.245838046073913574e+00 5.016585588455200195e-01
1.823000000000000000e+03 6.628588867187500000e+01 -2.622658920288085938e+01 -7.355401515960693359e-01 4.237171173095703125e+00 1.050489306449890137e+00 1.022387504577636719e+00
1.824000000000000000e+03 6.922438812255859375e+01 -2.585789299011230469e+01 -9.924517869949340820e-01 7.458761692047119141e+00 1.939893007278442383e+00 6.064073368906974792e-02
1.825000000000000000e+03 4.727235794067382812e+01 1.488119602203369141e+01 4.341461956501007080e-01 7.578911304473876953e+00 2.403917312622070312e+00 4.697878286242485046e-02
1.826000000000000000e+03 6.501605224609375000e+01 5.067314147949218750e+00 4.750467836856842041e-01 3.849055767059326172e+00 1.297230720520019531e+00 1.468065619468688965e+00
1.827000000000000000e+03 3.861619567871093750e+01 1.874259185791015625e+01 4.639249145984649658e-01 1.735573887825012207e+00 6.598496437072753906e-01 -1.023861527442932129e+00
1.828000000000000000e+03 4.842667770385742188e+01 -9.059431076049804688e+00 -1.913154959678649902e+00 6.310370445251464844e+00 1.319164633750915527e+00 1.801265120506286621e+00
1.829000000000000000e+03 6.729964447021484375e+01 -2.757840347290039062e+01 -1.214554190635681152e+00 5.513440132141113281e+00 1.289665818214416504e+00 7.550484538078308105e-01
1.830000000000000000e+03 3.487252044677734375e+01 -1.578356647491455078e+01 1.326362371444702148e+00 1.816396862268447876e-01 4.524006247520446777e-01 -3.043799102306365967e-01
1.831000000000000000e+03 5.342982482910156250e+01 -5.382461547851562500e+00 2.318271100521087646e-01 4.643653035163879395e-01 2.088577300310134888e-01 -4.027677178382873535e-01
1.832000000000000000e+03 3.743737792968750000e+01 1.983321380615234375e+01 3.455879390239715576e-01 1.495186090469360352e+00 5.522322058677673340e-01 -8.905596137046813965e-01
1.833000000000000000e+03 7.117372894287109375e+01 1.583495616912841797e+01 1.486679673194885254e+00 1.028877258300781250e+01 3.532635688781738281e+00 5.956374406814575195e-01
1.834000000000000000e+03 6.681075286865234375e+01 6.901602745056152344e+00 2.646746635437011719e-01 6.072881221771240234e+00 1.901266813278198242e+00 1.723764538764953613e+00
1.835000000000000000e+03 7.086608886718750000e+01 -1.759205436706542969e+01 2.016352653503417969e+00 1.085804939270019531e+01 3.862320661544799805e+00 -3.707876801490783691e-01
1.836000000000000000e+03 9.630052566528320312e+00 -2.218339920043945312e+01 2.210878878831863403e-01 -5.738425999879837036e-02 4.911109060049057007e-02 -2.338581681251525879e-01
1.837000000000000000e+03 1.269340419769287109e+01 -2.459598350524902344e+01 2.861852645874023438e-01 3.492766022682189941e-01 1.906385719776153564e-01 -2.677058577537536621e-01
1.838000000000000000e+03 3.852481842041015625e+01 2.142531013488769531e+01 1.366387009620666504e-01 1.914673209190368652e+00 6.153935790061950684e-01 -9.238773584365844727e-01
1.839000000000000000e+03 4.305515670776367188e+01 9.503830909729003906e+00 8.989794254302978516e-01 3.027825355529785156e+00 1.178041458129882812e+00 -1.697625279426574707e+00
1.840000000000000000e+03 3.214822006225585938e+01 -1.328234958648681641e+01 1.255453705787658691e+00 -4.006518051028251648e-02 3.646165728569030762e-01 -1.055376455187797546e-01
1.841000000000000000e+03 5.823450088500976562e+01 2.536510467529296875e+01 -1.258692145347595215e+00 3.562863171100616455e-01 -2.707217633724212646e-01 8.693621754646301270e-01
1.842000000000000000e+03 5.683171463012695312e+01 -1.159576535224914551e+00 3.531481504440307617e+00 2.882270514965057373e-02 1.068091273307800293e+00 -3.426058888435363770e-01
1.843000000000000000e+03 5.802721786499023438e+01 -7.227075695991516113e-01 2.915828943252563477e+00 1.164958626031875610e-01 9.096974730491638184e-01 -1.368931084871292114e-01
1.844000000000000000e+03 1.782595252990722656e+01 4.795657157897949219e+00 -1.768092974089086056e-03 1.571704982779920101e-03 -5.891638647881336510e-05 1.108830445446074009e-03
1.845000000000000000e+03 5.042940521240234375e+01 -2.201133966445922852e+00 2.977784156799316406e+00 5.173197269439697266e+00 2.445294380187988281e+00 -1.263853430747985840e+00
1.846000000000000000e+03 5.272670745849609375e+01 -2.796296358108520508e+00 3.446762323379516602e+00 1.792387485504150391e+00 1.571744918823242188e+00 -9.267365932464599609e-01
1.847000000000000000e+03 5.035460662841796875e+01 -3.216025543212890625e+01 -7.282153964042663574e-01 1.607200860977172852e+00 2.636956572532653809e-01 -9.500432610511779785e-01
1.848000000000000000e+03 5.241944885253906250e+01 -6.605740547180175781e+00 -1.778590321540832520e+00 3.633299171924591064e-01 -4.245781004428863525e-01 5.457733869552612305e-01
1.849000000000000000e+03 5.006905746459960938e+01 -6.050714969635009766e+00 -2.002307415008544922e+00 4.131859302520751953e+00 6.388655900955200195e-01 1.616457104682922363e+00
1.850000000000000000e+03 4.612346649169921875e+01 1.326119136810302734e+01 5.019125938415527344e-01 7.587011814117431641e+00 2.426677227020263672e+00 -8.733928203582763672e-01
1.851000000000000000e+03 5.243857192993164062e+01 -5.375517845153808594e+00 -1.739408373832702637e-01 1.373769640922546387e+00 3.599486649036407471e-01 -1.167853921651840210e-02
1.852000000000000000e+03 2.476304817199707031e+01 2.322812843322753906e+01 -2.758782505989074707e-01 1.915292581543326378e-03 -8.218888938426971436e-02 -1.746659725904464722e-02
1.853000000000000000e+03 6.979038238525390625e+01 1.841617202758789062e+01 1.437983870506286621e+00 1.050965595245361328e+01 3.584291934967041016e+00 3.461650758981704712e-02
1.854000000000000000e+03 4.112242126464843750e+01 -4.838684558868408203e+00 -1.411091804504394531e+00 2.351601839065551758e+00 2.821529507637023926e-01 1.164496302604675293e+00
1.855000000000000000e+03 7.120366668701171875e+01 -1.526185703277587891e+01 1.730760455131530762e+00 9.808501243591308594e+00 3.461778640747070312e+00 -1.648910641670227051e-01
1.856000000000000000e+03 4.431257629394531250e+01 4.590781211853027344e+00 1.446969032287597656e+00 3.002872467041015625e+00 1.334952473640441895e+00 -9.426991343498229980e-01
1.857000000000000000e+03 4.479748153686523438e+01 4.334696382284164429e-02 3.086225271224975586e+00 2.624402284622192383e+00 1.713188290596008301e+00 3.005153417587280273e+00
1.858000000000000000e+03 4.516669464111328125e+01 -4.839488565921783447e-01 2.287481307983398438e+00 5.201908588409423828e+00 2.246816873550415039e+00 4.018700599670410156e+00
1.859000000000000000e+03 4.570596694946289062e+01 -2.585560679435729980e-01 2.502523899078369141e+00 7.566335201263427734e+00 3.020657777786254883e+00 4.973516464233398438e+00
1.860000000000000000e+03 4.537118148803710938e+01 -2.118548303842544556e-01 2.838184118270874023e+00 5.574751377105712891e+00 2.523880720138549805e+00 4.455863475799560547e+00
1.861000000000000000e+03 4.680678558349609375e+01 4.134252071380615234e+00 -4.746552407741546631e-01 1.829549026489257812e+01 5.346250534057617188e+00 -2.640765190124511719e+00
1.862000000000000000e+03 4.410852813720703125e+01 3.677329421043395996e-01 2.151912689208984375e+00 9.377486705780029297e-01 9.268984198570251465e-01 1.239823579788208008e+00
1.863000000000000000e+03 4.381931304931640625e+01 -1.784465461969375610e-01 1.720976591110229492e+00 1.421082019805908203e+00 9.426175951957702637e-01 1.527047514915466309e+00
1.864000000000000000e+03 4.736844635009765625e+01 -1.490417122840881348e+00 -1.481144279241561890e-01 1.121135425567626953e+01 3.318971872329711914e+00 1.181171774864196777e+00
1.865000000000000000e+03 4.315386581420898438e+01 -9.574356675148010254e-01 9.893680214881896973e-01 1.606222152709960938e+00 7.786770462989807129e-01 1.542116165161132812e+00
1.866000000000000000e+03 4.381248092651367188e+01 -7.781520485877990723e-01 1.484547257423400879e+00 2.256532907485961914e+00 1.122324109077453613e+00 2.150228023529052734e+00
1.867000000000000000e+03 4.696667861938476562e+01 -7.552133798599243164e-01 3.214684128761291504e-01 1.271048450469970703e+01 3.909585952758789062e+00 2.004222631454467773e+00
1.868000000000000000e+03 4.844163131713867188e+01 -1.109669327735900879e+00 2.006515502929687500e+00 1.032730293273925781e+01 3.700145483016967773e+00 -2.714361190795898438e+00
1.869000000000000000e+03 9.083741188049316406e+00 -3.342132568359375000e+00 -7.450027018785476685e-02 -2.053579129278659821e-02 -2.851081825792789459e-02 -5.718990042805671692e-02
1.870000000000000000e+03 1.024001121520996094e+01 -4.287737846374511719e+00 -1.089028641581535339e-01 -3.380091488361358643e-02 -4.281113296747207642e-02 -9.679996222257614136e-02
1.871000000000000000e+03 1.953892707824707031e+01 3.237613916397094727e+00 -6.608176045119762421e-04 3.469558141659945250e-04 -9.415852400707080960e-05 1.793390547391027212e-04
1.872000000000000000e+03 2.168602371215820312e+01 1.397549390792846680e+00 -2.260811452288180590e-04 -2.030941832344979048e-04 -1.287525956286117435e-04 -1.366197193419793621e-05
1.873000000000000000e+03 1.072983169555664062e+01 -5.128090381622314453e+00 -1.248666495084762573e-01 -5.142923071980476379e-02 -5.288876593112945557e-02 -1.301794350147247314e-01
1.874000000000000000e+03 1.009372234344482422e+01 3.958510398864746094e+00 1.723539200611412525e-03 -6.100286263972520828e-04 3.340531839057803154e-04 2.202784235123544931e-04
1.875000000000000000e+03 7.073691844940185547e+00 3.977737188339233398e+00 1.421577762812376022e-03 -3.551907429937273264e-04 3.199161146767437458e-04 -5.904751596972346306e-04
1.876000000000000000e+03 1.167082500457763672e+01 -4.565861701965332031e+00 -1.485588103532791138e-01 -3.497490286827087402e-02 -5.506011471152305603e-02 -1.356661766767501831e-01
1.877000000000000000e+03 7.758418560028076172e+00 3.278467416763305664e+00 1.728332368656992912e-03 -3.031072265002876520e-04 4.275675455573946238e-04 -3.329663304612040520e-04
1.878000000000000000e+03 8.503336906433105469e+00 3.274055004119873047e+00 9.069000952877104282e-04 -6.563841598108410835e-04 7.515478500863537192e-05 -8.501154370605945587e-04
1.879000000000000000e+03 9.331737518310546875e+00 4.015202522277832031e+00 5.332906730473041534e-04 -9.441183065064251423e-04 -1.232483045896515250e-04 -4.966063424944877625e-04
1.880000000000000000e+03 5.735676288604736328e+00 4.662049770355224609e+00 5.415239720605313778e-04 -3.119277243968099356e-04 6.887887866469100118e-05 -1.553649664856493473e-03
1.881000000000000000e+03 5.589572429656982422e+00 4.032239437103271484e+00 1.059100497514009476e-03 -9.928873623721301556e-05 2.879435196518898010e-04 -9.774581994861364365e-04
1.882000000000000000e+03 5.504617214202880859e+00 3.336408138275146484e+00 8.017208310775458813e-04 -3.440005530137568712e-04 1.373160921502858400e-04 -1.324097160249948502e-03
1.883000000000000000e+03 6.327548980712890625e+00 3.972257375717163086e+00 6.621260545216500759e-04 -5.928680766373872757e-04 2.077738463412970304e-05 -1.488377456553280354e-03
1.884000000000000000e+03 3.114537954330444336e+00 4.185997962951660156e+00 -2.282738860230892897e-04 3.108477103523910046e-04 2.477214547980111092e-05 -1.245806808583438396e-03
1.885000000000000000e+03 1.482301712036132812e+01 -4.918400287628173828e+00 -2.665342688560485840e-01 -9.454601444303989410e-03 -8.279666304588317871e-02 -2.189911007881164551e-01
1.886000000000000000e+03 1.242875289916992188e+01 -4.791672229766845703e+00 -1.732823550701141357e-01 -3.341286256909370422e-02 -6.200856342911720276e-02 -1.613319665193557739e-01
1.887000000000000000e+03 4.212782859802246094e+00 -4.133124351501464844e+00 -1.914069242775440216e-02 -2.121151424944400787e-02 -1.210566237568855286e-02 -1.038220617920160294e-02
1.888000000000000000e+03 6.230560302734375000e+00 -3.151201248168945312e+00 -2.908496931195259094e-02 -1.696252450346946716e-02 -1.381424814462661743e-02 -1.974273473024368286e-02
1.889000000000000000e+03 7.510945796966552734e+00 -3.909496307373046875e+00 -5.249435082077980042e-02 -2.867257036268711090e-02 -2.435007691383361816e-02 -4.398581013083457947e-02
1.890000000000000000e+03 9.318062782287597656e+00 -4.964657306671142578e+00 -9.399079531431198120e-02 -4.922182112932205200e-02 -4.296378418803215027e-02 -9.386577457189559937e-02
1.891000000000000000e+03 8.211721420288085938e+00 -3.964623689651489258e+00 -6.581579148769378662e-02 -2.980691008269786835e-02 -2.868681028485298157e-02 -5.565130710601806641e-02
1.892000000000000000e+03 4.188052654266357422e+00 -6.800693511962890625e+00 -3.103935532271862030e-02 -4.894182831048965454e-02 -2.399435453116893768e-02 -3.712120652198791504e-02
1.893000000000000000e+03 5.526273250579833984e+00 -3.136012077331542969e+00 -2.169612795114517212e-02 -1.547150965780019760e-02 -1.115029118955135345e-02 -1.320130378007888794e-02
1.894000000000000000e+03 6.111414432525634766e+00 -3.801187515258789062e+00 -3.408255800604820251e-02 -2.296650782227516174e-02 -1.711471937596797943e-02 -2.501585148274898529e-02
1.895000000000000000e+03 4.904847621917724609e+00 -3.816187620162963867e+00 -2.296330034732818604e-02 -1.979149505496025085e-02 -1.282643806189298630e-02 -1.355248317122459412e-02
1.896000000000000000e+03 6.804420471191406250e+00 -3.864516496658325195e+00 -4.351372271776199341e-02 -2.584617584943771362e-02 -2.080797031521797180e-02 -3.390947729349136353e-02
1.897000000000000000e+03 4.283932876586914062e+01 -1.566536903381347656e+00 4.073117673397064209e-01 1.829620957374572754e+00 6.710798144340515137e-01 1.479027748107910156e+00
1.898000000000000000e+03 1.406875801086425781e+01 -4.882883548736572266e+00 -2.384541779756546021e-01 -1.737694442272186279e-02 -7.674933969974517822e-02 -2.057758569717407227e-01
1.899000000000000000e+03 1.300293350219726562e+01 4.835838794708251953e+00 1.760161016136407852e-03 -1.273182919248938560e-03 1.460934290662407875e-04 1.191198476590216160e-03
1.900000000000000000e+03 1.552967453002929688e+01 -5.589450359344482422e+00 -2.725268900394439697e-01 -5.241997539997100830e-03 -8.333066105842590332e-02 -2.629200518131256104e-01
1.901000000000000000e+03 1.567993068695068359e+01 -4.366131782531738281e+00 -3.187873065471649170e-01 3.035358153283596039e-03 -9.472557902336120605e-02 -2.001899182796478271e-01
1.902000000000000000e+03 1.377603816986083984e+01 2.571760416030883789e+00 1.778451376594603062e-03 -3.155867452733218670e-04 4.388593661133199930e-04 1.277394942007958889e-03
1.903000000000000000e+03 1.437968254089355469e+01 3.990222692489624023e+00 8.335901075042784214e-04 -1.444290974177420139e-03 -1.832102425396442413e-04 7.240824052132666111e-04
1.904000000000000000e+03 1.083889102935791016e+01 3.175582408905029297e+00 1.859424286521971226e-03 -4.526634875219315290e-04 4.220282135065644979e-04 6.017726846039295197e-04
1.905000000000000000e+03 1.612965011596679688e+01 -5.271880149841308594e+00 -3.180058300495147705e-01 2.986907027661800385e-03 -9.450567513704299927e-02 -2.545600235462188721e-01
1.906000000000000000e+03 1.718033218383789062e+01 1.897724509239196777e+00 -3.235507174395024776e-04 2.827201096806675196e-04 -1.224918287334730849e-05 2.174541295971721411e-04
1.907000000000000000e+03 1.531282997131347656e+01 2.408868789672851562e+00 1.446701237000524998e-03 -2.166146732633933425e-04 3.690259763970971107e-04 8.736813906580209732e-04
1.908000000000000000e+03 2.061314582824707031e+01 -5.696946620941162109e+00 -5.268653631210327148e-01 1.167270913720130920e-01 -1.230414807796478271e-01 -1.933837532997131348e-01
1.909000000000000000e+03 1.579747676849365234e+01 -1.000566577911376953e+01 -9.141418337821960449e-02 -7.331605255603790283e-02 -4.941907152533531189e-02 -3.821360766887664795e-01
1.910000000000000000e+03 1.334228992462158203e+01 -1.044947242736816406e+01 -1.181909888982772827e-01 -2.411042749881744385e-01 -1.077885776758193970e-01 -2.617388367652893066e-01
1.911000000000000000e+03 1.963446235656738281e+01 -5.761994361877441406e+00 -4.684125185012817383e-01 9.249833971261978149e-02 -1.127742454409599304e-01 -2.234110981225967407e-01
1.912000000000000000e+03 1.183094406127929688e+01 3.949934244155883789e+00 1.627943594940006733e-03 -3.775238583330065012e-04 3.751259355340152979e-04 1.070286147296428680e-03
1.913000000000000000e+03 1.091473770141601562e+01 3.911430120468139648e+00 8.873734623193740845e-04 -1.261934405192732811e-03 -1.123682741308584809e-04 1.146377981058321893e-04
1.914000000000000000e+03 2.322368240356445312e+01 -5.567173480987548828e+00 -7.881301641464233398e-01 2.215951830148696899e-01 -1.699604988098144531e-01 -8.535414189100265503e-02
1.915000000000000000e+03 4.471781921386718750e+01 8.138383865356445312e+00 9.031568169593811035e-01 6.531568527221679688e+00 2.230417490005493164e+00 -2.037436246871948242e+00
1.916000000000000000e+03 1.635155105590820312e+01 2.988730430603027344e+00 1.209558220580220222e-03 -3.626494726631790400e-04 2.540725981816649437e-04 5.822659004479646683e-04
1.917000000000000000e+03 2.150985717773437500e+01 -5.611064434051513672e+00 -6.091762781143188477e-01 1.544482558965682983e-01 -1.364184170961380005e-01 -1.503190249204635620e-01
1.918000000000000000e+03 2.375036048889160156e+01 -9.708850860595703125e+00 -1.302639544010162354e-01 1.905391961336135864e-01 1.808257400989532471e-02 -4.596877992153167725e-01
1.919000000000000000e+03 2.123120689392089844e+01 -1.150581741333007812e+01 2.638352811336517334e-01 1.168803423643112183e-01 1.142146810889244080e-01 -3.505491912364959717e-01
1.920000000000000000e+03 1.934927940368652344e+01 -9.953351020812988281e+00 -6.234294176101684570e-02 1.403312385082244873e-01 2.339648827910423279e-02 -3.559656143188476562e-01
1.921000000000000000e+03 7.205693817138671875e+01 -1.775332832336425781e+01 1.912735223770141602e+00 9.447438240051269531e+00 3.408051967620849609e+00 -5.457251667976379395e-01
1.922000000000000000e+03 7.215988922119140625e+01 -1.666736221313476562e+01 1.769720911979675293e+00 9.356958389282226562e+00 3.338003873825073242e+00 -1.223460510373115540e-01
1.923000000000000000e+03 2.404914665222167969e+01 -5.440551280975341797e+00 -8.872568011283874512e-01 2.571145296096801758e-01 -1.890426725149154663e-01 -1.003870926797389984e-02
1.924000000000000000e+03 1.603793144226074219e+01 1.077455711364746094e+01 -2.951044589281082153e-03 6.924832268850877881e-05 -8.645388879813253880e-04 9.594931616447865963e-04
1.925000000000000000e+03 1.888115692138671875e+01 1.917940497398376465e+00 4.132094327360391617e-04 6.089466623961925507e-04 3.066468343604356050e-04 4.098594945389777422e-04
1.926000000000000000e+03 3.993535995483398438e+01 -1.883866882324218750e+01 8.873580098152160645e-01 4.228518486022949219e+00 1.534762978553771973e+00 9.868422150611877441e-01
1.927000000000000000e+03 3.871565628051757812e+01 -1.894717025756835938e+01 6.003441214561462402e-01 3.466477632522583008e+00 1.220046520233154297e+00 7.655857801437377930e-01
1.928000000000000000e+03 2.494638824462890625e+01 -5.845645427703857422e+00 -1.082729697227478027e+00 2.892106473445892334e-01 -2.380557060241699219e-01 -6.692292541265487671e-02
1.929000000000000000e+03 2.601492691040039062e+01 -5.684570789337158203e+00 -1.360748052597045898e+00 2.797303795814514160e-01 -3.243053257465362549e-01 -4.254007712006568909e-02
1.930000000000000000e+03 1.159796524047851562e+01 -1.206005954742431641e+01 -1.892644912004470825e-01 -2.569065690040588379e-01 -1.338513195514678955e-01 -1.751781553030014038e-01
1.931000000000000000e+03 7.663156890869140625e+01 -3.543190765380859375e+01 -1.912590712308883667e-01 8.984843254089355469e+00 2.638075351715087891e+00 -1.275498420000076294e-01
1.932000000000000000e+03 7.231054687500000000e+01 9.579561233520507812e+00 4.141268730163574219e-01 8.299028396606445312e+00 2.613946437835693359e+00 -2.703038156032562256e-01
1.933000000000000000e+03 7.043498229980468750e+01 1.047259521484375000e+01 9.386750459671020508e-01 9.211434364318847656e+00 3.045032739639282227e+00 4.313927888870239258e-01
1.934000000000000000e+03 4.614144897460937500e+01 5.870395660400390625e+00 7.134156823158264160e-01 1.237039184570312500e+01 3.925142288208007812e+00 -1.929167866706848145e+00
1.935000000000000000e+03 4.598592376708984375e+01 4.356150627136230469e+00 1.069392800331115723e+00 1.157065486907958984e+01 3.792014360427856445e+00 -3.066508769989013672e+00
1.936000000000000000e+03 4.096476078033447266e+00 -1.176146984100341797e+01 -5.207103863358497620e-02 -1.275359839200973511e-01 -5.388210713863372803e-02 -1.169572621583938599e-01
1.937000000000000000e+03 4.361787319183349609e+00 9.116153717041015625e+00 -9.608050459064543247e-04 -4.505796823650598526e-04 -4.234154184814542532e-04 -1.729695941321551800e-03
1.938000000000000000e+03 7.331304931640625000e+01 -2.183817672729492188e+01 6.799466013908386230e-01 8.618323326110839844e+00 2.789480924606323242e+00 -1.447694897651672363e+00
1.939000000000000000e+03 6.295306682586669922e+00 -2.269455528259277344e+01 1.181486845016479492e-01 -3.136906325817108154e-01 -5.866258591413497925e-02 -2.216123342514038086e-01
1.940000000000000000e+03 4.648266792297363281e+00 2.308697891235351562e+01 -1.066515687853097916e-02 -2.200013771653175354e-02 -9.799588471651077271e-03 3.497119247913360596e-02
1.941000000000000000e+03 7.191661071777343750e+01 -2.364059829711914062e+01 -1.030201986432075500e-01 9.040412902832031250e+00 2.681217670440673828e+00 -1.306094646453857422e+00
1.942000000000000000e+03 3.618354034423828125e+01 -1.321650981903076172e+01 1.151986241340637207e+00 8.241454958915710449e-01 5.928394794464111328e-01 2.292017824947834015e-02
1.943000000000000000e+03 7.041103363037109375e+01 -1.370664215087890625e+01 1.216218590736389160e+00 1.003299617767333984e+01 3.374764442443847656e+00 -2.406456619501113892e-01
1.944000000000000000e+03 7.529891204833984375e+01 -1.268878746032714844e+01 2.981795370578765869e-01 7.458826541900634766e+00 2.327101707458496094e+00 7.331041097640991211e-01
1.945000000000000000e+03 4.277314758300781250e+01 -3.705254316329956055e+00 -8.419140577316284180e-01 3.512966394424438477e+00 8.013156652450561523e-01 1.996640563011169434e+00
1.946000000000000000e+03 1.651433372497558594e+01 -9.322997093200683594e+00 -1.293182075023651123e-01 7.492257282137870789e-03 -3.654778376221656799e-02 -3.936418890953063965e-01
1.947000000000000000e+03 7.371971130371093750e+01 -1.510829162597656250e+01 1.050850033760070801e+00 8.185845375061035156e+00 2.771008491516113281e+00 3.235141932964324951e-01
1.948000000000000000e+03 4.381404876708984375e+01 -2.757977676391601562e+01 -2.159988135099411011e-01 4.536504268646240234e+00 1.296151638031005859e+00 3.587340414524078369e-01
1.949000000000000000e+03 4.628777694702148438e+01 -3.017833900451660156e+01 -7.308093309402465820e-01 3.563799142837524414e+00 8.498969674110412598e-01 -4.437299668788909912e-01
1.950000000000000000e+03 4.074619293212890625e+01 -2.705280876159667969e+01 4.593777358531951904e-01 4.194143295288085938e+00 1.396056294441223145e+00 1.061714291572570801e+00
1.951000000000000000e+03 2.591809463500976562e+01 -6.828825950622558594e+00 -1.060911655426025391e+00 2.109322547912597656e-01 -2.549937963485717773e-01 -2.131485790014266968e-01
1.952000000000000000e+03 1.425180912017822266e+01 -9.830246925354003906e+00 -8.951227366924285889e-02 -1.935455203056335449e-01 -8.491733670234680176e-02 -3.141897618770599365e-01
1.953000000000000000e+03 1.458135604858398438e+01 1.362973880767822266e+01 -4.991963040083646774e-03 -2.591656055301427841e-03 -2.275085775181651115e-03 -2.251995494589209557e-03
1.954000000000000000e+03 1.587494373321533203e+01 1.221594142913818359e+01 1.494076219387352467e-03 -3.716629871632903814e-04 3.367239842191338539e-04 1.629671431146562099e-03
1.955000000000000000e+03 5.815402984619140625e+00 -1.999369049072265625e+01 4.355993494391441345e-02 -2.970837056636810303e-01 -7.605713605880737305e-02 -2.670437395572662354e-01
1.956000000000000000e+03 5.343048572540283203e+00 2.036876487731933594e+01 -1.588209159672260284e-02 -9.442850947380065918e-03 -7.597482297569513321e-03 2.416990138590335846e-02
1.957000000000000000e+03 4.423296928405761719e+00 3.208992767333984375e+01 6.429811473935842514e-03 -8.820168673992156982e-02 -2.453156374394893646e-02 4.909327253699302673e-02
1.958000000000000000e+03 1.017501258850097656e+01 -1.811401748657226562e+01 -3.890756517648696899e-02 -1.235508248209953308e-01 -4.873751476407051086e-02 -2.986239492893218994e-01
1.959000000000000000e+03 9.752557754516601562e+00 -1.329761791229248047e+01 -2.130181044340133667e-01 -1.884344220161437988e-01 -1.204357594251632690e-01 -1.926947981119155884e-01
1.960000000000000000e+03 8.105776786804199219e+00 -2.197824287414550781e+01 1.662372350692749023e-01 -1.696045398712158203e-01 -1.010192208923399448e-03 -2.642935514450073242e-01
1.961000000000000000e+03 4.377524566650390625e+01 -1.559946060180664062e+01 1.358274459838867188e+00 7.338127613067626953e+00 2.608920574188232422e+00 1.341720342636108398e+00
1.962000000000000000e+03 5.284530639648437500e+01 -4.458003997802734375e+00 1.179007172584533691e+00 1.374435663223266602e+00 7.660328745841979980e-01 -5.729335546493530273e-01
1.963000000000000000e+03 6.898168945312500000e+01 -1.149948215484619141e+01 -3.601499274373054504e-02 8.531498908996582031e+00 2.548645257949829102e+00 -9.382678866386413574e-01
1.964000000000000000e+03 6.852748870849609375e+01 -9.928929328918457031e+00 -4.790170192718505859e-01 7.430728912353515625e+00 2.085513591766357422e+00 -1.096059560775756836e+00
1.965000000000000000e+03 4.624448013305664062e+01 1.197136688232421875e+01 5.871269702911376953e-01 8.545672416687011719e+00 2.739839792251586914e+00 -8.611534237861633301e-01
1.966000000000000000e+03 1.560807609558105469e+01 7.145080566406250000e+00 -1.829172833822667599e-03 2.172552558477036655e-05 -5.422341637313365936e-04 8.717634482309222221e-04
1.967000000000000000e+03 1.660612678527832031e+01 8.214277267456054688e+00 -2.357569523155689240e-03 1.224652165547013283e-03 -3.398752014618366957e-04 1.176517689600586891e-03
1.968000000000000000e+03 7.449501037597656250e+01 5.918107509613037109e+00 -1.738021522760391235e-01 7.398149013519287109e+00 2.167304039001464844e+00 -5.479546785354614258e-01
1.969000000000000000e+03 6.366521072387695312e+01 -8.688815116882324219e+00 1.420859247446060181e-01 2.331423997879028320e+00 7.420529723167419434e-01 -1.468142390251159668e+00
1.970000000000000000e+03 4.000957107543945312e+01 -2.470799255371093750e+01 9.102824330329895020e-01 4.224087238311767578e+00 1.540310859680175781e+00 1.447651624679565430e+00
1.971000000000000000e+03 4.003160095214843750e+01 -2.300736045837402344e+01 9.297679662704467773e-01 4.292391777038574219e+00 1.566648006439208984e+00 1.532916307449340820e+00
1.972000000000000000e+03 5.646390914916992188e+01 -3.355087280273437500e+01 -4.450537860393524170e-01 -1.768839359283447266e-02 -1.388226449489593506e-01 -5.301567316055297852e-01
1.973000000000000000e+03 2.734205436706542969e+01 -1.109233856201171875e+01 2.400486469268798828e-01 3.387684747576713562e-02 8.217764645814895630e-02 -5.371959209442138672e-01
1.974000000000000000e+03 2.611810111999511719e+01 -9.701871871948242188e+00 -1.859735101461410522e-01 1.133104488253593445e-01 -2.179891988635063171e-02 -5.517810583114624023e-01
1.975000000000000000e+03 5.831364059448242188e+01 -6.158587932586669922e+00 3.032342717051506042e-02 4.603159129619598389e-01 1.471918076276779175e-01 -1.044566631317138672e+00
1.976000000000000000e+03 4.522580623626708984e+00 -1.512712669372558594e+01 -5.601944401860237122e-02 -2.001782506704330444e-01 -7.685931026935577393e-02 -2.071919739246368408e-01
1.977000000000000000e+03 6.029767036437988281e+00 -1.269496726989746094e+01 -1.094501465559005737e-01 -1.345972269773483276e-01 -7.321421056985855103e-02 -1.722767204046249390e-01
1.978000000000000000e+03 3.387207031250000000e+01 -7.145902156829833984e+00 -1.711784124374389648e+00 -3.435069620609283447e-01 -6.165873408317565918e-01 -3.220553696155548096e-01
1.979000000000000000e+03 7.551957702636718750e+01 -2.366643142700195312e+01 7.249770313501358032e-02 7.969419956207275391e+00 2.412575244903564453e+00 -1.396757602691650391e+00
1.980000000000000000e+03 4.351222610473632812e+01 -2.145127105712890625e+01 1.072453856468200684e+00 6.556277751922607422e+00 2.288619518280029297e+00 8.308374881744384766e-01
1.981000000000000000e+03 4.125657272338867188e+01 -2.542249107360839844e+01 6.923242807388305664e-01 4.513450145721435547e+00 1.561732411384582520e+00 1.203430533409118652e+00
1.982000000000000000e+03 4.327901840209960938e+00 1.396274185180664062e+01 -4.298602230846881866e-03 -1.606005826033651829e-03 -1.771382289007306099e-03 2.280765911564230919e-03
1.983000000000000000e+03 4.267018318176269531e+00 1.136750507354736328e+01 -2.262310124933719635e-03 -5.378426285460591316e-04 -8.400458027608692646e-04 -7.645498262718319893e-04
1.984000000000000000e+03 6.957191467285156250e+01 -2.093908119201660156e+01 1.672392249107360840e+00 1.103709316253662109e+01 3.812845706939697266e+00 -6.272885203361511230e-01
1.985000000000000000e+03 7.514656066894531250e+01 -3.101226997375488281e+01 -4.340132176876068115e-01 8.317692756652832031e+00 2.365103721618652344e+00 -5.095271468162536621e-01
1.986000000000000000e+03 7.472763824462890625e+01 -7.858217239379882812e+00 -3.783877491950988770e-01 7.462201118469238281e+00 2.125144004821777344e+00 5.367034673690795898e-01
1.987000000000000000e+03 7.535932159423828125e+01 7.614294290542602539e-01 -2.589297294616699219e-01 7.239256381988525391e+00 2.094098091125488281e+00 -2.212134599685668945e-01
1.988000000000000000e+03 7.568587493896484375e+01 -1.634853553771972656e+01 6.660651564598083496e-01 7.202005386352539062e+00 2.360421180725097656e+00 1.679002423770725727e-03
1.989000000000000000e+03 7.598647308349609375e+01 8.811992645263671875e+00 9.751851856708526611e-02 7.181479454040527344e+00 2.183699369430541992e+00 -5.915859937667846680e-01
1.990000000000000000e+03 7.422523498535156250e+01 9.208886146545410156e+00 2.605211734771728516e-01 7.707470893859863281e+00 2.390397548675537109e+00 -5.325866937637329102e-01
1.991000000000000000e+03 7.309612274169921875e+01 1.650764465332031250e+01 1.171334385871887207e+00 8.535281181335449219e+00 2.911984682083129883e+00 8.662797212600708008e-01
1.992000000000000000e+03 7.229076385498046875e+01 2.292450141906738281e+01 -8.577609658241271973e-01 8.223456382751464844e+00 2.209708690643310547e+00 8.730053901672363281e-01
1.993000000000000000e+03 4.738430023193359375e+01 -8.404428482055664062e+00 -2.117337703704833984e+00 7.289738655090332031e+00 1.551720380783081055e+00 2.035980224609375000e+00
1.994000000000000000e+03 4.627835845947265625e+01 1.066753387451171875e+01 5.951076149940490723e-01 9.473270416259765625e+00 3.020513296127319336e+00 -1.147561550140380859e+00
1.995000000000000000e+03 5.748656845092773438e+01 -5.661648750305175781e+00 2.581632435321807861e-01 2.787593603134155273e-01 1.610767841339111328e-01 -1.184319138526916504e+00
1.996000000000000000e+03 3.800334930419921875e+01 -6.056122779846191406e+00 -1.482333898544311523e+00 6.145372390747070312e-01 -2.603389918804168701e-01 1.539321392774581909e-01
1.997000000000000000e+03 3.913633728027343750e+01 -7.161590099334716797e+00 -8.805755972862243652e-01 1.558146953582763672e+00 2.032714188098907471e-01 6.155159473419189453e-01
1.998000000000000000e+03 4.432422256469726562e+01 1.536586952209472656e+01 6.047849655151367188e-01 4.866453170776367188e+00 1.641371488571166992e+00 -1.253346323966979980e+00
1.999000000000000000e+03 3.866586208343505859e+00 3.391345596313476562e+01 5.349025595933198929e-03 -1.163772642612457275e-01 -3.330847248435020447e-02 3.653661534190177917e-02
2.000000000000000000e+03 3.372278928756713867e+00 3.275091171264648438e+01 7.215539924800395966e-03 -1.135173514485359192e-01 -3.189054504036903381e-02 3.624061867594718933e-02
2.001000000000000000e+03 3.346753692626953125e+01 -8.133687019348144531e+00 -9.733544588088989258e-01 -3.798089027404785156e-01 -4.059489965438842773e-01 -2.012589573860168457e-01
2.002000000000000000e+03 3.166051292419433594e+01 -7.812125205993652344e+00 -1.215767145156860352e+00 -5.660712122917175293e-01 -5.345515012741088867e-01 -4.327865540981292725e-01
2.003000000000000000e+03 3.536358642578125000e+01 -1.450090408325195312e+01 1.312794566154479980e+00 5.138469338417053223e-01 5.479924678802490234e-01 -1.218595057725906372e-01
2.004000000000000000e+03 4.967179107666015625e+01 -1.883431315422058105e+00 2.500716447830200195e+00 6.589396953582763672e+00 2.727033853530883789e+00 -1.390588760375976562e+00
2.005000000000000000e+03 5.048963165283203125e+01 -4.130461215972900391e+00 1.034093648195266724e-01 4.424643039703369141e+00 1.358415722846984863e+00 4.659844934940338135e-01
2.006000000000000000e+03 7.249101257324218750e+01 -1.879733657836914062e+01 1.592021584510803223e+00 9.158070564270019531e+00 3.225027799606323242e+00 -8.430669903755187988e-01
2.007000000000000000e+03 6.402183532714843750e+01 2.509815597534179688e+01 -1.315896987915039062e+00 1.256365180015563965e+00 -1.785954646766185760e-02 -9.139240980148315430e-01
2.008000000000000000e+03 3.157224655151367188e+01 -9.072218894958496094e+00 -4.198416769504547119e-01 -4.479100108146667480e-01 -2.603254914283752441e-01 -3.478694260120391846e-01
2.009000000000000000e+03 1.719380569458007812e+01 1.804522323608398438e+01 -5.248595401644706726e-02 -1.580166071653366089e-02 -2.048628404736518860e-02 -4.235924780368804932e-02
2.010000000000000000e+03 1.574946498870849609e+01 1.792364311218261719e+01 -5.610555410385131836e-02 1.102776266634464264e-02 -1.352333743125200272e-02 -2.141211926937103271e-02
2.011000000000000000e+03 5.122345352172851562e+01 -6.409223556518554688e+00 -2.159297227859497070e+00 2.230802774429321289e+00 2.145161665976047516e-02 1.218840599060058594e+00
2.012000000000000000e+03 4.861795425415039062e+01 -6.572964668273925781e+00 -2.589808464050292969e+00 6.350835800170898438e+00 1.128308296203613281e+00 2.085184335708618164e+00
2.013000000000000000e+03 6.969987487792968750e+01 1.430329895019531250e+01 1.688707709312438965e+00 1.155054283142089844e+01 3.971775293350219727e+00 1.096963763236999512e+00
2.014000000000000000e+03 7.102012634277343750e+01 1.447980403900146484e+01 1.370866179466247559e+00 9.982242584228515625e+00 3.405932664871215820e+00 7.402484416961669922e-01
2.015000000000000000e+03 6.523931884765625000e+01 -2.945744323730468750e+01 -1.115592002868652344e+00 3.263093709945678711e+00 6.442505121231079102e-01 6.643277406692504883e-01
2.016000000000000000e+03 7.456061363220214844e+00 -2.332579421997070312e+01 1.668430417776107788e-01 -2.430391758680343628e-01 -2.285883948206901550e-02 -2.107824981212615967e-01
2.017000000000000000e+03 6.133592987060546875e+01 2.794365692138671875e+01 -2.999547719955444336e-01 1.052588701248168945e+00 2.257901877164840698e-01 -5.375708639621734619e-02
2.018000000000000000e+03 5.598241424560546875e+01 -5.644878387451171875e+00 -3.673575073480606079e-02 6.891433149576187134e-02 9.653574787080287933e-03 -1.226141571998596191e+00
2.019000000000000000e+03 5.440780258178710938e+01 -4.967861175537109375e+00 8.378025889396667480e-01 5.675256624817848206e-02 2.683665454387664795e-01 -1.015584945678710938e+00
2.020000000000000000e+03 4.459152603149414062e+01 1.420050334930419922e+01 7.058060169219970703e-01 5.387913703918457031e+00 1.828115940093994141e+00 -1.348071336746215820e+00
2.021000000000000000e+03 1.192707252502441406e+01 -2.558114051818847656e+01 2.366821020841598511e-01 1.938126236200332642e-01 1.291484087705612183e-01 -1.973671615123748779e-01
2.022000000000000000e+03 6.467596435546875000e+01 -3.350995254516601562e+01 -4.639678597450256348e-01 3.047803163528442383e+00 7.751505970954895020e-01 5.761184692382812500e-01
2.023000000000000000e+03 6.558361816406250000e+01 -3.185769081115722656e+01 -9.058224558830261230e-01 3.572993993759155273e+00 8.001514673233032227e-01 6.888056993484497070e-01
2.024000000000000000e+03 4.828469467163085938e+01 1.567638874053955078e+01 4.307264387607574463e-01 7.742643833160400391e+00 2.452011108398437500e+00 7.384737133979797363e-01
2.025000000000000000e+03 4.511316299438476562e+01 1.055698204040527344e+01 8.092842698097229004e-01 7.382349491119384766e+00 2.457490205764770508e+00 -1.702086806297302246e+00
2.026000000000000000e+03 7.236067962646484375e+01 -1.562359428405761719e+01 1.414586544036865234e+00 9.126770019531250000e+00 3.162406921386718750e+00 8.084852248430252075e-02
2.027000000000000000e+03 3.292036819458007812e+01 -1.180946922302246094e+01 8.139182925224304199e-01 -9.481506794691085815e-02 2.157309651374816895e-01 -1.085321828722953796e-01
2.028000000000000000e+03 3.462972259521484375e+01 -1.234539699554443359e+01 1.011191725730895996e+00 1.811848282814025879e-01 3.577129840850830078e-01 6.771393120288848877e-03
2.029000000000000000e+03 2.724869537353515625e+01 -6.811452865600585938e+00 -1.229989647865295410e+00 4.770031943917274475e-02 -3.546867966651916504e-01 -2.607573866844177246e-01
2.030000000000000000e+03 2.839750862121582031e+01 -8.612495422363281250e+00 -6.856315732002258301e-01 -1.426823884248733521e-01 -2.484941780567169189e-01 -5.712583661079406738e-01
2.031000000000000000e+03 3.483919143676757812e+01 2.170792770385742188e+01 1.687140166759490967e-01 1.026751637458801270e+00 3.586396872997283936e-01 -6.433447003364562988e-01
2.032000000000000000e+03 5.634203720092773438e+01 -2.387845993041992188e+00 3.043066740036010742e+00 5.043895915150642395e-02 9.280517101287841797e-01 -8.095657229423522949e-01
2.033000000000000000e+03 5.726522827148437500e+01 -2.165265321731567383e+00 2.703802824020385742e+00 9.725441038608551025e-02 8.403171300888061523e-01 -8.222921490669250488e-01
2.034000000000000000e+03 6.893294525146484375e+01 -8.665946006774902344e+00 -7.353655099868774414e-01 7.196961402893066406e+00 1.938478708267211914e+00 -7.950124144554138184e-01
2.035000000000000000e+03 3.872981643676757812e+01 -1.781588745117187500e+01 7.919843792915344238e-01 3.243048667907714844e+00 1.210509896278381348e+00 5.782942771911621094e-01
2.036000000000000000e+03 3.992138671875000000e+01 -1.778856277465820312e+01 9.723038077354431152e-01 4.051589965820312500e+00 1.507168173789978027e+00 7.783733606338500977e-01
2.037000000000000000e+03 3.487033367156982422e+00 -2.962965202331542969e+01 1.455692481249570847e-02 -6.459276676177978516e-01 -1.894112229347229004e-01 -2.675904147326946259e-02
2.038000000000000000e+03 4.992750167846679688e+01 2.421417427062988281e+01 -1.181743025779724121e+00 3.868926525115966797e+00 8.061550855636596680e-01 7.737535834312438965e-01
2.039000000000000000e+03 4.938957214355468750e+01 2.278989791870117188e+01 -9.124115705490112305e-01 4.212506294250488281e+00 9.900285005569458008e-01 4.826923906803131104e-01
2.040000000000000000e+03 4.093273162841796875e+01 1.886023521423339844e+01 3.326846063137054443e-01 2.675209045410156250e+00 9.023681282997131348e-01 -1.180042862892150879e+00
2.041000000000000000e+03 4.884199523925781250e+01 1.697401618957519531e+01 5.246913433074951172e-01 6.880262851715087891e+00 2.221486091613769531e+00 1.052397847175598145e+00
2.042000000000000000e+03 4.799409866333007812e+01 1.899386596679687500e+01 -4.102793335914611816e-02 5.438207149505615234e+00 1.619153738021850586e+00 9.358002245426177979e-02
2.043000000000000000e+03 7.541030883789062500e+01 -3.736211013793945312e+01 -1.480745524168014526e-01 8.520545005798339844e+00 2.511741161346435547e+00 -2.260755598545074463e-01
2.044000000000000000e+03 2.355132484436035156e+01 2.512439727783203125e+01 -8.410356938838958740e-02 1.568427309393882751e-02 -2.052578888833522797e-02 -2.544550411403179169e-02
2.045000000000000000e+03 6.368826293945312500e+01 2.676132774353027344e+01 -6.354030966758728027e-01 1.614869356155395508e+00 2.938399016857147217e-01 -8.442558646202087402e-01
2.046000000000000000e+03 1.564200592041015625e+01 4.029948711395263672e+00 2.191097941249608994e-03 -7.189569296315312386e-04 4.416423325892537832e-04 1.740157371386885643e-03
2.047000000000000000e+03 1.666320991516113281e+01 5.995689868927001953e+00 -2.140698023140430450e-03 1.314562279731035233e-03 -2.478407404851168394e-04 1.085822121240198612e-03
2.048000000000000000e+03 6.907747650146484375e+01 6.205551147460937500e+00 -1.879561692476272583e-01 7.013339042663574219e+00 2.047614812850952148e+00 5.087150931358337402e-01
2.049000000000000000e+03 1.268381214141845703e+01 -2.851960563659667969e+01 1.549629569053649902e-01 1.505271494388580322e-01 9.164703637361526489e-02 -1.536060571670532227e-01
2.050000000000000000e+03 2.342388534545898438e+01 -3.685899353027343750e+01 2.735392451286315918e-01 4.043391346931457520e-01 2.033635228872299194e-01 1.848882436752319336e-02
2.051000000000000000e+03 2.457730865478515625e+01 -3.519781112670898438e+01 2.942860722541809082e-01 3.375946581363677979e-01 1.895642131567001343e-01 3.842322528362274170e-02
2.052000000000000000e+03 4.097340106964111328e+00 -7.951249599456787109e+00 -3.310571238398551941e-02 -6.209728866815567017e-02 -2.856089919805526733e-02 -4.895513504743576050e-02
2.053000000000000000e+03 6.445091247558593750e+00 -5.992455959320068359e+00 -5.382709950208663940e-02 -5.617466941475868225e-02 -3.300052881240844727e-02 -5.706416070461273193e-02
2.054000000000000000e+03 6.137840270996093750e+01 9.486429691314697266e-01 1.569349527359008789e+00 1.250344872474670410e+00 8.459083437919616699e-01 4.423532783985137939e-01
2.055000000000000000e+03 4.682925701141357422e+00 7.169254302978515625e+00 -4.499907081481069326e-04 2.825900155585259199e-04 -5.022020559408701956e-05 -1.328259357251226902e-03
2.056000000000000000e+03 3.823128938674926758e+00 7.638484477996826172e+00 6.122795184637652710e-06 1.346667559118941426e-04 4.223686482873745263e-05 -1.892071450129151344e-03
2.057000000000000000e+03 6.995388031005859375e+01 -1.201367282867431641e+01 -6.765928585082292557e-03 9.178277015686035156e+00 2.751453399658203125e+00 -3.149560391902923584e-01
2.058000000000000000e+03 6.420834350585937500e+01 2.280873060226440430e+00 7.385120391845703125e-01 3.042883157730102539e+00 1.134418487548828125e+00 8.396988511085510254e-01
2.059000000000000000e+03 6.027062606811523438e+01 -6.486299037933349609e+00 1.496022194623947144e-01 1.066765785217285156e+00 3.649104237556457520e-01 -1.038148403167724609e+00
2.060000000000000000e+03 6.713902282714843750e+01 -2.963051605224609375e+01 -1.184432744979858398e+00 4.975701808929443359e+00 1.137380719184875488e+00 6.322994828224182129e-01
2.061000000000000000e+03 6.939209747314453125e+01 -2.814782142639160156e+01 -1.210989713668823242e+00 6.815473556518554688e+00 1.681345105171203613e+00 1.386734992265701294e-01
2.062000000000000000e+03 7.112841796875000000e+01 1.861711502075195312e+01 9.751649498939514160e-01 9.874532699584960938e+00 3.254909515380859375e+00 1.056798577308654785e+00
2.063000000000000000e+03 7.523214721679687500e+01 2.281653404235839844e+00 -2.360594272613525391e-01 7.220113754272460938e+00 2.095216274261474609e+00 -3.387748599052429199e-01
2.064000000000000000e+03 4.538816833496093750e+01 -7.361833453178405762e-01 1.841563344001770020e+00 6.374577999114990234e+00 2.464842319488525391e+00 4.294493198394775391e+00
2.065000000000000000e+03 4.531145477294921875e+01 4.187842369079589844e+00 1.788265109062194824e+00 7.034761428833007812e+00 2.646908044815063477e+00 -2.677573442459106445e+00
2.066000000000000000e+03 4.342477035522460938e+01 -1.804894089698791504e+00 4.354210495948791504e-01 2.818438529968261719e+00 9.761579036712646484e-01 2.156782627105712891e+00
2.067000000000000000e+03 4.468991088867187500e+01 4.524555206298828125e+00 1.622028708457946777e+00 4.427803993225097656e+00 1.814949870109558105e+00 -1.642253518104553223e+00
2.068000000000000000e+03 4.707540512084960938e+01 -1.811391115188598633e+00 -2.889981269836425781e-01 1.016097927093505859e+01 2.961594343185424805e+00 1.829502224922180176e+00
2.069000000000000000e+03 1.001042747497558594e+01 -5.083222866058349609e+00 -1.083928421139717102e-01 -5.093096941709518433e-02 -4.779714345932006836e-02 -1.102769002318382263e-01
2.070000000000000000e+03 8.900141716003417969e+00 -4.057734012603759766e+00 -7.861475646495819092e-02 -3.267601504921913147e-02 -3.338723257184028625e-02 -6.814468652009963989e-02
2.071000000000000000e+03 4.604554367065429688e+01 -9.772857427597045898e-01 8.337230682373046875e-01 9.337121963500976562e+00 3.051253557205200195e+00 4.120681762695312500e+00
2.072000000000000000e+03 4.554618072509765625e+01 4.515724182128906250e+00 1.341656327247619629e+00 8.879417419433593750e+00 3.066322088241577148e+00 -2.715082645416259766e+00
2.073000000000000000e+03 4.462847518920898438e+01 -7.964187264442443848e-01 1.789439797401428223e+00 4.006851673126220703e+00 1.738887548446655273e+00 3.203295230865478516e+00
2.074000000000000000e+03 4.832487106323242188e+00 4.171231269836425781e+00 5.568052874878048897e-04 -2.109093475155532360e-04 1.037687761709094048e-04 -1.452291617169976234e-03
2.075000000000000000e+03 8.684957504272460938e+00 -4.741125583648681641e+00 -8.099360018968582153e-02 -4.292659461498260498e-02 -3.717605769634246826e-02 -7.741832733154296875e-02
2.076000000000000000e+03 4.431393814086914062e+01 5.144657135009765625e+00 1.073008775711059570e+00 3.870841741561889648e+00 1.483155131340026855e+00 -1.193866133689880371e+00
2.077000000000000000e+03 4.202661514282226562e+01 -3.876338481903076172e+00 -1.049131274223327637e+00 2.728087186813354492e+00 5.036867856979370117e-01 1.495051860809326172e+00
2.078000000000000000e+03 4.351560592651367188e+01 -3.393176794052124023e+00 -6.947425007820129395e-01 4.167593479156494141e+00 1.041855335235595703e+00 2.370260000228881836e+00
2.079000000000000000e+03 9.419695854187011719e+00 4.871675968170166016e+00 1.796640804968774319e-03 -1.116112805902957916e-03 2.041584084508940578e-04 5.690016405424103141e-05
2.080000000000000000e+03 7.875507831573486328e+00 4.715334892272949219e+00 1.305111334659159184e-03 -5.739876651205122471e-04 2.193370892200618982e-04 -4.583176632877439260e-04
2.081000000000000000e+03 7.838011741638183594e+00 4.000089645385742188e+00 7.282670121639966965e-04 -9.298106888309121132e-04 -6.046309863450005651e-05 -1.189123373478651047e-03
2.082000000000000000e+03 5.582503318786621094e+00 5.606635093688964844e+00 7.393548148684203625e-04 -6.050599404261447489e-05 2.036546502495184541e-04 -1.250843750312924385e-03
2.083000000000000000e+03 7.101525306701660156e+00 4.669623851776123047e+00 3.881410229951143265e-04 -8.338224724866449833e-04 -1.337044377578422427e-04 -1.336227986030280590e-03
2.084000000000000000e+03 8.641034126281738281e+00 4.858648777008056641e+00 4.292814119253307581e-04 -1.567673636600375175e-03 -3.415176470298320055e-04 -1.107785850763320923e-03
2.085000000000000000e+03 5.047602176666259766e+00 4.966865539550781250e+00 7.502684020437300205e-04 -2.666376240085810423e-04 1.450892450520768762e-04 -1.322388881817460060e-03
2.086000000000000000e+03 1.296443271636962891e+01 3.222650051116943359e+00 1.681056688539683819e-03 -1.591780164744704962e-04 4.565635754261165857e-04 1.061309012584388256e-03
2.087000000000000000e+03 1.280899715423583984e+01 3.981888771057128906e+00 4.475357127375900745e-04 -1.010006526485085487e-03 -1.687412586761638522e-04 7.429442484863102436e-04
2.088000000000000000e+03 1.325018215179443359e+01 -4.899290084838867188e+00 -1.966017037630081177e-01 -3.185153752565383911e-02 -6.853596866130828857e-02 -1.852161884307861328e-01
2.089000000000000000e+03 7.360671997070312500e+00 -4.577223777770996094e+00 -5.834754183888435364e-02 -3.726050630211830139e-02 -2.868241257965564728e-02 -5.233834311366081238e-02
2.090000000000000000e+03 5.918147087097167969e+00 -4.457599639892578125e+00 -3.766246512532234192e-02 -3.029343485832214355e-02 -2.038677036762237549e-02 -2.950458973646163940e-02
2.091000000000000000e+03 6.503871440887451172e+00 -5.247863292694091797e+00 -5.258702859282493591e-02 -4.444078728556632996e-02 -2.910834550857543945e-02 -4.901932552456855774e-02
2.092000000000000000e+03 5.266975879669189453e+00 -4.248564720153808594e+00 -3.005882166326045990e-02 -2.518961206078529358e-02 -1.657452993094921112e-02 -2.099320665001869202e-02
2.093000000000000000e+03 4.771300792694091797e+00 -4.826600551605224609e+00 -2.804793044924736023e-02 -2.835386991500854492e-02 -1.692054048180580139e-02 -2.067310176789760590e-02
2.094000000000000000e+03 2.324840927124023438e+01 -6.471460819244384766e+00 -7.013627886772155762e-01 2.397877424955368042e-01 -1.384725123643875122e-01 -1.793313473463058472e-01
2.095000000000000000e+03 1.663537216186523438e+01 4.919191360473632812e+00 1.903614262118935585e-03 2.474776410963386297e-04 6.453275564126670361e-04 1.559348544105887413e-03
2.096000000000000000e+03 1.494451141357421875e+01 4.416524887084960938e+00 -2.327812835574150085e-04 1.358360634185373783e-03 3.376737877260893583e-04 1.620322233065962791e-03
2.097000000000000000e+03 8.040479660034179688e+00 -4.616166591644287109e+00 -6.745152920484542847e-02 -4.056067019701004028e-02 -3.240365907549858093e-02 -6.327956914901733398e-02
2.098000000000000000e+03 1.263392066955566406e+01 -6.142078399658203125e+00 -1.579325646162033081e-01 -6.826074421405792236e-02 -6.785798817873001099e-02 -2.018133550882339478e-01
2.099000000000000000e+03 1.332487201690673828e+01 -5.694178581237792969e+00 -1.894476711750030518e-01 -5.120347812771797180e-02 -7.219534367322921753e-02 -2.146595567464828491e-01
2.100000000000000000e+03 1.214679241180419922e+01 5.301944732666015625e+00 1.388987002428621054e-04 -6.643413798883557320e-04 -1.576328068040311337e-04 9.038714924827218056e-04
2.101000000000000000e+03 2.080111694335937500e+01 -6.401954174041748047e+00 -4.805240631103515625e-01 1.404196619987487793e-01 -1.020313203334808350e-01 -2.293848246335983276e-01
2.102000000000000000e+03 4.389011383056640625e+01 -4.293854713439941406e+00 -1.177488446235656738e+00 5.042378425598144531e+00 1.159466981887817383e+00 2.445342063903808594e+00
2.103000000000000000e+03 1.413774108886718750e+01 -6.219061374664306641e+00 -1.967505365610122681e-01 -5.516095459461212158e-02 -7.557344436645507812e-02 -2.558889985084533691e-01
2.104000000000000000e+03 1.586776828765869141e+01 -8.566738128662109375e+00 -1.540160477161407471e-01 -3.543541207909584045e-02 -5.683543905615806580e-02 -3.697642385959625244e-01
2.105000000000000000e+03 1.746436500549316406e+01 -5.547966957092285156e+00 -3.704305291175842285e-01 3.643487766385078430e-02 -1.001987010240554810e-01 -2.680260837078094482e-01
2.106000000000000000e+03 2.490650367736816406e+01 -7.980609416961669922e+00 -6.927269101142883301e-01 2.249047756195068359e-01 -1.403466463088989258e-01 -3.641836047172546387e-01
2.107000000000000000e+03 1.770332145690917969e+01 2.737449169158935547e+00 -8.574186940677464008e-04 6.165923550724983215e-04 -7.224791625048965216e-05 8.283001952804625034e-04
2.108000000000000000e+03 5.465233802795410156e+00 -5.968724727630615234e+00 -4.458720609545707703e-02 -4.881263524293899536e-02 -2.801995165646076202e-02 -4.403001442551612854e-02
2.109000000000000000e+03 4.404385375976562500e+01 -3.961476087570190430e-01 1.831249952316284180e+00 2.060587644577026367e+00 1.167551279067993164e+00 2.139011144638061523e+00
2.110000000000000000e+03 5.974889755249023438e+00 7.655496597290039062e+00 -7.785545312799513340e-04 -6.283587426878511906e-04 -4.220739647280424833e-04 -1.226921565830707550e-03
2.111000000000000000e+03 1.091523075103759766e+01 4.598939895629882812e+00 1.549936947412788868e-03 -7.929402054287493229e-04 2.270990080432966352e-04 3.415619430597871542e-04
2.112000000000000000e+03 1.698810958862304688e+01 -6.709955215454101562e+00 -2.929526865482330322e-01 3.120337985455989838e-02 -7.852479070425033569e-02 -3.205205798149108887e-01
2.113000000000000000e+03 4.125283432006835938e+01 -5.941308975219726562e+00 -1.278272867202758789e+00 2.995051383972167969e+00 5.150336027145385742e-01 1.307429671287536621e+00
2.114000000000000000e+03 1.018764305114746094e+01 4.715617656707763672e+00 3.410583885852247477e-04 -1.208213507197797298e-03 -2.601465384941548109e-04 4.469652310490346281e-07
2.115000000000000000e+03 1.959736061096191406e+01 -6.489961624145507812e+00 -4.157575964927673340e-01 1.152119114995002747e-01 -9.016370773315429688e-02 -2.641618847846984863e-01
2.116000000000000000e+03 2.542130470275878906e+01 -5.347590923309326172e+00 -1.095889687538146973e+00 2.566920220851898193e-01 -2.517593204975128174e-01 6.368838995695114136e-02
2.117000000000000000e+03 1.881308937072753906e+01 -7.659622192382812500e+00 -2.846420705318450928e-01 1.153195798397064209e-01 -5.079674348235130310e-02 -3.309173285961151123e-01
2.118000000000000000e+03 4.236773300170898438e+01 -5.845931053161621094e+00 -1.368669986724853516e+00 4.028526782989501953e+00 7.979570031166076660e-01 1.753166437149047852e+00
2.119000000000000000e+03 4.307084655761718750e+01 -4.611220836639404297e+00 -1.184930086135864258e+00 4.275927066802978516e+00 9.272991418838500977e-01 2.137648344039916992e+00
2.120000000000000000e+03 8.692065238952636719e+00 -1.376159286499023438e+01 -1.950232982635498047e-01 -1.478191465139389038e-01 -1.028527319431304932e-01 -2.079387307167053223e-01
2.121000000000000000e+03 8.148619651794433594e+00 -1.534731864929199219e+01 -1.550370901823043823e-01 -1.373885869979858398e-01 -8.772770315408706665e-02 -2.688613235950469971e-01
2.122000000000000000e+03 4.557065200805664062e+01 5.033503055572509766e+00 1.121467828750610352e+00 9.592756271362304688e+00 3.214267253875732422e+00 -2.129260778427124023e+00
2.123000000000000000e+03 7.131548309326171875e+01 -9.591942787170410156e+00 -5.787587165832519531e-01 8.076204299926757812e+00 2.249233722686767578e+00 9.674264490604400635e-02
2.124000000000000000e+03 2.150990486145019531e+01 -6.320119857788085938e+00 -5.466421842575073242e-01 1.765231192111968994e-01 -1.110357195138931274e-01 -2.078823447227478027e-01
2.125000000000000000e+03 6.959004211425781250e+01 -1.031618785858154297e+01 -6.083863973617553711e-01 8.216671943664550781e+00 2.282485485076904297e+00 -4.763009846210479736e-01
2.126000000000000000e+03 4.903940200805664062e+01 -9.859505295753479004e-01 3.891831159591674805e+00 7.848156929016113281e+00 3.521996498107910156e+00 -2.705481290817260742e+00
2.127000000000000000e+03 4.797327423095703125e+01 -1.088432669639587402e+00 5.393514037132263184e-01 1.295935916900634766e+01 4.049613475799560547e+00 -1.133911132812500000e+00
2.128000000000000000e+03 5.366992568969726562e+01 -3.802734136581420898e+00 1.972791075706481934e+00 9.672979116439819336e-01 8.820267319679260254e-01 -8.114627599716186523e-01
2.129000000000000000e+03 5.544644927978515625e+01 -4.624870777130126953e+00 1.064304709434509277e+00 5.533630773425102234e-02 3.358923196792602539e-01 -1.180963754653930664e+00
2.130000000000000000e+03 1.873325538635253906e+01 3.626751899719238281e+00 -1.142001943662762642e-03 1.021850504912436008e-03 -3.604541052482090890e-05 9.556104778312146664e-04
2.131000000000000000e+03 5.645089340209960938e+01 -3.066446304321289062e+00 2.333043336868286133e+00 5.188115686178207397e-02 7.154773473739624023e-01 -1.135085821151733398e+00
2.132000000000000000e+03 2.653972434997558594e+01 -4.866554737091064453e+00 -1.263141632080078125e+00 1.395891010761260986e-01 -3.370657563209533691e-01 2.927358150482177734e-01
2.133000000000000000e+03 2.902337837219238281e+01 -9.702738761901855469e+00 -2.755164504051208496e-01 -2.402200996875762939e-01 -1.547209620475769043e-01 -5.234009027481079102e-01
2.134000000000000000e+03 3.087553596496582031e+01 -8.298669815063476562e+00 -9.789295196533203125e-01 -5.081557631492614746e-01 -4.461255669593811035e-01 -4.199290275573730469e-01
2.135000000000000000e+03 1.894497489929199219e+01 2.874440431594848633e+00 1.050355960614979267e-03 3.225527179893106222e-04 4.118726064916700125e-04 3.872312663588672876e-04
2.136000000000000000e+03 7.268209075927734375e+01 -1.461910724639892578e+01 1.176669836044311523e+00 8.739569664001464844e+00 2.974871873855590820e+00 2.978040575981140137e-01
2.137000000000000000e+03 1.448458099365234375e+01 8.007205963134765625e+00 -9.985965443775057793e-04 -1.776757184416055679e-03 -8.326061069965362549e-04 7.038420881144702435e-04
2.138000000000000000e+03 1.667426872253417969e+01 -7.979751586914062500e+00 -2.084662765264511108e-01 1.832047104835510254e-02 -5.704374238848686218e-02 -3.668647408485412598e-01
2.139000000000000000e+03 4.194388580322265625e+01 -1.641955947875976562e+01 1.358550310134887695e+00 5.660196781158447266e+00 2.105624198913574219e+00 1.017119646072387695e+00
2.140000000000000000e+03 4.237880325317382812e+01 -1.875872039794921875e+01 1.176634311676025391e+00 6.241236209869384766e+00 2.225361108779907227e+00 1.085842609405517578e+00
2.141000000000000000e+03 4.114177322387695312e+01 -1.879058837890625000e+01 1.140361785888671875e+00 5.027864456176757812e+00 1.850467920303344727e+00 1.068530797958374023e+00
2.142000000000000000e+03 5.636745452880859375e+01 -4.395131111145019531e+00 1.232120275497436523e+00 1.221431121230125427e-01 4.062790274620056152e-01 -1.251913189888000488e+00
2.143000000000000000e+03 1.367273998260498047e+01 3.907294511795043945e+00 1.265170983970165253e-03 1.210086702485568821e-05 3.831815265584737062e-04 1.217617536894977093e-03
2.144000000000000000e+03 1.456901454925537109e+01 3.279046058654785156e+00 1.531384303234517574e-03 1.667110482230782509e-04 5.094286170788109303e-04 1.868623076006770134e-03
2.145000000000000000e+03 1.727838706970214844e+01 1.945376014709472656e+01 -1.141839921474456787e-01 2.027678862214088440e-02 -2.817216143012046814e-02 -3.748357668519020081e-02
2.146000000000000000e+03 1.542302322387695312e+01 2.221569442749023438e+01 -1.172349229454994202e-01 4.436220601201057434e-02 -2.186181582510471344e-02 3.405248746275901794e-02
2.147000000000000000e+03 4.493959426879882812e+01 1.173448467254638672e+01 7.613825201988220215e-01 6.682717800140380859e+00 2.233230113983154297e+00 -1.716740012168884277e+00
2.148000000000000000e+03 4.410890960693359375e+01 1.011414909362792969e+01 9.094679951667785645e-01 5.129012107849121094e+00 1.811544060707092285e+00 -2.068079948425292969e+00
2.149000000000000000e+03 6.391318511962890625e+01 -7.036549568176269531e+00 1.573585420846939087e-01 2.803026437759399414e+00 8.881154656410217285e-01 -1.386301517486572266e+00
2.150000000000000000e+03 1.464775466918945312e+01 7.141105175018310547e+00 1.839512377046048641e-03 -1.343744515907019377e-04 5.115413805469870567e-04 3.402031725272536278e-03
2.151000000000000000e+03 1.556799507141113281e+01 6.212142467498779297e+00 1.962621230632066727e-03 -3.773121989070205018e-06 5.876544746570289135e-04 2.309624105691909790e-03
2.152000000000000000e+03 5.204114151000976562e+01 -3.592619895935058594e+00 1.840208768844604492e+00 2.632745027542114258e+00 1.341886162757873535e+00 -5.075106024742126465e-01
2.153000000000000000e+03 7.269032287597656250e+01 1.766138076782226562e+01 1.025579333305358887e+00 8.965845108032226562e+00 2.997427463531494141e+00 9.773378968238830566e-01
2.154000000000000000e+03 1.780045318603515625e+01 -9.349061965942382812e+00 -1.336549371480941772e-01 8.436624705791473389e-02 -1.478660665452480316e-02 -3.794938325881958008e-01
2.155000000000000000e+03 1.725703811645507812e+01 -8.712342262268066406e+00 -1.723988056182861328e-01 5.820901319384574890e-02 -3.425693884491920471e-02 -3.703110218048095703e-01
2.156000000000000000e+03 4.251776885986328125e+01 -1.544425296783447266e+01 1.358596920967102051e+00 5.937509536743164062e+00 2.188831806182861328e+00 1.035357832908630371e+00
2.157000000000000000e+03 1.364078998565673828e+01 -8.949018478393554688e+00 -1.190923526883125305e-01 -1.693244874477386475e-01 -8.652505278587341309e-02 -2.905760407447814941e-01
2.158000000000000000e+03 2.023540306091308594e+01 -6.808253765106201172e+00 -4.478019475936889648e-01 1.306606978178024292e-01 -9.514237940311431885e-02 -2.579604089260101318e-01
2.159000000000000000e+03 1.845535850524902344e+01 -9.736575126647949219e+00 -9.806070476770401001e-02 1.286125779151916504e-01 9.165561757981777191e-03 -3.633919954299926758e-01
2.160000000000000000e+03 4.876253890991210938e+01 -2.289064884185791016e+00 6.425526142120361328e-01 8.293158531188964844e+00 2.680713176727294922e+00 -3.947616815567016602e-01
2.161000000000000000e+03 5.007682800292968750e+01 -3.012912750244140625e+00 1.232199668884277344e+00 5.459269046783447266e+00 2.007440567016601562e+00 -2.795990407466888428e-01
2.162000000000000000e+03 6.748320579528808594e+00 -2.152477836608886719e+01 1.095086261630058289e-01 -2.831812202930450439e-01 -5.210177972912788391e-02 -2.554091811180114746e-01
2.163000000000000000e+03 4.366287231445312500e+00 -1.295006847381591797e+01 -6.119287014007568359e-02 -1.503883302211761475e-01 -6.347435712814331055e-02 -1.499663144350051880e-01
2.164000000000000000e+03 7.420586585998535156e+00 -1.078329181671142578e+01 -1.129699051380157471e-01 -1.269606351852416992e-01 -7.197916507720947266e-02 -1.349777579307556152e-01
2.165000000000000000e+03 7.411426544189453125e+01 -2.252601432800292969e+01 3.552950918674468994e-01 8.216553688049316406e+00 2.571554660797119141e+00 -1.440896511077880859e+00
2.166000000000000000e+03 7.569052124023437500e+01 -2.229197502136230469e+01 2.580937743186950684e-01 7.783624172210693359e+00 2.412515401840209961e+00 -1.298500299453735352e+00
2.167000000000000000e+03 4.649308204650878906e+00 8.328791618347167969e+00 1.465689711039885879e-04 2.048611495411023498e-04 1.054290332831442356e-04 -1.203678548336029053e-03
2.168000000000000000e+03 2.718103599548339844e+01 2.737279701232910156e+01 3.943612426519393921e-02 3.195972442626953125e-01 1.077100113034248352e-01 -2.052797824144363403e-01
2.169000000000000000e+03 1.661772346496582031e+01 3.881328344345092773e+00 -1.125732087530195713e-03 1.013356959447264671e-03 -3.371251295902766287e-05 1.087504089809954166e-03
2.170000000000000000e+03 1.429975509643554688e+01 1.775395202636718750e+01 -5.077551677823066711e-02 7.011559791862964630e-03 -1.312918681651353836e-02 -1.048914808779954910e-02
2.171000000000000000e+03 2.143111801147460938e+01 -1.042173671722412109e+01 2.886635065078735352e-02 1.475524306297302246e-01 5.292563512921333313e-02 -3.773035407066345215e-01
2.172000000000000000e+03 2.161467742919921875e+01 -9.366508483886718750e+00 -1.473908722400665283e-01 1.848621964454650879e-01 1.124139502644538879e-02 -3.823648095130920410e-01
2.173000000000000000e+03 7.205629730224609375e+01 -2.043685150146484375e+01 1.357763528823852539e+00 9.270754814147949219e+00 3.188555479049682617e+00 -1.256898880004882812e+00
2.174000000000000000e+03 7.154376983642578125e+01 -1.931856918334960938e+01 1.747564792633056641e+00 9.914175033569335938e+00 3.498522043228149414e+00 -7.200073003768920898e-01
2.175000000000000000e+03 7.444168853759765625e+01 -1.188989353179931641e+01 1.344460099935531616e-01 7.780089855194091797e+00 2.374360799789428711e+00 7.716000676155090332e-01
2.176000000000000000e+03 4.486701583862304688e+01 5.964130401611328125e+00 1.188111424446105957e+00 6.735733032226562500e+00 2.377153396606445312e+00 -2.080705881118774414e+00
2.177000000000000000e+03 4.414694976806640625e+01 5.733784198760986328e+00 8.694738149642944336e-01 4.369382381439208984e+00 1.571656823158264160e+00 -1.163880705833435059e+00
2.178000000000000000e+03 4.808506011962890625e+01 -7.488733291625976562e+00 -2.471090078353881836e+00 6.597423553466796875e+00 1.237900018692016602e+00 2.095657587051391602e+00
2.179000000000000000e+03 2.792873764038085938e+01 -1.023149299621582031e+01 -8.637303253635764122e-04 -5.721086263656616211e-02 -1.742237806320190430e-02 -5.446545481681823730e-01
2.180000000000000000e+03 2.836626052856445312e+01 -1.117788028717041016e+01 3.196632266044616699e-01 -1.048588231205940247e-01 6.444132328033447266e-02 -5.037333369255065918e-01
2.181000000000000000e+03 9.257635116577148438e+00 -1.233396720886230469e+01 -1.828347891569137573e-01 -1.651493608951568604e-01 -1.043952405452728271e-01 -1.716074049472808838e-01
2.182000000000000000e+03 4.464729690551757812e+01 -9.350934028625488281e+00 -1.097819328308105469e+00 6.605207920074462891e+00 1.652216553688049316e+00 1.330789327621459961e+00
2.183000000000000000e+03 4.653073501586914062e+01 -9.370845794677734375e+00 -1.391461372375488281e+00 7.562433719635009766e+00 1.851291656494140625e+00 1.543801903724670410e+00
2.184000000000000000e+03 6.864855194091796875e+01 8.312452316284179688e+00 3.827243745326995850e-01 7.729155063629150391e+00 2.433563709259033203e+00 1.032763838768005371e+00
2.185000000000000000e+03 6.973653411865234375e+01 8.733316421508789062e+00 2.326717227697372437e-01 8.411688804626464844e+00 2.593308210372924805e+00 5.673075318336486816e-01
2.186000000000000000e+03 7.170590972900390625e+01 1.090704631805419922e+01 8.260583281517028809e-01 8.643755912780761719e+00 2.840944290161132812e+00 -2.231275849044322968e-02
2.187000000000000000e+03 3.801912307739257812e+01 -7.127755641937255859e+00 -1.048790097236633301e+00 9.953216910362243652e-01 -1.604050211608409882e-02 3.180691003799438477e-01
2.188000000000000000e+03 4.025743103027343750e+01 -7.073614120483398438e+00 -9.773592352867126465e-01 2.469994783401489258e+00 4.477906823158264160e-01 8.860983252525329590e-01
2.189000000000000000e+03 4.414506912231445312e+01 -1.401025199890136719e+01 1.498438119888305664e+00 7.282266616821289062e+00 2.634211301803588867e+00 1.366075396537780762e+00
2.190000000000000000e+03 4.218050384521484375e+01 -1.442036628723144531e+01 1.380019903182983398e+00 5.464677333831787109e+00 2.053409337997436523e+00 8.395273089408874512e-01
2.191000000000000000e+03 2.642568016052246094e+01 -7.457243442535400391e+00 -9.775205254554748535e-01 1.819030493497848511e-01 -2.386852353811264038e-01 -4.164392948150634766e-01
2.192000000000000000e+03 5.185834884643554688e+00 -2.227103614807128906e+01 7.826316356658935547e-02 -3.908796906471252441e-01 -9.378495812416076660e-02 -2.094023823738098145e-01
2.193000000000000000e+03 7.726576328277587891e+00 -1.694290161132812500e+01 -8.384808152914047241e-02 -1.567486822605133057e-01 -7.217902690172195435e-02 -3.032557666301727295e-01
2.194000000000000000e+03 4.457193374633789062e+01 1.726419067382812500e+01 3.477900922298431396e-01 4.650090217590332031e+00 1.499364018440246582e+00 -1.028756499290466309e+00
2.195000000000000000e+03 5.925115966796875000e+01 -6.434781551361083984e+00 1.174639165401458740e-01 6.589046120643615723e-01 2.329105585813522339e-01 -1.032373070716857910e+00
2.196000000000000000e+03 1.560762119293212891e+01 4.834619998931884766e+00 -8.151252404786646366e-04 -2.341875078855082393e-04 -3.147938114125281572e-04 4.877816827502101660e-04
2.197000000000000000e+03 7.469694519042968750e+01 -1.566612720489501953e+01 9.564124345779418945e-01 7.769407272338867188e+00 2.617745876312255859e+00 2.053754776716232300e-01
2.198000000000000000e+03 7.591213989257812500e+01 -1.524826335906982422e+01 5.318890810012817383e-01 7.105945110321044922e+00 2.291350364685058594e+00 2.843476831912994385e-01
2.199000000000000000e+03 9.260200500488281250e+00 -1.751895332336425781e+01 -7.793931663036346436e-02 -1.051888465881347656e-01 -5.493845045566558838e-02 -3.056006431579589844e-01
2.200000000000000000e+03 7.107653045654296875e+01 -2.612066459655761719e+01 -9.256619215011596680e-01 8.103674888610839844e+00 2.153403759002685547e+00 -7.310395240783691406e-01
2.201000000000000000e+03 7.269548797607421875e+01 -2.447361946105957031e+01 -3.315987586975097656e-01 8.603342056274414062e+00 2.481523036956787109e+00 -1.374630331993103027e+00
2.202000000000000000e+03 7.454361724853515625e+01 1.360801506042480469e+01 8.466000556945800781e-01 7.687878608703613281e+00 2.560343503952026367e+00 2.399193309247493744e-02
2.203000000000000000e+03 3.618112945556640625e+01 -8.566817283630371094e+00 -4.574742317199707031e-01 3.519988954067230225e-01 -3.164260461926460266e-02 5.481863766908645630e-02
2.204000000000000000e+03 3.504251480102539062e+01 -7.899281978607177734e+00 -9.819198846817016602e-01 -4.581748321652412415e-02 -3.083212077617645264e-01 -1.462548822164535522e-01
2.205000000000000000e+03 1.448042774200439453e+01 1.496995544433593750e+01 -1.660451292991638184e-02 -5.674608051776885986e-03 -6.683736573904752731e-03 -9.369922801852226257e-03
2.206000000000000000e+03 5.416875362396240234e+00 8.575652122497558594e+00 -1.084908959455788136e-03 -1.007803017273545265e-03 -6.278136279433965683e-04 -1.331533421762287617e-03
2.207000000000000000e+03 3.183125877380371094e+01 -1.034027576446533203e+01 2.019208669662475586e-01 -2.827390730381011963e-01 -2.424546703696250916e-02 -2.627087533473968506e-01
2.208000000000000000e+03 3.298197937011718750e+01 -8.966713905334472656e+00 -4.270101487636566162e-01 -3.531907200813293457e-01 -2.340602576732635498e-01 -2.506415247917175293e-01
2.209000000000000000e+03 3.832928085327148438e+01 -2.268505096435546875e+01 7.899932861328125000e-01 3.791266441345214844e+00 1.374377965927124023e+00 1.528626084327697754e+00
2.210000000000000000e+03 4.768165969848632812e+01 -6.087094306945800781e+00 -2.297719001770019531e+00 6.992233276367187500e+00 1.408354282379150391e+00 2.241808891296386719e+00
2.211000000000000000e+03 7.323409271240234375e+01 -1.697473144531250000e+01 1.396600723266601562e+00 8.511469841003417969e+00 2.972421169281005859e+00 -2.574007213115692139e-01
2.212000000000000000e+03 3.182605552673339844e+01 -1.211301994323730469e+01 8.679723739624023438e-01 -1.731676310300827026e-01 2.084414213895797729e-01 -1.815855950117111206e-01
2.213000000000000000e+03 3.335565948486328125e+01 -1.286456108093261719e+01 1.181504368782043457e+00 -1.329185813665390015e-02 3.504637479782104492e-01 -3.079528920352458954e-02
2.214000000000000000e+03 2.587824440002441406e+01 -8.685794830322265625e+00 -5.894864201545715332e-01 1.548194885253906250e-01 -1.304000765085220337e-01 -4.715864062309265137e-01
2.215000000000000000e+03 7.435235595703125000e+01 1.683387756347656250e+01 8.329311013221740723e-01 8.035026550292968750e+00 2.660387277603149414e+00 8.053013086318969727e-01
2.216000000000000000e+03 4.038179874420166016e+00 -9.159505844116210938e+00 -4.000476747751235962e-02 -7.939565926790237427e-02 -3.582012653350830078e-02 -6.809262931346893311e-02
2.217000000000000000e+03 5.337041854858398438e+00 -8.030692100524902344e+00 -5.292421951889991760e-02 -7.753661274909973145e-02 -3.913825005292892456e-02 -7.050638645887374878e-02
2.218000000000000000e+03 4.275283813476562500e+01 -2.574627876281738281e+01 4.134421348571777344e-01 4.918087959289550781e+00 1.599458932876586914e+00 8.978157043457031250e-01
2.219000000000000000e+03 5.837337112426757812e+01 -1.886433601379394531e+00 2.536342144012451172e+00 2.030987888574600220e-01 8.218322396278381348e-01 -6.356558799743652344e-01
2.220000000000000000e+03 3.172378301620483398e+00 -2.461353874206542969e+01 3.913703188300132751e-02 -5.892440080642700195e-01 -1.650320887565612793e-01 -1.025903746485710144e-01
2.221000000000000000e+03 7.557822418212890625e+01 -3.250400924682617188e+01 -2.770739197731018066e-01 8.405965805053710938e+00 2.438667535781860352e+00 -4.058569669723510742e-01
2.222000000000000000e+03 7.431566619873046875e+01 -3.327140808105468750e+01 -3.825110793113708496e-01 7.999795436859130859e+00 2.285185337066650391e+00 -2.650078535079956055e-01
2.223000000000000000e+03 4.242996597290039062e+01 1.633457756042480469e+01 6.477543711662292480e-01 3.482546091079711914e+00 1.239090085029602051e+00 -1.355702400207519531e+00
2.224000000000000000e+03 7.582089996337890625e+01 -7.887173175811767578e+00 -2.466220855712890625e-01 7.359081268310546875e+00 2.133737802505493164e+00 5.452310442924499512e-01
2.225000000000000000e+03 7.426112365722656250e+01 7.422146320343017578e+00 -5.751754343509674072e-02 7.537457942962646484e+00 2.243982076644897461e+00 -5.623622536659240723e-01
2.226000000000000000e+03 7.571674346923828125e+01 5.740058898925781250e+00 -1.459530889987945557e-01 7.245132923126220703e+00 2.129754066467285156e+00 -5.562619566917419434e-01
2.227000000000000000e+03 4.218015670776367188e+00 2.047288894653320312e+01 -8.732049725949764252e-03 -1.277981977909803391e-02 -6.453560665249824524e-03 2.103305608034133911e-02
2.228000000000000000e+03 5.566513061523437500e+00 2.154496765136718750e+01 -1.530840806663036346e-02 -1.151472050696611404e-02 -8.046939037740230560e-03 3.044059872627258301e-02
2.229000000000000000e+03 4.419502639770507812e+01 -2.594662284851074219e+01 3.381248712539672852e-01 5.175167083740234375e+00 1.653987646102905273e+00 4.288113713264465332e-01
2.230000000000000000e+03 6.678031921386718750e+01 5.126435279846191406e+00 4.721444100141525269e-02 5.479554653167724609e+00 1.658030748367309570e+00 1.245281696319580078e+00
2.231000000000000000e+03 6.759314727783203125e+01 6.009042739868164062e+00 -3.437670692801475525e-02 6.242794990539550781e+00 1.862525463104248047e+00 1.050729393959045410e+00
2.232000000000000000e+03 5.715278625488281250e+00 1.410411548614501953e+01 -5.644694436341524124e-03 -1.540428842417895794e-03 -2.155537018552422523e-03 3.251333022490143776e-03
2.233000000000000000e+03 7.360466003417968750e+01 -2.388300704956054688e+01 -2.702649682760238647e-02 8.498854637145996094e+00 2.541548490524291992e+00 -1.487119913101196289e+00
2.234000000000000000e+03 5.308783531188964844e+00 -1.389620971679687500e+01 -8.599690347909927368e-02 -1.619399040937423706e-01 -7.438104599714279175e-02 -1.928003132343292236e-01
2.235000000000000000e+03 7.177119731903076172e+00 -1.291377830505371094e+01 -1.370243430137634277e-01 -1.390087455511093140e-01 -8.280992507934570312e-02 -1.819657087326049805e-01
2.236000000000000000e+03 4.910525131225585938e+01 -3.132607078552246094e+01 -8.067091703414916992e-01 2.365046977996826172e+00 4.675013720989227295e-01 -8.755137920379638672e-01
2.237000000000000000e+03 4.777030181884765625e+01 -3.072554397583007812e+01 -7.629075050354003906e-01 3.020537614822387695e+00 6.772890090942382812e-01 -8.804734349250793457e-01
2.238000000000000000e+03 6.339331054687500000e+01 1.283922076225280762e+00 9.856824278831481934e-01 2.463999032974243164e+00 1.034904479980468750e+00 5.627752542495727539e-01
2.239000000000000000e+03 7.331157684326171875e+01 2.076225090026855469e+01 8.388029038906097412e-02 8.314819335937500000e+00 2.519609689712524414e+00 1.293318629264831543e+00
2.240000000000000000e+03 7.560520935058593750e+01 2.180914306640625000e+01 -9.736588597297668457e-02 7.969339847564697266e+00 2.361592054367065430e+00 1.157479286193847656e+00
2.241000000000000000e+03 6.710363769531250000e+01 2.762868309020996094e+01 -8.743689060211181641e-01 4.444135189056396484e+00 1.070929884910583496e+00 -1.080785989761352539e+00
2.242000000000000000e+03 6.729701995849609375e+00 3.105449295043945312e+01 9.991813451051712036e-03 -5.043661221861839294e-02 -1.213343907147645950e-02 6.551923602819442749e-02
2.243000000000000000e+03 7.292333221435546875e+01 -2.965626001358032227e+00 -4.554788768291473389e-01 6.988149166107177734e+00 1.959801077842712402e+00 -3.521684184670448303e-02
2.244000000000000000e+03 7.545366668701171875e+01 -6.910876631736755371e-01 -2.517543137073516846e-01 7.235673904418945312e+00 2.095175743103027344e+00 -1.087747365236282349e-01
2.245000000000000000e+03 3.711279678344726562e+01 2.250121879577636719e+01 8.441632241010665894e-02 1.612543582916259766e+00 5.090879797935485840e-01 -8.071442842483520508e-01
2.246000000000000000e+03 4.191825103759765625e+01 1.754060745239257812e+01 4.878645539283752441e-01 3.198475599288940430e+00 1.105902075767517090e+00 -1.277349591255187988e+00
2.247000000000000000e+03 6.182405471801757812e+01 -3.383719253540039062e+01 -3.274900019168853760e-01 1.216163516044616699e+00 2.666020393371582031e-01 4.563757181167602539e-01
2.248000000000000000e+03 1.278713130950927734e+01 -2.624498176574707031e+01 2.347357869148254395e-01 2.416145801544189453e-01 1.429051011800765991e-01 -2.188843041658401489e-01
2.249000000000000000e+03 1.173245525360107422e+01 -2.955880165100097656e+01 1.188082098960876465e-01 6.365905702114105225e-02 5.474017933011054993e-02 -1.197129189968109131e-01
2.250000000000000000e+03 1.320928096771240234e+01 -2.989287376403808594e+01 1.214920431375503540e-01 1.388905495405197144e-01 7.811477780342102051e-02 -1.496856361627578735e-01
2.251000000000000000e+03 6.210688781738281250e+01 2.635455703735351562e+01 -8.034589290618896484e-01 6.784542798995971680e-01 -3.750139847397804260e-02 -3.136764764785766602e-01
2.252000000000000000e+03 7.390676879882812500e+01 2.216405630111694336e+00 -3.449647128582000732e-01 7.187375545501708984e+00 2.052723407745361328e+00 -2.857311666011810303e-01
2.253000000000000000e+03 6.746093750000000000e+01 -3.095331192016601562e+01 -1.128531575202941895e+00 5.071729183197021484e+00 1.182959198951721191e+00 5.442513227462768555e-01
2.254000000000000000e+03 6.629946136474609375e+01 -3.049122810363769531e+01 -1.092318534851074219e+00 4.230355262756347656e+00 9.414109587669372559e-01 6.576035618782043457e-01
2.255000000000000000e+03 3.763075637817382812e+01 -1.414940452575683594e+01 1.161629796028137207e+00 1.745171666145324707e+00 8.720404505729675293e-01 1.245461776852607727e-01
2.256000000000000000e+03 7.413050079345703125e+01 7.727849483489990234e-01 -3.170365095138549805e-01 7.101667881011962891e+00 2.035389423370361328e+00 -2.037381827831268311e-01
2.257000000000000000e+03 1.960243797302246094e+01 2.728695678710937500e+01 -1.809416338801383972e-02 5.961868911981582642e-02 1.245735771954059601e-02 6.996760517358779907e-02
2.258000000000000000e+03 1.621119689941406250e+01 2.559577178955078125e+01 -7.564504444599151611e-02 3.826628252863883972e-02 -1.121362950652837753e-02 8.999739587306976318e-02
2.259000000000000000e+03 5.944848251342773438e+01 -5.441734790802001953e+00 5.434772968292236328e-01 7.506089806556701660e-01 3.882258832454681396e-01 -1.159569859504699707e+00
2.260000000000000000e+03 2.616728019714355469e+01 -1.090527057647705078e+01 1.572013050317764282e-01 5.930100381374359131e-02 6.495068967342376709e-02 -5.132740139961242676e-01
2.261000000000000000e+03 2.409390640258789062e+01 -7.713950157165527344e+00 -5.942170023918151855e-01 2.463428080081939697e-01 -1.043622642755508423e-01 -3.587226569652557373e-01
2.262000000000000000e+03 6.481803417205810547e+00 -3.104384994506835938e+01 3.983084484934806824e-02 -3.758917748928070068e-01 -1.008182838559150696e-01 -3.689159825444221497e-02
2.263000000000000000e+03 7.487560272216796875e+01 -2.929902648925781250e+01 -5.102507472038269043e-01 8.281993865966796875e+00 2.331522941589355469e+00 -8.241571784019470215e-01
2.264000000000000000e+03 7.369010925292968750e+01 -3.156504058837890625e+01 -5.361227989196777344e-01 7.812726974487304688e+00 2.182981252670288086e+00 -4.575944840908050537e-01
2.265000000000000000e+03 4.042441558837890625e+01 -2.880145072937011719e+01 2.004585564136505127e-01 3.964931011199951172e+00 1.249616861343383789e+00 8.176469802856445312e-01
2.266000000000000000e+03 5.188687801361083984e+00 -2.698006248474121094e+01 6.370782107114791870e-02 -4.580107927322387695e-01 -1.182908862829208374e-01 -9.075357764959335327e-02
2.267000000000000000e+03 5.394758701324462891e+00 -3.015076637268066406e+01 3.013920597732067108e-02 -4.729470908641815186e-01 -1.328423619270324707e-01 -3.900277987122535706e-02
2.268000000000000000e+03 7.508457183837890625e+01 2.496761322021484375e+01 -5.125390291213989258e-01 8.238128662109375000e+00 2.317677021026611328e+00 7.572846412658691406e-01
2.269000000000000000e+03 7.303284454345703125e+01 2.397584342956542969e+01 -8.864293098449707031e-01 8.320504188537597656e+00 2.230222463607788086e+00 8.470422625541687012e-01
2.270000000000000000e+03 7.418087005615234375e+01 -3.598047256469726562e+01 -2.141482830047607422e-01 7.741106510162353516e+00 2.258087396621704102e+00 -1.192287057638168335e-01
2.271000000000000000e+03 7.501446247100830078e+00 -1.417595672607421875e+01 -1.526360958814620972e-01 -1.486101746559143066e-01 -9.037388116121292114e-02 -2.260916978120803833e-01
2.272000000000000000e+03 7.420600128173828125e+01 -2.583913230895996094e+01 -4.273423552513122559e-01 8.280376434326171875e+00 2.355910062789916992e+00 -1.303090572357177734e+00
2.273000000000000000e+03 4.264914512634277344e+00 1.527830314636230469e+01 -4.458959680050611496e-03 -1.882387790828943253e-03 -1.902404241263866425e-03 4.749803338199853897e-03
2.274000000000000000e+03 6.266698074340820312e+01 2.376560866832733154e-01 1.273392915725708008e+00 2.042812824249267578e+00 9.948617219924926758e-01 2.613870501518249512e-01
2.275000000000000000e+03 4.997364997863769531e+00 3.475830459594726562e+01 1.242657657712697983e-02 -9.895144402980804443e-02 -2.595745958387851715e-02 3.987127542495727539e-02
2.276000000000000000e+03 4.647192382812500000e+01 -8.649570941925048828e-01 2.517523467540740967e-01 1.163310718536376953e+01 3.565457820892333984e+00 3.393052339553833008e+00
2.277000000000000000e+03 4.397903823852539062e+01 -1.881351351737976074e+00 4.967989623546600342e-01 3.772373676300048828e+00 1.280751824378967285e+00 2.668736696243286133e+00
2.278000000000000000e+03 4.603211975097656250e+01 -4.592092931270599365e-01 1.678215026855468750e+00 9.642648696899414062e+00 3.396259307861328125e+00 4.728115558624267578e+00
2.279000000000000000e+03 4.575712585449218750e+01 -5.203491449356079102e-01 1.921517491340637207e+00 8.022459983825683594e+00 2.983193397521972656e+00 4.728582382202148438e+00
2.280000000000000000e+03 4.455282974243164062e+01 -2.132219076156616211e-01 2.478445529937744141e+00 2.743180274963378906e+00 1.566487669944763184e+00 2.750023126602172852e+00
2.281000000000000000e+03 4.433214187622070312e+01 -5.754103660583496094e-01 1.901975512504577637e+00 2.770379781723022461e+00 1.401706576347351074e+00 2.603603839874267578e+00
2.282000000000000000e+03 4.619258117675781250e+01 5.018347740173339844e+00 7.013017535209655762e-01 1.296100902557373047e+01 4.098693370819091797e+00 -2.804109096527099609e+00
2.283000000000000000e+03 4.519283676147460938e+01 4.491701126098632812e+00 1.681205034255981445e+00 6.825854301452636719e+00 2.552117824554443359e+00 -1.891006827354431152e+00
2.284000000000000000e+03 4.590467071533203125e+01 -1.587932586669921875e+00 1.647332906723022461e-01 8.586727142333984375e+00 2.625438213348388672e+00 3.672487020492553711e+00
2.285000000000000000e+03 4.693580627441406250e+01 -2.846946954727172852e+00 -9.945235848426818848e-01 8.830595970153808594e+00 2.350821733474731445e+00 2.134217262268066406e+00
2.286000000000000000e+03 4.359690856933593750e+01 -1.231312870979309082e+00 9.677443504333496094e-01 2.429183721542358398e+00 1.019078373908996582e+00 2.045951128005981445e+00
2.287000000000000000e+03 1.383807659149169922e+01 4.496329307556152344e+00 -3.735188874998129904e-05 1.344892079941928387e-04 2.914119431807193905e-05 1.370175741612911224e-03
2.288000000000000000e+03 2.179326820373535156e+01 -8.322266578674316406e+00 -3.571819663047790527e-01 1.946513950824737549e-01 -4.875916615128517151e-02 -3.423928916454315186e-01
2.289000000000000000e+03 1.136757373809814453e+01 -7.588634014129638672e+00 -1.180662959814071655e-01 -1.227571889758110046e-01 -7.224704325199127197e-02 -1.868538707494735718e-01
2.290000000000000000e+03 7.827901363372802734e+00 5.358118057250976562e+00 1.647032036089512985e-06 -9.627223480492830276e-04 -2.883225970435887575e-04 -1.016575028188526630e-03
2.291000000000000000e+03 6.375393390655517578e+00 4.607431411743164062e+00 1.216246862895786762e-03 -3.352203930262476206e-04 2.643079496920108795e-04 -6.754305795766413212e-04
2.292000000000000000e+03 6.128149986267089844e+00 5.133276939392089844e+00 6.376231322064995766e-04 -9.799640392884612083e-04 -1.027022663038223982e-04 -1.579142408445477486e-03
2.293000000000000000e+03 4.321050167083740234e+00 6.231067657470703125e+00 7.309126667678356171e-04 1.687311851128470153e-05 2.243357303086668253e-04 -1.465855748392641544e-03
2.294000000000000000e+03 5.259309291839599609e+00 6.225100517272949219e+00 -2.033933851635083556e-04 -6.000740104354918003e-04 -2.410402230452746153e-04 -1.703590736724436283e-03
2.295000000000000000e+03 1.371695899963378906e+01 6.387126922607421875e+00 2.096654847264289856e-03 -1.267625833861529827e-03 2.487086749169975519e-04 2.592181786894798279e-03
2.296000000000000000e+03 1.342945384979248047e+01 5.606718063354492188e+00 -7.460092892870306969e-04 -6.040828520781360567e-05 -2.419252705294638872e-04 1.277054543606936932e-03
2.297000000000000000e+03 7.896808147430419922e+00 -5.193008899688720703e+00 -7.168077677488327026e-02 -4.900940880179405212e-02 -3.620705381035804749e-02 -7.143557071685791016e-02
2.298000000000000000e+03 8.870496749877929688e+00 -5.678164005279541016e+00 -8.910549432039260864e-02 -5.991650372743606567e-02 -4.470660164952278137e-02 -9.647610783576965332e-02
2.299000000000000000e+03 9.014731407165527344e+00 6.240998268127441406e+00 8.968318579718470573e-04 -2.340727951377630234e-03 -4.331687814556062222e-04 -6.434151437133550644e-04
2.300000000000000000e+03 7.945563793182373047e+00 -5.681984901428222656e+00 -7.573012262582778931e-02 -5.697298049926757812e-02 -3.981092944741249084e-02 -8.013642579317092896e-02
2.301000000000000000e+03 2.464090919494628906e+01 -6.910676479339599609e+00 -8.747206926345825195e-01 2.619073688983917236e-01 -1.838440001010894775e-01 -2.171382308006286621e-01
2.302000000000000000e+03 1.610302543640136719e+01 -7.179067611694335938e+00 -2.284352630376815796e-01 -4.392900504171848297e-03 -6.984844803810119629e-02 -3.306055068969726562e-01
2.303000000000000000e+03 1.446815490722656250e+01 -8.413204193115234375e+00 -1.281928867101669312e-01 -1.175594702363014221e-01 -7.372570782899856567e-02 -3.174770772457122803e-01
2.304000000000000000e+03 1.208794021606445312e+01 -5.585329532623291016e+00 -1.557272523641586304e-01 -5.799449980258941650e-02 -6.411652266979217529e-02 -1.761827617883682251e-01
2.305000000000000000e+03 1.106757831573486328e+01 5.198669910430908203e+00 5.816313569084741175e-05 -8.027522708289325237e-04 -2.233767445432022214e-04 7.566199637949466705e-04
2.306000000000000000e+03 1.160724067687988281e+01 4.732152938842773438e+00 8.747960673645138741e-04 -1.688565709628164768e-03 -2.441308752167969942e-04 3.275815106462687254e-04
2.307000000000000000e+03 4.839996337890625000e+01 -2.896561145782470703e+00 -1.584156900644302368e-01 8.287087440490722656e+00 2.438601493835449219e+00 6.572757959365844727e-01
2.308000000000000000e+03 4.846498107910156250e+01 -1.753977894783020020e+00 1.231462359428405762e+00 9.392889976501464844e+00 3.187305688858032227e+00 -8.802644610404968262e-01
2.309000000000000000e+03 1.781391334533691406e+01 -6.292615413665771484e+00 -3.391743898391723633e-01 5.825238674879074097e-02 -8.427660167217254639e-02 -2.913509607315063477e-01
2.310000000000000000e+03 1.890060424804687500e+01 -6.592319488525390625e+00 -3.734681010246276855e-01 9.649555385112762451e-02 -8.309176564216613770e-02 -2.837883830070495605e-01
2.311000000000000000e+03 1.408693885803222656e+01 -5.590013980865478516e+00 -2.145966291427612305e-01 -3.532182425260543823e-02 -7.497553527355194092e-02 -2.333770543336868286e-01
2.312000000000000000e+03 1.457622337341308594e+01 -7.132098197937011719e+00 -1.817344278097152710e-01 -6.426739692687988281e-02 -7.380054891109466553e-02 -2.954424321651458740e-01
2.313000000000000000e+03 2.565022277832031250e+01 -7.900794506072998047e+00 -7.021329402923583984e-01 1.782462596893310547e-01 -1.571660041809082031e-01 -4.025816023349761963e-01
2.314000000000000000e+03 1.364089202880859375e+01 9.869871139526367188e+00 -1.473070937208831310e-03 -3.414476523175835609e-03 -1.466264249756932259e-03 1.784902706276625395e-04
2.315000000000000000e+03 1.271029663085937500e+01 9.305407524108886719e+00 -9.566061198711395264e-04 -1.815645024180412292e-03 -8.316753664985299110e-04 1.301949028857052326e-03
2.316000000000000000e+03 6.505735015869140625e+01 3.248266935348510742e+00 4.308694303035736084e-01 3.769476652145385742e+00 1.260103821754455566e+00 1.040700912475585938e+00
2.317000000000000000e+03 4.900373077392578125e+01 -5.586678504943847656e+00 -1.894646883010864258e+00 6.179133415222167969e+00 1.285345911979675293e+00 1.889230966567993164e+00
2.318000000000000000e+03 5.127849197387695312e+01 -4.132202148437500000e+00 7.579259276390075684e-01 3.262761592864990234e+00 1.206206202507019043e+00 -1.371387857943773270e-02
2.319000000000000000e+03 3.670077133178710938e+01 -1.003856372833251953e+01 2.255746871232986450e-01 8.062209486961364746e-01 3.095386922359466553e-01 1.714391261339187622e-01
2.320000000000000000e+03 5.809960556030273438e+01 -4.875772476196289062e+00 9.105340242385864258e-01 3.848731517791748047e-01 3.886221349239349365e-01 -1.142458200454711914e+00
2.321000000000000000e+03 5.998763656616210938e+01 -7.752836227416992188e+00 -3.351633846759796143e-01 7.133623957633972168e-01 1.134597137570381165e-01 -6.529098153114318848e-01
2.322000000000000000e+03 4.398604965209960938e+01 -2.454631090164184570e+00 -5.654515698552131653e-02 4.337018013000488281e+00 1.284141778945922852e+00 2.723423719406127930e+00
2.323000000000000000e+03 3.996084976196289062e+01 -1.672785568237304688e+01 1.135800242424011230e+00 3.899773120880126953e+00 1.510671973228454590e+00 6.458529829978942871e-01
2.324000000000000000e+03 4.234942245483398438e+01 -1.742927169799804688e+01 1.245851516723632812e+00 6.100058078765869141e+00 2.203772783279418945e+00 1.089416742324829102e+00
2.325000000000000000e+03 7.275273799896240234e+00 -5.866691589355468750e+00 -6.789989024400711060e-02 -6.094222143292427063e-02 -3.865263238549232483e-02 -7.201871275901794434e-02
2.326000000000000000e+03 1.308563423156738281e+01 -6.689372539520263672e+00 -1.615593880414962769e-01 -8.754494786262512207e-02 -7.473130524158477783e-02 -2.367923557758331299e-01
2.327000000000000000e+03 1.525065898895263672e+01 -7.768561840057373047e+00 -1.773048937320709229e-01 -6.437619030475616455e-02 -7.250432670116424561e-02 -3.388102352619171143e-01
2.328000000000000000e+03 4.476733398437500000e+01 1.297248077392578125e+01 7.637311816215515137e-01 5.982150077819824219e+00 2.023764371871948242e+00 -1.468607664108276367e+00
2.329000000000000000e+03 2.311768722534179688e+01 -7.481475830078125000e+00 -5.951833724975585938e-01 2.401639819145202637e-01 -1.065058112144470215e-01 -2.970610558986663818e-01
2.330000000000000000e+03 4.906431579589843750e+01 -3.366598367691040039e+00 -1.367797255516052246e-01 6.761123657226562500e+00 1.987303137779235840e+00 5.885378718376159668e-01
2.331000000000000000e+03 4.938000106811523438e+01 -4.633541107177734375e+00 -1.161657094955444336e+00 5.829519271850585938e+00 1.400358676910400391e+00 1.306662321090698242e+00
2.332000000000000000e+03 7.466139221191406250e+01 -1.344150447845458984e+01 4.626201987266540527e-01 7.688605785369873047e+00 2.445367813110351562e+00 6.581058502197265625e-01
2.333000000000000000e+03 7.553054809570312500e+01 -1.167622566223144531e+01 6.254708021879196167e-02 7.406163215637207031e+00 2.240612983703613281e+00 7.892183661460876465e-01
2.334000000000000000e+03 3.217183303833007812e+01 -8.451173782348632812e+00 -8.127149343490600586e-01 -4.351812899112701416e-01 -3.743688762187957764e-01 -2.858981788158416748e-01
2.335000000000000000e+03 1.867163276672363281e+01 -5.927554607391357422e+00 -4.078926146030426025e-01 6.971854716539382935e-02 -1.014522239565849304e-01 -2.643043398857116699e-01
2.336000000000000000e+03 1.851230430603027344e+01 -8.972694396972656250e+00 -1.740743964910507202e-01 1.098955124616622925e-01 -1.925366371870040894e-02 -3.579797446727752686e-01
2.337000000000000000e+03 2.252473831176757812e+01 -1.062605953216552734e+01 9.547358006238937378e-02 1.552805453538894653e-01 7.522623986005783081e-02 -4.191381931304931641e-01
2.338000000000000000e+03 3.451244735717773438e+01 -8.762352943420410156e+00 -5.049890875816345215e-01 -1.340972781181335449e-01 -1.917259246110916138e-01 -1.211940050125122070e-01
2.339000000000000000e+03 5.361159324645996094e+00 9.368804931640625000e+00 -3.521433245623484254e-05 -6.570533150807023048e-04 -2.076802920782938600e-04 -1.200381782837212086e-03
2.340000000000000000e+03 7.549845123291015625e+01 -1.830930709838867188e+01 7.529593110084533691e-01 7.371782779693603516e+00 2.437422513961791992e+00 -5.208548903465270996e-01
2.341000000000000000e+03 7.384148406982421875e+01 -2.108173179626464844e+01 8.051723241806030273e-01 8.359655380249023438e+00 2.749448299407958984e+00 -1.316097378730773926e+00
2.342000000000000000e+03 6.119251632690429688e+01 -6.729309082031250000e+00 2.043142616748809814e-01 1.284761071205139160e+00 4.467225968837738037e-01 -1.064380764961242676e+00
2.343000000000000000e+03 6.036666488647460938e+01 -5.175412654876708984e+00 7.303426265716552734e-01 1.030674099922180176e+00 5.283050537109375000e-01 -1.105602979660034180e+00
2.344000000000000000e+03 7.412918090820312500e+01 -1.424080848693847656e+01 7.844997644424438477e-01 7.978820800781250000e+00 2.628996133804321289e+00 4.716052711009979248e-01
2.345000000000000000e+03 7.310617828369140625e+01 -1.803581619262695312e+01 1.463040590286254883e+00 8.657456398010253906e+00 3.036149263381958008e+00 -5.754300951957702637e-01
2.346000000000000000e+03 7.520069122314453125e+01 9.942410469055175781e+00 2.832009196281433105e-01 7.334985733032226562e+00 2.285455942153930664e+00 -5.106086730957031250e-01
2.347000000000000000e+03 7.502102661132812500e+01 6.510721683502197266e+00 -9.785062074661254883e-02 7.297785758972167969e+00 2.159980535507202148e+00 -5.893022418022155762e-01
2.348000000000000000e+03 8.029266357421875000e+00 -1.083018875122070312e+01 -1.239818856120109558e-01 -1.428591758012771606e-01 -8.005231618881225586e-02 -1.452626138925552368e-01
2.349000000000000000e+03 1.504802989959716797e+01 5.578282356262207031e+00 5.593114183284342289e-04 7.382162730209529400e-04 3.892582899425178766e-04 2.845053793862462044e-03
2.350000000000000000e+03 1.823156356811523438e+01 -6.992725849151611328e+00 -3.235059976577758789e-01 7.592000812292098999e-02 -7.427579909563064575e-02 -3.209510147571563721e-01
2.351000000000000000e+03 6.319892883300781250e+01 -1.445804357528686523e+00 1.052035808563232422e+00 2.391587495803833008e+00 1.033087015151977539e+00 -2.265836447477340698e-01
2.352000000000000000e+03 5.374836921691894531e+00 1.032207965850830078e+01 -2.418205142021179199e-03 -1.283586258068680763e-03 -1.110537443310022354e-03 -1.172217540442943573e-03
2.353000000000000000e+03 4.939230346679687500e+01 -2.651087522506713867e+00 1.203316807746887207e+00 6.795777797698974609e+00 2.399728298187255859e+00 -3.679096996784210205e-01
2.354000000000000000e+03 4.773590850830078125e+01 -2.515555381774902344e+00 -4.390615522861480713e-01 9.288426399230957031e+00 2.654809236526489258e+00 1.010557055473327637e+00
2.355000000000000000e+03 1.465976142883300781e+01 6.310464382171630859e+00 -1.125980401411652565e-03 -8.910119649954140186e-04 -6.050976808182895184e-04 -1.412592100678011775e-04
2.356000000000000000e+03 5.451163291931152344e+00 6.926895141601562500e+00 8.431602618657052517e-04 -9.401490679010748863e-04 -2.909664544858969748e-05 -1.729314564727246761e-03
2.357000000000000000e+03 7.008090209960937500e+01 7.422362804412841797e+00 -3.595929592847824097e-02 7.715490818023681641e+00 2.303859472274780273e+00 2.631065845489501953e-01
2.358000000000000000e+03 7.322844696044921875e+01 8.384351730346679688e+00 8.641289919614791870e-02 7.753441333770751953e+00 2.351956367492675781e+00 -4.513739347457885742e-01
2.359000000000000000e+03 2.055628776550292969e+01 -9.185545921325683594e+00 -1.790772378444671631e-01 1.610713154077529907e-01 -5.401775706559419632e-03 -3.597105443477630615e-01
2.360000000000000000e+03 8.292311668395996094e+00 -1.269510364532470703e+01 -1.667010486125946045e-01 -1.532127112150192261e-01 -9.597412496805191040e-02 -1.844742894172668457e-01
2.361000000000000000e+03 6.546144866943359375e+01 -3.111662864685058594e-01 4.179435372352600098e-01 3.833000659942626953e+00 1.275283336639404297e+00 6.928138434886932373e-02
2.362000000000000000e+03 5.750287246704101562e+01 -4.360243797302246094e+00 1.266775608062744141e+00 2.287639677524566650e-01 4.486618936061859131e-01 -1.201812386512756348e+00
2.363000000000000000e+03 5.573947906494140625e+01 -2.843813180923461914e+00 2.945701360702514648e+00 1.109576746821403503e-01 9.169977307319641113e-01 -1.024005651473999023e+00
2.364000000000000000e+03 7.100561523437500000e+01 -1.253699207305908203e+01 3.622547686100006104e-01 9.040542602539062500e+00 2.820839166641235352e+00 2.415698021650314331e-01
2.365000000000000000e+03 7.157305908203125000e+01 -1.416008853912353516e+01 1.194858789443969727e+00 9.333122253417968750e+00 3.158394336700439453e+00 2.709057331085205078e-01
2.366000000000000000e+03 4.662695693969726562e+01 -3.310821056365966797e+00 -1.122321009635925293e+00 8.188766479492187500e+00 2.119933843612670898e+00 2.534849166870117188e+00
2.367000000000000000e+03 1.089281558990478516e+01 -1.124937629699707031e+01 -1.544533371925354004e-01 -2.176955342292785645e-01 -1.116446629166603088e-01 -1.802723258733749390e-01
2.368000000000000000e+03 3.003226089477539062e+01 -9.030196189880371094e+00 -4.754450917243957520e-01 -3.638288974761962891e-01 -2.517822086811065674e-01 -4.777087867259979248e-01
2.369000000000000000e+03 2.687438964843750000e+01 -8.269306182861328125e+00 -7.032592296600341797e-01 7.326188683509826660e-02 -1.889992058277130127e-01 -4.925529062747955322e-01
2.370000000000000000e+03 4.360523223876953125e+01 1.622062110900878906e+01 5.315641760826110840e-01 4.136232852935791016e+00 1.400339126586914062e+00 -1.309326887130737305e+00
2.371000000000000000e+03 4.556528091430664062e+01 -8.536048889160156250e+00 -1.602282643318176270e+00 7.138614654541015625e+00 1.660899639129638672e+00 1.632487177848815918e+00
2.372000000000000000e+03 4.432257080078125000e+01 -1.111626338958740234e+01 2.850873768329620361e-01 6.724403858184814453e+00 2.102847337722778320e+00 1.107187628746032715e+00
2.373000000000000000e+03 2.538208961486816406e+01 -6.323164939880371094e+00 -9.892305135726928711e-01 2.387712299823760986e-01 -2.251377850770950317e-01 -2.184866219758987427e-01
2.374000000000000000e+03 3.922368240356445312e+01 -8.312495231628417969e+00 -5.409054756164550781e-01 1.990077137947082520e+00 4.347515106201171875e-01 6.197453737258911133e-01
2.375000000000000000e+03 4.039587783813476562e+01 -8.072455406188964844e+00 -6.356337070465087891e-01 2.804696321487426758e+00 6.507188081741333008e-01 8.637161850929260254e-01
2.376000000000000000e+03 3.060356330871582031e+01 -1.095829486846923828e+01 3.594114482402801514e-01 -2.540692687034606934e-01 3.160265460610389709e-02 -3.508258461952209473e-01
2.377000000000000000e+03 2.732098960876464844e+01 -9.273311614990234375e+00 -4.309493899345397949e-01 -1.618415466509759426e-03 -1.297703385353088379e-01 -5.398591756820678711e-01
2.378000000000000000e+03 7.248915863037109375e+01 1.248066520690917969e+01 1.110224843025207520e+00 8.553091049194335938e+00 2.898994684219360352e+00 -1.559515297412872314e-02
2.379000000000000000e+03 7.129338836669921875e+01 1.211219882965087891e+01 1.138038635253906250e+00 9.358695983886718750e+00 3.149020195007324219e+00 2.786237597465515137e-01
2.380000000000000000e+03 4.331103897094726562e+01 -1.243595504760742188e+01 8.721916079521179199e-01 6.058732032775878906e+00 2.079277038574218750e+00 9.611172676086425781e-01
2.381000000000000000e+03 4.153795242309570312e+01 -1.512147998809814453e+01 1.186603188514709473e+00 4.793595790863037109e+00 1.794059634208679199e+00 7.834854722023010254e-01
2.382000000000000000e+03 7.226144409179687500e+01 -2.162241935729980469e+01 8.210587501525878906e-01 9.218629837036132812e+00 3.011906623840332031e+00 -1.292826652526855469e+00
2.383000000000000000e+03 6.849198913574218750e+01 5.203522205352783203e+00 -2.067273110151290894e-01 6.537991523742675781e+00 1.899379253387451172e+00 7.461073398590087891e-01
2.384000000000000000e+03 3.403705978393554688e+01 -1.125439167022705078e+01 6.843563318252563477e-01 1.520568877458572388e-02 2.098686099052429199e-01 -2.481313794851303101e-02
2.385000000000000000e+03 3.391851806640625000e+01 -9.619339942932128906e+00 -4.040794819593429565e-02 -1.817481964826583862e-01 -6.664684414863586426e-02 -9.993712604045867920e-02
2.386000000000000000e+03 3.699850463867187500e+01 -6.943228721618652344e+00 -1.134945511817932129e+00 4.435034394264221191e-01 -2.074326276779174805e-01 2.946543693542480469e-02
2.387000000000000000e+03 7.618666076660156250e+01 1.060488700866699219e+01 2.200076431035995483e-01 7.079185485839843750e+00 2.189758062362670898e+00 -4.380613863468170166e-01
2.388000000000000000e+03 7.458550262451171875e+01 1.102687072753906250e+01 4.803038537502288818e-01 7.699564933776855469e+00 2.453960657119750977e+00 -3.807858228683471680e-01
2.389000000000000000e+03 1.026865005493164062e+01 -1.055339145660400391e+01 -1.360069364309310913e-01 -1.812273263931274414e-01 -9.517028182744979858e-02 -1.615752428770065308e-01
2.390000000000000000e+03 7.503464508056640625e+01 -1.486305236816406250e+01 7.319889664649963379e-01 7.569053173065185547e+00 2.490312814712524414e+00 4.154506027698516846e-01
2.391000000000000000e+03 7.290360260009765625e+01 1.142336750030517578e+01 7.603017687797546387e-01 8.392395973205566406e+00 2.745809316635131836e+00 -1.817649900913238525e-01
2.392000000000000000e+03 7.425671386718750000e+01 -1.835291862487792969e+01 1.175747036933898926e+00 8.058472633361816406e+00 2.770265817642211914e+00 -5.987904071807861328e-01
2.393000000000000000e+03 5.804579544067382812e+01 -3.550362586975097656e+00 1.760265827178955078e+00 3.079090118408203125e-01 6.204524636268615723e-01 -1.026594400405883789e+00
2.394000000000000000e+03 3.902428054809570312e+01 -1.543347167968750000e+01 1.141040325164794922e+00 2.942715406417846680e+00 1.225126743316650391e+00 3.330634832382202148e-01
2.395000000000000000e+03 7.403697967529296875e+01 1.202944564819335938e+01 7.194002866744995117e-01 7.781559944152832031e+00 2.550288200378417969e+00 -2.237344235181808472e-01
2.396000000000000000e+03 7.556057739257812500e+01 1.385972023010253906e+01 5.977492332458496094e-01 7.255595207214355469e+00 2.356003284454345703e+00 1.636884659528732300e-01
2.397000000000000000e+03 7.467296600341796875e+01 -6.753942489624023438e+00 -3.627191483974456787e-01 7.410323619842529297e+00 2.114281177520751953e+00 4.162977635860443115e-01
2.398000000000000000e+03 7.424448394775390625e+01 5.163791179656982422e+00 -2.311157435178756714e-01 7.356528282165527344e+00 2.137623786926269531e+00 -4.633912146091461182e-01
2.399000000000000000e+03 4.222079849243164062e+01 -2.009403610229492188e+01 1.110758185386657715e+00 5.829606056213378906e+00 2.082109212875366211e+00 1.137297749519348145e+00
2.400000000000000000e+03 4.211448669433593750e+01 -2.269834327697753906e+01 9.576434493064880371e-01 5.313774108886718750e+00 1.881425142288208008e+00 1.220855474472045898e+00
2.401000000000000000e+03 7.403462219238281250e+01 1.819786834716796875e+01 7.048594355583190918e-01 7.995968818664550781e+00 2.610248327255249023e+00 1.128814935684204102e+00
2.402000000000000000e+03 5.121604442596435547e+00 2.595851707458496094e+01 -8.702226914465427399e-03 -3.588299080729484558e-02 -1.337556540966033936e-02 4.803734272718429565e-02
2.403000000000000000e+03 7.058856964111328125e+01 -7.697324275970458984e+00 -7.378441095352172852e-01 7.431934356689453125e+00 2.008227109909057617e+00 -2.469847649335861206e-01
2.404000000000000000e+03 6.787299346923828125e+01 -8.068289756774902344e+00 -6.008436679840087891e-01 6.473661422729492188e+00 1.761845350265502930e+00 -1.230751514434814453e+00
2.405000000000000000e+03 2.487240409851074219e+01 -1.087445354461669922e+01 1.487684696912765503e-01 1.399296671152114868e-01 8.660943806171417236e-02 -5.082595348358154297e-01
2.406000000000000000e+03 4.830334186553955078e+00 -2.330378913879394531e+01 8.362666517496109009e-02 -4.232304990291595459e-01 -1.018811538815498352e-01 -1.794307082891464233e-01
2.407000000000000000e+03 6.548455238342285156e+00 -2.443489646911621094e+01 1.243171617388725281e-01 -3.154332339763641357e-01 -5.733482539653778076e-02 -1.610996425151824951e-01
2.408000000000000000e+03 6.425411701202392578e+00 1.921848678588867188e+01 -1.881776936352252960e-02 -4.593332763761281967e-03 -7.023330777883529663e-03 2.118791453540325165e-02
2.409000000000000000e+03 1.393932437896728516e+01 -7.712511539459228516e+00 -1.512797623872756958e-01 -1.097609400749206543e-01 -7.831221073865890503e-02 -2.937106192111968994e-01
2.410000000000000000e+03 1.166254425048828125e+01 -9.581922531127929688e+00 -1.140048429369926453e-01 -1.964618712663650513e-01 -9.314001351594924927e-02 -1.983077526092529297e-01
2.411000000000000000e+03 7.233749389648437500e+01 1.569621276855468750e+01 1.430485248565673828e+00 8.845246315002441406e+00 3.082719564437866211e+00 5.640082359313964844e-01
2.412000000000000000e+03 4.285956859588623047e+00 -2.082545089721679688e+01 3.701469674706459045e-02 -4.058982133865356445e-01 -1.106650605797767639e-01 -2.120369672775268555e-01
2.413000000000000000e+03 3.779113006591796875e+01 -1.532608413696289062e+01 1.155643582344055176e+00 1.989500284194946289e+00 9.435431361198425293e-01 1.026637181639671326e-01
2.414000000000000000e+03 2.486385917663574219e+01 -8.805815696716308594e+00 -3.999936282634735107e-01 2.004078328609466553e-01 -5.987574532628059387e-02 -4.736978411674499512e-01
2.415000000000000000e+03 1.284014511108398438e+01 6.773583412170410156e+00 -7.916617323644459248e-04 -1.200143946334719658e-03 -5.975416861474514008e-04 4.297708219382911921e-04
2.416000000000000000e+03 1.382153129577636719e+01 7.131803035736083984e+00 -1.229023328050971031e-03 -1.351079787127673626e-03 -7.740309229120612144e-04 3.056705463677644730e-04
2.417000000000000000e+03 3.825893783569335938e+01 -1.292412853240966797e+01 1.013631582260131836e+00 2.004245281219482422e+00 9.053630232810974121e-01 2.127207070589065552e-01
2.418000000000000000e+03 6.251491546630859375e+01 -6.822844028472900391e+00 2.351493388414382935e-01 1.912923336029052734e+00 6.444218158721923828e-01 -1.227541327476501465e+00
2.419000000000000000e+03 7.228973388671875000e+01 -2.275288200378417969e+01 3.769211471080780029e-01 8.848339080810546875e+00 2.767577886581420898e+00 -1.382611036300659180e+00
2.420000000000000000e+03 1.670259475708007812e+01 2.410832214355468750e+01 -1.269407123327255249e-01 4.637401923537254333e-02 -2.417000755667686462e-02 7.236809283494949341e-02
2.421000000000000000e+03 1.384395503997802734e+01 2.195940399169921875e+01 -8.745379745960235596e-02 3.469974547624588013e-02 -1.582621410489082336e-02 3.424197435379028320e-02
2.422000000000000000e+03 7.363529968261718750e+01 1.949834632873535156e+01 4.233581721782684326e-01 8.462295532226562500e+00 2.665696144104003906e+00 1.328942298889160156e+00
2.423000000000000000e+03 7.474965667724609375e+01 2.003284645080566406e+01 2.693808972835540771e-01 7.921008586883544922e+00 2.457116842269897461e+00 1.267202496528625488e+00
2.424000000000000000e+03 5.782735347747802734e+00 -1.732638740539550781e+01 -2.411782927811145782e-02 -2.276007384061813354e-01 -7.551557570695877075e-02 -2.837072908878326416e-01
2.425000000000000000e+03 4.075333023071289062e+01 -2.366012573242187500e+01 8.967182636260986328e-01 4.609693527221679688e+00 1.651923537254333496e+00 1.414466023445129395e+00
2.426000000000000000e+03 4.184070968627929688e+01 -2.401076698303222656e+01 8.269925713539123535e-01 4.981657505035400391e+00 1.742595076560974121e+00 1.273202538490295410e+00
2.427000000000000000e+03 5.179155826568603516e+00 2.754577636718750000e+01 -7.859814912080764771e-03 -4.471119120717048645e-02 -1.577130146324634552e-02 5.342069640755653381e-02
2.428000000000000000e+03 6.739768981933593750e+00 2.752072525024414062e+01 -9.029590524733066559e-03 -3.076579421758651733e-02 -1.193861570209264755e-02 6.272925436496734619e-02
2.429000000000000000e+03 7.026701354980468750e+01 -2.705414581298828125e+01 -1.209317445755004883e+00 7.711092472076416016e+00 1.950532436370849609e+00 -3.368022441864013672e-01
2.430000000000000000e+03 7.202163696289062500e+01 -2.703601264953613281e+01 -9.416537880897521973e-01 8.200647354125976562e+00 2.177697896957397461e+00 -7.988904714584350586e-01
2.431000000000000000e+03 7.525617980957031250e+01 -2.584752464294433594e+01 -3.183111250400543213e-01 8.260811805725097656e+00 2.382750272750854492e+00 -1.300393462181091309e+00
2.432000000000000000e+03 4.184640121459960938e+01 -2.904900550842285156e+01 -1.558928787708282471e-01 4.086360454559326172e+00 1.179140329360961914e+00 5.613223910331726074e-01
2.433000000000000000e+03 1.156833934783935547e+01 -1.051073455810546875e+01 -1.371542960405349731e-01 -2.162339389324188232e-01 -1.060164719820022583e-01 -1.956270635128021240e-01
2.434000000000000000e+03 2.518008422851562500e+01 2.897333908081054688e+01 5.418362468481063843e-02 2.502168118953704834e-01 9.132013469934463501e-02 -1.259118467569351196e-01
2.435000000000000000e+03 7.062313079833984375e+01 2.200438880920410156e+01 -1.196526527404785156e+00 8.812643051147460938e+00 2.284835100173950195e+00 7.052799463272094727e-01
2.436000000000000000e+03 6.801429748535156250e+01 2.582906150817871094e+01 -1.440645098686218262e+00 5.440221786499023438e+00 1.199872970581054688e+00 -1.220778822898864746e+00
2.437000000000000000e+03 3.665925598144531250e+01 -7.744683742523193359e+00 -8.377735018730163574e-01 4.487289488315582275e-01 -1.167133674025535583e-01 4.704700410366058350e-02
2.438000000000000000e+03 3.559681320190429688e+01 -9.437978744506835938e+00 -5.351575091481208801e-02 3.001255095005035400e-01 7.398292422294616699e-02 5.675788596272468567e-02
2.439000000000000000e+03 3.469313049316406250e+01 -3.201626205444335938e+01 1.705586723983287811e-02 2.729936599731445312e+00 8.240977525711059570e-01 9.327208399772644043e-01
2.440000000000000000e+03 7.672226715087890625e+01 2.650783920288085938e+01 -3.213442265987396240e-01 8.424072265625000000e+00 2.430818319320678711e+00 4.920219480991363525e-01
2.441000000000000000e+03 7.345964050292968750e+01 2.776037788391113281e+01 -6.698738336563110352e-01 7.596519947052001953e+00 2.077993869781494141e+00 7.829207926988601685e-02
2.442000000000000000e+03 1.234733867645263672e+01 -2.728990745544433594e+01 1.987476497888565063e-01 1.599258333444595337e-01 1.076020449399948120e-01 -1.726045608520507812e-01
2.443000000000000000e+03 7.370986175537109375e+01 -1.272266197204589844e+01 3.993255496025085449e-01 8.118350982666015625e+00 2.555302858352661133e+00 6.827967166900634766e-01
2.444000000000000000e+03 7.248866558074951172e+00 -1.928522300720214844e+01 3.511402755975723267e-02 -1.997118741273880005e-01 -4.937935620546340942e-02 -3.121806383132934570e-01
2.445000000000000000e+03 5.953600311279296875e+01 -1.669468402862548828e+00 2.118697881698608398e+00 6.071786880493164062e-01 8.177629709243774414e-01 -4.784095287322998047e-01
2.446000000000000000e+03 6.537493133544921875e+01 2.708695983886718750e+01 -8.519608378410339355e-01 3.216199398040771484e+00 7.092715501785278320e-01 -1.138903260231018066e+00
2.447000000000000000e+03 4.333666992187500000e+01 1.513355350494384766e+01 7.577761411666870117e-01 3.989650964736938477e+00 1.424228072166442871e+00 -1.492442369461059570e+00
2.448000000000000000e+03 4.111426925659179688e+01 -1.770566940307617188e+01 1.137770891189575195e+00 4.950156688690185547e+00 1.826378345489501953e+00 9.289265275001525879e-01
2.449000000000000000e+03 7.167528533935546875e+01 -1.139907455444335938e+01 -9.303147345781326294e-02 8.580750465393066406e+00 2.546315670013427734e+00 3.289245963096618652e-01
2.450000000000000000e+03 4.016265869140625000e+01 -3.061693763732910156e+01 -2.073666751384735107e-01 3.699470996856689453e+00 1.047631263732910156e+00 5.311852693557739258e-01
2.451000000000000000e+03 5.886525726318359375e+01 2.918872833251953125e+01 -4.462535679340362549e-02 1.197344422340393066e+00 3.458157181739807129e-01 6.077007651329040527e-01
2.452000000000000000e+03 4.144108963012695312e+01 -8.051073074340820312e+00 -8.107686638832092285e-01 3.821713924407958984e+00 9.032835960388183594e-01 1.140956401824951172e+00
2.453000000000000000e+03 4.139495468139648438e+01 -7.013209819793701172e+00 -1.087412834167480469e+00 3.485476493835449219e+00 7.194191217422485352e-01 1.244969367980957031e+00
2.454000000000000000e+03 5.440955734252929688e+01 2.861067199707031250e+01 -6.054056882858276367e-01 1.896304726600646973e+00 3.872697055339813232e-01 1.216895937919616699e+00
2.455000000000000000e+03 7.031133270263671875e+01 -3.076412582397460938e+01 -1.039867877960205078e+00 6.659111022949218750e+00 1.685772895812988281e+00 7.665210217237472534e-02
2.456000000000000000e+03 4.478427886962890625e+01 -1.590534090995788574e+00 7.952741384506225586e-01 5.206833362579345703e+00 1.800632238388061523e+00 3.383166074752807617e+00
2.457000000000000000e+03 4.513795852661132812e+01 -1.122052073478698730e+00 1.324267387390136719e+00 5.850253105163574219e+00 2.152356147766113281e+00 3.866812944412231445e+00
2.458000000000000000e+03 4.444202804565429688e+01 -1.208187937736511230e+00 1.218044281005859375e+00 3.969748258590698242e+00 1.556337714195251465e+00 3.057416915893554688e+00
2.459000000000000000e+03 4.628829574584960938e+01 -1.777602791786193848e+00 -1.996331214904785156e-01 9.326627731323242188e+00 2.738098382949829102e+00 3.106739044189453125e+00
2.460000000000000000e+03 6.282930374145507812e+00 6.071817398071289062e+00 3.266748681198805571e-04 -1.381340902298688889e-03 -3.163997898809611797e-04 -1.461174455471336842e-03
2.461000000000000000e+03 7.176989078521728516e+00 5.307156562805175781e+00 1.576544949784874916e-03 -1.192729920148849487e-03 1.151444885181263089e-04 -7.523011881858110428e-04
2.462000000000000000e+03 6.651804447174072266e+00 5.554039955139160156e+00 4.789987578988075256e-04 -3.594476729631423950e-04 3.586532329791225493e-05 -1.075716339983046055e-03
2.463000000000000000e+03 7.182505130767822266e+00 5.876233100891113281e+00 -3.396282772882841527e-05 -1.404628506861627102e-03 -4.315773840062320232e-04 -1.499726204201579094e-03
2.464000000000000000e+03 1.431250858306884766e+01 5.078504562377929688e+00 1.540587865747511387e-03 -1.642951625399291515e-03 -3.070912134717218578e-05 1.158767379820346832e-03
2.465000000000000000e+03 9.289150238037109375e+00 -6.255300045013427734e+00 -9.796468168497085571e-02 -7.486995309591293335e-02 -5.185038968920707703e-02 -1.134359389543533325e-01
2.466000000000000000e+03 1.320741653442382812e+01 -8.116858482360839844e+00 -1.211971715092658997e-01 -1.413401365280151367e-01 -7.876119017601013184e-02 -2.607266306877136230e-01
2.467000000000000000e+03 8.207353591918945312e+00 -6.165798664093017578e+00 -8.316186815500259399e-02 -6.795928627252578735e-02 -4.533634707331657410e-02 -9.108468890190124512e-02
2.468000000000000000e+03 4.539929962158203125e+01 5.659257888793945312e+00 1.219998836517333984e+00 8.287926673889160156e+00 2.852377653121948242e+00 -2.110509872436523438e+00
2.469000000000000000e+03 9.670672416687011719e+00 5.729466915130615234e+00 -4.329142393544316292e-04 -9.978301823139190674e-04 -4.292233206797391176e-04 -1.853434951044619083e-04
2.470000000000000000e+03 1.486068058013916016e+01 -6.384881496429443359e+00 -2.155657559633255005e-01 -4.052201658487319946e-02 -7.682632654905319214e-02 -2.837519049644470215e-01
2.471000000000000000e+03 1.748850440979003906e+01 -7.464412212371826172e+00 -2.623955309391021729e-01 5.808764696121215820e-02 -6.129236146807670593e-02 -3.379880785942077637e-01
2.472000000000000000e+03 1.038985633850097656e+01 5.460703849792480469e+00 1.914405496791005135e-03 -1.894543878734111786e-03 5.958485417068004608e-06 1.638379908399656415e-04
2.473000000000000000e+03 2.285825729370117188e+01 -8.517479896545410156e+00 -3.454390764236450195e-01 2.183935791254043579e-01 -3.811364620923995972e-02 -3.817724585533142090e-01
2.474000000000000000e+03 2.126701354980468750e+01 -6.979753017425537109e+00 -4.753972291946411133e-01 1.767624914646148682e-01 -8.959042280912399292e-02 -2.655561566352844238e-01
2.475000000000000000e+03 5.422680377960205078e+00 -6.943289756774902344e+00 -4.782075807452201843e-02 -6.177082285284996033e-02 -3.287747502326965332e-02 -5.553853884339332581e-02
2.476000000000000000e+03 4.809035491943359375e+01 -3.593381643295288086e+00 -1.082355856895446777e+00 7.971936702728271484e+00 2.066874265670776367e+00 1.373934864997863770e+00
2.477000000000000000e+03 4.595400238037109375e+01 -3.808686971664428711e+00 -1.440578222274780273e+00 7.444193363189697266e+00 1.801084518432617188e+00 2.785375595092773438e+00
2.478000000000000000e+03 1.966898155212402344e+01 -8.103445053100585938e+00 -2.768740355968475342e-01 1.313891559839248657e-01 -4.364546388387680054e-02 -3.347643613815307617e-01
2.479000000000000000e+03 6.294123649597167969e+00 8.519937515258789062e+00 9.626672544982284307e-05 -9.415503009222447872e-04 -2.535850508138537407e-04 -1.180562656372785568e-03
2.480000000000000000e+03 4.521119308471679688e+01 -1.966272950172424316e+00 1.998822242021560669e-01 6.617751121520996094e+00 2.045289993286132812e+00 3.549287319183349609e+00
2.481000000000000000e+03 4.665465545654296875e+01 -1.871209383010864258e+00 -4.263270795345306396e-01 9.635786056518554688e+00 2.762837648391723633e+00 2.491744279861450195e+00
2.482000000000000000e+03 4.867760086059570312e+01 -4.067444324493408203e+00 -1.023536920547485352e+00 7.094678401947021484e+00 1.821342349052429199e+00 1.301956176757812500e+00
2.483000000000000000e+03 1.165662002563476562e+01 -6.204802513122558594e+00 -1.357201635837554932e-01 -7.440058141946792603e-02 -6.303622573614120483e-02 -1.740818172693252563e-01
2.484000000000000000e+03 1.809127807617187500e+01 -8.207146644592285156e+00 -2.282143682241439819e-01 8.909572660923004150e-02 -4.173559322953224182e-02 -3.590910732746124268e-01
2.485000000000000000e+03 1.992173385620117188e+01 -7.383406162261962891e+00 -3.459518551826477051e-01 1.421314030885696411e-01 -6.114614009857177734e-02 -3.179482221603393555e-01
2.486000000000000000e+03 6.541535377502441406e+00 -6.805783748626708984e+00 -6.288884580135345459e-02 -7.299431413412094116e-02 -4.076494649052619934e-02 -7.158962637186050415e-02
2.487000000000000000e+03 9.714366912841796875e+00 -6.984325885772705078e+00 -1.010764017701148987e-01 -9.901867806911468506e-02 -6.002852320671081543e-02 -1.354963928461074829e-01
2.488000000000000000e+03 9.967592239379882812e+00 -5.825860977172851562e+00 -1.053698509931564331e-01 -6.970234960317611694e-02 -5.252166092395782471e-02 -1.234741732478141785e-01
2.489000000000000000e+03 2.207294082641601562e+01 -7.331241607666015625e+00 -4.790177047252655029e-01 2.114087343215942383e-01 -8.028268814086914062e-02 -2.767600119113922119e-01
2.490000000000000000e+03 2.231245613098144531e+01 -6.431341648101806641e+00 -6.305675506591796875e-01 2.088642865419387817e-01 -1.265109777450561523e-01 -1.984468698501586914e-01
2.491000000000000000e+03 4.974881744384765625e+01 -3.796577453613281250e+00 8.859796077013015747e-02 5.684745788574218750e+00 1.732003092765808105e+00 5.100994110107421875e-01
2.492000000000000000e+03 5.032738494873046875e+01 -5.021286964416503906e+00 -8.097143173217773438e-01 4.343981742858886719e+00 1.060280203819274902e+00 1.073846936225891113e+00
2.493000000000000000e+03 5.871942138671875000e+01 -2.900059938430786133e+00 1.934902310371398926e+00 4.318884611129760742e-01 7.100372314453125000e-01 -9.408797621726989746e-01
2.494000000000000000e+03 4.806042098999023438e+01 -4.347773075103759766e+00 -1.518387436866760254e+00 7.386005878448486328e+00 1.760285496711730957e+00 1.840554714202880859e+00
2.495000000000000000e+03 1.395419120788574219e+01 -6.720570564270019531e+00 -1.787260770797729492e-01 -7.885654270648956299e-02 -7.727478444576263428e-02 -2.683160901069641113e-01
2.496000000000000000e+03 6.555850505828857422e+00 -8.279509544372558594e+00 -7.097247242927551270e-02 -9.170194715261459351e-02 -4.880232736468315125e-02 -8.921563625335693359e-02
2.497000000000000000e+03 4.629550933837890625e+01 -6.248113155364990234e+00 -2.240264654159545898e+00 7.154553413391113281e+00 1.474286556243896484e+00 2.263067960739135742e+00
2.498000000000000000e+03 3.321960830688476562e+01 -1.036386299133300781e+01 2.750067710876464844e-01 -1.944071650505065918e-01 2.417988143861293793e-02 -1.492628306150436401e-01
2.499000000000000000e+03 7.216830444335937500e+01 -5.522420406341552734e+00 -5.780300498008728027e-01 7.156136512756347656e+00 1.973431944847106934e+00 1.916442066431045532e-02
2.500000000000000000e+03 7.272592163085937500e+01 -1.203123569488525391e+01 1.731504201889038086e-01 8.389183998107910156e+00 2.568700313568115234e+00 6.475445628166198730e-01
2.501000000000000000e+03 6.275124073028564453e+00 9.410778999328613281e+00 -1.737941638566553593e-03 -1.834612223319709301e-03 -1.071766135282814503e-03 -8.105390006676316261e-04
2.502000000000000000e+03 6.523184204101562500e+01 1.450654864311218262e+00 4.629049599170684814e-01 3.756854772567749023e+00 1.265927910804748535e+00 5.615521073341369629e-01
2.503000000000000000e+03 4.548665237426757812e+01 1.594721984863281250e+01 4.095660448074340820e-01 5.654295921325683594e+00 1.819158554077148438e+00 -8.853785991668701172e-01
2.504000000000000000e+03 1.260064983367919922e+01 7.953184604644775391e+00 -6.031583179719746113e-04 -1.513476367108523846e-03 -6.349903997033834457e-04 9.172598947770893574e-04
2.505000000000000000e+03 4.384645843505859375e+01 -6.638300895690917969e+00 -1.609457373619079590e+00 5.642056941986083984e+00 1.209779858589172363e+00 1.950146555900573730e+00
2.506000000000000000e+03 3.788750076293945312e+01 -8.203427314758300781e+00 -4.746398627758026123e-01 1.158240079879760742e+00 2.050800770521163940e-01 3.216048479080200195e-01
2.507000000000000000e+03 7.149631977081298828e+00 -1.589840412139892578e+01 -1.062795966863632202e-01 -1.667106300592422485e-01 -8.189706504344940186e-02 -2.813471853733062744e-01
2.508000000000000000e+03 7.059298038482666016e+00 -1.833705139160156250e+01 -2.920547267422080040e-03 -2.077171802520751953e-01 -6.319131702184677124e-02 -3.058279156684875488e-01
2.509000000000000000e+03 1.084577465057373047e+01 -9.906885147094726562e+00 -1.228864789009094238e-01 -1.806233227252960205e-01 -9.105294197797775269e-02 -1.776030361652374268e-01
2.510000000000000000e+03 2.267513275146484375e+01 -9.553463935852050781e+00 -1.614092290401458740e-01 1.768323183059692383e-01 4.626930691301822662e-03 -4.013530015945434570e-01
2.511000000000000000e+03 2.488849449157714844e+01 -9.784011840820312500e+00 -1.685939282178878784e-01 1.443652957677841187e-01 -7.268587592989206314e-03 -4.742077887058258057e-01
2.512000000000000000e+03 6.541699218750000000e+01 -7.223809242248535156e+00 -8.654028177261352539e-02 4.007102012634277344e+00 1.176168560981750488e+00 -1.539656996726989746e+00
2.513000000000000000e+03 6.328978347778320312e+01 -6.156134605407714844e+00 2.908232510089874268e-01 2.452088117599487305e+00 8.228734135627746582e-01 -1.277732729911804199e+00
2.514000000000000000e+03 3.595421600341796875e+01 -1.209866237640380859e+01 9.299002289772033691e-01 6.219277381896972656e-01 4.655483961105346680e-01 6.978207081556320190e-02
2.515000000000000000e+03 3.723168182373046875e+01 -1.129930782318115234e+01 6.805475950241088867e-01 1.190214395523071289e+00 5.612286329269409180e-01 1.890581548213958740e-01
2.516000000000000000e+03 6.250254154205322266e+00 -9.270684242248535156e+00 -7.651288807392120361e-02 -1.020747572183609009e-01 -5.357629433274269104e-02 -1.025040149688720703e-01
2.517000000000000000e+03 6.394039154052734375e+00 -1.152688598632812500e+01 -1.058306097984313965e-01 -1.273198425769805908e-01 -6.994513422250747681e-02 -1.430063098669052124e-01
2.518000000000000000e+03 6.379017353057861328e+00 -1.483131027221679688e+01 -1.117593571543693542e-01 -1.556734591722488403e-01 -8.022984117269515991e-02 -2.374491989612579346e-01
2.519000000000000000e+03 9.682956695556640625e+00 -9.973960876464843750e+00 -1.227530166506767273e-01 -1.663685292005538940e-01 -8.673646301031112671e-02 -1.565763205289840698e-01
2.520000000000000000e+03 6.684732055664062500e+01 3.338667631149291992e+00 1.907029189169406891e-02 5.107088088989257812e+00 1.537847518920898438e+00 8.433107137680053711e-01
2.521000000000000000e+03 5.727182006835937500e+01 -3.139793395996093750e+00 2.149900197982788086e+00 1.014607772231101990e-01 6.754083037376403809e-01 -1.085688948631286621e+00
2.522000000000000000e+03 7.464939880371093750e+01 -8.877228736877441406e+00 -3.006231784820556641e-01 7.556934356689453125e+00 2.176893234252929688e+00 6.140964627265930176e-01
2.523000000000000000e+03 7.376428985595703125e+01 -6.532787322998046875e+00 -4.663978517055511475e-01 7.401308059692382812e+00 2.080473184585571289e+00 3.199733495712280273e-01
2.524000000000000000e+03 7.383218383789062500e+01 -8.322935104370117188e+00 -4.090569615364074707e-01 7.595398426055908203e+00 2.155902385711669922e+00 5.004716515541076660e-01
2.525000000000000000e+03 7.014894485473632812e+00 -2.741419982910156250e+01 9.570603072643280029e-02 -3.034799993038177490e-01 -6.233218684792518616e-02 -9.630589187145233154e-02
2.526000000000000000e+03 5.940232467651367188e+01 -3.323816061019897461e-01 2.382374048233032227e+00 4.415012598037719727e-01 8.471626043319702148e-01 4.693611990660429001e-04
2.527000000000000000e+03 3.741484451293945312e+01 -9.174085617065429688e+00 -1.237207204103469849e-01 1.098400354385375977e+00 2.924038767814636230e-01 2.848741710186004639e-01
2.528000000000000000e+03 4.078046798706054688e+01 -2.161557006835937500e+01 9.552901983261108398e-01 4.753357887268066406e+00 1.712594389915466309e+00 1.381912350654602051e+00
2.529000000000000000e+03 4.032358932495117188e+01 -2.067724037170410156e+01 9.417177438735961914e-01 4.648197174072265625e+00 1.676974415779113770e+00 1.264968633651733398e+00
2.530000000000000000e+03 4.312630844116210938e+01 -1.144710063934326172e+01 4.543758034706115723e-01 5.697605609893798828e+00 1.845594406127929688e+00 8.891552686691284180e-01
2.531000000000000000e+03 4.108386611938476562e+01 -1.230097866058349609e+01 8.039537668228149414e-01 4.084264755249023438e+00 1.466465592384338379e+00 5.870260000228881836e-01
2.532000000000000000e+03 4.035269927978515625e+01 -1.293894290924072266e+01 9.609256386756896973e-01 3.603306531906127930e+00 1.369269609451293945e+00 5.269554257392883301e-01
2.533000000000000000e+03 1.251771354675292969e+01 6.063905715942382812e+00 1.812189002521336079e-03 -2.132977358996868134e-03 -9.623653750168159604e-05 1.488423207774758339e-03
2.534000000000000000e+03 7.012353515625000000e+01 6.058446884155273438e+00 -2.870897650718688965e-01 7.356626510620117188e+00 2.120861053466796875e+00 2.876054942607879639e-01
2.535000000000000000e+03 6.908311462402343750e+01 7.249101161956787109e+00 -1.130643337965011597e-01 7.617583751678466797e+00 2.251355886459350586e+00 6.801729798316955566e-01
2.536000000000000000e+03 4.100913619995117188e+01 -1.675846290588378906e+01 1.230616331100463867e+00 4.777427196502685547e+00 1.802412986755371094e+00 8.479222655296325684e-01
2.537000000000000000e+03 6.045464324951171875e+01 -3.118348598480224609e+00 1.488283634185791016e+00 1.015855073928833008e+00 7.512416243553161621e-01 -8.370928764343261719e-01
2.538000000000000000e+03 5.686523914337158203e+00 1.273318386077880859e+01 -4.998446442186832428e-03 -2.162117045372724533e-03 -2.148169092833995819e-03 9.387798490934073925e-04
2.539000000000000000e+03 6.803031444549560547e+00 1.566595649719238281e+01 -1.208711322396993637e-02 -1.024137367494404316e-03 -3.933375235646963120e-03 7.404181174933910370e-03
2.540000000000000000e+03 1.368238544464111328e+01 7.789538860321044922e+00 6.989047396928071976e-04 -7.127824355848133564e-04 -4.163305220572510734e-06 2.457369584590196609e-03
2.541000000000000000e+03 7.222681427001953125e+01 1.350036430358886719e+01 1.148886322975158691e+00 8.962115287780761719e+00 3.033300399780273438e+00 3.544708490371704102e-01
2.542000000000000000e+03 7.357735443115234375e+01 1.295551776885986328e+01 8.815787434577941895e-01 8.209143638610839844e+00 2.727216720581054688e+00 7.298991829156875610e-02
2.543000000000000000e+03 5.991835403442382812e+01 -4.136712551116943359e+00 1.196167826652526855e+00 8.925995230674743652e-01 6.266301870346069336e-01 -1.071403145790100098e+00
2.544000000000000000e+03 5.921636581420898438e+01 -4.714950084686279297e+00 9.736359715461730957e-01 6.528730988502502441e-01 4.879527390003204346e-01 -1.106244444847106934e+00
2.545000000000000000e+03 4.430580139160156250e+01 -5.202057838439941406e+00 -1.596446633338928223e+00 5.822501659393310547e+00 1.267816543579101562e+00 2.399358987808227539e+00
2.546000000000000000e+03 7.128894042968750000e+01 7.527488708496093750e+00 -4.243501648306846619e-02 7.899403095245361328e+00 2.357090473175048828e+00 -3.219421580433845520e-02
2.547000000000000000e+03 4.991387844085693359e+00 -1.674132537841796875e+01 -3.593290969729423523e-02 -2.326678186655044556e-01 -8.058021962642669678e-02 -2.525488734245300293e-01
2.548000000000000000e+03 5.544243812561035156e+00 -1.577947044372558594e+01 -6.821403652429580688e-02 -1.949557662010192871e-01 -7.895094156265258789e-02 -2.508441507816314697e-01
2.549000000000000000e+03 4.097810363769531250e+01 -2.267287445068359375e+01 9.160843491554260254e-01 4.868144512176513672e+00 1.735268712043762207e+00 1.405696749687194824e+00
2.550000000000000000e+03 5.295617580413818359e+00 1.917323684692382812e+01 -1.197044458240270615e-02 -6.983838509768247604e-03 -5.686284974217414856e-03 1.825314387679100037e-02
2.551000000000000000e+03 6.898915863037109375e+01 2.282818794250488281e+01 -1.701771020889282227e+00 7.893478870391845703e+00 1.857512474060058594e+00 -7.771350741386413574e-01
2.552000000000000000e+03 7.153332519531250000e+01 2.235627365112304688e+01 -1.069487214088439941e+00 8.699453353881835938e+00 2.288990020751953125e+00 9.409557580947875977e-01
2.553000000000000000e+03 7.161734771728515625e+01 2.477206039428710938e+01 -1.290519714355468750e+00 7.699104785919189453e+00 1.922575473785400391e+00 2.024145424365997314e-01
2.554000000000000000e+03 7.247673034667968750e+00 2.209925270080566406e+01 -2.470510452985763550e-02 -4.107729066163301468e-03 -8.643849752843379974e-03 3.815393149852752686e-02
2.555000000000000000e+03 6.472973823547363281e+00 2.410931968688964844e+01 -1.786462962627410889e-02 -1.527276821434497833e-02 -9.941219352185726166e-03 4.788192734122276306e-02
2.556000000000000000e+03 4.264632415771484375e+01 -8.090499877929687500e+00 -1.068099737167358398e+00 4.817438125610351562e+00 1.124801516532897949e+00 1.343150854110717773e+00
2.557000000000000000e+03 5.498107433319091797e+00 -2.113649177551269531e+01 6.749554723501205444e-02 -3.390573561191558838e-01 -8.146853744983673096e-02 -2.502280771732330322e-01
2.558000000000000000e+03 8.092876434326171875e+00 -1.169839572906494141e+01 -1.398232579231262207e-01 -1.446782201528549194e-01 -8.535044640302658081e-02 -1.560306847095489502e-01
2.559000000000000000e+03 6.173829650878906250e+01 -2.104380369186401367e+00 1.449370384216308594e+00 1.520926475524902344e+00 8.910890221595764160e-01 -4.649041891098022461e-01
2.560000000000000000e+03 6.066706466674804688e+01 -1.787693619728088379e+00 1.811657190322875977e+00 9.902375936508178711e-01 8.405684232711791992e-01 -4.770421683788299561e-01
2.561000000000000000e+03 6.925952148437500000e+01 -5.692731857299804688e+00 -5.751094818115234375e-01 6.436163902282714844e+00 1.758316397666931152e+00 -5.742917656898498535e-01
2.562000000000000000e+03 6.476639556884765625e+01 -1.218297004699707031e+00 6.030349135398864746e-01 3.388088941574096680e+00 1.197337150573730469e+00 -1.671846807003021240e-01
2.563000000000000000e+03 7.499936676025390625e+01 -2.753153991699218750e+01 -4.706149995326995850e-01 8.242539405822753906e+00 2.331577301025390625e+00 -1.028459906578063965e+00
2.564000000000000000e+03 1.474375152587890625e+01 2.508140563964843750e+01 -8.223758637905120850e-02 4.032921791076660156e-02 -1.257251203060150146e-02 7.873224467039108276e-02
2.565000000000000000e+03 1.357254886627197266e+01 2.338046455383300781e+01 -8.441203832626342773e-02 3.677115961909294128e-02 -1.429226435720920563e-02 5.385507643222808838e-02
2.566000000000000000e+03 7.902658462524414062e+00 -2.877486419677734375e+01 8.725545555353164673e-02 -2.278248518705368042e-01 -4.217082262039184570e-02 -7.537695020437240601e-02
2.567000000000000000e+03 6.295956134796142578e+00 -2.626695442199707031e+01 9.329965710639953613e-02 -3.511453866958618164e-01 -7.735371589660644531e-02 -1.125325113534927368e-01
2.568000000000000000e+03 4.482929611206054688e+01 -6.091368198394775391e+00 -1.900951266288757324e+00 6.393285751342773438e+00 1.347700357437133789e+00 2.190479040145874023e+00
2.569000000000000000e+03 4.285659790039062500e+01 -2.994679832458496094e+01 -3.964935243129730225e-01 3.963491439819335938e+00 1.070099353790283203e+00 2.734836935997009277e-01
2.570000000000000000e+03 3.246173477172851562e+01 -1.092638874053955078e+01 4.961083829402923584e-01 -2.134906798601150513e-01 8.478531241416931152e-02 -1.837859004735946655e-01
2.571000000000000000e+03 7.321949768066406250e+01 -1.996650314331054688e+01 1.202238917350769043e+00 8.712955474853515625e+00 2.974558115005493164e+00 -1.046216726303100586e+00
2.572000000000000000e+03 7.441806793212890625e+01 -1.963749313354492188e+01 9.595689773559570312e-01 8.034801483154296875e+00 2.698311090469360352e+00 -9.484724402427673340e-01
2.573000000000000000e+03 4.376272964477539062e+01 -8.436058044433593750e+00 -1.222677707672119141e+00 5.886812686920166016e+00 1.399240493774414062e+00 1.490283489227294922e+00
2.574000000000000000e+03 4.260701751708984375e+01 -1.050405216217041016e+01 6.378032267093658447e-02 5.289746284484863281e+00 1.606058001518249512e+00 8.388808965682983398e-01
2.575000000000000000e+03 7.239119720458984375e+01 -1.030438137054443359e+01 -3.060926198959350586e-01 8.114806175231933594e+00 2.342614173889160156e+00 4.552135169506072998e-01
2.576000000000000000e+03 7.218194580078125000e+01 -8.523133277893066406e+00 -5.319125652313232422e-01 7.734940052032470703e+00 2.160908222198486328e+00 2.058647572994232178e-01
2.577000000000000000e+03 4.114544296264648438e+01 -1.594365024566650391e+01 1.278567314147949219e+00 4.696393489837646484e+00 1.792488336563110352e+00 7.614616155624389648e-01
2.578000000000000000e+03 7.708403015136718750e+01 1.936381721496582031e+01 1.094508543610572815e-01 7.332226276397705078e+00 2.232503175735473633e+00 9.310836195945739746e-01
2.579000000000000000e+03 6.856035614013671875e+01 3.411077976226806641e+00 -2.445718348026275635e-01 6.077140808105468750e+00 1.749770641326904297e+00 5.252901911735534668e-01
2.580000000000000000e+03 7.142998504638671875e+01 -2.801847267150878906e+01 -1.005987048149108887e+00 7.660711765289306641e+00 1.996417522430419922e+00 -4.672371745109558105e-01
2.581000000000000000e+03 6.887232208251953125e+01 -3.289746475219726562e+01 -7.511538863182067871e-01 5.632652759552001953e+00 1.464449644088745117e+00 3.506203591823577881e-01
2.582000000000000000e+03 7.223905181884765625e+01 2.647528648376464844e+01 -1.042040944099426270e+00 7.604422092437744141e+00 1.968714237213134766e+00 1.031978800892829895e-01
2.583000000000000000e+03 4.657284927368164062e+01 -1.421643376350402832e+00 4.338756576180458069e-02 1.027825736999511719e+01 3.096493482589721680e+00 2.774317026138305664e+00
2.584000000000000000e+03 4.542041778564453125e+01 -2.943516016006469727e+00 -7.472884654998779297e-01 6.908090591430664062e+00 1.848240613937377930e+00 3.125335693359375000e+00
2.585000000000000000e+03 8.543157577514648438e+00 7.004116058349609375e+00 5.312240100465714931e-04 -1.342796022072434425e-03 -2.434715861454606056e-04 -3.059886512346565723e-04
2.586000000000000000e+03 5.949962615966796875e+00 6.588283061981201172e+00 2.903325948864221573e-04 -1.953056053025647998e-04 2.850809505616780370e-05 -1.321498653851449490e-03
2.587000000000000000e+03 7.471876621246337891e+00 7.636948585510253906e+00 4.165263380855321884e-04 -1.199712743982672691e-03 -2.349559363210573792e-04 -4.515334439929574728e-04
2.588000000000000000e+03 4.549628067016601562e+01 -1.403319358825683594e+00 7.286260724067687988e-01 7.150252342224121094e+00 2.363663673400878906e+00 3.879132509231567383e+00
2.589000000000000000e+03 4.485156250000000000e+01 -2.602790117263793945e+00 -2.996470630168914795e-01 5.907553672790527344e+00 1.682371973991394043e+00 3.172874212265014648e+00
2.590000000000000000e+03 1.211085891723632812e+01 7.297734737396240234e+00 1.177845289930701256e-03 -2.671258756890892982e-03 -4.480240750126540661e-04 1.358642359264194965e-03
2.591000000000000000e+03 7.728717803955078125e+00 -8.597291946411132812e+00 -9.107010066509246826e-02 -1.090135052800178528e-01 -6.002508103847503662e-02 -1.144693046808242798e-01
2.592000000000000000e+03 4.465387725830078125e+01 -3.933784484863281250e+00 -1.180007696151733398e+00 5.928447723388671875e+00 1.424531936645507812e+00 2.767806291580200195e+00
2.593000000000000000e+03 4.505923080444335938e+01 -4.778036594390869141e+00 -1.657468199729919434e+00 6.467161655426025391e+00 1.442908048629760742e+00 2.557717800140380859e+00
2.594000000000000000e+03 1.173196506500244141e+01 6.567849636077880859e+00 -4.532815364655107260e-04 -1.565663143992424011e-03 -6.056833663024008274e-04 2.842536196112632751e-04
2.595000000000000000e+03 4.715302658081054688e+01 -2.347529411315917969e+00 -6.443693041801452637e-01 9.605982780456542969e+00 2.688483953475952148e+00 1.811208844184875488e+00
2.596000000000000000e+03 4.747480773925781250e+01 -3.227184534072875977e+00 -9.886054992675781250e-01 8.338459968566894531e+00 2.204956293106079102e+00 1.802214264869689941e+00
2.597000000000000000e+03 4.728068542480468750e+01 -4.979197978973388672e+00 -2.000350475311279297e+00 7.462726593017578125e+00 1.638712882995605469e+00 2.277660369873046875e+00
2.598000000000000000e+03 8.653489112854003906e+00 -1.070601081848144531e+01 -1.284988820552825928e-01 -1.474605053663253784e-01 -8.278781175613403320e-02 -1.462370902299880981e-01
2.599000000000000000e+03 7.016752719879150391e+00 -7.491495132446289062e+00 -7.235939055681228638e-02 -8.326679468154907227e-02 -4.668785631656646729e-02 -8.705051988363265991e-02
2.600000000000000000e+03 1.203599834442138672e+01 -6.664954185485839844e+00 -1.409830898046493530e-01 -9.113086014986038208e-02 -6.963418424129486084e-02 -1.986662149429321289e-01
2.601000000000000000e+03 1.027234077453613281e+01 -6.343163967132568359e+00 -1.142265945672988892e-01 -8.324325829744338989e-02 -5.924095585942268372e-02 -1.442417204380035400e-01
2.602000000000000000e+03 5.334075927734375000e+00 1.795731544494628906e+01 -1.223291736096143723e-02 -5.320032127201557159e-03 -5.265885032713413239e-03 1.401791535317897797e-02
2.603000000000000000e+03 6.521874904632568359e+00 1.807377624511718750e+01 -1.602690666913986206e-02 -2.334910910576581955e-03 -5.508545320481061935e-03 1.543883979320526123e-02
2.604000000000000000e+03 1.044784450531005859e+01 -7.474261283874511719e+00 -1.110404878854751587e-01 -1.153428778052330017e-01 -6.791500747203826904e-02 -1.611784547567367554e-01
2.605000000000000000e+03 7.441682815551757812e+00 -6.483827590942382812e+00 -7.367161661386489868e-02 -6.935890018939971924e-02 -4.290915653109550476e-02 -8.356179296970367432e-02
2.606000000000000000e+03 8.851348876953125000e+00 -7.541161060333251953e+00 -9.592968970537185669e-02 -1.016237735748291016e-01 -5.926603823900222778e-02 -1.214756816625595093e-01
2.607000000000000000e+03 7.422097778320312500e+01 -9.962514877319335938e+00 -2.204250395298004150e-01 7.715060234069824219e+00 2.248390436172485352e+00 7.084427475929260254e-01
2.608000000000000000e+03 6.553153991699218750e+01 -5.432371616363525391e+00 2.957745827734470367e-02 4.017573833465576172e+00 1.214145421981811523e+00 -1.177585244178771973e+00
2.609000000000000000e+03 6.402853393554687500e+01 -5.349487781524658203e+00 3.525993525981903076e-01 2.945029973983764648e+00 9.892888069152832031e-01 -1.161540269851684570e+00
2.610000000000000000e+03 6.952590942382812500e+01 2.539178133010864258e+00 -3.353919982910156250e-01 6.337685108184814453e+00 1.800687909126281738e+00 1.485633999109268188e-01
2.611000000000000000e+03 7.143465423583984375e+01 1.863713622093200684e+00 -4.191258251667022705e-01 6.762722492218017578e+00 1.903079032897949219e+00 -6.946420669555664062e-02
2.612000000000000000e+03 7.443476867675781250e+01 2.133918952941894531e+01 -1.164630278944969177e-01 8.256830215454101562e+00 2.442110300064086914e+00 1.365362048149108887e+00
2.613000000000000000e+03 7.511258697509765625e+01 1.882003021240234375e+01 4.125221967697143555e-01 7.891357421875000000e+00 2.491163730621337891e+00 1.095191717147827148e+00
2.614000000000000000e+03 5.157770156860351562e+00 -9.148024559020996094e+00 -5.527631565928459167e-02 -9.250480681657791138e-02 -4.433433711528778076e-02 -8.279264718294143677e-02
2.615000000000000000e+03 4.805296325683593750e+01 -5.226530075073242188e+00 -2.078355073928833008e+00 7.033959865570068359e+00 1.486681461334228516e+00 1.968665242195129395e+00
2.616000000000000000e+03 4.190147399902343750e+01 -1.290748596191406250e+01 9.151654839515686035e-01 4.717927932739257812e+00 1.689928054809570312e+00 7.053927183151245117e-01
2.617000000000000000e+03 4.144272804260253906e+00 1.788488197326660156e+01 -6.588474381715059280e-03 -5.826622247695922852e-03 -3.724528942257165909e-03 1.142758037894964218e-02
2.618000000000000000e+03 5.419966697692871094e+00 1.671373176574707031e+01 -9.481054730713367462e-03 -3.020112635567784309e-03 -3.750350326299667358e-03 9.766400791704654694e-03
2.619000000000000000e+03 2.386937141418457031e+01 -8.699265480041503906e+00 -4.030694663524627686e-01 2.061285227537155151e-01 -5.908228084444999695e-02 -3.942618668079376221e-01
2.620000000000000000e+03 6.715305328369140625e+00 1.129628276824951172e+01 -3.987648990005254745e-03 -2.613265998661518097e-03 -1.980274450033903122e-03 -3.490578674245625734e-04
2.621000000000000000e+03 6.910375118255615234e+00 1.251965522766113281e+01 -4.841325804591178894e-03 -1.512847375124692917e-03 -1.906251884065568447e-03 1.246662111952900887e-03
2.622000000000000000e+03 1.238144111633300781e+01 -8.390104293823242188e+00 -1.214964166283607483e-01 -1.521573662757873535e-01 -8.209613710641860962e-02 -2.302964031696319580e-01
2.623000000000000000e+03 7.284178256988525391e+00 8.622262954711914062e+00 -1.210087793879210949e-03 -2.736060880124568939e-03 -1.183844637125730515e-03 -1.543085323646664619e-03
2.624000000000000000e+03 7.255324554443359375e+01 7.226495265960693359e+00 -8.967323601245880127e-02 7.744843959808349609e+00 2.296551227569580078e+00 -3.735768198966979980e-01
2.625000000000000000e+03 1.300314331054687500e+01 1.083839416503906250e+01 -1.870520762167870998e-03 -2.611177740618586540e-03 -1.344509539194405079e-03 1.458451966755092144e-03
2.626000000000000000e+03 2.071345138549804688e+01 -8.221956253051757812e+00 -3.022233545780181885e-01 1.797092854976654053e-01 -3.675422444939613342e-02 -3.319722712039947510e-01
2.627000000000000000e+03 2.064340591430664062e+01 -7.402488708496093750e+00 -3.986717462539672852e-01 1.626414954662322998e-01 -7.080908119678497314e-02 -2.929390370845794678e-01
2.628000000000000000e+03 3.914299774169921875e+01 -2.369080543518066406e+01 9.705538749694824219e-01 4.051085472106933594e+00 1.506491780281066895e+00 1.552711963653564453e+00
2.629000000000000000e+03 7.054973125457763672e+00 -2.035353279113769531e+01 8.627993613481521606e-02 -2.416211664676666260e-01 -4.660236835479736328e-02 -3.074401021003723145e-01
2.630000000000000000e+03 6.634425354003906250e+01 -1.139375090599060059e+00 1.889189928770065308e-01 4.397045135498046875e+00 1.375789165496826172e+00 -1.541026383638381958e-01
2.631000000000000000e+03 6.698699951171875000e+01 1.542540192604064941e+00 3.703369200229644775e-02 4.917502880096435547e+00 1.486361026763916016e+00 4.416994452476501465e-01
2.632000000000000000e+03 7.322886657714843750e+01 4.508089065551757812e+00 -3.384149074554443359e-01 7.337285518646240234e+00 2.099661111831665039e+00 -3.248313367366790771e-01
2.633000000000000000e+03 7.444485473632812500e+01 -5.626514911651611328e+00 -4.298353195190429688e-01 7.325858592987060547e+00 2.068806886672973633e+00 2.896378934383392334e-01
2.634000000000000000e+03 7.363393402099609375e+01 -4.792628288269042969e+00 -4.485044181346893311e-01 7.225395202636718750e+00 2.033067226409912109e+00 1.499782949686050415e-01
2.635000000000000000e+03 6.726269245147705078e+00 -1.738583564758300781e+01 -4.300979524850845337e-02 -1.911188662052154541e-01 -7.023859769105911255e-02 -3.098497688770294189e-01
2.636000000000000000e+03 1.142736244201660156e+01 -6.804862022399902344e+00 -1.250165998935699463e-01 -9.766808152198791504e-02 -6.680539995431900024e-02 -1.822194904088973999e-01
2.637000000000000000e+03 1.081164169311523438e+01 -6.647987842559814453e+00 -1.165922805666923523e-01 -9.010289609432220459e-02 -6.200855225324630737e-02 -1.595070958137512207e-01
2.638000000000000000e+03 7.352862548828125000e+01 -1.103098678588867188e+01 -6.701226532459259033e-02 8.026313781738281250e+00 2.387790441513061523e+00 6.752284765243530273e-01
2.639000000000000000e+03 9.055955886840820312e+00 -2.593011474609375000e+01 1.758949607610702515e-01 -8.073634654283523560e-02 2.854758501052856445e-02 -1.426324397325515747e-01
2.640000000000000000e+03 8.407093048095703125e+00 -2.443228149414062500e+01 1.883702576160430908e-01 -1.553561836481094360e-01 9.904225356876850128e-03 -1.707042157649993896e-01
2.641000000000000000e+03 4.150948715209960938e+01 -1.057295131683349609e+01 1.929994821548461914e-01 4.165143013000488281e+00 1.307442784309387207e+00 7.638936042785644531e-01
2.642000000000000000e+03 3.730260848999023438e+01 -1.309268283843994141e+01 1.097616195678710938e+00 1.383608460426330566e+00 7.443674206733703613e-01 1.802040338516235352e-01
2.643000000000000000e+03 3.765162658691406250e+01 -1.060651683807373047e+01 4.196041524410247803e-01 1.366166234016418457e+00 5.357311367988586426e-01 2.836700677871704102e-01
2.644000000000000000e+03 3.969526672363281250e+01 -9.451886177062988281e+00 -5.324688181281089783e-02 2.601050853729248047e+00 7.643411755561828613e-01 5.878757834434509277e-01
2.645000000000000000e+03 6.143051910400390625e+01 -4.813264846801757812e+00 7.890212535858154297e-01 1.487917304039001465e+00 6.830815672874450684e-01 -1.075577378273010254e+00
2.646000000000000000e+03 4.015843582153320312e+01 -1.568263530731201172e+01 1.133548259735107422e+00 3.889783859252929688e+00 1.506999611854553223e+00 5.582949519157409668e-01
2.647000000000000000e+03 3.969588088989257812e+01 -1.199456119537353516e+01 7.286214828491210938e-01 2.926423072814941406e+00 1.096513390541076660e+00 4.521757066249847412e-01
2.648000000000000000e+03 6.635308265686035156e+00 1.688321113586425781e+01 -1.477916166186332703e-02 -2.822999143972992897e-03 -5.280648358166217804e-03 1.102834846824407578e-02
2.649000000000000000e+03 7.347598266601562500e+01 1.031308650970458984e+01 4.949137568473815918e-01 7.881916046142578125e+00 2.513048887252807617e+00 -3.862962722778320312e-01
2.650000000000000000e+03 5.924594879150390625e+01 -3.545484066009521484e+00 1.535034775733947754e+00 6.287507414817810059e-01 6.491356492042541504e-01 -9.769132137298583984e-01
2.651000000000000000e+03 6.780417633056640625e+01 -6.176374435424804688e+00 -5.001207590103149414e-01 5.875420093536376953e+00 1.612589836120605469e+00 -9.805942177772521973e-01
2.652000000000000000e+03 6.702423858642578125e+01 -7.226948261260986328e+00 -4.334247708320617676e-01 5.420351028442382812e+00 1.496077895164489746e+00 -1.316531896591186523e+00
2.653000000000000000e+03 7.241925811767578125e+01 -6.951759338378906250e+00 -5.873156785964965820e-01 7.477227210998535156e+00 2.066973447799682617e+00 1.566052436828613281e-01
2.654000000000000000e+03 7.006622314453125000e+01 -6.121007919311523438e+00 -6.945269703865051270e-01 6.835999488830566406e+00 1.842441797256469727e+00 -3.596740365028381348e-01
2.655000000000000000e+03 7.564782714843750000e+01 1.684505653381347656e+01 5.959845185279846191e-01 7.380348682403564453e+00 2.392899990081787109e+00 7.584385871887207031e-01
2.656000000000000000e+03 6.614882469177246094e+00 7.172355175018310547e+00 1.269899366889148951e-04 -1.872091204859316349e-03 -5.235303542576730251e-04 -1.522017060779035091e-03
2.657000000000000000e+03 4.119592285156250000e+01 -1.372704219818115234e+01 1.121355414390563965e+00 4.297418594360351562e+00 1.625632286071777344e+00 5.815683603286743164e-01
2.658000000000000000e+03 4.056964874267578125e+01 -1.157158565521240234e+01 6.093403697013854980e-01 3.523635625839233398e+00 1.239892840385437012e+00 5.668648481369018555e-01
2.659000000000000000e+03 8.941371917724609375e+00 -2.741308021545410156e+01 1.312600225210189819e-01 -1.106286346912384033e-01 6.189418490976095200e-03 -1.093727946281433105e-01
2.660000000000000000e+03 7.887272834777832031e+00 2.332479858398437500e+01 -3.012415766716003418e-02 -4.542506765574216843e-03 -1.039999909698963165e-02 4.874877631664276123e-02
2.661000000000000000e+03 7.006658935546875000e+01 2.483539199829101562e+01 -1.609660863876342773e+00 7.422822952270507812e+00 1.743948578834533691e+00 -4.125455915927886963e-01
2.662000000000000000e+03 6.777706909179687500e+01 2.476956367492675781e+00 -1.019471213221549988e-01 5.482260704040527344e+00 1.614094018936157227e+00 4.648268520832061768e-01
2.663000000000000000e+03 7.163772583007812500e+01 -7.617408752441406250e+00 -6.608546376228332520e-01 7.518242359161376953e+00 2.057216167449951172e+00 6.106424704194068909e-02
2.664000000000000000e+03 7.311376190185546875e+01 -7.580238819122314453e+00 -5.487048029899597168e-01 7.557782173156738281e+00 2.102723121643066406e+00 3.449079692363739014e-01
2.665000000000000000e+03 4.150380706787109375e+01 -1.155284881591796875e+01 5.439298748970031738e-01 4.295385837554931641e+00 1.451794743537902832e+00 6.925480365753173828e-01
2.666000000000000000e+03 7.138644409179687500e+01 2.336022758483886719e+01 -1.274539351463317871e+00 8.416296958923339844e+00 2.142527103424072266e+00 4.745630323886871338e-01
2.667000000000000000e+03 7.093556213378906250e+01 2.105627441406250000e+01 -1.504597440361976624e-02 9.152342796325683594e+00 2.741189002990722656e+00 1.157948613166809082e+00
2.668000000000000000e+03 6.145180511474609375e+01 -3.425840139389038086e+00 1.198334813117980957e+00 1.400704026222229004e+00 7.797116637229919434e-01 -8.764079809188842773e-01
2.669000000000000000e+03 7.321949005126953125e+01 1.378111076354980469e+01 1.170627474784851074e+00 8.319082260131835938e+00 2.846913099288940430e+00 5.331295728683471680e-02
2.670000000000000000e+03 1.002163505554199219e+01 -3.300460433959960938e+01 4.203152284026145935e-02 -1.244943141937255859e-01 -2.473883703351020813e-02 -6.408244371414184570e-02
2.671000000000000000e+03 7.273785400390625000e+01 -2.809434890747070312e+01 -8.637300729751586914e-01 7.940508365631103516e+00 2.123033523559570312e+00 -8.133788108825683594e-01
2.672000000000000000e+03 7.020465087890625000e+01 4.766036510467529297e+00 -3.185573518276214600e-01 6.933088779449462891e+00 1.984359502792358398e+00 1.742028445005416870e-01
2.673000000000000000e+03 7.914808273315429688e+00 -1.008613109588623047e+01 -1.090486943721771240e-01 -1.283539235591888428e-01 -7.122078537940979004e-02 -1.320073157548904419e-01
2.674000000000000000e+03 7.240885257720947266e+00 -1.173568534851074219e+01 -1.251627802848815918e-01 -1.344446837902069092e-01 -7.788223773241043091e-02 -1.544342786073684692e-01
2.675000000000000000e+03 7.094031524658203125e+01 2.968000030517578125e+01 -6.220222711563110352e-01 6.500277519226074219e+00 1.763476610183715820e+00 -4.198658764362335205e-01
2.676000000000000000e+03 4.617494583129882812e+01 -2.406383514404296875e+00 -6.540368199348449707e-01 8.427748680114746094e+00 2.332113742828369141e+00 3.000651597976684570e+00
2.677000000000000000e+03 4.707864761352539062e+01 -3.713184356689453125e+00 -1.496691465377807617e+00 8.087452888488769531e+00 1.977228403091430664e+00 2.148846626281738281e+00
2.678000000000000000e+03 4.567218399047851562e+01 -4.367985248565673828e+00 -1.720096945762634277e+00 7.031370639801025391e+00 1.593382120132446289e+00 2.659962654113769531e+00
2.679000000000000000e+03 4.560803222656250000e+01 -5.538444995880126953e+00 -2.029803991317749023e+00 6.935983657836914062e+00 1.471853852272033691e+00 2.427589654922485352e+00
2.680000000000000000e+03 4.688110351562500000e+01 -5.592987537384033203e+00 -2.291869878768920898e+00 7.415535449981689453e+00 1.537099719047546387e+00 2.284166097640991211e+00
2.681000000000000000e+03 6.972592830657958984e+00 6.487462997436523438e+00 4.922345397062599659e-04 -6.151703419163823128e-04 -3.688074139063246548e-05 -8.033434860408306122e-04
2.682000000000000000e+03 1.018017959594726562e+01 7.219483852386474609e+00 -9.228737908415496349e-04 -2.871810691431164742e-03 -1.138405408710241318e-03 -5.432745674625039101e-04
2.683000000000000000e+03 8.403398513793945312e+00 7.854119300842285156e+00 -1.268835156224668026e-03 -2.656959230080246925e-03 -1.177738304249942303e-03 -1.396383275277912617e-03
2.684000000000000000e+03 1.009761333465576172e+01 -9.365775108337402344e+00 -1.174784004688262939e-01 -1.567004919052124023e-01 -8.225367218255996704e-02 -1.598519682884216309e-01
2.685000000000000000e+03 1.293581867218017578e+01 -7.329693794250488281e+00 -1.472283005714416504e-01 -1.048637181520462036e-01 -7.562760263681411743e-02 -2.416159659624099731e-01
2.686000000000000000e+03 1.220820903778076172e+01 -7.458000659942626953e+00 -1.274374872446060181e-01 -1.186304986476898193e-01 -7.382039725780487061e-02 -2.165261358022689819e-01
2.687000000000000000e+03 8.526285171508789062e+00 -6.763981342315673828e+00 -8.604192733764648438e-02 -7.996207475662231445e-02 -4.980120062828063965e-02 -1.047219112515449524e-01
2.688000000000000000e+03 1.023889255523681641e+01 -8.467822074890136719e+00 -1.086111068725585938e-01 -1.418602317571640015e-01 -7.514140009880065918e-02 -1.596091687679290771e-01
2.689000000000000000e+03 7.104484081268310547e+00 1.444152641296386719e+01 -1.004834938794374466e-02 -2.294276375323534012e-03 -3.702787682414054871e-03 3.253199392929673195e-03
2.690000000000000000e+03 6.237699031829833984e+00 -1.895129013061523438e+01 2.466145902872085571e-02 -2.555529475212097168e-01 -6.926744431257247925e-02 -3.040580749511718750e-01
2.691000000000000000e+03 1.406878280639648438e+01 1.141671466827392578e+01 -1.784518128260970116e-03 -3.935089334845542908e-03 -1.715882215648889542e-03 -1.196790253743529320e-03
2.692000000000000000e+03 1.039400005340576172e+01 9.561135292053222656e+00 -1.438238658010959625e-03 -1.827246276661753654e-03 -9.796454105526208878e-04 7.867400418035686016e-04
2.693000000000000000e+03 1.126908206939697266e+01 9.374652862548828125e+00 -2.009176183491945267e-03 -3.282683435827493668e-03 -1.587557839229702950e-03 -2.952051581814885139e-04
2.694000000000000000e+03 6.625465393066406250e+01 -6.344346046447753906e+00 -2.257680594921112061e-01 4.759757041931152344e+00 1.360196709632873535e+00 -1.284941315650939941e+00
2.695000000000000000e+03 4.553115463256835938e+01 -6.931580066680908203e+00 -2.098651885986328125e+00 6.947826862335205078e+00 1.454752445220947266e+00 2.100586414337158203e+00
2.696000000000000000e+03 7.944424152374267578e+00 1.122434329986572266e+01 -3.384687239304184914e-03 -1.823789440095424652e-03 -1.562542980536818504e-03 6.883992464281618595e-04
2.697000000000000000e+03 4.055290985107421875e+01 -1.464553451538085938e+01 1.197096586227416992e+00 4.024952411651611328e+00 1.566614627838134766e+00 5.868135690689086914e-01
2.698000000000000000e+03 4.459254837036132812e+01 -7.640029430389404297e+00 -1.720557451248168945e+00 6.335908889770507812e+00 1.384605407714843750e+00 1.722529768943786621e+00
2.699000000000000000e+03 4.187935638427734375e+01 -9.659545898437500000e+00 -2.946594059467315674e-01 4.414819717407226562e+00 1.236048102378845215e+00 8.707855343818664551e-01
2.700000000000000000e+03 1.198345565795898438e+01 8.636830329895019531e+00 -1.527516433270648122e-04 -3.292603418231010437e-03 -1.033606473356485367e-03 8.003601105883717537e-04
2.701000000000000000e+03 1.139684104919433594e+01 -8.546278953552246094e+00 -1.139265447854995728e-01 -1.548528820276260376e-01 -8.063382655382156372e-02 -1.979282796382904053e-01
2.702000000000000000e+03 6.247037506103515625e+01 -3.559297084808349609e+00 9.243899583816528320e-01 1.987513422966003418e+00 8.735709786415100098e-01 -8.577346801757812500e-01
2.703000000000000000e+03 6.325204086303710938e+01 -4.718225479125976562e+00 5.723676681518554688e-01 2.518121957778930664e+00 9.271469116210937500e-01 -1.041162967681884766e+00
2.704000000000000000e+03 8.171612739562988281e+00 2.100230789184570312e+01 -3.172868117690086365e-02 1.967655960470438004e-03 -8.928307332098484039e-03 3.335481882095336914e-02
2.705000000000000000e+03 3.820069503784179688e+01 -1.214480686187744141e+01 8.779797554016113281e-01 1.879847288131713867e+00 8.273481130599975586e-01 2.813648283481597900e-01
2.706000000000000000e+03 6.710865783691406250e+01 -2.354847937822341919e-01 2.261303924024105072e-02 4.859228134155273438e+00 1.464552283287048340e+00 4.709914326667785645e-02
2.707000000000000000e+03 6.790421295166015625e+01 6.726804971694946289e-01 -1.047813892364501953e-01 5.341866493225097656e+00 1.571125507354736328e+00 1.576805263757705688e-01
2.708000000000000000e+03 7.576439666748046875e+01 -6.625367641448974609e+00 -2.852044105529785156e-01 7.356096267700195312e+00 2.121267557144165039e+00 4.571513235569000244e-01
2.709000000000000000e+03 7.231559753417968750e+01 5.881899356842041016e+00 -2.701762318611145020e-01 7.513494968414306641e+00 2.172995567321777344e+00 -2.238664627075195312e-01
2.710000000000000000e+03 7.333371734619140625e+01 5.552230834960937500e+00 -2.421201318502426147e-01 7.433303356170654297e+00 2.157354831695556641e+00 -4.387536942958831787e-01
2.711000000000000000e+03 5.188006877899169922e+00 -1.833303260803222656e+01 -3.654534230008721352e-03 -2.781512439250946045e-01 -8.454173058271408081e-02 -2.606225907802581787e-01
2.712000000000000000e+03 3.896976852416992188e+01 -1.252850055694580078e+01 8.772804737091064453e-01 2.530050039291381836e+00 1.022199153900146484e+00 3.655486404895782471e-01
2.713000000000000000e+03 6.849729919433593750e+01 -5.130783081054687500e+00 -4.956852197647094727e-01 5.932191848754882812e+00 1.630951881408691406e+00 -6.283532381057739258e-01
2.714000000000000000e+03 6.613957977294921875e+01 -8.201552391052246094e+00 -2.704397439956665039e-01 4.934807777404785156e+00 1.399310350418090820e+00 -1.693662762641906738e+00
2.715000000000000000e+03 1.136571121215820312e+01 7.888952732086181641e+00 -7.239662809297442436e-04 -2.227565739303827286e-03 -8.854595944285392761e-04 4.390461544971913099e-04
2.716000000000000000e+03 1.068703937530517578e+01 6.203759670257568359e+00 -6.513696862384676933e-04 -1.271888264454901218e-03 -5.769773852080106735e-04 3.071210230700671673e-04
2.717000000000000000e+03 4.026251983642578125e+01 -1.057266330718994141e+01 2.768442332744598389e-01 3.181052207946777344e+00 1.037368893623352051e+00 5.741617083549499512e-01
2.718000000000000000e+03 7.325506591796875000e+01 -2.283149719238281250e+01 3.171899914741516113e-01 8.728103637695312500e+00 2.713587999343872070e+00 -1.538713812828063965e+00
2.719000000000000000e+03 7.289857482910156250e+01 2.195702934265136719e+01 -5.254479646682739258e-01 8.579495429992675781e+00 2.416214466094970703e+00 1.300380587577819824e+00
2.720000000000000000e+03 6.274401855468750000e+01 -2.473865032196044922e+00 1.043905496597290039e+00 2.112850189208984375e+00 9.470266699790954590e-01 -5.702252388000488281e-01
2.721000000000000000e+03 6.562087249755859375e+01 -2.020483493804931641e+00 3.023331761360168457e-01 3.935351133346557617e+00 1.271305322647094727e+00 -3.790221214294433594e-01
2.722000000000000000e+03 7.091075897216796875e+01 -6.418050289154052734e+00 -6.388267874717712402e-01 7.045709133148193359e+00 1.922064781188964844e+00 -1.790767163038253784e-01
2.723000000000000000e+03 8.626489639282226562e+00 -9.979557991027832031e+00 -1.126184016466140747e-01 -1.382889598608016968e-01 -7.527220994234085083e-02 -1.401489078998565674e-01
2.724000000000000000e+03 7.296253681182861328e+00 -9.562781333923339844e+00 -9.688067436218261719e-02 -1.159190535545349121e-01 -6.383991986513137817e-02 -1.177840828895568848e-01
2.725000000000000000e+03 6.767026424407958984e+00 -1.051947689056396484e+01 -9.749647229909896851e-02 -1.214018985629081726e-01 -6.566951423883438110e-02 -1.265044659376144409e-01
2.726000000000000000e+03 6.981279754638671875e+01 -4.624794006347656250e+00 -5.803266763687133789e-01 6.428917407989501953e+00 1.754577159881591797e+00 -3.497698009014129639e-01
2.727000000000000000e+03 7.317324066162109375e+01 -1.706951379776000977e+00 -4.474955201148986816e-01 6.976904869079589844e+00 1.958822846412658691e+00 -7.601533830165863037e-02
2.728000000000000000e+03 7.176816558837890625e+01 3.769901990890502930e-01 -4.051614701747894287e-01 6.674609661102294922e+00 1.880834460258483887e+00 -1.182352080941200256e-01
2.729000000000000000e+03 7.277622985839843750e+01 -2.620414924621582031e+01 -7.298879623413085938e-01 8.249817848205566406e+00 2.255979061126708984e+00 -1.111350297927856445e+00
2.730000000000000000e+03 8.358978271484375000e+00 1.498876190185546875e+01 -1.481409929692745209e-02 -3.693516773637384176e-04 -4.555035382509231567e-03 4.520150832831859589e-03
2.731000000000000000e+03 7.589548492431640625e+01 1.815305900573730469e+01 3.972039520740509033e-01 7.519333362579345703e+00 2.374961137771606445e+00 9.658807516098022461e-01
2.732000000000000000e+03 7.002431488037109375e+01 2.114839935302734375e+01 -4.842591881752014160e-01 9.643749237060546875e+00 2.747847080230712891e+00 5.741147398948669434e-01
2.733000000000000000e+03 7.125444793701171875e+01 3.321513891220092773e+00 -3.787715137004852295e-01 6.853992938995361328e+00 1.942566394805908203e+00 -4.096727445721626282e-02
2.734000000000000000e+03 1.018575859069824219e+01 -2.540382957458496094e+01 2.002025246620178223e-01 5.325370933860540390e-03 6.165836751461029053e-02 -1.625427901744842529e-01
2.735000000000000000e+03 4.676932144165039062e+01 -4.540613651275634766e+00 -1.903878808021545410e+00 7.669778347015380859e+00 1.729769945144653320e+00 2.407081842422485352e+00
2.736000000000000000e+03 4.534268569946289062e+01 -3.710412502288818359e+00 -1.180087208747863770e+00 6.697064399719238281e+00 1.655093193054199219e+00 2.887198209762573242e+00
2.737000000000000000e+03 4.622663116455078125e+01 -4.982250690460205078e+00 -1.924954175949096680e+00 7.254525661468505859e+00 1.598871469497680664e+00 2.507773399353027344e+00
2.738000000000000000e+03 7.725177764892578125e+00 -7.077740669250488281e+00 -8.015775680541992188e-02 -8.203043788671493530e-02 -4.865645617246627808e-02 -9.248270839452743530e-02
2.739000000000000000e+03 8.335085868835449219e+00 8.867893218994140625e+00 -2.330418210476636887e-04 -1.720669562928378582e-03 -5.861134268343448639e-04 -1.507159176981076598e-04
2.740000000000000000e+03 1.095073032379150391e+01 7.046652793884277344e+00 1.230658264830708504e-03 -2.151856897398829460e-03 -2.763595839496701956e-04 5.382026429288089275e-04
2.741000000000000000e+03 1.351712799072265625e+01 1.233514499664306641e+01 -4.646736197173595428e-03 -2.313750097528100014e-03 -2.088146051391959190e-03 1.406037918059155345e-04
2.742000000000000000e+03 7.990472793579101562e+00 1.238152694702148438e+01 -6.720202509313821793e-03 -3.351302118971943855e-03 -3.021451411768794060e-03 -1.387816737405955791e-04
2.743000000000000000e+03 7.239904785156250000e+01 3.335900545120239258e+00 -3.907682597637176514e-01 7.119415760040283203e+00 2.018594264984130859e+00 -1.995735615491867065e-01
2.744000000000000000e+03 1.009189796447753906e+01 1.067488670349121094e+01 -2.945177722722291946e-03 -4.494167398661375046e-03 -2.231803489848971367e-03 -4.025966336484998465e-04
2.745000000000000000e+03 1.197226524353027344e+01 1.020466899871826172e+01 -1.436965889297425747e-03 -4.457966424524784088e-03 -1.768479705788195133e-03 -3.749322204384952784e-04
2.746000000000000000e+03 7.190196228027343750e+01 2.139076995849609375e+01 -3.197546303272247314e-01 8.678059577941894531e+00 2.507491350173950195e+00 1.119380235671997070e+00
2.747000000000000000e+03 7.034571838378906250e+01 1.505240797996520996e+00 -3.606681823730468750e-01 6.434505939483642578e+00 1.822151303291320801e+00 4.429766535758972168e-02
2.748000000000000000e+03 7.265058898925781250e+01 2.013018608093261719e+00 -3.891156911849975586e-01 6.975335597991943359e+00 1.975865960121154785e+00 -1.924300938844680786e-01
2.749000000000000000e+03 6.869445800781250000e+01 1.603639960289001465e+00 -2.370872944593429565e-01 5.799281120300292969e+00 1.668658137321472168e+00 2.458607852458953857e-01
2.750000000000000000e+03 3.948278427124023438e+01 -1.338507938385009766e+01 1.045763850212097168e+00 3.039568185806274414e+00 1.225599646568298340e+00 4.109060466289520264e-01
2.751000000000000000e+03 6.711338806152343750e+01 -1.973816514015197754e+00 -3.165271133184432983e-02 4.848103046417236328e+00 1.444935083389282227e+00 -3.097464740276336670e-01
2.752000000000000000e+03 6.789904785156250000e+01 -1.092697024345397949e+00 -1.308613270521163940e-01 5.278095245361328125e+00 1.544170141220092773e+00 -1.515228897333145142e-01
2.753000000000000000e+03 6.631812286376953125e+01 -4.569087982177734375e+00 -7.092659175395965576e-02 4.582767963409423828e+00 1.353552341461181641e+00 -9.083116650581359863e-01
2.754000000000000000e+03 6.240190887451171875e+01 -4.589004516601562500e+00 7.602589130401611328e-01 1.947544455528259277e+00 8.123410344123840332e-01 -1.008316040039062500e+00
2.755000000000000000e+03 7.015251922607421875e+01 3.582713603973388672e+00 -3.747349083423614502e-01 6.691256999969482422e+00 1.894956588745117188e+00 1.721325218677520752e-01
2.756000000000000000e+03 6.879730224609375000e+01 -2.360835969448089600e-01 -2.589987218379974365e-01 5.713044643402099609e+00 1.636213779449462891e+00 -3.868520958349108696e-03
2.757000000000000000e+03 6.914416503906250000e+01 -2.680896043777465820e+00 -3.946190476417541504e-01 5.975442886352539062e+00 1.674247145652770996e+00 -3.193027675151824951e-01
2.758000000000000000e+03 7.134084320068359375e+01 -5.236406326293945312e+00 -6.289795041084289551e-01 6.966450214385986328e+00 1.901241183280944824e+00 -1.481722146272659302e-01
2.759000000000000000e+03 7.109376525878906250e+01 -2.737616539001464844e+00 -4.662291705608367920e-01 6.516863346099853516e+00 1.815190315246582031e+00 -1.643979847431182861e-01
2.760000000000000000e+03 7.023321533203125000e+01 -3.674269676208496094e+00 -4.880227148532867432e-01 6.419138908386230469e+00 1.779334783554077148e+00 -2.836587131023406982e-01
2.761000000000000000e+03 6.941603851318359375e+01 -1.194832324981689453e+00 -3.439143598079681396e-01 6.010863304138183594e+00 1.700084567070007324e+00 -1.316386461257934570e-01
2.762000000000000000e+03 7.043623352050781250e+01 -1.079329729080200195e+00 -3.833449482917785645e-01 6.332215785980224609e+00 1.784661293029785156e+00 -1.351489275693893433e-01
2.763000000000000000e+03 7.320339202880859375e+01 -5.967319011688232422e-01 -3.714847862720489502e-01 6.947373390197753906e+00 1.972766518592834473e+00 -1.106603369116783142e-01
2.764000000000000000e+03 1.020525741577148438e+01 1.723687744140625000e+01 -2.966026775538921356e-02 6.733797024935483932e-03 -6.877941079437732697e-03 8.271959610283374786e-03
2.765000000000000000e+03 7.943947792053222656e+00 1.594241142272949219e+01 -1.622784323990345001e-02 -1.633961335755884647e-03 -5.358541384339332581e-03 7.262930739670991898e-03
2.766000000000000000e+03 9.567566871643066406e+00 6.878967761993408203e+00 -1.178166348836384714e-04 -1.353098428808152676e-03 -4.412745183799415827e-04 -3.171435673721134663e-04
2.767000000000000000e+03 9.117163658142089844e+00 7.558695316314697266e+00 7.940975774545222521e-05 -2.634112257510423660e-03 -7.664107251912355423e-04 -8.113659714581444860e-05
2.768000000000000000e+03 8.869300842285156250e+00 1.841981506347656250e+01 -2.896490506827831268e-02 5.274971015751361847e-03 -7.106980308890342712e-03 1.638893969357013702e-02
2.769000000000000000e+03 1.060975456237792969e+01 2.299610328674316406e+01 -5.264516547322273254e-02 1.678729057312011719e-02 -1.075736340135335922e-02 4.792400449514389038e-02
2.770000000000000000e+03 1.005152511596679688e+01 2.605460739135742188e+01 -3.354470431804656982e-02 7.195994723588228226e-03 -7.904612459242343903e-03 7.129485160112380981e-02
2.771000000000000000e+03 1.461264801025390625e+01 1.234485435485839844e+01 -5.366093479096889496e-03 -3.910730592906475067e-03 -2.783047035336494446e-03 -9.529897943139076233e-04
2.772000000000000000e+03 8.974461555480957031e+00 -8.531268119812011719e+00 -1.026726812124252319e-01 -1.210439428687095642e-01 -6.711498647928237915e-02 -1.328900605440139771e-01
2.773000000000000000e+03 6.493091583251953125e+01 -2.855257034301757812e+00 4.101674258708953857e-01 3.562378883361816406e+00 1.191763877868652344e+00 -5.989954471588134766e-01
2.774000000000000000e+03 6.362341690063476562e+01 -2.902528524398803711e+00 7.559615373611450195e-01 2.704987049102783203e+00 1.038284540176391602e+00 -6.180189847946166992e-01
2.775000000000000000e+03 8.019154548645019531e+00 -2.650663566589355469e+01 1.303403377532958984e-01 -2.153530865907669067e-01 -2.550382539629936218e-02 -1.165168136358261108e-01
2.776000000000000000e+03 7.323111057281494141e+00 -2.536949348449707031e+01 1.390867531299591064e-01 -2.702467441558837891e-01 -3.934799507260322571e-02 -1.437536180019378662e-01
2.777000000000000000e+03 4.077246665954589844e+00 -1.045919322967529297e+01 -4.558073356747627258e-02 -1.021239832043647766e-01 -4.431141540408134460e-02 -9.038449078798294067e-02
2.778000000000000000e+03 4.567221069335937500e+01 -2.233292579650878906e+00 -2.512509524822235107e-01 7.466068267822265625e+00 2.164445161819458008e+00 3.313643932342529297e+00
2.779000000000000000e+03 1.068415927886962891e+01 8.611630439758300781e+00 -7.893687579780817032e-04 -3.325696568936109543e-03 -1.234519528225064278e-03 -2.222449256805703044e-04
2.780000000000000000e+03 7.227320861816406250e+01 4.605561256408691406e+00 -3.403906822204589844e-01 7.233365058898925781e+00 2.067892313003540039e+00 -2.306704968214035034e-01
2.781000000000000000e+03 1.117951679229736328e+01 1.135393142700195312e+01 -4.649165086448192596e-03 -2.188411541283130646e-03 -2.051273128017783165e-03 1.072674203896895051e-04
2.782000000000000000e+03 6.966883850097656250e+01 -3.305256366729736328e+00 -4.671235978603363037e-01 6.160202980041503906e+00 1.707923889160156250e+00 -2.994893491268157959e-01
2.783000000000000000e+03 6.856231689453125000e+01 -1.933687806129455566e+00 -2.632052302360534668e-01 5.598890304565429688e+00 1.600705504417419434e+00 -2.212015390396118164e-01
2.784000000000000000e+03 6.636691284179687500e+01 -2.850598096847534180e+00 7.079443335533142090e-02 4.480707168579101562e+00 1.365450501441955566e+00 -5.355339050292968750e-01
2.785000000000000000e+03 7.262524414062500000e+01 -4.320367336273193359e+00 -5.490131974220275879e-01 7.078791618347167969e+00 1.958933591842651367e+00 3.512590192258358002e-03
2.786000000000000000e+03 7.093103027343750000e+01 -3.855738639831542969e+00 -5.619173049926757812e-01 6.658904552459716797e+00 1.829096078872680664e+00 -1.977744549512863159e-01
2.787000000000000000e+03 1.021379566192626953e+01 1.579761219024658203e+01 -2.276544459164142609e-02 2.005438000196591020e-04 -6.769470404833555222e-03 2.726496662944555283e-03
2.788000000000000000e+03 1.329673767089843750e+01 1.349764156341552734e+01 -1.007019914686679840e-02 -5.579016171395778656e-03 -4.694764502346515656e-03 -4.121651407331228256e-03
2.789000000000000000e+03 9.258545875549316406e+00 1.252262496948242188e+01 -6.652588956058025360e-03 -1.629013218916952610e-03 -2.484480617567896843e-03 1.062699826434254646e-03
2.790000000000000000e+03 6.341608047485351562e+01 -3.782379865646362305e+00 6.734487414360046387e-01 2.580496788024902344e+00 9.761837124824523926e-01 -8.536309599876403809e-01
2.791000000000000000e+03 9.003148078918457031e+00 1.716334915161132812e+01 -2.564307674765586853e-02 1.549870357848703861e-03 -7.227961905300617218e-03 1.026064623147249222e-02
2.792000000000000000e+03 7.147213745117187500e+01 -1.738701105117797852e+00 -4.790044426918029785e-01 6.634544849395751953e+00 1.846662163734436035e+00 -1.007627323269844055e-01
2.793000000000000000e+03 7.293050384521484375e+01 6.506627202033996582e-01 -4.084351062774658203e-01 6.993155956268310547e+00 1.975416183471679688e+00 -1.572386771440505981e-01
2.794000000000000000e+03 5.690094947814941406e+00 -2.533827209472656250e+01 9.750969707965850830e-02 -3.969264626502990723e-01 -8.982502669095993042e-02 -1.296665221452713013e-01
2.795000000000000000e+03 8.626457214355468750e+00 1.968769073486328125e+01 -3.308414295315742493e-02 4.462726879864931107e-03 -8.586424402892589569e-03 2.432817220687866211e-02
2.796000000000000000e+03 7.702552795410156250e+00 1.823727989196777344e+01 -2.314719185233116150e-02 -2.991460787598043680e-04 -7.033901289105415344e-03 1.690953411161899567e-02
2.797000000000000000e+03 6.481101226806640625e+01 -4.508577346801757812e+00 2.825367450714111328e-01 3.521869421005249023e+00 1.141321897506713867e+00 -9.674351811408996582e-01
2.798000000000000000e+03 6.704177856445312500e+01 -5.405639171600341797e+00 -2.859664261341094971e-01 5.106962680816650391e+00 1.446298837661743164e+00 -9.837430119514465332e-01
2.799000000000000000e+03 6.911656188964843750e+01 -4.150231361389160156e+00 -4.732351601123809814e-01 6.107620239257812500e+00 1.690315485000610352e+00 -4.737547338008880615e-01
2.800000000000000000e+03 1.032376480102539062e+01 2.446442031860351562e+01 -4.189970716834068298e-02 1.186869945377111435e-02 -9.009302593767642975e-03 6.316936016082763672e-02
2.801000000000000000e+03 9.808908462524414062e+00 1.995882797241210938e+01 -4.015343636274337769e-02 1.064343377947807312e-02 -8.853000588715076447e-03 2.426734380424022675e-02
2.802000000000000000e+03 9.415741920471191406e+00 2.140377616882324219e+01 -4.231677949428558350e-02 9.308066219091415405e-03 -9.902614168822765350e-03 3.592162951827049255e-02
2.803000000000000000e+03 1.160044193267822266e+01 1.596657180786132812e+01 -2.550713345408439636e-02 4.825018811970949173e-03 -6.204634439200162888e-03 3.796213422901928425e-04
2.804000000000000000e+03 1.312127399444580078e+01 1.479913425445556641e+01 -1.694148965179920197e-02 6.763935671187937260e-04 -4.879529122263193130e-03 -4.035590682178735733e-03
2.805000000000000000e+03 1.033372497558593750e+01 1.430062294006347656e+01 -1.418800745159387589e-02 3.505853819660842419e-04 -4.151226487010717392e-03 1.453160541132092476e-03
2.806000000000000000e+03 1.065048122406005859e+01 1.279152297973632812e+01 -8.700034581124782562e-03 -4.375200252979993820e-03 -3.922570496797561646e-03 -1.654898747801780701e-03
2.807000000000000000e+03 9.831138610839843750e+00 8.124598503112792969e+00 1.139103278546826914e-05 -1.848662621341645718e-03 -5.511814961209893227e-04 3.144570218864828348e-04
2.808000000000000000e+03 9.178868293762207031e+00 1.127167224884033203e+01 -6.137799005955457687e-03 -3.168764291331171989e-03 -2.791968872770667076e-03 -1.451258780434727669e-03
2.809000000000000000e+03 6.990985870361328125e+01 -1.985136508941650391e+00 -4.189905524253845215e-01 6.203402996063232422e+00 1.735323786735534668e+00 -1.774523556232452393e-01
2.810000000000000000e+03 6.211305999755859375e+01 -8.896766304969787598e-01 1.384118437767028809e+00 1.718028664588928223e+00 9.306441545486450195e-01 -9.284336864948272705e-02
2.811000000000000000e+03 6.414565277099609375e+01 -2.089416503906250000e+00 6.988809704780578613e-01 2.953171253204345703e+00 1.095615625381469727e+00 -4.326203465461730957e-01
2.812000000000000000e+03 7.059980010986328125e+01 2.146880030632019043e-01 -4.201008677482604980e-01 6.450184822082519531e+00 1.809025168418884277e+00 -6.202600523829460144e-02
2.813000000000000000e+03 6.845462036132812500e+01 -3.525875091552734375e+00 -3.544398546218872070e-01 5.663294315338134766e+00 1.592656373977661133e+00 -4.489117562770843506e-01
2.814000000000000000e+03 6.780001831054687500e+01 -2.786852598190307617e+00 -2.107007354497909546e-01 5.317388534545898438e+00 1.532006382942199707e+00 -4.327054023742675781e-01
2.815000000000000000e+03 1.086285114288330078e+01 2.157085609436035156e+01 -5.308246612548828125e-02 1.821827329695224762e-02 -1.045925728976726532e-02 3.633810207247734070e-02
2.816000000000000000e+03 1.149768543243408203e+01 1.738043975830078125e+01 -3.699828311800956726e-02 6.133226212114095688e-03 -9.259517304599285126e-03 4.113451112061738968e-03
2.817000000000000000e+03 1.174395751953125000e+01 1.456088829040527344e+01 -1.721405051648616791e-02 -2.759977942332625389e-03 -5.992208607494831085e-03 -2.498736372217535973e-03
2.818000000000000000e+03 1.006328582763671875e+01 1.859649848937988281e+01 -3.782919049263000488e-02 7.386579643934965134e-03 -9.132783859968185425e-03 1.510796695947647095e-02
2.819000000000000000e+03 6.594853401184082031e+00 2.117066001892089844e+01 -2.299397252500057220e-02 -6.673363503068685532e-03 -8.900200948119163513e-03 3.166384249925613403e-02
2.820000000000000000e+03 1.273319625854492188e+01 1.896481132507324219e+01 -5.764382332563400269e-02 1.585180498659610748e-02 -1.253760606050491333e-02 7.434125989675521851e-03
2.821000000000000000e+03 9.656260490417480469e+00 2.965298652648925781e+01 3.254448529332876205e-03 -1.129870023578405380e-02 -2.413275651633739471e-03 7.880202680826187134e-02
2.822000000000000000e+03 1.327343654632568359e+01 2.481614685058593750e+01 -6.558397412300109863e-02 3.088751807808876038e-02 -1.040893699973821640e-02 7.132287323474884033e-02
2.823000000000000000e+03 8.859407424926757812e+00 2.420600891113281250e+01 -3.414285928010940552e-02 1.968236407265067101e-03 -9.652386419475078583e-03 5.538982152938842773e-02
2.824000000000000000e+03 1.255324649810791016e+01 2.035613632202148438e+01 -6.517411023378372192e-02 2.394587360322475433e-02 -1.236846949905157089e-02 1.976121589541435242e-02
2.825000000000000000e+03 1.680164527893066406e+01 2.795308113098144531e+01 -1.980174519121646881e-02 3.810786828398704529e-02 5.491836927831172943e-03 9.147776663303375244e-02
2.826000000000000000e+03 1.419551849365234375e+01 1.915525054931640625e+01 -7.051519304513931274e-02 2.291498146951198578e-02 -1.428006403148174286e-02 -1.905381912365555763e-03
2.827000000000000000e+03 9.132091522216796875e+00 3.280518722534179688e+01 2.483198046684265137e-02 -2.691921219229698181e-02 -6.261693197302520275e-04 6.997851282358169556e-02
2.828000000000000000e+03 1.287253189086914062e+01 1.756610679626464844e+01 -4.299486055970191956e-02 1.198701933026313782e-02 -9.302352555096149445e-03 -1.336473156698048115e-03
2.829000000000000000e+03 1.532580089569091797e+01 2.912826728820800781e+01 8.469986729323863983e-03 3.553735092282295227e-02 1.320220157504081726e-02 8.808709681034088135e-02
2.830000000000000000e+03 1.455281066894531250e+01 2.766711425781250000e+01 -3.202319890260696411e-02 3.143455088138580322e-02 -1.765943452483043075e-04 9.253945201635360718e-02
2.831000000000000000e+03 3.268738555908203125e+01 2.501150894165039062e+01 1.828586310148239136e-02 8.274087905883789062e-01 2.537083923816680908e-01 -5.080244541168212891e-01
2.832000000000000000e+03 3.202757644653320312e+01 2.330463981628417969e+01 5.190851166844367981e-02 6.202542781829833984e-01 2.016488313674926758e-01 -4.538786113262176514e-01
2.833000000000000000e+03 6.180418491363525391e+00 3.730230712890625000e+01 2.409533783793449402e-02 -8.790224790573120117e-02 -1.914207264780998230e-02 3.328147530555725098e-02
2.834000000000000000e+03 1.571110916137695312e+01 1.933177185058593750e+01 -8.833810687065124512e-02 1.839308813214302063e-02 -2.098350599408149719e-02 -1.332670450210571289e-02
2.835000000000000000e+03 2.411770629882812500e+01 2.694572067260742188e+01 1.249098498374223709e-02 1.111827716231346130e-01 3.710212931036949158e-02 -7.298958301544189453e-02
2.836000000000000000e+03 2.186365318298339844e+01 2.754679107666015625e+01 9.458995424211025238e-03 8.044755458831787109e-02 2.697196416556835175e-02 5.565149709582328796e-03
2.837000000000000000e+03 7.057119750976562500e+01 -3.279015731811523438e+01 -7.105653882026672363e-01 6.412479877471923828e+00 1.710574388504028320e+00 1.135227829217910767e-01
2.838000000000000000e+03 7.217664337158203125e+01 -3.228355407714843750e+01 -6.865506172180175781e-01 7.197014808654785156e+00 1.953139305114746094e+00 -1.575176119804382324e-01
2.839000000000000000e+03 1.438690280914306641e+01 1.635322570800781250e+01 -2.973258867859840393e-02 4.176214803010225296e-03 -7.666912395507097244e-03 -1.025044918060302734e-02
2.840000000000000000e+03 4.458550643920898438e+01 1.961946868896484375e+01 -8.846289664506912231e-02 4.196706771850585938e+00 1.232473134994506836e+00 -8.847954273223876953e-01
2.841000000000000000e+03 8.315886497497558594e+00 2.758413887023925781e+01 -1.315621286630630493e-02 -1.715979352593421936e-02 -9.094801731407642365e-03 7.071003317832946777e-02
2.842000000000000000e+03 7.193530273437500000e+01 3.115986251831054688e+01 -3.885389864444732666e-01 6.585432529449462891e+00 1.859068036079406738e+00 -3.914608359336853027e-01
2.843000000000000000e+03 4.640975189208984375e+01 2.250314331054687500e+01 -6.903600096702575684e-01 4.118395328521728516e+00 1.028410673141479492e+00 -2.396305501461029053e-01
2.844000000000000000e+03 5.005537414550781250e+01 1.954013061523437500e+01 1.995081305503845215e-01 5.137824535369873047e+00 1.601199865341186523e+00 8.488876819610595703e-01
2.845000000000000000e+03 7.272122955322265625e+01 2.943285560607910156e+01 -5.913746356964111328e-01 7.236271858215332031e+00 1.993469119071960449e+00 -1.391267925500869751e-01
2.846000000000000000e+03 1.671065139770507812e+01 -3.090822029113769531e+01 1.565304100513458252e-01 2.691980898380279541e-01 1.277185529470443726e-01 -2.129832506179809570e-01
2.847000000000000000e+03 4.665258407592773438e+01 1.966152000427246094e+01 -2.044570446014404297e-01 4.933490753173828125e+00 1.418710112571716309e+00 -3.809385597705841064e-01
2.848000000000000000e+03 3.193552780151367188e+01 -3.394442749023437500e+01 1.063120812177658081e-01 1.735474824905395508e+00 5.525360703468322754e-01 8.308622837066650391e-01
2.849000000000000000e+03 7.546596527099609375e+01 3.366813659667968750e+01 -8.535678684711456299e-02 7.859461784362792969e+00 2.332231521606445312e+00 -1.555879265069961548e-01
2.850000000000000000e+03 8.216011047363281250e+00 2.925350761413574219e+01 -2.589543117210268974e-03 -2.669191546738147736e-02 -8.784437552094459534e-03 7.214921712875366211e-02
2.851000000000000000e+03 2.676919937133789062e+00 -3.623746871948242188e+01 5.773206707090139389e-03 -7.623472213745117188e-01 -2.269722074270248413e-01 2.011220529675483704e-02
2.852000000000000000e+03 4.226660537719726562e+01 2.003613090515136719e+01 4.837790131568908691e-02 3.238352298736572266e+00 9.860190153121948242e-01 -1.066321611404418945e+00
2.853000000000000000e+03 7.849934387207031250e+01 3.572780990600585938e+01 -2.712764590978622437e-02 8.943331718444824219e+00 2.674861192703247070e+00 -1.474130153656005859e-01
2.854000000000000000e+03 3.059973144531250000e+01 2.398019599914550781e+01 1.581454463303089142e-02 4.536068439483642578e-01 1.408264189958572388e-01 -3.819208741188049316e-01
2.855000000000000000e+03 7.639862060546875000e+01 2.896593093872070312e+01 -2.279345542192459106e-01 8.314376831054687500e+00 2.425932645797729492e+00 1.710562407970428467e-01
2.856000000000000000e+03 6.917113304138183594e+00 3.303285980224609375e+01 1.615718565881252289e-02 -5.952981114387512207e-02 -1.301178801804780960e-02 5.874379351735115051e-02
2.857000000000000000e+03 8.067367553710937500e+00 -3.203857421875000000e+01 3.830173984169960022e-02 -2.528210878372192383e-01 -6.435580551624298096e-02 -4.905630275607109070e-02
2.858000000000000000e+03 4.592209243774414062e+01 2.411799812316894531e+01 -8.078956007957458496e-01 3.769584178924560547e+00 8.885065913200378418e-01 -2.046779096126556396e-01
2.859000000000000000e+03 1.347153472900390625e+01 2.982309722900390625e+01 6.753503344953060150e-03 2.373564615845680237e-02 9.146745316684246063e-03 8.644762635231018066e-02
2.860000000000000000e+03 2.920970535278320312e+01 2.809113883972167969e+01 4.182263091206550598e-02 5.323895215988159180e-01 1.722636371850967407e-01 -3.060952126979827881e-01
2.861000000000000000e+03 6.345717239379882812e+01 -3.528284072875976562e+01 -6.068406999111175537e-02 2.246138334274291992e+00 6.556363105773925781e-01 4.317806661128997803e-01
2.862000000000000000e+03 3.752339935302734375e+01 -3.495662307739257812e+01 -4.711666107177734375e-01 3.015951395034790039e+00 7.634354233741760254e-01 4.770607650279998779e-01
2.863000000000000000e+03 2.129089355468750000e+01 -3.585714340209960938e+01 2.040958255529403687e-01 2.987183928489685059e-01 1.508442610502243042e-01 -1.186360493302345276e-01
2.864000000000000000e+03 1.926205253601074219e+01 -3.456956863403320312e+01 1.576246768236160278e-01 2.500326931476593018e-01 1.222972050309181213e-01 -1.924982219934463501e-01
2.865000000000000000e+03 9.789796829223632812e+00 -3.548022842407226562e+01 2.689070068299770355e-02 -1.659476757049560547e-01 -4.171709343791007996e-02 -4.657691717147827148e-02
2.866000000000000000e+03 6.239151382446289062e+01 3.240561294555664062e+01 2.937003374099731445e-01 2.428151607513427734e+00 8.165555596351623535e-01 -1.656467914581298828e-01
2.867000000000000000e+03 6.066280364990234375e+01 2.985592460632324219e+01 8.043592423200607300e-02 1.552084803581237793e+00 4.897561967372894287e-01 1.938846260309219360e-01
2.868000000000000000e+03 1.571834182739257812e+01 -3.469645690917968750e+01 8.559489995241165161e-02 1.664766669273376465e-01 7.562147080898284912e-02 -1.450482606887817383e-01
2.869000000000000000e+03 2.035767745971679688e+01 3.129943656921386719e+01 7.134987413883209229e-02 1.370220333337783813e-01 6.251157075166702271e-02 2.568090520799160004e-02
2.870000000000000000e+03 6.276856994628906250e+01 3.014980316162109375e+01 1.204067319631576538e-01 2.148699760437011719e+00 6.807319521903991699e-01 -3.698251843452453613e-01
2.871000000000000000e+03 4.360718917846679688e+01 2.105381774902343750e+01 -1.934232115745544434e-01 3.580732822418212891e+00 1.016192913055419922e+00 -8.984390497207641602e-01
2.872000000000000000e+03 3.968704605102539062e+01 2.316156387329101562e+01 -1.271672397851943970e-01 2.356864452362060547e+00 6.689091324806213379e-01 -8.481521010398864746e-01
2.873000000000000000e+03 7.099095153808593750e+01 -3.518664932250976562e+01 -4.051537513732910156e-01 6.381191730499267578e+00 1.792811393737792969e+00 1.325286626815795898e-01
2.874000000000000000e+03 4.232313156127929688e+01 2.478785324096679688e+01 -4.613460302352905273e-01 2.919900178909301758e+00 7.375662326812744141e-01 -6.422284245491027832e-01
2.875000000000000000e+03 7.494352722167968750e+01 2.849279975891113281e+01 -4.185021817684173584e-01 7.952180862426757812e+00 2.260103702545166016e+00 1.873532980680465698e-01
2.876000000000000000e+03 1.752769851684570312e+01 -3.328524398803710938e+01 1.154264584183692932e-01 2.464273720979690552e-01 1.085561513900756836e-01 -1.985054761171340942e-01
2.877000000000000000e+03 4.498229980468750000e+01 2.186441421508789062e+01 -4.658016860485076904e-01 3.970353603363037109e+00 1.051365613937377930e+00 -6.172263622283935547e-01
2.878000000000000000e+03 3.336181640625000000e+01 2.680096244812011719e+01 -1.125115063041448593e-02 1.036416530609130859e+00 3.075496256351470947e-01 -5.180847644805908203e-01
2.879000000000000000e+03 3.426559829711914062e+01 2.857080650329589844e+01 -8.749369531869888306e-02 1.251386523246765137e+00 3.491678535938262939e-01 -4.778278172016143799e-01
2.880000000000000000e+03 3.799388885498046875e+01 2.444250679016113281e+01 -1.135035455226898193e-01 1.859018087387084961e+00 5.236543416976928711e-01 -7.306506037712097168e-01
2.881000000000000000e+03 4.528313064575195312e+01 2.565677452087402344e+01 -8.011491894721984863e-01 3.384387969970703125e+00 7.749716639518737793e-01 -1.816508471965789795e-01
2.882000000000000000e+03 4.271123886108398438e+01 2.275144958496093750e+01 -3.322789967060089111e-01 3.187047481536865234e+00 8.564305305480957031e-01 -8.040941953659057617e-01
2.883000000000000000e+03 7.674914550781250000e+01 2.770113372802734375e+01 -2.343435138463973999e-01 8.421520233154296875e+00 2.456152915954589844e+00 2.931384742259979248e-01
2.884000000000000000e+03 3.491797256469726562e+01 2.577951431274414062e+01 -3.863565623760223389e-02 1.235802888870239258e+00 3.591501712799072266e-01 -5.900941491127014160e-01
2.885000000000000000e+03 4.071939086914062500e+01 2.933190345764160156e+01 -4.683685898780822754e-01 2.313668966293334961e+00 5.535901188850402832e-01 -3.341403901576995850e-01
2.886000000000000000e+03 4.252094268798828125e+01 2.696961021423339844e+01 -6.166011691093444824e-01 2.780922651290893555e+00 6.492964625358581543e-01 -3.576229512691497803e-01
2.887000000000000000e+03 4.220017242431640625e+01 4.277956962585449219e+00 1.678601801395416260e-01 -2.010283708572387695e+00 -5.527270436286926270e-01 2.291839197278022766e-02
2.888000000000000000e+03 4.157065200805664062e+01 2.248000651597976685e-01 4.773717373609542847e-02 -7.769058346748352051e-01 -2.187505960464477539e-01 -2.156781405210494995e-01
2.889000000000000000e+03 2.876958608627319336e+00 4.066540527343750000e+01 1.319493167102336884e-03 -1.620001792907714844e-01 -4.820420593023300171e-02 -6.027211900800466537e-03
2.890000000000000000e+03 9.574522972106933594e-01 4.129997634887695312e+01 -6.846785545349121094e-03 -2.116834223270416260e-01 -6.555906683206558228e-02 8.109501563012599945e-03
2.891000000000000000e+03 4.412089538574218750e+01 3.850460290908813477e+00 1.394806861877441406e+00 1.614957690238952637e+00 9.029293656349182129e-01 -3.583890497684478760e-01
2.892000000000000000e+03 4.474967956542968750e+01 3.720716953277587891e+00 1.758257746696472168e+00 2.968698978424072266e+00 1.418087005615234375e+00 -1.050797104835510254e+00
2.893000000000000000e+03 4.479193115234375000e+01 4.052161693572998047e+00 1.842423319816589355e+00 3.769751787185668945e+00 1.683652520179748535e+00 -1.472595095634460449e+00
2.894000000000000000e+03 4.575554275512695312e+01 3.533344745635986328e+00 1.720867514610290527e+00 8.446002006530761719e+00 3.050060749053955078e+00 -4.073788166046142578e+00
2.895000000000000000e+03 4.832484817504882812e+01 2.682737350463867188e+00 7.193094491958618164e-01 1.713649177551269531e+01 5.356740474700927734e+00 9.906086325645446777e-01
2.896000000000000000e+03 4.591115570068359375e+01 2.505783438682556152e-01 3.703592061996459961e+00 8.038352966308593750e+00 3.522583723068237305e+00 5.992557525634765625e+00
2.897000000000000000e+03 4.573781967163085938e+01 2.790583670139312744e-01 4.062166213989257812e+00 6.899505615234375000e+00 3.288501501083374023e+00 5.721449375152587891e+00
2.898000000000000000e+03 4.553667068481445312e+01 2.572100758552551270e-01 4.191354751586914062e+00 5.121422767639160156e+00 2.793833255767822266e+00 4.931730270385742188e+00
2.899000000000000000e+03 4.533078765869140625e+01 2.789054512977600098e-01 3.953238725662231445e+00 4.127660274505615234e+00 2.424269676208496094e+00 4.133047103881835938e+00
2.900000000000000000e+03 4.366547775268554688e+01 1.138045638799667358e-01 1.691946744918823242e+00 9.215766787528991699e-01 7.840570211410522461e-01 1.076636672019958496e+00
2.901000000000000000e+03 7.799595642089843750e+01 4.161534881591796875e+01 1.837105005979537964e-01 8.614914894104003906e+00 2.639587640762329102e+00 -5.142003670334815979e-02
2.902000000000000000e+03 4.172111892700195312e+01 7.079679369926452637e-01 -2.600324153900146484e-01 -1.072059392929077148e+00 -3.996275365352630615e-01 -6.572686880826950073e-02
2.903000000000000000e+03 4.328761291503906250e+01 5.950359821319580078e+00 3.493895381689071655e-02 9.893502593040466309e-01 3.072867691516876221e-01 -6.549800038337707520e-01
2.904000000000000000e+03 6.983531188964843750e+01 1.979725265502929688e+01 7.424214482307434082e-01 1.005201530456542969e+01 3.238330841064453125e+00 8.103222846984863281e-01
2.905000000000000000e+03 4.203158950805664062e+01 4.451326370239257812e+00 1.684795022010803223e-01 -2.885911941528320312e+00 -8.152297735214233398e-01 -1.071204021573066711e-01
2.906000000000000000e+03 1.664854049682617188e+01 1.987295746803283691e+00 6.709989975206553936e-04 1.262302394025027752e-04 2.391687739873304963e-04 8.136264514178037643e-04
2.907000000000000000e+03 4.404033720493316650e-01 2.191339492797851562e+00 4.022501525469124317e-04 3.048975195270031691e-04 2.121442958014085889e-04 -8.686992805451154709e-05
2.908000000000000000e+03 1.413164973258972168e+00 -3.275605678558349609e+00 -1.771278446540236473e-03 5.471515003591775894e-03 1.110071083530783653e-03 6.469807587563991547e-03
2.909000000000000000e+03 2.681230783462524414e+00 4.185817718505859375e+01 3.299512667581439018e-03 -1.790046989917755127e-01 -5.271155759692192078e-02 -4.186582285910844803e-03
2.910000000000000000e+03 2.709642648696899414e+00 3.952956390380859375e+01 5.045748315751552582e-03 -1.767120212316513062e-01 -5.149988085031509399e-02 7.245657499879598618e-03
2.911000000000000000e+03 1.705763626098632812e+01 2.251842689514160156e+01 -1.537324041128158569e-01 4.177436232566833496e-02 -3.358741104602813721e-02 3.441666811704635620e-02
2.912000000000000000e+03 7.315793514251708984e+00 -3.539544296264648438e+01 5.650252103805541992e-03 -3.558786809444427490e-01 -1.050685271620750427e-01 -2.598856762051582336e-02
2.913000000000000000e+03 5.192988967895507812e+01 3.414978790283203125e+01 -1.469555050134658813e-01 2.141715764999389648e+00 5.984280705451965332e-01 6.339964866638183594e-01
2.914000000000000000e+03 4.902099227905273438e+01 -1.710469126701354980e+00 2.301231384277343750e+00 7.970787525177001953e+00 3.081605672836303711e+00 -1.477033138275146484e+00
2.915000000000000000e+03 3.565231323242187500e+01 -1.542221164703369141e+01 1.242041587829589844e+00 6.759006381034851074e-01 5.753826498985290527e-01 -1.094017401337623596e-01
2.916000000000000000e+03 2.479381942749023438e+01 -5.282510757446289062e+00 -9.741792678833007812e-01 2.347200363874435425e-01 -2.218377739191055298e-01 2.033793367445468903e-02
2.917000000000000000e+03 4.498184967041015625e+01 -2.037359774112701416e-01 2.773890972137451172e+00 3.845320224761962891e+00 1.985763311386108398e+00 3.550381660461425781e+00
2.918000000000000000e+03 4.476530075073242188e+01 -4.641105532646179199e-01 2.318629980087280273e+00 3.656764745712280273e+00 1.792618513107299805e+00 3.333134412765502930e+00
2.919000000000000000e+03 4.572566223144531250e+01 3.911505222320556641e+00 1.478965282440185547e+00 9.399436950683593750e+00 3.263520717620849609e+00 -3.649378061294555664e+00
2.920000000000000000e+03 2.557287454605102539e+00 3.599038600921630859e+00 3.743949928320944309e-04 7.445739465765655041e-04 3.356906818225979805e-04 -1.123971887864172459e-03
2.921000000000000000e+03 4.558332443237304688e+01 -2.966793440282344818e-02 3.293018102645874023e+00 6.504964828491210938e+00 2.939394950866699219e+00 4.916452407836914062e+00
2.922000000000000000e+03 4.568542098999023438e+01 -9.089974761009216309e-01 1.297259926795959473e+00 7.791160106658935547e+00 2.726526021957397461e+00 4.288076400756835938e+00
2.923000000000000000e+03 4.504925155639648438e+01 4.867134571075439453e+00 1.456988692283630371e+00 5.883476257324218750e+00 2.202139377593994141e+00 -1.917004704475402832e+00
2.924000000000000000e+03 4.391719436645507812e+01 6.450110912322998047e+00 6.962041258811950684e-01 3.520167589187622070e+00 1.264911532402038574e+00 -1.486918687820434570e+00
2.925000000000000000e+03 6.828665924072265625e+01 -2.904809570312500000e+01 -1.280280828475952148e+00 5.985826492309570312e+00 1.411663770675659180e+00 3.331668376922607422e-01
2.926000000000000000e+03 7.313198852539062500e+01 -1.364505004882812500e+01 7.504357695579528809e-01 8.394493103027343750e+00 2.743478775024414062e+00 5.635367035865783691e-01
2.927000000000000000e+03 5.580581283569335938e+01 -1.634469747543334961e+00 3.543946981430053711e+00 2.070307880640029907e-01 1.125293374061584473e+00 -6.572691798210144043e-01
2.928000000000000000e+03 6.083556747436523438e+01 -3.935575485229492188e-01 1.869652986526489258e+00 1.027856826782226562e+00 8.692529201507568359e-01 5.895101651549339294e-02
2.929000000000000000e+03 3.878784561157226562e+01 -2.550190353393554688e+01 9.284767508506774902e-01 3.934004068374633789e+00 1.458744287490844727e+00 1.412958383560180664e+00
2.930000000000000000e+03 1.461667442321777344e+01 -2.916962432861328125e+01 1.685528904199600220e-01 2.346055209636688232e-01 1.209475249052047729e-01 -2.005149573087692261e-01
2.931000000000000000e+03 1.671504974365234375e+01 -2.950221443176269531e+01 2.156371921300888062e-01 2.903894186019897461e-01 1.518079787492752075e-01 -2.274768799543380737e-01
2.932000000000000000e+03 4.221614456176757812e+01 -3.108239889144897461e+00 -5.895935893058776855e-01 2.463711738586425781e+00 5.622354149818420410e-01 1.561539888381958008e+00
2.933000000000000000e+03 5.056850051879882812e+01 2.551675987243652344e+01 -1.150636076927185059e+00 3.233764648437500000e+00 6.249385476112365723e-01 9.685815572738647461e-01
2.934000000000000000e+03 9.670844078063964844e+00 -2.378168487548828125e+01 2.375103682279586792e-01 -8.394620381295681000e-03 6.873472779989242554e-02 -2.007521092891693115e-01
2.935000000000000000e+03 4.492174911499023438e+01 -7.637353539466857910e-01 1.847401261329650879e+00 4.701687812805175781e+00 1.964726686477661133e+00 3.621244668960571289e+00
2.936000000000000000e+03 5.076910018920898438e+01 -3.437627077102661133e+00 1.428023457527160645e+00 4.365169048309326172e+00 1.737957835197448730e+00 -2.787958383560180664e-01
2.937000000000000000e+03 5.627360153198242188e+01 -3.734214067459106445e+00 1.792969226837158203e+00 4.685128480195999146e-02 5.519461631774902344e-01 -1.182497382164001465e+00
2.938000000000000000e+03 3.700520706176757812e+01 -6.123463630676269531e+00 -1.772855401039123535e+00 2.378915995359420776e-01 -4.604891240596771240e-01 -1.681670248508453369e-01
2.939000000000000000e+03 4.333003997802734375e+01 1.395778656005859375e+01 8.804493546485900879e-01 4.116777420043945312e+00 1.499168038368225098e+00 -1.603858470916748047e+00
2.940000000000000000e+03 4.666822433471679688e+01 -2.400531530380249023e+00 -6.897072196006774902e-01 9.089581489562988281e+00 2.519962310791015625e+00 2.469481229782104492e+00
2.941000000000000000e+03 3.884178924560546875e+01 3.023754882812500000e+01 -3.290665745735168457e-01 1.967365384101867676e+00 4.914896488189697266e-01 -3.945856988430023193e-01
2.942000000000000000e+03 4.577864074707031250e+01 1.841300201416015625e+01 8.150500804185867310e-02 4.917810916900634766e+00 1.499794840812683105e+00 -6.835635900497436523e-01
2.943000000000000000e+03 4.681288242340087891e+00 -2.889998245239257812e+01 4.255741089582443237e-02 -5.278050303459167480e-01 -1.455742865800857544e-01 -5.248169600963592529e-02
2.944000000000000000e+03 4.442850494384765625e+01 -2.115761280059814453e+00 2.779717445373535156e-01 4.784761428833007812e+00 1.518820047378540039e+00 3.079408884048461914e+00
2.945000000000000000e+03 4.918485260009765625e+01 -3.342075729370117188e+01 -6.724103093147277832e-01 2.090830564498901367e+00 4.255260825157165527e-01 -8.803547620773315430e-01
2.946000000000000000e+03 4.486109161376953125e+01 -3.056198501586914062e+01 -6.469122171401977539e-01 3.739338874816894531e+00 9.277280569076538086e-01 -1.695445179939270020e-01
2.947000000000000000e+03 4.405283355712890625e+01 -1.372130751609802246e+00 9.921458363533020020e-01 3.461630821228027344e+00 1.336133003234863281e+00 2.686599969863891602e+00
2.948000000000000000e+03 4.414289855957031250e+01 -9.602859616279602051e-01 1.450042605400085449e+00 2.916920661926269531e+00 1.310088992118835449e+00 2.575928449630737305e+00
2.949000000000000000e+03 4.351430130004882812e+01 -3.155981254577636719e+01 -6.437654495239257812e-01 3.744656085968017578e+00 9.302671551704406738e-01 -9.193978272378444672e-03
2.950000000000000000e+03 6.099288558959960938e+01 -7.716696262359619141e+00 -5.032965540885925293e-02 1.082338213920593262e+00 3.096025884151458740e-01 -9.219781756401062012e-01
2.951000000000000000e+03 4.101821136474609375e+01 -1.990096473693847656e+01 1.003795027732849121e+00 5.077265739440917969e+00 1.824318170547485352e+00 1.212417840957641602e+00
2.952000000000000000e+03 5.683797359466552734e+00 -2.377888679504394531e+01 1.089063957333564758e-01 -3.820557892322540283e-01 -8.194481581449508667e-02 -1.751655638217926025e-01
2.953000000000000000e+03 3.090976905822753906e+01 -9.863506317138671875e+00 -8.602306991815567017e-02 -3.596751093864440918e-01 -1.337094455957412720e-01 -3.851948678493499756e-01
2.954000000000000000e+03 4.952580451965332031e+00 -2.475530815124511719e+01 7.663823664188385010e-02 -4.532051682472229004e-01 -1.129700765013694763e-01 -1.346365511417388916e-01
2.955000000000000000e+03 5.960146713256835938e+01 2.749269294738769531e+01 -4.786618649959564209e-01 6.823965311050415039e-01 6.112040579319000244e-02 5.258790254592895508e-01
2.956000000000000000e+03 4.911594009399414062e+01 2.551654624938964844e+01 -1.176851749420166016e+00 3.635349988937377930e+00 7.375494241714477539e-01 5.721399188041687012e-01
2.957000000000000000e+03 7.216259765625000000e+01 1.455539226531982422e+01 1.344530582427978516e+00 9.321740150451660156e+00 3.199881076812744141e+00 3.161392211914062500e-01
2.958000000000000000e+03 7.314505004882812500e+01 1.458870792388916016e+01 1.190414190292358398e+00 8.288210868835449219e+00 2.843587636947631836e+00 3.876584172248840332e-01
2.959000000000000000e+03 5.693251419067382812e+01 -3.918196678161621094e+00 1.514832973480224609e+00 1.708295494318008423e-01 5.056987404823303223e-01 -1.147725343704223633e+00
2.960000000000000000e+03 7.340254974365234375e+01 -2.535516548156738281e+01 -4.661212861537933350e-01 8.439594268798828125e+00 2.392041921615600586e+00 -1.291651844978332520e+00
2.961000000000000000e+03 7.341459655761718750e+01 -1.600307846069335938e+01 1.321382641792297363e+00 8.383005142211914062e+00 2.911316394805908203e+00 1.148203387856483459e-01
2.962000000000000000e+03 5.873219299316406250e+01 -5.317835807800292969e+00 6.435635685920715332e-01 5.296820998191833496e-01 3.519736826419830322e-01 -1.192363023757934570e+00
2.963000000000000000e+03 2.248703193664550781e+01 2.981895637512207031e+01 6.641326844692230225e-02 1.676867902278900146e-01 7.023001462221145630e-02 -2.202930860221385956e-02
2.964000000000000000e+03 3.953671264648437500e+01 -2.208559417724609375e+01 8.115198612213134766e-01 4.179344654083251953e+00 1.497259378433227539e+00 1.451444268226623535e+00
2.965000000000000000e+03 4.554256439208984375e+01 -4.322593212127685547e-01 2.263342857360839844e+00 6.891459465026855469e+00 2.746440649032592773e+00 4.589859008789062500e+00
2.966000000000000000e+03 5.111122131347656250e+00 -1.026924991607666016e+01 -6.548400223255157471e-02 -1.087424010038375854e-01 -5.226792022585868835e-02 -1.055478975176811218e-01
2.967000000000000000e+03 1.948588752746582031e+01 -8.991453170776367188e+00 -1.825499832630157471e-01 1.480940282344818115e-01 -1.033678557723760605e-02 -3.575781285762786865e-01
2.968000000000000000e+03 3.110066795349121094e+01 2.570819473266601562e+01 2.978952415287494659e-02 6.348598003387451172e-01 1.993948072195053101e-01 -4.116204679012298584e-01
2.969000000000000000e+03 4.363408279418945312e+01 -1.000562858581542969e+01 -3.768278062343597412e-01 5.916985511779785156e+00 1.662047266960144043e+00 1.039665579795837402e+00
2.970000000000000000e+03 3.907998275756835938e+01 -2.696119689941406250e+01 7.984280586242675781e-01 3.881350994110107422e+00 1.403933763504028320e+00 1.204098939895629883e+00
2.971000000000000000e+03 6.602995300292968750e+01 2.397228240966796875e+00 2.663880884647369385e-01 4.368470668792724609e+00 1.390457510948181152e+00 7.233356237411499023e-01
2.972000000000000000e+03 4.428545379638671875e+01 -3.113725423812866211e+00 -5.205714106559753418e-01 5.125878810882568359e+00 1.381592273712158203e+00 2.844941854476928711e+00
2.973000000000000000e+03 7.437661743164062500e+01 3.001108741760253906e+01 -3.932577669620513916e-01 7.658904552459716797e+00 2.179693937301635742e+00 -4.080222919583320618e-02
2.974000000000000000e+03 7.604209899902343750e+01 1.925906753540039062e+01 2.498807013034820557e-01 7.510254383087158203e+00 2.328040599822998047e+00 1.069732069969177246e+00
2.975000000000000000e+03 7.509247589111328125e+01 1.275719547271728516e+01 5.384536981582641602e-01 7.510656356811523438e+00 2.414733171463012695e+00 -1.340042948722839355e-01
2.976000000000000000e+03 2.525985145568847656e+01 -7.365039825439453125e+00 -8.049840927124023438e-01 2.356357276439666748e-01 -1.708045154809951782e-01 -3.826620280742645264e-01
2.977000000000000000e+03 5.982318401336669922e+00 -1.024320983886718750e+01 -8.620158582925796509e-02 -1.106877774000167847e-01 -5.906680971384048462e-02 -1.137992441654205322e-01
2.978000000000000000e+03 4.212216854095458984e+00 -2.413152503967285156e+01 6.625109165906906128e-02 -5.014837980270385742e-01 -1.305698156356811523e-01 -1.356198489665985107e-01
2.979000000000000000e+03 4.654370117187500000e+01 -3.907313823699951172e+00 -1.601711392402648926e+00 7.704221725463867188e+00 1.830753087997436523e+00 2.534626245498657227e+00
2.980000000000000000e+03 7.399275207519531250e+01 1.436429023742675781e+01 8.839719295501708984e-01 8.069243431091308594e+00 2.685964584350585938e+00 3.257378935813903809e-01
2.981000000000000000e+03 7.409216308593750000e+01 -2.484838104248046875e+01 -2.878805994987487793e-01 8.370836257934570312e+00 2.424886703491210938e+00 -1.420399308204650879e+00
2.982000000000000000e+03 7.434811401367187500e+01 -1.641566085815429688e+01 1.003616929054260254e+00 7.871962547302246094e+00 2.662673711776733398e+00 -1.745902746915817261e-02
2.983000000000000000e+03 7.555616760253906250e+01 -1.424727821350097656e+01 5.112835168838500977e-01 7.308822631835937500e+00 2.346031904220581055e+00 5.212753415107727051e-01
2.984000000000000000e+03 6.188580703735351562e+01 -5.943446159362792969e+00 3.976261317729949951e-01 1.661679387092590332e+00 6.177916526794433594e-01 -1.164439797401428223e+00
2.985000000000000000e+03 1.551864337921142578e+01 -4.991006374359130859e+00 -3.059731721878051758e-01 4.848001990467309952e-03 -9.033754467964172363e-02 -2.282625138759613037e-01
2.986000000000000000e+03 6.645721912384033203e+00 -4.546902179718017578e+00 -4.592305794358253479e-02 -3.574140742421150208e-02 -2.449933998286724091e-02 -4.119969904422760010e-02
2.987000000000000000e+03 3.239530563354492188e+01 -9.677265167236328125e+00 -1.014819294214248657e-01 -3.237861692905426025e-01 -1.275804340839385986e-01 -2.299038171768188477e-01
2.988000000000000000e+03 3.847980880737304688e+01 -9.969811439514160156e+00 1.495850384235382080e-01 1.734015583992004395e+00 5.650801658630371094e-01 4.004985690116882324e-01
2.989000000000000000e+03 3.913268280029296875e+01 -1.099084568023681641e+01 4.970003366470336914e-01 2.389814376831054688e+00 8.660444021224975586e-01 4.704353511333465576e-01
2.990000000000000000e+03 7.510630798339843750e+01 -1.711796188354492188e+01 8.775237202644348145e-01 7.524333477020263672e+00 2.520557165145874023e+00 -1.894228309392929077e-01
2.991000000000000000e+03 7.421964263916015625e+01 -1.724431991577148438e+01 1.124204397201538086e+00 7.996015548706054688e+00 2.736065864562988281e+00 -2.899755239486694336e-01
2.992000000000000000e+03 4.682895660400390625e+01 2.099167823791503906e+01 -5.024863481521606445e-01 4.641421794891357422e+00 1.241680741310119629e+00 -2.244342565536499023e-01
2.993000000000000000e+03 4.734936523437500000e+01 -4.334039688110351562e+00 -1.697452306747436523e+00 7.684728622436523438e+00 1.796182870864868164e+00 2.132474660873413086e+00
2.994000000000000000e+03 7.575421905517578125e+01 -2.098141098022460938e+01 5.231544375419616699e-01 7.555641651153564453e+00 2.423638820648193359e+00 -1.137256383895874023e+00
2.995000000000000000e+03 6.750426769256591797e+00 2.575981140136718750e+01 -1.806582883000373840e-02 -2.115076035261154175e-02 -1.176497619599103928e-02 5.684258043766021729e-02
2.996000000000000000e+03 1.357560348510742188e+01 -6.297126293182373047e+00 -1.736053526401519775e-01 -6.744538992643356323e-02 -7.231522351503372192e-02 -2.333112359046936035e-01
2.997000000000000000e+03 7.557624053955078125e+01 1.532518005371093750e+01 6.017929911613464355e-01 7.421886444091796875e+00 2.407103776931762695e+00 3.612648844718933105e-01
2.998000000000000000e+03 1.316752624511718750e+01 7.392455101013183594e+00 1.213224139064550400e-03 -2.364902989938855171e-03 -3.455036785453557968e-04 1.858190866187214851e-03
2.999000000000000000e+03 7.257079601287841797e+00 -5.228821754455566406e+00 -5.995685234665870667e-02 -4.830443486571311951e-02 -3.247838467359542847e-02 -5.970481410622596741e-02
3.000000000000000000e+03 6.562011718750000000e+01 -3.702631235122680664e+00 1.784240454435348511e-01 3.999807596206665039e+00 1.253469467163085938e+00 -7.674321532249450684e-01
3.001000000000000000e+03 9.160057067871093750e+00 -9.406559944152832031e+00 -1.122381836175918579e-01 -1.399495899677276611e-01 -7.565633207559585571e-02 -1.411957293748855591e-01
3.002000000000000000e+03 1.351232242584228516e+01 -7.126343250274658203e+00 -1.569711714982986450e-01 -9.330826252698898315e-02 -7.508382946252822876e-02 -2.573622465133666992e-01
3.003000000000000000e+03 7.848792076110839844e+00 5.976755142211914062e+00 1.747542526572942734e-03 -1.563412137329578400e-03 5.523913205252029002e-05 -4.617400118149816990e-04
3.004000000000000000e+03 6.597838401794433594e+00 -2.956299209594726562e+01 6.402198970317840576e-02 -3.501217663288116455e-01 -8.582993596792221069e-02 -6.051499024033546448e-02
3.005000000000000000e+03 7.508704376220703125e+01 5.101766586303710938e+00 -1.752407997846603394e-01 7.237319946289062500e+00 2.118623733520507812e+00 -5.343565940856933594e-01
3.006000000000000000e+03 9.178146362304687500e+00 -1.043239593505859375e+01 -1.271120160818099976e-01 -1.591927558183670044e-01 -8.589142560958862305e-02 -1.516287326812744141e-01
3.007000000000000000e+03 7.771163940429687500e+00 6.743447780609130859e+00 -3.937507863156497478e-04 -1.913044718094170094e-03 -6.920386804267764091e-04 -1.484877895563840866e-03
3.008000000000000000e+03 7.859222888946533203e+00 -7.733214855194091797e+00 -8.404038101434707642e-02 -9.767178446054458618e-02 -5.451365187764167786e-02 -1.050379201769828796e-01
3.009000000000000000e+03 1.930037879943847656e+01 -7.074286937713623047e+00 -3.631789982318878174e-01 1.190780922770500183e-01 -7.323026657104492188e-02 -3.045271933078765869e-01
3.010000000000000000e+03 7.055429840087890625e+01 -4.963725090026855469e+00 -5.638955831527709961e-01 6.688172340393066406e+00 1.837283015251159668e+00 -2.656103670597076416e-01
3.011000000000000000e+03 7.298853302001953125e+01 -5.946018218994140625e+00 -5.930705666542053223e-01 7.347007274627685547e+00 2.026180982589721680e+00 1.817526370286941528e-01
3.012000000000000000e+03 6.930899047851562500e+01 4.332177639007568359e+00 -3.307149112224578857e-01 6.598677635192871094e+00 1.880388855934143066e+00 3.364359140396118164e-01
3.013000000000000000e+03 7.413080596923828125e+01 4.146838188171386719e+00 -2.829059362411499023e-01 7.297945976257324219e+00 2.104511976242065430e+00 -4.512068927288055420e-01
3.014000000000000000e+03 6.957319641113281250e+01 7.014932036399841309e-01 -3.258073925971984863e-01 6.096505165100097656e+00 1.731209278106689453e+00 8.663768880069255829e-03
3.015000000000000000e+03 9.391391754150390625e+00 9.166656494140625000e+00 -1.766086788848042488e-03 -3.934793174266815186e-03 -1.710264012217521667e-03 -9.242891683243215084e-04
3.016000000000000000e+03 9.129659652709960938e+00 1.023296260833740234e+01 -1.826788182370364666e-03 -2.336316043511033058e-03 -1.248931279405951500e-03 2.476800545991864055e-06
3.017000000000000000e+03 7.349439239501953125e+01 3.475580215454101562e+00 -3.310331702232360840e-01 7.187118530273437500e+00 2.056825637817382812e+00 -3.238751888275146484e-01
3.018000000000000000e+03 1.004740810394287109e+01 6.461472988128662109e+00 1.966219162568449974e-03 -2.566937357187271118e-03 -1.802154729375615716e-04 4.645384251489304006e-05
3.019000000000000000e+03 7.412213134765625000e+01 -3.424447536468505859e+00 -4.120485186576843262e-01 7.187867164611816406e+00 2.032745599746704102e+00 7.474424690008163452e-02
3.020000000000000000e+03 4.386148834228515625e+01 3.064579248428344727e+00 -8.575820177793502808e-02 -2.354985103011131287e-02 -3.279241546988487244e-02 8.514372110366821289e-01
3.021000000000000000e+03 4.225933837890625000e+01 3.515798568725585938e+00 6.271031498908996582e-01 -1.007097244262695312e+00 -1.139982342720031738e-01 6.835727691650390625e-01
3.022000000000000000e+03 4.347577667236328125e+01 2.343693494796752930e+00 -2.109201669692993164e+00 5.345122143626213074e-02 -6.167250871658325195e-01 6.521332263946533203e-01
3.023000000000000000e+03 4.367036819458007812e+01 2.578257560729980469e+00 -1.398859620094299316e+00 -4.067164286971092224e-02 -4.318593740463256836e-01 1.009751558303833008e+00
3.024000000000000000e+03 4.371812820434570312e+01 2.931562662124633789e+00 -5.658504962921142578e-01 -1.001092568039894104e-01 -1.997879147529602051e-01 1.031099319458007812e+00
3.025000000000000000e+03 4.379346847534179688e+01 3.259822130203247070e+00 2.319199293851852417e-01 -5.238540098071098328e-02 5.386035889387130737e-02 8.609776496887207031e-01
3.026000000000000000e+03 4.364243316650390625e+01 3.529844999313354492e+00 4.810562133789062500e-01 3.723275661468505859e-02 1.554866880178451538e-01 7.191200852394104004e-01
3.027000000000000000e+03 4.386523056030273438e+01 2.900418043136596680e+00 -5.437961220741271973e-01 -4.234361648559570312e-02 -1.758419126272201538e-01 1.087252497673034668e+00
3.028000000000000000e+03 4.298049545288085938e+01 2.638483524322509766e+00 -8.581714034080505371e-01 -1.004625856876373291e-01 -2.875902056694030762e-01 6.008347868919372559e-01
3.029000000000000000e+03 4.330181121826171875e+01 2.857175111770629883e+00 -8.003526329994201660e-01 -2.805128693580627441e-01 -3.242596387863159180e-01 1.067886352539062500e+00
3.030000000000000000e+03 4.317415237426757812e+01 3.414920091629028320e+00 1.020848602056503296e-01 -3.159154355525970459e-01 -6.414917111396789551e-02 1.002749323844909668e+00
3.031000000000000000e+03 4.268439102172851562e+01 3.328434944152832031e+00 -1.174498796463012695e-01 -6.887738108634948730e-01 -2.418671101331710815e-01 7.377018332481384277e-01
3.032000000000000000e+03 4.242265701293945312e+01 3.288176059722900391e+00 4.530878365039825439e-02 -5.936340689659118652e-01 -1.644975841045379639e-01 7.281720042228698730e-01
3.033000000000000000e+03 4.260482025146484375e+01 3.654651165008544922e+00 2.135225385427474976e-01 -8.830032348632812500e-01 -2.008442133665084839e-01 6.660552620887756348e-01
3.034000000000000000e+03 4.379630279541015625e+01 2.751169681549072266e+00 -1.007080793380737305e+00 -5.993921682238578796e-02 -3.201059997081756592e-01 1.092294692993164062e+00
3.035000000000000000e+03 4.350885009765625000e+01 3.090776205062866211e+00 -2.361638545989990234e-01 -4.755162447690963745e-02 -8.511464297771453857e-02 9.173435568809509277e-01
3.036000000000000000e+03 4.205569839477539062e+01 3.315896749496459961e+00 -1.268940791487693787e-02 -1.141216397285461426e+00 -3.461717367172241211e-01 4.387342333793640137e-01
3.037000000000000000e+03 4.250067138671875000e+01 2.972325086593627930e+00 -4.124327003955841064e-01 -5.975666046142578125e-01 -3.029997944831848145e-01 7.004185914993286133e-01
3.038000000000000000e+03 4.243230438232421875e+01 2.582534074783325195e+00 -3.101529777050018311e-01 -3.095165491104125977e-01 -1.859008669853210449e-01 3.248748779296875000e-01
3.039000000000000000e+03 4.216970062255859375e+01 3.734755992889404297e+00 -5.714207291603088379e-01 -1.814670443534851074e+00 -7.158273458480834961e-01 6.021245718002319336e-01
3.040000000000000000e+03 4.208045578002929688e+01 3.740078926086425781e+00 -4.145507216453552246e-01 -1.825187802314758301e+00 -6.719215512275695801e-01 2.243539690971374512e-02
3.041000000000000000e+03 4.216744995117187500e+01 3.391654729843139648e+00 1.084758564829826355e-01 -1.487107276916503906e+00 -4.135894477367401123e-01 3.102700114250183105e-01
3.042000000000000000e+03 4.206583023071289062e+01 2.919983148574829102e+00 -1.094095557928085327e-01 -7.475764751434326172e-01 -2.570958137512207031e-01 2.247596383094787598e-01
3.043000000000000000e+03 4.300907135009765625e+01 3.167018651962280273e+00 -1.106978580355644226e-01 -3.966593146324157715e-01 -1.522071510553359985e-01 9.268094301223754883e-01
3.044000000000000000e+03 4.228111648559570312e+01 3.133692979812622070e+00 -2.055312395095825195e-01 -4.920699298381805420e-01 -2.092803567647933960e-01 7.058843970298767090e-01
3.045000000000000000e+03 4.279193878173828125e+01 3.005046129226684570e+00 -1.890273988246917725e-01 -4.383629560470581055e-01 -1.882171034812927246e-01 8.355973958969116211e-01
3.046000000000000000e+03 4.193964767456054688e+01 3.257905006408691406e+00 -5.410158261656761169e-02 -9.306524991989135742e-01 -2.954262197017669678e-01 2.206937670707702637e-01
3.047000000000000000e+03 4.199726104736328125e+01 3.630208253860473633e+00 2.214528433978557587e-02 -9.668901562690734863e-01 -2.834234535694122314e-01 1.159397363662719727e-01
3.048000000000000000e+03 4.206441879272460938e+01 3.620199680328369141e+00 5.090170353651046753e-02 -1.060406565666198730e+00 -3.028514385223388672e-01 1.136327609419822693e-01
3.049000000000000000e+03 4.204666137695312500e+01 3.488434553146362305e+00 3.657848760485649109e-02 -1.254052162170410156e+00 -3.652421236038208008e-01 2.218955159187316895e-01
3.050000000000000000e+03 4.199163055419921875e+01 3.409841299057006836e+00 -7.593145966529846191e-02 -9.933079481124877930e-01 -3.207718133926391602e-01 3.809379637241363525e-01
3.051000000000000000e+03 1.771456718444824219e+01 -1.730482935905456543e+00 -5.688532590866088867e-01 6.034129299223423004e-03 -1.688457280397415161e-01 3.329810872673988342e-02
3.052000000000000000e+03 1.610380172729492188e+01 -2.246368169784545898e+00 -3.939131498336791992e-01 7.505824323743581772e-03 -1.159222051501274109e-01 -5.348644033074378967e-02
3.053000000000000000e+03 1.839386558532714844e+01 -2.573463201522827148e+00 -5.980060696601867676e-01 3.389106364920735359e-03 -1.783850938081741333e-01 -6.323520839214324951e-02
3.054000000000000000e+03 1.696483802795410156e+01 -1.623387813568115234e+00 -4.779135882854461670e-01 -5.937159527093172073e-03 -1.451552212238311768e-01 2.369300648570060730e-02
3.055000000000000000e+03 1.846432685852050781e+01 -1.836017131805419922e+00 -6.891650557518005371e-01 -1.896163634955883026e-02 -2.124380022287368774e-01 2.637227438390254974e-02
3.056000000000000000e+03 1.763043975830078125e+01 -2.465977191925048828e+00 -5.437331199645996094e-01 5.163081921637058258e-03 -1.615710109472274780e-01 -6.288157403469085693e-02
3.057000000000000000e+03 1.621526145935058594e+01 -1.514777898788452148e+00 -3.980446159839630127e-01 2.949615940451622009e-03 -1.185285001993179321e-01 2.142968028783798218e-02
3.058000000000000000e+03 1.686704444885253906e+01 -2.356930017471313477e+00 -4.643513560295104980e-01 1.647626981139183044e-02 -1.343625187873840332e-01 -5.056863278150558472e-02
3.059000000000000000e+03 1.922108840942382812e+01 -1.901556968688964844e+00 -7.735410928726196289e-01 -1.027319813147187233e-03 -2.323705255985260010e-01 1.177051570266485214e-02
3.060000000000000000e+03 2.075429344177246094e+01 -2.688717842102050781e+00 -7.606096267700195312e-01 -7.022844161838293076e-03 -2.302897423505783081e-01 -4.216855391860008240e-02
3.061000000000000000e+03 1.917129516601562500e+01 -2.640394687652587891e+00 -6.578060388565063477e-01 -1.361547876149415970e-02 -2.014264613389968872e-01 -5.376265197992324829e-02
3.062000000000000000e+03 2.154723358154296875e+01 -2.711827993392944336e+00 -7.486828565597534180e-01 -1.897492562420666218e-03 -2.251741141080856323e-01 -1.545650977641344070e-02
3.063000000000000000e+03 2.151402282714843750e+01 -1.970406651496887207e+00 -9.101224541664123535e-01 -3.351809829473495483e-02 -2.830921709537506104e-01 -1.198655925691127777e-02
3.064000000000000000e+03 1.998429870605468750e+01 -1.925167441368103027e+00 -8.089535832405090332e-01 -1.035214774310588837e-02 -2.457917183637619019e-01 4.413488495629280806e-04
3.065000000000000000e+03 1.996217155456542969e+01 -2.664836645126342773e+00 -7.213388085365295410e-01 1.177914440631866455e-02 -2.128679007291793823e-01 -3.533291071653366089e-02
3.066000000000000000e+03 2.074875450134277344e+01 -1.948217391967773438e+00 -8.521562814712524414e-01 1.486050710082054138e-02 -2.511887252330780029e-01 5.339158698916435242e-03
3.067000000000000000e+03 2.611742591857910156e+01 -1.812861442565917969e+00 -1.547694355249404907e-01 -6.437821686267852783e-02 -6.574429571628570557e-02 1.063005626201629639e-01
3.068000000000000000e+03 2.535475349426269531e+01 -1.400197505950927734e+00 -1.458664685487747192e-01 1.725161098875105381e-03 -4.324239119887351990e-02 4.384013265371322632e-02
3.069000000000000000e+03 2.464254951477050781e+01 -1.533933281898498535e+00 -3.285270631313323975e-01 8.969495072960853577e-03 -9.586726874113082886e-02 4.727640375494956970e-02
3.070000000000000000e+03 2.386987686157226562e+01 -1.667217731475830078e+00 -5.128257870674133301e-01 3.618894517421722412e-02 -1.429910659790039062e-01 2.094061812385916710e-03
3.071000000000000000e+03 2.308257675170898438e+01 -1.796454071998596191e+00 -6.743968725204467773e-01 -8.260694812634028494e-06 -2.023215442895889282e-01 -3.348112851381301880e-02
3.072000000000000000e+03 2.229188537597656250e+01 -1.919883370399475098e+00 -8.479422330856323242e-01 -2.595726633444428444e-03 -2.551614046096801758e-01 -4.378595203161239624e-02
3.073000000000000000e+03 2.236002731323242188e+01 -2.659403562545776367e+00 -7.378069758415222168e-01 3.462089924141764641e-03 -2.203034758567810059e-01 4.107497259974479675e-02
3.074000000000000000e+03 2.559163856506347656e+01 -2.120468139648437500e+00 -4.262853562831878662e-01 -3.279744088649749756e-02 -1.377248466014862061e-01 2.050349712371826172e-01
3.075000000000000000e+03 2.483724784851074219e+01 -2.259016275405883789e+00 -5.450872778892517090e-01 8.872286230325698853e-02 -1.369093209505081177e-01 1.465315520763397217e-01
3.076000000000000000e+03 2.402239036560058594e+01 -2.397113323211669922e+00 -6.278318762779235840e-01 7.156635820865631104e-02 -1.668796688318252563e-01 1.097130998969078064e-01
3.077000000000000000e+03 2.319290542602539062e+01 -2.531162023544311523e+00 -7.162631154060363770e-01 7.035691291093826294e-02 -1.937718540430068970e-01 7.428728789091110229e-02
3.078000000000000000e+03 2.371628379821777344e+01 -9.129138588905334473e-01 9.149004472419619560e-05 1.809651876101270318e-04 8.173657261068001390e-05 8.473480193060822785e-06
3.079000000000000000e+03 2.216311264038085938e+01 -4.021605253219604492e-01 -9.256061457563191652e-05 -2.444168494548648596e-04 -1.010932392091490328e-04 8.320106644532643259e-06
3.080000000000000000e+03 2.297673416137695312e+01 -1.029608249664306641e+00 -2.112262336595449597e-05 -2.525585005059838295e-04 -8.210433588828891516e-05 -4.023699148092418909e-05
3.081000000000000000e+03 2.288781547546386719e+01 -2.915260493755340576e-01 -2.859328742488287389e-05 3.708855365402996540e-04 1.026876707328483462e-04 1.516775682830484584e-05
3.082000000000000000e+03 2.359944915771484375e+01 -1.773885339498519897e-01 -1.110549128497950733e-04 -3.539025783538818359e-04 -1.394872524542734027e-04 -2.538585104048252106e-04
3.083000000000000000e+03 2.222411346435546875e+01 -1.142714738845825195e+00 -9.856517863227054477e-06 2.653947740327566862e-04 7.666148303542286158e-05 -2.443883568048477173e-05
3.084000000000000000e+03 2.425791740417480469e+01 -6.540381163358688354e-02 3.122820926364511251e-04 -2.896749538194853812e-05 8.499437535647302866e-05 2.311753778485581279e-04
3.085000000000000000e+03 2.440266609191894531e+01 -7.983722686767578125e-01 -7.434270082740113139e-05 -1.765554625308141112e-04 -7.526944682467728853e-05 6.906414637342095375e-05
3.086000000000000000e+03 2.494900894165039062e+01 -5.251957774162292480e-01 1.785392305464483798e-05 1.402036432409659028e-04 4.741727025248110294e-05 -2.208387195423711091e-05
3.087000000000000000e+03 2.074404335021972656e+01 -1.171212673187255859e+00 6.363473517012607772e-07 1.641416019992902875e-04 4.943338353768922389e-05 -1.882860260593588464e-06
3.088000000000000000e+03 2.073850631713867188e+01 -4.307121932506561279e-01 -1.727820344967767596e-04 -1.791098038665950298e-04 -1.055675529642030597e-04 -1.455581696063745767e-05
3.089000000000000000e+03 2.144596099853515625e+01 -4.485336542129516602e-01 1.389967947034165263e-04 2.156039117835462093e-04 1.063802119460888207e-04 -3.524943895172327757e-05
3.090000000000000000e+03 1.932354164123535156e+01 -3.847304880619049072e-01 -5.533124931389465928e-05 -1.665015734033659101e-04 -6.654984463239088655e-05 -1.379351579089416191e-05
3.091000000000000000e+03 2.000878715515136719e+01 -1.149096250534057617e+00 -9.712841711007058620e-05 -1.289854553760960698e-04 -6.783416756661608815e-05 -1.334406806563492864e-05
3.092000000000000000e+03 1.927374839782714844e+01 -1.123568177223205566e+00 2.756597496045287699e-05 1.404267968609929085e-04 5.039783354732207954e-05 5.626087295240722597e-05
3.093000000000000000e+03 2.147916603088378906e+01 -1.189865589141845703e+00 -9.377642709296196699e-05 -2.197449503000825644e-04 -9.405641321791335940e-05 2.033988312177825719e-05
3.094000000000000000e+03 2.003091430664062500e+01 -4.094271957874298096e-01 1.780630263965576887e-04 2.259511093143373728e-04 1.212042407132685184e-04 9.949370723916217685e-05
3.095000000000000000e+03 1.706781387329101562e+01 -8.498843908309936523e-01 2.502872666809707880e-04 -7.553991599706932902e-05 5.242420229478739202e-05 3.517702498356811702e-05
3.096000000000000000e+03 1.780313491821289062e+01 -9.543285965919494629e-01 1.796635333448648453e-04 1.066722252289764583e-04 8.590072684455662966e-05 5.525194501387886703e-05
3.097000000000000000e+03 1.633273124694824219e+01 -7.435764670372009277e-01 5.062949494458734989e-04 6.482921889983117580e-06 1.538333599455654621e-04 2.784963908197823912e-05
3.098000000000000000e+03 1.853857803344726562e+01 -1.058050036430358887e+00 7.257980087160831317e-06 -1.308511855313554406e-04 -3.707795985974371433e-05 3.789627953665331006e-06
3.099000000000000000e+03 1.860903930664062500e+01 -3.206039965152740479e-01 2.356366749154403806e-04 1.720666623441502452e-04 1.223110011778771877e-04 1.474977325415238738e-04
3.100000000000000000e+03 1.644419097900390625e+01 -1.198618113994598389e-02 4.423521168064326048e-04 -6.425696483347564936e-05 1.134285485022701323e-04 2.163912868127226830e-04
3.101000000000000000e+03 1.788726234436035156e+01 -2.188344895839691162e-01 1.463886583223938942e-04 -1.034316956065595150e-04 1.288708881475031376e-05 1.274159294553101063e-04
3.102000000000000000e+03 1.716560745239257812e+01 -1.163421869277954102e-01 4.946588887833058834e-04 5.923900971538387239e-05 1.661693677306175232e-04 1.873331784736365080e-04
3.103000000000000000e+03 1.425216674804687500e+01 3.718594610691070557e-01 1.437823870219290257e-03 -1.523811515653505921e-04 3.856327966786921024e-04 2.874672063626348972e-04
3.104000000000000000e+03 1.486107063293457031e+01 -4.904564023017883301e-01 1.028278144076466560e-03 -8.333701407536864281e-05 2.834823390003293753e-04 -3.185411333106458187e-05
3.105000000000000000e+03 1.338883495330810547e+01 -2.235203832387924194e-01 1.696635386906564236e-03 -9.990877879317849874e-05 4.790179955307394266e-04 -1.095013212761841714e-04
3.106000000000000000e+03 1.498471641540527344e+01 2.391885817050933838e-01 8.608905482105910778e-04 -4.254174928064458072e-05 2.455046342220157385e-04 2.360664366278797388e-04
3.107000000000000000e+03 1.559718132019042969e+01 -6.234676241874694824e-01 6.589221884496510029e-04 1.433131455996772274e-05 2.019760577240958810e-04 1.515592612122418359e-05
3.108000000000000000e+03 1.571725749969482422e+01 1.068236008286476135e-01 9.023136226460337639e-04 -6.301186658674851060e-05 2.517905377317219973e-04 2.356557379243895411e-04
3.109000000000000000e+03 1.351961708068847656e+01 5.048320889472961426e-01 1.385812647640705109e-03 -5.800409053335897624e-05 3.983425849582999945e-04 1.481591461924836040e-04
3.110000000000000000e+03 1.412495326995849609e+01 -3.571392297744750977e-01 1.255112467333674431e-03 8.007270662346854806e-05 4.005555529147386551e-04 -6.766705337213352323e-05
3.111000000000000000e+03 1.115447902679443359e+01 1.927391290664672852e-01 2.689622342586517334e-03 8.735110895941033959e-05 8.330920245498418808e-04 -3.247356798965483904e-04
3.112000000000000000e+03 1.124617767333984375e+01 9.282501339912414551e-01 2.514892024919390678e-03 -9.597292228136211634e-05 7.256757235154509544e-04 1.557321083964779973e-04
3.113000000000000000e+03 1.040858840942382812e+01 3.243718445301055908e-01 3.265480045229196548e-03 3.514414856908842921e-05 9.901872836053371429e-04 -2.748715633060783148e-04
3.114000000000000000e+03 1.190096187591552734e+01 5.598175525665283203e-02 2.414476824924349785e-03 -5.856610732735134661e-05 7.067731930874288082e-04 -2.300391060998663306e-04
3.115000000000000000e+03 1.277217197418212891e+01 6.438671946525573730e-01 1.976382452994585037e-03 -1.689032505964860320e-04 5.422437679953873158e-04 2.577297273091971874e-04
3.116000000000000000e+03 1.264777946472167969e+01 -8.565847575664520264e-02 1.959653571248054504e-03 8.083804277703166008e-05 6.121475016698241234e-04 -1.957073982339352369e-04
3.117000000000000000e+03 1.048394012451171875e+01 1.062875509262084961e+00 2.259397413581609726e-03 3.143951471429318190e-05 6.872511003166437149e-04 -4.400289617478847504e-05
3.118000000000000000e+03 1.200900745391845703e+01 7.885000705718994141e-01 1.958213048055768013e-03 -9.855087409960106015e-05 5.578986019827425480e-04 3.869140709866769612e-05
3.119000000000000000e+03 9.734361648559570312e+00 1.127145886421203613e+00 2.608440583571791649e-03 6.374591612257063389e-05 8.016559877432882786e-04 -5.578187119681388140e-05
3.120000000000000000e+03 8.896935462951660156e+00 3.830009996891021729e-01 3.157592145726084709e-03 -1.477132718719076365e-05 9.428462362848222256e-04 -4.851213452639058232e-05
3.121000000000000000e+03 8.138064384460449219e+00 3.806286156177520752e-01 2.817917848005890846e-03 -5.380573929869569838e-05 8.292336133308708668e-04 -1.720183790894225240e-04
3.122000000000000000e+03 7.379830837249755859e+00 3.796389997005462646e-01 2.659130608662962914e-03 7.980940426932647824e-05 8.216819842346012592e-04 -7.500161882489919662e-05
3.123000000000000000e+03 5.863903999328613281e+00 3.757120370864868164e-01 1.967698801308870316e-03 1.375354331685230136e-04 6.315702339634299278e-04 -1.132995021180249751e-04
3.124000000000000000e+03 5.320739269256591797e+00 1.112017512321472168e+00 1.565023791044950485e-03 5.909241372137330472e-05 4.872348799835890532e-04 -4.587598668877035379e-04
3.125000000000000000e+03 4.347909450531005859e+00 3.707045614719390869e-01 1.167238340713083744e-03 1.089034558390267193e-04 3.828425251413136721e-04 -1.441660715499892831e-04
3.126000000000000000e+03 2.832280635833740234e+00 3.607113361358642578e-01 4.713395610451698303e-04 8.746119419811293483e-06 1.440257037756964564e-04 -1.456161407986655831e-04
3.127000000000000000e+03 2.076677560806274414e+00 3.580510318279266357e-01 9.177528409054502845e-05 4.869643817073665559e-05 4.214151704218238592e-05 -1.101927773561328650e-04
3.128000000000000000e+03 2.381986141204833984e+00 1.098051071166992188e+00 5.579406279139220715e-04 -3.345197001181077212e-06 1.663786242716014385e-04 -3.589392290450632572e-04
3.129000000000000000e+03 1.333416581153869629e+00 3.665323555469512939e-01 3.401843059691600502e-05 -1.568065454193856567e-05 5.501332452695351094e-06 -5.636359128402546048e-05
3.130000000000000000e+03 1.661404132843017578e+00 1.106532335281372070e+00 7.978421490406617522e-05 2.342811349080875516e-04 9.421960567124187946e-05 -2.611730596981942654e-04
3.131000000000000000e+03 6.549507379531860352e-01 3.948049247264862061e-01 3.488862421363592148e-04 2.318068873137235641e-04 1.742079330142587423e-04 2.730496053118258715e-04
3.132000000000000000e+03 3.114910125732421875e+00 1.100711345672607422e+00 4.993531038053333759e-04 5.352625521481968462e-05 1.658638066146522760e-04 -4.016525053884834051e-04
3.133000000000000000e+03 3.589553356170654297e+00 3.676617443561553955e-01 7.183639099821448326e-04 -4.468872793950140476e-05 2.021025429712608457e-04 -1.722095912555232644e-04
3.134000000000000000e+03 5.106146812438964844e+00 3.720174431800842285e-01 1.463580294512212276e-03 -1.377631269861012697e-04 3.977451415266841650e-04 -2.364968968322500587e-04
3.135000000000000000e+03 6.055817127227783203e+00 1.115712046623229980e+00 1.600711024366319180e-03 -1.177538433694280684e-04 4.448871768545359373e-04 -5.842719692736864090e-04
3.136000000000000000e+03 6.621888637542724609e+00 3.785927593708038330e-01 2.217401051893830299e-03 -1.364958152407780290e-04 6.242715171538293362e-04 -2.267969539389014244e-04
3.137000000000000000e+03 8.261940002441406250e+00 1.120628595352172852e+00 2.554930979385972023e-03 -3.158591425744816661e-05 7.570034940727055073e-04 -1.756102574290707707e-04
3.138000000000000000e+03 8.998131752014160156e+00 1.123000979423522949e+00 2.377105876803398132e-03 -2.735093585215508938e-05 7.049264968372881413e-04 -3.861570439767092466e-04
3.139000000000000000e+03 9.655843734741210938e+00 3.871458470821380615e-01 3.308178158476948738e-03 1.266140898223966360e-04 1.030437648296356201e-03 -1.936604239745065570e-04
3.140000000000000000e+03 7.526385784149169922e+00 1.119639039039611816e+00 2.061486477032303810e-03 -1.110825469368137419e-04 5.851211608387529850e-04 -5.114633822813630104e-04
3.141000000000000000e+03 6.791122913360595703e+00 1.118592739105224609e+00 2.126623177900910378e-03 1.974468978005461395e-05 6.439103744924068451e-04 -3.297225630376487970e-04
3.142000000000000000e+03 4.585180759429931641e+00 1.110704541206359863e+00 1.052896725013852119e-03 -5.313466317602433264e-05 2.999286225531250238e-04 -5.550779751501977444e-04
3.143000000000000000e+03 3.849503755569458008e+00 1.107661724090576172e+00 9.556195582263171673e-04 8.433096081716939807e-05 3.119851462543010712e-04 -4.759593575727194548e-04
3.144000000000000000e+03 1.005617380142211914e+00 1.134804964065551758e+00 -2.211596292909234762e-04 3.126958617940545082e-04 2.746086647675838321e-05 -8.463267295155674219e-05
3.145000000000000000e+03 3.521488606929779053e-01 9.576021432876586914e-01 -3.693371836561709642e-04 -2.242026384919881821e-04 -1.780619495548307896e-04 -1.552857283968478441e-04
3.146000000000000000e+03 1.473077964782714844e+01 -1.259489893913269043e+00 -2.468944191932678223e-01 3.763302229344844818e-03 -7.293933629989624023e-02 1.294337492436170578e-02
3.147000000000000000e+03 1.399090099334716797e+01 -1.125491499900817871e+00 -1.879018396139144897e-01 -1.012755907140672207e-03 -5.667437985539436340e-02 5.929945036768913269e-03
3.148000000000000000e+03 1.312020874023437500e+01 -1.719582676887512207e+00 -1.691568791866302490e-01 6.740007549524307251e-03 -4.872506111860275269e-02 -3.638498485088348389e-02
3.149000000000000000e+03 1.535054302215576172e+01 -2.123512268066406250e+00 -3.276830911636352539e-01 1.356801390647888184e-02 -9.423452615737915039e-02 -4.828848689794540405e-02
3.150000000000000000e+03 1.547062015533447266e+01 -1.393221139907836914e+00 -3.208072781562805176e-01 -4.651646129786968231e-03 -9.763767570257186890e-02 1.594750396907329559e-02
3.151000000000000000e+03 1.460713481903076172e+01 -1.989134907722473145e+00 -2.710022032260894775e-01 9.299865923821926117e-03 -7.851070165634155273e-02 -4.613141342997550964e-02
3.152000000000000000e+03 1.325099086761474609e+01 -9.912301898002624512e-01 -1.376542299985885620e-01 3.428143216297030449e-03 -4.026782512664794922e-02 2.685083309188485146e-03
3.153000000000000000e+03 1.386368751525878906e+01 -1.854490160942077637e+00 -2.147834450006484985e-01 1.156215928494930267e-02 -6.096638739109039307e-02 -3.889681398868560791e-02
3.154000000000000000e+03 1.105858802795410156e+01 -5.865809917449951172e-01 -3.641384840011596680e-02 1.079081630450673401e-05 -1.092091761529445648e-02 -5.021866876631975174e-03
3.155000000000000000e+03 1.167972469329833984e+01 -1.452614903450012207e+00 -9.691791236400604248e-02 3.534555900841951370e-03 -2.801500819623470306e-02 -2.780283801257610321e-02
3.156000000000000000e+03 1.025387477874755859e+01 -1.193646550178527832e+00 -4.641775414347648621e-02 -1.067495759343728423e-04 -1.395735144615173340e-02 -1.915767975151538849e-02
3.157000000000000000e+03 1.239226341247558594e+01 -1.585148334503173828e+00 -1.288707554340362549e-01 7.678399328142404556e-03 -3.635770827531814575e-02 -3.098626248538494110e-02
3.158000000000000000e+03 1.251665687561035156e+01 -8.556226491928100586e-01 -9.663579612970352173e-02 -1.591131003806367517e-04 -2.903847210109233856e-02 -1.488380250521004200e-03
3.159000000000000000e+03 1.178777027130126953e+01 -7.200965881347656250e-01 -6.263164430856704712e-02 3.006777726113796234e-03 -1.788746006786823273e-02 -3.039106028154492378e-03
3.160000000000000000e+03 1.096688938140869141e+01 -1.322091937065124512e+00 -6.884574890136718750e-02 3.758815117180347443e-03 -1.952608115971088409e-02 -2.280376106500625610e-02
3.161000000000000000e+03 1.032922649383544922e+01 -4.551429152488708496e-01 -1.649895310401916504e-02 2.020882675424218178e-03 -4.343421198427677155e-03 -4.988138098269701004e-03
3.162000000000000000e+03 8.732760429382324219e+00 -1.120617032051086426e+00 -1.695170439779758453e-02 -2.759331604465842247e-03 -5.913310684263706207e-03 -1.395813748240470886e-02
3.163000000000000000e+03 8.744119644165039062e+00 -3.806170821189880371e-01 7.813191041350364685e-03 4.509370482992380857e-04 2.479238435626029968e-03 -4.146889783442020416e-03
3.164000000000000000e+03 9.557686805725097656e+00 -3.860147297382354736e-01 -2.888140035793185234e-03 -1.184550463221967220e-03 -1.221807207912206650e-03 -5.068555939942598343e-03
3.165000000000000000e+03 7.929113388061523438e+00 -3.783791959285736084e-01 1.635615713894367218e-02 -1.211280003190040588e-03 4.543462768197059631e-03 -3.266502404585480690e-03
3.166000000000000000e+03 6.294783592224121094e+00 -3.763209879398345947e-01 2.579493448138237000e-02 -1.015668502077460289e-03 7.433780003339052200e-03 -8.791969739831984043e-04
3.167000000000000000e+03 5.471644878387451172e+00 -3.752553761005401611e-01 2.636615186929702759e-02 -9.771926124813035131e-05 7.880529388785362244e-03 3.152888966724276543e-04
3.168000000000000000e+03 4.613348007202148438e+00 -3.803671598434448242e-01 2.416533045470714569e-02 -7.520201615989208221e-04 7.023993413895368576e-03 1.389662967994809151e-03
3.169000000000000000e+03 3.732568025588989258e+00 -3.332802653312683105e-01 2.061280980706214905e-02 4.120320081710815430e-04 6.307452451437711716e-03 1.801326405256986618e-03
3.170000000000000000e+03 3.565870285034179688e+00 -8.610453605651855469e-01 1.276036072522401810e-02 -8.567066397517919540e-04 3.571096342056989670e-03 4.955524578690528870e-03
3.171000000000000000e+03 2.136041402816772461e+00 -7.255376577377319336e-01 7.306648883968591690e-03 4.267940530553460121e-04 2.320032799616456032e-03 4.933750722557306290e-03
3.172000000000000000e+03 1.105533838272094727e+00 -3.810451924800872803e-01 2.754117362201213837e-03 -3.134635044261813164e-04 7.321961456909775734e-04 1.298213959671556950e-03
3.173000000000000000e+03 3.938522040843963623e-01 -5.564679503440856934e-01 3.475765988696366549e-04 1.064634416252374649e-03 4.236632958054542542e-04 6.049925577826797962e-04
3.174000000000000000e+03 6.703363060951232910e-01 -1.121045231819152832e+00 1.054977532476186752e-03 2.332802629098296165e-03 1.016334048472344875e-03 2.749267034232616425e-03
3.175000000000000000e+03 9.509115219116210938e+00 -1.126014709472656250e+00 -2.882296405732631683e-02 -2.450162719469517469e-04 -8.720394223928451538e-03 -1.565735228359699249e-02
3.176000000000000000e+03 7.954967498779296875e+00 -1.118379235267639160e+00 -6.786363199353218079e-03 -1.893248409032821655e-03 -2.603883622214198112e-03 -1.056396309286355972e-02
3.177000000000000000e+03 7.175180912017822266e+00 -1.117205142974853516e+00 6.368525209836661816e-04 -3.182260319590568542e-03 -7.636223454028367996e-04 -7.578657474368810654e-03
3.178000000000000000e+03 6.395063877105712891e+00 -1.116320967674255371e+00 6.251469720155000687e-03 -2.171601634472608566e-03 1.223960425704717636e-03 -3.945291042327880859e-03
3.179000000000000000e+03 5.609138011932373047e+00 -1.115255355834960938e+00 9.580431506037712097e-03 -2.851590514183044434e-03 2.018652390688657761e-03 -9.519575396552681923e-04
3.180000000000000000e+03 4.788054466247558594e+00 -1.120367169380187988e+00 1.091648917645215988e-02 -1.719876192510128021e-03 2.758983988314867020e-03 2.080744132399559021e-03
3.181000000000000000e+03 4.061712265014648438e+00 -1.217836499214172363e+00 9.187155403196811676e-03 -2.133664442226290703e-03 2.116047311574220657e-03 3.998410422354936600e-03
3.182000000000000000e+03 3.415162801742553711e+00 -1.287765026092529297e+00 6.980577949434518814e-03 -1.577959512360394001e-03 1.620785449631512165e-03 5.650401581078767776e-03
3.183000000000000000e+03 2.701009988784790039e+00 -1.257357716560363770e+00 6.375011987984180450e-03 -7.932037115097045898e-04 1.674542436376214027e-03 7.156899198889732361e-03
3.184000000000000000e+03 1.974916696548461914e+00 -1.234486579895019531e+00 5.287116393446922302e-03 1.554366433992981911e-03 2.052444731816649437e-03 7.370707113295793533e-03
3.185000000000000000e+03 7.112113475799560547e+00 -3.772051930427551270e-01 2.253852598369121552e-02 1.029057748382911086e-04 6.792429834604263306e-03 -2.034506760537624359e-03
3.186000000000000000e+03 2.813032150268554688e+00 -7.646003365516662598e-01 1.133258827030658722e-02 -1.395215804222971201e-04 3.357920097187161446e-03 5.344520322978496552e-03
3.187000000000000000e+03 2.897913694381713867e+00 -2.672426402568817139e-01 1.493092440068721771e-02 -4.751916858367621899e-04 4.336719866842031479e-03 1.723702764138579369e-03
3.188000000000000000e+03 1.625427722930908203e+00 -5.587234497070312500e-01 5.357633344829082489e-03 5.882754339836537838e-04 1.783772720955312252e-03 3.424210706725716591e-03
3.189000000000000000e+03 1.293549656867980957e+00 -1.184639215469360352e+00 1.979750348255038261e-03 2.706036902964115143e-03 1.405736198648810387e-03 4.957312252372503281e-03
3.190000000000000000e+03 2.151047229766845703e+00 -2.510510981082916260e-01 9.419226087629795074e-03 6.704443949274718761e-04 3.026901045814156532e-03 1.429821364581584930e-03
3.191000000000000000e+03 4.672369003295898438e+01 1.778536438941955566e+00 3.371942520141601562e+01 4.531010150909423828e+00 1.147513008117675781e+01 1.014885997772216797e+01
3.192000000000000000e+03 4.672533416748046875e+01 1.759137988090515137e+00 3.377560806274414062e+01 1.502770519256591797e+01 1.464099407196044922e+01 2.359293365478515625e+01
3.193000000000000000e+03 4.673072814941406250e+01 1.740431189537048340e+00 3.285437393188476562e+01 2.780872917175292969e+01 1.819893074035644531e+01 2.921917724609375000e+01
3.194000000000000000e+03 4.673965835571289062e+01 1.723131895065307617e+00 2.948417854309082031e+01 4.076506805419921875e+01 2.107477378845214844e+01 3.217721557617187500e+01
3.195000000000000000e+03 4.675178527832031250e+01 1.707902073860168457e+00 2.618747520446777344e+01 5.447578048706054688e+01 2.419897651672363281e+01 3.163319015502929688e+01
3.196000000000000000e+03 4.676664352416992188e+01 1.695324659347534180e+00 2.185656356811523438e+01 6.610045623779296875e+01 2.638710594177246094e+01 2.849711990356445312e+01
3.197000000000000000e+03 4.678366851806640625e+01 1.685880780220031738e+00 1.929636001586914062e+01 7.614088439941406250e+01 2.863117218017578125e+01 2.248262405395507812e+01
3.198000000000000000e+03 4.680220413208007812e+01 1.679931879043579102e+00 1.746533012390136719e+01 8.238385009765625000e+01 2.995475578308105469e+01 1.494967842102050781e+01
3.199000000000000000e+03 4.682154464721679688e+01 1.677705645561218262e+00 1.863763427734375000e+01 8.538601684570312500e+01 3.120709609985351562e+01 6.633862495422363281e+00
3.200000000000000000e+03 4.684095001220703125e+01 1.679287314414978027e+00 2.129696273803710938e+01 8.454423522949218750e+01 3.175236129760742188e+01 -1.102216362953186035e+00
3.201000000000000000e+03 4.685967254638671875e+01 1.684616208076477051e+00 2.633312988281250000e+01 8.107103729248046875e+01 3.222124862670898438e+01 -7.251012325286865234e+00
3.202000000000000000e+03 4.687700271606445312e+01 1.693488478660583496e+00 3.183523178100585938e+01 7.550713348388671875e+01 3.220270919799804688e+01 -1.121313953399658203e+01
3.203000000000000000e+03 4.689227294921875000e+01 1.705564618110656738e+00 3.834785461425781250e+01 6.948670196533203125e+01 3.235036849975585938e+01 -1.258601474761962891e+01
3.204000000000000000e+03 4.690489959716796875e+01 1.720382571220397949e+00 4.336941909790039062e+01 6.327039718627929688e+01 3.199194526672363281e+01 -1.192910099029541016e+01
3.205000000000000000e+03 4.691439819335937500e+01 1.737375140190124512e+00 4.841925430297851562e+01 5.907593154907226562e+01 3.224855422973632812e+01 -8.899917602539062500e+00
3.206000000000000000e+03 4.692041015625000000e+01 1.755892157554626465e+00 5.083733367919921875e+01 5.507765960693359375e+01 3.177449798583984375e+01 -5.038326263427734375e+00
3.207000000000000000e+03 4.692270278930664062e+01 1.775225162506103516e+00 5.263772583007812500e+01 5.519691085815429688e+01 3.235039138793945312e+01 4.597846418619155884e-02
3.208000000000000000e+03 4.692118453979492188e+01 1.794634222984313965e+00 5.135869979858398438e+01 5.481939697265625000e+01 3.185342979431152344e+01 5.120765686035156250e+00
3.209000000000000000e+03 4.691591644287109375e+01 1.813376426696777344e+00 4.944574356079101562e+01 5.930979156494140625e+01 3.262666320800781250e+01 9.402322769165039062e+00
3.210000000000000000e+03 4.690710449218750000e+01 1.830734848976135254e+00 4.436935806274414062e+01 6.334490966796875000e+01 3.231428146362304688e+01 1.300973129272460938e+01
3.211000000000000000e+03 4.689507675170898438e+01 1.846045136451721191e+00 3.906810379028320312e+01 7.007550811767578125e+01 3.274308395385742188e+01 1.420874404907226562e+01
3.212000000000000000e+03 4.688030242919921875e+01 1.858721375465393066e+00 3.223526382446289062e+01 7.640973663330078125e+01 3.259350204467773438e+01 1.333978652954101562e+01
3.213000000000000000e+03 4.686334228515625000e+01 1.868278503417968750e+00 2.568073844909667969e+01 8.253435516357421875e+01 3.246452713012695312e+01 9.684802055358886719e+00
3.214000000000000000e+03 4.684484481811523438e+01 1.874350786209106445e+00 2.029353141784667969e+01 8.669283294677734375e+01 3.209590911865234375e+01 3.795111656188964844e+00
3.215000000000000000e+03 4.682551956176757812e+01 1.876705884933471680e+00 1.587996196746826172e+01 8.783645629882812500e+01 3.111492729187011719e+01 -4.038777351379394531e+00
3.216000000000000000e+03 4.680610656738281250e+01 1.875253677368164062e+00 1.513840961456298828e+01 8.604700469970703125e+01 3.035562515258789062e+01 -1.235095787048339844e+01
3.217000000000000000e+03 4.678734588623046875e+01 1.870049715042114258e+00 1.521779918670654297e+01 7.954409027099609375e+01 2.842856597900390625e+01 -2.087872886657714844e+01
3.218000000000000000e+03 4.676995849609375000e+01 1.861293077468872070e+00 1.863061714172363281e+01 7.070165252685546875e+01 2.679968070983886719e+01 -2.718536758422851562e+01
3.219000000000000000e+03 4.675460815429687500e+01 1.849318981170654297e+00 2.286213111877441406e+01 5.796533203125000000e+01 2.424823951721191406e+01 -3.149365997314453125e+01
3.220000000000000000e+03 4.674188232421875000e+01 1.834585547447204590e+00 2.814241790771484375e+01 4.385030746459960938e+01 2.159781646728515625e+01 -3.233280944824218750e+01
3.221000000000000000e+03 4.673226928710937500e+01 1.817656636238098145e+00 3.289632034301757812e+01 2.886285781860351562e+01 1.852775382995605469e+01 -2.946354866027832031e+01
3.222000000000000000e+03 4.672613525390625000e+01 1.799180030822753906e+00 3.934317016601562500e+01 1.160038661956787109e+01 1.528306674957275391e+01 -1.873666381835937500e+01
